# vtk DataFile Version 3.0
vtk output
ASCII
DATASET UNSTRUCTURED_GRID
POINTS       496 double 
  0.00000000E+00  3.00000000E+02  0.00000000E+00
  0.00000000E+00  2.80000000E+02  0.00000000E+00
  0.00000000E+00  2.60000000E+02  0.00000000E+00
  0.00000000E+00  2.40000000E+02  0.00000000E+00
  0.00000000E+00  2.20000000E+02  0.00000000E+00
  0.00000000E+00  2.00000000E+02  0.00000000E+00
  0.00000000E+00  1.80000000E+02  0.00000000E+00
  0.00000000E+00  1.60000000E+02  0.00000000E+00
  0.00000000E+00  1.40000000E+02  0.00000000E+00
  0.00000000E+00  1.20000000E+02  0.00000000E+00
  0.00000000E+00  1.00000000E+02  0.00000000E+00
  0.00000000E+00  8.00000000E+01  0.00000000E+00
  0.00000000E+00  6.00000000E+01  0.00000000E+00
  0.00000000E+00  4.00000000E+01  0.00000000E+00
  0.00000000E+00  2.00000000E+01  0.00000000E+00
  0.00000000E+00  4.99600361E-14  0.00000000E+00
  2.00000000E+01  3.00000000E+02  0.00000000E+00
  2.00000000E+01  2.80000000E+02  0.00000000E+00
  2.00000000E+01  2.60000000E+02  0.00000000E+00
  2.00000000E+01  2.40000000E+02  0.00000000E+00
  2.00000000E+01  2.20000000E+02  0.00000000E+00
  2.00000000E+01  2.00000000E+02  0.00000000E+00
  2.00000000E+01  1.80000000E+02  0.00000000E+00
  2.00000000E+01  1.60000000E+02  0.00000000E+00
  2.00000000E+01  1.40000000E+02  0.00000000E+00
  2.00000000E+01  1.20000000E+02  0.00000000E+00
  2.00000000E+01  1.00000000E+02  0.00000000E+00
  2.00000000E+01  8.00000000E+01  0.00000000E+00
  2.00000000E+01  6.00000000E+01  0.00000000E+00
  2.00000000E+01  4.00000000E+01  0.00000000E+00
  2.00000000E+01  2.00000000E+01  0.00000000E+00
  2.00000000E+01  4.99600361E-14  0.00000000E+00
  4.00000000E+01  3.00000000E+02  0.00000000E+00
  4.00000000E+01  2.80000000E+02  0.00000000E+00
  4.00000000E+01  2.60000000E+02  0.00000000E+00
  4.00000000E+01  2.40000000E+02  0.00000000E+00
  4.00000000E+01  2.20000000E+02  0.00000000E+00
  4.00000000E+01  2.00000000E+02  0.00000000E+00
  4.00000000E+01  1.80000000E+02  0.00000000E+00
  4.00000000E+01  1.60000000E+02  0.00000000E+00
  4.00000000E+01  1.40000000E+02  0.00000000E+00
  4.00000000E+01  1.20000000E+02  0.00000000E+00
  4.00000000E+01  1.00000000E+02  0.00000000E+00
  4.00000000E+01  8.00000000E+01  0.00000000E+00
  4.00000000E+01  6.00000000E+01  0.00000000E+00
  4.00000000E+01  4.00000000E+01  0.00000000E+00
  4.00000000E+01  2.00000000E+01  0.00000000E+00
  4.00000000E+01  4.99600361E-14  0.00000000E+00
  6.00000000E+01  3.00000000E+02  0.00000000E+00
  6.00000000E+01  2.80000000E+02  0.00000000E+00
  6.00000000E+01  2.60000000E+02  0.00000000E+00
  6.00000000E+01  2.40000000E+02  0.00000000E+00
  6.00000000E+01  2.20000000E+02  0.00000000E+00
  6.00000000E+01  2.00000000E+02  0.00000000E+00
  6.00000000E+01  1.80000000E+02  0.00000000E+00
  6.00000000E+01  1.60000000E+02  0.00000000E+00
  6.00000000E+01  1.40000000E+02  0.00000000E+00
  6.00000000E+01  1.20000000E+02  0.00000000E+00
  6.00000000E+01  1.00000000E+02  0.00000000E+00
  6.00000000E+01  8.00000000E+01  0.00000000E+00
  6.00000000E+01  6.00000000E+01  0.00000000E+00
  6.00000000E+01  4.00000000E+01  0.00000000E+00
  6.00000000E+01  2.00000000E+01  0.00000000E+00
  6.00000000E+01  4.99600361E-14  0.00000000E+00
  8.00000000E+01  3.00000000E+02  0.00000000E+00
  8.00000000E+01  2.80000000E+02  0.00000000E+00
  8.00000000E+01  2.60000000E+02  0.00000000E+00
  8.00000000E+01  2.40000000E+02  0.00000000E+00
  8.00000000E+01  2.20000000E+02  0.00000000E+00
  8.00000000E+01  2.00000000E+02  0.00000000E+00
  8.00000000E+01  1.80000000E+02  0.00000000E+00
  8.00000000E+01  1.60000000E+02  0.00000000E+00
  8.00000000E+01  1.40000000E+02  0.00000000E+00
  8.00000000E+01  1.20000000E+02  0.00000000E+00
  8.00000000E+01  1.00000000E+02  0.00000000E+00
  8.00000000E+01  8.00000000E+01  0.00000000E+00
  8.00000000E+01  6.00000000E+01  0.00000000E+00
  8.00000000E+01  4.00000000E+01  0.00000000E+00
  8.00000000E+01  2.00000000E+01  0.00000000E+00
  8.00000000E+01  4.99600361E-14  0.00000000E+00
  1.00000000E+02  3.00000000E+02  0.00000000E+00
  1.00000000E+02  2.80000000E+02  0.00000000E+00
  1.00000000E+02  2.60000000E+02  0.00000000E+00
  1.00000000E+02  2.40000000E+02  0.00000000E+00
  1.00000000E+02  2.20000000E+02  0.00000000E+00
  1.00000000E+02  2.00000000E+02  0.00000000E+00
  1.00000000E+02  1.80000000E+02  0.00000000E+00
  1.00000000E+02  1.60000000E+02  0.00000000E+00
  1.00000000E+02  1.40000000E+02  0.00000000E+00
  1.00000000E+02  1.20000000E+02  0.00000000E+00
  1.00000000E+02  1.00000000E+02  0.00000000E+00
  1.00000000E+02  8.00000000E+01  0.00000000E+00
  1.00000000E+02  6.00000000E+01  0.00000000E+00
  1.00000000E+02  4.00000000E+01  0.00000000E+00
  1.00000000E+02  2.00000000E+01  0.00000000E+00
  1.00000000E+02  4.99600361E-14  0.00000000E+00
  1.20000000E+02  3.00000000E+02  0.00000000E+00
  1.20000000E+02  2.80000000E+02  0.00000000E+00
  1.20000000E+02  2.60000000E+02  0.00000000E+00
  1.20000000E+02  2.40000000E+02  0.00000000E+00
  1.20000000E+02  2.20000000E+02  0.00000000E+00
  1.20000000E+02  2.00000000E+02  0.00000000E+00
  1.20000000E+02  1.80000000E+02  0.00000000E+00
  1.20000000E+02  1.60000000E+02  0.00000000E+00
  1.20000000E+02  1.40000000E+02  0.00000000E+00
  1.20000000E+02  1.20000000E+02  0.00000000E+00
  1.20000000E+02  1.00000000E+02  0.00000000E+00
  1.20000000E+02  8.00000000E+01  0.00000000E+00
  1.20000000E+02  6.00000000E+01  0.00000000E+00
  1.20000000E+02  4.00000000E+01  0.00000000E+00
  1.20000000E+02  2.00000000E+01  0.00000000E+00
  1.20000000E+02  4.99600361E-14  0.00000000E+00
  1.40000000E+02  3.00000000E+02  0.00000000E+00
  1.40000000E+02  2.80000000E+02  0.00000000E+00
  1.40000000E+02  2.60000000E+02  0.00000000E+00
  1.40000000E+02  2.40000000E+02  0.00000000E+00
  1.40000000E+02  2.20000000E+02  0.00000000E+00
  1.40000000E+02  2.00000000E+02  0.00000000E+00
  1.40000000E+02  1.80000000E+02  0.00000000E+00
  1.40000000E+02  1.60000000E+02  0.00000000E+00
  1.40000000E+02  1.40000000E+02  0.00000000E+00
  1.40000000E+02  1.20000000E+02  0.00000000E+00
  1.40000000E+02  1.00000000E+02  0.00000000E+00
  1.40000000E+02  8.00000000E+01  0.00000000E+00
  1.40000000E+02  6.00000000E+01  0.00000000E+00
  1.40000000E+02  4.00000000E+01  0.00000000E+00
  1.40000000E+02  2.00000000E+01  0.00000000E+00
  1.40000000E+02  4.99600361E-14  0.00000000E+00
  1.60000000E+02  3.00000000E+02  0.00000000E+00
  1.60000000E+02  2.80000000E+02  0.00000000E+00
  1.60000000E+02  2.60000000E+02  0.00000000E+00
  1.60000000E+02  2.40000000E+02  0.00000000E+00
  1.60000000E+02  2.20000000E+02  0.00000000E+00
  1.60000000E+02  2.00000000E+02  0.00000000E+00
  1.60000000E+02  1.80000000E+02  0.00000000E+00
  1.60000000E+02  1.60000000E+02  0.00000000E+00
  1.60000000E+02  1.40000000E+02  0.00000000E+00
  1.60000000E+02  1.20000000E+02  0.00000000E+00
  1.60000000E+02  1.00000000E+02  0.00000000E+00
  1.60000000E+02  8.00000000E+01  0.00000000E+00
  1.60000000E+02  6.00000000E+01  0.00000000E+00
  1.60000000E+02  4.00000000E+01  0.00000000E+00
  1.60000000E+02  2.00000000E+01  0.00000000E+00
  1.60000000E+02  4.99600361E-14  0.00000000E+00
  1.80000000E+02  3.00000000E+02  0.00000000E+00
  1.80000000E+02  2.80000000E+02  0.00000000E+00
  1.80000000E+02  2.60000000E+02  0.00000000E+00
  1.80000000E+02  2.40000000E+02  0.00000000E+00
  1.80000000E+02  2.20000000E+02  0.00000000E+00
  1.80000000E+02  2.00000000E+02  0.00000000E+00
  1.80000000E+02  1.80000000E+02  0.00000000E+00
  1.80000000E+02  1.60000000E+02  0.00000000E+00
  1.80000000E+02  1.40000000E+02  0.00000000E+00
  1.80000000E+02  1.20000000E+02  0.00000000E+00
  1.80000000E+02  1.00000000E+02  0.00000000E+00
  1.80000000E+02  8.00000000E+01  0.00000000E+00
  1.80000000E+02  6.00000000E+01  0.00000000E+00
  1.80000000E+02  4.00000000E+01  0.00000000E+00
  1.80000000E+02  2.00000000E+01  0.00000000E+00
  1.80000000E+02  4.99600361E-14  0.00000000E+00
  2.00000000E+02  3.00000000E+02  0.00000000E+00
  2.00000000E+02  2.80000000E+02  0.00000000E+00
  2.00000000E+02  2.60000000E+02  0.00000000E+00
  2.00000000E+02  2.40000000E+02  0.00000000E+00
  2.00000000E+02  2.20000000E+02  0.00000000E+00
  2.00000000E+02  2.00000000E+02  0.00000000E+00
  2.00000000E+02  1.80000000E+02  0.00000000E+00
  2.00000000E+02  1.60000000E+02  0.00000000E+00
  2.00000000E+02  1.40000000E+02  0.00000000E+00
  2.00000000E+02  1.20000000E+02  0.00000000E+00
  2.00000000E+02  1.00000000E+02  0.00000000E+00
  2.00000000E+02  8.00000000E+01  0.00000000E+00
  2.00000000E+02  6.00000000E+01  0.00000000E+00
  2.00000000E+02  4.00000000E+01  0.00000000E+00
  2.00000000E+02  2.00000000E+01  0.00000000E+00
  2.00000000E+02  4.99600361E-14  0.00000000E+00
  2.20000000E+02  3.00000000E+02  0.00000000E+00
  2.20000000E+02  2.80000000E+02  0.00000000E+00
  2.20000000E+02  2.60000000E+02  0.00000000E+00
  2.20000000E+02  2.40000000E+02  0.00000000E+00
  2.20000000E+02  2.20000000E+02  0.00000000E+00
  2.20000000E+02  2.00000000E+02  0.00000000E+00
  2.20000000E+02  1.80000000E+02  0.00000000E+00
  2.20000000E+02  1.60000000E+02  0.00000000E+00
  2.20000000E+02  1.40000000E+02  0.00000000E+00
  2.20000000E+02  1.20000000E+02  0.00000000E+00
  2.20000000E+02  1.00000000E+02  0.00000000E+00
  2.20000000E+02  8.00000000E+01  0.00000000E+00
  2.20000000E+02  6.00000000E+01  0.00000000E+00
  2.20000000E+02  4.00000000E+01  0.00000000E+00
  2.20000000E+02  2.00000000E+01  0.00000000E+00
  2.20000000E+02  4.99600361E-14  0.00000000E+00
  2.40000000E+02  3.00000000E+02  0.00000000E+00
  2.40000000E+02  2.80000000E+02  0.00000000E+00
  2.40000000E+02  2.60000000E+02  0.00000000E+00
  2.40000000E+02  2.40000000E+02  0.00000000E+00
  2.40000000E+02  2.20000000E+02  0.00000000E+00
  2.40000000E+02  2.00000000E+02  0.00000000E+00
  2.40000000E+02  1.80000000E+02  0.00000000E+00
  2.40000000E+02  1.60000000E+02  0.00000000E+00
  2.40000000E+02  1.40000000E+02  0.00000000E+00
  2.40000000E+02  1.20000000E+02  0.00000000E+00
  2.40000000E+02  1.00000000E+02  0.00000000E+00
  2.40000000E+02  8.00000000E+01  0.00000000E+00
  2.40000000E+02  6.00000000E+01  0.00000000E+00
  2.40000000E+02  4.00000000E+01  0.00000000E+00
  2.40000000E+02  2.00000000E+01  0.00000000E+00
  2.40000000E+02  4.99600361E-14  0.00000000E+00
  2.60000000E+02  3.00000000E+02  0.00000000E+00
  2.60000000E+02  2.80000000E+02  0.00000000E+00
  2.60000000E+02  2.60000000E+02  0.00000000E+00
  2.60000000E+02  2.40000000E+02  0.00000000E+00
  2.60000000E+02  2.20000000E+02  0.00000000E+00
  2.60000000E+02  2.00000000E+02  0.00000000E+00
  2.60000000E+02  1.80000000E+02  0.00000000E+00
  2.60000000E+02  1.60000000E+02  0.00000000E+00
  2.60000000E+02  1.40000000E+02  0.00000000E+00
  2.60000000E+02  1.20000000E+02  0.00000000E+00
  2.60000000E+02  1.00000000E+02  0.00000000E+00
  2.60000000E+02  8.00000000E+01  0.00000000E+00
  2.60000000E+02  6.00000000E+01  0.00000000E+00
  2.60000000E+02  4.00000000E+01  0.00000000E+00
  2.60000000E+02  2.00000000E+01  0.00000000E+00
  2.60000000E+02  4.99600361E-14  0.00000000E+00
  2.80000000E+02  3.00000000E+02  0.00000000E+00
  2.80000000E+02  2.80000000E+02  0.00000000E+00
  2.80000000E+02  2.60000000E+02  0.00000000E+00
  2.80000000E+02  2.40000000E+02  0.00000000E+00
  2.80000000E+02  2.20000000E+02  0.00000000E+00
  2.80000000E+02  2.00000000E+02  0.00000000E+00
  2.80000000E+02  1.80000000E+02  0.00000000E+00
  2.80000000E+02  1.60000000E+02  0.00000000E+00
  2.80000000E+02  1.40000000E+02  0.00000000E+00
  2.80000000E+02  1.20000000E+02  0.00000000E+00
  2.80000000E+02  1.00000000E+02  0.00000000E+00
  2.80000000E+02  8.00000000E+01  0.00000000E+00
  2.80000000E+02  6.00000000E+01  0.00000000E+00
  2.80000000E+02  4.00000000E+01  0.00000000E+00
  2.80000000E+02  2.00000000E+01  0.00000000E+00
  2.80000000E+02  4.99600361E-14  0.00000000E+00
  3.00000000E+02  3.00000000E+02  0.00000000E+00
  3.00000000E+02  2.80000000E+02  0.00000000E+00
  3.00000000E+02  2.60000000E+02  0.00000000E+00
  3.00000000E+02  2.40000000E+02  0.00000000E+00
  3.00000000E+02  2.20000000E+02  0.00000000E+00
  3.00000000E+02  2.00000000E+02  0.00000000E+00
  3.00000000E+02  1.80000000E+02  0.00000000E+00
  3.00000000E+02  1.60000000E+02  0.00000000E+00
  3.00000000E+02  1.40000000E+02  0.00000000E+00
  3.00000000E+02  1.20000000E+02  0.00000000E+00
  3.00000000E+02  1.00000000E+02  0.00000000E+00
  3.00000000E+02  8.00000000E+01  0.00000000E+00
  3.00000000E+02  6.00000000E+01  0.00000000E+00
  3.00000000E+02  4.00000000E+01  0.00000000E+00
  3.00000000E+02  2.00000000E+01  0.00000000E+00
  3.00000000E+02  4.99600361E-14  0.00000000E+00
  3.20000000E+02  3.00000000E+02  0.00000000E+00
  3.20000000E+02  2.80000000E+02  0.00000000E+00
  3.20000000E+02  2.60000000E+02  0.00000000E+00
  3.20000000E+02  2.40000000E+02  0.00000000E+00
  3.20000000E+02  2.20000000E+02  0.00000000E+00
  3.20000000E+02  2.00000000E+02  0.00000000E+00
  3.20000000E+02  1.80000000E+02  0.00000000E+00
  3.20000000E+02  1.60000000E+02  0.00000000E+00
  3.20000000E+02  1.40000000E+02  0.00000000E+00
  3.20000000E+02  1.20000000E+02  0.00000000E+00
  3.20000000E+02  1.00000000E+02  0.00000000E+00
  3.20000000E+02  8.00000000E+01  0.00000000E+00
  3.20000000E+02  6.00000000E+01  0.00000000E+00
  3.20000000E+02  4.00000000E+01  0.00000000E+00
  3.20000000E+02  2.00000000E+01  0.00000000E+00
  3.20000000E+02  4.99600361E-14  0.00000000E+00
  3.40000000E+02  3.00000000E+02  0.00000000E+00
  3.40000000E+02  2.80000000E+02  0.00000000E+00
  3.40000000E+02  2.60000000E+02  0.00000000E+00
  3.40000000E+02  2.40000000E+02  0.00000000E+00
  3.40000000E+02  2.20000000E+02  0.00000000E+00
  3.40000000E+02  2.00000000E+02  0.00000000E+00
  3.40000000E+02  1.80000000E+02  0.00000000E+00
  3.40000000E+02  1.60000000E+02  0.00000000E+00
  3.40000000E+02  1.40000000E+02  0.00000000E+00
  3.40000000E+02  1.20000000E+02  0.00000000E+00
  3.40000000E+02  1.00000000E+02  0.00000000E+00
  3.40000000E+02  8.00000000E+01  0.00000000E+00
  3.40000000E+02  6.00000000E+01  0.00000000E+00
  3.40000000E+02  4.00000000E+01  0.00000000E+00
  3.40000000E+02  2.00000000E+01  0.00000000E+00
  3.40000000E+02  4.99600361E-14  0.00000000E+00
  3.60000000E+02  3.00000000E+02  0.00000000E+00
  3.60000000E+02  2.80000000E+02  0.00000000E+00
  3.60000000E+02  2.60000000E+02  0.00000000E+00
  3.60000000E+02  2.40000000E+02  0.00000000E+00
  3.60000000E+02  2.20000000E+02  0.00000000E+00
  3.60000000E+02  2.00000000E+02  0.00000000E+00
  3.60000000E+02  1.80000000E+02  0.00000000E+00
  3.60000000E+02  1.60000000E+02  0.00000000E+00
  3.60000000E+02  1.40000000E+02  0.00000000E+00
  3.60000000E+02  1.20000000E+02  0.00000000E+00
  3.60000000E+02  1.00000000E+02  0.00000000E+00
  3.60000000E+02  8.00000000E+01  0.00000000E+00
  3.60000000E+02  6.00000000E+01  0.00000000E+00
  3.60000000E+02  4.00000000E+01  0.00000000E+00
  3.60000000E+02  2.00000000E+01  0.00000000E+00
  3.60000000E+02  4.99600361E-14  0.00000000E+00
  3.80000000E+02  3.00000000E+02  0.00000000E+00
  3.80000000E+02  2.80000000E+02  0.00000000E+00
  3.80000000E+02  2.60000000E+02  0.00000000E+00
  3.80000000E+02  2.40000000E+02  0.00000000E+00
  3.80000000E+02  2.20000000E+02  0.00000000E+00
  3.80000000E+02  2.00000000E+02  0.00000000E+00
  3.80000000E+02  1.80000000E+02  0.00000000E+00
  3.80000000E+02  1.60000000E+02  0.00000000E+00
  3.80000000E+02  1.40000000E+02  0.00000000E+00
  3.80000000E+02  1.20000000E+02  0.00000000E+00
  3.80000000E+02  1.00000000E+02  0.00000000E+00
  3.80000000E+02  8.00000000E+01  0.00000000E+00
  3.80000000E+02  6.00000000E+01  0.00000000E+00
  3.80000000E+02  4.00000000E+01  0.00000000E+00
  3.80000000E+02  2.00000000E+01  0.00000000E+00
  3.80000000E+02  4.99600361E-14  0.00000000E+00
  4.00000000E+02  3.00000000E+02  0.00000000E+00
  4.00000000E+02  2.80000000E+02  0.00000000E+00
  4.00000000E+02  2.60000000E+02  0.00000000E+00
  4.00000000E+02  2.40000000E+02  0.00000000E+00
  4.00000000E+02  2.20000000E+02  0.00000000E+00
  4.00000000E+02  2.00000000E+02  0.00000000E+00
  4.00000000E+02  1.80000000E+02  0.00000000E+00
  4.00000000E+02  1.60000000E+02  0.00000000E+00
  4.00000000E+02  1.40000000E+02  0.00000000E+00
  4.00000000E+02  1.20000000E+02  0.00000000E+00
  4.00000000E+02  1.00000000E+02  0.00000000E+00
  4.00000000E+02  8.00000000E+01  0.00000000E+00
  4.00000000E+02  6.00000000E+01  0.00000000E+00
  4.00000000E+02  4.00000000E+01  0.00000000E+00
  4.00000000E+02  2.00000000E+01  0.00000000E+00
  4.00000000E+02  4.99600361E-14  0.00000000E+00
  4.20000000E+02  3.00000000E+02  0.00000000E+00
  4.20000000E+02  2.80000000E+02  0.00000000E+00
  4.20000000E+02  2.60000000E+02  0.00000000E+00
  4.20000000E+02  2.40000000E+02  0.00000000E+00
  4.20000000E+02  2.20000000E+02  0.00000000E+00
  4.20000000E+02  2.00000000E+02  0.00000000E+00
  4.20000000E+02  1.80000000E+02  0.00000000E+00
  4.20000000E+02  1.60000000E+02  0.00000000E+00
  4.20000000E+02  1.40000000E+02  0.00000000E+00
  4.20000000E+02  1.20000000E+02  0.00000000E+00
  4.20000000E+02  1.00000000E+02  0.00000000E+00
  4.20000000E+02  8.00000000E+01  0.00000000E+00
  4.20000000E+02  6.00000000E+01  0.00000000E+00
  4.20000000E+02  4.00000000E+01  0.00000000E+00
  4.20000000E+02  2.00000000E+01  0.00000000E+00
  4.20000000E+02  4.99600361E-14  0.00000000E+00
  4.40000000E+02  3.00000000E+02  0.00000000E+00
  4.40000000E+02  2.80000000E+02  0.00000000E+00
  4.40000000E+02  2.60000000E+02  0.00000000E+00
  4.40000000E+02  2.40000000E+02  0.00000000E+00
  4.40000000E+02  2.20000000E+02  0.00000000E+00
  4.40000000E+02  2.00000000E+02  0.00000000E+00
  4.40000000E+02  1.80000000E+02  0.00000000E+00
  4.40000000E+02  1.60000000E+02  0.00000000E+00
  4.40000000E+02  1.40000000E+02  0.00000000E+00
  4.40000000E+02  1.20000000E+02  0.00000000E+00
  4.40000000E+02  1.00000000E+02  0.00000000E+00
  4.40000000E+02  8.00000000E+01  0.00000000E+00
  4.40000000E+02  6.00000000E+01  0.00000000E+00
  4.40000000E+02  4.00000000E+01  0.00000000E+00
  4.40000000E+02  2.00000000E+01  0.00000000E+00
  4.40000000E+02  4.99600361E-14  0.00000000E+00
  4.60000000E+02  3.00000000E+02  0.00000000E+00
  4.60000000E+02  2.80000000E+02  0.00000000E+00
  4.60000000E+02  2.60000000E+02  0.00000000E+00
  4.60000000E+02  2.40000000E+02  0.00000000E+00
  4.60000000E+02  2.20000000E+02  0.00000000E+00
  4.60000000E+02  2.00000000E+02  0.00000000E+00
  4.60000000E+02  1.80000000E+02  0.00000000E+00
  4.60000000E+02  1.60000000E+02  0.00000000E+00
  4.60000000E+02  1.40000000E+02  0.00000000E+00
  4.60000000E+02  1.20000000E+02  0.00000000E+00
  4.60000000E+02  1.00000000E+02  0.00000000E+00
  4.60000000E+02  8.00000000E+01  0.00000000E+00
  4.60000000E+02  6.00000000E+01  0.00000000E+00
  4.60000000E+02  4.00000000E+01  0.00000000E+00
  4.60000000E+02  2.00000000E+01  0.00000000E+00
  4.60000000E+02  4.99600361E-14  0.00000000E+00
  4.80000000E+02  3.00000000E+02  0.00000000E+00
  4.80000000E+02  2.80000000E+02  0.00000000E+00
  4.80000000E+02  2.60000000E+02  0.00000000E+00
  4.80000000E+02  2.40000000E+02  0.00000000E+00
  4.80000000E+02  2.20000000E+02  0.00000000E+00
  4.80000000E+02  2.00000000E+02  0.00000000E+00
  4.80000000E+02  1.80000000E+02  0.00000000E+00
  4.80000000E+02  1.60000000E+02  0.00000000E+00
  4.80000000E+02  1.40000000E+02  0.00000000E+00
  4.80000000E+02  1.20000000E+02  0.00000000E+00
  4.80000000E+02  1.00000000E+02  0.00000000E+00
  4.80000000E+02  8.00000000E+01  0.00000000E+00
  4.80000000E+02  6.00000000E+01  0.00000000E+00
  4.80000000E+02  4.00000000E+01  0.00000000E+00
  4.80000000E+02  2.00000000E+01  0.00000000E+00
  4.80000000E+02  4.99600361E-14  0.00000000E+00
  5.00000000E+02  3.00000000E+02  0.00000000E+00
  5.00000000E+02  2.80000000E+02  0.00000000E+00
  5.00000000E+02  2.60000000E+02  0.00000000E+00
  5.00000000E+02  2.40000000E+02  0.00000000E+00
  5.00000000E+02  2.20000000E+02  0.00000000E+00
  5.00000000E+02  2.00000000E+02  0.00000000E+00
  5.00000000E+02  1.80000000E+02  0.00000000E+00
  5.00000000E+02  1.60000000E+02  0.00000000E+00
  5.00000000E+02  1.40000000E+02  0.00000000E+00
  5.00000000E+02  1.20000000E+02  0.00000000E+00
  5.00000000E+02  1.00000000E+02  0.00000000E+00
  5.00000000E+02  8.00000000E+01  0.00000000E+00
  5.00000000E+02  6.00000000E+01  0.00000000E+00
  5.00000000E+02  4.00000000E+01  0.00000000E+00
  5.00000000E+02  2.00000000E+01  0.00000000E+00
  5.00000000E+02  4.99600361E-14  0.00000000E+00
  5.20000000E+02  3.00000000E+02  0.00000000E+00
  5.20000000E+02  2.80000000E+02  0.00000000E+00
  5.20000000E+02  2.60000000E+02  0.00000000E+00
  5.20000000E+02  2.40000000E+02  0.00000000E+00
  5.20000000E+02  2.20000000E+02  0.00000000E+00
  5.20000000E+02  2.00000000E+02  0.00000000E+00
  5.20000000E+02  1.80000000E+02  0.00000000E+00
  5.20000000E+02  1.60000000E+02  0.00000000E+00
  5.20000000E+02  1.40000000E+02  0.00000000E+00
  5.20000000E+02  1.20000000E+02  0.00000000E+00
  5.20000000E+02  1.00000000E+02  0.00000000E+00
  5.20000000E+02  8.00000000E+01  0.00000000E+00
  5.20000000E+02  6.00000000E+01  0.00000000E+00
  5.20000000E+02  4.00000000E+01  0.00000000E+00
  5.20000000E+02  2.00000000E+01  0.00000000E+00
  5.20000000E+02  4.99600361E-14  0.00000000E+00
  5.40000000E+02  3.00000000E+02  0.00000000E+00
  5.40000000E+02  2.80000000E+02  0.00000000E+00
  5.40000000E+02  2.60000000E+02  0.00000000E+00
  5.40000000E+02  2.40000000E+02  0.00000000E+00
  5.40000000E+02  2.20000000E+02  0.00000000E+00
  5.40000000E+02  2.00000000E+02  0.00000000E+00
  5.40000000E+02  1.80000000E+02  0.00000000E+00
  5.40000000E+02  1.60000000E+02  0.00000000E+00
  5.40000000E+02  1.40000000E+02  0.00000000E+00
  5.40000000E+02  1.20000000E+02  0.00000000E+00
  5.40000000E+02  1.00000000E+02  0.00000000E+00
  5.40000000E+02  8.00000000E+01  0.00000000E+00
  5.40000000E+02  6.00000000E+01  0.00000000E+00
  5.40000000E+02  4.00000000E+01  0.00000000E+00
  5.40000000E+02  2.00000000E+01  0.00000000E+00
  5.40000000E+02  4.99600361E-14  0.00000000E+00
  5.60000000E+02  3.00000000E+02  0.00000000E+00
  5.60000000E+02  2.80000000E+02  0.00000000E+00
  5.60000000E+02  2.60000000E+02  0.00000000E+00
  5.60000000E+02  2.40000000E+02  0.00000000E+00
  5.60000000E+02  2.20000000E+02  0.00000000E+00
  5.60000000E+02  2.00000000E+02  0.00000000E+00
  5.60000000E+02  1.80000000E+02  0.00000000E+00
  5.60000000E+02  1.60000000E+02  0.00000000E+00
  5.60000000E+02  1.40000000E+02  0.00000000E+00
  5.60000000E+02  1.20000000E+02  0.00000000E+00
  5.60000000E+02  1.00000000E+02  0.00000000E+00
  5.60000000E+02  8.00000000E+01  0.00000000E+00
  5.60000000E+02  6.00000000E+01  0.00000000E+00
  5.60000000E+02  4.00000000E+01  0.00000000E+00
  5.60000000E+02  2.00000000E+01  0.00000000E+00
  5.60000000E+02  4.99600361E-14  0.00000000E+00
  5.80000000E+02  3.00000000E+02  0.00000000E+00
  5.80000000E+02  2.80000000E+02  0.00000000E+00
  5.80000000E+02  2.60000000E+02  0.00000000E+00
  5.80000000E+02  2.40000000E+02  0.00000000E+00
  5.80000000E+02  2.20000000E+02  0.00000000E+00
  5.80000000E+02  2.00000000E+02  0.00000000E+00
  5.80000000E+02  1.80000000E+02  0.00000000E+00
  5.80000000E+02  1.60000000E+02  0.00000000E+00
  5.80000000E+02  1.40000000E+02  0.00000000E+00
  5.80000000E+02  1.20000000E+02  0.00000000E+00
  5.80000000E+02  1.00000000E+02  0.00000000E+00
  5.80000000E+02  8.00000000E+01  0.00000000E+00
  5.80000000E+02  6.00000000E+01  0.00000000E+00
  5.80000000E+02  4.00000000E+01  0.00000000E+00
  5.80000000E+02  2.00000000E+01  0.00000000E+00
  5.80000000E+02  4.99600361E-14  0.00000000E+00
  6.00000000E+02  3.00000000E+02  0.00000000E+00
  6.00000000E+02  2.80000000E+02  0.00000000E+00
  6.00000000E+02  2.60000000E+02  0.00000000E+00
  6.00000000E+02  2.40000000E+02  0.00000000E+00
  6.00000000E+02  2.20000000E+02  0.00000000E+00
  6.00000000E+02  2.00000000E+02  0.00000000E+00
  6.00000000E+02  1.80000000E+02  0.00000000E+00
  6.00000000E+02  1.60000000E+02  0.00000000E+00
  6.00000000E+02  1.40000000E+02  0.00000000E+00
  6.00000000E+02  1.20000000E+02  0.00000000E+00
  6.00000000E+02  1.00000000E+02  0.00000000E+00
  6.00000000E+02  8.00000000E+01  0.00000000E+00
  6.00000000E+02  6.00000000E+01  0.00000000E+00
  6.00000000E+02  4.00000000E+01  0.00000000E+00
  6.00000000E+02  2.00000000E+01  0.00000000E+00
  6.00000000E+02  4.99600361E-14  0.00000000E+00
CELLS       450      2250
         4           0           1          17          16
         4           1           2          18          17
         4           2           3          19          18
         4           3           4          20          19
         4           4           5          21          20
         4           5           6          22          21
         4           6           7          23          22
         4           7           8          24          23
         4           8           9          25          24
         4           9          10          26          25
         4          10          11          27          26
         4          11          12          28          27
         4          12          13          29          28
         4          13          14          30          29
         4          14          15          31          30
         4          16          17          33          32
         4          17          18          34          33
         4          18          19          35          34
         4          19          20          36          35
         4          20          21          37          36
         4          21          22          38          37
         4          22          23          39          38
         4          23          24          40          39
         4          24          25          41          40
         4          25          26          42          41
         4          26          27          43          42
         4          27          28          44          43
         4          28          29          45          44
         4          29          30          46          45
         4          30          31          47          46
         4          32          33          49          48
         4          33          34          50          49
         4          34          35          51          50
         4          35          36          52          51
         4          36          37          53          52
         4          37          38          54          53
         4          38          39          55          54
         4          39          40          56          55
         4          40          41          57          56
         4          41          42          58          57
         4          42          43          59          58
         4          43          44          60          59
         4          44          45          61          60
         4          45          46          62          61
         4          46          47          63          62
         4          48          49          65          64
         4          49          50          66          65
         4          50          51          67          66
         4          51          52          68          67
         4          52          53          69          68
         4          53          54          70          69
         4          54          55          71          70
         4          55          56          72          71
         4          56          57          73          72
         4          57          58          74          73
         4          58          59          75          74
         4          59          60          76          75
         4          60          61          77          76
         4          61          62          78          77
         4          62          63          79          78
         4          64          65          81          80
         4          65          66          82          81
         4          66          67          83          82
         4          67          68          84          83
         4          68          69          85          84
         4          69          70          86          85
         4          70          71          87          86
         4          71          72          88          87
         4          72          73          89          88
         4          73          74          90          89
         4          74          75          91          90
         4          75          76          92          91
         4          76          77          93          92
         4          77          78          94          93
         4          78          79          95          94
         4          80          81          97          96
         4          81          82          98          97
         4          82          83          99          98
         4          83          84         100          99
         4          84          85         101         100
         4          85          86         102         101
         4          86          87         103         102
         4          87          88         104         103
         4          88          89         105         104
         4          89          90         106         105
         4          90          91         107         106
         4          91          92         108         107
         4          92          93         109         108
         4          93          94         110         109
         4          94          95         111         110
         4          96          97         113         112
         4          97          98         114         113
         4          98          99         115         114
         4          99         100         116         115
         4         100         101         117         116
         4         101         102         118         117
         4         102         103         119         118
         4         103         104         120         119
         4         104         105         121         120
         4         105         106         122         121
         4         106         107         123         122
         4         107         108         124         123
         4         108         109         125         124
         4         109         110         126         125
         4         110         111         127         126
         4         112         113         129         128
         4         113         114         130         129
         4         114         115         131         130
         4         115         116         132         131
         4         116         117         133         132
         4         117         118         134         133
         4         118         119         135         134
         4         119         120         136         135
         4         120         121         137         136
         4         121         122         138         137
         4         122         123         139         138
         4         123         124         140         139
         4         124         125         141         140
         4         125         126         142         141
         4         126         127         143         142
         4         128         129         145         144
         4         129         130         146         145
         4         130         131         147         146
         4         131         132         148         147
         4         132         133         149         148
         4         133         134         150         149
         4         134         135         151         150
         4         135         136         152         151
         4         136         137         153         152
         4         137         138         154         153
         4         138         139         155         154
         4         139         140         156         155
         4         140         141         157         156
         4         141         142         158         157
         4         142         143         159         158
         4         144         145         161         160
         4         145         146         162         161
         4         146         147         163         162
         4         147         148         164         163
         4         148         149         165         164
         4         149         150         166         165
         4         150         151         167         166
         4         151         152         168         167
         4         152         153         169         168
         4         153         154         170         169
         4         154         155         171         170
         4         155         156         172         171
         4         156         157         173         172
         4         157         158         174         173
         4         158         159         175         174
         4         160         161         177         176
         4         161         162         178         177
         4         162         163         179         178
         4         163         164         180         179
         4         164         165         181         180
         4         165         166         182         181
         4         166         167         183         182
         4         167         168         184         183
         4         168         169         185         184
         4         169         170         186         185
         4         170         171         187         186
         4         171         172         188         187
         4         172         173         189         188
         4         173         174         190         189
         4         174         175         191         190
         4         176         177         193         192
         4         177         178         194         193
         4         178         179         195         194
         4         179         180         196         195
         4         180         181         197         196
         4         181         182         198         197
         4         182         183         199         198
         4         183         184         200         199
         4         184         185         201         200
         4         185         186         202         201
         4         186         187         203         202
         4         187         188         204         203
         4         188         189         205         204
         4         189         190         206         205
         4         190         191         207         206
         4         192         193         209         208
         4         193         194         210         209
         4         194         195         211         210
         4         195         196         212         211
         4         196         197         213         212
         4         197         198         214         213
         4         198         199         215         214
         4         199         200         216         215
         4         200         201         217         216
         4         201         202         218         217
         4         202         203         219         218
         4         203         204         220         219
         4         204         205         221         220
         4         205         206         222         221
         4         206         207         223         222
         4         208         209         225         224
         4         209         210         226         225
         4         210         211         227         226
         4         211         212         228         227
         4         212         213         229         228
         4         213         214         230         229
         4         214         215         231         230
         4         215         216         232         231
         4         216         217         233         232
         4         217         218         234         233
         4         218         219         235         234
         4         219         220         236         235
         4         220         221         237         236
         4         221         222         238         237
         4         222         223         239         238
         4         224         225         241         240
         4         225         226         242         241
         4         226         227         243         242
         4         227         228         244         243
         4         228         229         245         244
         4         229         230         246         245
         4         230         231         247         246
         4         231         232         248         247
         4         232         233         249         248
         4         233         234         250         249
         4         234         235         251         250
         4         235         236         252         251
         4         236         237         253         252
         4         237         238         254         253
         4         238         239         255         254
         4         240         241         257         256
         4         241         242         258         257
         4         242         243         259         258
         4         243         244         260         259
         4         244         245         261         260
         4         245         246         262         261
         4         246         247         263         262
         4         247         248         264         263
         4         248         249         265         264
         4         249         250         266         265
         4         250         251         267         266
         4         251         252         268         267
         4         252         253         269         268
         4         253         254         270         269
         4         254         255         271         270
         4         256         257         273         272
         4         257         258         274         273
         4         258         259         275         274
         4         259         260         276         275
         4         260         261         277         276
         4         261         262         278         277
         4         262         263         279         278
         4         263         264         280         279
         4         264         265         281         280
         4         265         266         282         281
         4         266         267         283         282
         4         267         268         284         283
         4         268         269         285         284
         4         269         270         286         285
         4         270         271         287         286
         4         272         273         289         288
         4         273         274         290         289
         4         274         275         291         290
         4         275         276         292         291
         4         276         277         293         292
         4         277         278         294         293
         4         278         279         295         294
         4         279         280         296         295
         4         280         281         297         296
         4         281         282         298         297
         4         282         283         299         298
         4         283         284         300         299
         4         284         285         301         300
         4         285         286         302         301
         4         286         287         303         302
         4         288         289         305         304
         4         289         290         306         305
         4         290         291         307         306
         4         291         292         308         307
         4         292         293         309         308
         4         293         294         310         309
         4         294         295         311         310
         4         295         296         312         311
         4         296         297         313         312
         4         297         298         314         313
         4         298         299         315         314
         4         299         300         316         315
         4         300         301         317         316
         4         301         302         318         317
         4         302         303         319         318
         4         304         305         321         320
         4         305         306         322         321
         4         306         307         323         322
         4         307         308         324         323
         4         308         309         325         324
         4         309         310         326         325
         4         310         311         327         326
         4         311         312         328         327
         4         312         313         329         328
         4         313         314         330         329
         4         314         315         331         330
         4         315         316         332         331
         4         316         317         333         332
         4         317         318         334         333
         4         318         319         335         334
         4         320         321         337         336
         4         321         322         338         337
         4         322         323         339         338
         4         323         324         340         339
         4         324         325         341         340
         4         325         326         342         341
         4         326         327         343         342
         4         327         328         344         343
         4         328         329         345         344
         4         329         330         346         345
         4         330         331         347         346
         4         331         332         348         347
         4         332         333         349         348
         4         333         334         350         349
         4         334         335         351         350
         4         336         337         353         352
         4         337         338         354         353
         4         338         339         355         354
         4         339         340         356         355
         4         340         341         357         356
         4         341         342         358         357
         4         342         343         359         358
         4         343         344         360         359
         4         344         345         361         360
         4         345         346         362         361
         4         346         347         363         362
         4         347         348         364         363
         4         348         349         365         364
         4         349         350         366         365
         4         350         351         367         366
         4         352         353         369         368
         4         353         354         370         369
         4         354         355         371         370
         4         355         356         372         371
         4         356         357         373         372
         4         357         358         374         373
         4         358         359         375         374
         4         359         360         376         375
         4         360         361         377         376
         4         361         362         378         377
         4         362         363         379         378
         4         363         364         380         379
         4         364         365         381         380
         4         365         366         382         381
         4         366         367         383         382
         4         368         369         385         384
         4         369         370         386         385
         4         370         371         387         386
         4         371         372         388         387
         4         372         373         389         388
         4         373         374         390         389
         4         374         375         391         390
         4         375         376         392         391
         4         376         377         393         392
         4         377         378         394         393
         4         378         379         395         394
         4         379         380         396         395
         4         380         381         397         396
         4         381         382         398         397
         4         382         383         399         398
         4         384         385         401         400
         4         385         386         402         401
         4         386         387         403         402
         4         387         388         404         403
         4         388         389         405         404
         4         389         390         406         405
         4         390         391         407         406
         4         391         392         408         407
         4         392         393         409         408
         4         393         394         410         409
         4         394         395         411         410
         4         395         396         412         411
         4         396         397         413         412
         4         397         398         414         413
         4         398         399         415         414
         4         400         401         417         416
         4         401         402         418         417
         4         402         403         419         418
         4         403         404         420         419
         4         404         405         421         420
         4         405         406         422         421
         4         406         407         423         422
         4         407         408         424         423
         4         408         409         425         424
         4         409         410         426         425
         4         410         411         427         426
         4         411         412         428         427
         4         412         413         429         428
         4         413         414         430         429
         4         414         415         431         430
         4         416         417         433         432
         4         417         418         434         433
         4         418         419         435         434
         4         419         420         436         435
         4         420         421         437         436
         4         421         422         438         437
         4         422         423         439         438
         4         423         424         440         439
         4         424         425         441         440
         4         425         426         442         441
         4         426         427         443         442
         4         427         428         444         443
         4         428         429         445         444
         4         429         430         446         445
         4         430         431         447         446
         4         432         433         449         448
         4         433         434         450         449
         4         434         435         451         450
         4         435         436         452         451
         4         436         437         453         452
         4         437         438         454         453
         4         438         439         455         454
         4         439         440         456         455
         4         440         441         457         456
         4         441         442         458         457
         4         442         443         459         458
         4         443         444         460         459
         4         444         445         461         460
         4         445         446         462         461
         4         446         447         463         462
         4         448         449         465         464
         4         449         450         466         465
         4         450         451         467         466
         4         451         452         468         467
         4         452         453         469         468
         4         453         454         470         469
         4         454         455         471         470
         4         455         456         472         471
         4         456         457         473         472
         4         457         458         474         473
         4         458         459         475         474
         4         459         460         476         475
         4         460         461         477         476
         4         461         462         478         477
         4         462         463         479         478
         4         464         465         481         480
         4         465         466         482         481
         4         466         467         483         482
         4         467         468         484         483
         4         468         469         485         484
         4         469         470         486         485
         4         470         471         487         486
         4         471         472         488         487
         4         472         473         489         488
         4         473         474         490         489
         4         474         475         491         490
         4         475         476         492         491
         4         476         477         493         492
         4         477         478         494         493
         4         478         479         495         494
CELL_TYPES        450
9
9
9
9
9
9
9
9
9
9
9
9
9
9
9
9
9
9
9
9
9
9
9
9
9
9
9
9
9
9
9
9
9
9
9
9
9
9
9
9
9
9
9
9
9
9
9
9
9
9
9
9
9
9
9
9
9
9
9
9
9
9
9
9
9
9
9
9
9
9
9
9
9
9
9
9
9
9
9
9
9
9
9
9
9
9
9
9
9
9
9
9
9
9
9
9
9
9
9
9
9
9
9
9
9
9
9
9
9
9
9
9
9
9
9
9
9
9
9
9
9
9
9
9
9
9
9
9
9
9
9
9
9
9
9
9
9
9
9
9
9
9
9
9
9
9
9
9
9
9
9
9
9
9
9
9
9
9
9
9
9
9
9
9
9
9
9
9
9
9
9
9
9
9
9
9
9
9
9
9
9
9
9
9
9
9
9
9
9
9
9
9
9
9
9
9
9
9
9
9
9
9
9
9
9
9
9
9
9
9
9
9
9
9
9
9
9
9
9
9
9
9
9
9
9
9
9
9
9
9
9
9
9
9
9
9
9
9
9
9
9
9
9
9
9
9
9
9
9
9
9
9
9
9
9
9
9
9
9
9
9
9
9
9
9
9
9
9
9
9
9
9
9
9
9
9
9
9
9
9
9
9
9
9
9
9
9
9
9
9
9
9
9
9
9
9
9
9
9
9
9
9
9
9
9
9
9
9
9
9
9
9
9
9
9
9
9
9
9
9
9
9
9
9
9
9
9
9
9
9
9
9
9
9
9
9
9
9
9
9
9
9
9
9
9
9
9
9
9
9
9
9
9
9
9
9
9
9
9
9
9
9
9
9
9
9
9
9
9
9
9
9
9
9
9
9
9
9
9
9
9
9
9
9
9
9
9
9
9
9
9
9
9
9
9
9
9
9
9
9
9
9
9
9
9
9
9
9
9
9
9
9
9
9
9
9
9
9
9
9
9
9
9
9
9
9
9
9
9
9
9
9
9
9
9
9
9
9
9
9
9
9
9
9
9
9
9
9
9
9
POINT_DATA       496
SCALARS p double 
LOOKUP_TABLE default
   10000000.0019869     
   10000000.0019867     
   10000000.0019863     
   10000000.0019856     
   10000000.0019848     
   10000000.0019838     
   10000000.0019828     
   10000000.0019818     
   10000000.0019808     
   10000000.0019799     
   10000000.0019791     
   10000000.0019784     
   10000000.0019778     
   10000000.0019774     
   10000000.0019772     
   10000000.0019771     
   10000000.0019841     
   10000000.0019839     
   10000000.0019835     
   10000000.0019828     
   10000000.0019819     
   10000000.0019810     
   10000000.0019800     
   10000000.0019790     
   10000000.0019780     
   10000000.0019771     
   10000000.0019763     
   10000000.0019756     
   10000000.0019750     
   10000000.0019746     
   10000000.0019744     
   10000000.0019743     
   10000000.0019757     
   10000000.0019755     
   10000000.0019750     
   10000000.0019744     
   10000000.0019735     
   10000000.0019726     
   10000000.0019716     
   10000000.0019706     
   10000000.0019696     
   10000000.0019687     
   10000000.0019679     
   10000000.0019672     
   10000000.0019667     
   10000000.0019663     
   10000000.0019660     
   10000000.0019659     
   10000000.0019616     
   10000000.0019615     
   10000000.0019610     
   10000000.0019604     
   10000000.0019595     
   10000000.0019586     
   10000000.0019576     
   10000000.0019566     
   10000000.0019557     
   10000000.0019548     
   10000000.0019540     
   10000000.0019533     
   10000000.0019527     
   10000000.0019523     
   10000000.0019521     
   10000000.0019520     
   10000000.0019421     
   10000000.0019419     
   10000000.0019415     
   10000000.0019408     
   10000000.0019400     
   10000000.0019391     
   10000000.0019381     
   10000000.0019372     
   10000000.0019362     
   10000000.0019353     
   10000000.0019345     
   10000000.0019339     
   10000000.0019333     
   10000000.0019329     
   10000000.0019327     
   10000000.0019326     
   10000000.0019170     
   10000000.0019169     
   10000000.0019164     
   10000000.0019158     
   10000000.0019150     
   10000000.0019141     
   10000000.0019132     
   10000000.0019122     
   10000000.0019113     
   10000000.0019104     
   10000000.0019096     
   10000000.0019090     
   10000000.0019084     
   10000000.0019081     
   10000000.0019078     
   10000000.0019077     
   10000000.0018866     
   10000000.0018864     
   10000000.0018860     
   10000000.0018854     
   10000000.0018846     
   10000000.0018837     
   10000000.0018828     
   10000000.0018819     
   10000000.0018810     
   10000000.0018801     
   10000000.0018794     
   10000000.0018787     
   10000000.0018782     
   10000000.0018778     
   10000000.0018776     
   10000000.0018775     
   10000000.0018508     
   10000000.0018506     
   10000000.0018502     
   10000000.0018496     
   10000000.0018489     
   10000000.0018480     
   10000000.0018472     
   10000000.0018463     
   10000000.0018454     
   10000000.0018446     
   10000000.0018438     
   10000000.0018432     
   10000000.0018427     
   10000000.0018423     
   10000000.0018421     
   10000000.0018420     
   10000000.0018098     
   10000000.0018097     
   10000000.0018093     
   10000000.0018087     
   10000000.0018080     
   10000000.0018072     
   10000000.0018063     
   10000000.0018055     
   10000000.0018046     
   10000000.0018038     
   10000000.0018031     
   10000000.0018025     
   10000000.0018020     
   10000000.0018017     
   10000000.0018015     
   10000000.0018014     
   10000000.0017638     
   10000000.0017636     
   10000000.0017633     
   10000000.0017627     
   10000000.0017620     
   10000000.0017613     
   10000000.0017604     
   10000000.0017596     
   10000000.0017588     
   10000000.0017581     
   10000000.0017574     
   10000000.0017568     
   10000000.0017564     
   10000000.0017560     
   10000000.0017558     
   10000000.0017558     
   10000000.0017128     
   10000000.0017127     
   10000000.0017123     
   10000000.0017118     
   10000000.0017112     
   10000000.0017104     
   10000000.0017097     
   10000000.0017089     
   10000000.0017081     
   10000000.0017074     
   10000000.0017068     
   10000000.0017063     
   10000000.0017058     
   10000000.0017055     
   10000000.0017053     
   10000000.0017053     
   10000000.0016570     
   10000000.0016569     
   10000000.0016566     
   10000000.0016561     
   10000000.0016555     
   10000000.0016548     
   10000000.0016541     
   10000000.0016534     
   10000000.0016527     
   10000000.0016521     
   10000000.0016515     
   10000000.0016510     
   10000000.0016506     
   10000000.0016503     
   10000000.0016501     
   10000000.0016500     
   10000000.0015967     
   10000000.0015966     
   10000000.0015963     
   10000000.0015958     
   10000000.0015953     
   10000000.0015947     
   10000000.0015940     
   10000000.0015934     
   10000000.0015927     
   10000000.0015921     
   10000000.0015916     
   10000000.0015912     
   10000000.0015908     
   10000000.0015905     
   10000000.0015904     
   10000000.0015903     
   10000000.0015319     
   10000000.0015318     
   10000000.0015315     
   10000000.0015312     
   10000000.0015307     
   10000000.0015301     
   10000000.0015296     
   10000000.0015290     
   10000000.0015284     
   10000000.0015279     
   10000000.0015274     
   10000000.0015270     
   10000000.0015267     
   10000000.0015264     
   10000000.0015263     
   10000000.0015262     
   10000000.0014629     
   10000000.0014628     
   10000000.0014626     
   10000000.0014623     
   10000000.0014619     
   10000000.0014614     
   10000000.0014609     
   10000000.0014604     
   10000000.0014599     
   10000000.0014594     
   10000000.0014590     
   10000000.0014587     
   10000000.0014584     
   10000000.0014582     
   10000000.0014581     
   10000000.0014580     
   10000000.0013899     
   10000000.0013898     
   10000000.0013897     
   10000000.0013894     
   10000000.0013891     
   10000000.0013887     
   10000000.0013883     
   10000000.0013879     
   10000000.0013875     
   10000000.0013871     
   10000000.0013867     
   10000000.0013864     
   10000000.0013862     
   10000000.0013861     
   10000000.0013860     
   10000000.0013859     
   10000000.0013131     
   10000000.0013131     
   10000000.0013130     
   10000000.0013128     
   10000000.0013125     
   10000000.0013122     
   10000000.0013119     
   10000000.0013116     
   10000000.0013113     
   10000000.0013110     
   10000000.0013107     
   10000000.0013105     
   10000000.0013103     
   10000000.0013102     
   10000000.0013101     
   10000000.0013101     
   10000000.0012328     
   10000000.0012328     
   10000000.0012327     
   10000000.0012326     
   10000000.0012325     
   10000000.0012323     
   10000000.0012321     
   10000000.0012319     
   10000000.0012317     
   10000000.0012315     
   10000000.0012313     
   10000000.0012311     
   10000000.0012310     
   10000000.0012309     
   10000000.0012309     
   10000000.0012308     
   10000000.0011493     
   10000000.0011493     
   10000000.0011492     
   10000000.0011492     
   10000000.0011491     
   10000000.0011491     
   10000000.0011490     
   10000000.0011489     
   10000000.0011488     
   10000000.0011487     
   10000000.0011486     
   10000000.0011485     
   10000000.0011485     
   10000000.0011484     
   10000000.0011484     
   10000000.0011484     
   10000000.0010627     
   10000000.0010627     
   10000000.0010627     
   10000000.0010628     
   10000000.0010628     
   10000000.0010629     
   10000000.0010629     
   10000000.0010629     
   10000000.0010629     
   10000000.0010630     
   10000000.0010630     
   10000000.0010630     
   10000000.0010630     
   10000000.0010630     
   10000000.0010629     
   10000000.0010629     
   10000000.0009734     
   10000000.0009734     
   10000000.0009735     
   10000000.0009736     
   10000000.0009738     
   10000000.0009740     
   10000000.0009741     
   10000000.0009743     
   10000000.0009744     
   10000000.0009745     
   10000000.0009746     
   10000000.0009747     
   10000000.0009748     
   10000000.0009748     
   10000000.0009748     
   10000000.0009748     
   10000000.0008817     
   10000000.0008817     
   10000000.0008819     
   10000000.0008821     
   10000000.0008823     
   10000000.0008826     
   10000000.0008829     
   10000000.0008832     
   10000000.0008834     
   10000000.0008836     
   10000000.0008838     
   10000000.0008840     
   10000000.0008841     
   10000000.0008842     
   10000000.0008842     
   10000000.0008842     
   10000000.0007878     
   10000000.0007878     
   10000000.0007881     
   10000000.0007884     
   10000000.0007887     
   10000000.0007891     
   10000000.0007895     
   10000000.0007899     
   10000000.0007902     
   10000000.0007906     
   10000000.0007909     
   10000000.0007911     
   10000000.0007912     
   10000000.0007914     
   10000000.0007914     
   10000000.0007914     
   10000000.0006921     
   10000000.0006922     
   10000000.0006924     
   10000000.0006928     
   10000000.0006932     
   10000000.0006937     
   10000000.0006942     
   10000000.0006947     
   10000000.0006952     
   10000000.0006956     
   10000000.0006960     
   10000000.0006963     
   10000000.0006965     
   10000000.0006966     
   10000000.0006967     
   10000000.0006967     
   10000000.0005949     
   10000000.0005950     
   10000000.0005953     
   10000000.0005957     
   10000000.0005962     
   10000000.0005968     
   10000000.0005974     
   10000000.0005980     
   10000000.0005985     
   10000000.0005990     
   10000000.0005994     
   10000000.0005998     
   10000000.0006000     
   10000000.0006002     
   10000000.0006003     
   10000000.0006003     
   10000000.0004965     
   10000000.0004966     
   10000000.0004970     
   10000000.0004974     
   10000000.0004980     
   10000000.0004987     
   10000000.0004993     
   10000000.0004999     
   10000000.0005005     
   10000000.0005011     
   10000000.0005015     
   10000000.0005019     
   10000000.0005022     
   10000000.0005024     
   10000000.0005025     
   10000000.0005025     
   10000000.0003973     
   10000000.0003974     
   10000000.0003978     
   10000000.0003983     
   10000000.0003989     
   10000000.0003996     
   10000000.0004002     
   10000000.0004009     
   10000000.0004015     
   10000000.0004020     
   10000000.0004025     
   10000000.0004029     
   10000000.0004031     
   10000000.0004033     
   10000000.0004034     
   10000000.0004035     
   10000000.0002977     
   10000000.0002978     
   10000000.0002982     
   10000000.0002986     
   10000000.0002992     
   10000000.0002998     
   10000000.0003004     
   10000000.0003010     
   10000000.0003016     
   10000000.0003021     
   10000000.0003025     
   10000000.0003029     
   10000000.0003032     
   10000000.0003034     
   10000000.0003035     
   10000000.0003035     
   10000000.0001979     
   10000000.0001981     
   10000000.0001984     
   10000000.0001988     
   10000000.0001993     
   10000000.0001998     
   10000000.0002003     
   10000000.0002008     
   10000000.0002012     
   10000000.0002016     
   10000000.0002020     
   10000000.0002023     
   10000000.0002025     
   10000000.0002027     
   10000000.0002028     
   10000000.0002028     
   10000000.0000986     
   10000000.0000987     
   10000000.0000989     
   10000000.0000992     
   10000000.0000994     
   10000000.0000998     
   10000000.0001001     
   10000000.0001003     
   10000000.0001006     
   10000000.0001008     
   10000000.0001011     
   10000000.0001012     
   10000000.0001014     
   10000000.0001015     
   10000000.0001015     
   10000000.0001016     
   10000000.0000000     
   10000000.0000000     
   10000000.0000000     
   10000000.0000000     
   10000000.0000000     
   10000000.0000000     
   10000000.0000000     
   10000000.0000000     
   10000000.0000000     
   10000000.0000000     
   10000000.0000000     
   10000000.0000000     
   10000000.0000000     
  10000000.00000000     
   10000000.0000000     
   10000000.0000000     
VECTORS u double 
    0.00000E+00        -0.64174E-01         0.00000E+00
    0.00000E+00        -0.59892E-01         0.00000E+00
    0.00000E+00        -0.55609E-01         0.00000E+00
    0.00000E+00        -0.51326E-01         0.00000E+00
    0.00000E+00        -0.47044E-01         0.00000E+00
    0.00000E+00        -0.42761E-01         0.00000E+00
    0.00000E+00        -0.38479E-01         0.00000E+00
    0.00000E+00        -0.34198E-01         0.00000E+00
    0.00000E+00        -0.29918E-01         0.00000E+00
    0.00000E+00        -0.25638E-01         0.00000E+00
    0.00000E+00        -0.21361E-01         0.00000E+00
    0.00000E+00        -0.17084E-01         0.00000E+00
    0.00000E+00        -0.12810E-01         0.00000E+00
    0.00000E+00        -0.85378E-02         0.00000E+00
    0.00000E+00        -0.42677E-02         0.00000E+00
    0.00000E+00         0.00000E+00         0.00000E+00
    0.17142E-04        -0.64174E-01         0.00000E+00
    0.17899E-04        -0.59892E-01         0.00000E+00
    0.18404E-04        -0.55609E-01         0.00000E+00
    0.18653E-04        -0.51326E-01         0.00000E+00
    0.18642E-04        -0.47043E-01         0.00000E+00
    0.18366E-04        -0.42761E-01         0.00000E+00
    0.17818E-04        -0.38479E-01         0.00000E+00
    0.16990E-04        -0.34198E-01         0.00000E+00
    0.15878E-04        -0.29917E-01         0.00000E+00
    0.14477E-04        -0.25638E-01         0.00000E+00
    0.12784E-04        -0.21361E-01         0.00000E+00
    0.10797E-04        -0.17084E-01         0.00000E+00
    0.85200E-05        -0.12810E-01         0.00000E+00
    0.59558E-05        -0.85378E-02         0.00000E+00
    0.31123E-05        -0.42677E-02         0.00000E+00
    0.00000E+00         0.00000E+00         0.00000E+00
    0.34192E-04        -0.64173E-01         0.00000E+00
    0.35706E-04        -0.59890E-01         0.00000E+00
    0.36714E-04        -0.55608E-01         0.00000E+00
    0.37214E-04        -0.51325E-01         0.00000E+00
    0.37194E-04        -0.47042E-01         0.00000E+00
    0.36645E-04        -0.42760E-01         0.00000E+00
    0.35553E-04        -0.38478E-01         0.00000E+00
    0.33903E-04        -0.34197E-01         0.00000E+00
    0.31686E-04        -0.29917E-01         0.00000E+00
    0.28891E-04        -0.25638E-01         0.00000E+00
    0.25513E-04        -0.21360E-01         0.00000E+00
    0.21550E-04        -0.17084E-01         0.00000E+00
    0.17005E-04        -0.12810E-01         0.00000E+00
    0.11888E-04        -0.85377E-02         0.00000E+00
    0.62125E-05        -0.42676E-02         0.00000E+00
    0.00000E+00         0.00000E+00         0.00000E+00
    0.51057E-04        -0.64170E-01         0.00000E+00
    0.53325E-04        -0.59888E-01         0.00000E+00
    0.54838E-04        -0.55606E-01         0.00000E+00
    0.55590E-04        -0.51323E-01         0.00000E+00
    0.55566E-04        -0.47041E-01         0.00000E+00
    0.54750E-04        -0.42759E-01         0.00000E+00
    0.53121E-04        -0.38477E-01         0.00000E+00
    0.50661E-04        -0.34196E-01         0.00000E+00
    0.47351E-04        -0.29916E-01         0.00000E+00
    0.43177E-04        -0.25637E-01         0.00000E+00
    0.38132E-04        -0.21360E-01         0.00000E+00
    0.32212E-04        -0.17084E-01         0.00000E+00
    0.25421E-04        -0.12810E-01         0.00000E+00
    0.17773E-04        -0.85375E-02         0.00000E+00
    0.92885E-05        -0.42676E-02         0.00000E+00
    0.00000E+00         0.00000E+00         0.00000E+00
    0.67643E-04        -0.64167E-01         0.00000E+00
    0.70662E-04        -0.59885E-01         0.00000E+00
    0.72679E-04        -0.55603E-01         0.00000E+00
    0.73685E-04        -0.51321E-01         0.00000E+00
    0.73663E-04        -0.47039E-01         0.00000E+00
    0.72589E-04        -0.42757E-01         0.00000E+00
    0.70438E-04        -0.38475E-01         0.00000E+00
    0.67184E-04        -0.34195E-01         0.00000E+00
    0.62801E-04        -0.29915E-01         0.00000E+00
    0.57273E-04        -0.25636E-01         0.00000E+00
    0.50586E-04        -0.21359E-01         0.00000E+00
    0.42738E-04        -0.17083E-01         0.00000E+00
    0.33732E-04        -0.12809E-01         0.00000E+00
    0.23586E-04        -0.85373E-02         0.00000E+00
    0.12328E-04        -0.42675E-02         0.00000E+00
    0.00000E+00         0.00000E+00         0.00000E+00
    0.83851E-04        -0.64163E-01         0.00000E+00
    0.87616E-04        -0.59882E-01         0.00000E+00
    0.90136E-04        -0.55600E-01         0.00000E+00
    0.91402E-04        -0.51318E-01         0.00000E+00
    0.91390E-04        -0.47036E-01         0.00000E+00
    0.90072E-04        -0.42754E-01         0.00000E+00
    0.87416E-04        -0.38473E-01         0.00000E+00
    0.83390E-04        -0.34193E-01         0.00000E+00
    0.77963E-04        -0.29913E-01         0.00000E+00
    0.71111E-04        -0.25635E-01         0.00000E+00
    0.62820E-04        -0.21358E-01         0.00000E+00
    0.53082E-04        -0.17083E-01         0.00000E+00
    0.41904E-04        -0.12809E-01         0.00000E+00
    0.29305E-04        -0.85370E-02         0.00000E+00
    0.15320E-04        -0.42674E-02         0.00000E+00
    0.00000E+00         0.00000E+00         0.00000E+00
    0.99578E-04        -0.64158E-01         0.00000E+00
    0.10408E-03        -0.59877E-01         0.00000E+00
    0.10711E-03        -0.55596E-01         0.00000E+00
    0.10864E-03        -0.51314E-01         0.00000E+00
    0.10865E-03        -0.47033E-01         0.00000E+00
    0.10710E-03        -0.42751E-01         0.00000E+00
    0.10396E-03        -0.38471E-01         0.00000E+00
    0.99195E-04        -0.34191E-01         0.00000E+00
    0.92759E-04        -0.29911E-01         0.00000E+00
    0.84625E-04        -0.25634E-01         0.00000E+00
    0.74774E-04        -0.21357E-01         0.00000E+00
    0.63197E-04        -0.17082E-01         0.00000E+00
    0.49900E-04        -0.12808E-01         0.00000E+00
    0.34904E-04        -0.85368E-02         0.00000E+00
    0.18250E-04        -0.42673E-02         0.00000E+00
    0.00000E+00         0.00000E+00         0.00000E+00
    0.11471E-03        -0.64153E-01         0.00000E+00
    0.11995E-03        -0.59872E-01         0.00000E+00
    0.12347E-03        -0.55591E-01         0.00000E+00
    0.12528E-03        -0.51310E-01         0.00000E+00
    0.12532E-03        -0.47029E-01         0.00000E+00
    0.12357E-03        -0.42748E-01         0.00000E+00
    0.11999E-03        -0.38468E-01         0.00000E+00
    0.11451E-03        -0.34188E-01         0.00000E+00
    0.10711E-03        -0.29909E-01         0.00000E+00
    0.97746E-04        -0.25632E-01         0.00000E+00
    0.86392E-04        -0.21356E-01         0.00000E+00
    0.73036E-04        -0.17081E-01         0.00000E+00
    0.57684E-04        -0.12808E-01         0.00000E+00
    0.40359E-04        -0.85364E-02         0.00000E+00
    0.21108E-04        -0.42671E-02         0.00000E+00
    0.00000E+00         0.00000E+00         0.00000E+00
    0.12914E-03        -0.64146E-01         0.00000E+00
    0.13509E-03        -0.59866E-01         0.00000E+00
    0.13912E-03        -0.55585E-01         0.00000E+00
    0.14121E-03        -0.51305E-01         0.00000E+00
    0.14131E-03        -0.47024E-01         0.00000E+00
    0.13938E-03        -0.42744E-01         0.00000E+00
    0.13538E-03        -0.38464E-01         0.00000E+00
    0.12925E-03        -0.34185E-01         0.00000E+00
    0.12094E-03        -0.29907E-01         0.00000E+00
    0.11040E-03        -0.25630E-01         0.00000E+00
    0.97611E-04        -0.21354E-01         0.00000E+00
    0.82549E-04        -0.17080E-01         0.00000E+00
    0.65219E-04        -0.12807E-01         0.00000E+00
    0.45646E-04        -0.85361E-02         0.00000E+00
    0.23880E-04        -0.42670E-02         0.00000E+00
    0.00000E+00         0.00000E+00         0.00000E+00
    0.14273E-03        -0.64139E-01         0.00000E+00
    0.14939E-03        -0.59859E-01         0.00000E+00
    0.15392E-03        -0.55579E-01         0.00000E+00
    0.15630E-03        -0.51299E-01         0.00000E+00
    0.15648E-03        -0.47019E-01         0.00000E+00
    0.15442E-03        -0.42740E-01         0.00000E+00
    0.15005E-03        -0.38461E-01         0.00000E+00
    0.14331E-03        -0.34182E-01         0.00000E+00
    0.13415E-03        -0.29905E-01         0.00000E+00
    0.12252E-03        -0.25628E-01         0.00000E+00
    0.10837E-03        -0.21353E-01         0.00000E+00
    0.91686E-04        -0.17079E-01         0.00000E+00
    0.72466E-04        -0.12807E-01         0.00000E+00
    0.50737E-04        -0.85358E-02         0.00000E+00
    0.26553E-04        -0.42669E-02         0.00000E+00
    0.00000E+00         0.00000E+00         0.00000E+00
    0.15536E-03        -0.64131E-01         0.00000E+00
    0.16270E-03        -0.59852E-01         0.00000E+00
    0.16774E-03        -0.55573E-01         0.00000E+00
    0.17043E-03        -0.51293E-01         0.00000E+00
    0.17072E-03        -0.47014E-01         0.00000E+00
    0.16856E-03        -0.42735E-01         0.00000E+00
    0.16388E-03        -0.38457E-01         0.00000E+00
    0.15660E-03        -0.34179E-01         0.00000E+00
    0.14667E-03        -0.29902E-01         0.00000E+00
    0.13402E-03        -0.25626E-01         0.00000E+00
    0.11860E-03        -0.21351E-01         0.00000E+00
    0.10039E-03        -0.17078E-01         0.00000E+00
    0.79385E-04        -0.12806E-01         0.00000E+00
    0.55605E-04        -0.85355E-02         0.00000E+00
    0.29112E-04        -0.42668E-02         0.00000E+00
    0.00000E+00         0.00000E+00         0.00000E+00
    0.16686E-03        -0.64122E-01         0.00000E+00
    0.17488E-03        -0.59844E-01         0.00000E+00
    0.18042E-03        -0.55565E-01         0.00000E+00
    0.18344E-03        -0.51287E-01         0.00000E+00
    0.18388E-03        -0.47008E-01         0.00000E+00
    0.18168E-03        -0.42730E-01         0.00000E+00
    0.17674E-03        -0.38453E-01         0.00000E+00
    0.16901E-03        -0.34176E-01         0.00000E+00
    0.15839E-03        -0.29899E-01         0.00000E+00
    0.14482E-03        -0.25624E-01         0.00000E+00
    0.12824E-03        -0.21350E-01         0.00000E+00
    0.10861E-03        -0.17077E-01         0.00000E+00
    0.85931E-04        -0.12805E-01         0.00000E+00
    0.60221E-04        -0.85353E-02         0.00000E+00
    0.31543E-04        -0.42668E-02         0.00000E+00
    0.00000E+00         0.00000E+00         0.00000E+00
    0.17709E-03        -0.64112E-01         0.00000E+00
    0.18575E-03        -0.59835E-01         0.00000E+00
    0.19180E-03        -0.55558E-01         0.00000E+00
    0.19518E-03        -0.51280E-01         0.00000E+00
    0.19582E-03        -0.47002E-01         0.00000E+00
    0.19363E-03        -0.42725E-01         0.00000E+00
    0.18853E-03        -0.38448E-01         0.00000E+00
    0.18042E-03        -0.34172E-01         0.00000E+00
    0.16921E-03        -0.29897E-01         0.00000E+00
    0.15483E-03        -0.25622E-01         0.00000E+00
    0.13720E-03        -0.21349E-01         0.00000E+00
    0.11628E-03        -0.17076E-01         0.00000E+00
    0.92057E-04        -0.12805E-01         0.00000E+00
    0.64552E-04        -0.85351E-02         0.00000E+00
    0.33830E-04        -0.42668E-02         0.00000E+00
    0.00000E+00         0.00000E+00         0.00000E+00
    0.18587E-03        -0.64102E-01         0.00000E+00
    0.19516E-03        -0.59826E-01         0.00000E+00
    0.20173E-03        -0.55549E-01         0.00000E+00
    0.20550E-03        -0.51273E-01         0.00000E+00
    0.20638E-03        -0.46996E-01         0.00000E+00
    0.20428E-03        -0.42720E-01         0.00000E+00
    0.19909E-03        -0.38444E-01         0.00000E+00
    0.19071E-03        -0.34169E-01         0.00000E+00
    0.17903E-03        -0.29894E-01         0.00000E+00
    0.16395E-03        -0.25620E-01         0.00000E+00
    0.14540E-03        -0.21347E-01         0.00000E+00
    0.12333E-03        -0.17075E-01         0.00000E+00
    0.97710E-04        -0.12805E-01         0.00000E+00
    0.68562E-04        -0.85351E-02         0.00000E+00
    0.35953E-04        -0.42668E-02         0.00000E+00
    0.00000E+00         0.00000E+00         0.00000E+00
    0.19302E-03        -0.64091E-01         0.00000E+00
    0.20291E-03        -0.59816E-01         0.00000E+00
    0.21001E-03        -0.55541E-01         0.00000E+00
    0.21421E-03        -0.51265E-01         0.00000E+00
    0.21540E-03        -0.46990E-01         0.00000E+00
    0.21347E-03        -0.42714E-01         0.00000E+00
    0.20830E-03        -0.38440E-01         0.00000E+00
    0.19975E-03        -0.34165E-01         0.00000E+00
    0.18772E-03        -0.29892E-01         0.00000E+00
    0.17208E-03        -0.25619E-01         0.00000E+00
    0.15276E-03        -0.21346E-01         0.00000E+00
    0.12969E-03        -0.17075E-01         0.00000E+00
    0.10283E-03        -0.12805E-01         0.00000E+00
    0.72212E-04        -0.85352E-02         0.00000E+00
    0.37894E-04        -0.42670E-02         0.00000E+00
    0.00000E+00         0.00000E+00         0.00000E+00
    0.19837E-03        -0.64080E-01         0.00000E+00
    0.20883E-03        -0.59806E-01         0.00000E+00
    0.21646E-03        -0.55532E-01         0.00000E+00
    0.22113E-03        -0.51257E-01         0.00000E+00
    0.22270E-03        -0.46983E-01         0.00000E+00
    0.22103E-03        -0.42709E-01         0.00000E+00
    0.21598E-03        -0.38435E-01         0.00000E+00
    0.20740E-03        -0.34162E-01         0.00000E+00
    0.19515E-03        -0.29889E-01         0.00000E+00
    0.17910E-03        -0.25617E-01         0.00000E+00
    0.15916E-03        -0.21345E-01         0.00000E+00
    0.13526E-03        -0.17075E-01         0.00000E+00
    0.10735E-03        -0.12805E-01         0.00000E+00
    0.75457E-04        -0.85354E-02         0.00000E+00
    0.39631E-04        -0.42672E-02         0.00000E+00
    0.00000E+00         0.00000E+00         0.00000E+00
    0.20173E-03        -0.64068E-01         0.00000E+00
    0.21273E-03        -0.59795E-01         0.00000E+00
    0.22090E-03        -0.55522E-01         0.00000E+00
    0.22609E-03        -0.51249E-01         0.00000E+00
    0.22811E-03        -0.46976E-01         0.00000E+00
    0.22679E-03        -0.42704E-01         0.00000E+00
    0.22198E-03        -0.38431E-01         0.00000E+00
    0.21348E-03        -0.34159E-01         0.00000E+00
    0.20116E-03        -0.29887E-01         0.00000E+00
    0.18487E-03        -0.25616E-01         0.00000E+00
    0.16449E-03        -0.21345E-01         0.00000E+00
    0.13995E-03        -0.17075E-01         0.00000E+00
    0.11120E-03        -0.12805E-01         0.00000E+00
    0.78247E-04        -0.85359E-02         0.00000E+00
    0.41140E-04        -0.42676E-02         0.00000E+00
    0.00000E+00         0.00000E+00         0.00000E+00
    0.20294E-03        -0.64055E-01         0.00000E+00
    0.21443E-03        -0.59784E-01         0.00000E+00
    0.22315E-03        -0.55513E-01         0.00000E+00
    0.22888E-03        -0.51241E-01         0.00000E+00
    0.23142E-03        -0.46970E-01         0.00000E+00
    0.23056E-03        -0.42698E-01         0.00000E+00
    0.22609E-03        -0.38427E-01         0.00000E+00
    0.21782E-03        -0.34156E-01         0.00000E+00
    0.20559E-03        -0.29885E-01         0.00000E+00
    0.18922E-03        -0.25615E-01         0.00000E+00
    0.16860E-03        -0.21345E-01         0.00000E+00
    0.14365E-03        -0.17075E-01         0.00000E+00
    0.11429E-03        -0.12806E-01         0.00000E+00
    0.80526E-04        -0.85366E-02         0.00000E+00
    0.42395E-04        -0.42681E-02         0.00000E+00
    0.00000E+00         0.00000E+00         0.00000E+00
    0.20183E-03        -0.64042E-01         0.00000E+00
    0.21376E-03        -0.59773E-01         0.00000E+00
    0.22302E-03        -0.55503E-01         0.00000E+00
    0.22934E-03        -0.51233E-01         0.00000E+00
    0.23246E-03        -0.46963E-01         0.00000E+00
    0.23213E-03        -0.42693E-01         0.00000E+00
    0.22812E-03        -0.38423E-01         0.00000E+00
    0.22021E-03        -0.34153E-01         0.00000E+00
    0.20822E-03        -0.29884E-01         0.00000E+00
    0.19197E-03        -0.25614E-01         0.00000E+00
    0.17133E-03        -0.21345E-01         0.00000E+00
    0.14621E-03        -0.17076E-01         0.00000E+00
    0.11652E-03        -0.12807E-01         0.00000E+00
    0.82231E-04        -0.85376E-02         0.00000E+00
    0.43367E-04        -0.42687E-02         0.00000E+00
    0.00000E+00         0.00000E+00         0.00000E+00
    0.19828E-03        -0.64029E-01         0.00000E+00
    0.21059E-03        -0.59761E-01         0.00000E+00
    0.22036E-03        -0.55493E-01         0.00000E+00
    0.22727E-03        -0.51225E-01         0.00000E+00
    0.23101E-03        -0.46956E-01         0.00000E+00
    0.23128E-03        -0.42688E-01         0.00000E+00
    0.22782E-03        -0.38420E-01         0.00000E+00
    0.22041E-03        -0.34151E-01         0.00000E+00
    0.20882E-03        -0.29883E-01         0.00000E+00
    0.19290E-03        -0.25614E-01         0.00000E+00
    0.17249E-03        -0.21346E-01         0.00000E+00
    0.14748E-03        -0.17077E-01         0.00000E+00
    0.11777E-03        -0.12808E-01         0.00000E+00
    0.83292E-04        -0.85389E-02         0.00000E+00
    0.44026E-04        -0.42695E-02         0.00000E+00
    0.00000E+00         0.00000E+00         0.00000E+00
    0.19221E-03        -0.64015E-01         0.00000E+00
    0.20481E-03        -0.59749E-01         0.00000E+00
    0.21504E-03        -0.55483E-01         0.00000E+00
    0.22252E-03        -0.51216E-01         0.00000E+00
    0.22687E-03        -0.46950E-01         0.00000E+00
    0.22778E-03        -0.42683E-01         0.00000E+00
    0.22496E-03        -0.38416E-01         0.00000E+00
    0.21814E-03        -0.34150E-01         0.00000E+00
    0.20713E-03        -0.29882E-01         0.00000E+00
    0.19175E-03        -0.25615E-01         0.00000E+00
    0.17185E-03        -0.21347E-01         0.00000E+00
    0.14728E-03        -0.17079E-01         0.00000E+00
    0.11791E-03        -0.12810E-01         0.00000E+00
    0.83628E-04        -0.85405E-02         0.00000E+00
    0.44336E-04        -0.42705E-02         0.00000E+00
    0.00000E+00         0.00000E+00         0.00000E+00
    0.18356E-03        -0.64002E-01         0.00000E+00
    0.19634E-03        -0.59737E-01         0.00000E+00
    0.20694E-03        -0.55473E-01         0.00000E+00
    0.21492E-03        -0.51208E-01         0.00000E+00
    0.21986E-03        -0.46944E-01         0.00000E+00
    0.22140E-03        -0.42679E-01         0.00000E+00
    0.21924E-03        -0.38414E-01         0.00000E+00
    0.21312E-03        -0.34148E-01         0.00000E+00
    0.20284E-03        -0.29882E-01         0.00000E+00
    0.18825E-03        -0.25616E-01         0.00000E+00
    0.16916E-03        -0.21349E-01         0.00000E+00
    0.14541E-03        -0.17081E-01         0.00000E+00
    0.11680E-03        -0.12812E-01         0.00000E+00
    0.83142E-04        -0.85424E-02         0.00000E+00
    0.44254E-04        -0.42716E-02         0.00000E+00
    0.00000E+00         0.00000E+00         0.00000E+00
    0.17234E-03        -0.63988E-01         0.00000E+00
    0.18515E-03        -0.59725E-01         0.00000E+00
    0.19599E-03        -0.55463E-01         0.00000E+00
    0.20436E-03        -0.51200E-01         0.00000E+00
    0.20978E-03        -0.46937E-01         0.00000E+00
    0.21188E-03        -0.42674E-01         0.00000E+00
    0.21037E-03        -0.38411E-01         0.00000E+00
    0.20501E-03        -0.34147E-01         0.00000E+00
    0.19563E-03        -0.29883E-01         0.00000E+00
    0.18207E-03        -0.25618E-01         0.00000E+00
    0.16414E-03        -0.21351E-01         0.00000E+00
    0.14162E-03        -0.17084E-01         0.00000E+00
    0.11425E-03        -0.12815E-01         0.00000E+00
    0.81713E-04        -0.85446E-02         0.00000E+00
    0.43722E-04        -0.42729E-02         0.00000E+00
    0.00000E+00         0.00000E+00         0.00000E+00
    0.15858E-03        -0.63974E-01         0.00000E+00
    0.17124E-03        -0.59714E-01         0.00000E+00
    0.18215E-03        -0.55453E-01         0.00000E+00
    0.19071E-03        -0.51192E-01         0.00000E+00
    0.19645E-03        -0.46931E-01         0.00000E+00
    0.19898E-03        -0.42670E-01         0.00000E+00
    0.19805E-03        -0.38409E-01         0.00000E+00
    0.19348E-03        -0.34147E-01         0.00000E+00
    0.18515E-03        -0.29884E-01         0.00000E+00
    0.17289E-03        -0.25620E-01         0.00000E+00
    0.15649E-03        -0.21354E-01         0.00000E+00
    0.13565E-03        -0.17087E-01         0.00000E+00
    0.11003E-03        -0.12818E-01         0.00000E+00
    0.79185E-04        -0.85470E-02         0.00000E+00
    0.42664E-04        -0.42743E-02         0.00000E+00
    0.00000E+00         0.00000E+00         0.00000E+00
    0.14236E-03        -0.63961E-01         0.00000E+00
    0.15465E-03        -0.59702E-01         0.00000E+00
    0.16537E-03        -0.55443E-01         0.00000E+00
    0.17389E-03        -0.51185E-01         0.00000E+00
    0.17969E-03        -0.46926E-01         0.00000E+00
    0.18244E-03        -0.42667E-01         0.00000E+00
    0.18199E-03        -0.38407E-01         0.00000E+00
    0.17823E-03        -0.34147E-01         0.00000E+00
    0.17108E-03        -0.29886E-01         0.00000E+00
    0.16036E-03        -0.25622E-01         0.00000E+00
    0.14584E-03        -0.21357E-01         0.00000E+00
    0.12716E-03        -0.17090E-01         0.00000E+00
    0.10386E-03        -0.12821E-01         0.00000E+00
    0.75350E-04        -0.85496E-02         0.00000E+00
    0.40969E-04        -0.42759E-02         0.00000E+00
    0.00000E+00         0.00000E+00         0.00000E+00
    0.12380E-03        -0.63949E-01         0.00000E+00
    0.13543E-03        -0.59691E-01         0.00000E+00
    0.14565E-03        -0.55434E-01         0.00000E+00
    0.15377E-03        -0.51178E-01         0.00000E+00
    0.15931E-03        -0.46921E-01         0.00000E+00
    0.16206E-03        -0.42664E-01         0.00000E+00
    0.16196E-03        -0.38406E-01         0.00000E+00
    0.15901E-03        -0.34148E-01         0.00000E+00
    0.15312E-03        -0.29887E-01         0.00000E+00
    0.14415E-03        -0.25625E-01         0.00000E+00
    0.13184E-03        -0.21361E-01         0.00000E+00
    0.11577E-03        -0.17094E-01         0.00000E+00
    0.95383E-04        -0.12824E-01         0.00000E+00
    0.69925E-04        -0.85523E-02         0.00000E+00
    0.38482E-04        -0.42775E-02         0.00000E+00
    0.00000E+00         0.00000E+00         0.00000E+00
    0.10303E-03        -0.63937E-01         0.00000E+00
    0.11364E-03        -0.59681E-01         0.00000E+00
    0.12295E-03        -0.55426E-01         0.00000E+00
    0.13024E-03        -0.51171E-01         0.00000E+00
    0.13516E-03        -0.46917E-01         0.00000E+00
    0.13767E-03        -0.42662E-01         0.00000E+00
    0.13782E-03        -0.38406E-01         0.00000E+00
    0.13563E-03        -0.34148E-01         0.00000E+00
    0.13106E-03        -0.29889E-01         0.00000E+00
    0.12397E-03        -0.25627E-01         0.00000E+00
    0.11410E-03        -0.21364E-01         0.00000E+00
    0.10103E-03        -0.17097E-01         0.00000E+00
    0.84137E-04        -0.12828E-01         0.00000E+00
    0.62520E-04        -0.85551E-02         0.00000E+00
    0.34974E-04        -0.42792E-02         0.00000E+00
    0.00000E+00         0.00000E+00         0.00000E+00
    0.80197E-04        -0.63927E-01         0.00000E+00
    0.89291E-04        -0.59673E-01         0.00000E+00
    0.97148E-04        -0.55419E-01         0.00000E+00
    0.10313E-03        -0.51166E-01         0.00000E+00
    0.10712E-03        -0.46914E-01         0.00000E+00
    0.10921E-03        -0.42660E-01         0.00000E+00
    0.10951E-03        -0.38405E-01         0.00000E+00
    0.10803E-03        -0.34149E-01         0.00000E+00
    0.10475E-03        -0.29890E-01         0.00000E+00
    0.99564E-04        -0.25629E-01         0.00000E+00
    0.92253E-04        -0.21366E-01         0.00000E+00
    0.82451E-04        -0.17100E-01         0.00000E+00
    0.69558E-04        -0.12831E-01         0.00000E+00
    0.52604E-04        -0.85577E-02         0.00000E+00
    0.30111E-04        -0.42808E-02         0.00000E+00
    0.00000E+00         0.00000E+00         0.00000E+00
    0.55419E-04        -0.63919E-01         0.00000E+00
    0.62322E-04        -0.59666E-01         0.00000E+00
    0.68092E-04        -0.55414E-01         0.00000E+00
    0.72351E-04        -0.51163E-01         0.00000E+00
    0.75189E-04        -0.46911E-01         0.00000E+00
    0.76735E-04        -0.42659E-01         0.00000E+00
    0.77062E-04        -0.38405E-01         0.00000E+00
    0.76199E-04        -0.34149E-01         0.00000E+00
    0.74130E-04        -0.29891E-01         0.00000E+00
    0.70787E-04        -0.25631E-01         0.00000E+00
    0.66026E-04        -0.21368E-01         0.00000E+00
    0.59585E-04        -0.17102E-01         0.00000E+00
    0.51002E-04        -0.12833E-01         0.00000E+00
    0.39459E-04        -0.85600E-02         0.00000E+00
    0.23375E-04        -0.42825E-02         0.00000E+00
    0.00000E+00         0.00000E+00         0.00000E+00
    0.28709E-04        -0.63913E-01         0.00000E+00
    0.32541E-04        -0.59662E-01         0.00000E+00
    0.35691E-04        -0.55411E-01         0.00000E+00
    0.37949E-04        -0.51161E-01         0.00000E+00
    0.39462E-04        -0.46910E-01         0.00000E+00
    0.40311E-04        -0.42658E-01         0.00000E+00
    0.40541E-04        -0.38404E-01         0.00000E+00
    0.40170E-04        -0.34149E-01         0.00000E+00
    0.39195E-04        -0.29891E-01         0.00000E+00
    0.37585E-04        -0.25632E-01         0.00000E+00
    0.35272E-04        -0.21369E-01         0.00000E+00
    0.32126E-04        -0.17104E-01         0.00000E+00
    0.27906E-04        -0.12835E-01         0.00000E+00
    0.22144E-04        -0.85618E-02         0.00000E+00
    0.13886E-04        -0.42840E-02         0.00000E+00
    0.00000E+00         0.00000E+00         0.00000E+00
    0.00000E+00        -0.63912E-01         0.00000E+00
    0.00000E+00        -0.59661E-01         0.00000E+00
    0.00000E+00        -0.55411E-01         0.00000E+00
    0.00000E+00        -0.51160E-01         0.00000E+00
    0.00000E+00        -0.46909E-01         0.00000E+00
    0.00000E+00        -0.42658E-01         0.00000E+00
    0.00000E+00        -0.38404E-01         0.00000E+00
    0.00000E+00        -0.34149E-01         0.00000E+00
    0.00000E+00        -0.29892E-01         0.00000E+00
    0.00000E+00        -0.25632E-01         0.00000E+00
    0.00000E+00        -0.21369E-01         0.00000E+00
    0.00000E+00        -0.17104E-01         0.00000E+00
    0.00000E+00        -0.12835E-01         0.00000E+00
    0.00000E+00        -0.85626E-02         0.00000E+00
    0.00000E+00        -0.42849E-02         0.00000E+00
    0.00000E+00         0.00000E+00         0.00000E+00
CELL_DATA        450
VECTORS vDarcy double 
    0.16004E-17        -0.98232E-19         0.00000E+00
    0.15995E-17        -0.25894E-18         0.00000E+00
    0.16000E-17        -0.38427E-18         0.00000E+00
    0.15997E-17        -0.47695E-18         0.00000E+00
    0.15988E-17        -0.53761E-18         0.00000E+00
    0.15966E-17        -0.57025E-18         0.00000E+00
    0.15944E-17        -0.57365E-18         0.00000E+00
    0.15943E-17        -0.55625E-18         0.00000E+00
    0.15942E-17        -0.51855E-18         0.00000E+00
    0.15931E-17        -0.46684E-18         0.00000E+00
    0.15910E-17        -0.39898E-18         0.00000E+00
    0.15910E-17        -0.32067E-18         0.00000E+00
    0.15908E-17        -0.23226E-18         0.00000E+00
    0.15892E-17        -0.14153E-18         0.00000E+00
    0.15888E-17        -0.47438E-19         0.00000E+00
    0.48020E-17        -0.97445E-19         0.00000E+00
    0.47995E-17        -0.25737E-18         0.00000E+00
    0.47973E-17        -0.38402E-18         0.00000E+00
    0.47950E-17        -0.47505E-18         0.00000E+00
    0.47915E-17        -0.53446E-18         0.00000E+00
    0.47859E-17        -0.56582E-18         0.00000E+00
    0.47817E-17        -0.57199E-18         0.00000E+00
    0.47785E-17        -0.55509E-18         0.00000E+00
    0.47742E-17        -0.51507E-18         0.00000E+00
    0.47708E-17        -0.46585E-18         0.00000E+00
    0.47703E-17        -0.39724E-18         0.00000E+00
    0.47679E-17        -0.32001E-18         0.00000E+00
    0.47669E-17        -0.23127E-18         0.00000E+00
    0.47662E-17        -0.14070E-18         0.00000E+00
    0.47666E-17        -0.49427E-19         0.00000E+00
    0.79820E-17        -0.97487E-19         0.00000E+00
    0.79807E-17        -0.25405E-18         0.00000E+00
    0.79764E-17        -0.37996E-18         0.00000E+00
    0.79704E-17        -0.47119E-18         0.00000E+00
    0.79650E-17        -0.52866E-18         0.00000E+00
    0.79606E-17        -0.56151E-18         0.00000E+00
    0.79550E-17        -0.56553E-18         0.00000E+00
    0.79480E-17        -0.55103E-18         0.00000E+00
    0.79431E-17        -0.51034E-18         0.00000E+00
    0.79387E-17        -0.46183E-18         0.00000E+00
    0.79330E-17        -0.39533E-18         0.00000E+00
    0.79302E-17        -0.31512E-18         0.00000E+00
    0.79260E-17        -0.23035E-18         0.00000E+00
    0.79247E-17        -0.13929E-18         0.00000E+00
    0.79229E-17        -0.49675E-19         0.00000E+00
    0.11140E-16        -0.95829E-19         0.00000E+00
    0.11137E-16        -0.25140E-18         0.00000E+00
    0.11131E-16        -0.37313E-18         0.00000E+00
    0.11122E-16        -0.46320E-18         0.00000E+00
    0.11115E-16        -0.52377E-18         0.00000E+00
    0.11108E-16        -0.55476E-18         0.00000E+00
    0.11100E-16        -0.55886E-18         0.00000E+00
    0.11093E-16        -0.54361E-18         0.00000E+00
    0.11086E-16        -0.50546E-18         0.00000E+00
    0.11079E-16        -0.45532E-18         0.00000E+00
    0.11071E-16        -0.38970E-18         0.00000E+00
    0.11064E-16        -0.31023E-18         0.00000E+00
    0.11059E-16        -0.22687E-18         0.00000E+00
    0.11058E-16        -0.13937E-18         0.00000E+00
    0.11055E-16        -0.46817E-19         0.00000E+00
    0.14261E-16        -0.93633E-19         0.00000E+00
    0.14258E-16        -0.24697E-18         0.00000E+00
    0.14252E-16        -0.36600E-18         0.00000E+00
    0.14246E-16        -0.45445E-18         0.00000E+00
    0.14235E-16        -0.51445E-18         0.00000E+00
    0.14222E-16        -0.54465E-18         0.00000E+00
    0.14212E-16        -0.55004E-18         0.00000E+00
    0.14202E-16        -0.53495E-18         0.00000E+00
    0.14193E-16        -0.49841E-18         0.00000E+00
    0.14184E-16        -0.44629E-18         0.00000E+00
    0.14173E-16        -0.38042E-18         0.00000E+00
    0.14167E-16        -0.30675E-18         0.00000E+00
    0.14163E-16        -0.22207E-18         0.00000E+00
    0.14157E-16        -0.13705E-18         0.00000E+00
    0.14155E-16        -0.45367E-19         0.00000E+00
    0.17339E-16        -0.93385E-19         0.00000E+00
    0.17337E-16        -0.24179E-18         0.00000E+00
    0.17329E-16        -0.35738E-18         0.00000E+00
    0.17319E-16        -0.44604E-18         0.00000E+00
    0.17309E-16        -0.50235E-18         0.00000E+00
    0.17294E-16        -0.53052E-18         0.00000E+00
    0.17280E-16        -0.53868E-18         0.00000E+00
    0.17265E-16        -0.52232E-18         0.00000E+00
    0.17250E-16        -0.48805E-18         0.00000E+00
    0.17240E-16        -0.43585E-18         0.00000E+00
    0.17231E-16        -0.37197E-18         0.00000E+00
    0.17223E-16        -0.30137E-18         0.00000E+00
    0.17217E-16        -0.21747E-18         0.00000E+00
    0.17211E-16        -0.13018E-18         0.00000E+00
    0.17206E-16        -0.45035E-19         0.00000E+00
    0.20365E-16        -0.90650E-19         0.00000E+00
    0.20358E-16        -0.23558E-18         0.00000E+00
    0.20351E-16        -0.34785E-18         0.00000E+00
    0.20339E-16        -0.43345E-18         0.00000E+00
    0.20322E-16        -0.48830E-18         0.00000E+00
    0.20307E-16        -0.51453E-18         0.00000E+00
    0.20290E-16        -0.52277E-18         0.00000E+00
    0.20274E-16        -0.50786E-18         0.00000E+00
    0.20258E-16        -0.47281E-18         0.00000E+00
    0.20244E-16        -0.42624E-18         0.00000E+00
    0.20233E-16        -0.36318E-18         0.00000E+00
    0.20222E-16        -0.29051E-18         0.00000E+00
    0.20211E-16        -0.21188E-18         0.00000E+00
    0.20207E-16        -0.12570E-18         0.00000E+00
    0.20206E-16        -0.43544E-19         0.00000E+00
    0.23329E-16        -0.84270E-19         0.00000E+00
    0.23324E-16        -0.22924E-18         0.00000E+00
    0.23312E-16        -0.33609E-18         0.00000E+00
    0.23297E-16        -0.41766E-18         0.00000E+00
    0.23278E-16        -0.46991E-18         0.00000E+00
    0.23260E-16        -0.49825E-18         0.00000E+00
    0.23242E-16        -0.50380E-18         0.00000E+00
    0.23222E-16        -0.48917E-18         0.00000E+00
    0.23201E-16        -0.45624E-18         0.00000E+00
    0.23184E-16        -0.41166E-18         0.00000E+00
    0.23168E-16        -0.35079E-18         0.00000E+00
    0.23153E-16        -0.27775E-18         0.00000E+00
    0.23144E-16        -0.20417E-18         0.00000E+00
    0.23139E-16        -0.12284E-18         0.00000E+00
    0.23137E-16        -0.42839E-19         0.00000E+00
    0.26219E-16        -0.81536E-19         0.00000E+00
    0.26210E-16        -0.21863E-18         0.00000E+00
    0.26196E-16        -0.32076E-18         0.00000E+00
    0.26179E-16        -0.39906E-18         0.00000E+00
    0.26159E-16        -0.45060E-18         0.00000E+00
    0.26138E-16        -0.47745E-18         0.00000E+00
    0.26114E-16        -0.48325E-18         0.00000E+00
    0.26090E-16        -0.46527E-18         0.00000E+00
    0.26067E-16        -0.43668E-18         0.00000E+00
    0.26046E-16        -0.39343E-18         0.00000E+00
    0.26027E-16        -0.33360E-18         0.00000E+00
    0.26012E-16        -0.26541E-18         0.00000E+00
    0.26000E-16        -0.19398E-18         0.00000E+00
    0.25992E-16        -0.12015E-18         0.00000E+00
    0.25989E-16        -0.41514E-19         0.00000E+00
    0.29029E-16        -0.77185E-19         0.00000E+00
    0.29020E-16        -0.20496E-18         0.00000E+00
    0.29003E-16        -0.30298E-18         0.00000E+00
    0.28984E-16        -0.37967E-18         0.00000E+00
    0.28959E-16        -0.42616E-18         0.00000E+00
    0.28930E-16        -0.45226E-18         0.00000E+00
    0.28902E-16        -0.45570E-18         0.00000E+00
    0.28874E-16        -0.44173E-18         0.00000E+00
    0.28849E-16        -0.41248E-18         0.00000E+00
    0.28825E-16        -0.37097E-18         0.00000E+00
    0.28805E-16        -0.31728E-18         0.00000E+00
    0.28790E-16        -0.25140E-18         0.00000E+00
    0.28776E-16        -0.18267E-18         0.00000E+00
    0.28766E-16        -0.11277E-18         0.00000E+00
    0.28760E-16        -0.39193E-19         0.00000E+00
    0.31749E-16        -0.71427E-19         0.00000E+00
    0.31738E-16        -0.19037E-18         0.00000E+00
    0.31720E-16        -0.28243E-18         0.00000E+00
    0.31695E-16        -0.35523E-18         0.00000E+00
    0.31665E-16        -0.39624E-18         0.00000E+00
    0.31634E-16        -0.42214E-18         0.00000E+00
    0.31602E-16        -0.42442E-18         0.00000E+00
    0.31572E-16        -0.41439E-18         0.00000E+00
    0.31542E-16        -0.38630E-18         0.00000E+00
    0.31517E-16        -0.34715E-18         0.00000E+00
    0.31492E-16        -0.29698E-18         0.00000E+00
    0.31472E-16        -0.23466E-18         0.00000E+00
    0.31457E-16        -0.17144E-18         0.00000E+00
    0.31447E-16        -0.10300E-18         0.00000E+00
    0.31440E-16        -0.36956E-19         0.00000E+00
    0.34368E-16        -0.66952E-19         0.00000E+00
    0.34358E-16        -0.17343E-18         0.00000E+00
    0.34337E-16        -0.25977E-18         0.00000E+00
    0.34307E-16        -0.32341E-18         0.00000E+00
    0.34273E-16        -0.36459E-18         0.00000E+00
    0.34238E-16        -0.38738E-18         0.00000E+00
    0.34203E-16        -0.39235E-18         0.00000E+00
    0.34170E-16        -0.38207E-18         0.00000E+00
    0.34136E-16        -0.35622E-18         0.00000E+00
    0.34104E-16        -0.32030E-18         0.00000E+00
    0.34075E-16        -0.27195E-18         0.00000E+00
    0.34051E-16        -0.21556E-18         0.00000E+00
    0.34034E-16        -0.15851E-18         0.00000E+00
    0.34023E-16        -0.93716E-19         0.00000E+00
    0.34018E-16        -0.34802E-19         0.00000E+00
    0.36881E-16        -0.61732E-19         0.00000E+00
    0.36869E-16        -0.15686E-18         0.00000E+00
    0.36846E-16        -0.23168E-18         0.00000E+00
    0.36813E-16        -0.28968E-18         0.00000E+00
    0.36777E-16        -0.32834E-18         0.00000E+00
    0.36737E-16        -0.34918E-18         0.00000E+00
    0.36696E-16        -0.35440E-18         0.00000E+00
    0.36655E-16        -0.34661E-18         0.00000E+00
    0.36619E-16        -0.32163E-18         0.00000E+00
    0.36584E-16        -0.28654E-18         0.00000E+00
    0.36552E-16        -0.24419E-18         0.00000E+00
    0.36528E-16        -0.19439E-18         0.00000E+00
    0.36506E-16        -0.14120E-18         0.00000E+00
    0.36492E-16        -0.85927E-19         0.00000E+00
    0.36485E-16        -0.30824E-19         0.00000E+00
    0.39280E-16        -0.51995E-19         0.00000E+00
    0.39265E-16        -0.13755E-18         0.00000E+00
    0.39239E-16        -0.20168E-18         0.00000E+00
    0.39204E-16        -0.25285E-18         0.00000E+00
    0.39162E-16        -0.28645E-18         0.00000E+00
    0.39119E-16        -0.30675E-18         0.00000E+00
    0.39073E-16        -0.30932E-18         0.00000E+00
    0.39028E-16        -0.30398E-18         0.00000E+00
    0.38983E-16        -0.28281E-18         0.00000E+00
    0.38945E-16        -0.25231E-18         0.00000E+00
    0.38911E-16        -0.21391E-18         0.00000E+00
    0.38881E-16        -0.17078E-18         0.00000E+00
    0.38861E-16        -0.12322E-18         0.00000E+00
    0.38846E-16        -0.75155E-19         0.00000E+00
    0.38838E-16        -0.27469E-19         0.00000E+00
    0.41561E-16        -0.42466E-19         0.00000E+00
    0.41543E-16        -0.11435E-18         0.00000E+00
    0.41512E-16        -0.16875E-18         0.00000E+00
    0.41473E-16        -0.21246E-18         0.00000E+00
    0.41428E-16        -0.23905E-18         0.00000E+00
    0.41376E-16        -0.25857E-18         0.00000E+00
    0.41325E-16        -0.26217E-18         0.00000E+00
    0.41276E-16        -0.25621E-18         0.00000E+00
    0.41227E-16        -0.23756E-18         0.00000E+00
    0.41182E-16        -0.21353E-18         0.00000E+00
    0.41145E-16        -0.18242E-18         0.00000E+00
    0.41116E-16        -0.14513E-18         0.00000E+00
    0.41092E-16        -0.10370E-18         0.00000E+00
    0.41075E-16        -0.62436E-19         0.00000E+00
    0.41066E-16        -0.23864E-19         0.00000E+00
    0.43708E-16        -0.33559E-19         0.00000E+00
    0.43688E-16        -0.86010E-19         0.00000E+00
    0.43656E-16        -0.13283E-18         0.00000E+00
    0.43612E-16        -0.16597E-18         0.00000E+00
    0.43559E-16        -0.18694E-18         0.00000E+00
    0.43505E-16        -0.20388E-18         0.00000E+00
    0.43449E-16        -0.21088E-18         0.00000E+00
    0.43393E-16        -0.20264E-18         0.00000E+00
    0.43341E-16        -0.19158E-18         0.00000E+00
    0.43295E-16        -0.17045E-18         0.00000E+00
    0.43254E-16        -0.14700E-18         0.00000E+00
    0.43220E-16        -0.11725E-18         0.00000E+00
    0.43194E-16        -0.81038E-19         0.00000E+00
    0.43177E-16        -0.51623E-19         0.00000E+00
    0.43169E-16        -0.18312E-19         0.00000E+00
    0.45715E-16        -0.22953E-19         0.00000E+00
    0.45696E-16        -0.58873E-19         0.00000E+00
    0.45661E-16        -0.93012E-19         0.00000E+00
    0.45614E-16        -0.11480E-18         0.00000E+00
    0.45559E-16        -0.13080E-18         0.00000E+00
    0.45499E-16        -0.14526E-18         0.00000E+00
    0.45436E-16        -0.15039E-18         0.00000E+00
    0.45375E-16        -0.14671E-18         0.00000E+00
    0.45321E-16        -0.13987E-18         0.00000E+00
    0.45270E-16        -0.12612E-18         0.00000E+00
    0.45226E-16        -0.10664E-18         0.00000E+00
    0.45189E-16        -0.85347E-19         0.00000E+00
    0.45162E-16        -0.60572E-19         0.00000E+00
    0.45146E-16        -0.37785E-19         0.00000E+00
    0.45135E-16        -0.14832E-19         0.00000E+00
    0.47582E-16        -0.11269E-19         0.00000E+00
    0.47560E-16        -0.29830E-19         0.00000E+00
    0.47521E-16        -0.47521E-19         0.00000E+00
    0.47470E-16        -0.63057E-19         0.00000E+00
    0.47413E-16        -0.70266E-19         0.00000E+00
    0.47350E-16        -0.81453E-19         0.00000E+00
    0.47282E-16        -0.85223E-19         0.00000E+00
    0.47219E-16        -0.88330E-19         0.00000E+00
    0.47159E-16        -0.81867E-19         0.00000E+00
    0.47103E-16        -0.75984E-19         0.00000E+00
    0.47056E-16        -0.66041E-19         0.00000E+00
    0.47020E-16        -0.52700E-19         0.00000E+00
    0.46991E-16        -0.37868E-19         0.00000E+00
    0.46972E-16        -0.23160E-19         0.00000E+00
    0.46963E-16        -0.10772E-19         0.00000E+00
    0.49291E-16         0.23201E-20         0.00000E+00
    0.49268E-16         0.23615E-20         0.00000E+00
    0.49228E-16         0.41431E-22         0.00000E+00
    0.49174E-16        -0.66289E-20         0.00000E+00
    0.49113E-16        -0.80375E-20         0.00000E+00
    0.49048E-16        -0.15826E-19         0.00000E+00
    0.48983E-16        -0.17649E-19         0.00000E+00
    0.48914E-16        -0.23533E-19         0.00000E+00
    0.48850E-16        -0.22538E-19         0.00000E+00
    0.48794E-16        -0.24693E-19         0.00000E+00
    0.48746E-16        -0.22207E-19         0.00000E+00
    0.48705E-16        -0.20052E-19         0.00000E+00
    0.48676E-16        -0.13299E-19         0.00000E+00
    0.48658E-16        -0.10482E-19         0.00000E+00
    0.48648E-16        -0.39773E-20         0.00000E+00
    0.50846E-16         0.15992E-19         0.00000E+00
    0.50822E-16         0.35174E-19         0.00000E+00
    0.50782E-16         0.47438E-19         0.00000E+00
    0.50726E-16         0.54150E-19         0.00000E+00
    0.50662E-16         0.55848E-19         0.00000E+00
    0.50594E-16         0.53611E-19         0.00000E+00
    0.50523E-16         0.50048E-19         0.00000E+00
    0.50456E-16         0.44994E-19         0.00000E+00
    0.50392E-16         0.37453E-19         0.00000E+00
    0.50335E-16         0.27841E-19         0.00000E+00
    0.50287E-16         0.22207E-19         0.00000E+00
    0.50246E-16         0.16738E-19         0.00000E+00
    0.50216E-16         0.95290E-20         0.00000E+00
    0.50197E-16         0.32316E-20         0.00000E+00
    0.50188E-16         0.10772E-20         0.00000E+00
    0.52232E-16         0.28587E-19         0.00000E+00
    0.52210E-16         0.67573E-19         0.00000E+00
    0.52170E-16         0.95704E-19         0.00000E+00
    0.52115E-16         0.11613E-18         0.00000E+00
    0.52051E-16         0.12164E-18         0.00000E+00
    0.51983E-16         0.12529E-18         0.00000E+00
    0.51914E-16         0.11932E-18         0.00000E+00
    0.51846E-16         0.11103E-18         0.00000E+00
    0.51783E-16         0.98273E-19         0.00000E+00
    0.51727E-16         0.80707E-19         0.00000E+00
    0.51676E-16         0.67532E-19         0.00000E+00
    0.51639E-16         0.50587E-19         0.00000E+00
    0.51612E-16         0.33310E-19         0.00000E+00
    0.51593E-16         0.17898E-19         0.00000E+00
    0.51583E-16         0.49717E-20         0.00000E+00
    0.53454E-16         0.39193E-19         0.00000E+00
    0.53430E-16         0.10076E-18         0.00000E+00
    0.53389E-16         0.14571E-18         0.00000E+00
    0.53337E-16         0.17351E-18         0.00000E+00
    0.53277E-16         0.18801E-18         0.00000E+00
    0.53211E-16         0.19290E-18         0.00000E+00
    0.53145E-16         0.18776E-18         0.00000E+00
    0.53078E-16         0.17616E-18         0.00000E+00
    0.53016E-16         0.15694E-18         0.00000E+00
    0.52961E-16         0.13349E-18         0.00000E+00
    0.52917E-16         0.10813E-18         0.00000E+00
    0.52883E-16         0.80292E-19         0.00000E+00
    0.52856E-16         0.56926E-19         0.00000E+00
    0.52840E-16         0.31239E-19         0.00000E+00
    0.52833E-16         0.85347E-20         0.00000E+00
    0.54490E-16         0.51167E-19         0.00000E+00
    0.54471E-16         0.13216E-18         0.00000E+00
    0.54436E-16         0.19083E-18         0.00000E+00
    0.54388E-16         0.22720E-18         0.00000E+00
    0.54331E-16         0.24974E-18         0.00000E+00
    0.54272E-16         0.25596E-18         0.00000E+00
    0.54209E-16         0.25434E-18         0.00000E+00
    0.54149E-16         0.23760E-18         0.00000E+00
    0.54097E-16         0.21038E-18         0.00000E+00
    0.54052E-16         0.18022E-18         0.00000E+00
    0.54012E-16         0.14584E-18         0.00000E+00
    0.53978E-16         0.11124E-18         0.00000E+00
    0.53956E-16         0.74989E-19         0.00000E+00
    0.53944E-16         0.41265E-19         0.00000E+00
    0.53936E-16         0.13465E-19         0.00000E+00
    0.55348E-16         0.62808E-19         0.00000E+00
    0.55329E-16         0.15918E-18         0.00000E+00
    0.55297E-16         0.23085E-18         0.00000E+00
    0.55255E-16         0.27700E-18         0.00000E+00
    0.55209E-16         0.30344E-18         0.00000E+00
    0.55158E-16         0.31230E-18         0.00000E+00
    0.55110E-16         0.30907E-18         0.00000E+00
    0.55065E-16         0.28869E-18         0.00000E+00
    0.55023E-16         0.25496E-18         0.00000E+00
    0.54983E-16         0.21946E-18         0.00000E+00
    0.54952E-16         0.17798E-18         0.00000E+00
    0.54929E-16         0.13457E-18         0.00000E+00
    0.54911E-16         0.91395E-19         0.00000E+00
    0.54898E-16         0.50959E-19         0.00000E+00
    0.54893E-16         0.17152E-19         0.00000E+00
    0.56011E-16         0.73415E-19         0.00000E+00
    0.55995E-16         0.18312E-18         0.00000E+00
    0.55972E-16         0.26126E-18         0.00000E+00
    0.55944E-16         0.31628E-18         0.00000E+00
    0.55911E-16         0.34482E-18         0.00000E+00
    0.55880E-16         0.35410E-18         0.00000E+00
    0.55847E-16         0.34690E-18         0.00000E+00
    0.55819E-16         0.32382E-18         0.00000E+00
    0.55791E-16         0.28885E-18         0.00000E+00
    0.55768E-16         0.24833E-18         0.00000E+00
    0.55748E-16         0.20172E-18         0.00000E+00
    0.55730E-16         0.15155E-18         0.00000E+00
    0.55719E-16         0.10407E-18         0.00000E+00
    0.55712E-16         0.58417E-19         0.00000E+00
    0.55708E-16         0.18312E-19         0.00000E+00
    0.56474E-16         0.79795E-19         0.00000E+00
    0.56468E-16         0.19845E-18         0.00000E+00
    0.56455E-16         0.28197E-18         0.00000E+00
    0.56441E-16         0.33596E-18         0.00000E+00
    0.56433E-16         0.36591E-18         0.00000E+00
    0.56426E-16         0.37246E-18         0.00000E+00
    0.56419E-16         0.36454E-18         0.00000E+00
    0.56414E-16         0.33960E-18         0.00000E+00
    0.56408E-16         0.30617E-18         0.00000E+00
    0.56400E-16         0.26225E-18         0.00000E+00
    0.56393E-16         0.21353E-18         0.00000E+00
    0.56392E-16         0.15888E-18         0.00000E+00
    0.56391E-16         0.11004E-18         0.00000E+00
    0.56386E-16         0.62560E-19         0.00000E+00
    0.56385E-16         0.21212E-19         0.00000E+00
    0.56734E-16         0.81286E-19         0.00000E+00
    0.56734E-16         0.20313E-18         0.00000E+00
    0.56739E-16         0.28508E-18         0.00000E+00
    0.56753E-16         0.33186E-18         0.00000E+00
    0.56772E-16         0.35899E-18         0.00000E+00
    0.56796E-16         0.36434E-18         0.00000E+00
    0.56821E-16         0.35431E-18         0.00000E+00
    0.56847E-16         0.32908E-18         0.00000E+00
    0.56871E-16         0.29888E-18         0.00000E+00
    0.56892E-16         0.25662E-18         0.00000E+00
    0.56908E-16         0.20964E-18         0.00000E+00
    0.56915E-16         0.15603E-18         0.00000E+00
    0.56922E-16         0.10817E-18         0.00000E+00
    0.56928E-16         0.62808E-19         0.00000E+00
    0.56930E-16         0.20798E-19         0.00000E+00
    0.56780E-16         0.80582E-19         0.00000E+00
    0.56794E-16         0.19050E-18         0.00000E+00
    0.56826E-16         0.26006E-18         0.00000E+00
    0.56874E-16         0.29693E-18         0.00000E+00
    0.56930E-16         0.31752E-18         0.00000E+00
    0.56993E-16         0.31963E-18         0.00000E+00
    0.57059E-16         0.30720E-18         0.00000E+00
    0.57123E-16         0.28574E-18         0.00000E+00
    0.57182E-16         0.25927E-18         0.00000E+00
    0.57234E-16         0.22298E-18         0.00000E+00
    0.57276E-16         0.18486E-18         0.00000E+00
    0.57307E-16         0.14181E-18         0.00000E+00
    0.57326E-16         0.97443E-19         0.00000E+00
    0.57337E-16         0.56055E-19         0.00000E+00
    0.57343E-16         0.19804E-19         0.00000E+00
    0.56593E-16         0.69106E-19         0.00000E+00
    0.56633E-16         0.14774E-18         0.00000E+00
    0.56705E-16         0.19605E-18         0.00000E+00
    0.56800E-16         0.21883E-18         0.00000E+00
    0.56908E-16         0.23035E-18         0.00000E+00
    0.57023E-16         0.22977E-18         0.00000E+00
    0.57135E-16         0.21767E-18         0.00000E+00
    0.57244E-16         0.20367E-18         0.00000E+00
    0.57343E-16         0.18358E-18         0.00000E+00
    0.57430E-16         0.16033E-18         0.00000E+00
    0.57503E-16         0.13245E-18         0.00000E+00
    0.57560E-16         0.10573E-18         0.00000E+00
    0.57601E-16         0.73248E-19         0.00000E+00
    0.57629E-16         0.41678E-19         0.00000E+00
    0.57640E-16         0.18809E-19         0.00000E+00
    0.56158E-16         0.29498E-19         0.00000E+00
    0.56246E-16         0.59411E-19         0.00000E+00
    0.56382E-16         0.76645E-19         0.00000E+00
    0.56542E-16         0.83937E-19         0.00000E+00
    0.56712E-16         0.86174E-19         0.00000E+00
    0.56885E-16         0.86505E-19         0.00000E+00
    0.57052E-16         0.81202E-19         0.00000E+00
    0.57209E-16         0.75319E-19         0.00000E+00
    0.57353E-16         0.68525E-19         0.00000E+00
    0.57481E-16         0.60653E-19         0.00000E+00
    0.57591E-16         0.49798E-19         0.00000E+00
    0.57682E-16         0.40850E-19         0.00000E+00
    0.57752E-16         0.27302E-19         0.00000E+00
    0.57795E-16         0.15992E-19         0.00000E+00
    0.57820E-16         0.92803E-20         0.00000E+00
POINT_DATA        496
VECTORS vDarcyNodal double 
    0.16015E-17        -0.99434E-19         0.00000E+00
    0.15996E-17        -0.17931E-18         0.00000E+00
    0.15996E-17        -0.32150E-18         0.00000E+00
    0.16009E-17        -0.43055E-18         0.00000E+00
    0.15992E-17        -0.50744E-18         0.00000E+00
    0.15982E-17        -0.55517E-18         0.00000E+00
    0.15936E-17        -0.57340E-18         0.00000E+00
    0.15943E-17        -0.56478E-18         0.00000E+00
    0.15939E-17        -0.53727E-18         0.00000E+00
    0.15943E-17        -0.49319E-18         0.00000E+00
    0.15919E-17        -0.43353E-18         0.00000E+00
    0.15896E-17        -0.35929E-18         0.00000E+00
    0.15923E-17        -0.27609E-18         0.00000E+00
    0.15903E-17        -0.18760E-18         0.00000E+00
    0.15890E-17        -0.94131E-19         0.00000E+00
    0.15896E-17        -0.47065E-19         0.00000E+00
    0.32014E-17        -0.97602E-19         0.00000E+00
    0.32006E-17        -0.17832E-18         0.00000E+00
    0.31991E-17        -0.32183E-18         0.00000E+00
    0.31985E-17        -0.43038E-18         0.00000E+00
    0.31964E-17        -0.50621E-18         0.00000E+00
    0.31935E-17        -0.55260E-18         0.00000E+00
    0.31885E-17        -0.57149E-18         0.00000E+00
    0.31867E-17        -0.56512E-18         0.00000E+00
    0.31860E-17        -0.53727E-18         0.00000E+00
    0.31824E-17        -0.49187E-18         0.00000E+00
    0.31814E-17        -0.43154E-18         0.00000E+00
    0.31796E-17        -0.35962E-18         0.00000E+00
    0.31792E-17        -0.27643E-18         0.00000E+00
    0.31782E-17        -0.18627E-18         0.00000E+00
    0.31769E-17        -0.94383E-19         0.00000E+00
    0.31792E-17        -0.47571E-19         0.00000E+00
    0.63916E-17        -0.97097E-19         0.00000E+00
    0.63920E-17        -0.17683E-18         0.00000E+00
    0.63890E-17        -0.31951E-18         0.00000E+00
    0.63849E-17        -0.42856E-18         0.00000E+00
    0.63807E-17        -0.50232E-18         0.00000E+00
    0.63754E-17        -0.54704E-18         0.00000E+00
    0.63711E-17        -0.56627E-18         0.00000E+00
    0.63654E-17        -0.56213E-18         0.00000E+00
    0.63612E-17        -0.53297E-18         0.00000E+00
    0.63561E-17        -0.48855E-18         0.00000E+00
    0.63529E-17        -0.43138E-18         0.00000E+00
    0.63508E-17        -0.35763E-18         0.00000E+00
    0.63467E-17        -0.27477E-18         0.00000E+00
    0.63455E-17        -0.18594E-18         0.00000E+00
    0.63445E-17        -0.95631E-19         0.00000E+00
    0.63452E-17        -0.50728E-19         0.00000E+00
    0.95619E-17        -0.97445E-19         0.00000E+00
    0.95605E-17        -0.17500E-18         0.00000E+00
    0.95572E-17        -0.31487E-18         0.00000E+00
    0.95507E-17        -0.42259E-18         0.00000E+00
    0.95423E-17        -0.49718E-18         0.00000E+00
    0.95377E-17        -0.54291E-18         0.00000E+00
    0.95308E-17        -0.56130E-18         0.00000E+00
    0.95238E-17        -0.55484E-18         0.00000E+00
    0.95165E-17        -0.52848E-18         0.00000E+00
    0.95115E-17        -0.48375E-18         0.00000E+00
    0.95055E-17        -0.42608E-18         0.00000E+00
    0.94996E-17        -0.35365E-18         0.00000E+00
    0.94943E-17        -0.27112E-18         0.00000E+00
    0.94910E-17        -0.18395E-18         0.00000E+00
    0.94909E-17        -0.93625E-19         0.00000E+00
    0.94880E-17        -0.48705E-19         0.00000E+00
    0.12702E-16        -0.94428E-19         0.00000E+00
    0.12699E-16        -0.17169E-18         0.00000E+00
    0.12696E-16        -0.30924E-18         0.00000E+00
    0.12688E-16        -0.41364E-18         0.00000E+00
    0.12680E-16        -0.48989E-18         0.00000E+00
    0.12670E-16        -0.53560E-18         0.00000E+00
    0.12660E-16        -0.55250E-18         0.00000E+00
    0.12651E-16        -0.54788E-18         0.00000E+00
    0.12643E-16        -0.52103E-18         0.00000E+00
    0.12636E-16        -0.47728E-18         0.00000E+00
    0.12627E-16        -0.41895E-18         0.00000E+00
    0.12617E-16        -0.34636E-18         0.00000E+00
    0.12614E-16        -0.26615E-18         0.00000E+00
    0.12609E-16        -0.18230E-18         0.00000E+00
    0.12606E-16        -0.92159E-19         0.00000E+00
    0.12606E-16        -0.44448E-19         0.00000E+00
    0.15800E-16        -0.92142E-19         0.00000E+00
    0.15800E-16        -0.16872E-18         0.00000E+00
    0.15795E-16        -0.30377E-18         0.00000E+00
    0.15786E-16        -0.40668E-18         0.00000E+00
    0.15778E-16        -0.47894E-18         0.00000E+00
    0.15766E-16        -0.52334E-18         0.00000E+00
    0.15751E-16        -0.54191E-18         0.00000E+00
    0.15740E-16        -0.53727E-18         0.00000E+00
    0.15727E-16        -0.51275E-18         0.00000E+00
    0.15717E-16        -0.46767E-18         0.00000E+00
    0.15706E-16        -0.40768E-18         0.00000E+00
    0.15698E-16        -0.34040E-18         0.00000E+00
    0.15692E-16        -0.26251E-18         0.00000E+00
    0.15688E-16        -0.17666E-18         0.00000E+00
    0.15681E-16        -0.90153E-19         0.00000E+00
    0.15680E-16        -0.46402E-19         0.00000E+00
    0.18854E-16        -0.94131E-19         0.00000E+00
    0.18851E-16        -0.16639E-18         0.00000E+00
    0.18845E-16        -0.29565E-18         0.00000E+00
    0.18835E-16        -0.39674E-18         0.00000E+00
    0.18823E-16        -0.46934E-18         0.00000E+00
    0.18809E-16        -0.50910E-18         0.00000E+00
    0.18793E-16        -0.52632E-18         0.00000E+00
    0.18777E-16        -0.52335E-18         0.00000E+00
    0.18762E-16        -0.49798E-18         0.00000E+00
    0.18747E-16        -0.45673E-18         0.00000E+00
    0.18737E-16        -0.39974E-18         0.00000E+00
    0.18728E-16        -0.33244E-18         0.00000E+00
    0.18717E-16        -0.25621E-18         0.00000E+00
    0.18712E-16        -0.17069E-18         0.00000E+00
    0.18707E-16        -0.84833E-19         0.00000E+00
    0.18705E-16        -0.43385E-19         0.00000E+00
    0.21850E-16        -0.86107E-19         0.00000E+00
    0.21844E-16        -0.15976E-18         0.00000E+00
    0.21838E-16        -0.28823E-18         0.00000E+00
    0.21825E-16        -0.38444E-18         0.00000E+00
    0.21810E-16        -0.45239E-18         0.00000E+00
    0.21791E-16        -0.49356E-18         0.00000E+00
    0.21775E-16        -0.51013E-18         0.00000E+00
    0.21757E-16        -0.50642E-18         0.00000E+00
    0.21738E-16        -0.48255E-18         0.00000E+00
    0.21721E-16        -0.44248E-18         0.00000E+00
    0.21707E-16        -0.38932E-18         0.00000E+00
    0.21694E-16        -0.32121E-18         0.00000E+00
    0.21682E-16        -0.24593E-18         0.00000E+00
    0.21674E-16        -0.16585E-18         0.00000E+00
    0.21672E-16        -0.83524E-19         0.00000E+00
    0.21671E-16        -0.43157E-19         0.00000E+00
    0.24776E-16        -0.82793E-19         0.00000E+00
    0.24772E-16        -0.15445E-18         0.00000E+00
    0.24762E-16        -0.27676E-18         0.00000E+00
    0.24746E-16        -0.36857E-18         0.00000E+00
    0.24729E-16        -0.43489E-18         0.00000E+00
    0.24709E-16        -0.47460E-18         0.00000E+00
    0.24688E-16        -0.49216E-18         0.00000E+00
    0.24668E-16        -0.48623E-18         0.00000E+00
    0.24644E-16        -0.46237E-18         0.00000E+00
    0.24624E-16        -0.42525E-18         0.00000E+00
    0.24606E-16        -0.37288E-18         0.00000E+00
    0.24589E-16        -0.30725E-18         0.00000E+00
    0.24577E-16        -0.23599E-18         0.00000E+00
    0.24567E-16        -0.16108E-18         0.00000E+00
    0.24564E-16        -0.82233E-19         0.00000E+00
    0.24562E-16        -0.42494E-19         0.00000E+00
    0.27626E-16        -0.79478E-19         0.00000E+00
    0.27622E-16        -0.14584E-18         0.00000E+00
    0.27608E-16        -0.26251E-18         0.00000E+00
    0.27591E-16        -0.35130E-18         0.00000E+00
    0.27571E-16        -0.41530E-18         0.00000E+00
    0.27547E-16        -0.45342E-18         0.00000E+00
    0.27522E-16        -0.46833E-18         0.00000E+00
    0.27494E-16        -0.46237E-18         0.00000E+00
    0.27470E-16        -0.43950E-18         0.00000E+00
    0.27446E-16        -0.40403E-18         0.00000E+00
    0.27425E-16        -0.35398E-18         0.00000E+00
    0.27408E-16        -0.29234E-18         0.00000E+00
    0.27394E-16        -0.22376E-18         0.00000E+00
    0.27382E-16        -0.15263E-18         0.00000E+00
    0.27375E-16        -0.78850E-19         0.00000E+00
    0.27373E-16        -0.40436E-19         0.00000E+00
    0.30392E-16        -0.74907E-19         0.00000E+00
    0.30387E-16        -0.13659E-18         0.00000E+00
    0.30372E-16        -0.24560E-18         0.00000E+00
    0.30351E-16        -0.33145E-18         0.00000E+00
    0.30327E-16        -0.39044E-18         0.00000E+00
    0.30297E-16        -0.42488E-18         0.00000E+00
    0.30267E-16        -0.43950E-18         0.00000E+00
    0.30236E-16        -0.43486E-18         0.00000E+00
    0.30209E-16        -0.41464E-18         0.00000E+00
    0.30183E-16        -0.37984E-18         0.00000E+00
    0.30159E-16        -0.33476E-18         0.00000E+00
    0.30139E-16        -0.27609E-18         0.00000E+00
    0.30122E-16        -0.20981E-18         0.00000E+00
    0.30111E-16        -0.14252E-18         0.00000E+00
    0.30101E-16        -0.73250E-19         0.00000E+00
    0.30099E-16        -0.38448E-19         0.00000E+00
    0.33061E-16        -0.68278E-19         0.00000E+00
    0.33057E-16        -0.12529E-18         0.00000E+00
    0.33040E-16        -0.22737E-18         0.00000E+00
    0.33017E-16        -0.30659E-18         0.00000E+00
    0.32985E-16        -0.36128E-18         0.00000E+00
    0.32954E-16        -0.39343E-18         0.00000E+00
    0.32919E-16        -0.40735E-18         0.00000E+00
    0.32886E-16        -0.40403E-18         0.00000E+00
    0.32855E-16        -0.38580E-18         0.00000E+00
    0.32824E-16        -0.35432E-18         0.00000E+00
    0.32797E-16        -0.31027E-18         0.00000E+00
    0.32771E-16        -0.25554E-18         0.00000E+00
    0.32752E-16        -0.19552E-18         0.00000E+00
    0.32739E-16        -0.13125E-18         0.00000E+00
    0.32730E-16        -0.66621E-19         0.00000E+00
    0.32728E-16        -0.35796E-19         0.00000E+00
    0.35628E-16        -0.66289E-19         0.00000E+00
    0.35622E-16        -0.11534E-18         0.00000E+00
    0.35605E-16        -0.20550E-18         0.00000E+00
    0.35577E-16        -0.27676E-18         0.00000E+00
    0.35543E-16        -0.32750E-18         0.00000E+00
    0.35506E-16        -0.35846E-18         0.00000E+00
    0.35468E-16        -0.37218E-18         0.00000E+00
    0.35430E-16        -0.37089E-18         0.00000E+00
    0.35394E-16        -0.35196E-18         0.00000E+00
    0.35360E-16        -0.32183E-18         0.00000E+00
    0.35327E-16        -0.28176E-18         0.00000E+00
    0.35300E-16        -0.23201E-18         0.00000E+00
    0.35279E-16        -0.17898E-18         0.00000E+00
    0.35262E-16        -0.12098E-18         0.00000E+00
    0.35253E-16        -0.61283E-19         0.00000E+00
    0.35250E-16        -0.32413E-19         0.00000E+00
    0.38086E-16        -0.57009E-19         0.00000E+00
    0.38076E-16        -0.10275E-18         0.00000E+00
    0.38057E-16        -0.18229E-18         0.00000E+00
    0.38027E-16        -0.24461E-18         0.00000E+00
    0.37991E-16        -0.29068E-18         0.00000E+00
    0.37949E-16        -0.31852E-18         0.00000E+00
    0.37907E-16        -0.33111E-18         0.00000E+00
    0.37862E-16        -0.32989E-18         0.00000E+00
    0.37820E-16        -0.31587E-18         0.00000E+00
    0.37781E-16        -0.28710E-18         0.00000E+00
    0.37747E-16        -0.24991E-18         0.00000E+00
    0.37716E-16        -0.20749E-18         0.00000E+00
    0.37693E-16        -0.15744E-18         0.00000E+00
    0.37674E-16        -0.10639E-18         0.00000E+00
    0.37663E-16        -0.55020E-19         0.00000E+00
    0.37660E-16        -0.28504E-19         0.00000E+00
    0.40425E-16        -0.46597E-19         0.00000E+00
    0.40416E-16        -0.86839E-19         0.00000E+00
    0.40392E-16        -0.15717E-18         0.00000E+00
    0.40359E-16        -0.21023E-18         0.00000E+00
    0.40318E-16        -0.24835E-18         0.00000E+00
    0.40272E-16        -0.27451E-18         0.00000E+00
    0.40223E-16        -0.28577E-18         0.00000E+00
    0.40175E-16        -0.28415E-18         0.00000E+00
    0.40128E-16        -0.27105E-18         0.00000E+00
    0.40083E-16        -0.24825E-18         0.00000E+00
    0.40044E-16        -0.21683E-18         0.00000E+00
    0.40012E-16        -0.17772E-18         0.00000E+00
    0.39986E-16        -0.13689E-18         0.00000E+00
    0.39967E-16        -0.91410E-19         0.00000E+00
    0.39954E-16        -0.47231E-19         0.00000E+00
    0.39950E-16        -0.26321E-19         0.00000E+00
    0.42638E-16        -0.38448E-19         0.00000E+00
    0.42630E-16        -0.69603E-19         0.00000E+00
    0.42602E-16        -0.12571E-18         0.00000E+00
    0.42566E-16        -0.17103E-18         0.00000E+00
    0.42519E-16        -0.20324E-18         0.00000E+00
    0.42467E-16        -0.22273E-18         0.00000E+00
    0.42413E-16        -0.23466E-18         0.00000E+00
    0.42361E-16        -0.23476E-18         0.00000E+00
    0.42307E-16        -0.22333E-18         0.00000E+00
    0.42261E-16        -0.20324E-18         0.00000E+00
    0.42217E-16        -0.17938E-18         0.00000E+00
    0.42182E-16        -0.14941E-18         0.00000E+00
    0.42155E-16        -0.11170E-18         0.00000E+00
    0.42132E-16        -0.74975E-19         0.00000E+00
    0.42120E-16        -0.38779E-19         0.00000E+00
    0.42115E-16        -0.19887E-19         0.00000E+00
    0.44717E-16        -0.29030E-19         0.00000E+00
    0.44706E-16        -0.50048E-19         0.00000E+00
    0.44679E-16        -0.93136E-19         0.00000E+00
    0.44638E-16        -0.12761E-18         0.00000E+00
    0.44588E-16        -0.15038E-18         0.00000E+00
    0.44531E-16        -0.16831E-18         0.00000E+00
    0.44473E-16        -0.17908E-18         0.00000E+00
    0.44413E-16        -0.17865E-18         0.00000E+00
    0.44356E-16        -0.17069E-18         0.00000E+00
    0.44305E-16        -0.15810E-18         0.00000E+00
    0.44261E-16        -0.13854E-18         0.00000E+00
    0.44220E-16        -0.11501E-18         0.00000E+00
    0.44188E-16        -0.85844E-19         0.00000E+00
    0.44168E-16        -0.57009E-19         0.00000E+00
    0.44154E-16        -0.31225E-19         0.00000E+00
    0.44150E-16        -0.17372E-19         0.00000E+00
    0.46654E-16        -0.16766E-19         0.00000E+00
    0.46642E-16        -0.31750E-19         0.00000E+00
    0.46614E-16        -0.58334E-19         0.00000E+00
    0.46568E-16        -0.79947E-19         0.00000E+00
    0.46516E-16        -0.95456E-19         0.00000E+00
    0.46456E-16        -0.10765E-18         0.00000E+00
    0.46392E-16        -0.11674E-18         0.00000E+00
    0.46326E-16        -0.11833E-18         0.00000E+00
    0.46269E-16        -0.11561E-18         0.00000E+00
    0.46211E-16        -0.10772E-18         0.00000E+00
    0.46161E-16        -0.94462E-19         0.00000E+00
    0.46120E-16        -0.77558E-19         0.00000E+00
    0.46088E-16        -0.59992E-19         0.00000E+00
    0.46066E-16        -0.40436E-19         0.00000E+00
    0.46051E-16        -0.21115E-19         0.00000E+00
    0.46047E-16        -0.12732E-19         0.00000E+00
    0.48443E-16        -0.51659E-20         0.00000E+00
    0.48430E-16        -0.96119E-20         0.00000E+00
    0.48397E-16        -0.19224E-19         0.00000E+00
    0.48351E-16        -0.29761E-19         0.00000E+00
    0.48294E-16        -0.37785E-19         0.00000E+00
    0.48232E-16        -0.44414E-19         0.00000E+00
    0.48166E-16        -0.49717E-19         0.00000E+00
    0.48099E-16        -0.55351E-19         0.00000E+00
    0.48034E-16        -0.55020E-19         0.00000E+00
    0.47974E-16        -0.50711E-19         0.00000E+00
    0.47922E-16        -0.47728E-19         0.00000E+00
    0.47879E-16        -0.41431E-19         0.00000E+00
    0.47846E-16        -0.31390E-19         0.00000E+00
    0.47821E-16        -0.20550E-19         0.00000E+00
    0.47809E-16        -0.12526E-19         0.00000E+00
    0.47802E-16        -0.86176E-20         0.00000E+00
    0.50075E-16         0.79547E-20         0.00000E+00
    0.50061E-16         0.13161E-19         0.00000E+00
    0.50028E-16         0.21281E-19         0.00000E+00
    0.49981E-16         0.23201E-19         0.00000E+00
    0.49920E-16         0.23533E-19         0.00000E+00
    0.49856E-16         0.20550E-19         0.00000E+00
    0.49787E-16         0.15909E-19         0.00000E+00
    0.49719E-16         0.13921E-19         0.00000E+00
    0.49650E-16         0.96119E-20         0.00000E+00
    0.49591E-16         0.43088E-20         0.00000E+00
    0.49539E-16         0.99434E-21         0.00000E+00
    0.49494E-16        -0.99434E-21         0.00000E+00
    0.49457E-16        -0.19887E-20         0.00000E+00
    0.49434E-16        -0.32458E-20         0.00000E+00
    0.49420E-16        -0.23201E-20         0.00000E+00
    0.49415E-16        -0.13724E-21         0.00000E+00
    0.51545E-16         0.22538E-19         0.00000E+00
    0.51532E-16         0.37053E-19         0.00000E+00
    0.51500E-16         0.61317E-19         0.00000E+00
    0.51452E-16         0.78552E-19         0.00000E+00
    0.51390E-16         0.87170E-19         0.00000E+00
    0.51324E-16         0.89061E-19         0.00000E+00
    0.51253E-16         0.87501E-19         0.00000E+00
    0.51184E-16         0.80872E-19         0.00000E+00
    0.51118E-16         0.72918E-19         0.00000E+00
    0.51057E-16         0.60986E-19         0.00000E+00
    0.51004E-16         0.49054E-19         0.00000E+00
    0.50959E-16         0.40436E-19         0.00000E+00
    0.50926E-16         0.28504E-19         0.00000E+00
    0.50902E-16         0.15909E-19         0.00000E+00
    0.50887E-16         0.62974E-20         0.00000E+00
    0.50883E-16         0.19887E-20         0.00000E+00
    0.52849E-16         0.33670E-19         0.00000E+00
    0.52837E-16         0.58265E-19         0.00000E+00
    0.52804E-16         0.10182E-18         0.00000E+00
    0.52755E-16         0.13357E-18         0.00000E+00
    0.52698E-16         0.15081E-18         0.00000E+00
    0.52631E-16         0.15734E-18         0.00000E+00
    0.52563E-16         0.15677E-18         0.00000E+00
    0.52495E-16         0.14915E-18         0.00000E+00
    0.52429E-16         0.13589E-18         0.00000E+00
    0.52370E-16         0.11766E-18         0.00000E+00
    0.52317E-16         0.99102E-19         0.00000E+00
    0.52276E-16         0.77392E-19         0.00000E+00
    0.52246E-16         0.55351E-19         0.00000E+00
    0.52223E-16         0.35533E-19         0.00000E+00
    0.52210E-16         0.16241E-19         0.00000E+00
    0.52206E-16         0.71545E-20         0.00000E+00
    0.53978E-16         0.45076E-19         0.00000E+00
    0.53966E-16         0.81866E-19         0.00000E+00
    0.53935E-16         0.14418E-18         0.00000E+00
    0.53889E-16         0.18495E-18         0.00000E+00
    0.53835E-16         0.21047E-18         0.00000E+00
    0.53773E-16         0.22339E-18         0.00000E+00
    0.53710E-16         0.22372E-18         0.00000E+00
    0.53644E-16         0.21511E-18         0.00000E+00
    0.53583E-16         0.19787E-18         0.00000E+00
    0.53530E-16         0.17301E-18         0.00000E+00
    0.53483E-16         0.14245E-18         0.00000E+00
    0.53446E-16         0.11153E-18         0.00000E+00
    0.53415E-16         0.82267E-19         0.00000E+00
    0.53397E-16         0.52534E-19         0.00000E+00
    0.53387E-16         0.23201E-19         0.00000E+00
    0.53382E-16         0.92804E-20         0.00000E+00
    0.54925E-16         0.57534E-19         0.00000E+00
    0.54913E-16         0.10142E-18         0.00000E+00
    0.54887E-16         0.17865E-18         0.00000E+00
    0.54847E-16         0.23334E-18         0.00000E+00
    0.54797E-16         0.26681E-18         0.00000E+00
    0.54743E-16         0.28272E-18         0.00000E+00
    0.54687E-16         0.28637E-18         0.00000E+00
    0.54632E-16         0.27609E-18         0.00000E+00
    0.54581E-16         0.25038E-18         0.00000E+00
    0.54538E-16         0.21750E-18         0.00000E+00
    0.54498E-16         0.18299E-18         0.00000E+00
    0.54465E-16         0.14560E-18         0.00000E+00
    0.54441E-16         0.10414E-18         0.00000E+00
    0.54426E-16         0.63900E-19         0.00000E+00
    0.54416E-16         0.31059E-19         0.00000E+00
    0.54413E-16         0.17178E-19         0.00000E+00
    0.55685E-16         0.68277E-19         0.00000E+00
    0.55674E-16         0.12031E-18         0.00000E+00
    0.55650E-16         0.21080E-18         0.00000E+00
    0.55620E-16         0.27477E-18         0.00000E+00
    0.55581E-16         0.31414E-18         0.00000E+00
    0.55539E-16         0.33293E-18         0.00000E+00
    0.55498E-16         0.33449E-18         0.00000E+00
    0.55460E-16         0.32084E-18         0.00000E+00
    0.55424E-16         0.29273E-18         0.00000E+00
    0.55390E-16         0.25670E-18         0.00000E+00
    0.55361E-16         0.21471E-18         0.00000E+00
    0.55338E-16         0.16771E-18         0.00000E+00
    0.55322E-16         0.12197E-18         0.00000E+00
    0.55308E-16         0.77889E-19         0.00000E+00
    0.55301E-16         0.36196E-19         0.00000E+00
    0.55299E-16         0.16046E-19         0.00000E+00
    0.56245E-16         0.79546E-19         0.00000E+00
    0.56239E-16         0.13622E-18         0.00000E+00
    0.56224E-16         0.23334E-18         0.00000E+00
    0.56203E-16         0.30287E-18         0.00000E+00
    0.56183E-16         0.34695E-18         0.00000E+00
    0.56162E-16         0.36539E-18         0.00000E+00
    0.56143E-16         0.36565E-18         0.00000E+00
    0.56124E-16         0.35000E-18         0.00000E+00
    0.56108E-16         0.31974E-18         0.00000E+00
    0.56091E-16         0.28007E-18         0.00000E+00
    0.56077E-16         0.23492E-18         0.00000E+00
    0.56065E-16         0.18561E-18         0.00000E+00
    0.56058E-16         0.13357E-18         0.00000E+00
    0.56051E-16         0.84118E-19         0.00000E+00
    0.56047E-16         0.40836E-19         0.00000E+00
    0.56045E-16         0.21350E-19         0.00000E+00
    0.56604E-16         0.80872E-19         0.00000E+00
    0.56603E-16         0.14219E-18         0.00000E+00
    0.56598E-16         0.24692E-18         0.00000E+00
    0.56595E-16         0.31553E-18         0.00000E+00
    0.56600E-16         0.35531E-18         0.00000E+00
    0.56606E-16         0.37320E-18         0.00000E+00
    0.56615E-16         0.37221E-18         0.00000E+00
    0.56626E-16         0.35478E-18         0.00000E+00
    0.56636E-16         0.32597E-18         0.00000E+00
    0.56643E-16         0.28838E-18         0.00000E+00
    0.56649E-16         0.24129E-18         0.00000E+00
    0.56652E-16         0.18693E-18         0.00000E+00
    0.56655E-16         0.13556E-18         0.00000E+00
    0.56657E-16         0.88826E-19         0.00000E+00
    0.56657E-16         0.42424E-19         0.00000E+00
    0.56657E-16         0.19886E-19         0.00000E+00
    0.56757E-16         0.81535E-19         0.00000E+00
    0.56758E-16         0.14216E-18         0.00000E+00
    0.56770E-16         0.24146E-18         0.00000E+00
    0.56796E-16         0.30164E-18         0.00000E+00
    0.56831E-16         0.33572E-18         0.00000E+00
    0.56872E-16         0.34997E-18         0.00000E+00
    0.56917E-16         0.34669E-18         0.00000E+00
    0.56964E-16         0.32882E-18         0.00000E+00
    0.57007E-16         0.30227E-18         0.00000E+00
    0.57046E-16         0.26711E-18         0.00000E+00
    0.57080E-16         0.22524E-18         0.00000E+00
    0.57105E-16         0.17931E-18         0.00000E+00
    0.57118E-16         0.12893E-18         0.00000E+00
    0.57130E-16         0.82197E-19         0.00000E+00
    0.57136E-16         0.40739E-19         0.00000E+00
    0.57137E-16         0.21212E-19         0.00000E+00
    0.56681E-16         0.79158E-19         0.00000E+00
    0.56693E-16         0.12877E-18         0.00000E+00
    0.56734E-16         0.20834E-18         0.00000E+00
    0.56798E-16         0.25485E-18         0.00000E+00
    0.56876E-16         0.27904E-18         0.00000E+00
    0.56963E-16         0.28739E-18         0.00000E+00
    0.57053E-16         0.28026E-18         0.00000E+00
    0.57142E-16         0.26496E-18         0.00000E+00
    0.57225E-16         0.24325E-18         0.00000E+00
    0.57300E-16         0.21510E-18         0.00000E+00
    0.57363E-16         0.18282E-18         0.00000E+00
    0.57416E-16         0.14818E-18         0.00000E+00
    0.57452E-16         0.11037E-18         0.00000E+00
    0.57476E-16         0.70899E-19         0.00000E+00
    0.57491E-16         0.35464E-19         0.00000E+00
    0.57492E-16         0.19280E-19         0.00000E+00
    0.56356E-16         0.58334E-19         0.00000E+00
    0.56396E-16         0.88523E-19         0.00000E+00
    0.56484E-16         0.13592E-18         0.00000E+00
    0.56604E-16         0.16009E-18         0.00000E+00
    0.56739E-16         0.17003E-18         0.00000E+00
    0.56882E-16         0.17301E-18         0.00000E+00
    0.57026E-16         0.16771E-18         0.00000E+00
    0.57162E-16         0.15644E-18         0.00000E+00
    0.57291E-16         0.14348E-18         0.00000E+00
    0.57405E-16         0.12893E-18         0.00000E+00
    0.57506E-16         0.11037E-18         0.00000E+00
    0.57589E-16         0.90454E-19         0.00000E+00
    0.57654E-16         0.68939E-19         0.00000E+00
    0.57699E-16         0.43750E-19         0.00000E+00
    0.57725E-16         0.25189E-19         0.00000E+00
    0.57735E-16         0.19223E-19         0.00000E+00
    0.56129E-16         0.00000E+00         0.00000E+00
    0.56187E-16         0.00000E+00         0.00000E+00
    0.56306E-16         0.00000E+00         0.00000E+00
    0.56458E-16         0.00000E+00         0.00000E+00
    0.56626E-16         0.33144E-21         0.00000E+00
    0.56799E-16         0.00000E+00         0.00000E+00
    0.56971E-16         0.00000E+00         0.00000E+00
    0.57134E-16         0.00000E+00         0.00000E+00
    0.57284E-16         0.00000E+00         0.00000E+00
    0.57421E-16         0.00000E+00         0.00000E+00
    0.57542E-16         0.33144E-21         0.00000E+00
    0.57641E-16        -0.33144E-21         0.00000E+00
    0.57723E-16        -0.33144E-21         0.00000E+00
    0.57780E-16         0.33144E-21         0.00000E+00
    0.57810E-16         0.66288E-21         0.00000E+00
    0.57829E-16         0.00000E+00         0.00000E+00
CELL_DATA        450
TENSORS stressef double 
   -0.20273E+08         0.15138E+03         0.00000E+00
    0.15138E+03        -0.50000E+08         0.00000E+00
    0.00000E+00         0.00000E+00        -0.19964E+08
 
   -0.20247E+08         0.43446E+03         0.00000E+00
    0.43446E+03        -0.49999E+08         0.00000E+00
    0.00000E+00         0.00000E+00        -0.19989E+08
 
   -0.20222E+08         0.69329E+03         0.00000E+00
    0.69329E+03        -0.49998E+08         0.00000E+00
    0.00000E+00         0.00000E+00        -0.20011E+08
 
   -0.20200E+08         0.92909E+03         0.00000E+00
    0.92909E+03        -0.49996E+08         0.00000E+00
    0.00000E+00         0.00000E+00        -0.20031E+08
 
   -0.20179E+08         0.11431E+04         0.00000E+00
    0.11431E+04        -0.49994E+08         0.00000E+00
    0.00000E+00         0.00000E+00        -0.20049E+08
 
   -0.20161E+08         0.13366E+04         0.00000E+00
    0.13366E+04        -0.49992E+08         0.00000E+00
    0.00000E+00         0.00000E+00        -0.20064E+08
 
   -0.20145E+08         0.15110E+04         0.00000E+00
    0.15110E+04        -0.49989E+08         0.00000E+00
    0.00000E+00         0.00000E+00        -0.20076E+08
 
   -0.20131E+08         0.16673E+04         0.00000E+00
    0.16673E+04        -0.49986E+08         0.00000E+00
    0.00000E+00         0.00000E+00        -0.20086E+08
 
   -0.20118E+08         0.18068E+04         0.00000E+00
    0.18068E+04        -0.49982E+08         0.00000E+00
    0.00000E+00         0.00000E+00        -0.20094E+08
 
   -0.20108E+08         0.19308E+04         0.00000E+00
    0.19308E+04        -0.49979E+08         0.00000E+00
    0.00000E+00         0.00000E+00        -0.20099E+08
 
   -0.20100E+08         0.20409E+04         0.00000E+00
    0.20409E+04        -0.49975E+08         0.00000E+00
    0.00000E+00         0.00000E+00        -0.20102E+08
 
   -0.20094E+08         0.21386E+04         0.00000E+00
    0.21386E+04        -0.49970E+08         0.00000E+00
    0.00000E+00         0.00000E+00        -0.20102E+08
 
   -0.20090E+08         0.22257E+04         0.00000E+00
    0.22257E+04        -0.49966E+08         0.00000E+00
    0.00000E+00         0.00000E+00        -0.20101E+08
 
   -0.20088E+08         0.23043E+04         0.00000E+00
    0.23043E+04        -0.49962E+08         0.00000E+00
    0.00000E+00         0.00000E+00        -0.20097E+08
 
   -0.20087E+08         0.23764E+04         0.00000E+00
    0.23764E+04        -0.49957E+08         0.00000E+00
    0.00000E+00         0.00000E+00        -0.20091E+08
 
   -0.20273E+08         0.45802E+03         0.00000E+00
    0.45802E+03        -0.50000E+08         0.00000E+00
    0.00000E+00         0.00000E+00        -0.19964E+08
 
   -0.20246E+08         0.13135E+04         0.00000E+00
    0.13135E+04        -0.49999E+08         0.00000E+00
    0.00000E+00         0.00000E+00        -0.19989E+08
 
   -0.20222E+08         0.20943E+04         0.00000E+00
    0.20943E+04        -0.49998E+08         0.00000E+00
    0.00000E+00         0.00000E+00        -0.20012E+08
 
   -0.20199E+08         0.28044E+04         0.00000E+00
    0.28044E+04        -0.49996E+08         0.00000E+00
    0.00000E+00         0.00000E+00        -0.20032E+08
 
   -0.20179E+08         0.34476E+04         0.00000E+00
    0.34476E+04        -0.49994E+08         0.00000E+00
    0.00000E+00         0.00000E+00        -0.20049E+08
 
   -0.20161E+08         0.40278E+04         0.00000E+00
    0.40278E+04        -0.49992E+08         0.00000E+00
    0.00000E+00         0.00000E+00        -0.20064E+08
 
   -0.20144E+08         0.45496E+04         0.00000E+00
    0.45496E+04        -0.49989E+08         0.00000E+00
    0.00000E+00         0.00000E+00        -0.20076E+08
 
   -0.20130E+08         0.50162E+04         0.00000E+00
    0.50162E+04        -0.49986E+08         0.00000E+00
    0.00000E+00         0.00000E+00        -0.20086E+08
 
   -0.20118E+08         0.54315E+04         0.00000E+00
    0.54315E+04        -0.49982E+08         0.00000E+00
    0.00000E+00         0.00000E+00        -0.20094E+08
 
   -0.20108E+08         0.57999E+04         0.00000E+00
    0.57999E+04        -0.49978E+08         0.00000E+00
    0.00000E+00         0.00000E+00        -0.20099E+08
 
   -0.20100E+08         0.61261E+04         0.00000E+00
    0.61261E+04        -0.49974E+08         0.00000E+00
    0.00000E+00         0.00000E+00        -0.20102E+08
 
   -0.20094E+08         0.64149E+04         0.00000E+00
    0.64149E+04        -0.49970E+08         0.00000E+00
    0.00000E+00         0.00000E+00        -0.20102E+08
 
   -0.20090E+08         0.66718E+04         0.00000E+00
    0.66718E+04        -0.49966E+08         0.00000E+00
    0.00000E+00         0.00000E+00        -0.20101E+08
 
   -0.20087E+08         0.69030E+04         0.00000E+00
    0.69030E+04        -0.49961E+08         0.00000E+00
    0.00000E+00         0.00000E+00        -0.20097E+08
 
   -0.20087E+08         0.71151E+04         0.00000E+00
    0.71151E+04        -0.49957E+08         0.00000E+00
    0.00000E+00         0.00000E+00        -0.20091E+08
 
   -0.20271E+08         0.77625E+03         0.00000E+00
    0.77625E+03        -0.50000E+08         0.00000E+00
    0.00000E+00         0.00000E+00        -0.19965E+08
 
   -0.20245E+08         0.22225E+04         0.00000E+00
    0.22225E+04        -0.49999E+08         0.00000E+00
    0.00000E+00         0.00000E+00        -0.19990E+08
 
   -0.20221E+08         0.35384E+04         0.00000E+00
    0.35384E+04        -0.49998E+08         0.00000E+00
    0.00000E+00         0.00000E+00        -0.20013E+08
 
   -0.20198E+08         0.47308E+04         0.00000E+00
    0.47308E+04        -0.49996E+08         0.00000E+00
    0.00000E+00         0.00000E+00        -0.20032E+08
 
   -0.20178E+08         0.58067E+04         0.00000E+00
    0.58067E+04        -0.49994E+08         0.00000E+00
    0.00000E+00         0.00000E+00        -0.20050E+08
 
   -0.20160E+08         0.67730E+04         0.00000E+00
    0.67730E+04        -0.49991E+08         0.00000E+00
    0.00000E+00         0.00000E+00        -0.20064E+08
 
   -0.20144E+08         0.76378E+04         0.00000E+00
    0.76378E+04        -0.49988E+08         0.00000E+00
    0.00000E+00         0.00000E+00        -0.20076E+08
 
   -0.20130E+08         0.84078E+04         0.00000E+00
    0.84078E+04        -0.49985E+08         0.00000E+00
    0.00000E+00         0.00000E+00        -0.20086E+08
 
   -0.20118E+08         0.90897E+04         0.00000E+00
    0.90897E+04        -0.49982E+08         0.00000E+00
    0.00000E+00         0.00000E+00        -0.20093E+08
 
   -0.20108E+08         0.96913E+04         0.00000E+00
    0.96913E+04        -0.49978E+08         0.00000E+00
    0.00000E+00         0.00000E+00        -0.20098E+08
 
   -0.20100E+08         0.10221E+05         0.00000E+00
    0.10221E+05        -0.49974E+08         0.00000E+00
    0.00000E+00         0.00000E+00        -0.20101E+08
 
   -0.20093E+08         0.10688E+05         0.00000E+00
    0.10688E+05        -0.49970E+08         0.00000E+00
    0.00000E+00         0.00000E+00        -0.20102E+08
 
   -0.20089E+08         0.11101E+05         0.00000E+00
    0.11101E+05        -0.49965E+08         0.00000E+00
    0.00000E+00         0.00000E+00        -0.20100E+08
 
   -0.20087E+08         0.11472E+05         0.00000E+00
    0.11472E+05        -0.49961E+08         0.00000E+00
    0.00000E+00         0.00000E+00        -0.20097E+08
 
   -0.20087E+08         0.11811E+05         0.00000E+00
    0.11811E+05        -0.49956E+08         0.00000E+00
    0.00000E+00         0.00000E+00        -0.20091E+08
 
   -0.20270E+08         0.11136E+04         0.00000E+00
    0.11136E+04        -0.50000E+08         0.00000E+00
    0.00000E+00         0.00000E+00        -0.19967E+08
 
   -0.20243E+08         0.31811E+04         0.00000E+00
    0.31811E+04        -0.49999E+08         0.00000E+00
    0.00000E+00         0.00000E+00        -0.19992E+08
 
   -0.20219E+08         0.50535E+04         0.00000E+00
    0.50535E+04        -0.49998E+08         0.00000E+00
    0.00000E+00         0.00000E+00        -0.20014E+08
 
   -0.20197E+08         0.67414E+04         0.00000E+00
    0.67414E+04        -0.49996E+08         0.00000E+00
    0.00000E+00         0.00000E+00        -0.20033E+08
 
   -0.20177E+08         0.82554E+04         0.00000E+00
    0.82554E+04        -0.49994E+08         0.00000E+00
    0.00000E+00         0.00000E+00        -0.20050E+08
 
   -0.20159E+08         0.96065E+04         0.00000E+00
    0.96065E+04        -0.49991E+08         0.00000E+00
    0.00000E+00         0.00000E+00        -0.20065E+08
 
   -0.20143E+08         0.10807E+05         0.00000E+00
    0.10807E+05        -0.49988E+08         0.00000E+00
    0.00000E+00         0.00000E+00        -0.20077E+08
 
   -0.20129E+08         0.11869E+05         0.00000E+00
    0.11869E+05        -0.49984E+08         0.00000E+00
    0.00000E+00         0.00000E+00        -0.20086E+08
 
   -0.20117E+08         0.12802E+05         0.00000E+00
    0.12802E+05        -0.49981E+08         0.00000E+00
    0.00000E+00         0.00000E+00        -0.20093E+08
 
   -0.20107E+08         0.13618E+05         0.00000E+00
    0.13618E+05        -0.49977E+08         0.00000E+00
    0.00000E+00         0.00000E+00        -0.20098E+08
 
   -0.20099E+08         0.14331E+05         0.00000E+00
    0.14331E+05        -0.49973E+08         0.00000E+00
    0.00000E+00         0.00000E+00        -0.20101E+08
 
   -0.20093E+08         0.14954E+05         0.00000E+00
    0.14954E+05        -0.49969E+08         0.00000E+00
    0.00000E+00         0.00000E+00        -0.20101E+08
 
   -0.20089E+08         0.15501E+05         0.00000E+00
    0.15501E+05        -0.49965E+08         0.00000E+00
    0.00000E+00         0.00000E+00        -0.20100E+08
 
   -0.20087E+08         0.15988E+05         0.00000E+00
    0.15988E+05        -0.49960E+08         0.00000E+00
    0.00000E+00         0.00000E+00        -0.20096E+08
 
   -0.20087E+08         0.16432E+05         0.00000E+00
    0.16432E+05        -0.49956E+08         0.00000E+00
    0.00000E+00         0.00000E+00        -0.20090E+08
 
   -0.20267E+08         0.14774E+04         0.00000E+00
    0.14774E+04        -0.50000E+08         0.00000E+00
    0.00000E+00         0.00000E+00        -0.19969E+08
 
   -0.20241E+08         0.42080E+04         0.00000E+00
    0.42080E+04        -0.49999E+08         0.00000E+00
    0.00000E+00         0.00000E+00        -0.19994E+08
 
   -0.20217E+08         0.66663E+04         0.00000E+00
    0.66663E+04        -0.49998E+08         0.00000E+00
    0.00000E+00         0.00000E+00        -0.20016E+08
 
   -0.20195E+08         0.88673E+04         0.00000E+00
    0.88673E+04        -0.49996E+08         0.00000E+00
    0.00000E+00         0.00000E+00        -0.20035E+08
 
   -0.20175E+08         0.10827E+05         0.00000E+00
    0.10827E+05        -0.49993E+08         0.00000E+00
    0.00000E+00         0.00000E+00        -0.20051E+08
 
   -0.20157E+08         0.12561E+05         0.00000E+00
    0.12561E+05        -0.49990E+08         0.00000E+00
    0.00000E+00         0.00000E+00        -0.20065E+08
 
   -0.20142E+08         0.14087E+05         0.00000E+00
    0.14087E+05        -0.49987E+08         0.00000E+00
    0.00000E+00         0.00000E+00        -0.20077E+08
 
   -0.20128E+08         0.15423E+05         0.00000E+00
    0.15423E+05        -0.49984E+08         0.00000E+00
    0.00000E+00         0.00000E+00        -0.20086E+08
 
   -0.20116E+08         0.16585E+05         0.00000E+00
    0.16585E+05        -0.49980E+08         0.00000E+00
    0.00000E+00         0.00000E+00        -0.20093E+08
 
   -0.20106E+08         0.17590E+05         0.00000E+00
    0.17590E+05        -0.49976E+08         0.00000E+00
    0.00000E+00         0.00000E+00        -0.20098E+08
 
   -0.20098E+08         0.18458E+05         0.00000E+00
    0.18458E+05        -0.49972E+08         0.00000E+00
    0.00000E+00         0.00000E+00        -0.20100E+08
 
   -0.20092E+08         0.19206E+05         0.00000E+00
    0.19206E+05        -0.49968E+08         0.00000E+00
    0.00000E+00         0.00000E+00        -0.20101E+08
 
   -0.20088E+08         0.19856E+05         0.00000E+00
    0.19856E+05        -0.49964E+08         0.00000E+00
    0.00000E+00         0.00000E+00        -0.20099E+08
 
   -0.20086E+08         0.20428E+05         0.00000E+00
    0.20428E+05        -0.49959E+08         0.00000E+00
    0.00000E+00         0.00000E+00        -0.20095E+08
 
   -0.20086E+08         0.20946E+05         0.00000E+00
    0.20946E+05        -0.49955E+08         0.00000E+00
    0.00000E+00         0.00000E+00        -0.20090E+08
 
   -0.20264E+08         0.18744E+04         0.00000E+00
    0.18744E+04        -0.50000E+08         0.00000E+00
    0.00000E+00         0.00000E+00        -0.19973E+08
 
   -0.20238E+08         0.53205E+04         0.00000E+00
    0.53205E+04        -0.49999E+08         0.00000E+00
    0.00000E+00         0.00000E+00        -0.19997E+08
 
   -0.20215E+08         0.84012E+04         0.00000E+00
    0.84012E+04        -0.49997E+08         0.00000E+00
    0.00000E+00         0.00000E+00        -0.20018E+08
 
   -0.20193E+08         0.11137E+05         0.00000E+00
    0.11137E+05        -0.49995E+08         0.00000E+00
    0.00000E+00         0.00000E+00        -0.20037E+08
 
   -0.20173E+08         0.13551E+05         0.00000E+00
    0.13551E+05        -0.49993E+08         0.00000E+00
    0.00000E+00         0.00000E+00        -0.20053E+08
 
   -0.20156E+08         0.15664E+05         0.00000E+00
    0.15664E+05        -0.49990E+08         0.00000E+00
    0.00000E+00         0.00000E+00        -0.20066E+08
 
   -0.20140E+08         0.17503E+05         0.00000E+00
    0.17503E+05        -0.49986E+08         0.00000E+00
    0.00000E+00         0.00000E+00        -0.20077E+08
 
   -0.20126E+08         0.19092E+05         0.00000E+00
    0.19092E+05        -0.49983E+08         0.00000E+00
    0.00000E+00         0.00000E+00        -0.20086E+08
 
   -0.20115E+08         0.20455E+05         0.00000E+00
    0.20455E+05        -0.49979E+08         0.00000E+00
    0.00000E+00         0.00000E+00        -0.20093E+08
 
   -0.20105E+08         0.21616E+05         0.00000E+00
    0.21616E+05        -0.49975E+08         0.00000E+00
    0.00000E+00         0.00000E+00        -0.20097E+08
 
   -0.20097E+08         0.22601E+05         0.00000E+00
    0.22601E+05        -0.49971E+08         0.00000E+00
    0.00000E+00         0.00000E+00        -0.20100E+08
 
   -0.20092E+08         0.23435E+05         0.00000E+00
    0.23435E+05        -0.49967E+08         0.00000E+00
    0.00000E+00         0.00000E+00        -0.20100E+08
 
   -0.20088E+08         0.24147E+05         0.00000E+00
    0.24147E+05        -0.49962E+08         0.00000E+00
    0.00000E+00         0.00000E+00        -0.20098E+08
 
   -0.20086E+08         0.24763E+05         0.00000E+00
    0.24763E+05        -0.49958E+08         0.00000E+00
    0.00000E+00         0.00000E+00        -0.20095E+08
 
   -0.20086E+08         0.25316E+05         0.00000E+00
    0.25316E+05        -0.49954E+08         0.00000E+00
    0.00000E+00         0.00000E+00        -0.20089E+08
 
   -0.20260E+08         0.23106E+04         0.00000E+00
    0.23106E+04        -0.50000E+08         0.00000E+00
    0.00000E+00         0.00000E+00        -0.19977E+08
 
   -0.20235E+08         0.65341E+04         0.00000E+00
    0.65341E+04        -0.49999E+08         0.00000E+00
    0.00000E+00         0.00000E+00        -0.20000E+08
 
   -0.20211E+08         0.10280E+05         0.00000E+00
    0.10280E+05        -0.49997E+08         0.00000E+00
    0.00000E+00         0.00000E+00        -0.20021E+08
 
   -0.20190E+08         0.13576E+05         0.00000E+00
    0.13576E+05        -0.49995E+08         0.00000E+00
    0.00000E+00         0.00000E+00        -0.20039E+08
 
   -0.20171E+08         0.16453E+05         0.00000E+00
    0.16453E+05        -0.49992E+08         0.00000E+00
    0.00000E+00         0.00000E+00        -0.20054E+08
 
   -0.20153E+08         0.18943E+05         0.00000E+00
    0.18943E+05        -0.49989E+08         0.00000E+00
    0.00000E+00         0.00000E+00        -0.20067E+08
 
   -0.20138E+08         0.21077E+05         0.00000E+00
    0.21077E+05        -0.49985E+08         0.00000E+00
    0.00000E+00         0.00000E+00        -0.20078E+08
 
   -0.20125E+08         0.22893E+05         0.00000E+00
    0.22893E+05        -0.49982E+08         0.00000E+00
    0.00000E+00         0.00000E+00        -0.20086E+08
 
   -0.20113E+08         0.24422E+05         0.00000E+00
    0.24422E+05        -0.49978E+08         0.00000E+00
    0.00000E+00         0.00000E+00        -0.20093E+08
 
   -0.20104E+08         0.25697E+05         0.00000E+00
    0.25697E+05        -0.49974E+08         0.00000E+00
    0.00000E+00         0.00000E+00        -0.20097E+08
 
   -0.20096E+08         0.26754E+05         0.00000E+00
    0.26754E+05        -0.49970E+08         0.00000E+00
    0.00000E+00         0.00000E+00        -0.20099E+08
 
   -0.20091E+08         0.27626E+05         0.00000E+00
    0.27626E+05        -0.49965E+08         0.00000E+00
    0.00000E+00         0.00000E+00        -0.20099E+08
 
   -0.20087E+08         0.28349E+05         0.00000E+00
    0.28349E+05        -0.49961E+08         0.00000E+00
    0.00000E+00         0.00000E+00        -0.20097E+08
 
   -0.20085E+08         0.28960E+05         0.00000E+00
    0.28960E+05        -0.49957E+08         0.00000E+00
    0.00000E+00         0.00000E+00        -0.20094E+08
 
   -0.20085E+08         0.29497E+05         0.00000E+00
    0.29497E+05        -0.49953E+08         0.00000E+00
    0.00000E+00         0.00000E+00        -0.20089E+08
 
   -0.20255E+08         0.27912E+04         0.00000E+00
    0.27912E+04        -0.50000E+08         0.00000E+00
    0.00000E+00         0.00000E+00        -0.19981E+08
 
   -0.20230E+08         0.78618E+04         0.00000E+00
    0.78618E+04        -0.49999E+08         0.00000E+00
    0.00000E+00         0.00000E+00        -0.20004E+08
 
   -0.20207E+08         0.12321E+05         0.00000E+00
    0.12321E+05        -0.49997E+08         0.00000E+00
    0.00000E+00         0.00000E+00        -0.20024E+08
 
   -0.20187E+08         0.16206E+05         0.00000E+00
    0.16206E+05        -0.49994E+08         0.00000E+00
    0.00000E+00         0.00000E+00        -0.20042E+08
 
   -0.20168E+08         0.19556E+05         0.00000E+00
    0.19556E+05        -0.49991E+08         0.00000E+00
    0.00000E+00         0.00000E+00        -0.20056E+08
 
   -0.20151E+08         0.22415E+05         0.00000E+00
    0.22415E+05        -0.49988E+08         0.00000E+00
    0.00000E+00         0.00000E+00        -0.20069E+08
 
   -0.20136E+08         0.24825E+05         0.00000E+00
    0.24825E+05        -0.49984E+08         0.00000E+00
    0.00000E+00         0.00000E+00        -0.20079E+08
 
   -0.20123E+08         0.26836E+05         0.00000E+00
    0.26836E+05        -0.49980E+08         0.00000E+00
    0.00000E+00         0.00000E+00        -0.20087E+08
 
   -0.20112E+08         0.28490E+05         0.00000E+00
    0.28490E+05        -0.49976E+08         0.00000E+00
    0.00000E+00         0.00000E+00        -0.20092E+08
 
   -0.20103E+08         0.29832E+05         0.00000E+00
    0.29832E+05        -0.49972E+08         0.00000E+00
    0.00000E+00         0.00000E+00        -0.20096E+08
 
   -0.20095E+08         0.30907E+05         0.00000E+00
    0.30907E+05        -0.49968E+08         0.00000E+00
    0.00000E+00         0.00000E+00        -0.20098E+08
 
   -0.20090E+08         0.31759E+05         0.00000E+00
    0.31759E+05        -0.49964E+08         0.00000E+00
    0.00000E+00         0.00000E+00        -0.20098E+08
 
   -0.20086E+08         0.32434E+05         0.00000E+00
    0.32434E+05        -0.49960E+08         0.00000E+00
    0.00000E+00         0.00000E+00        -0.20096E+08
 
   -0.20085E+08         0.32978E+05         0.00000E+00
    0.32978E+05        -0.49956E+08         0.00000E+00
    0.00000E+00         0.00000E+00        -0.20093E+08
 
   -0.20085E+08         0.33442E+05         0.00000E+00
    0.33442E+05        -0.49952E+08         0.00000E+00
    0.00000E+00         0.00000E+00        -0.20088E+08
 
   -0.20249E+08         0.33201E+04         0.00000E+00
    0.33201E+04        -0.50000E+08         0.00000E+00
    0.00000E+00         0.00000E+00        -0.19987E+08
 
   -0.20225E+08         0.93131E+04         0.00000E+00
    0.93131E+04        -0.49999E+08         0.00000E+00
    0.00000E+00         0.00000E+00        -0.20009E+08
 
   -0.20203E+08         0.14537E+05         0.00000E+00
    0.14537E+05        -0.49997E+08         0.00000E+00
    0.00000E+00         0.00000E+00        -0.20029E+08
 
   -0.20183E+08         0.19040E+05         0.00000E+00
    0.19040E+05        -0.49994E+08         0.00000E+00
    0.00000E+00         0.00000E+00        -0.20045E+08
 
   -0.20165E+08         0.22873E+05         0.00000E+00
    0.22873E+05        -0.49991E+08         0.00000E+00
    0.00000E+00         0.00000E+00        -0.20059E+08
 
   -0.20148E+08         0.26093E+05         0.00000E+00
    0.26093E+05        -0.49987E+08         0.00000E+00
    0.00000E+00         0.00000E+00        -0.20070E+08
 
   -0.20134E+08         0.28758E+05         0.00000E+00
    0.28758E+05        -0.49983E+08         0.00000E+00
    0.00000E+00         0.00000E+00        -0.20080E+08
 
   -0.20121E+08         0.30927E+05         0.00000E+00
    0.30927E+05        -0.49979E+08         0.00000E+00
    0.00000E+00         0.00000E+00        -0.20087E+08
 
   -0.20110E+08         0.32659E+05         0.00000E+00
    0.32659E+05        -0.49975E+08         0.00000E+00
    0.00000E+00         0.00000E+00        -0.20092E+08
 
   -0.20102E+08         0.34013E+05         0.00000E+00
    0.34013E+05        -0.49971E+08         0.00000E+00
    0.00000E+00         0.00000E+00        -0.20095E+08
 
   -0.20094E+08         0.35044E+05         0.00000E+00
    0.35044E+05        -0.49967E+08         0.00000E+00
    0.00000E+00         0.00000E+00        -0.20097E+08
 
   -0.20089E+08         0.35809E+05         0.00000E+00
    0.35809E+05        -0.49963E+08         0.00000E+00
    0.00000E+00         0.00000E+00        -0.20097E+08
 
   -0.20086E+08         0.36365E+05         0.00000E+00
    0.36365E+05        -0.49959E+08         0.00000E+00
    0.00000E+00         0.00000E+00        -0.20095E+08
 
   -0.20084E+08         0.36772E+05         0.00000E+00
    0.36772E+05        -0.49955E+08         0.00000E+00
    0.00000E+00         0.00000E+00        -0.20092E+08
 
   -0.20084E+08         0.37094E+05         0.00000E+00
    0.37094E+05        -0.49951E+08         0.00000E+00
    0.00000E+00         0.00000E+00        -0.20087E+08
 
   -0.20242E+08         0.38993E+04         0.00000E+00
    0.38993E+04        -0.50000E+08         0.00000E+00
    0.00000E+00         0.00000E+00        -0.19994E+08
 
   -0.20219E+08         0.10893E+05         0.00000E+00
    0.10893E+05        -0.49998E+08         0.00000E+00
    0.00000E+00         0.00000E+00        -0.20015E+08
 
   -0.20198E+08         0.16935E+05         0.00000E+00
    0.16935E+05        -0.49996E+08         0.00000E+00
    0.00000E+00         0.00000E+00        -0.20033E+08
 
   -0.20178E+08         0.22086E+05         0.00000E+00
    0.22086E+05        -0.49993E+08         0.00000E+00
    0.00000E+00         0.00000E+00        -0.20049E+08
 
   -0.20161E+08         0.26412E+05         0.00000E+00
    0.26412E+05        -0.49990E+08         0.00000E+00
    0.00000E+00         0.00000E+00        -0.20062E+08
 
   -0.20145E+08         0.29985E+05         0.00000E+00
    0.29985E+05        -0.49986E+08         0.00000E+00
    0.00000E+00         0.00000E+00        -0.20072E+08
 
   -0.20131E+08         0.32877E+05         0.00000E+00
    0.32877E+05        -0.49982E+08         0.00000E+00
    0.00000E+00         0.00000E+00        -0.20081E+08
 
   -0.20119E+08         0.35164E+05         0.00000E+00
    0.35164E+05        -0.49978E+08         0.00000E+00
    0.00000E+00         0.00000E+00        -0.20087E+08
 
   -0.20109E+08         0.36923E+05         0.00000E+00
    0.36923E+05        -0.49974E+08         0.00000E+00
    0.00000E+00         0.00000E+00        -0.20092E+08
 
   -0.20100E+08         0.38224E+05         0.00000E+00
    0.38224E+05        -0.49969E+08         0.00000E+00
    0.00000E+00         0.00000E+00        -0.20095E+08
 
   -0.20094E+08         0.39140E+05         0.00000E+00
    0.39140E+05        -0.49965E+08         0.00000E+00
    0.00000E+00         0.00000E+00        -0.20096E+08
 
   -0.20089E+08         0.39741E+05         0.00000E+00
    0.39741E+05        -0.49961E+08         0.00000E+00
    0.00000E+00         0.00000E+00        -0.20096E+08
 
   -0.20085E+08         0.40098E+05         0.00000E+00
    0.40098E+05        -0.49958E+08         0.00000E+00
    0.00000E+00         0.00000E+00        -0.20094E+08
 
   -0.20084E+08         0.40287E+05         0.00000E+00
    0.40287E+05        -0.49954E+08         0.00000E+00
    0.00000E+00         0.00000E+00        -0.20091E+08
 
   -0.20084E+08         0.40387E+05         0.00000E+00
    0.40387E+05        -0.49951E+08         0.00000E+00
    0.00000E+00         0.00000E+00        -0.20087E+08
 
   -0.20234E+08         0.45286E+04         0.00000E+00
    0.45286E+04        -0.50000E+08         0.00000E+00
    0.00000E+00         0.00000E+00        -0.20002E+08
 
   -0.20212E+08         0.12601E+05         0.00000E+00
    0.12601E+05        -0.49998E+08         0.00000E+00
    0.00000E+00         0.00000E+00        -0.20022E+08
 
   -0.20192E+08         0.19515E+05         0.00000E+00
    0.19515E+05        -0.49996E+08         0.00000E+00
    0.00000E+00         0.00000E+00        -0.20039E+08
 
   -0.20173E+08         0.25344E+05         0.00000E+00
    0.25344E+05        -0.49993E+08         0.00000E+00
    0.00000E+00         0.00000E+00        -0.20053E+08
 
   -0.20157E+08         0.30172E+05         0.00000E+00
    0.30172E+05        -0.49989E+08         0.00000E+00
    0.00000E+00         0.00000E+00        -0.20065E+08
 
   -0.20142E+08         0.34086E+05         0.00000E+00
    0.34086E+05        -0.49985E+08         0.00000E+00
    0.00000E+00         0.00000E+00        -0.20075E+08
 
   -0.20129E+08         0.37178E+05         0.00000E+00
    0.37178E+05        -0.49981E+08         0.00000E+00
    0.00000E+00         0.00000E+00        -0.20082E+08
 
   -0.20117E+08         0.39539E+05         0.00000E+00
    0.39539E+05        -0.49977E+08         0.00000E+00
    0.00000E+00         0.00000E+00        -0.20088E+08
 
   -0.20107E+08         0.41265E+05         0.00000E+00
    0.41265E+05        -0.49972E+08         0.00000E+00
    0.00000E+00         0.00000E+00        -0.20092E+08
 
   -0.20099E+08         0.42444E+05         0.00000E+00
    0.42444E+05        -0.49968E+08         0.00000E+00
    0.00000E+00         0.00000E+00        -0.20094E+08
 
   -0.20093E+08         0.43164E+05         0.00000E+00
    0.43164E+05        -0.49964E+08         0.00000E+00
    0.00000E+00         0.00000E+00        -0.20095E+08
 
   -0.20088E+08         0.43513E+05         0.00000E+00
    0.43513E+05        -0.49960E+08         0.00000E+00
    0.00000E+00         0.00000E+00        -0.20095E+08
 
   -0.20085E+08         0.43581E+05         0.00000E+00
    0.43581E+05        -0.49957E+08         0.00000E+00
    0.00000E+00         0.00000E+00        -0.20093E+08
 
   -0.20084E+08         0.43460E+05         0.00000E+00
    0.43460E+05        -0.49953E+08         0.00000E+00
    0.00000E+00         0.00000E+00        -0.20090E+08
 
   -0.20084E+08         0.43247E+05         0.00000E+00
    0.43247E+05        -0.49951E+08         0.00000E+00
    0.00000E+00         0.00000E+00        -0.20087E+08
 
   -0.20225E+08         0.52054E+04         0.00000E+00
    0.52054E+04        -0.49999E+08         0.00000E+00
    0.00000E+00         0.00000E+00        -0.20011E+08
 
   -0.20204E+08         0.14431E+05         0.00000E+00
    0.14431E+05        -0.49998E+08         0.00000E+00
    0.00000E+00         0.00000E+00        -0.20030E+08
 
   -0.20185E+08         0.22267E+05         0.00000E+00
    0.22267E+05        -0.49996E+08         0.00000E+00
    0.00000E+00         0.00000E+00        -0.20045E+08
 
   -0.20168E+08         0.28804E+05         0.00000E+00
    0.28804E+05        -0.49993E+08         0.00000E+00
    0.00000E+00         0.00000E+00        -0.20058E+08
 
   -0.20152E+08         0.34141E+05         0.00000E+00
    0.34141E+05        -0.49989E+08         0.00000E+00
    0.00000E+00         0.00000E+00        -0.20069E+08
 
   -0.20138E+08         0.38385E+05         0.00000E+00
    0.38385E+05        -0.49985E+08         0.00000E+00
    0.00000E+00         0.00000E+00        -0.20077E+08
 
   -0.20126E+08         0.41645E+05         0.00000E+00
    0.41645E+05        -0.49980E+08         0.00000E+00
    0.00000E+00         0.00000E+00        -0.20084E+08
 
   -0.20115E+08         0.44034E+05         0.00000E+00
    0.44034E+05        -0.49976E+08         0.00000E+00
    0.00000E+00         0.00000E+00        -0.20088E+08
 
   -0.20106E+08         0.45662E+05         0.00000E+00
    0.45662E+05        -0.49971E+08         0.00000E+00
    0.00000E+00         0.00000E+00        -0.20091E+08
 
   -0.20099E+08         0.46640E+05         0.00000E+00
    0.46640E+05        -0.49967E+08         0.00000E+00
    0.00000E+00         0.00000E+00        -0.20093E+08
 
   -0.20093E+08         0.47076E+05         0.00000E+00
    0.47076E+05        -0.49963E+08         0.00000E+00
    0.00000E+00         0.00000E+00        -0.20094E+08
 
   -0.20088E+08         0.47076E+05         0.00000E+00
    0.47076E+05        -0.49959E+08         0.00000E+00
    0.00000E+00         0.00000E+00        -0.20093E+08
 
   -0.20086E+08         0.46752E+05         0.00000E+00
    0.46752E+05        -0.49956E+08         0.00000E+00
    0.00000E+00         0.00000E+00        -0.20092E+08
 
   -0.20084E+08         0.46217E+05         0.00000E+00
    0.46217E+05        -0.49953E+08         0.00000E+00
    0.00000E+00         0.00000E+00        -0.20090E+08
 
   -0.20084E+08         0.45591E+05         0.00000E+00
    0.45591E+05        -0.49951E+08         0.00000E+00
    0.00000E+00         0.00000E+00        -0.20087E+08
 
   -0.20214E+08         0.59236E+04         0.00000E+00
    0.59236E+04        -0.49999E+08         0.00000E+00
    0.00000E+00         0.00000E+00        -0.20021E+08
 
   -0.20195E+08         0.16367E+05         0.00000E+00
    0.16367E+05        -0.49998E+08         0.00000E+00
    0.00000E+00         0.00000E+00        -0.20038E+08
 
   -0.20177E+08         0.25173E+05         0.00000E+00
    0.25173E+05        -0.49996E+08         0.00000E+00
    0.00000E+00         0.00000E+00        -0.20053E+08
 
   -0.20161E+08         0.32444E+05         0.00000E+00
    0.32444E+05        -0.49992E+08         0.00000E+00
    0.00000E+00         0.00000E+00        -0.20064E+08
 
   -0.20147E+08         0.38298E+05         0.00000E+00
    0.38298E+05        -0.49988E+08         0.00000E+00
    0.00000E+00         0.00000E+00        -0.20073E+08
 
   -0.20134E+08         0.42859E+05         0.00000E+00
    0.42859E+05        -0.49984E+08         0.00000E+00
    0.00000E+00         0.00000E+00        -0.20080E+08
 
   -0.20123E+08         0.46256E+05         0.00000E+00
    0.46256E+05        -0.49979E+08         0.00000E+00
    0.00000E+00         0.00000E+00        -0.20085E+08
 
   -0.20113E+08         0.48619E+05         0.00000E+00
    0.48619E+05        -0.49975E+08         0.00000E+00
    0.00000E+00         0.00000E+00        -0.20089E+08
 
   -0.20105E+08         0.50080E+05         0.00000E+00
    0.50080E+05        -0.49970E+08         0.00000E+00
    0.00000E+00         0.00000E+00        -0.20091E+08
 
   -0.20098E+08         0.50772E+05         0.00000E+00
    0.50772E+05        -0.49966E+08         0.00000E+00
    0.00000E+00         0.00000E+00        -0.20093E+08
 
   -0.20093E+08         0.50822E+05         0.00000E+00
    0.50822E+05        -0.49962E+08         0.00000E+00
    0.00000E+00         0.00000E+00        -0.20093E+08
 
   -0.20089E+08         0.50365E+05         0.00000E+00
    0.50365E+05        -0.49959E+08         0.00000E+00
    0.00000E+00         0.00000E+00        -0.20092E+08
 
   -0.20086E+08         0.49536E+05         0.00000E+00
    0.49536E+05        -0.49956E+08         0.00000E+00
    0.00000E+00         0.00000E+00        -0.20091E+08
 
   -0.20085E+08         0.48474E+05         0.00000E+00
    0.48474E+05        -0.49954E+08         0.00000E+00
    0.00000E+00         0.00000E+00        -0.20089E+08
 
   -0.20085E+08         0.47325E+05         0.00000E+00
    0.47325E+05        -0.49952E+08         0.00000E+00
    0.00000E+00         0.00000E+00        -0.20087E+08
 
   -0.20202E+08         0.66738E+04         0.00000E+00
    0.66738E+04        -0.49999E+08         0.00000E+00
    0.00000E+00         0.00000E+00        -0.20033E+08
 
   -0.20185E+08         0.18387E+05         0.00000E+00
    0.18387E+05        -0.49998E+08         0.00000E+00
    0.00000E+00         0.00000E+00        -0.20048E+08
 
   -0.20169E+08         0.28200E+05         0.00000E+00
    0.28200E+05        -0.49995E+08         0.00000E+00
    0.00000E+00         0.00000E+00        -0.20061E+08
 
   -0.20155E+08         0.36231E+05         0.00000E+00
    0.36231E+05        -0.49992E+08         0.00000E+00
    0.00000E+00         0.00000E+00        -0.20070E+08
 
   -0.20142E+08         0.42609E+05         0.00000E+00
    0.42609E+05        -0.49988E+08         0.00000E+00
    0.00000E+00         0.00000E+00        -0.20078E+08
 
   -0.20130E+08         0.47474E+05         0.00000E+00
    0.47474E+05        -0.49983E+08         0.00000E+00
    0.00000E+00         0.00000E+00        -0.20083E+08
 
   -0.20120E+08         0.50972E+05         0.00000E+00
    0.50972E+05        -0.49979E+08         0.00000E+00
    0.00000E+00         0.00000E+00        -0.20087E+08
 
   -0.20111E+08         0.53254E+05         0.00000E+00
    0.53254E+05        -0.49974E+08         0.00000E+00
    0.00000E+00         0.00000E+00        -0.20090E+08
 
   -0.20104E+08         0.54472E+05         0.00000E+00
    0.54472E+05        -0.49969E+08         0.00000E+00
    0.00000E+00         0.00000E+00        -0.20091E+08
 
   -0.20098E+08         0.54781E+05         0.00000E+00
    0.54781E+05        -0.49965E+08         0.00000E+00
    0.00000E+00         0.00000E+00        -0.20092E+08
 
   -0.20093E+08         0.54339E+05         0.00000E+00
    0.54339E+05        -0.49962E+08         0.00000E+00
    0.00000E+00         0.00000E+00        -0.20092E+08
 
   -0.20090E+08         0.53306E+05         0.00000E+00
    0.53306E+05        -0.49959E+08         0.00000E+00
    0.00000E+00         0.00000E+00        -0.20091E+08
 
   -0.20087E+08         0.51849E+05         0.00000E+00
    0.51849E+05        -0.49956E+08         0.00000E+00
    0.00000E+00         0.00000E+00        -0.20091E+08
 
   -0.20086E+08         0.50140E+05         0.00000E+00
    0.50140E+05        -0.49955E+08         0.00000E+00
    0.00000E+00         0.00000E+00        -0.20089E+08
 
   -0.20087E+08         0.48350E+05         0.00000E+00
    0.48350E+05        -0.49954E+08         0.00000E+00
    0.00000E+00         0.00000E+00        -0.20088E+08
 
   -0.20189E+08         0.74434E+04         0.00000E+00
    0.74434E+04        -0.49999E+08         0.00000E+00
    0.00000E+00         0.00000E+00        -0.20046E+08
 
   -0.20173E+08         0.20460E+05         0.00000E+00
    0.20460E+05        -0.49998E+08         0.00000E+00
    0.00000E+00         0.00000E+00        -0.20060E+08
 
   -0.20160E+08         0.31309E+05         0.00000E+00
    0.31309E+05        -0.49995E+08         0.00000E+00
    0.00000E+00         0.00000E+00        -0.20070E+08
 
   -0.20147E+08         0.40118E+05         0.00000E+00
    0.40118E+05        -0.49992E+08         0.00000E+00
    0.00000E+00         0.00000E+00        -0.20078E+08
 
   -0.20136E+08         0.47025E+05         0.00000E+00
    0.47025E+05        -0.49988E+08         0.00000E+00
    0.00000E+00         0.00000E+00        -0.20083E+08
 
   -0.20126E+08         0.52181E+05         0.00000E+00
    0.52181E+05        -0.49983E+08         0.00000E+00
    0.00000E+00         0.00000E+00        -0.20087E+08
 
   -0.20117E+08         0.55745E+05         0.00000E+00
    0.55745E+05        -0.49978E+08         0.00000E+00
    0.00000E+00         0.00000E+00        -0.20090E+08
 
   -0.20110E+08         0.57884E+05         0.00000E+00
    0.57884E+05        -0.49974E+08         0.00000E+00
    0.00000E+00         0.00000E+00        -0.20091E+08
 
   -0.20103E+08         0.58775E+05         0.00000E+00
    0.58775E+05        -0.49969E+08         0.00000E+00
    0.00000E+00         0.00000E+00        -0.20092E+08
 
   -0.20098E+08         0.58597E+05         0.00000E+00
    0.58597E+05        -0.49965E+08         0.00000E+00
    0.00000E+00         0.00000E+00        -0.20092E+08
 
   -0.20094E+08         0.57543E+05         0.00000E+00
    0.57543E+05        -0.49962E+08         0.00000E+00
    0.00000E+00         0.00000E+00        -0.20091E+08
 
   -0.20091E+08         0.55808E+05         0.00000E+00
    0.55808E+05        -0.49959E+08         0.00000E+00
    0.00000E+00         0.00000E+00        -0.20091E+08
 
   -0.20089E+08         0.53597E+05         0.00000E+00
    0.53597E+05        -0.49957E+08         0.00000E+00
    0.00000E+00         0.00000E+00        -0.20090E+08
 
   -0.20089E+08         0.51115E+05         0.00000E+00
    0.51115E+05        -0.49956E+08         0.00000E+00
    0.00000E+00         0.00000E+00        -0.20090E+08
 
   -0.20089E+08         0.48565E+05         0.00000E+00
    0.48565E+05        -0.49956E+08         0.00000E+00
    0.00000E+00         0.00000E+00        -0.20089E+08
 
   -0.20174E+08         0.82169E+04         0.00000E+00
    0.82169E+04        -0.49999E+08         0.00000E+00
    0.00000E+00         0.00000E+00        -0.20061E+08
 
   -0.20161E+08         0.22546E+05         0.00000E+00
    0.22546E+05        -0.49998E+08         0.00000E+00
    0.00000E+00         0.00000E+00        -0.20072E+08
 
   -0.20149E+08         0.34447E+05         0.00000E+00
    0.34447E+05        -0.49995E+08         0.00000E+00
    0.00000E+00         0.00000E+00        -0.20080E+08
 
   -0.20139E+08         0.44047E+05         0.00000E+00
    0.44047E+05        -0.49992E+08         0.00000E+00
    0.00000E+00         0.00000E+00        -0.20086E+08
 
   -0.20130E+08         0.51485E+05         0.00000E+00
    0.51485E+05        -0.49988E+08         0.00000E+00
    0.00000E+00         0.00000E+00        -0.20090E+08
 
   -0.20122E+08         0.56915E+05         0.00000E+00
    0.56915E+05        -0.49983E+08         0.00000E+00
    0.00000E+00         0.00000E+00        -0.20092E+08
 
   -0.20114E+08         0.60504E+05         0.00000E+00
    0.60504E+05        -0.49978E+08         0.00000E+00
    0.00000E+00         0.00000E+00        -0.20093E+08
 
   -0.20108E+08         0.62435E+05         0.00000E+00
    0.62435E+05        -0.49974E+08         0.00000E+00
    0.00000E+00         0.00000E+00        -0.20093E+08
 
   -0.20103E+08         0.62905E+05         0.00000E+00
    0.62905E+05        -0.49970E+08         0.00000E+00
    0.00000E+00         0.00000E+00        -0.20092E+08
 
   -0.20099E+08         0.62129E+05         0.00000E+00
    0.62129E+05        -0.49966E+08         0.00000E+00
    0.00000E+00         0.00000E+00        -0.20092E+08
 
   -0.20096E+08         0.60336E+05         0.00000E+00
    0.60336E+05        -0.49963E+08         0.00000E+00
    0.00000E+00         0.00000E+00        -0.20091E+08
 
   -0.20094E+08         0.57769E+05         0.00000E+00
    0.57769E+05        -0.49961E+08         0.00000E+00
    0.00000E+00         0.00000E+00        -0.20090E+08
 
   -0.20092E+08         0.54675E+05         0.00000E+00
    0.54675E+05        -0.49960E+08         0.00000E+00
    0.00000E+00         0.00000E+00        -0.20090E+08
 
   -0.20092E+08         0.51299E+05         0.00000E+00
    0.51299E+05        -0.49959E+08         0.00000E+00
    0.00000E+00         0.00000E+00        -0.20091E+08
 
   -0.20092E+08         0.47873E+05         0.00000E+00
    0.47873E+05        -0.49960E+08         0.00000E+00
    0.00000E+00         0.00000E+00        -0.20091E+08
 
   -0.20157E+08         0.89768E+04         0.00000E+00
    0.89768E+04        -0.50000E+08         0.00000E+00
    0.00000E+00         0.00000E+00        -0.20077E+08
 
   -0.20147E+08         0.24602E+05         0.00000E+00
    0.24602E+05        -0.49998E+08         0.00000E+00
    0.00000E+00         0.00000E+00        -0.20086E+08
 
   -0.20138E+08         0.37551E+05         0.00000E+00
    0.37551E+05        -0.49996E+08         0.00000E+00
    0.00000E+00         0.00000E+00        -0.20092E+08
 
   -0.20130E+08         0.47943E+05         0.00000E+00
    0.47943E+05        -0.49992E+08         0.00000E+00
    0.00000E+00         0.00000E+00        -0.20095E+08
 
   -0.20123E+08         0.55908E+05         0.00000E+00
    0.55908E+05        -0.49988E+08         0.00000E+00
    0.00000E+00         0.00000E+00        -0.20097E+08
 
   -0.20117E+08         0.61591E+05         0.00000E+00
    0.61591E+05        -0.49983E+08         0.00000E+00
    0.00000E+00         0.00000E+00        -0.20097E+08
 
   -0.20112E+08         0.65160E+05         0.00000E+00
    0.65160E+05        -0.49979E+08         0.00000E+00
    0.00000E+00         0.00000E+00        -0.20096E+08
 
   -0.20107E+08         0.66807E+05         0.00000E+00
    0.66807E+05        -0.49974E+08         0.00000E+00
    0.00000E+00         0.00000E+00        -0.20095E+08
 
   -0.20104E+08         0.66756E+05         0.00000E+00
    0.66756E+05        -0.49970E+08         0.00000E+00
    0.00000E+00         0.00000E+00        -0.20093E+08
 
   -0.20101E+08         0.65260E+05         0.00000E+00
    0.65260E+05        -0.49967E+08         0.00000E+00
    0.00000E+00         0.00000E+00        -0.20092E+08
 
   -0.20099E+08         0.62600E+05         0.00000E+00
    0.62600E+05        -0.49965E+08         0.00000E+00
    0.00000E+00         0.00000E+00        -0.20091E+08
 
   -0.20097E+08         0.59072E+05         0.00000E+00
    0.59072E+05        -0.49963E+08         0.00000E+00
    0.00000E+00         0.00000E+00        -0.20090E+08
 
   -0.20096E+08         0.54978E+05         0.00000E+00
    0.54978E+05        -0.49963E+08         0.00000E+00
    0.00000E+00         0.00000E+00        -0.20091E+08
 
   -0.20095E+08         0.50597E+05         0.00000E+00
    0.50597E+05        -0.49964E+08         0.00000E+00
    0.00000E+00         0.00000E+00        -0.20092E+08
 
   -0.20096E+08         0.46192E+05         0.00000E+00
    0.46192E+05        -0.49965E+08         0.00000E+00
    0.00000E+00         0.00000E+00        -0.20094E+08
 
   -0.20140E+08         0.97059E+04         0.00000E+00
    0.97059E+04        -0.50000E+08         0.00000E+00
    0.00000E+00         0.00000E+00        -0.20095E+08
 
   -0.20132E+08         0.26582E+05         0.00000E+00
    0.26582E+05        -0.49998E+08         0.00000E+00
    0.00000E+00         0.00000E+00        -0.20101E+08
 
   -0.20126E+08         0.40553E+05         0.00000E+00
    0.40553E+05        -0.49996E+08         0.00000E+00
    0.00000E+00         0.00000E+00        -0.20104E+08
 
   -0.20121E+08         0.51720E+05         0.00000E+00
    0.51720E+05        -0.49992E+08         0.00000E+00
    0.00000E+00         0.00000E+00        -0.20105E+08
 
   -0.20116E+08         0.60193E+05         0.00000E+00
    0.60193E+05        -0.49988E+08         0.00000E+00
    0.00000E+00         0.00000E+00        -0.20104E+08
 
   -0.20112E+08         0.66097E+05         0.00000E+00
    0.66097E+05        -0.49984E+08         0.00000E+00
    0.00000E+00         0.00000E+00        -0.20103E+08
 
   -0.20109E+08         0.69589E+05         0.00000E+00
    0.69589E+05        -0.49980E+08         0.00000E+00
    0.00000E+00         0.00000E+00        -0.20100E+08
 
   -0.20107E+08         0.70869E+05         0.00000E+00
    0.70869E+05        -0.49976E+08         0.00000E+00
    0.00000E+00         0.00000E+00        -0.20097E+08
 
   -0.20105E+08         0.70188E+05         0.00000E+00
    0.70188E+05        -0.49972E+08         0.00000E+00
    0.00000E+00         0.00000E+00        -0.20094E+08
 
   -0.20103E+08         0.67851E+05         0.00000E+00
    0.67851E+05        -0.49970E+08         0.00000E+00
    0.00000E+00         0.00000E+00        -0.20092E+08
 
   -0.20102E+08         0.64201E+05         0.00000E+00
    0.64201E+05        -0.49968E+08         0.00000E+00
    0.00000E+00         0.00000E+00        -0.20091E+08
 
   -0.20101E+08         0.59599E+05         0.00000E+00
    0.59599E+05        -0.49967E+08         0.00000E+00
    0.00000E+00         0.00000E+00        -0.20091E+08
 
   -0.20101E+08         0.54402E+05         0.00000E+00
    0.54402E+05        -0.49968E+08         0.00000E+00
    0.00000E+00         0.00000E+00        -0.20092E+08
 
   -0.20100E+08         0.48936E+05         0.00000E+00
    0.48936E+05        -0.49969E+08         0.00000E+00
    0.00000E+00         0.00000E+00        -0.20095E+08
 
   -0.20100E+08         0.43469E+05         0.00000E+00
    0.43469E+05        -0.49972E+08         0.00000E+00
    0.00000E+00         0.00000E+00        -0.20098E+08
 
   -0.20121E+08         0.10389E+05         0.00000E+00
    0.10389E+05        -0.50000E+08         0.00000E+00
    0.00000E+00         0.00000E+00        -0.20114E+08
 
   -0.20116E+08         0.28442E+05         0.00000E+00
    0.28442E+05        -0.49998E+08         0.00000E+00
    0.00000E+00         0.00000E+00        -0.20117E+08
 
   -0.20113E+08         0.43380E+05         0.00000E+00
    0.43380E+05        -0.49996E+08         0.00000E+00
    0.00000E+00         0.00000E+00        -0.20117E+08
 
   -0.20110E+08         0.55277E+05         0.00000E+00
    0.55277E+05        -0.49993E+08         0.00000E+00
    0.00000E+00         0.00000E+00        -0.20116E+08
 
   -0.20109E+08         0.64213E+05         0.00000E+00
    0.64213E+05        -0.49989E+08         0.00000E+00
    0.00000E+00         0.00000E+00        -0.20113E+08
 
   -0.20108E+08         0.70284E+05         0.00000E+00
    0.70284E+05        -0.49985E+08         0.00000E+00
    0.00000E+00         0.00000E+00        -0.20109E+08
 
   -0.20107E+08         0.73627E+05         0.00000E+00
    0.73627E+05        -0.49982E+08         0.00000E+00
    0.00000E+00         0.00000E+00        -0.20104E+08
 
   -0.20107E+08         0.74446E+05         0.00000E+00
    0.74446E+05        -0.49978E+08         0.00000E+00
    0.00000E+00         0.00000E+00        -0.20100E+08
 
   -0.20107E+08         0.73026E+05         0.00000E+00
    0.73026E+05        -0.49975E+08         0.00000E+00
    0.00000E+00         0.00000E+00        -0.20096E+08
 
   -0.20107E+08         0.69735E+05         0.00000E+00
    0.69735E+05        -0.49973E+08         0.00000E+00
    0.00000E+00         0.00000E+00        -0.20094E+08
 
   -0.20107E+08         0.64991E+05         0.00000E+00
    0.64991E+05        -0.49972E+08         0.00000E+00
    0.00000E+00         0.00000E+00        -0.20092E+08
 
   -0.20107E+08         0.59232E+05         0.00000E+00
    0.59232E+05        -0.49973E+08         0.00000E+00
    0.00000E+00         0.00000E+00        -0.20093E+08
 
   -0.20107E+08         0.52873E+05         0.00000E+00
    0.52873E+05        -0.49974E+08         0.00000E+00
    0.00000E+00         0.00000E+00        -0.20095E+08
 
   -0.20106E+08         0.46268E+05         0.00000E+00
    0.46268E+05        -0.49977E+08         0.00000E+00
    0.00000E+00         0.00000E+00        -0.20098E+08
 
   -0.20106E+08         0.39692E+05         0.00000E+00
    0.39692E+05        -0.49980E+08         0.00000E+00
    0.00000E+00         0.00000E+00        -0.20103E+08
 
   -0.20100E+08         0.11016E+05         0.00000E+00
    0.11016E+05        -0.50000E+08         0.00000E+00
    0.00000E+00         0.00000E+00        -0.20134E+08
 
   -0.20099E+08         0.30141E+05         0.00000E+00
    0.30141E+05        -0.49999E+08         0.00000E+00
    0.00000E+00         0.00000E+00        -0.20134E+08
 
   -0.20099E+08         0.45955E+05         0.00000E+00
    0.45955E+05        -0.49996E+08         0.00000E+00
    0.00000E+00         0.00000E+00        -0.20132E+08
 
   -0.20100E+08         0.58499E+05         0.00000E+00
    0.58499E+05        -0.49994E+08         0.00000E+00
    0.00000E+00         0.00000E+00        -0.20128E+08
 
   -0.20101E+08         0.67814E+05         0.00000E+00
    0.67814E+05        -0.49991E+08         0.00000E+00
    0.00000E+00         0.00000E+00        -0.20122E+08
 
   -0.20103E+08         0.73961E+05         0.00000E+00
    0.73961E+05        -0.49987E+08         0.00000E+00
    0.00000E+00         0.00000E+00        -0.20116E+08
 
   -0.20105E+08         0.77056E+05         0.00000E+00
    0.77056E+05        -0.49984E+08         0.00000E+00
    0.00000E+00         0.00000E+00        -0.20110E+08
 
   -0.20107E+08         0.77309E+05         0.00000E+00
    0.77309E+05        -0.49981E+08         0.00000E+00
    0.00000E+00         0.00000E+00        -0.20104E+08
 
   -0.20110E+08         0.75051E+05         0.00000E+00
    0.75051E+05        -0.49979E+08         0.00000E+00
    0.00000E+00         0.00000E+00        -0.20099E+08
 
   -0.20111E+08         0.70722E+05         0.00000E+00
    0.70722E+05        -0.49978E+08         0.00000E+00
    0.00000E+00         0.00000E+00        -0.20096E+08
 
   -0.20113E+08         0.64828E+05         0.00000E+00
    0.64828E+05        -0.49978E+08         0.00000E+00
    0.00000E+00         0.00000E+00        -0.20095E+08
 
   -0.20114E+08         0.57882E+05         0.00000E+00
    0.57882E+05        -0.49980E+08         0.00000E+00
    0.00000E+00         0.00000E+00        -0.20095E+08
 
   -0.20114E+08         0.50347E+05         0.00000E+00
    0.50347E+05        -0.49982E+08         0.00000E+00
    0.00000E+00         0.00000E+00        -0.20098E+08
 
   -0.20114E+08         0.42598E+05         0.00000E+00
    0.42598E+05        -0.49986E+08         0.00000E+00
    0.00000E+00         0.00000E+00        -0.20103E+08
 
   -0.20113E+08         0.34904E+05         0.00000E+00
    0.34904E+05        -0.49991E+08         0.00000E+00
    0.00000E+00         0.00000E+00        -0.20110E+08
 
   -0.20079E+08         0.11582E+05         0.00000E+00
    0.11582E+05        -0.50000E+08         0.00000E+00
    0.00000E+00         0.00000E+00        -0.20156E+08
 
   -0.20081E+08         0.31646E+05         0.00000E+00
    0.31646E+05        -0.49999E+08         0.00000E+00
    0.00000E+00         0.00000E+00        -0.20152E+08
 
   -0.20085E+08         0.48202E+05         0.00000E+00
    0.48202E+05        -0.49997E+08         0.00000E+00
    0.00000E+00         0.00000E+00        -0.20147E+08
 
   -0.20089E+08         0.61252E+05         0.00000E+00
    0.61252E+05        -0.49995E+08         0.00000E+00
    0.00000E+00         0.00000E+00        -0.20140E+08
 
   -0.20093E+08         0.70799E+05         0.00000E+00
    0.70799E+05        -0.49992E+08         0.00000E+00
    0.00000E+00         0.00000E+00        -0.20132E+08
 
   -0.20098E+08         0.76873E+05         0.00000E+00
    0.76873E+05        -0.49990E+08         0.00000E+00
    0.00000E+00         0.00000E+00        -0.20124E+08
 
   -0.20104E+08         0.79582E+05         0.00000E+00
    0.79582E+05        -0.49987E+08         0.00000E+00
    0.00000E+00         0.00000E+00        -0.20116E+08
 
   -0.20109E+08         0.79164E+05         0.00000E+00
    0.79164E+05        -0.49986E+08         0.00000E+00
    0.00000E+00         0.00000E+00        -0.20108E+08
 
   -0.20113E+08         0.76003E+05         0.00000E+00
    0.76003E+05        -0.49985E+08         0.00000E+00
    0.00000E+00         0.00000E+00        -0.20103E+08
 
   -0.20117E+08         0.70618E+05         0.00000E+00
    0.70618E+05        -0.49985E+08         0.00000E+00
    0.00000E+00         0.00000E+00        -0.20099E+08
 
   -0.20120E+08         0.63593E+05         0.00000E+00
    0.63593E+05        -0.49987E+08         0.00000E+00
    0.00000E+00         0.00000E+00        -0.20098E+08
 
   -0.20121E+08         0.55502E+05         0.00000E+00
    0.55502E+05        -0.49989E+08         0.00000E+00
    0.00000E+00         0.00000E+00        -0.20100E+08
 
   -0.20122E+08         0.46841E+05         0.00000E+00
    0.46841E+05        -0.49992E+08         0.00000E+00
    0.00000E+00         0.00000E+00        -0.20103E+08
 
   -0.20122E+08         0.37994E+05         0.00000E+00
    0.37994E+05        -0.49997E+08         0.00000E+00
    0.00000E+00         0.00000E+00        -0.20109E+08
 
   -0.20122E+08         0.29210E+05         0.00000E+00
    0.29210E+05        -0.50002E+08         0.00000E+00
    0.00000E+00         0.00000E+00        -0.20117E+08
 
   -0.20057E+08         0.12081E+05         0.00000E+00
    0.12081E+05        -0.50000E+08         0.00000E+00
    0.00000E+00         0.00000E+00        -0.20179E+08
 
   -0.20063E+08         0.32934E+05         0.00000E+00
    0.32934E+05        -0.49999E+08         0.00000E+00
    0.00000E+00         0.00000E+00        -0.20172E+08
 
   -0.20070E+08         0.50047E+05         0.00000E+00
    0.50047E+05        -0.49997E+08         0.00000E+00
    0.00000E+00         0.00000E+00        -0.20163E+08
 
   -0.20077E+08         0.63385E+05         0.00000E+00
    0.63385E+05        -0.49996E+08         0.00000E+00
    0.00000E+00         0.00000E+00        -0.20153E+08
 
   -0.20085E+08         0.72925E+05         0.00000E+00
    0.72925E+05        -0.49994E+08         0.00000E+00
    0.00000E+00         0.00000E+00        -0.20143E+08
 
   -0.20094E+08         0.78691E+05         0.00000E+00
    0.78691E+05        -0.49993E+08         0.00000E+00
    0.00000E+00         0.00000E+00        -0.20132E+08
 
   -0.20103E+08         0.80829E+05         0.00000E+00
    0.80829E+05        -0.49992E+08         0.00000E+00
    0.00000E+00         0.00000E+00        -0.20122E+08
 
   -0.20111E+08         0.79643E+05         0.00000E+00
    0.79643E+05        -0.49992E+08         0.00000E+00
    0.00000E+00         0.00000E+00        -0.20114E+08
 
   -0.20118E+08         0.75591E+05         0.00000E+00
    0.75591E+05        -0.49993E+08         0.00000E+00
    0.00000E+00         0.00000E+00        -0.20108E+08
 
   -0.20124E+08         0.69242E+05         0.00000E+00
    0.69242E+05        -0.49994E+08         0.00000E+00
    0.00000E+00         0.00000E+00        -0.20104E+08
 
   -0.20128E+08         0.61217E+05         0.00000E+00
    0.61217E+05        -0.49997E+08         0.00000E+00
    0.00000E+00         0.00000E+00        -0.20104E+08
 
   -0.20130E+08         0.52114E+05         0.00000E+00
    0.52114E+05        -0.50000E+08         0.00000E+00
    0.00000E+00         0.00000E+00        -0.20106E+08
 
   -0.20131E+08         0.42444E+05         0.00000E+00
    0.42444E+05        -0.50005E+08         0.00000E+00
    0.00000E+00         0.00000E+00        -0.20110E+08
 
   -0.20131E+08         0.32588E+05         0.00000E+00
    0.32588E+05        -0.50010E+08         0.00000E+00
    0.00000E+00         0.00000E+00        -0.20117E+08
 
   -0.20131E+08         0.22781E+05         0.00000E+00
    0.22781E+05        -0.50016E+08         0.00000E+00
    0.00000E+00         0.00000E+00        -0.20126E+08
 
   -0.20034E+08         0.12512E+05         0.00000E+00
    0.12512E+05        -0.50000E+08         0.00000E+00
    0.00000E+00         0.00000E+00        -0.20202E+08
 
   -0.20043E+08         0.33968E+05         0.00000E+00
    0.33968E+05        -0.49999E+08         0.00000E+00
    0.00000E+00         0.00000E+00        -0.20191E+08
 
   -0.20054E+08         0.51397E+05         0.00000E+00
    0.51397E+05        -0.49998E+08         0.00000E+00
    0.00000E+00         0.00000E+00        -0.20179E+08
 
   -0.20066E+08         0.64713E+05         0.00000E+00
    0.64713E+05        -0.49997E+08         0.00000E+00
    0.00000E+00         0.00000E+00        -0.20166E+08
 
   -0.20078E+08         0.73879E+05         0.00000E+00
    0.73879E+05        -0.49997E+08         0.00000E+00
    0.00000E+00         0.00000E+00        -0.20153E+08
 
   -0.20091E+08         0.78997E+05         0.00000E+00
    0.78997E+05        -0.49997E+08         0.00000E+00
    0.00000E+00         0.00000E+00        -0.20141E+08
 
   -0.20103E+08         0.80333E+05         0.00000E+00
    0.80333E+05        -0.49998E+08         0.00000E+00
    0.00000E+00         0.00000E+00        -0.20130E+08
 
   -0.20114E+08         0.78332E+05         0.00000E+00
    0.78332E+05        -0.50000E+08         0.00000E+00
    0.00000E+00         0.00000E+00        -0.20122E+08
 
   -0.20124E+08         0.73522E+05         0.00000E+00
    0.73522E+05        -0.50003E+08         0.00000E+00
    0.00000E+00         0.00000E+00        -0.20115E+08
 
   -0.20131E+08         0.66460E+05         0.00000E+00
    0.66460E+05        -0.50006E+08         0.00000E+00
    0.00000E+00         0.00000E+00        -0.20112E+08
 
   -0.20137E+08         0.57708E+05         0.00000E+00
    0.57708E+05        -0.50010E+08         0.00000E+00
    0.00000E+00         0.00000E+00        -0.20111E+08
 
   -0.20140E+08         0.47826E+05         0.00000E+00
    0.47826E+05        -0.50014E+08         0.00000E+00
    0.00000E+00         0.00000E+00        -0.20114E+08
 
   -0.20142E+08         0.37323E+05         0.00000E+00
    0.37323E+05        -0.50019E+08         0.00000E+00
    0.00000E+00         0.00000E+00        -0.20119E+08
 
   -0.20142E+08         0.26589E+05         0.00000E+00
    0.26589E+05        -0.50025E+08         0.00000E+00
    0.00000E+00         0.00000E+00        -0.20126E+08
 
   -0.20141E+08         0.15854E+05         0.00000E+00
    0.15854E+05        -0.50031E+08         0.00000E+00
    0.00000E+00         0.00000E+00        -0.20136E+08
 
   -0.20010E+08         0.12874E+05         0.00000E+00
    0.12874E+05        -0.50000E+08         0.00000E+00
    0.00000E+00         0.00000E+00        -0.20226E+08
 
   -0.20024E+08         0.34703E+05         0.00000E+00
    0.34703E+05        -0.49999E+08         0.00000E+00
    0.00000E+00         0.00000E+00        -0.20211E+08
 
   -0.20039E+08         0.52110E+05         0.00000E+00
    0.52110E+05        -0.49999E+08         0.00000E+00
    0.00000E+00         0.00000E+00        -0.20196E+08
 
   -0.20055E+08         0.64956E+05         0.00000E+00
    0.64956E+05        -0.49999E+08         0.00000E+00
    0.00000E+00         0.00000E+00        -0.20180E+08
 
   -0.20071E+08         0.73252E+05         0.00000E+00
    0.73252E+05        -0.50000E+08         0.00000E+00
    0.00000E+00         0.00000E+00        -0.20165E+08
 
   -0.20088E+08         0.77279E+05         0.00000E+00
    0.77279E+05        -0.50002E+08         0.00000E+00
    0.00000E+00         0.00000E+00        -0.20151E+08
 
   -0.20104E+08         0.77592E+05         0.00000E+00
    0.77592E+05        -0.50006E+08         0.00000E+00
    0.00000E+00         0.00000E+00        -0.20140E+08
 
   -0.20118E+08         0.74828E+05         0.00000E+00
    0.74828E+05        -0.50010E+08         0.00000E+00
    0.00000E+00         0.00000E+00        -0.20131E+08
 
   -0.20130E+08         0.69549E+05         0.00000E+00
    0.69549E+05        -0.50015E+08         0.00000E+00
    0.00000E+00         0.00000E+00        -0.20125E+08
 
   -0.20140E+08         0.62192E+05         0.00000E+00
    0.62192E+05        -0.50020E+08         0.00000E+00
    0.00000E+00         0.00000E+00        -0.20122E+08
 
   -0.20146E+08         0.53142E+05         0.00000E+00
    0.53142E+05        -0.50025E+08         0.00000E+00
    0.00000E+00         0.00000E+00        -0.20122E+08
 
   -0.20151E+08         0.42830E+05         0.00000E+00
    0.42830E+05        -0.50030E+08         0.00000E+00
    0.00000E+00         0.00000E+00        -0.20125E+08
 
   -0.20152E+08         0.31733E+05         0.00000E+00
    0.31733E+05        -0.50036E+08         0.00000E+00
    0.00000E+00         0.00000E+00        -0.20130E+08
 
   -0.20153E+08         0.20276E+05         0.00000E+00
    0.20276E+05        -0.50042E+08         0.00000E+00
    0.00000E+00         0.00000E+00        -0.20137E+08
 
   -0.20152E+08         0.87287E+04         0.00000E+00
    0.87287E+04        -0.50048E+08         0.00000E+00
    0.00000E+00         0.00000E+00        -0.20147E+08
 
   -0.19986E+08         0.13163E+05         0.00000E+00
    0.13163E+05        -0.50000E+08         0.00000E+00
    0.00000E+00         0.00000E+00        -0.20251E+08
 
   -0.20004E+08         0.35064E+05         0.00000E+00
    0.35064E+05        -0.50000E+08         0.00000E+00
    0.00000E+00         0.00000E+00        -0.20232E+08
 
   -0.20024E+08         0.51955E+05         0.00000E+00
    0.51955E+05        -0.50000E+08         0.00000E+00
    0.00000E+00         0.00000E+00        -0.20212E+08
 
   -0.20045E+08         0.63679E+05         0.00000E+00
    0.63679E+05        -0.50001E+08         0.00000E+00
    0.00000E+00         0.00000E+00        -0.20193E+08
 
   -0.20066E+08         0.70456E+05         0.00000E+00
    0.70456E+05        -0.50005E+08         0.00000E+00
    0.00000E+00         0.00000E+00        -0.20176E+08
 
   -0.20086E+08         0.72983E+05         0.00000E+00
    0.72983E+05        -0.50010E+08         0.00000E+00
    0.00000E+00         0.00000E+00        -0.20162E+08
 
   -0.20105E+08         0.72182E+05         0.00000E+00
    0.72182E+05        -0.50016E+08         0.00000E+00
    0.00000E+00         0.00000E+00        -0.20152E+08
 
   -0.20122E+08         0.68859E+05         0.00000E+00
    0.68859E+05        -0.50023E+08         0.00000E+00
    0.00000E+00         0.00000E+00        -0.20144E+08
 
   -0.20136E+08         0.63522E+05         0.00000E+00
    0.63522E+05        -0.50030E+08         0.00000E+00
    0.00000E+00         0.00000E+00        -0.20139E+08
 
   -0.20148E+08         0.56410E+05         0.00000E+00
    0.56410E+05        -0.50037E+08         0.00000E+00
    0.00000E+00         0.00000E+00        -0.20137E+08
 
   -0.20156E+08         0.47634E+05         0.00000E+00
    0.47634E+05        -0.50043E+08         0.00000E+00
    0.00000E+00         0.00000E+00        -0.20136E+08
 
   -0.20161E+08         0.37370E+05         0.00000E+00
    0.37370E+05        -0.50049E+08         0.00000E+00
    0.00000E+00         0.00000E+00        -0.20138E+08
 
   -0.20164E+08         0.25998E+05         0.00000E+00
    0.25998E+05        -0.50055E+08         0.00000E+00
    0.00000E+00         0.00000E+00        -0.20143E+08
 
   -0.20165E+08         0.14007E+05         0.00000E+00
    0.14007E+05        -0.50060E+08         0.00000E+00
    0.00000E+00         0.00000E+00        -0.20150E+08
 
   -0.20164E+08         0.17705E+04         0.00000E+00
    0.17705E+04        -0.50067E+08         0.00000E+00
    0.00000E+00         0.00000E+00        -0.20159E+08
 
   -0.19962E+08         0.13370E+05         0.00000E+00
    0.13370E+05        -0.50000E+08         0.00000E+00
    0.00000E+00         0.00000E+00        -0.20276E+08
 
   -0.19985E+08         0.34890E+05         0.00000E+00
    0.34890E+05        -0.50000E+08         0.00000E+00
    0.00000E+00         0.00000E+00        -0.20252E+08
 
   -0.20010E+08         0.50489E+05         0.00000E+00
    0.50489E+05        -0.50001E+08         0.00000E+00
    0.00000E+00         0.00000E+00        -0.20228E+08
 
   -0.20036E+08         0.60171E+05         0.00000E+00
    0.60171E+05        -0.50005E+08         0.00000E+00
    0.00000E+00         0.00000E+00        -0.20206E+08
 
   -0.20062E+08         0.64763E+05         0.00000E+00
    0.64763E+05        -0.50012E+08         0.00000E+00
    0.00000E+00         0.00000E+00        -0.20189E+08
 
   -0.20086E+08         0.65613E+05         0.00000E+00
    0.65613E+05        -0.50020E+08         0.00000E+00
    0.00000E+00         0.00000E+00        -0.20176E+08
 
   -0.20108E+08         0.63912E+05         0.00000E+00
    0.63912E+05        -0.50029E+08         0.00000E+00
    0.00000E+00         0.00000E+00        -0.20166E+08
 
   -0.20126E+08         0.60402E+05         0.00000E+00
    0.60402E+05        -0.50039E+08         0.00000E+00
    0.00000E+00         0.00000E+00        -0.20160E+08
 
   -0.20142E+08         0.55442E+05         0.00000E+00
    0.55442E+05        -0.50048E+08         0.00000E+00
    0.00000E+00         0.00000E+00        -0.20157E+08
 
   -0.20155E+08         0.49101E+05         0.00000E+00
    0.49101E+05        -0.50057E+08         0.00000E+00
    0.00000E+00         0.00000E+00        -0.20155E+08
 
   -0.20165E+08         0.41237E+05         0.00000E+00
    0.41237E+05        -0.50064E+08         0.00000E+00
    0.00000E+00         0.00000E+00        -0.20155E+08
 
   -0.20172E+08         0.31676E+05         0.00000E+00
    0.31676E+05        -0.50070E+08         0.00000E+00
    0.00000E+00         0.00000E+00        -0.20156E+08
 
   -0.20176E+08         0.20503E+05         0.00000E+00
    0.20503E+05        -0.50076E+08         0.00000E+00
    0.00000E+00         0.00000E+00        -0.20159E+08
 
   -0.20177E+08         0.82261E+04         0.00000E+00
    0.82261E+04        -0.50081E+08         0.00000E+00
    0.00000E+00         0.00000E+00        -0.20165E+08
 
   -0.20177E+08        -0.45735E+04         0.00000E+00
   -0.45735E+04        -0.50087E+08         0.00000E+00
    0.00000E+00         0.00000E+00        -0.20173E+08
 
   -0.19937E+08         0.13464E+05         0.00000E+00
    0.13464E+05        -0.50000E+08         0.00000E+00
    0.00000E+00         0.00000E+00        -0.20301E+08
 
   -0.19967E+08         0.33808E+05         0.00000E+00
    0.33808E+05        -0.50001E+08         0.00000E+00
    0.00000E+00         0.00000E+00        -0.20271E+08
 
   -0.19999E+08         0.46834E+05         0.00000E+00
    0.46834E+05        -0.50004E+08         0.00000E+00
    0.00000E+00         0.00000E+00        -0.20243E+08
 
   -0.20031E+08         0.53389E+05         0.00000E+00
    0.53389E+05        -0.50012E+08         0.00000E+00
    0.00000E+00         0.00000E+00        -0.20221E+08
 
   -0.20060E+08         0.55519E+05         0.00000E+00
    0.55519E+05        -0.50022E+08         0.00000E+00
    0.00000E+00         0.00000E+00        -0.20204E+08
 
   -0.20087E+08         0.55028E+05         0.00000E+00
    0.55028E+05        -0.50033E+08         0.00000E+00
    0.00000E+00         0.00000E+00        -0.20193E+08
 
   -0.20110E+08         0.52925E+05         0.00000E+00
    0.52925E+05        -0.50045E+08         0.00000E+00
    0.00000E+00         0.00000E+00        -0.20185E+08
 
   -0.20130E+08         0.49686E+05         0.00000E+00
    0.49686E+05        -0.50057E+08         0.00000E+00
    0.00000E+00         0.00000E+00        -0.20181E+08
 
   -0.20147E+08         0.45486E+05         0.00000E+00
    0.45486E+05        -0.50069E+08         0.00000E+00
    0.00000E+00         0.00000E+00        -0.20178E+08
 
   -0.20162E+08         0.40291E+05         0.00000E+00
    0.40291E+05        -0.50079E+08         0.00000E+00
    0.00000E+00         0.00000E+00        -0.20177E+08
 
   -0.20173E+08         0.33875E+05         0.00000E+00
    0.33875E+05        -0.50087E+08         0.00000E+00
    0.00000E+00         0.00000E+00        -0.20177E+08
 
   -0.20182E+08         0.25802E+05         0.00000E+00
    0.25802E+05        -0.50094E+08         0.00000E+00
    0.00000E+00         0.00000E+00        -0.20178E+08
 
   -0.20187E+08         0.15624E+05         0.00000E+00
    0.15624E+05        -0.50099E+08         0.00000E+00
    0.00000E+00         0.00000E+00        -0.20179E+08
 
   -0.20189E+08         0.34927E+04         0.00000E+00
    0.34927E+04        -0.50104E+08         0.00000E+00
    0.00000E+00         0.00000E+00        -0.20182E+08
 
   -0.20190E+08        -0.97321E+04         0.00000E+00
   -0.97321E+04        -0.50108E+08         0.00000E+00
    0.00000E+00         0.00000E+00        -0.20187E+08
 
   -0.19914E+08         0.13327E+05         0.00000E+00
    0.13327E+05        -0.50000E+08         0.00000E+00
    0.00000E+00         0.00000E+00        -0.20325E+08
 
   -0.19952E+08         0.30828E+05         0.00000E+00
    0.30828E+05        -0.50003E+08         0.00000E+00
    0.00000E+00         0.00000E+00        -0.20289E+08
 
   -0.19991E+08         0.39392E+05         0.00000E+00
    0.39392E+05        -0.50010E+08         0.00000E+00
    0.00000E+00         0.00000E+00        -0.20259E+08
 
   -0.20028E+08         0.42348E+05         0.00000E+00
    0.42348E+05        -0.50022E+08         0.00000E+00
    0.00000E+00         0.00000E+00        -0.20237E+08
 
   -0.20060E+08         0.42651E+05         0.00000E+00
    0.42651E+05        -0.50036E+08         0.00000E+00
    0.00000E+00         0.00000E+00        -0.20223E+08
 
   -0.20089E+08         0.41582E+05         0.00000E+00
    0.41582E+05        -0.50050E+08         0.00000E+00
    0.00000E+00         0.00000E+00        -0.20214E+08
 
   -0.20113E+08         0.39660E+05         0.00000E+00
    0.39660E+05        -0.50065E+08         0.00000E+00
    0.00000E+00         0.00000E+00        -0.20208E+08
 
   -0.20134E+08         0.37093E+05         0.00000E+00
    0.37093E+05        -0.50079E+08         0.00000E+00
    0.00000E+00         0.00000E+00        -0.20205E+08
 
   -0.20151E+08         0.33932E+05         0.00000E+00
    0.33932E+05        -0.50091E+08         0.00000E+00
    0.00000E+00         0.00000E+00        -0.20204E+08
 
   -0.20167E+08         0.30109E+05         0.00000E+00
    0.30109E+05        -0.50103E+08         0.00000E+00
    0.00000E+00         0.00000E+00        -0.20204E+08
 
   -0.20179E+08         0.25427E+05         0.00000E+00
    0.25427E+05        -0.50113E+08         0.00000E+00
    0.00000E+00         0.00000E+00        -0.20204E+08
 
   -0.20190E+08         0.19469E+05         0.00000E+00
    0.19469E+05        -0.50120E+08         0.00000E+00
    0.00000E+00         0.00000E+00        -0.20204E+08
 
   -0.20197E+08         0.11466E+05         0.00000E+00
    0.11466E+05        -0.50126E+08         0.00000E+00
    0.00000E+00         0.00000E+00        -0.20203E+08
 
   -0.20202E+08         0.50874E+03         0.00000E+00
    0.50874E+03        -0.50129E+08         0.00000E+00
    0.00000E+00         0.00000E+00        -0.20203E+08
 
   -0.20204E+08        -0.12873E+05         0.00000E+00
   -0.12873E+05        -0.50130E+08         0.00000E+00
    0.00000E+00         0.00000E+00        -0.20203E+08
 
   -0.19893E+08         0.12291E+05         0.00000E+00
    0.12291E+05        -0.50001E+08         0.00000E+00
    0.00000E+00         0.00000E+00        -0.20347E+08
 
   -0.19942E+08         0.23396E+05         0.00000E+00
    0.23396E+05        -0.50008E+08         0.00000E+00
    0.00000E+00         0.00000E+00        -0.20307E+08
 
   -0.19988E+08         0.26521E+05         0.00000E+00
    0.26521E+05        -0.50022E+08         0.00000E+00
    0.00000E+00         0.00000E+00        -0.20278E+08
 
   -0.20027E+08         0.27211E+05         0.00000E+00
    0.27211E+05        -0.50038E+08         0.00000E+00
    0.00000E+00         0.00000E+00        -0.20259E+08
 
   -0.20061E+08         0.26875E+05         0.00000E+00
    0.26875E+05        -0.50054E+08         0.00000E+00
    0.00000E+00         0.00000E+00        -0.20247E+08
 
   -0.20090E+08         0.25961E+05         0.00000E+00
    0.25961E+05        -0.50071E+08         0.00000E+00
    0.00000E+00         0.00000E+00        -0.20239E+08
 
   -0.20115E+08         0.24654E+05         0.00000E+00
    0.24654E+05        -0.50087E+08         0.00000E+00
    0.00000E+00         0.00000E+00        -0.20236E+08
 
   -0.20136E+08         0.23025E+05         0.00000E+00
    0.23025E+05        -0.50102E+08         0.00000E+00
    0.00000E+00         0.00000E+00        -0.20234E+08
 
   -0.20154E+08         0.21078E+05         0.00000E+00
    0.21078E+05        -0.50116E+08         0.00000E+00
    0.00000E+00         0.00000E+00        -0.20234E+08
 
   -0.20170E+08         0.18753E+05         0.00000E+00
    0.18753E+05        -0.50129E+08         0.00000E+00
    0.00000E+00         0.00000E+00        -0.20235E+08
 
   -0.20184E+08         0.15916E+05         0.00000E+00
    0.15916E+05        -0.50140E+08         0.00000E+00
    0.00000E+00         0.00000E+00        -0.20236E+08
 
   -0.20195E+08         0.12307E+05         0.00000E+00
    0.12307E+05        -0.50148E+08         0.00000E+00
    0.00000E+00         0.00000E+00        -0.20235E+08
 
   -0.20205E+08         0.73683E+04         0.00000E+00
    0.73683E+04        -0.50154E+08         0.00000E+00
    0.00000E+00         0.00000E+00        -0.20233E+08
 
   -0.20213E+08        -0.21135E+03         0.00000E+00
   -0.21135E+03        -0.50156E+08         0.00000E+00
    0.00000E+00         0.00000E+00        -0.20228E+08
 
   -0.20217E+08        -0.12655E+05         0.00000E+00
   -0.12655E+05        -0.50155E+08         0.00000E+00
    0.00000E+00         0.00000E+00        -0.20222E+08
 
   -0.19879E+08         0.63059E+04         0.00000E+00
    0.63059E+04        -0.50009E+08         0.00000E+00
    0.00000E+00         0.00000E+00        -0.20372E+08
 
   -0.19939E+08         0.84890E+04         0.00000E+00
    0.84890E+04        -0.50022E+08         0.00000E+00
    0.00000E+00         0.00000E+00        -0.20329E+08
 
   -0.19987E+08         0.92482E+04         0.00000E+00
    0.92482E+04        -0.50040E+08         0.00000E+00
    0.00000E+00         0.00000E+00        -0.20303E+08
 
   -0.20027E+08         0.93764E+04         0.00000E+00
    0.93764E+04        -0.50058E+08         0.00000E+00
    0.00000E+00         0.00000E+00        -0.20286E+08
 
   -0.20062E+08         0.91959E+04         0.00000E+00
    0.91959E+04        -0.50077E+08         0.00000E+00
    0.00000E+00         0.00000E+00        -0.20276E+08
 
   -0.20091E+08         0.88505E+04         0.00000E+00
    0.88505E+04        -0.50095E+08         0.00000E+00
    0.00000E+00         0.00000E+00        -0.20270E+08
 
   -0.20116E+08         0.83912E+04         0.00000E+00
    0.83912E+04        -0.50112E+08         0.00000E+00
    0.00000E+00         0.00000E+00        -0.20267E+08
 
   -0.20137E+08         0.78354E+04         0.00000E+00
    0.78354E+04        -0.50128E+08         0.00000E+00
    0.00000E+00         0.00000E+00        -0.20267E+08
 
   -0.20156E+08         0.71801E+04         0.00000E+00
    0.71801E+04        -0.50143E+08         0.00000E+00
    0.00000E+00         0.00000E+00        -0.20268E+08
 
   -0.20172E+08         0.64027E+04         0.00000E+00
    0.64027E+04        -0.50157E+08         0.00000E+00
    0.00000E+00         0.00000E+00        -0.20270E+08
 
   -0.20186E+08         0.54542E+04         0.00000E+00
    0.54542E+04        -0.50168E+08         0.00000E+00
    0.00000E+00         0.00000E+00        -0.20271E+08
 
   -0.20198E+08         0.42414E+04         0.00000E+00
    0.42414E+04        -0.50178E+08         0.00000E+00
    0.00000E+00         0.00000E+00        -0.20272E+08
 
   -0.20209E+08         0.25886E+04         0.00000E+00
    0.25886E+04        -0.50185E+08         0.00000E+00
    0.00000E+00         0.00000E+00        -0.20270E+08
 
   -0.20220E+08         0.84925E+01         0.00000E+00
    0.84925E+01        -0.50188E+08         0.00000E+00
    0.00000E+00         0.00000E+00        -0.20263E+08
 
   -0.20228E+08        -0.56934E+04         0.00000E+00
   -0.56934E+04        -0.50181E+08         0.00000E+00
    0.00000E+00         0.00000E+00        -0.20246E+08
 
TENSORS stresstot double 
   -0.30273E+08         0.15138E+03         0.00000E+00
    0.15138E+03        -0.60000E+08         0.00000E+00
    0.00000E+00         0.00000E+00        -0.29964E+08
 
   -0.30247E+08         0.43446E+03         0.00000E+00
    0.43446E+03        -0.59999E+08         0.00000E+00
    0.00000E+00         0.00000E+00        -0.29989E+08
 
   -0.30222E+08         0.69329E+03         0.00000E+00
    0.69329E+03        -0.59998E+08         0.00000E+00
    0.00000E+00         0.00000E+00        -0.30011E+08
 
   -0.30200E+08         0.92909E+03         0.00000E+00
    0.92909E+03        -0.59996E+08         0.00000E+00
    0.00000E+00         0.00000E+00        -0.30031E+08
 
   -0.30179E+08         0.11431E+04         0.00000E+00
    0.11431E+04        -0.59994E+08         0.00000E+00
    0.00000E+00         0.00000E+00        -0.30049E+08
 
   -0.30161E+08         0.13366E+04         0.00000E+00
    0.13366E+04        -0.59992E+08         0.00000E+00
    0.00000E+00         0.00000E+00        -0.30064E+08
 
   -0.30145E+08         0.15110E+04         0.00000E+00
    0.15110E+04        -0.59989E+08         0.00000E+00
    0.00000E+00         0.00000E+00        -0.30076E+08
 
   -0.30131E+08         0.16673E+04         0.00000E+00
    0.16673E+04        -0.59986E+08         0.00000E+00
    0.00000E+00         0.00000E+00        -0.30086E+08
 
   -0.30118E+08         0.18068E+04         0.00000E+00
    0.18068E+04        -0.59982E+08         0.00000E+00
    0.00000E+00         0.00000E+00        -0.30094E+08
 
   -0.30108E+08         0.19308E+04         0.00000E+00
    0.19308E+04        -0.59979E+08         0.00000E+00
    0.00000E+00         0.00000E+00        -0.30099E+08
 
   -0.30100E+08         0.20409E+04         0.00000E+00
    0.20409E+04        -0.59975E+08         0.00000E+00
    0.00000E+00         0.00000E+00        -0.30102E+08
 
   -0.30094E+08         0.21386E+04         0.00000E+00
    0.21386E+04        -0.59970E+08         0.00000E+00
    0.00000E+00         0.00000E+00        -0.30102E+08
 
   -0.30090E+08         0.22257E+04         0.00000E+00
    0.22257E+04        -0.59966E+08         0.00000E+00
    0.00000E+00         0.00000E+00        -0.30101E+08
 
   -0.30088E+08         0.23043E+04         0.00000E+00
    0.23043E+04        -0.59962E+08         0.00000E+00
    0.00000E+00         0.00000E+00        -0.30097E+08
 
   -0.30087E+08         0.23764E+04         0.00000E+00
    0.23764E+04        -0.59957E+08         0.00000E+00
    0.00000E+00         0.00000E+00        -0.30091E+08
 
   -0.30273E+08         0.45802E+03         0.00000E+00
    0.45802E+03        -0.60000E+08         0.00000E+00
    0.00000E+00         0.00000E+00        -0.29964E+08
 
   -0.30246E+08         0.13135E+04         0.00000E+00
    0.13135E+04        -0.59999E+08         0.00000E+00
    0.00000E+00         0.00000E+00        -0.29989E+08
 
   -0.30222E+08         0.20943E+04         0.00000E+00
    0.20943E+04        -0.59998E+08         0.00000E+00
    0.00000E+00         0.00000E+00        -0.30012E+08
 
   -0.30199E+08         0.28044E+04         0.00000E+00
    0.28044E+04        -0.59996E+08         0.00000E+00
    0.00000E+00         0.00000E+00        -0.30032E+08
 
   -0.30179E+08         0.34476E+04         0.00000E+00
    0.34476E+04        -0.59994E+08         0.00000E+00
    0.00000E+00         0.00000E+00        -0.30049E+08
 
   -0.30161E+08         0.40278E+04         0.00000E+00
    0.40278E+04        -0.59992E+08         0.00000E+00
    0.00000E+00         0.00000E+00        -0.30064E+08
 
   -0.30144E+08         0.45496E+04         0.00000E+00
    0.45496E+04        -0.59989E+08         0.00000E+00
    0.00000E+00         0.00000E+00        -0.30076E+08
 
   -0.30130E+08         0.50162E+04         0.00000E+00
    0.50162E+04        -0.59986E+08         0.00000E+00
    0.00000E+00         0.00000E+00        -0.30086E+08
 
   -0.30118E+08         0.54315E+04         0.00000E+00
    0.54315E+04        -0.59982E+08         0.00000E+00
    0.00000E+00         0.00000E+00        -0.30094E+08
 
   -0.30108E+08         0.57999E+04         0.00000E+00
    0.57999E+04        -0.59978E+08         0.00000E+00
    0.00000E+00         0.00000E+00        -0.30099E+08
 
   -0.30100E+08         0.61261E+04         0.00000E+00
    0.61261E+04        -0.59974E+08         0.00000E+00
    0.00000E+00         0.00000E+00        -0.30102E+08
 
   -0.30094E+08         0.64149E+04         0.00000E+00
    0.64149E+04        -0.59970E+08         0.00000E+00
    0.00000E+00         0.00000E+00        -0.30102E+08
 
   -0.30090E+08         0.66718E+04         0.00000E+00
    0.66718E+04        -0.59966E+08         0.00000E+00
    0.00000E+00         0.00000E+00        -0.30101E+08
 
   -0.30087E+08         0.69030E+04         0.00000E+00
    0.69030E+04        -0.59961E+08         0.00000E+00
    0.00000E+00         0.00000E+00        -0.30097E+08
 
   -0.30087E+08         0.71151E+04         0.00000E+00
    0.71151E+04        -0.59957E+08         0.00000E+00
    0.00000E+00         0.00000E+00        -0.30091E+08
 
   -0.30271E+08         0.77625E+03         0.00000E+00
    0.77625E+03        -0.60000E+08         0.00000E+00
    0.00000E+00         0.00000E+00        -0.29965E+08
 
   -0.30245E+08         0.22225E+04         0.00000E+00
    0.22225E+04        -0.59999E+08         0.00000E+00
    0.00000E+00         0.00000E+00        -0.29990E+08
 
   -0.30221E+08         0.35384E+04         0.00000E+00
    0.35384E+04        -0.59998E+08         0.00000E+00
    0.00000E+00         0.00000E+00        -0.30013E+08
 
   -0.30198E+08         0.47308E+04         0.00000E+00
    0.47308E+04        -0.59996E+08         0.00000E+00
    0.00000E+00         0.00000E+00        -0.30032E+08
 
   -0.30178E+08         0.58067E+04         0.00000E+00
    0.58067E+04        -0.59994E+08         0.00000E+00
    0.00000E+00         0.00000E+00        -0.30050E+08
 
   -0.30160E+08         0.67730E+04         0.00000E+00
    0.67730E+04        -0.59991E+08         0.00000E+00
    0.00000E+00         0.00000E+00        -0.30064E+08
 
   -0.30144E+08         0.76378E+04         0.00000E+00
    0.76378E+04        -0.59988E+08         0.00000E+00
    0.00000E+00         0.00000E+00        -0.30076E+08
 
   -0.30130E+08         0.84078E+04         0.00000E+00
    0.84078E+04        -0.59985E+08         0.00000E+00
    0.00000E+00         0.00000E+00        -0.30086E+08
 
   -0.30118E+08         0.90897E+04         0.00000E+00
    0.90897E+04        -0.59982E+08         0.00000E+00
    0.00000E+00         0.00000E+00        -0.30093E+08
 
   -0.30108E+08         0.96913E+04         0.00000E+00
    0.96913E+04        -0.59978E+08         0.00000E+00
    0.00000E+00         0.00000E+00        -0.30098E+08
 
   -0.30100E+08         0.10221E+05         0.00000E+00
    0.10221E+05        -0.59974E+08         0.00000E+00
    0.00000E+00         0.00000E+00        -0.30101E+08
 
   -0.30093E+08         0.10688E+05         0.00000E+00
    0.10688E+05        -0.59970E+08         0.00000E+00
    0.00000E+00         0.00000E+00        -0.30102E+08
 
   -0.30089E+08         0.11101E+05         0.00000E+00
    0.11101E+05        -0.59965E+08         0.00000E+00
    0.00000E+00         0.00000E+00        -0.30100E+08
 
   -0.30087E+08         0.11472E+05         0.00000E+00
    0.11472E+05        -0.59961E+08         0.00000E+00
    0.00000E+00         0.00000E+00        -0.30097E+08
 
   -0.30087E+08         0.11811E+05         0.00000E+00
    0.11811E+05        -0.59956E+08         0.00000E+00
    0.00000E+00         0.00000E+00        -0.30091E+08
 
   -0.30270E+08         0.11136E+04         0.00000E+00
    0.11136E+04        -0.60000E+08         0.00000E+00
    0.00000E+00         0.00000E+00        -0.29967E+08
 
   -0.30243E+08         0.31811E+04         0.00000E+00
    0.31811E+04        -0.59999E+08         0.00000E+00
    0.00000E+00         0.00000E+00        -0.29992E+08
 
   -0.30219E+08         0.50535E+04         0.00000E+00
    0.50535E+04        -0.59998E+08         0.00000E+00
    0.00000E+00         0.00000E+00        -0.30014E+08
 
   -0.30197E+08         0.67414E+04         0.00000E+00
    0.67414E+04        -0.59996E+08         0.00000E+00
    0.00000E+00         0.00000E+00        -0.30033E+08
 
   -0.30177E+08         0.82554E+04         0.00000E+00
    0.82554E+04        -0.59994E+08         0.00000E+00
    0.00000E+00         0.00000E+00        -0.30050E+08
 
   -0.30159E+08         0.96065E+04         0.00000E+00
    0.96065E+04        -0.59991E+08         0.00000E+00
    0.00000E+00         0.00000E+00        -0.30065E+08
 
   -0.30143E+08         0.10807E+05         0.00000E+00
    0.10807E+05        -0.59988E+08         0.00000E+00
    0.00000E+00         0.00000E+00        -0.30077E+08
 
   -0.30129E+08         0.11869E+05         0.00000E+00
    0.11869E+05        -0.59984E+08         0.00000E+00
    0.00000E+00         0.00000E+00        -0.30086E+08
 
   -0.30117E+08         0.12802E+05         0.00000E+00
    0.12802E+05        -0.59981E+08         0.00000E+00
    0.00000E+00         0.00000E+00        -0.30093E+08
 
   -0.30107E+08         0.13618E+05         0.00000E+00
    0.13618E+05        -0.59977E+08         0.00000E+00
    0.00000E+00         0.00000E+00        -0.30098E+08
 
   -0.30099E+08         0.14331E+05         0.00000E+00
    0.14331E+05        -0.59973E+08         0.00000E+00
    0.00000E+00         0.00000E+00        -0.30101E+08
 
   -0.30093E+08         0.14954E+05         0.00000E+00
    0.14954E+05        -0.59969E+08         0.00000E+00
    0.00000E+00         0.00000E+00        -0.30101E+08
 
   -0.30089E+08         0.15501E+05         0.00000E+00
    0.15501E+05        -0.59965E+08         0.00000E+00
    0.00000E+00         0.00000E+00        -0.30100E+08
 
   -0.30087E+08         0.15988E+05         0.00000E+00
    0.15988E+05        -0.59960E+08         0.00000E+00
    0.00000E+00         0.00000E+00        -0.30096E+08
 
   -0.30087E+08         0.16432E+05         0.00000E+00
    0.16432E+05        -0.59956E+08         0.00000E+00
    0.00000E+00         0.00000E+00        -0.30090E+08
 
   -0.30267E+08         0.14774E+04         0.00000E+00
    0.14774E+04        -0.60000E+08         0.00000E+00
    0.00000E+00         0.00000E+00        -0.29969E+08
 
   -0.30241E+08         0.42080E+04         0.00000E+00
    0.42080E+04        -0.59999E+08         0.00000E+00
    0.00000E+00         0.00000E+00        -0.29994E+08
 
   -0.30217E+08         0.66663E+04         0.00000E+00
    0.66663E+04        -0.59998E+08         0.00000E+00
    0.00000E+00         0.00000E+00        -0.30016E+08
 
   -0.30195E+08         0.88673E+04         0.00000E+00
    0.88673E+04        -0.59996E+08         0.00000E+00
    0.00000E+00         0.00000E+00        -0.30035E+08
 
   -0.30175E+08         0.10827E+05         0.00000E+00
    0.10827E+05        -0.59993E+08         0.00000E+00
    0.00000E+00         0.00000E+00        -0.30051E+08
 
   -0.30157E+08         0.12561E+05         0.00000E+00
    0.12561E+05        -0.59990E+08         0.00000E+00
    0.00000E+00         0.00000E+00        -0.30065E+08
 
   -0.30142E+08         0.14087E+05         0.00000E+00
    0.14087E+05        -0.59987E+08         0.00000E+00
    0.00000E+00         0.00000E+00        -0.30077E+08
 
   -0.30128E+08         0.15423E+05         0.00000E+00
    0.15423E+05        -0.59984E+08         0.00000E+00
    0.00000E+00         0.00000E+00        -0.30086E+08
 
   -0.30116E+08         0.16585E+05         0.00000E+00
    0.16585E+05        -0.59980E+08         0.00000E+00
    0.00000E+00         0.00000E+00        -0.30093E+08
 
   -0.30106E+08         0.17590E+05         0.00000E+00
    0.17590E+05        -0.59976E+08         0.00000E+00
    0.00000E+00         0.00000E+00        -0.30098E+08
 
   -0.30098E+08         0.18458E+05         0.00000E+00
    0.18458E+05        -0.59972E+08         0.00000E+00
    0.00000E+00         0.00000E+00        -0.30100E+08
 
   -0.30092E+08         0.19206E+05         0.00000E+00
    0.19206E+05        -0.59968E+08         0.00000E+00
    0.00000E+00         0.00000E+00        -0.30101E+08
 
   -0.30088E+08         0.19856E+05         0.00000E+00
    0.19856E+05        -0.59964E+08         0.00000E+00
    0.00000E+00         0.00000E+00        -0.30099E+08
 
   -0.30086E+08         0.20428E+05         0.00000E+00
    0.20428E+05        -0.59959E+08         0.00000E+00
    0.00000E+00         0.00000E+00        -0.30095E+08
 
   -0.30086E+08         0.20946E+05         0.00000E+00
    0.20946E+05        -0.59955E+08         0.00000E+00
    0.00000E+00         0.00000E+00        -0.30090E+08
 
   -0.30264E+08         0.18744E+04         0.00000E+00
    0.18744E+04        -0.60000E+08         0.00000E+00
    0.00000E+00         0.00000E+00        -0.29973E+08
 
   -0.30238E+08         0.53205E+04         0.00000E+00
    0.53205E+04        -0.59999E+08         0.00000E+00
    0.00000E+00         0.00000E+00        -0.29997E+08
 
   -0.30215E+08         0.84012E+04         0.00000E+00
    0.84012E+04        -0.59997E+08         0.00000E+00
    0.00000E+00         0.00000E+00        -0.30018E+08
 
   -0.30193E+08         0.11137E+05         0.00000E+00
    0.11137E+05        -0.59995E+08         0.00000E+00
    0.00000E+00         0.00000E+00        -0.30037E+08
 
   -0.30173E+08         0.13551E+05         0.00000E+00
    0.13551E+05        -0.59993E+08         0.00000E+00
    0.00000E+00         0.00000E+00        -0.30053E+08
 
   -0.30156E+08         0.15664E+05         0.00000E+00
    0.15664E+05        -0.59990E+08         0.00000E+00
    0.00000E+00         0.00000E+00        -0.30066E+08
 
   -0.30140E+08         0.17503E+05         0.00000E+00
    0.17503E+05        -0.59986E+08         0.00000E+00
    0.00000E+00         0.00000E+00        -0.30077E+08
 
   -0.30126E+08         0.19092E+05         0.00000E+00
    0.19092E+05        -0.59983E+08         0.00000E+00
    0.00000E+00         0.00000E+00        -0.30086E+08
 
   -0.30115E+08         0.20455E+05         0.00000E+00
    0.20455E+05        -0.59979E+08         0.00000E+00
    0.00000E+00         0.00000E+00        -0.30093E+08
 
   -0.30105E+08         0.21616E+05         0.00000E+00
    0.21616E+05        -0.59975E+08         0.00000E+00
    0.00000E+00         0.00000E+00        -0.30097E+08
 
   -0.30097E+08         0.22601E+05         0.00000E+00
    0.22601E+05        -0.59971E+08         0.00000E+00
    0.00000E+00         0.00000E+00        -0.30100E+08
 
   -0.30092E+08         0.23435E+05         0.00000E+00
    0.23435E+05        -0.59967E+08         0.00000E+00
    0.00000E+00         0.00000E+00        -0.30100E+08
 
   -0.30088E+08         0.24147E+05         0.00000E+00
    0.24147E+05        -0.59962E+08         0.00000E+00
    0.00000E+00         0.00000E+00        -0.30098E+08
 
   -0.30086E+08         0.24763E+05         0.00000E+00
    0.24763E+05        -0.59958E+08         0.00000E+00
    0.00000E+00         0.00000E+00        -0.30095E+08
 
   -0.30086E+08         0.25316E+05         0.00000E+00
    0.25316E+05        -0.59954E+08         0.00000E+00
    0.00000E+00         0.00000E+00        -0.30089E+08
 
   -0.30260E+08         0.23106E+04         0.00000E+00
    0.23106E+04        -0.60000E+08         0.00000E+00
    0.00000E+00         0.00000E+00        -0.29977E+08
 
   -0.30235E+08         0.65341E+04         0.00000E+00
    0.65341E+04        -0.59999E+08         0.00000E+00
    0.00000E+00         0.00000E+00        -0.30000E+08
 
   -0.30211E+08         0.10280E+05         0.00000E+00
    0.10280E+05        -0.59997E+08         0.00000E+00
    0.00000E+00         0.00000E+00        -0.30021E+08
 
   -0.30190E+08         0.13576E+05         0.00000E+00
    0.13576E+05        -0.59995E+08         0.00000E+00
    0.00000E+00         0.00000E+00        -0.30039E+08
 
   -0.30171E+08         0.16453E+05         0.00000E+00
    0.16453E+05        -0.59992E+08         0.00000E+00
    0.00000E+00         0.00000E+00        -0.30054E+08
 
   -0.30153E+08         0.18943E+05         0.00000E+00
    0.18943E+05        -0.59989E+08         0.00000E+00
    0.00000E+00         0.00000E+00        -0.30067E+08
 
   -0.30138E+08         0.21077E+05         0.00000E+00
    0.21077E+05        -0.59985E+08         0.00000E+00
    0.00000E+00         0.00000E+00        -0.30078E+08
 
   -0.30125E+08         0.22893E+05         0.00000E+00
    0.22893E+05        -0.59982E+08         0.00000E+00
    0.00000E+00         0.00000E+00        -0.30086E+08
 
   -0.30113E+08         0.24422E+05         0.00000E+00
    0.24422E+05        -0.59978E+08         0.00000E+00
    0.00000E+00         0.00000E+00        -0.30093E+08
 
   -0.30104E+08         0.25697E+05         0.00000E+00
    0.25697E+05        -0.59974E+08         0.00000E+00
    0.00000E+00         0.00000E+00        -0.30097E+08
 
   -0.30096E+08         0.26754E+05         0.00000E+00
    0.26754E+05        -0.59970E+08         0.00000E+00
    0.00000E+00         0.00000E+00        -0.30099E+08
 
   -0.30091E+08         0.27626E+05         0.00000E+00
    0.27626E+05        -0.59965E+08         0.00000E+00
    0.00000E+00         0.00000E+00        -0.30099E+08
 
   -0.30087E+08         0.28349E+05         0.00000E+00
    0.28349E+05        -0.59961E+08         0.00000E+00
    0.00000E+00         0.00000E+00        -0.30097E+08
 
   -0.30085E+08         0.28960E+05         0.00000E+00
    0.28960E+05        -0.59957E+08         0.00000E+00
    0.00000E+00         0.00000E+00        -0.30094E+08
 
   -0.30085E+08         0.29497E+05         0.00000E+00
    0.29497E+05        -0.59953E+08         0.00000E+00
    0.00000E+00         0.00000E+00        -0.30089E+08
 
   -0.30255E+08         0.27912E+04         0.00000E+00
    0.27912E+04        -0.60000E+08         0.00000E+00
    0.00000E+00         0.00000E+00        -0.29981E+08
 
   -0.30230E+08         0.78618E+04         0.00000E+00
    0.78618E+04        -0.59999E+08         0.00000E+00
    0.00000E+00         0.00000E+00        -0.30004E+08
 
   -0.30207E+08         0.12321E+05         0.00000E+00
    0.12321E+05        -0.59997E+08         0.00000E+00
    0.00000E+00         0.00000E+00        -0.30024E+08
 
   -0.30187E+08         0.16206E+05         0.00000E+00
    0.16206E+05        -0.59994E+08         0.00000E+00
    0.00000E+00         0.00000E+00        -0.30042E+08
 
   -0.30168E+08         0.19556E+05         0.00000E+00
    0.19556E+05        -0.59991E+08         0.00000E+00
    0.00000E+00         0.00000E+00        -0.30056E+08
 
   -0.30151E+08         0.22415E+05         0.00000E+00
    0.22415E+05        -0.59988E+08         0.00000E+00
    0.00000E+00         0.00000E+00        -0.30069E+08
 
   -0.30136E+08         0.24825E+05         0.00000E+00
    0.24825E+05        -0.59984E+08         0.00000E+00
    0.00000E+00         0.00000E+00        -0.30079E+08
 
   -0.30123E+08         0.26836E+05         0.00000E+00
    0.26836E+05        -0.59980E+08         0.00000E+00
    0.00000E+00         0.00000E+00        -0.30087E+08
 
   -0.30112E+08         0.28490E+05         0.00000E+00
    0.28490E+05        -0.59976E+08         0.00000E+00
    0.00000E+00         0.00000E+00        -0.30092E+08
 
   -0.30103E+08         0.29832E+05         0.00000E+00
    0.29832E+05        -0.59972E+08         0.00000E+00
    0.00000E+00         0.00000E+00        -0.30096E+08
 
   -0.30095E+08         0.30907E+05         0.00000E+00
    0.30907E+05        -0.59968E+08         0.00000E+00
    0.00000E+00         0.00000E+00        -0.30098E+08
 
   -0.30090E+08         0.31759E+05         0.00000E+00
    0.31759E+05        -0.59964E+08         0.00000E+00
    0.00000E+00         0.00000E+00        -0.30098E+08
 
   -0.30086E+08         0.32434E+05         0.00000E+00
    0.32434E+05        -0.59960E+08         0.00000E+00
    0.00000E+00         0.00000E+00        -0.30096E+08
 
   -0.30085E+08         0.32978E+05         0.00000E+00
    0.32978E+05        -0.59956E+08         0.00000E+00
    0.00000E+00         0.00000E+00        -0.30093E+08
 
   -0.30085E+08         0.33442E+05         0.00000E+00
    0.33442E+05        -0.59952E+08         0.00000E+00
    0.00000E+00         0.00000E+00        -0.30088E+08
 
   -0.30249E+08         0.33201E+04         0.00000E+00
    0.33201E+04        -0.60000E+08         0.00000E+00
    0.00000E+00         0.00000E+00        -0.29987E+08
 
   -0.30225E+08         0.93131E+04         0.00000E+00
    0.93131E+04        -0.59999E+08         0.00000E+00
    0.00000E+00         0.00000E+00        -0.30009E+08
 
   -0.30203E+08         0.14537E+05         0.00000E+00
    0.14537E+05        -0.59997E+08         0.00000E+00
    0.00000E+00         0.00000E+00        -0.30029E+08
 
   -0.30183E+08         0.19040E+05         0.00000E+00
    0.19040E+05        -0.59994E+08         0.00000E+00
    0.00000E+00         0.00000E+00        -0.30045E+08
 
   -0.30165E+08         0.22873E+05         0.00000E+00
    0.22873E+05        -0.59991E+08         0.00000E+00
    0.00000E+00         0.00000E+00        -0.30059E+08
 
   -0.30148E+08         0.26093E+05         0.00000E+00
    0.26093E+05        -0.59987E+08         0.00000E+00
    0.00000E+00         0.00000E+00        -0.30070E+08
 
   -0.30134E+08         0.28758E+05         0.00000E+00
    0.28758E+05        -0.59983E+08         0.00000E+00
    0.00000E+00         0.00000E+00        -0.30080E+08
 
   -0.30121E+08         0.30927E+05         0.00000E+00
    0.30927E+05        -0.59979E+08         0.00000E+00
    0.00000E+00         0.00000E+00        -0.30087E+08
 
   -0.30110E+08         0.32659E+05         0.00000E+00
    0.32659E+05        -0.59975E+08         0.00000E+00
    0.00000E+00         0.00000E+00        -0.30092E+08
 
   -0.30102E+08         0.34013E+05         0.00000E+00
    0.34013E+05        -0.59971E+08         0.00000E+00
    0.00000E+00         0.00000E+00        -0.30095E+08
 
   -0.30094E+08         0.35044E+05         0.00000E+00
    0.35044E+05        -0.59967E+08         0.00000E+00
    0.00000E+00         0.00000E+00        -0.30097E+08
 
   -0.30089E+08         0.35809E+05         0.00000E+00
    0.35809E+05        -0.59963E+08         0.00000E+00
    0.00000E+00         0.00000E+00        -0.30097E+08
 
   -0.30086E+08         0.36365E+05         0.00000E+00
    0.36365E+05        -0.59959E+08         0.00000E+00
    0.00000E+00         0.00000E+00        -0.30095E+08
 
   -0.30084E+08         0.36772E+05         0.00000E+00
    0.36772E+05        -0.59955E+08         0.00000E+00
    0.00000E+00         0.00000E+00        -0.30092E+08
 
   -0.30084E+08         0.37094E+05         0.00000E+00
    0.37094E+05        -0.59951E+08         0.00000E+00
    0.00000E+00         0.00000E+00        -0.30087E+08
 
   -0.30242E+08         0.38993E+04         0.00000E+00
    0.38993E+04        -0.60000E+08         0.00000E+00
    0.00000E+00         0.00000E+00        -0.29994E+08
 
   -0.30219E+08         0.10893E+05         0.00000E+00
    0.10893E+05        -0.59998E+08         0.00000E+00
    0.00000E+00         0.00000E+00        -0.30015E+08
 
   -0.30198E+08         0.16935E+05         0.00000E+00
    0.16935E+05        -0.59996E+08         0.00000E+00
    0.00000E+00         0.00000E+00        -0.30033E+08
 
   -0.30178E+08         0.22086E+05         0.00000E+00
    0.22086E+05        -0.59993E+08         0.00000E+00
    0.00000E+00         0.00000E+00        -0.30049E+08
 
   -0.30161E+08         0.26412E+05         0.00000E+00
    0.26412E+05        -0.59990E+08         0.00000E+00
    0.00000E+00         0.00000E+00        -0.30062E+08
 
   -0.30145E+08         0.29985E+05         0.00000E+00
    0.29985E+05        -0.59986E+08         0.00000E+00
    0.00000E+00         0.00000E+00        -0.30072E+08
 
   -0.30131E+08         0.32877E+05         0.00000E+00
    0.32877E+05        -0.59982E+08         0.00000E+00
    0.00000E+00         0.00000E+00        -0.30081E+08
 
   -0.30119E+08         0.35164E+05         0.00000E+00
    0.35164E+05        -0.59978E+08         0.00000E+00
    0.00000E+00         0.00000E+00        -0.30087E+08
 
   -0.30109E+08         0.36923E+05         0.00000E+00
    0.36923E+05        -0.59974E+08         0.00000E+00
    0.00000E+00         0.00000E+00        -0.30092E+08
 
   -0.30100E+08         0.38224E+05         0.00000E+00
    0.38224E+05        -0.59969E+08         0.00000E+00
    0.00000E+00         0.00000E+00        -0.30095E+08
 
   -0.30094E+08         0.39140E+05         0.00000E+00
    0.39140E+05        -0.59965E+08         0.00000E+00
    0.00000E+00         0.00000E+00        -0.30096E+08
 
   -0.30089E+08         0.39741E+05         0.00000E+00
    0.39741E+05        -0.59961E+08         0.00000E+00
    0.00000E+00         0.00000E+00        -0.30096E+08
 
   -0.30085E+08         0.40098E+05         0.00000E+00
    0.40098E+05        -0.59958E+08         0.00000E+00
    0.00000E+00         0.00000E+00        -0.30094E+08
 
   -0.30084E+08         0.40287E+05         0.00000E+00
    0.40287E+05        -0.59954E+08         0.00000E+00
    0.00000E+00         0.00000E+00        -0.30091E+08
 
   -0.30084E+08         0.40387E+05         0.00000E+00
    0.40387E+05        -0.59951E+08         0.00000E+00
    0.00000E+00         0.00000E+00        -0.30087E+08
 
   -0.30234E+08         0.45286E+04         0.00000E+00
    0.45286E+04        -0.60000E+08         0.00000E+00
    0.00000E+00         0.00000E+00        -0.30002E+08
 
   -0.30212E+08         0.12601E+05         0.00000E+00
    0.12601E+05        -0.59998E+08         0.00000E+00
    0.00000E+00         0.00000E+00        -0.30022E+08
 
   -0.30192E+08         0.19515E+05         0.00000E+00
    0.19515E+05        -0.59996E+08         0.00000E+00
    0.00000E+00         0.00000E+00        -0.30039E+08
 
   -0.30173E+08         0.25344E+05         0.00000E+00
    0.25344E+05        -0.59993E+08         0.00000E+00
    0.00000E+00         0.00000E+00        -0.30053E+08
 
   -0.30157E+08         0.30172E+05         0.00000E+00
    0.30172E+05        -0.59989E+08         0.00000E+00
    0.00000E+00         0.00000E+00        -0.30065E+08
 
   -0.30142E+08         0.34086E+05         0.00000E+00
    0.34086E+05        -0.59985E+08         0.00000E+00
    0.00000E+00         0.00000E+00        -0.30075E+08
 
   -0.30129E+08         0.37178E+05         0.00000E+00
    0.37178E+05        -0.59981E+08         0.00000E+00
    0.00000E+00         0.00000E+00        -0.30082E+08
 
   -0.30117E+08         0.39539E+05         0.00000E+00
    0.39539E+05        -0.59977E+08         0.00000E+00
    0.00000E+00         0.00000E+00        -0.30088E+08
 
   -0.30107E+08         0.41265E+05         0.00000E+00
    0.41265E+05        -0.59972E+08         0.00000E+00
    0.00000E+00         0.00000E+00        -0.30092E+08
 
   -0.30099E+08         0.42444E+05         0.00000E+00
    0.42444E+05        -0.59968E+08         0.00000E+00
    0.00000E+00         0.00000E+00        -0.30094E+08
 
   -0.30093E+08         0.43164E+05         0.00000E+00
    0.43164E+05        -0.59964E+08         0.00000E+00
    0.00000E+00         0.00000E+00        -0.30095E+08
 
   -0.30088E+08         0.43513E+05         0.00000E+00
    0.43513E+05        -0.59960E+08         0.00000E+00
    0.00000E+00         0.00000E+00        -0.30095E+08
 
   -0.30085E+08         0.43581E+05         0.00000E+00
    0.43581E+05        -0.59957E+08         0.00000E+00
    0.00000E+00         0.00000E+00        -0.30093E+08
 
   -0.30084E+08         0.43460E+05         0.00000E+00
    0.43460E+05        -0.59953E+08         0.00000E+00
    0.00000E+00         0.00000E+00        -0.30090E+08
 
   -0.30084E+08         0.43247E+05         0.00000E+00
    0.43247E+05        -0.59951E+08         0.00000E+00
    0.00000E+00         0.00000E+00        -0.30087E+08
 
   -0.30225E+08         0.52054E+04         0.00000E+00
    0.52054E+04        -0.59999E+08         0.00000E+00
    0.00000E+00         0.00000E+00        -0.30011E+08
 
   -0.30204E+08         0.14431E+05         0.00000E+00
    0.14431E+05        -0.59998E+08         0.00000E+00
    0.00000E+00         0.00000E+00        -0.30030E+08
 
   -0.30185E+08         0.22267E+05         0.00000E+00
    0.22267E+05        -0.59996E+08         0.00000E+00
    0.00000E+00         0.00000E+00        -0.30045E+08
 
   -0.30168E+08         0.28804E+05         0.00000E+00
    0.28804E+05        -0.59993E+08         0.00000E+00
    0.00000E+00         0.00000E+00        -0.30058E+08
 
   -0.30152E+08         0.34141E+05         0.00000E+00
    0.34141E+05        -0.59989E+08         0.00000E+00
    0.00000E+00         0.00000E+00        -0.30069E+08
 
   -0.30138E+08         0.38385E+05         0.00000E+00
    0.38385E+05        -0.59985E+08         0.00000E+00
    0.00000E+00         0.00000E+00        -0.30077E+08
 
   -0.30126E+08         0.41645E+05         0.00000E+00
    0.41645E+05        -0.59980E+08         0.00000E+00
    0.00000E+00         0.00000E+00        -0.30084E+08
 
   -0.30115E+08         0.44034E+05         0.00000E+00
    0.44034E+05        -0.59976E+08         0.00000E+00
    0.00000E+00         0.00000E+00        -0.30088E+08
 
   -0.30106E+08         0.45662E+05         0.00000E+00
    0.45662E+05        -0.59971E+08         0.00000E+00
    0.00000E+00         0.00000E+00        -0.30091E+08
 
   -0.30099E+08         0.46640E+05         0.00000E+00
    0.46640E+05        -0.59967E+08         0.00000E+00
    0.00000E+00         0.00000E+00        -0.30093E+08
 
   -0.30093E+08         0.47076E+05         0.00000E+00
    0.47076E+05        -0.59963E+08         0.00000E+00
    0.00000E+00         0.00000E+00        -0.30094E+08
 
   -0.30088E+08         0.47076E+05         0.00000E+00
    0.47076E+05        -0.59959E+08         0.00000E+00
    0.00000E+00         0.00000E+00        -0.30093E+08
 
   -0.30086E+08         0.46752E+05         0.00000E+00
    0.46752E+05        -0.59956E+08         0.00000E+00
    0.00000E+00         0.00000E+00        -0.30092E+08
 
   -0.30084E+08         0.46217E+05         0.00000E+00
    0.46217E+05        -0.59953E+08         0.00000E+00
    0.00000E+00         0.00000E+00        -0.30090E+08
 
   -0.30084E+08         0.45591E+05         0.00000E+00
    0.45591E+05        -0.59951E+08         0.00000E+00
    0.00000E+00         0.00000E+00        -0.30087E+08
 
   -0.30214E+08         0.59236E+04         0.00000E+00
    0.59236E+04        -0.59999E+08         0.00000E+00
    0.00000E+00         0.00000E+00        -0.30021E+08
 
   -0.30195E+08         0.16367E+05         0.00000E+00
    0.16367E+05        -0.59998E+08         0.00000E+00
    0.00000E+00         0.00000E+00        -0.30038E+08
 
   -0.30177E+08         0.25173E+05         0.00000E+00
    0.25173E+05        -0.59996E+08         0.00000E+00
    0.00000E+00         0.00000E+00        -0.30053E+08
 
   -0.30161E+08         0.32444E+05         0.00000E+00
    0.32444E+05        -0.59992E+08         0.00000E+00
    0.00000E+00         0.00000E+00        -0.30064E+08
 
   -0.30147E+08         0.38298E+05         0.00000E+00
    0.38298E+05        -0.59988E+08         0.00000E+00
    0.00000E+00         0.00000E+00        -0.30073E+08
 
   -0.30134E+08         0.42859E+05         0.00000E+00
    0.42859E+05        -0.59984E+08         0.00000E+00
    0.00000E+00         0.00000E+00        -0.30080E+08
 
   -0.30123E+08         0.46256E+05         0.00000E+00
    0.46256E+05        -0.59979E+08         0.00000E+00
    0.00000E+00         0.00000E+00        -0.30085E+08
 
   -0.30113E+08         0.48619E+05         0.00000E+00
    0.48619E+05        -0.59975E+08         0.00000E+00
    0.00000E+00         0.00000E+00        -0.30089E+08
 
   -0.30105E+08         0.50080E+05         0.00000E+00
    0.50080E+05        -0.59970E+08         0.00000E+00
    0.00000E+00         0.00000E+00        -0.30091E+08
 
   -0.30098E+08         0.50772E+05         0.00000E+00
    0.50772E+05        -0.59966E+08         0.00000E+00
    0.00000E+00         0.00000E+00        -0.30093E+08
 
   -0.30093E+08         0.50822E+05         0.00000E+00
    0.50822E+05        -0.59962E+08         0.00000E+00
    0.00000E+00         0.00000E+00        -0.30093E+08
 
   -0.30089E+08         0.50365E+05         0.00000E+00
    0.50365E+05        -0.59959E+08         0.00000E+00
    0.00000E+00         0.00000E+00        -0.30092E+08
 
   -0.30086E+08         0.49536E+05         0.00000E+00
    0.49536E+05        -0.59956E+08         0.00000E+00
    0.00000E+00         0.00000E+00        -0.30091E+08
 
   -0.30085E+08         0.48474E+05         0.00000E+00
    0.48474E+05        -0.59954E+08         0.00000E+00
    0.00000E+00         0.00000E+00        -0.30089E+08
 
   -0.30085E+08         0.47325E+05         0.00000E+00
    0.47325E+05        -0.59952E+08         0.00000E+00
    0.00000E+00         0.00000E+00        -0.30087E+08
 
   -0.30202E+08         0.66738E+04         0.00000E+00
    0.66738E+04        -0.59999E+08         0.00000E+00
    0.00000E+00         0.00000E+00        -0.30033E+08
 
   -0.30185E+08         0.18387E+05         0.00000E+00
    0.18387E+05        -0.59998E+08         0.00000E+00
    0.00000E+00         0.00000E+00        -0.30048E+08
 
   -0.30169E+08         0.28200E+05         0.00000E+00
    0.28200E+05        -0.59995E+08         0.00000E+00
    0.00000E+00         0.00000E+00        -0.30061E+08
 
   -0.30155E+08         0.36231E+05         0.00000E+00
    0.36231E+05        -0.59992E+08         0.00000E+00
    0.00000E+00         0.00000E+00        -0.30070E+08
 
   -0.30142E+08         0.42609E+05         0.00000E+00
    0.42609E+05        -0.59988E+08         0.00000E+00
    0.00000E+00         0.00000E+00        -0.30078E+08
 
   -0.30130E+08         0.47474E+05         0.00000E+00
    0.47474E+05        -0.59983E+08         0.00000E+00
    0.00000E+00         0.00000E+00        -0.30083E+08
 
   -0.30120E+08         0.50972E+05         0.00000E+00
    0.50972E+05        -0.59979E+08         0.00000E+00
    0.00000E+00         0.00000E+00        -0.30087E+08
 
   -0.30111E+08         0.53254E+05         0.00000E+00
    0.53254E+05        -0.59974E+08         0.00000E+00
    0.00000E+00         0.00000E+00        -0.30090E+08
 
   -0.30104E+08         0.54472E+05         0.00000E+00
    0.54472E+05        -0.59969E+08         0.00000E+00
    0.00000E+00         0.00000E+00        -0.30091E+08
 
   -0.30098E+08         0.54781E+05         0.00000E+00
    0.54781E+05        -0.59965E+08         0.00000E+00
    0.00000E+00         0.00000E+00        -0.30092E+08
 
   -0.30093E+08         0.54339E+05         0.00000E+00
    0.54339E+05        -0.59962E+08         0.00000E+00
    0.00000E+00         0.00000E+00        -0.30092E+08
 
   -0.30090E+08         0.53306E+05         0.00000E+00
    0.53306E+05        -0.59959E+08         0.00000E+00
    0.00000E+00         0.00000E+00        -0.30091E+08
 
   -0.30087E+08         0.51849E+05         0.00000E+00
    0.51849E+05        -0.59956E+08         0.00000E+00
    0.00000E+00         0.00000E+00        -0.30091E+08
 
   -0.30086E+08         0.50140E+05         0.00000E+00
    0.50140E+05        -0.59955E+08         0.00000E+00
    0.00000E+00         0.00000E+00        -0.30089E+08
 
   -0.30087E+08         0.48350E+05         0.00000E+00
    0.48350E+05        -0.59954E+08         0.00000E+00
    0.00000E+00         0.00000E+00        -0.30088E+08
 
   -0.30189E+08         0.74434E+04         0.00000E+00
    0.74434E+04        -0.59999E+08         0.00000E+00
    0.00000E+00         0.00000E+00        -0.30046E+08
 
   -0.30173E+08         0.20460E+05         0.00000E+00
    0.20460E+05        -0.59998E+08         0.00000E+00
    0.00000E+00         0.00000E+00        -0.30060E+08
 
   -0.30160E+08         0.31309E+05         0.00000E+00
    0.31309E+05        -0.59995E+08         0.00000E+00
    0.00000E+00         0.00000E+00        -0.30070E+08
 
   -0.30147E+08         0.40118E+05         0.00000E+00
    0.40118E+05        -0.59992E+08         0.00000E+00
    0.00000E+00         0.00000E+00        -0.30078E+08
 
   -0.30136E+08         0.47025E+05         0.00000E+00
    0.47025E+05        -0.59988E+08         0.00000E+00
    0.00000E+00         0.00000E+00        -0.30083E+08
 
   -0.30126E+08         0.52181E+05         0.00000E+00
    0.52181E+05        -0.59983E+08         0.00000E+00
    0.00000E+00         0.00000E+00        -0.30087E+08
 
   -0.30117E+08         0.55745E+05         0.00000E+00
    0.55745E+05        -0.59978E+08         0.00000E+00
    0.00000E+00         0.00000E+00        -0.30090E+08
 
   -0.30110E+08         0.57884E+05         0.00000E+00
    0.57884E+05        -0.59974E+08         0.00000E+00
    0.00000E+00         0.00000E+00        -0.30091E+08
 
   -0.30103E+08         0.58775E+05         0.00000E+00
    0.58775E+05        -0.59969E+08         0.00000E+00
    0.00000E+00         0.00000E+00        -0.30092E+08
 
   -0.30098E+08         0.58597E+05         0.00000E+00
    0.58597E+05        -0.59965E+08         0.00000E+00
    0.00000E+00         0.00000E+00        -0.30092E+08
 
   -0.30094E+08         0.57543E+05         0.00000E+00
    0.57543E+05        -0.59962E+08         0.00000E+00
    0.00000E+00         0.00000E+00        -0.30091E+08
 
   -0.30091E+08         0.55808E+05         0.00000E+00
    0.55808E+05        -0.59959E+08         0.00000E+00
    0.00000E+00         0.00000E+00        -0.30091E+08
 
   -0.30089E+08         0.53597E+05         0.00000E+00
    0.53597E+05        -0.59957E+08         0.00000E+00
    0.00000E+00         0.00000E+00        -0.30090E+08
 
   -0.30089E+08         0.51115E+05         0.00000E+00
    0.51115E+05        -0.59956E+08         0.00000E+00
    0.00000E+00         0.00000E+00        -0.30090E+08
 
   -0.30089E+08         0.48565E+05         0.00000E+00
    0.48565E+05        -0.59956E+08         0.00000E+00
    0.00000E+00         0.00000E+00        -0.30089E+08
 
   -0.30174E+08         0.82169E+04         0.00000E+00
    0.82169E+04        -0.59999E+08         0.00000E+00
    0.00000E+00         0.00000E+00        -0.30061E+08
 
   -0.30161E+08         0.22546E+05         0.00000E+00
    0.22546E+05        -0.59998E+08         0.00000E+00
    0.00000E+00         0.00000E+00        -0.30072E+08
 
   -0.30149E+08         0.34447E+05         0.00000E+00
    0.34447E+05        -0.59995E+08         0.00000E+00
    0.00000E+00         0.00000E+00        -0.30080E+08
 
   -0.30139E+08         0.44047E+05         0.00000E+00
    0.44047E+05        -0.59992E+08         0.00000E+00
    0.00000E+00         0.00000E+00        -0.30086E+08
 
   -0.30130E+08         0.51485E+05         0.00000E+00
    0.51485E+05        -0.59988E+08         0.00000E+00
    0.00000E+00         0.00000E+00        -0.30090E+08
 
   -0.30122E+08         0.56915E+05         0.00000E+00
    0.56915E+05        -0.59983E+08         0.00000E+00
    0.00000E+00         0.00000E+00        -0.30092E+08
 
   -0.30114E+08         0.60504E+05         0.00000E+00
    0.60504E+05        -0.59978E+08         0.00000E+00
    0.00000E+00         0.00000E+00        -0.30093E+08
 
   -0.30108E+08         0.62435E+05         0.00000E+00
    0.62435E+05        -0.59974E+08         0.00000E+00
    0.00000E+00         0.00000E+00        -0.30093E+08
 
   -0.30103E+08         0.62905E+05         0.00000E+00
    0.62905E+05        -0.59970E+08         0.00000E+00
    0.00000E+00         0.00000E+00        -0.30092E+08
 
   -0.30099E+08         0.62129E+05         0.00000E+00
    0.62129E+05        -0.59966E+08         0.00000E+00
    0.00000E+00         0.00000E+00        -0.30092E+08
 
   -0.30096E+08         0.60336E+05         0.00000E+00
    0.60336E+05        -0.59963E+08         0.00000E+00
    0.00000E+00         0.00000E+00        -0.30091E+08
 
   -0.30094E+08         0.57769E+05         0.00000E+00
    0.57769E+05        -0.59961E+08         0.00000E+00
    0.00000E+00         0.00000E+00        -0.30090E+08
 
   -0.30092E+08         0.54675E+05         0.00000E+00
    0.54675E+05        -0.59960E+08         0.00000E+00
    0.00000E+00         0.00000E+00        -0.30090E+08
 
   -0.30092E+08         0.51299E+05         0.00000E+00
    0.51299E+05        -0.59959E+08         0.00000E+00
    0.00000E+00         0.00000E+00        -0.30091E+08
 
   -0.30092E+08         0.47873E+05         0.00000E+00
    0.47873E+05        -0.59960E+08         0.00000E+00
    0.00000E+00         0.00000E+00        -0.30091E+08
 
   -0.30157E+08         0.89768E+04         0.00000E+00
    0.89768E+04        -0.60000E+08         0.00000E+00
    0.00000E+00         0.00000E+00        -0.30077E+08
 
   -0.30147E+08         0.24602E+05         0.00000E+00
    0.24602E+05        -0.59998E+08         0.00000E+00
    0.00000E+00         0.00000E+00        -0.30086E+08
 
   -0.30138E+08         0.37551E+05         0.00000E+00
    0.37551E+05        -0.59996E+08         0.00000E+00
    0.00000E+00         0.00000E+00        -0.30092E+08
 
   -0.30130E+08         0.47943E+05         0.00000E+00
    0.47943E+05        -0.59992E+08         0.00000E+00
    0.00000E+00         0.00000E+00        -0.30095E+08
 
   -0.30123E+08         0.55908E+05         0.00000E+00
    0.55908E+05        -0.59988E+08         0.00000E+00
    0.00000E+00         0.00000E+00        -0.30097E+08
 
   -0.30117E+08         0.61591E+05         0.00000E+00
    0.61591E+05        -0.59983E+08         0.00000E+00
    0.00000E+00         0.00000E+00        -0.30097E+08
 
   -0.30112E+08         0.65160E+05         0.00000E+00
    0.65160E+05        -0.59979E+08         0.00000E+00
    0.00000E+00         0.00000E+00        -0.30096E+08
 
   -0.30107E+08         0.66807E+05         0.00000E+00
    0.66807E+05        -0.59974E+08         0.00000E+00
    0.00000E+00         0.00000E+00        -0.30095E+08
 
   -0.30104E+08         0.66756E+05         0.00000E+00
    0.66756E+05        -0.59970E+08         0.00000E+00
    0.00000E+00         0.00000E+00        -0.30093E+08
 
   -0.30101E+08         0.65260E+05         0.00000E+00
    0.65260E+05        -0.59967E+08         0.00000E+00
    0.00000E+00         0.00000E+00        -0.30092E+08
 
   -0.30099E+08         0.62600E+05         0.00000E+00
    0.62600E+05        -0.59965E+08         0.00000E+00
    0.00000E+00         0.00000E+00        -0.30091E+08
 
   -0.30097E+08         0.59072E+05         0.00000E+00
    0.59072E+05        -0.59963E+08         0.00000E+00
    0.00000E+00         0.00000E+00        -0.30090E+08
 
   -0.30096E+08         0.54978E+05         0.00000E+00
    0.54978E+05        -0.59963E+08         0.00000E+00
    0.00000E+00         0.00000E+00        -0.30091E+08
 
   -0.30095E+08         0.50597E+05         0.00000E+00
    0.50597E+05        -0.59964E+08         0.00000E+00
    0.00000E+00         0.00000E+00        -0.30092E+08
 
   -0.30096E+08         0.46192E+05         0.00000E+00
    0.46192E+05        -0.59965E+08         0.00000E+00
    0.00000E+00         0.00000E+00        -0.30094E+08
 
   -0.30140E+08         0.97059E+04         0.00000E+00
    0.97059E+04        -0.60000E+08         0.00000E+00
    0.00000E+00         0.00000E+00        -0.30095E+08
 
   -0.30132E+08         0.26582E+05         0.00000E+00
    0.26582E+05        -0.59998E+08         0.00000E+00
    0.00000E+00         0.00000E+00        -0.30101E+08
 
   -0.30126E+08         0.40553E+05         0.00000E+00
    0.40553E+05        -0.59996E+08         0.00000E+00
    0.00000E+00         0.00000E+00        -0.30104E+08
 
   -0.30121E+08         0.51720E+05         0.00000E+00
    0.51720E+05        -0.59992E+08         0.00000E+00
    0.00000E+00         0.00000E+00        -0.30105E+08
 
   -0.30116E+08         0.60193E+05         0.00000E+00
    0.60193E+05        -0.59988E+08         0.00000E+00
    0.00000E+00         0.00000E+00        -0.30104E+08
 
   -0.30112E+08         0.66097E+05         0.00000E+00
    0.66097E+05        -0.59984E+08         0.00000E+00
    0.00000E+00         0.00000E+00        -0.30103E+08
 
   -0.30109E+08         0.69589E+05         0.00000E+00
    0.69589E+05        -0.59980E+08         0.00000E+00
    0.00000E+00         0.00000E+00        -0.30100E+08
 
   -0.30107E+08         0.70869E+05         0.00000E+00
    0.70869E+05        -0.59976E+08         0.00000E+00
    0.00000E+00         0.00000E+00        -0.30097E+08
 
   -0.30105E+08         0.70188E+05         0.00000E+00
    0.70188E+05        -0.59972E+08         0.00000E+00
    0.00000E+00         0.00000E+00        -0.30094E+08
 
   -0.30103E+08         0.67851E+05         0.00000E+00
    0.67851E+05        -0.59970E+08         0.00000E+00
    0.00000E+00         0.00000E+00        -0.30092E+08
 
   -0.30102E+08         0.64201E+05         0.00000E+00
    0.64201E+05        -0.59968E+08         0.00000E+00
    0.00000E+00         0.00000E+00        -0.30091E+08
 
   -0.30101E+08         0.59599E+05         0.00000E+00
    0.59599E+05        -0.59967E+08         0.00000E+00
    0.00000E+00         0.00000E+00        -0.30091E+08
 
   -0.30101E+08         0.54402E+05         0.00000E+00
    0.54402E+05        -0.59968E+08         0.00000E+00
    0.00000E+00         0.00000E+00        -0.30092E+08
 
   -0.30100E+08         0.48936E+05         0.00000E+00
    0.48936E+05        -0.59969E+08         0.00000E+00
    0.00000E+00         0.00000E+00        -0.30095E+08
 
   -0.30100E+08         0.43469E+05         0.00000E+00
    0.43469E+05        -0.59972E+08         0.00000E+00
    0.00000E+00         0.00000E+00        -0.30098E+08
 
   -0.30121E+08         0.10389E+05         0.00000E+00
    0.10389E+05        -0.60000E+08         0.00000E+00
    0.00000E+00         0.00000E+00        -0.30114E+08
 
   -0.30116E+08         0.28442E+05         0.00000E+00
    0.28442E+05        -0.59998E+08         0.00000E+00
    0.00000E+00         0.00000E+00        -0.30117E+08
 
   -0.30113E+08         0.43380E+05         0.00000E+00
    0.43380E+05        -0.59996E+08         0.00000E+00
    0.00000E+00         0.00000E+00        -0.30117E+08
 
   -0.30110E+08         0.55277E+05         0.00000E+00
    0.55277E+05        -0.59993E+08         0.00000E+00
    0.00000E+00         0.00000E+00        -0.30116E+08
 
   -0.30109E+08         0.64213E+05         0.00000E+00
    0.64213E+05        -0.59989E+08         0.00000E+00
    0.00000E+00         0.00000E+00        -0.30113E+08
 
   -0.30108E+08         0.70284E+05         0.00000E+00
    0.70284E+05        -0.59985E+08         0.00000E+00
    0.00000E+00         0.00000E+00        -0.30109E+08
 
   -0.30107E+08         0.73627E+05         0.00000E+00
    0.73627E+05        -0.59982E+08         0.00000E+00
    0.00000E+00         0.00000E+00        -0.30104E+08
 
   -0.30107E+08         0.74446E+05         0.00000E+00
    0.74446E+05        -0.59978E+08         0.00000E+00
    0.00000E+00         0.00000E+00        -0.30100E+08
 
   -0.30107E+08         0.73026E+05         0.00000E+00
    0.73026E+05        -0.59975E+08         0.00000E+00
    0.00000E+00         0.00000E+00        -0.30096E+08
 
   -0.30107E+08         0.69735E+05         0.00000E+00
    0.69735E+05        -0.59973E+08         0.00000E+00
    0.00000E+00         0.00000E+00        -0.30094E+08
 
   -0.30107E+08         0.64991E+05         0.00000E+00
    0.64991E+05        -0.59972E+08         0.00000E+00
    0.00000E+00         0.00000E+00        -0.30092E+08
 
   -0.30107E+08         0.59232E+05         0.00000E+00
    0.59232E+05        -0.59973E+08         0.00000E+00
    0.00000E+00         0.00000E+00        -0.30093E+08
 
   -0.30107E+08         0.52873E+05         0.00000E+00
    0.52873E+05        -0.59974E+08         0.00000E+00
    0.00000E+00         0.00000E+00        -0.30095E+08
 
   -0.30106E+08         0.46268E+05         0.00000E+00
    0.46268E+05        -0.59977E+08         0.00000E+00
    0.00000E+00         0.00000E+00        -0.30098E+08
 
   -0.30106E+08         0.39692E+05         0.00000E+00
    0.39692E+05        -0.59980E+08         0.00000E+00
    0.00000E+00         0.00000E+00        -0.30103E+08
 
   -0.30100E+08         0.11016E+05         0.00000E+00
    0.11016E+05        -0.60000E+08         0.00000E+00
    0.00000E+00         0.00000E+00        -0.30134E+08
 
   -0.30099E+08         0.30141E+05         0.00000E+00
    0.30141E+05        -0.59999E+08         0.00000E+00
    0.00000E+00         0.00000E+00        -0.30134E+08
 
   -0.30099E+08         0.45955E+05         0.00000E+00
    0.45955E+05        -0.59996E+08         0.00000E+00
    0.00000E+00         0.00000E+00        -0.30132E+08
 
   -0.30100E+08         0.58499E+05         0.00000E+00
    0.58499E+05        -0.59994E+08         0.00000E+00
    0.00000E+00         0.00000E+00        -0.30128E+08
 
   -0.30101E+08         0.67814E+05         0.00000E+00
    0.67814E+05        -0.59991E+08         0.00000E+00
    0.00000E+00         0.00000E+00        -0.30122E+08
 
   -0.30103E+08         0.73961E+05         0.00000E+00
    0.73961E+05        -0.59987E+08         0.00000E+00
    0.00000E+00         0.00000E+00        -0.30116E+08
 
   -0.30105E+08         0.77056E+05         0.00000E+00
    0.77056E+05        -0.59984E+08         0.00000E+00
    0.00000E+00         0.00000E+00        -0.30110E+08
 
   -0.30107E+08         0.77309E+05         0.00000E+00
    0.77309E+05        -0.59981E+08         0.00000E+00
    0.00000E+00         0.00000E+00        -0.30104E+08
 
   -0.30110E+08         0.75051E+05         0.00000E+00
    0.75051E+05        -0.59979E+08         0.00000E+00
    0.00000E+00         0.00000E+00        -0.30099E+08
 
   -0.30111E+08         0.70722E+05         0.00000E+00
    0.70722E+05        -0.59978E+08         0.00000E+00
    0.00000E+00         0.00000E+00        -0.30096E+08
 
   -0.30113E+08         0.64828E+05         0.00000E+00
    0.64828E+05        -0.59978E+08         0.00000E+00
    0.00000E+00         0.00000E+00        -0.30095E+08
 
   -0.30114E+08         0.57882E+05         0.00000E+00
    0.57882E+05        -0.59980E+08         0.00000E+00
    0.00000E+00         0.00000E+00        -0.30095E+08
 
   -0.30114E+08         0.50347E+05         0.00000E+00
    0.50347E+05        -0.59982E+08         0.00000E+00
    0.00000E+00         0.00000E+00        -0.30098E+08
 
   -0.30114E+08         0.42598E+05         0.00000E+00
    0.42598E+05        -0.59986E+08         0.00000E+00
    0.00000E+00         0.00000E+00        -0.30103E+08
 
   -0.30113E+08         0.34904E+05         0.00000E+00
    0.34904E+05        -0.59991E+08         0.00000E+00
    0.00000E+00         0.00000E+00        -0.30110E+08
 
   -0.30079E+08         0.11582E+05         0.00000E+00
    0.11582E+05        -0.60000E+08         0.00000E+00
    0.00000E+00         0.00000E+00        -0.30156E+08
 
   -0.30081E+08         0.31646E+05         0.00000E+00
    0.31646E+05        -0.59999E+08         0.00000E+00
    0.00000E+00         0.00000E+00        -0.30152E+08
 
   -0.30085E+08         0.48202E+05         0.00000E+00
    0.48202E+05        -0.59997E+08         0.00000E+00
    0.00000E+00         0.00000E+00        -0.30147E+08
 
   -0.30089E+08         0.61252E+05         0.00000E+00
    0.61252E+05        -0.59995E+08         0.00000E+00
    0.00000E+00         0.00000E+00        -0.30140E+08
 
   -0.30093E+08         0.70799E+05         0.00000E+00
    0.70799E+05        -0.59992E+08         0.00000E+00
    0.00000E+00         0.00000E+00        -0.30132E+08
 
   -0.30098E+08         0.76873E+05         0.00000E+00
    0.76873E+05        -0.59990E+08         0.00000E+00
    0.00000E+00         0.00000E+00        -0.30124E+08
 
   -0.30104E+08         0.79582E+05         0.00000E+00
    0.79582E+05        -0.59987E+08         0.00000E+00
    0.00000E+00         0.00000E+00        -0.30116E+08
 
   -0.30109E+08         0.79164E+05         0.00000E+00
    0.79164E+05        -0.59986E+08         0.00000E+00
    0.00000E+00         0.00000E+00        -0.30108E+08
 
   -0.30113E+08         0.76003E+05         0.00000E+00
    0.76003E+05        -0.59985E+08         0.00000E+00
    0.00000E+00         0.00000E+00        -0.30103E+08
 
   -0.30117E+08         0.70618E+05         0.00000E+00
    0.70618E+05        -0.59985E+08         0.00000E+00
    0.00000E+00         0.00000E+00        -0.30099E+08
 
   -0.30120E+08         0.63593E+05         0.00000E+00
    0.63593E+05        -0.59987E+08         0.00000E+00
    0.00000E+00         0.00000E+00        -0.30098E+08
 
   -0.30121E+08         0.55502E+05         0.00000E+00
    0.55502E+05        -0.59989E+08         0.00000E+00
    0.00000E+00         0.00000E+00        -0.30100E+08
 
   -0.30122E+08         0.46841E+05         0.00000E+00
    0.46841E+05        -0.59992E+08         0.00000E+00
    0.00000E+00         0.00000E+00        -0.30103E+08
 
   -0.30122E+08         0.37994E+05         0.00000E+00
    0.37994E+05        -0.59997E+08         0.00000E+00
    0.00000E+00         0.00000E+00        -0.30109E+08
 
   -0.30122E+08         0.29210E+05         0.00000E+00
    0.29210E+05        -0.60002E+08         0.00000E+00
    0.00000E+00         0.00000E+00        -0.30117E+08
 
   -0.30057E+08         0.12081E+05         0.00000E+00
    0.12081E+05        -0.60000E+08         0.00000E+00
    0.00000E+00         0.00000E+00        -0.30179E+08
 
   -0.30063E+08         0.32934E+05         0.00000E+00
    0.32934E+05        -0.59999E+08         0.00000E+00
    0.00000E+00         0.00000E+00        -0.30172E+08
 
   -0.30070E+08         0.50047E+05         0.00000E+00
    0.50047E+05        -0.59997E+08         0.00000E+00
    0.00000E+00         0.00000E+00        -0.30163E+08
 
   -0.30077E+08         0.63385E+05         0.00000E+00
    0.63385E+05        -0.59996E+08         0.00000E+00
    0.00000E+00         0.00000E+00        -0.30153E+08
 
   -0.30085E+08         0.72925E+05         0.00000E+00
    0.72925E+05        -0.59994E+08         0.00000E+00
    0.00000E+00         0.00000E+00        -0.30143E+08
 
   -0.30094E+08         0.78691E+05         0.00000E+00
    0.78691E+05        -0.59993E+08         0.00000E+00
    0.00000E+00         0.00000E+00        -0.30132E+08
 
   -0.30103E+08         0.80829E+05         0.00000E+00
    0.80829E+05        -0.59992E+08         0.00000E+00
    0.00000E+00         0.00000E+00        -0.30122E+08
 
   -0.30111E+08         0.79643E+05         0.00000E+00
    0.79643E+05        -0.59992E+08         0.00000E+00
    0.00000E+00         0.00000E+00        -0.30114E+08
 
   -0.30118E+08         0.75591E+05         0.00000E+00
    0.75591E+05        -0.59993E+08         0.00000E+00
    0.00000E+00         0.00000E+00        -0.30108E+08
 
   -0.30124E+08         0.69242E+05         0.00000E+00
    0.69242E+05        -0.59994E+08         0.00000E+00
    0.00000E+00         0.00000E+00        -0.30104E+08
 
   -0.30128E+08         0.61217E+05         0.00000E+00
    0.61217E+05        -0.59997E+08         0.00000E+00
    0.00000E+00         0.00000E+00        -0.30104E+08
 
   -0.30130E+08         0.52114E+05         0.00000E+00
    0.52114E+05        -0.60000E+08         0.00000E+00
    0.00000E+00         0.00000E+00        -0.30106E+08
 
   -0.30131E+08         0.42444E+05         0.00000E+00
    0.42444E+05        -0.60005E+08         0.00000E+00
    0.00000E+00         0.00000E+00        -0.30110E+08
 
   -0.30131E+08         0.32588E+05         0.00000E+00
    0.32588E+05        -0.60010E+08         0.00000E+00
    0.00000E+00         0.00000E+00        -0.30117E+08
 
   -0.30131E+08         0.22781E+05         0.00000E+00
    0.22781E+05        -0.60016E+08         0.00000E+00
    0.00000E+00         0.00000E+00        -0.30126E+08
 
   -0.30034E+08         0.12512E+05         0.00000E+00
    0.12512E+05        -0.60000E+08         0.00000E+00
    0.00000E+00         0.00000E+00        -0.30202E+08
 
   -0.30043E+08         0.33968E+05         0.00000E+00
    0.33968E+05        -0.59999E+08         0.00000E+00
    0.00000E+00         0.00000E+00        -0.30191E+08
 
   -0.30054E+08         0.51397E+05         0.00000E+00
    0.51397E+05        -0.59998E+08         0.00000E+00
    0.00000E+00         0.00000E+00        -0.30179E+08
 
   -0.30066E+08         0.64713E+05         0.00000E+00
    0.64713E+05        -0.59997E+08         0.00000E+00
    0.00000E+00         0.00000E+00        -0.30166E+08
 
   -0.30078E+08         0.73879E+05         0.00000E+00
    0.73879E+05        -0.59997E+08         0.00000E+00
    0.00000E+00         0.00000E+00        -0.30153E+08
 
   -0.30091E+08         0.78997E+05         0.00000E+00
    0.78997E+05        -0.59997E+08         0.00000E+00
    0.00000E+00         0.00000E+00        -0.30141E+08
 
   -0.30103E+08         0.80333E+05         0.00000E+00
    0.80333E+05        -0.59998E+08         0.00000E+00
    0.00000E+00         0.00000E+00        -0.30130E+08
 
   -0.30114E+08         0.78332E+05         0.00000E+00
    0.78332E+05        -0.60000E+08         0.00000E+00
    0.00000E+00         0.00000E+00        -0.30122E+08
 
   -0.30124E+08         0.73522E+05         0.00000E+00
    0.73522E+05        -0.60003E+08         0.00000E+00
    0.00000E+00         0.00000E+00        -0.30115E+08
 
   -0.30131E+08         0.66460E+05         0.00000E+00
    0.66460E+05        -0.60006E+08         0.00000E+00
    0.00000E+00         0.00000E+00        -0.30112E+08
 
   -0.30137E+08         0.57708E+05         0.00000E+00
    0.57708E+05        -0.60010E+08         0.00000E+00
    0.00000E+00         0.00000E+00        -0.30111E+08
 
   -0.30140E+08         0.47826E+05         0.00000E+00
    0.47826E+05        -0.60014E+08         0.00000E+00
    0.00000E+00         0.00000E+00        -0.30114E+08
 
   -0.30142E+08         0.37323E+05         0.00000E+00
    0.37323E+05        -0.60019E+08         0.00000E+00
    0.00000E+00         0.00000E+00        -0.30119E+08
 
   -0.30142E+08         0.26589E+05         0.00000E+00
    0.26589E+05        -0.60025E+08         0.00000E+00
    0.00000E+00         0.00000E+00        -0.30126E+08
 
   -0.30141E+08         0.15854E+05         0.00000E+00
    0.15854E+05        -0.60031E+08         0.00000E+00
    0.00000E+00         0.00000E+00        -0.30136E+08
 
   -0.30010E+08         0.12874E+05         0.00000E+00
    0.12874E+05        -0.60000E+08         0.00000E+00
    0.00000E+00         0.00000E+00        -0.30226E+08
 
   -0.30024E+08         0.34703E+05         0.00000E+00
    0.34703E+05        -0.59999E+08         0.00000E+00
    0.00000E+00         0.00000E+00        -0.30211E+08
 
   -0.30039E+08         0.52110E+05         0.00000E+00
    0.52110E+05        -0.59999E+08         0.00000E+00
    0.00000E+00         0.00000E+00        -0.30196E+08
 
   -0.30055E+08         0.64956E+05         0.00000E+00
    0.64956E+05        -0.59999E+08         0.00000E+00
    0.00000E+00         0.00000E+00        -0.30180E+08
 
   -0.30071E+08         0.73252E+05         0.00000E+00
    0.73252E+05        -0.60000E+08         0.00000E+00
    0.00000E+00         0.00000E+00        -0.30165E+08
 
   -0.30088E+08         0.77279E+05         0.00000E+00
    0.77279E+05        -0.60002E+08         0.00000E+00
    0.00000E+00         0.00000E+00        -0.30151E+08
 
   -0.30104E+08         0.77592E+05         0.00000E+00
    0.77592E+05        -0.60006E+08         0.00000E+00
    0.00000E+00         0.00000E+00        -0.30140E+08
 
   -0.30118E+08         0.74828E+05         0.00000E+00
    0.74828E+05        -0.60010E+08         0.00000E+00
    0.00000E+00         0.00000E+00        -0.30131E+08
 
   -0.30130E+08         0.69549E+05         0.00000E+00
    0.69549E+05        -0.60015E+08         0.00000E+00
    0.00000E+00         0.00000E+00        -0.30125E+08
 
   -0.30140E+08         0.62192E+05         0.00000E+00
    0.62192E+05        -0.60020E+08         0.00000E+00
    0.00000E+00         0.00000E+00        -0.30122E+08
 
   -0.30146E+08         0.53142E+05         0.00000E+00
    0.53142E+05        -0.60025E+08         0.00000E+00
    0.00000E+00         0.00000E+00        -0.30122E+08
 
   -0.30151E+08         0.42830E+05         0.00000E+00
    0.42830E+05        -0.60030E+08         0.00000E+00
    0.00000E+00         0.00000E+00        -0.30125E+08
 
   -0.30152E+08         0.31733E+05         0.00000E+00
    0.31733E+05        -0.60036E+08         0.00000E+00
    0.00000E+00         0.00000E+00        -0.30130E+08
 
   -0.30153E+08         0.20276E+05         0.00000E+00
    0.20276E+05        -0.60042E+08         0.00000E+00
    0.00000E+00         0.00000E+00        -0.30137E+08
 
   -0.30152E+08         0.87287E+04         0.00000E+00
    0.87287E+04        -0.60048E+08         0.00000E+00
    0.00000E+00         0.00000E+00        -0.30147E+08
 
   -0.29986E+08         0.13163E+05         0.00000E+00
    0.13163E+05        -0.60000E+08         0.00000E+00
    0.00000E+00         0.00000E+00        -0.30251E+08
 
   -0.30004E+08         0.35064E+05         0.00000E+00
    0.35064E+05        -0.60000E+08         0.00000E+00
    0.00000E+00         0.00000E+00        -0.30232E+08
 
   -0.30024E+08         0.51955E+05         0.00000E+00
    0.51955E+05        -0.60000E+08         0.00000E+00
    0.00000E+00         0.00000E+00        -0.30212E+08
 
   -0.30045E+08         0.63679E+05         0.00000E+00
    0.63679E+05        -0.60001E+08         0.00000E+00
    0.00000E+00         0.00000E+00        -0.30193E+08
 
   -0.30066E+08         0.70456E+05         0.00000E+00
    0.70456E+05        -0.60005E+08         0.00000E+00
    0.00000E+00         0.00000E+00        -0.30176E+08
 
   -0.30086E+08         0.72983E+05         0.00000E+00
    0.72983E+05        -0.60010E+08         0.00000E+00
    0.00000E+00         0.00000E+00        -0.30162E+08
 
   -0.30105E+08         0.72182E+05         0.00000E+00
    0.72182E+05        -0.60016E+08         0.00000E+00
    0.00000E+00         0.00000E+00        -0.30152E+08
 
   -0.30122E+08         0.68859E+05         0.00000E+00
    0.68859E+05        -0.60023E+08         0.00000E+00
    0.00000E+00         0.00000E+00        -0.30144E+08
 
   -0.30136E+08         0.63522E+05         0.00000E+00
    0.63522E+05        -0.60030E+08         0.00000E+00
    0.00000E+00         0.00000E+00        -0.30139E+08
 
   -0.30148E+08         0.56410E+05         0.00000E+00
    0.56410E+05        -0.60037E+08         0.00000E+00
    0.00000E+00         0.00000E+00        -0.30137E+08
 
   -0.30156E+08         0.47634E+05         0.00000E+00
    0.47634E+05        -0.60043E+08         0.00000E+00
    0.00000E+00         0.00000E+00        -0.30136E+08
 
   -0.30161E+08         0.37370E+05         0.00000E+00
    0.37370E+05        -0.60049E+08         0.00000E+00
    0.00000E+00         0.00000E+00        -0.30138E+08
 
   -0.30164E+08         0.25998E+05         0.00000E+00
    0.25998E+05        -0.60055E+08         0.00000E+00
    0.00000E+00         0.00000E+00        -0.30143E+08
 
   -0.30165E+08         0.14007E+05         0.00000E+00
    0.14007E+05        -0.60060E+08         0.00000E+00
    0.00000E+00         0.00000E+00        -0.30150E+08
 
   -0.30164E+08         0.17705E+04         0.00000E+00
    0.17705E+04        -0.60067E+08         0.00000E+00
    0.00000E+00         0.00000E+00        -0.30159E+08
 
   -0.29962E+08         0.13370E+05         0.00000E+00
    0.13370E+05        -0.60000E+08         0.00000E+00
    0.00000E+00         0.00000E+00        -0.30276E+08
 
   -0.29985E+08         0.34890E+05         0.00000E+00
    0.34890E+05        -0.60000E+08         0.00000E+00
    0.00000E+00         0.00000E+00        -0.30252E+08
 
   -0.30010E+08         0.50489E+05         0.00000E+00
    0.50489E+05        -0.60001E+08         0.00000E+00
    0.00000E+00         0.00000E+00        -0.30228E+08
 
   -0.30036E+08         0.60171E+05         0.00000E+00
    0.60171E+05        -0.60005E+08         0.00000E+00
    0.00000E+00         0.00000E+00        -0.30206E+08
 
   -0.30062E+08         0.64763E+05         0.00000E+00
    0.64763E+05        -0.60012E+08         0.00000E+00
    0.00000E+00         0.00000E+00        -0.30189E+08
 
   -0.30086E+08         0.65613E+05         0.00000E+00
    0.65613E+05        -0.60020E+08         0.00000E+00
    0.00000E+00         0.00000E+00        -0.30176E+08
 
   -0.30108E+08         0.63912E+05         0.00000E+00
    0.63912E+05        -0.60029E+08         0.00000E+00
    0.00000E+00         0.00000E+00        -0.30166E+08
 
   -0.30126E+08         0.60402E+05         0.00000E+00
    0.60402E+05        -0.60039E+08         0.00000E+00
    0.00000E+00         0.00000E+00        -0.30160E+08
 
   -0.30142E+08         0.55442E+05         0.00000E+00
    0.55442E+05        -0.60048E+08         0.00000E+00
    0.00000E+00         0.00000E+00        -0.30157E+08
 
   -0.30155E+08         0.49101E+05         0.00000E+00
    0.49101E+05        -0.60057E+08         0.00000E+00
    0.00000E+00         0.00000E+00        -0.30155E+08
 
   -0.30165E+08         0.41237E+05         0.00000E+00
    0.41237E+05        -0.60064E+08         0.00000E+00
    0.00000E+00         0.00000E+00        -0.30155E+08
 
   -0.30172E+08         0.31676E+05         0.00000E+00
    0.31676E+05        -0.60070E+08         0.00000E+00
    0.00000E+00         0.00000E+00        -0.30156E+08
 
   -0.30176E+08         0.20503E+05         0.00000E+00
    0.20503E+05        -0.60076E+08         0.00000E+00
    0.00000E+00         0.00000E+00        -0.30159E+08
 
   -0.30177E+08         0.82261E+04         0.00000E+00
    0.82261E+04        -0.60081E+08         0.00000E+00
    0.00000E+00         0.00000E+00        -0.30165E+08
 
   -0.30177E+08        -0.45735E+04         0.00000E+00
   -0.45735E+04        -0.60087E+08         0.00000E+00
    0.00000E+00         0.00000E+00        -0.30173E+08
 
   -0.29937E+08         0.13464E+05         0.00000E+00
    0.13464E+05        -0.60000E+08         0.00000E+00
    0.00000E+00         0.00000E+00        -0.30301E+08
 
   -0.29967E+08         0.33808E+05         0.00000E+00
    0.33808E+05        -0.60001E+08         0.00000E+00
    0.00000E+00         0.00000E+00        -0.30271E+08
 
   -0.29999E+08         0.46834E+05         0.00000E+00
    0.46834E+05        -0.60004E+08         0.00000E+00
    0.00000E+00         0.00000E+00        -0.30243E+08
 
   -0.30031E+08         0.53389E+05         0.00000E+00
    0.53389E+05        -0.60012E+08         0.00000E+00
    0.00000E+00         0.00000E+00        -0.30221E+08
 
   -0.30060E+08         0.55519E+05         0.00000E+00
    0.55519E+05        -0.60022E+08         0.00000E+00
    0.00000E+00         0.00000E+00        -0.30204E+08
 
   -0.30087E+08         0.55028E+05         0.00000E+00
    0.55028E+05        -0.60033E+08         0.00000E+00
    0.00000E+00         0.00000E+00        -0.30193E+08
 
   -0.30110E+08         0.52925E+05         0.00000E+00
    0.52925E+05        -0.60045E+08         0.00000E+00
    0.00000E+00         0.00000E+00        -0.30185E+08
 
   -0.30130E+08         0.49686E+05         0.00000E+00
    0.49686E+05        -0.60057E+08         0.00000E+00
    0.00000E+00         0.00000E+00        -0.30181E+08
 
   -0.30147E+08         0.45486E+05         0.00000E+00
    0.45486E+05        -0.60069E+08         0.00000E+00
    0.00000E+00         0.00000E+00        -0.30178E+08
 
   -0.30162E+08         0.40291E+05         0.00000E+00
    0.40291E+05        -0.60079E+08         0.00000E+00
    0.00000E+00         0.00000E+00        -0.30177E+08
 
   -0.30173E+08         0.33875E+05         0.00000E+00
    0.33875E+05        -0.60087E+08         0.00000E+00
    0.00000E+00         0.00000E+00        -0.30177E+08
 
   -0.30182E+08         0.25802E+05         0.00000E+00
    0.25802E+05        -0.60094E+08         0.00000E+00
    0.00000E+00         0.00000E+00        -0.30178E+08
 
   -0.30187E+08         0.15624E+05         0.00000E+00
    0.15624E+05        -0.60099E+08         0.00000E+00
    0.00000E+00         0.00000E+00        -0.30179E+08
 
   -0.30189E+08         0.34927E+04         0.00000E+00
    0.34927E+04        -0.60104E+08         0.00000E+00
    0.00000E+00         0.00000E+00        -0.30182E+08
 
   -0.30190E+08        -0.97321E+04         0.00000E+00
   -0.97321E+04        -0.60108E+08         0.00000E+00
    0.00000E+00         0.00000E+00        -0.30187E+08
 
   -0.29914E+08         0.13327E+05         0.00000E+00
    0.13327E+05        -0.60000E+08         0.00000E+00
    0.00000E+00         0.00000E+00        -0.30325E+08
 
   -0.29952E+08         0.30828E+05         0.00000E+00
    0.30828E+05        -0.60003E+08         0.00000E+00
    0.00000E+00         0.00000E+00        -0.30289E+08
 
   -0.29991E+08         0.39392E+05         0.00000E+00
    0.39392E+05        -0.60010E+08         0.00000E+00
    0.00000E+00         0.00000E+00        -0.30259E+08
 
   -0.30028E+08         0.42348E+05         0.00000E+00
    0.42348E+05        -0.60022E+08         0.00000E+00
    0.00000E+00         0.00000E+00        -0.30237E+08
 
   -0.30060E+08         0.42651E+05         0.00000E+00
    0.42651E+05        -0.60036E+08         0.00000E+00
    0.00000E+00         0.00000E+00        -0.30223E+08
 
   -0.30089E+08         0.41582E+05         0.00000E+00
    0.41582E+05        -0.60050E+08         0.00000E+00
    0.00000E+00         0.00000E+00        -0.30214E+08
 
   -0.30113E+08         0.39660E+05         0.00000E+00
    0.39660E+05        -0.60065E+08         0.00000E+00
    0.00000E+00         0.00000E+00        -0.30208E+08
 
   -0.30134E+08         0.37093E+05         0.00000E+00
    0.37093E+05        -0.60079E+08         0.00000E+00
    0.00000E+00         0.00000E+00        -0.30205E+08
 
   -0.30151E+08         0.33932E+05         0.00000E+00
    0.33932E+05        -0.60091E+08         0.00000E+00
    0.00000E+00         0.00000E+00        -0.30204E+08
 
   -0.30167E+08         0.30109E+05         0.00000E+00
    0.30109E+05        -0.60103E+08         0.00000E+00
    0.00000E+00         0.00000E+00        -0.30204E+08
 
   -0.30179E+08         0.25427E+05         0.00000E+00
    0.25427E+05        -0.60113E+08         0.00000E+00
    0.00000E+00         0.00000E+00        -0.30204E+08
 
   -0.30190E+08         0.19469E+05         0.00000E+00
    0.19469E+05        -0.60120E+08         0.00000E+00
    0.00000E+00         0.00000E+00        -0.30204E+08
 
   -0.30197E+08         0.11466E+05         0.00000E+00
    0.11466E+05        -0.60126E+08         0.00000E+00
    0.00000E+00         0.00000E+00        -0.30203E+08
 
   -0.30202E+08         0.50874E+03         0.00000E+00
    0.50874E+03        -0.60129E+08         0.00000E+00
    0.00000E+00         0.00000E+00        -0.30203E+08
 
   -0.30204E+08        -0.12873E+05         0.00000E+00
   -0.12873E+05        -0.60130E+08         0.00000E+00
    0.00000E+00         0.00000E+00        -0.30203E+08
 
   -0.29893E+08         0.12291E+05         0.00000E+00
    0.12291E+05        -0.60001E+08         0.00000E+00
    0.00000E+00         0.00000E+00        -0.30347E+08
 
   -0.29942E+08         0.23396E+05         0.00000E+00
    0.23396E+05        -0.60008E+08         0.00000E+00
    0.00000E+00         0.00000E+00        -0.30307E+08
 
   -0.29988E+08         0.26521E+05         0.00000E+00
    0.26521E+05        -0.60022E+08         0.00000E+00
    0.00000E+00         0.00000E+00        -0.30278E+08
 
   -0.30027E+08         0.27211E+05         0.00000E+00
    0.27211E+05        -0.60038E+08         0.00000E+00
    0.00000E+00         0.00000E+00        -0.30259E+08
 
   -0.30061E+08         0.26875E+05         0.00000E+00
    0.26875E+05        -0.60054E+08         0.00000E+00
    0.00000E+00         0.00000E+00        -0.30247E+08
 
   -0.30090E+08         0.25961E+05         0.00000E+00
    0.25961E+05        -0.60071E+08         0.00000E+00
    0.00000E+00         0.00000E+00        -0.30239E+08
 
   -0.30115E+08         0.24654E+05         0.00000E+00
    0.24654E+05        -0.60087E+08         0.00000E+00
    0.00000E+00         0.00000E+00        -0.30236E+08
 
   -0.30136E+08         0.23025E+05         0.00000E+00
    0.23025E+05        -0.60102E+08         0.00000E+00
    0.00000E+00         0.00000E+00        -0.30234E+08
 
   -0.30154E+08         0.21078E+05         0.00000E+00
    0.21078E+05        -0.60116E+08         0.00000E+00
    0.00000E+00         0.00000E+00        -0.30234E+08
 
   -0.30170E+08         0.18753E+05         0.00000E+00
    0.18753E+05        -0.60129E+08         0.00000E+00
    0.00000E+00         0.00000E+00        -0.30235E+08
 
   -0.30184E+08         0.15916E+05         0.00000E+00
    0.15916E+05        -0.60140E+08         0.00000E+00
    0.00000E+00         0.00000E+00        -0.30236E+08
 
   -0.30195E+08         0.12307E+05         0.00000E+00
    0.12307E+05        -0.60148E+08         0.00000E+00
    0.00000E+00         0.00000E+00        -0.30235E+08
 
   -0.30205E+08         0.73683E+04         0.00000E+00
    0.73683E+04        -0.60154E+08         0.00000E+00
    0.00000E+00         0.00000E+00        -0.30233E+08
 
   -0.30213E+08        -0.21135E+03         0.00000E+00
   -0.21135E+03        -0.60156E+08         0.00000E+00
    0.00000E+00         0.00000E+00        -0.30228E+08
 
   -0.30217E+08        -0.12655E+05         0.00000E+00
   -0.12655E+05        -0.60155E+08         0.00000E+00
    0.00000E+00         0.00000E+00        -0.30222E+08
 
   -0.29879E+08         0.63059E+04         0.00000E+00
    0.63059E+04        -0.60009E+08         0.00000E+00
    0.00000E+00         0.00000E+00        -0.30372E+08
 
   -0.29939E+08         0.84890E+04         0.00000E+00
    0.84890E+04        -0.60022E+08         0.00000E+00
    0.00000E+00         0.00000E+00        -0.30329E+08
 
   -0.29987E+08         0.92482E+04         0.00000E+00
    0.92482E+04        -0.60040E+08         0.00000E+00
    0.00000E+00         0.00000E+00        -0.30303E+08
 
   -0.30027E+08         0.93764E+04         0.00000E+00
    0.93764E+04        -0.60058E+08         0.00000E+00
    0.00000E+00         0.00000E+00        -0.30286E+08
 
   -0.30062E+08         0.91959E+04         0.00000E+00
    0.91959E+04        -0.60077E+08         0.00000E+00
    0.00000E+00         0.00000E+00        -0.30276E+08
 
   -0.30091E+08         0.88505E+04         0.00000E+00
    0.88505E+04        -0.60095E+08         0.00000E+00
    0.00000E+00         0.00000E+00        -0.30270E+08
 
   -0.30116E+08         0.83912E+04         0.00000E+00
    0.83912E+04        -0.60112E+08         0.00000E+00
    0.00000E+00         0.00000E+00        -0.30267E+08
 
   -0.30137E+08         0.78354E+04         0.00000E+00
    0.78354E+04        -0.60128E+08         0.00000E+00
    0.00000E+00         0.00000E+00        -0.30267E+08
 
   -0.30156E+08         0.71801E+04         0.00000E+00
    0.71801E+04        -0.60143E+08         0.00000E+00
    0.00000E+00         0.00000E+00        -0.30268E+08
 
   -0.30172E+08         0.64027E+04         0.00000E+00
    0.64027E+04        -0.60157E+08         0.00000E+00
    0.00000E+00         0.00000E+00        -0.30270E+08
 
   -0.30186E+08         0.54542E+04         0.00000E+00
    0.54542E+04        -0.60168E+08         0.00000E+00
    0.00000E+00         0.00000E+00        -0.30271E+08
 
   -0.30198E+08         0.42414E+04         0.00000E+00
    0.42414E+04        -0.60178E+08         0.00000E+00
    0.00000E+00         0.00000E+00        -0.30272E+08
 
   -0.30209E+08         0.25886E+04         0.00000E+00
    0.25886E+04        -0.60185E+08         0.00000E+00
    0.00000E+00         0.00000E+00        -0.30270E+08
 
   -0.30220E+08         0.84925E+01         0.00000E+00
    0.84925E+01        -0.60188E+08         0.00000E+00
    0.00000E+00         0.00000E+00        -0.30263E+08
 
   -0.30228E+08        -0.56934E+04         0.00000E+00
   -0.56934E+04        -0.60181E+08         0.00000E+00
    0.00000E+00         0.00000E+00        -0.30246E+08
 
SCALARS stressS double 
LOOKUP_TABLE default
  -40078821.7815644     
  -40078176.4087806     
  -40077159.3102560     
  -40075798.5908544     
  -40074121.5116773     
  -40072154.3757963     
  -40069922.2042210     
  -40067448.8868352     
  -40064757.3605083     
  -40061869.3048673     
  -40058804.9248759     
  -40055582.7422093     
  -40052219.3519530     
  -40048729.1283391     
  -40045123.8485706     
  -40078814.0530846     
  -40078158.9746460     
  -40077123.9103477     
  -40075739.6477493     
  -40074035.9210938     
  -40072041.2270988     
  -40069782.6856667     
  -40067285.7781560     
  -40064574.7627007     
  -40061672.4354524     
  -40058599.7798373     
  -40055375.8387466     
  -40052017.5052569     
  -40048539.2564763     
  -40044952.7856557     
  -40078798.5624430     
  -40078124.2738212     
  -40077053.6101379     
  -40075622.6995309     
  -40073866.2202246     
  -40071817.1665488     
  -40069506.5446094     
  -40066963.1194772     
  -40064213.9592049     
  -40061283.8994912     
  -40058195.4904607     
  -40054968.8274295     
  -40051621.4139961     
  -40048167.9369833     
  -40044619.9316830     
  -40078775.2667477     
  -40078072.6751129     
  -40076949.4834640     
  -40075449.7861410     
  -40073615.5798737     
  -40071486.4638750     
  -40069099.4834842     
  -40066488.3419326     
  -40063683.9135318     
  -40060714.2191324     
  -40057604.1339024     
  -40054375.3579859     
  -40051046.3446932     
  -40047632.1114960     
  -40044143.9450558     
  -40078744.1417641     
  -40078004.8222508     
  -40076813.3035874     
  -40075224.2070031     
  -40073289.2388048     
  -40071056.6342367     
  -40068571.0833807     
  -40065873.0173550     
  -40062998.4257607     
  -40059979.4323691     
  -40056844.0103816     
  -40053616.0535069     
  -40050315.3058814     
  -40046957.2695400     
  -40043552.9074681     
  -40078705.2307271     
  -40077921.7214774     
  -40076647.7080657     
  -40074950.7474639     
  -40072894.4218665     
  -40070537.7720725     
  -40067934.4433981     
  -40065133.1092107     
  -40062176.4115503     
  -40059101.3315100     
  -40055939.8865071     
  -40052718.7032330     
  -40049459.2090231     
  -40046177.5691665     
  -40042884.4329994     
  -40078658.7212288     
  -40077824.8937329     
  -40076456.4141254     
  -40074635.9603418     
  -40072440.9973993     
  -40069942.8104792     
  -40067206.3969056     
  -40064289.5149854     
  -40061242.1072413     
  -40058107.8642918     
  -40054923.3137862     
  -40051718.5374772     
  -40048517.1180369     
  -40045336.1438033     
  -40042185.9367422     
  -40078605.1477957     
  -40077716.4490031     
  -40076244.4291317     
  -40074288.6065157     
  -40071941.8991772     
  -40069289.6524197     
  -40066408.6848614     
  -40063367.7279448     
  -40060225.9239081     
  -40057033.5384913     
  -40053832.9965367     
  -40050658.5621064     
  -40047536.6048466     
  -40044485.4322972     
  -40041515.0124244     
  -40078544.8904246     
  -40077599.3039209     
  -40076018.3982888     
  -40073919.9657966     
  -40071413.6589212     
  -40068599.8260114     
  -40065568.9300386     
  -40062400.5665346     
  -40059164.5676936     
  -40055919.8385451     
  -40052715.1369459     
  -40049590.0339791     
  -40046574.2565061     
  -40043687.6666150     
  -40040939.8972940     
  -40078479.4150636     
  -40077477.3152388     
  -40075786.7861035     
  -40073544.1372368     
  -40070876.3198225     
  -40067899.5180091     
  -40064718.1932323     
  -40061425.2165260     
  -40058101.5142849     
  -40054815.3042110     
  -40051624.0364197     
  -40048573.0951629     
  -40045696.3543534     
  -40043015.5989850     
  -40040540.0720133     
  -40078410.4798939     
  -40077355.6206476     
  -40075560.0389807     
  -40073178.0867557     
  -40070353.7950617     
  -40067219.4094238     
  -40063894.5222166     
  -40060485.6795661     
  -40057086.2830733     
  -40053776.5515605     
  -40050622.7362302     
  -40047677.5453773     
  -40044979.7800924     
  -40042553.3282632     
  -40040406.9198979     
  -40078340.4411360     
  -40077240.3258572     
  -40075350.5342376     
  -40072841.6137864     
  -40069873.6875831     
  -40066594.9346003     
  -40063140.5533200     
  -40059632.1804751     
  -40056177.1542577     
  -40052868.5402055     
  -40049783.6597380     
  -40046983.9347913     
  -40044513.0981441     
  -40042397.2414481     
  -40040644.2100349     
  -40078272.4216360     
  -40077138.4777962     
  -40075172.1500910     
  -40072556.8491639     
  -40069466.7580996     
  -40066065.2844691     
  -40062503.7295319     
  -40058920.0003202     
  -40055437.9277909     
  -40052164.7238636     
  -40049190.1382073     
  -40046584.7154654     
  -40044397.7827913     
  -40042656.8235044     
  -40041368.1153263     
  -40078210.1959724     
  -40077057.8339007     
  -40075039.6096592     
  -40072347.1735295     
  -40069165.7238070     
  -40065672.7309108     
  -40062036.0369731     
  -40058411.6761671     
  -40054941.1354779     
  -40051748.7909175     
  -40048937.2786580     
  -40046585.9094518     
  -40044749.3481131     
  -40043454.9605815     
  -40042706.3213622     
  -40078158.0399021     
  -40077006.1650273     
  -40074967.3691877     
  -40072235.7828994     
  -40069003.8806468     
  -40065461.4989868     
  -40061793.4400673     
  -40058175.3481013     
  -40054768.6946333     
  -40051715.6247686     
  -40049133.5212886     
  -40047108.9411939     
  -40045697.9778852     
  -40044927.3673377     
  -40044795.7161515     
  -40078120.4116321     
  -40076990.3465410     
  -40074967.9498035     
  -40072243.6812641     
  -40069013.1685278     
  -40065476.6350809     
  -40061835.5727728     
  -40058286.6052813     
  -40055013.0389187     
  -40052175.3494450     
  -40049903.3504116     
  -40048290.2436971     
  -40047389.1023793     
  -40047220.1440370     
  -40047778.0780386     
  -40078101.4960083     
  -40077015.2883359     
  -40075050.0059794     
  -40072387.3440471     
  -40069222.2128823     
  -40065762.7380924     
  -40062226.3228640     
  -40058830.7233478     
  -40055780.9849453     
  -40053255.1104413     
  -40051391.6951416     
  -40050283.7890933     
  -40049979.0523410     
  -40050486.2345574     
  -40051792.4246743     
  -40078104.8351059     
  -40077082.7520951     
  -40075216.6303507     
  -40072676.7430536     
  -40069654.6641209     
  -40066363.7836075     
  -40063035.1389458     
  -40059905.4801004     
  -40057198.6063456     
  -40055104.6628610     
  -40053764.2492083     
  -40053262.2573554     
  -40053633.7228541     
  -40054876.0147842     
  -40056967.5196183     
  -40078132.0997738     
  -40077190.9273406     
  -40075464.6950873     
  -40073114.6698274     
  -40070328.8999013     
  -40067324.1632873     
  -40064340.7967826     
  -40061627.4968046     
  -40059417.0818208     
  -40057900.3406089     
  -40057208.2954716     
  -40057409.4600460     
  -40058520.9997493     
  -40060529.3639391     
  -40063409.5726713     
  -40078184.7959367     
  -40077333.9452093     
  -40075786.2839017     
  -40073698.5376252     
  -40071260.5274560     
  -40068692.9935586     
  -40066238.1227366     
  -40064140.7841649     
  -40062621.0752194     
  -40061849.0734076     
  -40061931.1866420     
  -40062913.3549739     
  -40064797.6440567     
  -40067564.2906221     
  -40071192.1679000     
  -40078261.1459754     
  -40077507.9639973     
  -40076172.0342019     
  -40074425.7508545     
  -40072470.7117674     
  -40070534.3118317     
  -40068849.7779145     
  -40067627.2388620     
  -40067034.4765245     
  -40067187.2694151     
  -40068152.1758774     
  -40069955.5813742     
  -40072596.8631707     
  -40076064.1360342     
  -40080350.1587025     
  -40078366.2940550     
  -40077712.7819769     
  -40076623.2321005     
  -40075306.7597006     
  -40074002.5089590     
  -40072949.0392950     
  -40072344.2664171     
  -40072315.4014227     
  -40072917.0973555     
  -40074168.8106377     
  -40076087.5105766     
  -40078696.6925611     
  -40082019.1019594     
  -40086072.1425569     
  -40090874.2705840     
  -40078497.8971188     
  -40077949.4482287     
  -40077155.2428787     
  -40076391.3567336     
  -40075959.3913583     
  -40076109.8559917     
  -40076960.7047025     
  -40078478.2393323     
  -40080541.4158873     
  -40083036.6004018     
  -40085929.0222978     
  -40089265.2111784     
  -40093127.7365597     
  -40097592.3867985     
  -40102715.9435999     
  -40078656.5660991     
  -40078220.3604564     
  -40077801.0074544     
  -40077790.6866230     
  -40078560.9427940     
  -40080321.5928658     
  -40083024.9067309     
  -40086407.7953312     
  -40090141.7581787     
  -40093976.0958076     
  -40097820.1971579     
  -40101754.4768095     
  -40105956.3262859     
  -40110598.2895918     
  -40115796.7721433     
  -40078841.5183689     
  -40078542.8464054     
  -40078651.5998947     
  -40079738.2118373     
  -40082202.6979880     
  -40086054.1439166     
  -40090938.3830150     
  -40096358.9369507     
  -40101848.2697229     
  -40107059.4783810     
  -40111829.5777291     
  -40116228.3963544     
  -40120530.6881967     
  -40125055.5413095     
  -40130024.4888576     
  -40079051.5829949     
  -40078963.1122700     
  -40079934.9138419     
  -40082728.3341151     
  -40087533.5262149     
  -40093882.6771435     
  -40101074.7929156     
  -40108488.8965674     
  -40115651.7198765     
  -40122206.2170069     
  -40127911.2340474     
  -40132723.6810660     
  -40136903.2698252     
  -40140960.7416986     
  -40145314.5496750     
  -40079284.4109996     
  -40079642.8067533     
  -40082219.5824629     
  -40087681.4512150     
  -40095389.2403690     
  -40104311.3340401     
  -40113634.3770919     
  -40122805.2157281     
  -40131433.2985932     
  -40139213.3033392     
  -40145872.7050553     
  -40151188.4613322     
  -40155195.4978354     
  -40158396.2062748     
  -40161638.2033108     
  -40079608.9950297     
  -40081151.1570828     
  -40086870.0485353     
  -40095833.8289718     
  -40106418.2985498     
  -40117544.6766947     
  -40128595.2097606     
  -40139180.0927215     
  -40149015.7751224     
  -40157852.4941066     
  -40165425.5405069     
  -40171414.6069830     
  -40175452.8862656     
  -40177696.8020942     
  -40179049.7750711     
  -40080376.8755612     
  -40085760.9040484     
  -40095831.8368582     
  -40107967.6440173     
  -40120726.9838113     
  -40133455.4538927     
  -40145775.7228327     
  -40157434.3118500     
  -40168224.5745105     
  -40177941.1935654     
  -40186337.7806894     
  -40193068.4214162     
  -40197603.2820377     
  -40199016.6809133     
  -40198220.3276474     
  -40086688.0156464     
  -40096730.1219047     
  -40109917.4932880     
  -40123936.3687394     
  -40138024.3952373     
  -40151782.3420115     
  -40164968.1896896     
  -40177402.8726180     
  -40188926.1469443     
  -40199363.7800427     
  -40208490.9464502     
  -40215975.4532630     
  -40221253.2978309     
  -40223241.2183756     
  -40218442.5605260     
SCALARS 2waySource double 
LOOKUP_TABLE default
 -3.372011045729775E-013
 -3.379208625552452E-013
 -3.383538598289155E-013
 -3.384330870911411E-013
 -3.381449281102710E-013
 -3.375097917701918E-013
 -3.364415442070703E-013
 -3.349079038535136E-013
 -3.328749781608939E-013
 -3.303126439558015E-013
 -3.271736404466593E-013
 -3.234454939697722E-013
 -3.190995187497085E-013
 -3.141061674910532E-013
 -3.084447113777003E-013
 -3.358721826804695E-013
 -3.365983105120591E-013
 -3.370881193727462E-013
 -3.372570863799351E-013
 -3.369824750502496E-013
 -3.364011190630908E-013
 -3.354147057209551E-013
 -3.339466874766495E-013
 -3.319855241299817E-013
 -3.295035708337424E-013
 -3.264405937922027E-013
 -3.227843593732911E-013
 -3.185045649953592E-013
 -3.135751345451221E-013
 -3.079772496117553E-013
 -3.335731245335134E-013
 -3.343564043925121E-013
 -3.349014515122723E-013
 -3.351548590395374E-013
 -3.349843635667160E-013
 -3.344892384891024E-013
 -3.336233885531711E-013
 -3.322789820942833E-013
 -3.304420749914932E-013
 -3.280674527884730E-013
 -3.251263782744420E-013
 -3.215884129377884E-013
 -3.174213483856030E-013
 -3.126064176424098E-013
 -3.071131479063641E-013
 -3.303783009092418E-013
 -3.312085513238068E-013
 -3.318106019899170E-013
 -3.321159459131916E-013
 -3.321549937112865E-013
 -3.317819037280886E-013
 -3.310779719598761E-013
 -3.298915863206051E-013
 -3.282304478238232E-013
 -3.260232065074934E-013
 -3.232428607519008E-013
 -3.198674877376387E-013
 -3.158579413015576E-013
 -3.111952579148289E-013
 -3.058436049273330E-013
 -3.262498009939846E-013
 -3.271634338552889E-013
 -3.278602369481338E-013
 -3.283073858863988E-013
 -3.284545476280641E-013
 -3.282998641043272E-013
 -3.277887837618821E-013
 -3.268204344454673E-013
 -3.253562458699273E-013
 -3.233627299134754E-013
 -3.207981010546010E-013
 -3.176241511876803E-013
 -3.138132434225783E-013
 -3.093349221025676E-013
 -3.041682367559978E-013
 -3.211789673405889E-013
 -3.222219728993665E-013
 -3.230465193323715E-013
 -3.236190260661236E-013
 -3.239880094200116E-013
 -3.240659290594012E-013
 -3.237631845323453E-013
 -3.230508282926554E-013
 -3.218504914764906E-013
 -3.201084656744523E-013
 -3.177985764965786E-013
 -3.148587529163444E-013
 -3.112827346812380E-013
 -3.070245658307567E-013
 -3.020691207917503E-013
 -3.152870534240824E-013
 -3.163716399939393E-013
 -3.173318285649706E-013
 -3.181046648515311E-013
 -3.186784020109064E-013
 -3.190283315163667E-013
 -3.190367120913575E-013
 -3.186128726595021E-013
 -3.176979871268422E-013
 -3.162556252261257E-013
 -3.142269060649898E-013
 -3.115787551365207E-013
 -3.082582833039952E-013
 -3.042488933060502E-013
 -2.995296518161520E-013
 -3.085015520312853E-013
 -3.096458329411983E-013
 -3.108009443754340E-013
 -3.117850289266335E-013
 -3.126277731832327E-013
 -3.132780863550507E-013
 -3.135883486177681E-013
 -3.135056729667545E-013
 -3.129287359785827E-013
 -3.118082041932747E-013
 -3.101074085429196E-013
 -3.077647133550036E-013
 -3.047328657950290E-013
 -3.009959941916522E-013
 -2.965272763333962E-013
 -3.008615909492679E-013
 -3.021137775994320E-013
 -3.034264025557526E-013
 -3.046602324822608E-013
 -3.058046606422696E-013
 -3.067932468848167E-013
 -3.074620367961033E-013
 -3.077372924074913E-013
 -3.075382990958437E-013
 -3.067856516631235E-013
 -3.054293127984681E-013
 -3.034129255460802E-013
 -3.006945592664486E-013
 -2.972403214109469E-013
 -2.930317603422978E-013
 -2.924004228622152E-013
 -2.937482222281350E-013
 -2.952376383426044E-013
 -2.967535625613155E-013
 -2.982315768674852E-013
 -2.995832873635682E-013
 -3.006404641939833E-013
 -3.013208821631346E-013
 -3.015192611070656E-013
 -3.011631541061518E-013
 -3.001800389341870E-013
 -2.985104542267922E-013
 -2.961142346317335E-013
 -2.929513896109918E-013
 -2.890052031183568E-013
 -2.831516249805548E-013
 -2.845820172167489E-013
 -2.862680930164521E-013
 -2.880732195178022E-013
 -2.899295179408902E-013
 -2.916448143776777E-013
 -2.931391436662780E-013
 -2.942468308148555E-013
 -2.948736980437058E-013
 -2.949343747323075E-013
 -2.943391655150951E-013
 -2.930305411721072E-013
 -2.909586689029104E-013
 -2.880890974259987E-013
 -2.843966464383030E-013
 -2.731002385882757E-013
 -2.746204859912253E-013
 -2.765473812222121E-013
 -2.787084324360976E-013
 -2.808863142168579E-013
 -2.830085337046666E-013
 -2.849261708381464E-013
 -2.865087158470214E-013
 -2.875866260875621E-013
 -2.880611568713133E-013
 -2.878700795026478E-013
 -2.869320955233600E-013
 -2.851867540762000E-013
 -2.826023929500407E-013
 -2.791509616398719E-013
 -2.623020435322153E-013
 -2.639213267607584E-013
 -2.660913574861100E-013
 -2.685549348461834E-013
 -2.710966138041881E-013
 -2.736665536026162E-013
 -2.760694358096294E-013
 -2.780758348451686E-013
 -2.796112825565516E-013
 -2.805294238353161E-013
 -2.807367688384899E-013
 -2.801637625875238E-013
 -2.787341808304998E-013
 -2.764224890418966E-013
 -2.731961760417011E-013
 -2.507885832386500E-013
 -2.525061904848258E-013
 -2.548805133284970E-013
 -2.576495406041403E-013
 -2.605520072444271E-013
 -2.635543966623208E-013
 -2.664119850224869E-013
 -2.689062571697854E-013
 -2.709022359328203E-013
 -2.722555108986432E-013
 -2.728713250464993E-013
 -2.726531435172603E-013
 -2.715332109098849E-013
 -2.694711870579225E-013
 -2.664462620137073E-013
 -2.385798701217057E-013
 -2.403746932447655E-013
 -2.429103286819461E-013
 -2.459972314645634E-013
 -2.492786563764423E-013
 -2.526949843841018E-013
 -2.559695141028820E-013
 -2.589541627903324E-013
 -2.613800513221157E-013
 -2.631987830648192E-013
 -2.641949096185948E-013
 -2.643133491625047E-013
 -2.634831390162323E-013
 -2.616521440983233E-013
 -2.588038528729937E-013
 -2.256897031843224E-013
 -2.275870709683938E-013
 -2.302281567897249E-013
 -2.335954182734800E-013
 -2.371607052267656E-013
 -2.409859821125191E-013
 -2.447038229022648E-013
 -2.481058963746347E-013
 -2.509709987128730E-013
 -2.532001957311194E-013
 -2.545828355509013E-013
 -2.550333543613997E-013
 -2.544665735014218E-013
 -2.528548468927925E-013
 -2.501643070890789E-013
 -2.121592531857607E-013
 -2.140858140427952E-013
 -2.168839220028297E-013
 -2.203733385968138E-013
 -2.242873954308700E-013
 -2.284341916878518E-013
 -2.325579032802670E-013
 -2.362932533855809E-013
 -2.396096559122488E-013
 -2.421984331572526E-013
 -2.439030916887199E-013
 -2.445992760849683E-013
 -2.443031650686288E-013
 -2.428936239495216E-013
 -2.403665073908437E-013
 -1.980934301533699E-013
 -2.000093340693333E-013
 -2.028452227380575E-013
 -2.064022747172694E-013
 -2.105039853919377E-013
 -2.148613364816788E-013
 -2.193297917327449E-013
 -2.234447834523623E-013
 -2.270757859560980E-013
 -2.299910689209457E-013
 -2.320231051112451E-013
 -2.330385626270685E-013
 -2.329440863244464E-013
 -2.317029410169306E-013
 -2.293583425680605E-013
 -1.834517625847536E-013
 -1.853148823667828E-013
 -1.881063838089286E-013
 -1.916923808724051E-013
 -1.958390215923789E-013
 -2.003141562059819E-013
 -2.049600712747212E-013
 -2.093101080613420E-013
 -2.132010937714333E-013
 -2.163864113094993E-013
 -2.186902051129863E-013
 -2.199563932328073E-013
 -2.201445531399876E-013
 -2.191947914791910E-013
 -2.170380709884061E-013
 -1.683196131433610E-013
 -1.701243660566719E-013
 -1.727706812914630E-013
 -1.761615154601090E-013
 -1.802235739050597E-013
 -1.846397134354709E-013
 -1.892600918465972E-013
 -1.937342125248079E-013
 -1.977646431372433E-013
 -2.011366927023847E-013
 -2.036543824157809E-013
 -2.052019521187157E-013
 -2.056918682026635E-013
 -2.050782328685819E-013
 -2.033324264595761E-013
 -1.526937377977557E-013
 -1.543988777765124E-013
 -1.568526134454635E-013
 -1.599632716842645E-013
 -1.636972627313942E-013
 -1.678892976457692E-013
 -1.722351012379147E-013
 -1.765095928511444E-013
 -1.804920750651088E-013
 -1.839376400422180E-013
 -1.866482020193898E-013
 -1.885176168507572E-013
 -1.894035204586147E-013
 -1.892707861758189E-013
 -1.880553593960793E-013
 -1.366663160646842E-013
 -1.382353066078820E-013
 -1.403896046250759E-013
 -1.431145119400501E-013
 -1.462956693697459E-013
 -1.498641492489576E-013
 -1.536570175839371E-013
 -1.574149334946971E-013
 -1.610808474946882E-013
 -1.644609801897862E-013
 -1.673630661213883E-013
 -1.696235644905746E-013
 -1.710786271172998E-013
 -1.716520707659910E-013
 -1.712195865264576E-013
 -1.202496752588767E-013
 -1.216919358260152E-013
 -1.235217095710382E-013
 -1.256800733542738E-013
 -1.280939039693305E-013
 -1.306515045616055E-013
 -1.334202077292239E-013
 -1.362288469662920E-013
 -1.392228071656106E-013
 -1.423641040091904E-013
 -1.454636655356471E-013
 -1.482574685344455E-013
 -1.505014278037289E-013
 -1.521146297050837E-013
 -1.528201524292700E-013
 -1.035264140755888E-013
 -1.048587886857668E-013
 -1.063204953069103E-013
 -1.077508064115449E-013
 -1.090643446530338E-013
 -1.101833044944381E-013
 -1.113849745185439E-013
 -1.127616079878775E-013
 -1.146965105593320E-013
 -1.173673508251937E-013
 -1.206608858371983E-013
 -1.240996857261906E-013
 -1.275964921066300E-013
 -1.305608345394337E-013
 -1.328667701630785E-013
 -8.656064987659487E-014
 -8.784514433892940E-014
 -8.884031346959243E-014
 -8.932894144936848E-014
 -8.908208735546582E-014
 -8.829012305648627E-014
 -8.739579383456616E-014
 -8.695631924685932E-014
 -8.747633742475451E-014
 -8.935770393909774E-014
 -9.266890773802628E-014
 -9.698461851264315E-014
 -1.019901897743878E-013
 -1.068876902409978E-013
 -1.112498770662020E-013
 -6.953749632195016E-014
 -7.071571653343845E-014
 -7.108783333244953E-014
 -7.014809268263297E-014
 -6.780829264577400E-014
 -6.462419027885281E-014
 -6.140582645766508E-014
 -5.891157785175965E-014
 -5.782725575604635E-014
 -5.854787747877083E-014
 -6.151250128937844E-014
 -6.653482042563832E-014
 -7.337790821035019E-014
 -8.083280172558630E-014
 -8.808357268302809E-014
 -5.240275148678491E-014
 -5.358066644924127E-014
 -5.280623705093378E-014
 -4.960967201061287E-014
 -4.452462369568663E-014
 -3.883138562053426E-014
 -3.343725115302405E-014
 -2.903704325767113E-014
 -2.627058084655847E-014
 -2.556005766186056E-014
 -2.760362273221953E-014
 -3.279085665022899E-014
 -4.136902343177583E-014
 -5.208446555123194E-014
 -6.337500725130428E-014
 -3.552253254577182E-014
 -3.624853534931301E-014
 -3.309462900045216E-014
 -2.634853514703117E-014
 -1.853964669012804E-014
 -1.069302001330070E-014
 -3.571017651544683E-015
  2.365848620695695E-015
  6.581504380634156E-015
  8.702026678715619E-015
  8.006559915411565E-015
  3.600808499362803E-015
 -5.473454058376373E-015
 -1.987572627086183E-014
 -3.696485265841208E-014
 -1.899951516603266E-014
 -1.761853464123189E-014
 -9.181464453451512E-015
  5.953945087852761E-016
  1.044230148213132E-014
  1.965580295936595E-014
  2.793583118362309E-014
  3.492430731257041E-014
  4.027625684397176E-014
  4.349700482579216E-014
  4.396406315440835E-014
  4.092937010014935E-014
  3.298054289559408E-014
  1.752559824742433E-014
 -8.996865252588286E-015
 -3.172387175755124E-015
  8.885520087467175E-015
  2.036161612000011E-014
  3.142674870279924E-014
  4.212728789415677E-014
  5.201402725350799E-014
  6.087513221921275E-014
  6.842756215463239E-014
  7.431991331578624E-014
  7.813267816018591E-014
  7.934034552345962E-014
  7.726045314492410E-014
  7.059940349515168E-014
  5.689562084007941E-014
  2.614882659332481E-014
SCALARS poroP double 
LOOKUP_TABLE default
  1.813679531315783E-005
  1.814453996529433E-005
  1.814783078621584E-005
  1.814660200902159E-005
  1.814075802827634E-005
  1.813018842599401E-005
  1.811477626047034E-005
  1.809441205974380E-005
  1.806901047519686E-005
  1.803851343770269E-005
  1.800289626422959E-005
  1.796217400613246E-005
  1.791640719776217E-005
  1.786570675493045E-005
  1.781023715139663E-005
  1.813510796048098E-005
  1.814284572402438E-005
  1.814613620402573E-005
  1.814491652046682E-005
  1.813909423665275E-005
  1.812856249645404E-005
  1.811320927147777E-005
  1.809292713757946E-005
  1.806763086497289E-005
  1.803726338187355E-005
  1.800179994894890E-005
  1.796125479593529E-005
  1.791568715013249E-005
  1.786520636106250E-005
  1.780997538641399E-005
  1.813171284892677E-005
  1.813943648521101E-005
  1.814272698472339E-005
  1.814152711425668E-005
  1.813575096513581E-005
  1.812529850878607E-005
  1.811006611754604E-005
  1.808995083202008E-005
  1.806486849579845E-005
  1.803476348581600E-005
  1.799961049964015E-005
  1.795942203270307E-005
  1.791425475337370E-005
  1.786421500904761E-005
  1.780946259301940E-005
  1.812656869665367E-005
  1.813427052427204E-005
  1.813756314854199E-005
  1.813639740398359E-005
  1.813069703096134E-005
  1.812037227671029E-005
  1.810532857978880E-005
  1.808547068893513E-005
  1.806071788227009E-005
  1.803101462158672E-005
  1.799633442003915E-005
  1.795668701585779E-005
  1.791212529090498E-005
  1.786275120185531E-005
  1.780872004480442E-005
  1.811961261335531E-005
  1.812728473486765E-005
  1.813058476367159E-005
  1.812947350533090E-005
  1.812388643711676E-005
  1.811374522859362E-005
  1.809896808843475E-005
  1.807946991881059E-005
  1.805517202832814E-005
  1.802601872816211E-005
  1.799198155873648E-005
  1.795306646359841E-005
  1.790932133309151E-005
  1.786084246531402E-005
  1.780777970481429E-005
  1.811075930822511E-005
  1.811839423480910E-005
  1.812171187870710E-005
  1.812068388429031E-005
  1.811525890734557E-005
  1.810537046079584E-005
  1.809095091741543E-005
  1.807192756310271E-005
  1.804822268898483E-005
  1.801977879180392E-005
  1.798656492052852E-005
  1.794858216563112E-005
  1.790587227817356E-005
  1.785852511881021E-005
  1.780668434848576E-005
  1.809990055550529E-005
  1.810749233166129E-005
  1.811084508005894E-005
  1.810994066281492E-005
  1.810474108271020E-005
  1.809519384867903E-005
  1.808124029233271E-005
  1.806282006459904E-005
  1.803986052867642E-005
  1.801229873048554E-005
  1.798010040363943E-005
  1.794326044606250E-005
  1.790181380585279E-005
  1.785584366393298E-005
  1.780548732363158E-005
  1.808690647936459E-005
  1.809445155753884E-005
  1.809786701834830E-005
  1.809714192383099E-005
  1.809224998369546E-005
  1.808315057150490E-005
  1.806979290532830E-005
  1.805212322547881E-005
  1.803007547777396E-005
  1.800358367521038E-005
  1.797260604956047E-005
  1.793713103234110E-005
  1.789718683229141E-005
  1.785285023846358E-005
  1.780425277297296E-005
  1.807162851637213E-005
  1.807912681239000E-005
  1.808264498974390E-005
  1.808217401742924E-005
  1.807769374806645E-005
  1.806917126956093E-005
  1.805655868524510E-005
  1.803980696273803E-005
  1.801885734553150E-005
  1.799363834555116E-005
  1.796410000829885E-005
  1.793022521582209E-005
  1.789203622666840E-005
  1.784960421397013E-005
  1.780305606046200E-005
  1.805389876477236E-005
  1.806135949300038E-005
  1.806503592433302E-005
  1.806491444863945E-005
  1.806097378977580E-005
  1.805318108496229E-005
  1.804148908663407E-005
  1.802584388632877E-005
  1.800619200224393E-005
  1.798246313281686E-005
  1.795459739748726E-005
  1.792257369904747E-005
  1.788640949899054E-005
  1.784617181738098E-005
  1.780198410119762E-005
  1.803354134783071E-005
  1.804098192312740E-005
  1.804489150673425E-005
  1.804523716230416E-005
  1.804198768308137E-005
  1.803510183703499E-005
  1.802452625153604E-005
  1.801019754401794E-005
  1.799205918377278E-005
  1.797005004316517E-005
  1.794410741694421E-005
  1.791420391786710E-005
  1.788035535351934E-005
  1.784262593058298E-005
  1.780113595755910E-005
  1.801038656279830E-005
  1.801783021232512E-005
  1.802206452184148E-005
  1.802301740605356E-005
  1.802063186313181E-005
  1.801484923420010E-005
  1.800560201213765E-005
  1.799281545136487E-005
  1.797642410984939E-005
  1.795637966315277E-005
  1.793262805775193E-005
  1.790513693228202E-005
  1.787392253174714E-005
  1.783904623663213E-005
  1.780062328072206E-005
  1.798428777293280E-005
  1.799176063352742E-005
  1.799642094376951E-005
  1.799813564913942E-005
  1.799680182996505E-005
  1.799232979166119E-005
  1.798463255601678E-005
  1.797362563651071E-005
  1.795923440311532E-005
  1.794141515688765E-005
  1.792014037525146E-005
  1.789538460158840E-005
  1.786715900035867E-005
  1.783551982571705E-005
  1.780057048237688E-005
  1.795514450635362E-005
  1.796266755862021E-005
  1.796785402318842E-005
  1.797048469713746E-005
  1.797039114476257E-005
  1.796743749291861E-005
  1.796151179659038E-005
  1.795252184804759E-005
  1.794039610834734E-005
  1.792509267964140E-005
  1.790660852413894E-005
  1.788494678527915E-005
  1.786011212509091E-005
  1.783214196714695E-005
  1.780111411160852E-005
  1.792293029531138E-005
  1.793050543017661E-005
  1.793629817668529E-005
  1.793997778438449E-005
  1.794129131293928E-005
  1.794004612218971E-005
  1.793610079098797E-005
  1.792935992859858E-005
  1.791976842447549E-005
  1.790730392554483E-005
  1.789197556456125E-005
  1.787381389518184E-005
  1.785282879852326E-005
  1.782901629454583E-005
  1.780240072879461E-005
  1.788772270691547E-005
  1.789531259622039E-005
  1.790174434359354E-005
  1.790655520901858E-005
  1.790939305324162E-005
  1.791000259620831E-005
  1.790821655030326E-005
  1.790394570367600E-005
  1.789716399392021E-005
  1.788788727861802E-005
  1.787614714067887E-005
  1.786197042311020E-005
  1.784535801747142E-005
  1.782625357013614E-005
  1.780458195733367E-005
  1.784973125975858E-005
  1.785723409620237E-005
  1.786425539089824E-005
  1.787019158688698E-005
  1.787458668754648E-005
  1.787712542680861E-005
  1.787762605757338E-005
  1.787602376481708E-005
  1.787234052349064E-005
  1.786664179448920E-005
  1.785898613068340E-005
  1.784937943135072E-005
  1.783775516792530E-005
  1.782396803710976E-005
  1.780780592495977E-005
  1.780931770064037E-005
  1.781653877109996E-005
  1.782397969551161E-005
  1.783090491723148E-005
  1.783676599438671E-005
  1.784120417724902E-005
  1.784404663586731E-005
  1.784528078333926E-005
  1.784500001878908E-005
  1.784332746703649E-005
  1.784033448856226E-005
  1.783597572445377E-005
  1.783005868232295E-005
  1.782226911732153E-005
  1.781220292149604E-005
  1.776699752864677E-005
  1.777362582201565E-005
  1.778116083652400E-005
  1.778876723317615E-005
  1.779583782784737E-005
  1.780200741507313E-005
  1.780715429976671E-005
  1.781135771448334E-005
  1.781480657927722E-005
  1.781767796498126E-005
  1.782002107563610E-005
  1.782167991339445E-005
  1.782227220612120E-005
  1.782122870780127E-005
  1.781787116810968E-005
  1.772343804913164E-005
  1.772901527798618E-005
  1.773613756184444E-005
  1.774391485242648E-005
  1.775173756732989E-005
  1.775930375018091E-005
  1.776661171299435E-005
  1.777388430058750E-005
  1.778142114359101E-005
  1.778942488924189E-005
  1.779786004675313E-005
  1.780638295778512E-005
  1.781434456202037E-005
  1.782084717975972E-005
  1.782484924671450E-005
  1.767942302362248E-005
  1.768333406729064E-005
  1.768933391159483E-005
  1.769655029551163E-005
  1.770445022196383E-005
  1.771290156798527E-005
  1.772212745342046E-005
  1.773254869666585E-005
  1.774456209414348E-005
  1.775832927183677E-005
  1.777364507538223E-005
  1.778990183770423E-005
  1.780612024742261E-005
  1.782101396082527E-005
  1.783309101681932E-005
  1.763570679683680E-005
  1.763724129660644E-005
  1.764124066463728E-005
  1.764693961108021E-005
  1.765403396130726E-005
  1.766271963444995E-005
  1.767356302632537E-005
  1.768721141936090E-005
  1.770408858668255E-005
  1.772420970422648E-005
  1.774712277061136E-005
  1.777191952593579E-005
  1.779726886868603E-005
  1.782145532708644E-005
  1.784244564142340E-005
  1.759301558758215E-005
  1.759131210581729E-005
  1.759229676832896E-005
  1.759538226784055E-005
  1.760067058527716E-005
  1.760890731513649E-005
  1.762110289773087E-005
  1.763805979059649E-005
  1.766008679493336E-005
  1.768695198182409E-005
  1.771794607051536E-005
  1.775191077745790E-005
  1.778720749364457E-005
  1.782167516115184E-005
  1.785263680529783E-005
  1.755199504595054E-005
  1.754600468295646E-005
  1.754279261053644E-005
  1.754211121536360E-005
  1.754471708137379E-005
  1.755204722603532E-005
  1.756547785273959E-005
  1.758575776711581E-005
  1.761292443540161E-005
  1.764649812794392E-005
  1.768563121868912E-005
  1.772908016849456E-005
  1.777503013848851E-005
  1.782090085493546E-005
  1.786325045371809E-005
  1.751310910283378E-005
  1.750154507942011E-005
  1.749280890611300E-005
  1.748733329496972E-005
  1.748684940674848E-005
  1.749336246515775E-005
  1.750813057505049E-005
  1.753150248322830E-005
  1.756324842472280E-005
  1.760284848324888E-005
  1.764957308716570E-005
  1.770235796598437E-005
  1.775946730997104E-005
  1.781802569537087E-005
  1.787371145601461E-005
  1.747654823477824E-005
  1.745776897800706E-005
  1.744218139577536E-005
  1.743149701391526E-005
  1.742845405719901E-005
  1.743483539969987E-005
  1.745105182382689E-005
  1.747686361149693E-005
  1.751197060165413E-005
  1.755615741309096E-005
  1.760917984790194E-005
  1.767051123156879E-005
  1.773888966830847E-005
  1.781154340846873E-005
  1.788325427628308E-005
  1.744206985607008E-005
  1.741403119478107E-005
  1.739084357036594E-005
  1.737598808607452E-005
  1.737192250453290E-005
  1.737889879000827E-005
  1.739624432439785E-005
  1.742340196278509E-005
  1.746023516829184E-005
  1.750700493614251E-005
  1.756422167204760E-005
  1.763238882209014E-005
  1.771142232528786E-005
  1.779942438536785E-005
  1.789085397066910E-005
  1.740881508888493E-005
  1.736955390489505E-005
  1.734027699766164E-005
  1.732381390192537E-005
  1.732000696809720E-005
  1.732746422163972E-005
  1.734508253991991E-005
  1.737236245193323E-005
  1.740935995464714E-005
  1.745667489592385E-005
  1.751548502333689E-005
  1.758754025127183E-005
  1.767504662527466E-005
  1.777907560762238E-005
  1.789502615133422E-005
  1.737495162610706E-005
  1.732653926711611E-005
  1.729484161048904E-005
  1.727811902881642E-005
  1.727414743558635E-005
  1.728113529353575E-005
  1.729809103584616E-005
  1.732459129615039E-005
  1.736071882563800E-005
  1.740713059138798E-005
  1.746526094204147E-005
  1.753770382608554E-005
  1.762877212180479E-005
  1.774598196331596E-005
  1.789360427734297E-005
  1.734788081230836E-005
  1.729239765468324E-005
  1.725755634346488E-005
  1.723925281996225E-005
  1.723392411255095E-005
  1.723966695218084E-005
  1.725543196214423E-005
  1.728073093744791E-005
  1.731555831571918E-005
  1.736046653854160E-005
  1.741681495037251E-005
  1.748732464351360E-005
  1.757734456940133E-005
  1.769778349098116E-005
  1.787982583956998E-005
SCALARS elementIsPlast double 
LOOKUP_TABLE default
   1.00000000000000     
   1.00000000000000     
   1.00000000000000     
   1.00000000000000     
   1.00000000000000     
   1.00000000000000     
   1.00000000000000     
   1.00000000000000     
   1.00000000000000     
   1.00000000000000     
   1.00000000000000     
   1.00000000000000     
   1.00000000000000     
   1.00000000000000     
   1.00000000000000     
   1.00000000000000     
   1.00000000000000     
   1.00000000000000     
   1.00000000000000     
   1.00000000000000     
   1.00000000000000     
   1.00000000000000     
   1.00000000000000     
   1.00000000000000     
   1.00000000000000     
   1.00000000000000     
   1.00000000000000     
   1.00000000000000     
   1.00000000000000     
   1.00000000000000     
   1.00000000000000     
   1.00000000000000     
   1.00000000000000     
   1.00000000000000     
   1.00000000000000     
   1.00000000000000     
   1.00000000000000     
   1.00000000000000     
   1.00000000000000     
   1.00000000000000     
   1.00000000000000     
   1.00000000000000     
   1.00000000000000     
   1.00000000000000     
   1.00000000000000     
   1.00000000000000     
   1.00000000000000     
   1.00000000000000     
   1.00000000000000     
   1.00000000000000     
   1.00000000000000     
   1.00000000000000     
   1.00000000000000     
   1.00000000000000     
   1.00000000000000     
   1.00000000000000     
   1.00000000000000     
   1.00000000000000     
   1.00000000000000     
   1.00000000000000     
   1.00000000000000     
   1.00000000000000     
   1.00000000000000     
   1.00000000000000     
   1.00000000000000     
   1.00000000000000     
   1.00000000000000     
   1.00000000000000     
   1.00000000000000     
   1.00000000000000     
   1.00000000000000     
   1.00000000000000     
   1.00000000000000     
   1.00000000000000     
   1.00000000000000     
   1.00000000000000     
   1.00000000000000     
   1.00000000000000     
   1.00000000000000     
   1.00000000000000     
   1.00000000000000     
   1.00000000000000     
   1.00000000000000     
   1.00000000000000     
   1.00000000000000     
   1.00000000000000     
   1.00000000000000     
   1.00000000000000     
   1.00000000000000     
   1.00000000000000     
   1.00000000000000     
   1.00000000000000     
   1.00000000000000     
   1.00000000000000     
   1.00000000000000     
   1.00000000000000     
   1.00000000000000     
   1.00000000000000     
   1.00000000000000     
   1.00000000000000     
   1.00000000000000     
   1.00000000000000     
   1.00000000000000     
   1.00000000000000     
   1.00000000000000     
   1.00000000000000     
   1.00000000000000     
   1.00000000000000     
   1.00000000000000     
   1.00000000000000     
   1.00000000000000     
   1.00000000000000     
   1.00000000000000     
   1.00000000000000     
   1.00000000000000     
   1.00000000000000     
   1.00000000000000     
   1.00000000000000     
   1.00000000000000     
   1.00000000000000     
   1.00000000000000     
   1.00000000000000     
   1.00000000000000     
   1.00000000000000     
   1.00000000000000     
   1.00000000000000     
   1.00000000000000     
   1.00000000000000     
   1.00000000000000     
   1.00000000000000     
   1.00000000000000     
   1.00000000000000     
   1.00000000000000     
   1.00000000000000     
   1.00000000000000     
   1.00000000000000     
   1.00000000000000     
   1.00000000000000     
   1.00000000000000     
   1.00000000000000     
   1.00000000000000     
   1.00000000000000     
   1.00000000000000     
   1.00000000000000     
   1.00000000000000     
   1.00000000000000     
   1.00000000000000     
   1.00000000000000     
   1.00000000000000     
   1.00000000000000     
   1.00000000000000     
   1.00000000000000     
   1.00000000000000     
   1.00000000000000     
   1.00000000000000     
   1.00000000000000     
   1.00000000000000     
   1.00000000000000     
   1.00000000000000     
   1.00000000000000     
   1.00000000000000     
   1.00000000000000     
   1.00000000000000     
   1.00000000000000     
   1.00000000000000     
   1.00000000000000     
   1.00000000000000     
   1.00000000000000     
   1.00000000000000     
   1.00000000000000     
   1.00000000000000     
   1.00000000000000     
   1.00000000000000     
   1.00000000000000     
   1.00000000000000     
   1.00000000000000     
   1.00000000000000     
   1.00000000000000     
   1.00000000000000     
   1.00000000000000     
   1.00000000000000     
   1.00000000000000     
   1.00000000000000     
   1.00000000000000     
   1.00000000000000     
   1.00000000000000     
   1.00000000000000     
   1.00000000000000     
   1.00000000000000     
   1.00000000000000     
   1.00000000000000     
   1.00000000000000     
   1.00000000000000     
   1.00000000000000     
   1.00000000000000     
   1.00000000000000     
   1.00000000000000     
   1.00000000000000     
   1.00000000000000     
   1.00000000000000     
   1.00000000000000     
   1.00000000000000     
   1.00000000000000     
   1.00000000000000     
   1.00000000000000     
   1.00000000000000     
   1.00000000000000     
   1.00000000000000     
   1.00000000000000     
   1.00000000000000     
   1.00000000000000     
   1.00000000000000     
   1.00000000000000     
   1.00000000000000     
   1.00000000000000     
   1.00000000000000     
   1.00000000000000     
   1.00000000000000     
   1.00000000000000     
   1.00000000000000     
   1.00000000000000     
   1.00000000000000     
   1.00000000000000     
   1.00000000000000     
   1.00000000000000     
   1.00000000000000     
   1.00000000000000     
   1.00000000000000     
   1.00000000000000     
   1.00000000000000     
   1.00000000000000     
   1.00000000000000     
   1.00000000000000     
   1.00000000000000     
   1.00000000000000     
   1.00000000000000     
   1.00000000000000     
   1.00000000000000     
   1.00000000000000     
   1.00000000000000     
   1.00000000000000     
   1.00000000000000     
   1.00000000000000     
   1.00000000000000     
   1.00000000000000     
   1.00000000000000     
   1.00000000000000     
   1.00000000000000     
   1.00000000000000     
   1.00000000000000     
   1.00000000000000     
   1.00000000000000     
   1.00000000000000     
   1.00000000000000     
   1.00000000000000     
   1.00000000000000     
   1.00000000000000     
   1.00000000000000     
   1.00000000000000     
   1.00000000000000     
   1.00000000000000     
   1.00000000000000     
   1.00000000000000     
   1.00000000000000     
   1.00000000000000     
   1.00000000000000     
   1.00000000000000     
   1.00000000000000     
   1.00000000000000     
   1.00000000000000     
   1.00000000000000     
   1.00000000000000     
   1.00000000000000     
   1.00000000000000     
   1.00000000000000     
   1.00000000000000     
   1.00000000000000     
   1.00000000000000     
   1.00000000000000     
   1.00000000000000     
   1.00000000000000     
   1.00000000000000     
   1.00000000000000     
   1.00000000000000     
   1.00000000000000     
   1.00000000000000     
   1.00000000000000     
   1.00000000000000     
   1.00000000000000     
   1.00000000000000     
   1.00000000000000     
   1.00000000000000     
   1.00000000000000     
   1.00000000000000     
   1.00000000000000     
   1.00000000000000     
   1.00000000000000     
   1.00000000000000     
   1.00000000000000     
   1.00000000000000     
   1.00000000000000     
   1.00000000000000     
   1.00000000000000     
   1.00000000000000     
   1.00000000000000     
   1.00000000000000     
   1.00000000000000     
   1.00000000000000     
   1.00000000000000     
   1.00000000000000     
   1.00000000000000     
   1.00000000000000     
   1.00000000000000     
   1.00000000000000     
   1.00000000000000     
   1.00000000000000     
   1.00000000000000     
   1.00000000000000     
   1.00000000000000     
   1.00000000000000     
   1.00000000000000     
   1.00000000000000     
   1.00000000000000     
   1.00000000000000     
   1.00000000000000     
   1.00000000000000     
   1.00000000000000     
   1.00000000000000     
   1.00000000000000     
   1.00000000000000     
   1.00000000000000     
   1.00000000000000     
   1.00000000000000     
   1.00000000000000     
   1.00000000000000     
   1.00000000000000     
   1.00000000000000     
   1.00000000000000     
   1.00000000000000     
   1.00000000000000     
   1.00000000000000     
   1.00000000000000     
   1.00000000000000     
   1.00000000000000     
   1.00000000000000     
   1.00000000000000     
   1.00000000000000     
   1.00000000000000     
   1.00000000000000     
   1.00000000000000     
   1.00000000000000     
   1.00000000000000     
   1.00000000000000     
   1.00000000000000     
   1.00000000000000     
   1.00000000000000     
   1.00000000000000     
   1.00000000000000     
   1.00000000000000     
   1.00000000000000     
   1.00000000000000     
   1.00000000000000     
   1.00000000000000     
   1.00000000000000     
   1.00000000000000     
   1.00000000000000     
   1.00000000000000     
   1.00000000000000     
   1.00000000000000     
   1.00000000000000     
   1.00000000000000     
   1.00000000000000     
   1.00000000000000     
   1.00000000000000     
   1.00000000000000     
   1.00000000000000     
   1.00000000000000     
   1.00000000000000     
   1.00000000000000     
   1.00000000000000     
   1.00000000000000     
   1.00000000000000     
   1.00000000000000     
   1.00000000000000     
   1.00000000000000     
   1.00000000000000     
   1.00000000000000     
   1.00000000000000     
   1.00000000000000     
   1.00000000000000     
   1.00000000000000     
   1.00000000000000     
   1.00000000000000     
   1.00000000000000     
   1.00000000000000     
   1.00000000000000     
   1.00000000000000     
   1.00000000000000     
   1.00000000000000     
   1.00000000000000     
   1.00000000000000     
   1.00000000000000     
   1.00000000000000     
   1.00000000000000     
   1.00000000000000     
   1.00000000000000     
   1.00000000000000     
   1.00000000000000     
   1.00000000000000     
   1.00000000000000     
   1.00000000000000     
   1.00000000000000     
   1.00000000000000     
   1.00000000000000     
   1.00000000000000     
   1.00000000000000     
   1.00000000000000     
   1.00000000000000     
   1.00000000000000     
   1.00000000000000     
   1.00000000000000     
   1.00000000000000     
   1.00000000000000     
   1.00000000000000     
   1.00000000000000     
   1.00000000000000     
   1.00000000000000     
   1.00000000000000     
   1.00000000000000     
   1.00000000000000     
   1.00000000000000     
   1.00000000000000     
   1.00000000000000     
   1.00000000000000     
   1.00000000000000     
   1.00000000000000     
   1.00000000000000     
   1.00000000000000     
   1.00000000000000     
   1.00000000000000     
   1.00000000000000     
   1.00000000000000     
   1.00000000000000     
   1.00000000000000     
   1.00000000000000     
   1.00000000000000     
   1.00000000000000     
   1.00000000000000     
   1.00000000000000     
   1.00000000000000     
SCALARS poroL double 
LOOKUP_TABLE default
  0.155786761243163     
  0.155786773952221     
  0.155786785066876     
  0.155786794305172     
  0.155786801361800     
  0.155786805924012     
  0.155786807682397     
  0.155786806343715     
  0.155786801646179     
  0.155786793364954     
  0.155786781319934     
  0.155786765383697     
  0.155786745489121     
  0.155786721636552     
  0.155786693899870     
  0.155786759615260     
  0.155786772392088     
  0.155786783644601     
  0.155786793073091     
  0.155786800356397     
  0.155786805168457     
  0.155786807188628     
  0.155786806113475     
  0.155786801671167     
  0.155786793629278     
  0.155786781801658     
  0.155786766056052     
  0.155786746321740     
  0.155786722596711     
  0.155786694953973     
  0.155786756339307     
  0.155786769249779     
  0.155786780776153     
  0.155786790583287     
  0.155786798318517     
  0.155786803628012     
  0.155786806169636     
  0.155786805619159     
  0.155786801684209     
  0.155786794118120     
  0.155786782722127     
  0.155786767354144     
  0.155786747936199     
  0.155786724461663     
  0.155786697001595     
  0.155786751374352     
  0.155786764480731     
  0.155786776413291     
  0.155786786783679     
  0.155786795192585     
  0.155786801245647     
  0.155786804563337     
  0.155786804791151     
  0.155786801610870     
  0.155786794751412     
  0.155786783994943     
  0.155786769184277     
  0.155786750230347     
  0.155786727119590     
  0.155786699920482     
  0.155786744657692     
  0.155786758016886     
  0.155786770482443     
  0.155786781595005     
  0.155786790892307     
  0.155786797924980     
  0.155786802267462     
  0.155786803523646     
  0.155786801337999     
  0.155786795407725     
  0.155786785489186     
  0.155786771404528     
  0.155786753049764     
  0.155786730401945     
  0.155786703526585     
  0.155786736103702     
  0.155786749765623     
  0.155786762883370     
  0.155786774908918     
  0.155786785301831     
  0.155786793541459     
  0.155786799147521     
  0.155786801672891     
  0.155786800711845     
  0.155786795922410     
  0.155786787027347     
  0.155786773822925     
  0.155786756186069     
  0.155786734082294     
  0.155786707573340     
  0.155786725602714     
  0.155786739608548     
  0.155786753488063     
  0.155786766587136     
  0.155786778271886     
  0.155786787941475     
  0.155786795037254     
  0.155786799054579     
  0.155786799536641     
  0.155786796084404     
  0.155786788382620     
  0.155786776194787     
  0.155786759374451     
  0.155786737873341     
  0.155786711749363     
  0.155786713020741     
  0.155786727401964     
  0.155786742140654     
  0.155786756460349     
  0.155786769620004     
  0.155786780922490     
  0.155786789726113     
  0.155786795448409     
  0.155786797568385     
  0.155786795633393     
  0.155786789275321     
  0.155786778219030     
  0.155786762289886     
  0.155786741423850     
  0.155786715675768     
  0.155786698206296     
  0.155786712978334     
  0.155786728657324     
  0.155786744328140     
  0.155786759127155     
  0.155786772249545     
  0.155786782951545     
  0.155786790571849     
  0.155786794514531     
  0.155786794254986     
  0.155786789368199     
  0.155786779532660     
  0.155786764541960     
  0.155786744314484     
  0.155786718903018     
  0.155786680980201     
  0.155786696149389     
  0.155786712829891     
  0.155786729959560     
  0.155786746540574     
  0.155786761646344     
  0.155786774426075     
  0.155786784111465     
  0.155786790026521     
  0.155786791576191     
  0.155786788258669     
  0.155786779703750     
  0.155786765668325     
  0.155786746051839     
  0.155786720906637     
  0.155786661153054     
  0.155786676707931     
  0.155786694429681     
  0.155786713098046     
  0.155786731573888     
  0.155786748798701     
  0.155786763799171     
  0.155786775692330     
  0.155786783703173     
  0.155786787153506     
  0.155786785470997     
  0.155786778222812     
  0.155786765126289     
  0.155786746061880     
  0.155786721082740     
  0.155786638537028     
  0.155786654443103     
  0.155786673214271     
  0.155786693466543     
  0.155786713911202     
  0.155786733349750     
  0.155786750674691     
  0.155786764875614     
  0.155786775061397     
  0.155786780467828     
  0.155786780446072     
  0.155786774491293     
  0.155786762283328     
  0.155786743682853     
  0.155786718744754     
  0.155786612961465     
  0.155786629156970     
  0.155786648942878     
  0.155786670775283     
  0.155786693211395     
  0.155786714904539     
  0.155786734603879     
  0.155786751164108     
  0.155786763558047     
  0.155786770917293     
  0.155786772523939     
  0.155786767809879     
  0.155786756406837     
  0.155786738159657     
  0.155786713123453     
  0.155786584296857     
  0.155786600684232     
  0.155786621395499     
  0.155786644737220     
  0.155786669116358     
  0.155786693031882     
  0.155786715080754     
  0.155786733970504     
  0.155786748541232     
  0.155786757794299     
  0.155786760937161     
  0.155786757362878     
  0.155786746655613     
  0.155786728642282     
  0.155786703373190     
  0.155786552483846     
  0.155786568919556     
  0.155786590395348     
  0.155786615087158     
  0.155786641261473     
  0.155786667265372     
  0.155786691535878     
  0.155786712626493     
  0.155786729240015     
  0.155786740260669     
  0.155786744794643     
  0.155786742206666     
  0.155786732075133     
  0.155786714190403     
  0.155786688587539     
  0.155786517565705     
  0.155786533848402     
  0.155786555837048     
  0.155786581603825     
  0.155786609291767     
  0.155786637105414     
  0.155786663327539     
  0.155786686356443     
  0.155786704756013     
  0.155786717307678     
  0.155786723044456     
  0.155786721276251     
  0.155786711595702     
  0.155786693790934     
  0.155786667827521     
  0.155786479719762     
  0.155786495578042     
  0.155786517716893     
  0.155786544135104     
  0.155786572877367     
  0.155786602027451     
  0.155786629731276     
  0.155786654248980     
  0.155786674025264     
  0.155786687756339     
  0.155786694434639     
  0.155786693350294     
  0.155786684070160     
  0.155786666381627     
  0.155786640171899     
  0.155786439280517     
  0.155786454363764     
  0.155786476159471     
  0.155786502622288     
  0.155786531730126     
  0.155786561482774     
  0.155786589930192     
  0.155786615238638     
  0.155786635779979     
  0.155786650214685     
  0.155786657532581     
  0.155786657035292     
  0.155786648260823     
  0.155786630915167     
  0.155786604760472     
  0.155786396750616     
  0.155786410618697     
  0.155786431432421     
  0.155786457115935     
  0.155786485615529     
  0.155786514898475     
  0.155786542994333     
  0.155786568069286     
  0.155786588521343     
  0.155786603059969     
  0.155786610726504     
  0.155786610837922     
  0.155786602879909     
  0.155786586387455     
  0.155786560874464     
  0.155786352785781     
  0.155786364908015     
  0.155786383935386     
  0.155786407772263     
  0.155786434348902     
  0.155786461665346     
  0.155786487856931     
  0.155786511262892     
  0.155786530489804     
  0.155786544432025     
  0.155786552235542     
  0.155786553203312     
  0.155786546670385     
  0.155786531891106     
  0.155786507986425     
  0.155786308183446     
  0.155786317888198     
  0.155786334164425     
  0.155786354813758     
  0.155786377752446     
  0.155786401099176     
  0.155786423283015     
  0.155786443108405     
  0.155786459681513     
  0.155786472273360     
  0.155786480166807     
  0.155786482551219     
  0.155786478452076     
  0.155786466674460     
  0.155786445782111     
  0.155786263658387     
  0.155786270219903     
  0.155786282600424     
  0.155786298426081     
  0.155786315553130     
  0.155786332342416     
  0.155786347837906     
  0.155786361708338     
  0.155786373957075     
  0.155786384449629     
  0.155786392603465     
  0.155786397329590     
  0.155786397121937     
  0.155786390131160     
  0.155786374182028     
  0.155786219954846     
  0.155786222470202     
  0.155786229564136     
  0.155786238525683     
  0.155786247136811     
  0.155786254216121     
  0.155786259866713     
  0.155786265150263     
  0.155786271306678     
  0.155786278978138     
  0.155786287722828     
  0.155786296024543     
  0.155786301609526     
  0.155786301733730     
  0.155786293283399     
  0.155786177713773     
  0.155786175078838     
  0.155786175092558     
  0.155786174490554     
  0.155786171171373     
  0.155786164958055     
  0.155786157593960     
  0.155786151851654     
  0.155786150295531     
  0.155786154374319     
  0.155786163937399     
  0.155786177122660     
  0.155786190750711     
  0.155786200914017     
  0.155786203275288     
  0.155786137405120     
  0.155786128138573     
  0.155786118565834     
  0.155786104731670     
  0.155786085290196     
  0.155786062176747     
  0.155786039373787     
  0.155786021049126     
  0.155786010569431     
  0.155786010083269     
  0.155786020114801     
  0.155786039062614     
  0.155786063077405     
  0.155786086829228     
  0.155786104292315     
  0.155786099228369     
  0.155786081129656     
  0.155786058066677     
  0.155786025894447     
  0.155785985888474     
  0.155785943430194     
  0.155785904322651     
  0.155785873102872     
  0.155785853111221     
  0.155785846878824     
  0.155785856016513     
  0.155785880329073     
  0.155785916556827     
  0.155785957999245     
  0.155785996219282     
  0.155786062959005     
  0.155786032163453     
  0.155785989154477     
  0.155785932284618     
  0.155785868928351     
  0.155785807273146     
  0.155785752902965     
  0.155785709515691     
  0.155785679979028     
  0.155785666902605     
  0.155785672893174     
  0.155785700169891     
  0.155785748380037     
  0.155785811761263     
  0.155785878252409     
  0.155786027207437     
  0.155785976083468     
  0.155785902815088     
  0.155785817399835     
  0.155785732173904     
  0.155785654043634     
  0.155785586657851     
  0.155785532515587     
  0.155785493853994     
  0.155785473194174     
  0.155785473750098     
  0.155785499735584     
  0.155785556178271     
  0.155785642946363     
  0.155785748489422     
  0.155785987437200     
  0.155785897609237     
  0.155785788442867     
  0.155785678367922     
  0.155785576247561     
  0.155785485324111     
  0.155785407508554     
  0.155785344327360     
  0.155785297452869     
  0.155785269121411     
  0.155785262662630     
  0.155785283331355     
  0.155785339516107     
  0.155785445853650     
  0.155785599601758     
  0.155785911819154     
  0.155785779089025     
  0.155785642806395     
  0.155785516665368     
  0.155785402967226     
  0.155785302879706     
  0.155785217215119     
  0.155785146862687     
  0.155785093049493     
  0.155785057668231     
  0.155785043807670     
  0.155785056744234     
  0.155785106165356     
  0.155785211312581     
  0.155785430267682     
