# vtk DataFile Version 3.0
vtk output
ASCII
DATASET UNSTRUCTURED_GRID
POINTS       496 double 
  0.00000000E+00  3.00000000E+02  0.00000000E+00
  0.00000000E+00  2.80000000E+02  0.00000000E+00
  0.00000000E+00  2.60000000E+02  0.00000000E+00
  0.00000000E+00  2.40000000E+02  0.00000000E+00
  0.00000000E+00  2.20000000E+02  0.00000000E+00
  0.00000000E+00  2.00000000E+02  0.00000000E+00
  0.00000000E+00  1.80000000E+02  0.00000000E+00
  0.00000000E+00  1.60000000E+02  0.00000000E+00
  0.00000000E+00  1.40000000E+02  0.00000000E+00
  0.00000000E+00  1.20000000E+02  0.00000000E+00
  0.00000000E+00  1.00000000E+02  0.00000000E+00
  0.00000000E+00  8.00000000E+01  0.00000000E+00
  0.00000000E+00  6.00000000E+01  0.00000000E+00
  0.00000000E+00  4.00000000E+01  0.00000000E+00
  0.00000000E+00  2.00000000E+01  0.00000000E+00
  0.00000000E+00  4.99600361E-14  0.00000000E+00
  2.00000000E+01  3.00000000E+02  0.00000000E+00
  2.00000000E+01  2.80000000E+02  0.00000000E+00
  2.00000000E+01  2.60000000E+02  0.00000000E+00
  2.00000000E+01  2.40000000E+02  0.00000000E+00
  2.00000000E+01  2.20000000E+02  0.00000000E+00
  2.00000000E+01  2.00000000E+02  0.00000000E+00
  2.00000000E+01  1.80000000E+02  0.00000000E+00
  2.00000000E+01  1.60000000E+02  0.00000000E+00
  2.00000000E+01  1.40000000E+02  0.00000000E+00
  2.00000000E+01  1.20000000E+02  0.00000000E+00
  2.00000000E+01  1.00000000E+02  0.00000000E+00
  2.00000000E+01  8.00000000E+01  0.00000000E+00
  2.00000000E+01  6.00000000E+01  0.00000000E+00
  2.00000000E+01  4.00000000E+01  0.00000000E+00
  2.00000000E+01  2.00000000E+01  0.00000000E+00
  2.00000000E+01  4.99600361E-14  0.00000000E+00
  4.00000000E+01  3.00000000E+02  0.00000000E+00
  4.00000000E+01  2.80000000E+02  0.00000000E+00
  4.00000000E+01  2.60000000E+02  0.00000000E+00
  4.00000000E+01  2.40000000E+02  0.00000000E+00
  4.00000000E+01  2.20000000E+02  0.00000000E+00
  4.00000000E+01  2.00000000E+02  0.00000000E+00
  4.00000000E+01  1.80000000E+02  0.00000000E+00
  4.00000000E+01  1.60000000E+02  0.00000000E+00
  4.00000000E+01  1.40000000E+02  0.00000000E+00
  4.00000000E+01  1.20000000E+02  0.00000000E+00
  4.00000000E+01  1.00000000E+02  0.00000000E+00
  4.00000000E+01  8.00000000E+01  0.00000000E+00
  4.00000000E+01  6.00000000E+01  0.00000000E+00
  4.00000000E+01  4.00000000E+01  0.00000000E+00
  4.00000000E+01  2.00000000E+01  0.00000000E+00
  4.00000000E+01  4.99600361E-14  0.00000000E+00
  6.00000000E+01  3.00000000E+02  0.00000000E+00
  6.00000000E+01  2.80000000E+02  0.00000000E+00
  6.00000000E+01  2.60000000E+02  0.00000000E+00
  6.00000000E+01  2.40000000E+02  0.00000000E+00
  6.00000000E+01  2.20000000E+02  0.00000000E+00
  6.00000000E+01  2.00000000E+02  0.00000000E+00
  6.00000000E+01  1.80000000E+02  0.00000000E+00
  6.00000000E+01  1.60000000E+02  0.00000000E+00
  6.00000000E+01  1.40000000E+02  0.00000000E+00
  6.00000000E+01  1.20000000E+02  0.00000000E+00
  6.00000000E+01  1.00000000E+02  0.00000000E+00
  6.00000000E+01  8.00000000E+01  0.00000000E+00
  6.00000000E+01  6.00000000E+01  0.00000000E+00
  6.00000000E+01  4.00000000E+01  0.00000000E+00
  6.00000000E+01  2.00000000E+01  0.00000000E+00
  6.00000000E+01  4.99600361E-14  0.00000000E+00
  8.00000000E+01  3.00000000E+02  0.00000000E+00
  8.00000000E+01  2.80000000E+02  0.00000000E+00
  8.00000000E+01  2.60000000E+02  0.00000000E+00
  8.00000000E+01  2.40000000E+02  0.00000000E+00
  8.00000000E+01  2.20000000E+02  0.00000000E+00
  8.00000000E+01  2.00000000E+02  0.00000000E+00
  8.00000000E+01  1.80000000E+02  0.00000000E+00
  8.00000000E+01  1.60000000E+02  0.00000000E+00
  8.00000000E+01  1.40000000E+02  0.00000000E+00
  8.00000000E+01  1.20000000E+02  0.00000000E+00
  8.00000000E+01  1.00000000E+02  0.00000000E+00
  8.00000000E+01  8.00000000E+01  0.00000000E+00
  8.00000000E+01  6.00000000E+01  0.00000000E+00
  8.00000000E+01  4.00000000E+01  0.00000000E+00
  8.00000000E+01  2.00000000E+01  0.00000000E+00
  8.00000000E+01  4.99600361E-14  0.00000000E+00
  1.00000000E+02  3.00000000E+02  0.00000000E+00
  1.00000000E+02  2.80000000E+02  0.00000000E+00
  1.00000000E+02  2.60000000E+02  0.00000000E+00
  1.00000000E+02  2.40000000E+02  0.00000000E+00
  1.00000000E+02  2.20000000E+02  0.00000000E+00
  1.00000000E+02  2.00000000E+02  0.00000000E+00
  1.00000000E+02  1.80000000E+02  0.00000000E+00
  1.00000000E+02  1.60000000E+02  0.00000000E+00
  1.00000000E+02  1.40000000E+02  0.00000000E+00
  1.00000000E+02  1.20000000E+02  0.00000000E+00
  1.00000000E+02  1.00000000E+02  0.00000000E+00
  1.00000000E+02  8.00000000E+01  0.00000000E+00
  1.00000000E+02  6.00000000E+01  0.00000000E+00
  1.00000000E+02  4.00000000E+01  0.00000000E+00
  1.00000000E+02  2.00000000E+01  0.00000000E+00
  1.00000000E+02  4.99600361E-14  0.00000000E+00
  1.20000000E+02  3.00000000E+02  0.00000000E+00
  1.20000000E+02  2.80000000E+02  0.00000000E+00
  1.20000000E+02  2.60000000E+02  0.00000000E+00
  1.20000000E+02  2.40000000E+02  0.00000000E+00
  1.20000000E+02  2.20000000E+02  0.00000000E+00
  1.20000000E+02  2.00000000E+02  0.00000000E+00
  1.20000000E+02  1.80000000E+02  0.00000000E+00
  1.20000000E+02  1.60000000E+02  0.00000000E+00
  1.20000000E+02  1.40000000E+02  0.00000000E+00
  1.20000000E+02  1.20000000E+02  0.00000000E+00
  1.20000000E+02  1.00000000E+02  0.00000000E+00
  1.20000000E+02  8.00000000E+01  0.00000000E+00
  1.20000000E+02  6.00000000E+01  0.00000000E+00
  1.20000000E+02  4.00000000E+01  0.00000000E+00
  1.20000000E+02  2.00000000E+01  0.00000000E+00
  1.20000000E+02  4.99600361E-14  0.00000000E+00
  1.40000000E+02  3.00000000E+02  0.00000000E+00
  1.40000000E+02  2.80000000E+02  0.00000000E+00
  1.40000000E+02  2.60000000E+02  0.00000000E+00
  1.40000000E+02  2.40000000E+02  0.00000000E+00
  1.40000000E+02  2.20000000E+02  0.00000000E+00
  1.40000000E+02  2.00000000E+02  0.00000000E+00
  1.40000000E+02  1.80000000E+02  0.00000000E+00
  1.40000000E+02  1.60000000E+02  0.00000000E+00
  1.40000000E+02  1.40000000E+02  0.00000000E+00
  1.40000000E+02  1.20000000E+02  0.00000000E+00
  1.40000000E+02  1.00000000E+02  0.00000000E+00
  1.40000000E+02  8.00000000E+01  0.00000000E+00
  1.40000000E+02  6.00000000E+01  0.00000000E+00
  1.40000000E+02  4.00000000E+01  0.00000000E+00
  1.40000000E+02  2.00000000E+01  0.00000000E+00
  1.40000000E+02  4.99600361E-14  0.00000000E+00
  1.60000000E+02  3.00000000E+02  0.00000000E+00
  1.60000000E+02  2.80000000E+02  0.00000000E+00
  1.60000000E+02  2.60000000E+02  0.00000000E+00
  1.60000000E+02  2.40000000E+02  0.00000000E+00
  1.60000000E+02  2.20000000E+02  0.00000000E+00
  1.60000000E+02  2.00000000E+02  0.00000000E+00
  1.60000000E+02  1.80000000E+02  0.00000000E+00
  1.60000000E+02  1.60000000E+02  0.00000000E+00
  1.60000000E+02  1.40000000E+02  0.00000000E+00
  1.60000000E+02  1.20000000E+02  0.00000000E+00
  1.60000000E+02  1.00000000E+02  0.00000000E+00
  1.60000000E+02  8.00000000E+01  0.00000000E+00
  1.60000000E+02  6.00000000E+01  0.00000000E+00
  1.60000000E+02  4.00000000E+01  0.00000000E+00
  1.60000000E+02  2.00000000E+01  0.00000000E+00
  1.60000000E+02  4.99600361E-14  0.00000000E+00
  1.80000000E+02  3.00000000E+02  0.00000000E+00
  1.80000000E+02  2.80000000E+02  0.00000000E+00
  1.80000000E+02  2.60000000E+02  0.00000000E+00
  1.80000000E+02  2.40000000E+02  0.00000000E+00
  1.80000000E+02  2.20000000E+02  0.00000000E+00
  1.80000000E+02  2.00000000E+02  0.00000000E+00
  1.80000000E+02  1.80000000E+02  0.00000000E+00
  1.80000000E+02  1.60000000E+02  0.00000000E+00
  1.80000000E+02  1.40000000E+02  0.00000000E+00
  1.80000000E+02  1.20000000E+02  0.00000000E+00
  1.80000000E+02  1.00000000E+02  0.00000000E+00
  1.80000000E+02  8.00000000E+01  0.00000000E+00
  1.80000000E+02  6.00000000E+01  0.00000000E+00
  1.80000000E+02  4.00000000E+01  0.00000000E+00
  1.80000000E+02  2.00000000E+01  0.00000000E+00
  1.80000000E+02  4.99600361E-14  0.00000000E+00
  2.00000000E+02  3.00000000E+02  0.00000000E+00
  2.00000000E+02  2.80000000E+02  0.00000000E+00
  2.00000000E+02  2.60000000E+02  0.00000000E+00
  2.00000000E+02  2.40000000E+02  0.00000000E+00
  2.00000000E+02  2.20000000E+02  0.00000000E+00
  2.00000000E+02  2.00000000E+02  0.00000000E+00
  2.00000000E+02  1.80000000E+02  0.00000000E+00
  2.00000000E+02  1.60000000E+02  0.00000000E+00
  2.00000000E+02  1.40000000E+02  0.00000000E+00
  2.00000000E+02  1.20000000E+02  0.00000000E+00
  2.00000000E+02  1.00000000E+02  0.00000000E+00
  2.00000000E+02  8.00000000E+01  0.00000000E+00
  2.00000000E+02  6.00000000E+01  0.00000000E+00
  2.00000000E+02  4.00000000E+01  0.00000000E+00
  2.00000000E+02  2.00000000E+01  0.00000000E+00
  2.00000000E+02  4.99600361E-14  0.00000000E+00
  2.20000000E+02  3.00000000E+02  0.00000000E+00
  2.20000000E+02  2.80000000E+02  0.00000000E+00
  2.20000000E+02  2.60000000E+02  0.00000000E+00
  2.20000000E+02  2.40000000E+02  0.00000000E+00
  2.20000000E+02  2.20000000E+02  0.00000000E+00
  2.20000000E+02  2.00000000E+02  0.00000000E+00
  2.20000000E+02  1.80000000E+02  0.00000000E+00
  2.20000000E+02  1.60000000E+02  0.00000000E+00
  2.20000000E+02  1.40000000E+02  0.00000000E+00
  2.20000000E+02  1.20000000E+02  0.00000000E+00
  2.20000000E+02  1.00000000E+02  0.00000000E+00
  2.20000000E+02  8.00000000E+01  0.00000000E+00
  2.20000000E+02  6.00000000E+01  0.00000000E+00
  2.20000000E+02  4.00000000E+01  0.00000000E+00
  2.20000000E+02  2.00000000E+01  0.00000000E+00
  2.20000000E+02  4.99600361E-14  0.00000000E+00
  2.40000000E+02  3.00000000E+02  0.00000000E+00
  2.40000000E+02  2.80000000E+02  0.00000000E+00
  2.40000000E+02  2.60000000E+02  0.00000000E+00
  2.40000000E+02  2.40000000E+02  0.00000000E+00
  2.40000000E+02  2.20000000E+02  0.00000000E+00
  2.40000000E+02  2.00000000E+02  0.00000000E+00
  2.40000000E+02  1.80000000E+02  0.00000000E+00
  2.40000000E+02  1.60000000E+02  0.00000000E+00
  2.40000000E+02  1.40000000E+02  0.00000000E+00
  2.40000000E+02  1.20000000E+02  0.00000000E+00
  2.40000000E+02  1.00000000E+02  0.00000000E+00
  2.40000000E+02  8.00000000E+01  0.00000000E+00
  2.40000000E+02  6.00000000E+01  0.00000000E+00
  2.40000000E+02  4.00000000E+01  0.00000000E+00
  2.40000000E+02  2.00000000E+01  0.00000000E+00
  2.40000000E+02  4.99600361E-14  0.00000000E+00
  2.60000000E+02  3.00000000E+02  0.00000000E+00
  2.60000000E+02  2.80000000E+02  0.00000000E+00
  2.60000000E+02  2.60000000E+02  0.00000000E+00
  2.60000000E+02  2.40000000E+02  0.00000000E+00
  2.60000000E+02  2.20000000E+02  0.00000000E+00
  2.60000000E+02  2.00000000E+02  0.00000000E+00
  2.60000000E+02  1.80000000E+02  0.00000000E+00
  2.60000000E+02  1.60000000E+02  0.00000000E+00
  2.60000000E+02  1.40000000E+02  0.00000000E+00
  2.60000000E+02  1.20000000E+02  0.00000000E+00
  2.60000000E+02  1.00000000E+02  0.00000000E+00
  2.60000000E+02  8.00000000E+01  0.00000000E+00
  2.60000000E+02  6.00000000E+01  0.00000000E+00
  2.60000000E+02  4.00000000E+01  0.00000000E+00
  2.60000000E+02  2.00000000E+01  0.00000000E+00
  2.60000000E+02  4.99600361E-14  0.00000000E+00
  2.80000000E+02  3.00000000E+02  0.00000000E+00
  2.80000000E+02  2.80000000E+02  0.00000000E+00
  2.80000000E+02  2.60000000E+02  0.00000000E+00
  2.80000000E+02  2.40000000E+02  0.00000000E+00
  2.80000000E+02  2.20000000E+02  0.00000000E+00
  2.80000000E+02  2.00000000E+02  0.00000000E+00
  2.80000000E+02  1.80000000E+02  0.00000000E+00
  2.80000000E+02  1.60000000E+02  0.00000000E+00
  2.80000000E+02  1.40000000E+02  0.00000000E+00
  2.80000000E+02  1.20000000E+02  0.00000000E+00
  2.80000000E+02  1.00000000E+02  0.00000000E+00
  2.80000000E+02  8.00000000E+01  0.00000000E+00
  2.80000000E+02  6.00000000E+01  0.00000000E+00
  2.80000000E+02  4.00000000E+01  0.00000000E+00
  2.80000000E+02  2.00000000E+01  0.00000000E+00
  2.80000000E+02  4.99600361E-14  0.00000000E+00
  3.00000000E+02  3.00000000E+02  0.00000000E+00
  3.00000000E+02  2.80000000E+02  0.00000000E+00
  3.00000000E+02  2.60000000E+02  0.00000000E+00
  3.00000000E+02  2.40000000E+02  0.00000000E+00
  3.00000000E+02  2.20000000E+02  0.00000000E+00
  3.00000000E+02  2.00000000E+02  0.00000000E+00
  3.00000000E+02  1.80000000E+02  0.00000000E+00
  3.00000000E+02  1.60000000E+02  0.00000000E+00
  3.00000000E+02  1.40000000E+02  0.00000000E+00
  3.00000000E+02  1.20000000E+02  0.00000000E+00
  3.00000000E+02  1.00000000E+02  0.00000000E+00
  3.00000000E+02  8.00000000E+01  0.00000000E+00
  3.00000000E+02  6.00000000E+01  0.00000000E+00
  3.00000000E+02  4.00000000E+01  0.00000000E+00
  3.00000000E+02  2.00000000E+01  0.00000000E+00
  3.00000000E+02  4.99600361E-14  0.00000000E+00
  3.20000000E+02  3.00000000E+02  0.00000000E+00
  3.20000000E+02  2.80000000E+02  0.00000000E+00
  3.20000000E+02  2.60000000E+02  0.00000000E+00
  3.20000000E+02  2.40000000E+02  0.00000000E+00
  3.20000000E+02  2.20000000E+02  0.00000000E+00
  3.20000000E+02  2.00000000E+02  0.00000000E+00
  3.20000000E+02  1.80000000E+02  0.00000000E+00
  3.20000000E+02  1.60000000E+02  0.00000000E+00
  3.20000000E+02  1.40000000E+02  0.00000000E+00
  3.20000000E+02  1.20000000E+02  0.00000000E+00
  3.20000000E+02  1.00000000E+02  0.00000000E+00
  3.20000000E+02  8.00000000E+01  0.00000000E+00
  3.20000000E+02  6.00000000E+01  0.00000000E+00
  3.20000000E+02  4.00000000E+01  0.00000000E+00
  3.20000000E+02  2.00000000E+01  0.00000000E+00
  3.20000000E+02  4.99600361E-14  0.00000000E+00
  3.40000000E+02  3.00000000E+02  0.00000000E+00
  3.40000000E+02  2.80000000E+02  0.00000000E+00
  3.40000000E+02  2.60000000E+02  0.00000000E+00
  3.40000000E+02  2.40000000E+02  0.00000000E+00
  3.40000000E+02  2.20000000E+02  0.00000000E+00
  3.40000000E+02  2.00000000E+02  0.00000000E+00
  3.40000000E+02  1.80000000E+02  0.00000000E+00
  3.40000000E+02  1.60000000E+02  0.00000000E+00
  3.40000000E+02  1.40000000E+02  0.00000000E+00
  3.40000000E+02  1.20000000E+02  0.00000000E+00
  3.40000000E+02  1.00000000E+02  0.00000000E+00
  3.40000000E+02  8.00000000E+01  0.00000000E+00
  3.40000000E+02  6.00000000E+01  0.00000000E+00
  3.40000000E+02  4.00000000E+01  0.00000000E+00
  3.40000000E+02  2.00000000E+01  0.00000000E+00
  3.40000000E+02  4.99600361E-14  0.00000000E+00
  3.60000000E+02  3.00000000E+02  0.00000000E+00
  3.60000000E+02  2.80000000E+02  0.00000000E+00
  3.60000000E+02  2.60000000E+02  0.00000000E+00
  3.60000000E+02  2.40000000E+02  0.00000000E+00
  3.60000000E+02  2.20000000E+02  0.00000000E+00
  3.60000000E+02  2.00000000E+02  0.00000000E+00
  3.60000000E+02  1.80000000E+02  0.00000000E+00
  3.60000000E+02  1.60000000E+02  0.00000000E+00
  3.60000000E+02  1.40000000E+02  0.00000000E+00
  3.60000000E+02  1.20000000E+02  0.00000000E+00
  3.60000000E+02  1.00000000E+02  0.00000000E+00
  3.60000000E+02  8.00000000E+01  0.00000000E+00
  3.60000000E+02  6.00000000E+01  0.00000000E+00
  3.60000000E+02  4.00000000E+01  0.00000000E+00
  3.60000000E+02  2.00000000E+01  0.00000000E+00
  3.60000000E+02  4.99600361E-14  0.00000000E+00
  3.80000000E+02  3.00000000E+02  0.00000000E+00
  3.80000000E+02  2.80000000E+02  0.00000000E+00
  3.80000000E+02  2.60000000E+02  0.00000000E+00
  3.80000000E+02  2.40000000E+02  0.00000000E+00
  3.80000000E+02  2.20000000E+02  0.00000000E+00
  3.80000000E+02  2.00000000E+02  0.00000000E+00
  3.80000000E+02  1.80000000E+02  0.00000000E+00
  3.80000000E+02  1.60000000E+02  0.00000000E+00
  3.80000000E+02  1.40000000E+02  0.00000000E+00
  3.80000000E+02  1.20000000E+02  0.00000000E+00
  3.80000000E+02  1.00000000E+02  0.00000000E+00
  3.80000000E+02  8.00000000E+01  0.00000000E+00
  3.80000000E+02  6.00000000E+01  0.00000000E+00
  3.80000000E+02  4.00000000E+01  0.00000000E+00
  3.80000000E+02  2.00000000E+01  0.00000000E+00
  3.80000000E+02  4.99600361E-14  0.00000000E+00
  4.00000000E+02  3.00000000E+02  0.00000000E+00
  4.00000000E+02  2.80000000E+02  0.00000000E+00
  4.00000000E+02  2.60000000E+02  0.00000000E+00
  4.00000000E+02  2.40000000E+02  0.00000000E+00
  4.00000000E+02  2.20000000E+02  0.00000000E+00
  4.00000000E+02  2.00000000E+02  0.00000000E+00
  4.00000000E+02  1.80000000E+02  0.00000000E+00
  4.00000000E+02  1.60000000E+02  0.00000000E+00
  4.00000000E+02  1.40000000E+02  0.00000000E+00
  4.00000000E+02  1.20000000E+02  0.00000000E+00
  4.00000000E+02  1.00000000E+02  0.00000000E+00
  4.00000000E+02  8.00000000E+01  0.00000000E+00
  4.00000000E+02  6.00000000E+01  0.00000000E+00
  4.00000000E+02  4.00000000E+01  0.00000000E+00
  4.00000000E+02  2.00000000E+01  0.00000000E+00
  4.00000000E+02  4.99600361E-14  0.00000000E+00
  4.20000000E+02  3.00000000E+02  0.00000000E+00
  4.20000000E+02  2.80000000E+02  0.00000000E+00
  4.20000000E+02  2.60000000E+02  0.00000000E+00
  4.20000000E+02  2.40000000E+02  0.00000000E+00
  4.20000000E+02  2.20000000E+02  0.00000000E+00
  4.20000000E+02  2.00000000E+02  0.00000000E+00
  4.20000000E+02  1.80000000E+02  0.00000000E+00
  4.20000000E+02  1.60000000E+02  0.00000000E+00
  4.20000000E+02  1.40000000E+02  0.00000000E+00
  4.20000000E+02  1.20000000E+02  0.00000000E+00
  4.20000000E+02  1.00000000E+02  0.00000000E+00
  4.20000000E+02  8.00000000E+01  0.00000000E+00
  4.20000000E+02  6.00000000E+01  0.00000000E+00
  4.20000000E+02  4.00000000E+01  0.00000000E+00
  4.20000000E+02  2.00000000E+01  0.00000000E+00
  4.20000000E+02  4.99600361E-14  0.00000000E+00
  4.40000000E+02  3.00000000E+02  0.00000000E+00
  4.40000000E+02  2.80000000E+02  0.00000000E+00
  4.40000000E+02  2.60000000E+02  0.00000000E+00
  4.40000000E+02  2.40000000E+02  0.00000000E+00
  4.40000000E+02  2.20000000E+02  0.00000000E+00
  4.40000000E+02  2.00000000E+02  0.00000000E+00
  4.40000000E+02  1.80000000E+02  0.00000000E+00
  4.40000000E+02  1.60000000E+02  0.00000000E+00
  4.40000000E+02  1.40000000E+02  0.00000000E+00
  4.40000000E+02  1.20000000E+02  0.00000000E+00
  4.40000000E+02  1.00000000E+02  0.00000000E+00
  4.40000000E+02  8.00000000E+01  0.00000000E+00
  4.40000000E+02  6.00000000E+01  0.00000000E+00
  4.40000000E+02  4.00000000E+01  0.00000000E+00
  4.40000000E+02  2.00000000E+01  0.00000000E+00
  4.40000000E+02  4.99600361E-14  0.00000000E+00
  4.60000000E+02  3.00000000E+02  0.00000000E+00
  4.60000000E+02  2.80000000E+02  0.00000000E+00
  4.60000000E+02  2.60000000E+02  0.00000000E+00
  4.60000000E+02  2.40000000E+02  0.00000000E+00
  4.60000000E+02  2.20000000E+02  0.00000000E+00
  4.60000000E+02  2.00000000E+02  0.00000000E+00
  4.60000000E+02  1.80000000E+02  0.00000000E+00
  4.60000000E+02  1.60000000E+02  0.00000000E+00
  4.60000000E+02  1.40000000E+02  0.00000000E+00
  4.60000000E+02  1.20000000E+02  0.00000000E+00
  4.60000000E+02  1.00000000E+02  0.00000000E+00
  4.60000000E+02  8.00000000E+01  0.00000000E+00
  4.60000000E+02  6.00000000E+01  0.00000000E+00
  4.60000000E+02  4.00000000E+01  0.00000000E+00
  4.60000000E+02  2.00000000E+01  0.00000000E+00
  4.60000000E+02  4.99600361E-14  0.00000000E+00
  4.80000000E+02  3.00000000E+02  0.00000000E+00
  4.80000000E+02  2.80000000E+02  0.00000000E+00
  4.80000000E+02  2.60000000E+02  0.00000000E+00
  4.80000000E+02  2.40000000E+02  0.00000000E+00
  4.80000000E+02  2.20000000E+02  0.00000000E+00
  4.80000000E+02  2.00000000E+02  0.00000000E+00
  4.80000000E+02  1.80000000E+02  0.00000000E+00
  4.80000000E+02  1.60000000E+02  0.00000000E+00
  4.80000000E+02  1.40000000E+02  0.00000000E+00
  4.80000000E+02  1.20000000E+02  0.00000000E+00
  4.80000000E+02  1.00000000E+02  0.00000000E+00
  4.80000000E+02  8.00000000E+01  0.00000000E+00
  4.80000000E+02  6.00000000E+01  0.00000000E+00
  4.80000000E+02  4.00000000E+01  0.00000000E+00
  4.80000000E+02  2.00000000E+01  0.00000000E+00
  4.80000000E+02  4.99600361E-14  0.00000000E+00
  5.00000000E+02  3.00000000E+02  0.00000000E+00
  5.00000000E+02  2.80000000E+02  0.00000000E+00
  5.00000000E+02  2.60000000E+02  0.00000000E+00
  5.00000000E+02  2.40000000E+02  0.00000000E+00
  5.00000000E+02  2.20000000E+02  0.00000000E+00
  5.00000000E+02  2.00000000E+02  0.00000000E+00
  5.00000000E+02  1.80000000E+02  0.00000000E+00
  5.00000000E+02  1.60000000E+02  0.00000000E+00
  5.00000000E+02  1.40000000E+02  0.00000000E+00
  5.00000000E+02  1.20000000E+02  0.00000000E+00
  5.00000000E+02  1.00000000E+02  0.00000000E+00
  5.00000000E+02  8.00000000E+01  0.00000000E+00
  5.00000000E+02  6.00000000E+01  0.00000000E+00
  5.00000000E+02  4.00000000E+01  0.00000000E+00
  5.00000000E+02  2.00000000E+01  0.00000000E+00
  5.00000000E+02  4.99600361E-14  0.00000000E+00
  5.20000000E+02  3.00000000E+02  0.00000000E+00
  5.20000000E+02  2.80000000E+02  0.00000000E+00
  5.20000000E+02  2.60000000E+02  0.00000000E+00
  5.20000000E+02  2.40000000E+02  0.00000000E+00
  5.20000000E+02  2.20000000E+02  0.00000000E+00
  5.20000000E+02  2.00000000E+02  0.00000000E+00
  5.20000000E+02  1.80000000E+02  0.00000000E+00
  5.20000000E+02  1.60000000E+02  0.00000000E+00
  5.20000000E+02  1.40000000E+02  0.00000000E+00
  5.20000000E+02  1.20000000E+02  0.00000000E+00
  5.20000000E+02  1.00000000E+02  0.00000000E+00
  5.20000000E+02  8.00000000E+01  0.00000000E+00
  5.20000000E+02  6.00000000E+01  0.00000000E+00
  5.20000000E+02  4.00000000E+01  0.00000000E+00
  5.20000000E+02  2.00000000E+01  0.00000000E+00
  5.20000000E+02  4.99600361E-14  0.00000000E+00
  5.40000000E+02  3.00000000E+02  0.00000000E+00
  5.40000000E+02  2.80000000E+02  0.00000000E+00
  5.40000000E+02  2.60000000E+02  0.00000000E+00
  5.40000000E+02  2.40000000E+02  0.00000000E+00
  5.40000000E+02  2.20000000E+02  0.00000000E+00
  5.40000000E+02  2.00000000E+02  0.00000000E+00
  5.40000000E+02  1.80000000E+02  0.00000000E+00
  5.40000000E+02  1.60000000E+02  0.00000000E+00
  5.40000000E+02  1.40000000E+02  0.00000000E+00
  5.40000000E+02  1.20000000E+02  0.00000000E+00
  5.40000000E+02  1.00000000E+02  0.00000000E+00
  5.40000000E+02  8.00000000E+01  0.00000000E+00
  5.40000000E+02  6.00000000E+01  0.00000000E+00
  5.40000000E+02  4.00000000E+01  0.00000000E+00
  5.40000000E+02  2.00000000E+01  0.00000000E+00
  5.40000000E+02  4.99600361E-14  0.00000000E+00
  5.60000000E+02  3.00000000E+02  0.00000000E+00
  5.60000000E+02  2.80000000E+02  0.00000000E+00
  5.60000000E+02  2.60000000E+02  0.00000000E+00
  5.60000000E+02  2.40000000E+02  0.00000000E+00
  5.60000000E+02  2.20000000E+02  0.00000000E+00
  5.60000000E+02  2.00000000E+02  0.00000000E+00
  5.60000000E+02  1.80000000E+02  0.00000000E+00
  5.60000000E+02  1.60000000E+02  0.00000000E+00
  5.60000000E+02  1.40000000E+02  0.00000000E+00
  5.60000000E+02  1.20000000E+02  0.00000000E+00
  5.60000000E+02  1.00000000E+02  0.00000000E+00
  5.60000000E+02  8.00000000E+01  0.00000000E+00
  5.60000000E+02  6.00000000E+01  0.00000000E+00
  5.60000000E+02  4.00000000E+01  0.00000000E+00
  5.60000000E+02  2.00000000E+01  0.00000000E+00
  5.60000000E+02  4.99600361E-14  0.00000000E+00
  5.80000000E+02  3.00000000E+02  0.00000000E+00
  5.80000000E+02  2.80000000E+02  0.00000000E+00
  5.80000000E+02  2.60000000E+02  0.00000000E+00
  5.80000000E+02  2.40000000E+02  0.00000000E+00
  5.80000000E+02  2.20000000E+02  0.00000000E+00
  5.80000000E+02  2.00000000E+02  0.00000000E+00
  5.80000000E+02  1.80000000E+02  0.00000000E+00
  5.80000000E+02  1.60000000E+02  0.00000000E+00
  5.80000000E+02  1.40000000E+02  0.00000000E+00
  5.80000000E+02  1.20000000E+02  0.00000000E+00
  5.80000000E+02  1.00000000E+02  0.00000000E+00
  5.80000000E+02  8.00000000E+01  0.00000000E+00
  5.80000000E+02  6.00000000E+01  0.00000000E+00
  5.80000000E+02  4.00000000E+01  0.00000000E+00
  5.80000000E+02  2.00000000E+01  0.00000000E+00
  5.80000000E+02  4.99600361E-14  0.00000000E+00
  6.00000000E+02  3.00000000E+02  0.00000000E+00
  6.00000000E+02  2.80000000E+02  0.00000000E+00
  6.00000000E+02  2.60000000E+02  0.00000000E+00
  6.00000000E+02  2.40000000E+02  0.00000000E+00
  6.00000000E+02  2.20000000E+02  0.00000000E+00
  6.00000000E+02  2.00000000E+02  0.00000000E+00
  6.00000000E+02  1.80000000E+02  0.00000000E+00
  6.00000000E+02  1.60000000E+02  0.00000000E+00
  6.00000000E+02  1.40000000E+02  0.00000000E+00
  6.00000000E+02  1.20000000E+02  0.00000000E+00
  6.00000000E+02  1.00000000E+02  0.00000000E+00
  6.00000000E+02  8.00000000E+01  0.00000000E+00
  6.00000000E+02  6.00000000E+01  0.00000000E+00
  6.00000000E+02  4.00000000E+01  0.00000000E+00
  6.00000000E+02  2.00000000E+01  0.00000000E+00
  6.00000000E+02  4.99600361E-14  0.00000000E+00
CELLS       450      2250
         4           0           1          17          16
         4           1           2          18          17
         4           2           3          19          18
         4           3           4          20          19
         4           4           5          21          20
         4           5           6          22          21
         4           6           7          23          22
         4           7           8          24          23
         4           8           9          25          24
         4           9          10          26          25
         4          10          11          27          26
         4          11          12          28          27
         4          12          13          29          28
         4          13          14          30          29
         4          14          15          31          30
         4          16          17          33          32
         4          17          18          34          33
         4          18          19          35          34
         4          19          20          36          35
         4          20          21          37          36
         4          21          22          38          37
         4          22          23          39          38
         4          23          24          40          39
         4          24          25          41          40
         4          25          26          42          41
         4          26          27          43          42
         4          27          28          44          43
         4          28          29          45          44
         4          29          30          46          45
         4          30          31          47          46
         4          32          33          49          48
         4          33          34          50          49
         4          34          35          51          50
         4          35          36          52          51
         4          36          37          53          52
         4          37          38          54          53
         4          38          39          55          54
         4          39          40          56          55
         4          40          41          57          56
         4          41          42          58          57
         4          42          43          59          58
         4          43          44          60          59
         4          44          45          61          60
         4          45          46          62          61
         4          46          47          63          62
         4          48          49          65          64
         4          49          50          66          65
         4          50          51          67          66
         4          51          52          68          67
         4          52          53          69          68
         4          53          54          70          69
         4          54          55          71          70
         4          55          56          72          71
         4          56          57          73          72
         4          57          58          74          73
         4          58          59          75          74
         4          59          60          76          75
         4          60          61          77          76
         4          61          62          78          77
         4          62          63          79          78
         4          64          65          81          80
         4          65          66          82          81
         4          66          67          83          82
         4          67          68          84          83
         4          68          69          85          84
         4          69          70          86          85
         4          70          71          87          86
         4          71          72          88          87
         4          72          73          89          88
         4          73          74          90          89
         4          74          75          91          90
         4          75          76          92          91
         4          76          77          93          92
         4          77          78          94          93
         4          78          79          95          94
         4          80          81          97          96
         4          81          82          98          97
         4          82          83          99          98
         4          83          84         100          99
         4          84          85         101         100
         4          85          86         102         101
         4          86          87         103         102
         4          87          88         104         103
         4          88          89         105         104
         4          89          90         106         105
         4          90          91         107         106
         4          91          92         108         107
         4          92          93         109         108
         4          93          94         110         109
         4          94          95         111         110
         4          96          97         113         112
         4          97          98         114         113
         4          98          99         115         114
         4          99         100         116         115
         4         100         101         117         116
         4         101         102         118         117
         4         102         103         119         118
         4         103         104         120         119
         4         104         105         121         120
         4         105         106         122         121
         4         106         107         123         122
         4         107         108         124         123
         4         108         109         125         124
         4         109         110         126         125
         4         110         111         127         126
         4         112         113         129         128
         4         113         114         130         129
         4         114         115         131         130
         4         115         116         132         131
         4         116         117         133         132
         4         117         118         134         133
         4         118         119         135         134
         4         119         120         136         135
         4         120         121         137         136
         4         121         122         138         137
         4         122         123         139         138
         4         123         124         140         139
         4         124         125         141         140
         4         125         126         142         141
         4         126         127         143         142
         4         128         129         145         144
         4         129         130         146         145
         4         130         131         147         146
         4         131         132         148         147
         4         132         133         149         148
         4         133         134         150         149
         4         134         135         151         150
         4         135         136         152         151
         4         136         137         153         152
         4         137         138         154         153
         4         138         139         155         154
         4         139         140         156         155
         4         140         141         157         156
         4         141         142         158         157
         4         142         143         159         158
         4         144         145         161         160
         4         145         146         162         161
         4         146         147         163         162
         4         147         148         164         163
         4         148         149         165         164
         4         149         150         166         165
         4         150         151         167         166
         4         151         152         168         167
         4         152         153         169         168
         4         153         154         170         169
         4         154         155         171         170
         4         155         156         172         171
         4         156         157         173         172
         4         157         158         174         173
         4         158         159         175         174
         4         160         161         177         176
         4         161         162         178         177
         4         162         163         179         178
         4         163         164         180         179
         4         164         165         181         180
         4         165         166         182         181
         4         166         167         183         182
         4         167         168         184         183
         4         168         169         185         184
         4         169         170         186         185
         4         170         171         187         186
         4         171         172         188         187
         4         172         173         189         188
         4         173         174         190         189
         4         174         175         191         190
         4         176         177         193         192
         4         177         178         194         193
         4         178         179         195         194
         4         179         180         196         195
         4         180         181         197         196
         4         181         182         198         197
         4         182         183         199         198
         4         183         184         200         199
         4         184         185         201         200
         4         185         186         202         201
         4         186         187         203         202
         4         187         188         204         203
         4         188         189         205         204
         4         189         190         206         205
         4         190         191         207         206
         4         192         193         209         208
         4         193         194         210         209
         4         194         195         211         210
         4         195         196         212         211
         4         196         197         213         212
         4         197         198         214         213
         4         198         199         215         214
         4         199         200         216         215
         4         200         201         217         216
         4         201         202         218         217
         4         202         203         219         218
         4         203         204         220         219
         4         204         205         221         220
         4         205         206         222         221
         4         206         207         223         222
         4         208         209         225         224
         4         209         210         226         225
         4         210         211         227         226
         4         211         212         228         227
         4         212         213         229         228
         4         213         214         230         229
         4         214         215         231         230
         4         215         216         232         231
         4         216         217         233         232
         4         217         218         234         233
         4         218         219         235         234
         4         219         220         236         235
         4         220         221         237         236
         4         221         222         238         237
         4         222         223         239         238
         4         224         225         241         240
         4         225         226         242         241
         4         226         227         243         242
         4         227         228         244         243
         4         228         229         245         244
         4         229         230         246         245
         4         230         231         247         246
         4         231         232         248         247
         4         232         233         249         248
         4         233         234         250         249
         4         234         235         251         250
         4         235         236         252         251
         4         236         237         253         252
         4         237         238         254         253
         4         238         239         255         254
         4         240         241         257         256
         4         241         242         258         257
         4         242         243         259         258
         4         243         244         260         259
         4         244         245         261         260
         4         245         246         262         261
         4         246         247         263         262
         4         247         248         264         263
         4         248         249         265         264
         4         249         250         266         265
         4         250         251         267         266
         4         251         252         268         267
         4         252         253         269         268
         4         253         254         270         269
         4         254         255         271         270
         4         256         257         273         272
         4         257         258         274         273
         4         258         259         275         274
         4         259         260         276         275
         4         260         261         277         276
         4         261         262         278         277
         4         262         263         279         278
         4         263         264         280         279
         4         264         265         281         280
         4         265         266         282         281
         4         266         267         283         282
         4         267         268         284         283
         4         268         269         285         284
         4         269         270         286         285
         4         270         271         287         286
         4         272         273         289         288
         4         273         274         290         289
         4         274         275         291         290
         4         275         276         292         291
         4         276         277         293         292
         4         277         278         294         293
         4         278         279         295         294
         4         279         280         296         295
         4         280         281         297         296
         4         281         282         298         297
         4         282         283         299         298
         4         283         284         300         299
         4         284         285         301         300
         4         285         286         302         301
         4         286         287         303         302
         4         288         289         305         304
         4         289         290         306         305
         4         290         291         307         306
         4         291         292         308         307
         4         292         293         309         308
         4         293         294         310         309
         4         294         295         311         310
         4         295         296         312         311
         4         296         297         313         312
         4         297         298         314         313
         4         298         299         315         314
         4         299         300         316         315
         4         300         301         317         316
         4         301         302         318         317
         4         302         303         319         318
         4         304         305         321         320
         4         305         306         322         321
         4         306         307         323         322
         4         307         308         324         323
         4         308         309         325         324
         4         309         310         326         325
         4         310         311         327         326
         4         311         312         328         327
         4         312         313         329         328
         4         313         314         330         329
         4         314         315         331         330
         4         315         316         332         331
         4         316         317         333         332
         4         317         318         334         333
         4         318         319         335         334
         4         320         321         337         336
         4         321         322         338         337
         4         322         323         339         338
         4         323         324         340         339
         4         324         325         341         340
         4         325         326         342         341
         4         326         327         343         342
         4         327         328         344         343
         4         328         329         345         344
         4         329         330         346         345
         4         330         331         347         346
         4         331         332         348         347
         4         332         333         349         348
         4         333         334         350         349
         4         334         335         351         350
         4         336         337         353         352
         4         337         338         354         353
         4         338         339         355         354
         4         339         340         356         355
         4         340         341         357         356
         4         341         342         358         357
         4         342         343         359         358
         4         343         344         360         359
         4         344         345         361         360
         4         345         346         362         361
         4         346         347         363         362
         4         347         348         364         363
         4         348         349         365         364
         4         349         350         366         365
         4         350         351         367         366
         4         352         353         369         368
         4         353         354         370         369
         4         354         355         371         370
         4         355         356         372         371
         4         356         357         373         372
         4         357         358         374         373
         4         358         359         375         374
         4         359         360         376         375
         4         360         361         377         376
         4         361         362         378         377
         4         362         363         379         378
         4         363         364         380         379
         4         364         365         381         380
         4         365         366         382         381
         4         366         367         383         382
         4         368         369         385         384
         4         369         370         386         385
         4         370         371         387         386
         4         371         372         388         387
         4         372         373         389         388
         4         373         374         390         389
         4         374         375         391         390
         4         375         376         392         391
         4         376         377         393         392
         4         377         378         394         393
         4         378         379         395         394
         4         379         380         396         395
         4         380         381         397         396
         4         381         382         398         397
         4         382         383         399         398
         4         384         385         401         400
         4         385         386         402         401
         4         386         387         403         402
         4         387         388         404         403
         4         388         389         405         404
         4         389         390         406         405
         4         390         391         407         406
         4         391         392         408         407
         4         392         393         409         408
         4         393         394         410         409
         4         394         395         411         410
         4         395         396         412         411
         4         396         397         413         412
         4         397         398         414         413
         4         398         399         415         414
         4         400         401         417         416
         4         401         402         418         417
         4         402         403         419         418
         4         403         404         420         419
         4         404         405         421         420
         4         405         406         422         421
         4         406         407         423         422
         4         407         408         424         423
         4         408         409         425         424
         4         409         410         426         425
         4         410         411         427         426
         4         411         412         428         427
         4         412         413         429         428
         4         413         414         430         429
         4         414         415         431         430
         4         416         417         433         432
         4         417         418         434         433
         4         418         419         435         434
         4         419         420         436         435
         4         420         421         437         436
         4         421         422         438         437
         4         422         423         439         438
         4         423         424         440         439
         4         424         425         441         440
         4         425         426         442         441
         4         426         427         443         442
         4         427         428         444         443
         4         428         429         445         444
         4         429         430         446         445
         4         430         431         447         446
         4         432         433         449         448
         4         433         434         450         449
         4         434         435         451         450
         4         435         436         452         451
         4         436         437         453         452
         4         437         438         454         453
         4         438         439         455         454
         4         439         440         456         455
         4         440         441         457         456
         4         441         442         458         457
         4         442         443         459         458
         4         443         444         460         459
         4         444         445         461         460
         4         445         446         462         461
         4         446         447         463         462
         4         448         449         465         464
         4         449         450         466         465
         4         450         451         467         466
         4         451         452         468         467
         4         452         453         469         468
         4         453         454         470         469
         4         454         455         471         470
         4         455         456         472         471
         4         456         457         473         472
         4         457         458         474         473
         4         458         459         475         474
         4         459         460         476         475
         4         460         461         477         476
         4         461         462         478         477
         4         462         463         479         478
         4         464         465         481         480
         4         465         466         482         481
         4         466         467         483         482
         4         467         468         484         483
         4         468         469         485         484
         4         469         470         486         485
         4         470         471         487         486
         4         471         472         488         487
         4         472         473         489         488
         4         473         474         490         489
         4         474         475         491         490
         4         475         476         492         491
         4         476         477         493         492
         4         477         478         494         493
         4         478         479         495         494
CELL_TYPES        450
9
9
9
9
9
9
9
9
9
9
9
9
9
9
9
9
9
9
9
9
9
9
9
9
9
9
9
9
9
9
9
9
9
9
9
9
9
9
9
9
9
9
9
9
9
9
9
9
9
9
9
9
9
9
9
9
9
9
9
9
9
9
9
9
9
9
9
9
9
9
9
9
9
9
9
9
9
9
9
9
9
9
9
9
9
9
9
9
9
9
9
9
9
9
9
9
9
9
9
9
9
9
9
9
9
9
9
9
9
9
9
9
9
9
9
9
9
9
9
9
9
9
9
9
9
9
9
9
9
9
9
9
9
9
9
9
9
9
9
9
9
9
9
9
9
9
9
9
9
9
9
9
9
9
9
9
9
9
9
9
9
9
9
9
9
9
9
9
9
9
9
9
9
9
9
9
9
9
9
9
9
9
9
9
9
9
9
9
9
9
9
9
9
9
9
9
9
9
9
9
9
9
9
9
9
9
9
9
9
9
9
9
9
9
9
9
9
9
9
9
9
9
9
9
9
9
9
9
9
9
9
9
9
9
9
9
9
9
9
9
9
9
9
9
9
9
9
9
9
9
9
9
9
9
9
9
9
9
9
9
9
9
9
9
9
9
9
9
9
9
9
9
9
9
9
9
9
9
9
9
9
9
9
9
9
9
9
9
9
9
9
9
9
9
9
9
9
9
9
9
9
9
9
9
9
9
9
9
9
9
9
9
9
9
9
9
9
9
9
9
9
9
9
9
9
9
9
9
9
9
9
9
9
9
9
9
9
9
9
9
9
9
9
9
9
9
9
9
9
9
9
9
9
9
9
9
9
9
9
9
9
9
9
9
9
9
9
9
9
9
9
9
9
9
9
9
9
9
9
9
9
9
9
9
9
9
9
9
9
9
9
9
9
9
9
9
9
9
9
9
9
9
9
9
9
9
9
9
9
9
9
9
9
9
9
9
9
9
9
9
9
9
9
9
9
9
9
9
9
9
9
9
9
9
9
9
9
9
9
9
9
9
9
9
9
9
9
9
9
9
POINT_DATA       496
SCALARS p double 
LOOKUP_TABLE default
   10000000.0000157     
   10000000.0000157     
   10000000.0000157     
   10000000.0000157     
   10000000.0000157     
   10000000.0000157     
   10000000.0000156     
   10000000.0000156     
   10000000.0000156     
   10000000.0000156     
   10000000.0000156     
   10000000.0000156     
   10000000.0000156     
   10000000.0000156     
   10000000.0000156     
   10000000.0000156     
   10000000.0000157     
   10000000.0000157     
   10000000.0000157     
   10000000.0000157     
   10000000.0000156     
   10000000.0000156     
   10000000.0000156     
   10000000.0000156     
   10000000.0000156     
   10000000.0000156     
   10000000.0000156     
   10000000.0000156     
   10000000.0000156     
   10000000.0000156     
   10000000.0000155     
   10000000.0000155     
   10000000.0000156     
   10000000.0000156     
   10000000.0000156     
   10000000.0000156     
   10000000.0000156     
   10000000.0000156     
   10000000.0000156     
   10000000.0000155     
   10000000.0000155     
   10000000.0000155     
   10000000.0000155     
   10000000.0000155     
   10000000.0000155     
   10000000.0000155     
   10000000.0000155     
   10000000.0000155     
   10000000.0000155     
   10000000.0000155     
   10000000.0000155     
   10000000.0000155     
   10000000.0000155     
   10000000.0000155     
   10000000.0000154     
   10000000.0000154     
   10000000.0000154     
   10000000.0000154     
   10000000.0000154     
   10000000.0000154     
   10000000.0000154     
   10000000.0000154     
   10000000.0000154     
   10000000.0000154     
   10000000.0000153     
   10000000.0000153     
   10000000.0000153     
   10000000.0000153     
   10000000.0000153     
   10000000.0000153     
   10000000.0000153     
   10000000.0000153     
   10000000.0000153     
   10000000.0000153     
   10000000.0000152     
   10000000.0000152     
   10000000.0000152     
   10000000.0000152     
   10000000.0000152     
   10000000.0000152     
   10000000.0000151     
   10000000.0000151     
   10000000.0000151     
   10000000.0000151     
   10000000.0000151     
   10000000.0000151     
   10000000.0000151     
   10000000.0000151     
   10000000.0000151     
   10000000.0000151     
   10000000.0000151     
   10000000.0000150     
   10000000.0000150     
   10000000.0000150     
   10000000.0000150     
   10000000.0000150     
   10000000.0000149     
   10000000.0000149     
   10000000.0000149     
   10000000.0000149     
   10000000.0000149     
   10000000.0000149     
   10000000.0000149     
   10000000.0000148     
   10000000.0000148     
   10000000.0000148     
   10000000.0000148     
   10000000.0000148     
   10000000.0000148     
   10000000.0000148     
   10000000.0000148     
   10000000.0000148     
   10000000.0000146     
   10000000.0000146     
   10000000.0000146     
   10000000.0000146     
   10000000.0000146     
   10000000.0000146     
   10000000.0000146     
   10000000.0000146     
   10000000.0000146     
   10000000.0000145     
   10000000.0000145     
   10000000.0000145     
   10000000.0000145     
   10000000.0000145     
   10000000.0000145     
   10000000.0000145     
   10000000.0000143     
   10000000.0000143     
   10000000.0000143     
   10000000.0000143     
   10000000.0000143     
   10000000.0000143     
   10000000.0000143     
   10000000.0000142     
   10000000.0000142     
   10000000.0000142     
   10000000.0000142     
   10000000.0000142     
   10000000.0000142     
   10000000.0000142     
   10000000.0000142     
   10000000.0000142     
   10000000.0000139     
   10000000.0000139     
   10000000.0000139     
   10000000.0000139     
   10000000.0000139     
   10000000.0000139     
   10000000.0000139     
   10000000.0000139     
   10000000.0000139     
   10000000.0000139     
   10000000.0000139     
   10000000.0000138     
   10000000.0000138     
   10000000.0000138     
   10000000.0000138     
   10000000.0000138     
   10000000.0000135     
   10000000.0000135     
   10000000.0000135     
   10000000.0000135     
   10000000.0000135     
   10000000.0000135     
   10000000.0000135     
   10000000.0000135     
   10000000.0000135     
   10000000.0000135     
   10000000.0000135     
   10000000.0000135     
   10000000.0000134     
   10000000.0000134     
   10000000.0000134     
   10000000.0000134     
   10000000.0000131     
   10000000.0000131     
   10000000.0000131     
   10000000.0000131     
   10000000.0000131     
   10000000.0000131     
   10000000.0000131     
   10000000.0000131     
   10000000.0000130     
   10000000.0000130     
   10000000.0000130     
   10000000.0000130     
   10000000.0000130     
   10000000.0000130     
   10000000.0000130     
   10000000.0000130     
   10000000.0000126     
   10000000.0000126     
   10000000.0000126     
   10000000.0000126     
   10000000.0000126     
   10000000.0000126     
   10000000.0000126     
   10000000.0000126     
   10000000.0000126     
   10000000.0000126     
   10000000.0000126     
   10000000.0000126     
   10000000.0000125     
   10000000.0000125     
   10000000.0000125     
   10000000.0000125     
   10000000.0000121     
   10000000.0000121     
   10000000.0000121     
   10000000.0000121     
   10000000.0000121     
   10000000.0000121     
   10000000.0000121     
   10000000.0000121     
   10000000.0000121     
   10000000.0000121     
   10000000.0000120     
   10000000.0000120     
   10000000.0000120     
   10000000.0000120     
   10000000.0000120     
   10000000.0000120     
   10000000.0000116     
   10000000.0000116     
   10000000.0000116     
   10000000.0000116     
   10000000.0000115     
   10000000.0000115     
   10000000.0000115     
   10000000.0000115     
   10000000.0000115     
   10000000.0000115     
   10000000.0000115     
   10000000.0000115     
   10000000.0000115     
   10000000.0000115     
   10000000.0000115     
   10000000.0000115     
   10000000.0000110     
   10000000.0000110     
   10000000.0000110     
   10000000.0000110     
   10000000.0000110     
   10000000.0000110     
   10000000.0000110     
   10000000.0000110     
   10000000.0000110     
   10000000.0000109     
   10000000.0000109     
   10000000.0000109     
   10000000.0000109     
   10000000.0000109     
   10000000.0000109     
   10000000.0000109     
   10000000.0000104     
   10000000.0000104     
   10000000.0000104     
   10000000.0000104     
   10000000.0000104     
   10000000.0000104     
   10000000.0000104     
   10000000.0000104     
   10000000.0000104     
   10000000.0000103     
   10000000.0000103     
   10000000.0000103     
   10000000.0000103     
   10000000.0000103     
   10000000.0000103     
   10000000.0000103     
   10000000.0000097     
   10000000.0000097     
   10000000.0000097     
   10000000.0000097     
   10000000.0000097     
   10000000.0000097     
   10000000.0000097     
   10000000.0000097     
   10000000.0000097     
   10000000.0000097     
   10000000.0000097     
   10000000.0000097     
   10000000.0000097     
   10000000.0000097     
   10000000.0000097     
   10000000.0000097     
   10000000.0000091     
   10000000.0000091     
   10000000.0000091     
   10000000.0000091     
   10000000.0000091     
   10000000.0000091     
   10000000.0000091     
   10000000.0000091     
   10000000.0000091     
   10000000.0000091     
   10000000.0000091     
   10000000.0000091     
   10000000.0000090     
   10000000.0000090     
   10000000.0000090     
   10000000.0000090     
   10000000.0000084     
   10000000.0000084     
   10000000.0000084     
   10000000.0000084     
   10000000.0000084     
   10000000.0000084     
   10000000.0000084     
   10000000.0000084     
   10000000.0000084     
   10000000.0000084     
   10000000.0000084     
   10000000.0000084     
   10000000.0000084     
   10000000.0000084     
   10000000.0000084     
   10000000.0000084     
   10000000.0000077     
   10000000.0000077     
   10000000.0000077     
   10000000.0000077     
   10000000.0000077     
   10000000.0000077     
   10000000.0000077     
   10000000.0000077     
   10000000.0000077     
   10000000.0000077     
   10000000.0000077     
   10000000.0000077     
   10000000.0000077     
   10000000.0000077     
   10000000.0000077     
   10000000.0000077     
   10000000.0000070     
   10000000.0000070     
   10000000.0000070     
   10000000.0000070     
   10000000.0000070     
   10000000.0000070     
   10000000.0000070     
   10000000.0000070     
   10000000.0000070     
   10000000.0000070     
   10000000.0000070     
   10000000.0000070     
   10000000.0000070     
   10000000.0000070     
   10000000.0000069     
   10000000.0000070     
   10000000.0000062     
   10000000.0000062     
   10000000.0000062     
   10000000.0000062     
   10000000.0000062     
   10000000.0000062     
   10000000.0000062     
   10000000.0000062     
   10000000.0000062     
   10000000.0000062     
   10000000.0000062     
   10000000.0000062     
   10000000.0000062     
   10000000.0000062     
   10000000.0000062     
   10000000.0000062     
   10000000.0000055     
   10000000.0000055     
   10000000.0000055     
   10000000.0000055     
   10000000.0000055     
   10000000.0000055     
   10000000.0000055     
   10000000.0000055     
   10000000.0000055     
   10000000.0000055     
   10000000.0000055     
   10000000.0000055     
   10000000.0000055     
   10000000.0000055     
   10000000.0000055     
   10000000.0000055     
   10000000.0000047     
   10000000.0000047     
   10000000.0000047     
   10000000.0000047     
   10000000.0000047     
   10000000.0000047     
   10000000.0000047     
   10000000.0000047     
   10000000.0000047     
   10000000.0000047     
   10000000.0000047     
   10000000.0000047     
   10000000.0000047     
   10000000.0000047     
   10000000.0000047     
   10000000.0000047     
   10000000.0000039     
   10000000.0000039     
   10000000.0000039     
   10000000.0000039     
   10000000.0000039     
   10000000.0000039     
   10000000.0000039     
   10000000.0000039     
   10000000.0000039     
   10000000.0000039     
   10000000.0000039     
   10000000.0000039     
   10000000.0000039     
   10000000.0000039     
   10000000.0000039     
   10000000.0000039     
   10000000.0000031     
   10000000.0000031     
   10000000.0000031     
   10000000.0000031     
   10000000.0000031     
   10000000.0000031     
   10000000.0000031     
   10000000.0000031     
   10000000.0000032     
   10000000.0000032     
   10000000.0000032     
   10000000.0000032     
   10000000.0000032     
   10000000.0000032     
   10000000.0000032     
   10000000.0000032     
   10000000.0000023     
   10000000.0000023     
   10000000.0000023     
   10000000.0000024     
   10000000.0000024     
   10000000.0000024     
   10000000.0000024     
   10000000.0000024     
   10000000.0000024     
   10000000.0000024     
   10000000.0000024     
   10000000.0000024     
   10000000.0000024     
   10000000.0000024     
   10000000.0000024     
   10000000.0000024     
   10000000.0000016     
   10000000.0000016     
   10000000.0000016     
   10000000.0000016     
   10000000.0000016     
   10000000.0000016     
   10000000.0000016     
   10000000.0000016     
   10000000.0000016     
   10000000.0000016     
   10000000.0000016     
   10000000.0000016     
   10000000.0000016     
   10000000.0000016     
   10000000.0000016     
   10000000.0000016     
   10000000.0000008     
   10000000.0000008     
   10000000.0000008     
   10000000.0000008     
   10000000.0000008     
   10000000.0000008     
   10000000.0000008     
   10000000.0000008     
   10000000.0000008     
   10000000.0000008     
   10000000.0000008     
   10000000.0000008     
   10000000.0000008     
   10000000.0000008     
   10000000.0000008     
   10000000.0000008     
   10000000.0000000     
   10000000.0000000     
   10000000.0000000     
   10000000.0000000     
   10000000.0000000     
   10000000.0000000     
   10000000.0000000     
   10000000.0000000     
   10000000.0000000     
   10000000.0000000     
   10000000.0000000     
   10000000.0000000     
   10000000.0000000     
  10000000.00000000     
   10000000.0000000     
   10000000.0000000     
VECTORS u double 
    0.00000E+00        -0.64174E-01         0.00000E+00
    0.00000E+00        -0.59892E-01         0.00000E+00
    0.00000E+00        -0.55609E-01         0.00000E+00
    0.00000E+00        -0.51326E-01         0.00000E+00
    0.00000E+00        -0.47044E-01         0.00000E+00
    0.00000E+00        -0.42761E-01         0.00000E+00
    0.00000E+00        -0.38479E-01         0.00000E+00
    0.00000E+00        -0.34198E-01         0.00000E+00
    0.00000E+00        -0.29918E-01         0.00000E+00
    0.00000E+00        -0.25638E-01         0.00000E+00
    0.00000E+00        -0.21361E-01         0.00000E+00
    0.00000E+00        -0.17084E-01         0.00000E+00
    0.00000E+00        -0.12810E-01         0.00000E+00
    0.00000E+00        -0.85378E-02         0.00000E+00
    0.00000E+00        -0.42677E-02         0.00000E+00
    0.00000E+00         0.00000E+00         0.00000E+00
    0.17142E-04        -0.64174E-01         0.00000E+00
    0.17899E-04        -0.59892E-01         0.00000E+00
    0.18404E-04        -0.55609E-01         0.00000E+00
    0.18653E-04        -0.51326E-01         0.00000E+00
    0.18642E-04        -0.47043E-01         0.00000E+00
    0.18366E-04        -0.42761E-01         0.00000E+00
    0.17818E-04        -0.38479E-01         0.00000E+00
    0.16990E-04        -0.34198E-01         0.00000E+00
    0.15878E-04        -0.29917E-01         0.00000E+00
    0.14477E-04        -0.25638E-01         0.00000E+00
    0.12784E-04        -0.21361E-01         0.00000E+00
    0.10797E-04        -0.17084E-01         0.00000E+00
    0.85200E-05        -0.12810E-01         0.00000E+00
    0.59558E-05        -0.85378E-02         0.00000E+00
    0.31123E-05        -0.42677E-02         0.00000E+00
    0.00000E+00         0.00000E+00         0.00000E+00
    0.34192E-04        -0.64173E-01         0.00000E+00
    0.35706E-04        -0.59890E-01         0.00000E+00
    0.36714E-04        -0.55608E-01         0.00000E+00
    0.37214E-04        -0.51325E-01         0.00000E+00
    0.37194E-04        -0.47042E-01         0.00000E+00
    0.36645E-04        -0.42760E-01         0.00000E+00
    0.35553E-04        -0.38478E-01         0.00000E+00
    0.33903E-04        -0.34197E-01         0.00000E+00
    0.31686E-04        -0.29917E-01         0.00000E+00
    0.28891E-04        -0.25638E-01         0.00000E+00
    0.25513E-04        -0.21360E-01         0.00000E+00
    0.21550E-04        -0.17084E-01         0.00000E+00
    0.17005E-04        -0.12810E-01         0.00000E+00
    0.11888E-04        -0.85377E-02         0.00000E+00
    0.62125E-05        -0.42676E-02         0.00000E+00
    0.00000E+00         0.00000E+00         0.00000E+00
    0.51057E-04        -0.64170E-01         0.00000E+00
    0.53325E-04        -0.59888E-01         0.00000E+00
    0.54838E-04        -0.55606E-01         0.00000E+00
    0.55590E-04        -0.51323E-01         0.00000E+00
    0.55566E-04        -0.47041E-01         0.00000E+00
    0.54750E-04        -0.42759E-01         0.00000E+00
    0.53121E-04        -0.38477E-01         0.00000E+00
    0.50661E-04        -0.34196E-01         0.00000E+00
    0.47351E-04        -0.29916E-01         0.00000E+00
    0.43177E-04        -0.25637E-01         0.00000E+00
    0.38132E-04        -0.21360E-01         0.00000E+00
    0.32212E-04        -0.17084E-01         0.00000E+00
    0.25421E-04        -0.12810E-01         0.00000E+00
    0.17773E-04        -0.85375E-02         0.00000E+00
    0.92885E-05        -0.42676E-02         0.00000E+00
    0.00000E+00         0.00000E+00         0.00000E+00
    0.67643E-04        -0.64167E-01         0.00000E+00
    0.70662E-04        -0.59885E-01         0.00000E+00
    0.72679E-04        -0.55603E-01         0.00000E+00
    0.73685E-04        -0.51321E-01         0.00000E+00
    0.73663E-04        -0.47039E-01         0.00000E+00
    0.72589E-04        -0.42757E-01         0.00000E+00
    0.70438E-04        -0.38475E-01         0.00000E+00
    0.67184E-04        -0.34195E-01         0.00000E+00
    0.62801E-04        -0.29915E-01         0.00000E+00
    0.57273E-04        -0.25636E-01         0.00000E+00
    0.50586E-04        -0.21359E-01         0.00000E+00
    0.42738E-04        -0.17083E-01         0.00000E+00
    0.33732E-04        -0.12809E-01         0.00000E+00
    0.23586E-04        -0.85373E-02         0.00000E+00
    0.12328E-04        -0.42675E-02         0.00000E+00
    0.00000E+00         0.00000E+00         0.00000E+00
    0.83851E-04        -0.64163E-01         0.00000E+00
    0.87616E-04        -0.59882E-01         0.00000E+00
    0.90136E-04        -0.55600E-01         0.00000E+00
    0.91402E-04        -0.51318E-01         0.00000E+00
    0.91390E-04        -0.47036E-01         0.00000E+00
    0.90072E-04        -0.42754E-01         0.00000E+00
    0.87416E-04        -0.38473E-01         0.00000E+00
    0.83390E-04        -0.34193E-01         0.00000E+00
    0.77963E-04        -0.29913E-01         0.00000E+00
    0.71111E-04        -0.25635E-01         0.00000E+00
    0.62820E-04        -0.21358E-01         0.00000E+00
    0.53082E-04        -0.17083E-01         0.00000E+00
    0.41904E-04        -0.12809E-01         0.00000E+00
    0.29305E-04        -0.85370E-02         0.00000E+00
    0.15320E-04        -0.42674E-02         0.00000E+00
    0.00000E+00         0.00000E+00         0.00000E+00
    0.99578E-04        -0.64158E-01         0.00000E+00
    0.10408E-03        -0.59877E-01         0.00000E+00
    0.10711E-03        -0.55596E-01         0.00000E+00
    0.10864E-03        -0.51314E-01         0.00000E+00
    0.10865E-03        -0.47033E-01         0.00000E+00
    0.10710E-03        -0.42751E-01         0.00000E+00
    0.10396E-03        -0.38471E-01         0.00000E+00
    0.99195E-04        -0.34191E-01         0.00000E+00
    0.92759E-04        -0.29911E-01         0.00000E+00
    0.84625E-04        -0.25634E-01         0.00000E+00
    0.74774E-04        -0.21357E-01         0.00000E+00
    0.63197E-04        -0.17082E-01         0.00000E+00
    0.49900E-04        -0.12808E-01         0.00000E+00
    0.34904E-04        -0.85368E-02         0.00000E+00
    0.18250E-04        -0.42673E-02         0.00000E+00
    0.00000E+00         0.00000E+00         0.00000E+00
    0.11471E-03        -0.64153E-01         0.00000E+00
    0.11995E-03        -0.59872E-01         0.00000E+00
    0.12347E-03        -0.55591E-01         0.00000E+00
    0.12528E-03        -0.51310E-01         0.00000E+00
    0.12532E-03        -0.47029E-01         0.00000E+00
    0.12357E-03        -0.42748E-01         0.00000E+00
    0.11999E-03        -0.38468E-01         0.00000E+00
    0.11451E-03        -0.34188E-01         0.00000E+00
    0.10711E-03        -0.29909E-01         0.00000E+00
    0.97746E-04        -0.25632E-01         0.00000E+00
    0.86392E-04        -0.21356E-01         0.00000E+00
    0.73036E-04        -0.17081E-01         0.00000E+00
    0.57684E-04        -0.12808E-01         0.00000E+00
    0.40359E-04        -0.85364E-02         0.00000E+00
    0.21108E-04        -0.42671E-02         0.00000E+00
    0.00000E+00         0.00000E+00         0.00000E+00
    0.12914E-03        -0.64146E-01         0.00000E+00
    0.13509E-03        -0.59866E-01         0.00000E+00
    0.13912E-03        -0.55585E-01         0.00000E+00
    0.14121E-03        -0.51305E-01         0.00000E+00
    0.14131E-03        -0.47024E-01         0.00000E+00
    0.13938E-03        -0.42744E-01         0.00000E+00
    0.13538E-03        -0.38464E-01         0.00000E+00
    0.12925E-03        -0.34185E-01         0.00000E+00
    0.12094E-03        -0.29907E-01         0.00000E+00
    0.11040E-03        -0.25630E-01         0.00000E+00
    0.97611E-04        -0.21354E-01         0.00000E+00
    0.82549E-04        -0.17080E-01         0.00000E+00
    0.65219E-04        -0.12807E-01         0.00000E+00
    0.45646E-04        -0.85361E-02         0.00000E+00
    0.23880E-04        -0.42670E-02         0.00000E+00
    0.00000E+00         0.00000E+00         0.00000E+00
    0.14273E-03        -0.64139E-01         0.00000E+00
    0.14939E-03        -0.59859E-01         0.00000E+00
    0.15392E-03        -0.55579E-01         0.00000E+00
    0.15630E-03        -0.51299E-01         0.00000E+00
    0.15648E-03        -0.47019E-01         0.00000E+00
    0.15442E-03        -0.42740E-01         0.00000E+00
    0.15005E-03        -0.38461E-01         0.00000E+00
    0.14331E-03        -0.34182E-01         0.00000E+00
    0.13415E-03        -0.29905E-01         0.00000E+00
    0.12252E-03        -0.25628E-01         0.00000E+00
    0.10837E-03        -0.21353E-01         0.00000E+00
    0.91686E-04        -0.17079E-01         0.00000E+00
    0.72466E-04        -0.12807E-01         0.00000E+00
    0.50737E-04        -0.85358E-02         0.00000E+00
    0.26553E-04        -0.42669E-02         0.00000E+00
    0.00000E+00         0.00000E+00         0.00000E+00
    0.15536E-03        -0.64131E-01         0.00000E+00
    0.16270E-03        -0.59852E-01         0.00000E+00
    0.16774E-03        -0.55573E-01         0.00000E+00
    0.17043E-03        -0.51293E-01         0.00000E+00
    0.17072E-03        -0.47014E-01         0.00000E+00
    0.16856E-03        -0.42735E-01         0.00000E+00
    0.16388E-03        -0.38457E-01         0.00000E+00
    0.15660E-03        -0.34179E-01         0.00000E+00
    0.14667E-03        -0.29902E-01         0.00000E+00
    0.13402E-03        -0.25626E-01         0.00000E+00
    0.11860E-03        -0.21351E-01         0.00000E+00
    0.10039E-03        -0.17078E-01         0.00000E+00
    0.79385E-04        -0.12806E-01         0.00000E+00
    0.55605E-04        -0.85355E-02         0.00000E+00
    0.29112E-04        -0.42668E-02         0.00000E+00
    0.00000E+00         0.00000E+00         0.00000E+00
    0.16686E-03        -0.64122E-01         0.00000E+00
    0.17488E-03        -0.59844E-01         0.00000E+00
    0.18042E-03        -0.55565E-01         0.00000E+00
    0.18344E-03        -0.51287E-01         0.00000E+00
    0.18388E-03        -0.47008E-01         0.00000E+00
    0.18168E-03        -0.42730E-01         0.00000E+00
    0.17674E-03        -0.38453E-01         0.00000E+00
    0.16901E-03        -0.34176E-01         0.00000E+00
    0.15839E-03        -0.29899E-01         0.00000E+00
    0.14482E-03        -0.25624E-01         0.00000E+00
    0.12824E-03        -0.21350E-01         0.00000E+00
    0.10861E-03        -0.17077E-01         0.00000E+00
    0.85931E-04        -0.12805E-01         0.00000E+00
    0.60221E-04        -0.85353E-02         0.00000E+00
    0.31543E-04        -0.42668E-02         0.00000E+00
    0.00000E+00         0.00000E+00         0.00000E+00
    0.17709E-03        -0.64112E-01         0.00000E+00
    0.18575E-03        -0.59835E-01         0.00000E+00
    0.19180E-03        -0.55558E-01         0.00000E+00
    0.19518E-03        -0.51280E-01         0.00000E+00
    0.19582E-03        -0.47002E-01         0.00000E+00
    0.19363E-03        -0.42725E-01         0.00000E+00
    0.18853E-03        -0.38448E-01         0.00000E+00
    0.18042E-03        -0.34172E-01         0.00000E+00
    0.16921E-03        -0.29897E-01         0.00000E+00
    0.15483E-03        -0.25622E-01         0.00000E+00
    0.13720E-03        -0.21349E-01         0.00000E+00
    0.11628E-03        -0.17076E-01         0.00000E+00
    0.92057E-04        -0.12805E-01         0.00000E+00
    0.64552E-04        -0.85351E-02         0.00000E+00
    0.33830E-04        -0.42668E-02         0.00000E+00
    0.00000E+00         0.00000E+00         0.00000E+00
    0.18587E-03        -0.64102E-01         0.00000E+00
    0.19516E-03        -0.59826E-01         0.00000E+00
    0.20173E-03        -0.55549E-01         0.00000E+00
    0.20550E-03        -0.51273E-01         0.00000E+00
    0.20638E-03        -0.46996E-01         0.00000E+00
    0.20428E-03        -0.42720E-01         0.00000E+00
    0.19909E-03        -0.38444E-01         0.00000E+00
    0.19071E-03        -0.34169E-01         0.00000E+00
    0.17903E-03        -0.29894E-01         0.00000E+00
    0.16395E-03        -0.25620E-01         0.00000E+00
    0.14540E-03        -0.21347E-01         0.00000E+00
    0.12333E-03        -0.17075E-01         0.00000E+00
    0.97710E-04        -0.12805E-01         0.00000E+00
    0.68562E-04        -0.85351E-02         0.00000E+00
    0.35953E-04        -0.42668E-02         0.00000E+00
    0.00000E+00         0.00000E+00         0.00000E+00
    0.19302E-03        -0.64091E-01         0.00000E+00
    0.20291E-03        -0.59816E-01         0.00000E+00
    0.21001E-03        -0.55541E-01         0.00000E+00
    0.21421E-03        -0.51265E-01         0.00000E+00
    0.21540E-03        -0.46990E-01         0.00000E+00
    0.21347E-03        -0.42714E-01         0.00000E+00
    0.20830E-03        -0.38440E-01         0.00000E+00
    0.19975E-03        -0.34165E-01         0.00000E+00
    0.18772E-03        -0.29892E-01         0.00000E+00
    0.17208E-03        -0.25619E-01         0.00000E+00
    0.15276E-03        -0.21346E-01         0.00000E+00
    0.12969E-03        -0.17075E-01         0.00000E+00
    0.10283E-03        -0.12805E-01         0.00000E+00
    0.72212E-04        -0.85352E-02         0.00000E+00
    0.37894E-04        -0.42670E-02         0.00000E+00
    0.00000E+00         0.00000E+00         0.00000E+00
    0.19837E-03        -0.64080E-01         0.00000E+00
    0.20883E-03        -0.59806E-01         0.00000E+00
    0.21646E-03        -0.55532E-01         0.00000E+00
    0.22113E-03        -0.51257E-01         0.00000E+00
    0.22270E-03        -0.46983E-01         0.00000E+00
    0.22103E-03        -0.42709E-01         0.00000E+00
    0.21598E-03        -0.38435E-01         0.00000E+00
    0.20740E-03        -0.34162E-01         0.00000E+00
    0.19515E-03        -0.29889E-01         0.00000E+00
    0.17910E-03        -0.25617E-01         0.00000E+00
    0.15916E-03        -0.21345E-01         0.00000E+00
    0.13526E-03        -0.17075E-01         0.00000E+00
    0.10735E-03        -0.12805E-01         0.00000E+00
    0.75457E-04        -0.85354E-02         0.00000E+00
    0.39631E-04        -0.42672E-02         0.00000E+00
    0.00000E+00         0.00000E+00         0.00000E+00
    0.20173E-03        -0.64068E-01         0.00000E+00
    0.21273E-03        -0.59795E-01         0.00000E+00
    0.22090E-03        -0.55522E-01         0.00000E+00
    0.22609E-03        -0.51249E-01         0.00000E+00
    0.22811E-03        -0.46976E-01         0.00000E+00
    0.22679E-03        -0.42704E-01         0.00000E+00
    0.22198E-03        -0.38431E-01         0.00000E+00
    0.21348E-03        -0.34159E-01         0.00000E+00
    0.20116E-03        -0.29887E-01         0.00000E+00
    0.18487E-03        -0.25616E-01         0.00000E+00
    0.16449E-03        -0.21345E-01         0.00000E+00
    0.13995E-03        -0.17075E-01         0.00000E+00
    0.11120E-03        -0.12805E-01         0.00000E+00
    0.78247E-04        -0.85359E-02         0.00000E+00
    0.41140E-04        -0.42676E-02         0.00000E+00
    0.00000E+00         0.00000E+00         0.00000E+00
    0.20294E-03        -0.64055E-01         0.00000E+00
    0.21443E-03        -0.59784E-01         0.00000E+00
    0.22315E-03        -0.55513E-01         0.00000E+00
    0.22888E-03        -0.51241E-01         0.00000E+00
    0.23142E-03        -0.46970E-01         0.00000E+00
    0.23056E-03        -0.42698E-01         0.00000E+00
    0.22609E-03        -0.38427E-01         0.00000E+00
    0.21782E-03        -0.34156E-01         0.00000E+00
    0.20559E-03        -0.29885E-01         0.00000E+00
    0.18922E-03        -0.25615E-01         0.00000E+00
    0.16860E-03        -0.21345E-01         0.00000E+00
    0.14365E-03        -0.17075E-01         0.00000E+00
    0.11429E-03        -0.12806E-01         0.00000E+00
    0.80526E-04        -0.85366E-02         0.00000E+00
    0.42395E-04        -0.42681E-02         0.00000E+00
    0.00000E+00         0.00000E+00         0.00000E+00
    0.20183E-03        -0.64042E-01         0.00000E+00
    0.21376E-03        -0.59773E-01         0.00000E+00
    0.22302E-03        -0.55503E-01         0.00000E+00
    0.22934E-03        -0.51233E-01         0.00000E+00
    0.23246E-03        -0.46963E-01         0.00000E+00
    0.23213E-03        -0.42693E-01         0.00000E+00
    0.22812E-03        -0.38423E-01         0.00000E+00
    0.22021E-03        -0.34153E-01         0.00000E+00
    0.20822E-03        -0.29884E-01         0.00000E+00
    0.19197E-03        -0.25614E-01         0.00000E+00
    0.17133E-03        -0.21345E-01         0.00000E+00
    0.14621E-03        -0.17076E-01         0.00000E+00
    0.11652E-03        -0.12807E-01         0.00000E+00
    0.82231E-04        -0.85376E-02         0.00000E+00
    0.43367E-04        -0.42687E-02         0.00000E+00
    0.00000E+00         0.00000E+00         0.00000E+00
    0.19828E-03        -0.64029E-01         0.00000E+00
    0.21059E-03        -0.59761E-01         0.00000E+00
    0.22036E-03        -0.55493E-01         0.00000E+00
    0.22727E-03        -0.51225E-01         0.00000E+00
    0.23101E-03        -0.46956E-01         0.00000E+00
    0.23128E-03        -0.42688E-01         0.00000E+00
    0.22782E-03        -0.38420E-01         0.00000E+00
    0.22041E-03        -0.34151E-01         0.00000E+00
    0.20882E-03        -0.29883E-01         0.00000E+00
    0.19290E-03        -0.25614E-01         0.00000E+00
    0.17249E-03        -0.21346E-01         0.00000E+00
    0.14748E-03        -0.17077E-01         0.00000E+00
    0.11777E-03        -0.12808E-01         0.00000E+00
    0.83292E-04        -0.85389E-02         0.00000E+00
    0.44026E-04        -0.42695E-02         0.00000E+00
    0.00000E+00         0.00000E+00         0.00000E+00
    0.19221E-03        -0.64015E-01         0.00000E+00
    0.20481E-03        -0.59749E-01         0.00000E+00
    0.21504E-03        -0.55483E-01         0.00000E+00
    0.22252E-03        -0.51216E-01         0.00000E+00
    0.22687E-03        -0.46950E-01         0.00000E+00
    0.22778E-03        -0.42683E-01         0.00000E+00
    0.22496E-03        -0.38416E-01         0.00000E+00
    0.21814E-03        -0.34150E-01         0.00000E+00
    0.20713E-03        -0.29882E-01         0.00000E+00
    0.19175E-03        -0.25615E-01         0.00000E+00
    0.17185E-03        -0.21347E-01         0.00000E+00
    0.14728E-03        -0.17079E-01         0.00000E+00
    0.11791E-03        -0.12810E-01         0.00000E+00
    0.83628E-04        -0.85405E-02         0.00000E+00
    0.44336E-04        -0.42705E-02         0.00000E+00
    0.00000E+00         0.00000E+00         0.00000E+00
    0.18356E-03        -0.64002E-01         0.00000E+00
    0.19634E-03        -0.59737E-01         0.00000E+00
    0.20694E-03        -0.55473E-01         0.00000E+00
    0.21492E-03        -0.51208E-01         0.00000E+00
    0.21986E-03        -0.46944E-01         0.00000E+00
    0.22140E-03        -0.42679E-01         0.00000E+00
    0.21924E-03        -0.38414E-01         0.00000E+00
    0.21312E-03        -0.34148E-01         0.00000E+00
    0.20284E-03        -0.29882E-01         0.00000E+00
    0.18825E-03        -0.25616E-01         0.00000E+00
    0.16916E-03        -0.21349E-01         0.00000E+00
    0.14541E-03        -0.17081E-01         0.00000E+00
    0.11680E-03        -0.12812E-01         0.00000E+00
    0.83142E-04        -0.85424E-02         0.00000E+00
    0.44254E-04        -0.42716E-02         0.00000E+00
    0.00000E+00         0.00000E+00         0.00000E+00
    0.17234E-03        -0.63988E-01         0.00000E+00
    0.18515E-03        -0.59725E-01         0.00000E+00
    0.19599E-03        -0.55463E-01         0.00000E+00
    0.20436E-03        -0.51200E-01         0.00000E+00
    0.20978E-03        -0.46937E-01         0.00000E+00
    0.21188E-03        -0.42674E-01         0.00000E+00
    0.21037E-03        -0.38411E-01         0.00000E+00
    0.20501E-03        -0.34147E-01         0.00000E+00
    0.19563E-03        -0.29883E-01         0.00000E+00
    0.18207E-03        -0.25618E-01         0.00000E+00
    0.16414E-03        -0.21351E-01         0.00000E+00
    0.14162E-03        -0.17084E-01         0.00000E+00
    0.11425E-03        -0.12815E-01         0.00000E+00
    0.81713E-04        -0.85446E-02         0.00000E+00
    0.43722E-04        -0.42729E-02         0.00000E+00
    0.00000E+00         0.00000E+00         0.00000E+00
    0.15858E-03        -0.63974E-01         0.00000E+00
    0.17124E-03        -0.59714E-01         0.00000E+00
    0.18215E-03        -0.55453E-01         0.00000E+00
    0.19071E-03        -0.51192E-01         0.00000E+00
    0.19645E-03        -0.46931E-01         0.00000E+00
    0.19898E-03        -0.42670E-01         0.00000E+00
    0.19805E-03        -0.38409E-01         0.00000E+00
    0.19348E-03        -0.34147E-01         0.00000E+00
    0.18515E-03        -0.29884E-01         0.00000E+00
    0.17289E-03        -0.25620E-01         0.00000E+00
    0.15649E-03        -0.21354E-01         0.00000E+00
    0.13565E-03        -0.17087E-01         0.00000E+00
    0.11003E-03        -0.12818E-01         0.00000E+00
    0.79185E-04        -0.85470E-02         0.00000E+00
    0.42664E-04        -0.42743E-02         0.00000E+00
    0.00000E+00         0.00000E+00         0.00000E+00
    0.14236E-03        -0.63961E-01         0.00000E+00
    0.15465E-03        -0.59702E-01         0.00000E+00
    0.16537E-03        -0.55443E-01         0.00000E+00
    0.17389E-03        -0.51185E-01         0.00000E+00
    0.17969E-03        -0.46926E-01         0.00000E+00
    0.18244E-03        -0.42667E-01         0.00000E+00
    0.18199E-03        -0.38407E-01         0.00000E+00
    0.17823E-03        -0.34147E-01         0.00000E+00
    0.17108E-03        -0.29886E-01         0.00000E+00
    0.16036E-03        -0.25622E-01         0.00000E+00
    0.14584E-03        -0.21357E-01         0.00000E+00
    0.12716E-03        -0.17090E-01         0.00000E+00
    0.10386E-03        -0.12821E-01         0.00000E+00
    0.75350E-04        -0.85496E-02         0.00000E+00
    0.40969E-04        -0.42759E-02         0.00000E+00
    0.00000E+00         0.00000E+00         0.00000E+00
    0.12380E-03        -0.63949E-01         0.00000E+00
    0.13543E-03        -0.59691E-01         0.00000E+00
    0.14565E-03        -0.55434E-01         0.00000E+00
    0.15377E-03        -0.51178E-01         0.00000E+00
    0.15931E-03        -0.46921E-01         0.00000E+00
    0.16206E-03        -0.42664E-01         0.00000E+00
    0.16196E-03        -0.38406E-01         0.00000E+00
    0.15901E-03        -0.34148E-01         0.00000E+00
    0.15312E-03        -0.29887E-01         0.00000E+00
    0.14415E-03        -0.25625E-01         0.00000E+00
    0.13184E-03        -0.21361E-01         0.00000E+00
    0.11577E-03        -0.17094E-01         0.00000E+00
    0.95383E-04        -0.12824E-01         0.00000E+00
    0.69925E-04        -0.85523E-02         0.00000E+00
    0.38482E-04        -0.42775E-02         0.00000E+00
    0.00000E+00         0.00000E+00         0.00000E+00
    0.10303E-03        -0.63937E-01         0.00000E+00
    0.11364E-03        -0.59681E-01         0.00000E+00
    0.12295E-03        -0.55426E-01         0.00000E+00
    0.13024E-03        -0.51171E-01         0.00000E+00
    0.13516E-03        -0.46917E-01         0.00000E+00
    0.13767E-03        -0.42662E-01         0.00000E+00
    0.13782E-03        -0.38406E-01         0.00000E+00
    0.13563E-03        -0.34148E-01         0.00000E+00
    0.13106E-03        -0.29889E-01         0.00000E+00
    0.12397E-03        -0.25627E-01         0.00000E+00
    0.11410E-03        -0.21364E-01         0.00000E+00
    0.10103E-03        -0.17097E-01         0.00000E+00
    0.84137E-04        -0.12828E-01         0.00000E+00
    0.62520E-04        -0.85551E-02         0.00000E+00
    0.34974E-04        -0.42792E-02         0.00000E+00
    0.00000E+00         0.00000E+00         0.00000E+00
    0.80197E-04        -0.63927E-01         0.00000E+00
    0.89291E-04        -0.59673E-01         0.00000E+00
    0.97148E-04        -0.55419E-01         0.00000E+00
    0.10313E-03        -0.51166E-01         0.00000E+00
    0.10712E-03        -0.46914E-01         0.00000E+00
    0.10921E-03        -0.42660E-01         0.00000E+00
    0.10951E-03        -0.38405E-01         0.00000E+00
    0.10803E-03        -0.34149E-01         0.00000E+00
    0.10475E-03        -0.29890E-01         0.00000E+00
    0.99564E-04        -0.25629E-01         0.00000E+00
    0.92253E-04        -0.21366E-01         0.00000E+00
    0.82451E-04        -0.17100E-01         0.00000E+00
    0.69558E-04        -0.12831E-01         0.00000E+00
    0.52604E-04        -0.85577E-02         0.00000E+00
    0.30111E-04        -0.42808E-02         0.00000E+00
    0.00000E+00         0.00000E+00         0.00000E+00
    0.55419E-04        -0.63919E-01         0.00000E+00
    0.62322E-04        -0.59666E-01         0.00000E+00
    0.68092E-04        -0.55414E-01         0.00000E+00
    0.72351E-04        -0.51163E-01         0.00000E+00
    0.75189E-04        -0.46911E-01         0.00000E+00
    0.76735E-04        -0.42659E-01         0.00000E+00
    0.77062E-04        -0.38405E-01         0.00000E+00
    0.76199E-04        -0.34149E-01         0.00000E+00
    0.74130E-04        -0.29891E-01         0.00000E+00
    0.70787E-04        -0.25631E-01         0.00000E+00
    0.66026E-04        -0.21368E-01         0.00000E+00
    0.59585E-04        -0.17102E-01         0.00000E+00
    0.51002E-04        -0.12833E-01         0.00000E+00
    0.39459E-04        -0.85600E-02         0.00000E+00
    0.23375E-04        -0.42825E-02         0.00000E+00
    0.00000E+00         0.00000E+00         0.00000E+00
    0.28709E-04        -0.63913E-01         0.00000E+00
    0.32541E-04        -0.59662E-01         0.00000E+00
    0.35691E-04        -0.55411E-01         0.00000E+00
    0.37949E-04        -0.51161E-01         0.00000E+00
    0.39462E-04        -0.46910E-01         0.00000E+00
    0.40311E-04        -0.42658E-01         0.00000E+00
    0.40541E-04        -0.38404E-01         0.00000E+00
    0.40170E-04        -0.34149E-01         0.00000E+00
    0.39195E-04        -0.29891E-01         0.00000E+00
    0.37585E-04        -0.25632E-01         0.00000E+00
    0.35272E-04        -0.21369E-01         0.00000E+00
    0.32126E-04        -0.17104E-01         0.00000E+00
    0.27906E-04        -0.12835E-01         0.00000E+00
    0.22144E-04        -0.85618E-02         0.00000E+00
    0.13886E-04        -0.42840E-02         0.00000E+00
    0.00000E+00         0.00000E+00         0.00000E+00
    0.00000E+00        -0.63912E-01         0.00000E+00
    0.00000E+00        -0.59661E-01         0.00000E+00
    0.00000E+00        -0.55411E-01         0.00000E+00
    0.00000E+00        -0.51160E-01         0.00000E+00
    0.00000E+00        -0.46909E-01         0.00000E+00
    0.00000E+00        -0.42658E-01         0.00000E+00
    0.00000E+00        -0.38404E-01         0.00000E+00
    0.00000E+00        -0.34149E-01         0.00000E+00
    0.00000E+00        -0.29892E-01         0.00000E+00
    0.00000E+00        -0.25632E-01         0.00000E+00
    0.00000E+00        -0.21369E-01         0.00000E+00
    0.00000E+00        -0.17104E-01         0.00000E+00
    0.00000E+00        -0.12835E-01         0.00000E+00
    0.00000E+00        -0.85626E-02         0.00000E+00
    0.00000E+00        -0.42849E-02         0.00000E+00
    0.00000E+00         0.00000E+00         0.00000E+00
CELL_DATA        450
VECTORS vDarcy double 
    0.12264E-19        -0.26101E-20         0.00000E+00
    0.12015E-19        -0.40188E-20         0.00000E+00
    0.12346E-19        -0.32316E-20         0.00000E+00
    0.12968E-19        -0.53031E-20         0.00000E+00
    0.11973E-19        -0.66289E-20         0.00000E+00
    0.12719E-19        -0.67946E-20         0.00000E+00
    0.13216E-19        -0.73747E-20         0.00000E+00
    0.12429E-19        -0.69604E-20         0.00000E+00
    0.13051E-19        -0.10523E-19         0.00000E+00
    0.13672E-19        -0.69604E-20         0.00000E+00
    0.11269E-19        -0.53860E-20         0.00000E+00
    0.12802E-19        -0.28173E-20         0.00000E+00
    0.13258E-19        -0.28173E-20         0.00000E+00
    0.12719E-19        -0.74575E-21         0.00000E+00
    0.11601E-19        -0.21958E-20         0.00000E+00
    0.39111E-19        -0.26516E-20         0.00000E+00
    0.38075E-19        -0.33559E-20         0.00000E+00
    0.38199E-19        -0.43502E-20         0.00000E+00
    0.39649E-19        -0.58003E-20         0.00000E+00
    0.40354E-19        -0.66289E-20         0.00000E+00
    0.39318E-19        -0.67946E-20         0.00000E+00
    0.40064E-19        -0.78718E-20         0.00000E+00
    0.40271E-19        -0.66289E-20         0.00000E+00
    0.37619E-19        -0.89490E-20         0.00000E+00
    0.36252E-19        -0.75404E-20         0.00000E+00
    0.37702E-19        -0.45574E-20         0.00000E+00
    0.37785E-19        -0.54689E-20         0.00000E+00
    0.38531E-19        -0.19058E-20         0.00000E+00
    0.40229E-19        -0.15744E-20         0.00000E+00
    0.40271E-19        -0.12844E-20         0.00000E+00
    0.65626E-19        -0.19472E-20         0.00000E+00
    0.65502E-19        -0.28173E-20         0.00000E+00
    0.64756E-19        -0.48060E-20         0.00000E+00
    0.64798E-19        -0.64632E-20         0.00000E+00
    0.64549E-19        -0.64632E-20         0.00000E+00
    0.64218E-19        -0.55932E-20         0.00000E+00
    0.62312E-19        -0.77061E-20         0.00000E+00
    0.62768E-19        -0.75404E-20         0.00000E+00
    0.63348E-19        -0.60489E-20         0.00000E+00
    0.62602E-19        -0.83276E-20         0.00000E+00
    0.62602E-19        -0.52203E-20         0.00000E+00
    0.62602E-19        -0.43917E-20         0.00000E+00
    0.62188E-19        -0.34802E-20         0.00000E+00
    0.63348E-19        -0.17401E-20         0.00000E+00
    0.63720E-19        -0.21544E-20         0.00000E+00
    0.88869E-19        -0.27759E-20         0.00000E+00
    0.88993E-19        -0.22787E-20         0.00000E+00
    0.87999E-19        -0.37288E-20         0.00000E+00
    0.87460E-19        -0.61732E-20         0.00000E+00
    0.87502E-19        -0.62975E-20         0.00000E+00
    0.88248E-19        -0.60903E-20         0.00000E+00
    0.88662E-19        -0.60489E-20         0.00000E+00
    0.87709E-19        -0.82447E-20         0.00000E+00
    0.87916E-19        -0.59660E-20         0.00000E+00
    0.89076E-19        -0.96948E-20         0.00000E+00
    0.88040E-19        -0.30659E-20         0.00000E+00
    0.86135E-19        -0.40602E-20         0.00000E+00
    0.86673E-19        -0.48888E-20         0.00000E+00
    0.87460E-19        -0.14915E-20         0.00000E+00
    0.86176E-19        -0.15329E-20         0.00000E+00
    0.11195E-18        -0.20301E-20         0.00000E+00
    0.11112E-18        -0.17815E-20         0.00000E+00
    0.11161E-18        -0.36459E-20         0.00000E+00
    0.11149E-18        -0.51788E-20         0.00000E+00
    0.11199E-18        -0.69604E-20         0.00000E+00
    0.11116E-18        -0.63803E-20         0.00000E+00
    0.11190E-18        -0.64632E-20         0.00000E+00
    0.11000E-18        -0.56346E-20         0.00000E+00
    0.10917E-18        -0.75404E-20         0.00000E+00
    0.10784E-18        -0.78718E-20         0.00000E+00
    0.10838E-18        -0.47231E-20         0.00000E+00
    0.11240E-18        -0.34802E-20         0.00000E+00
    0.11025E-18        -0.47231E-20         0.00000E+00
    0.10967E-18        -0.16572E-20         0.00000E+00
    0.10987E-18         0.33145E-21         0.00000E+00
    0.13506E-18        -0.58003E-21         0.00000E+00
    0.13469E-18        -0.20715E-20         0.00000E+00
    0.13428E-18        -0.38116E-20         0.00000E+00
    0.13374E-18        -0.47231E-20         0.00000E+00
    0.13366E-18        -0.83690E-20         0.00000E+00
    0.13548E-18        -0.60075E-20         0.00000E+00
    0.13511E-18        -0.70018E-20         0.00000E+00
    0.13556E-18        -0.40188E-20         0.00000E+00
    0.13631E-18        -0.80790E-20         0.00000E+00
    0.13685E-18        -0.65875E-20         0.00000E+00
    0.13515E-18        -0.61318E-20         0.00000E+00
    0.13320E-18        -0.36459E-20         0.00000E+00
    0.13403E-18        -0.48888E-20         0.00000E+00
    0.13531E-18        -0.17401E-20         0.00000E+00
    0.13581E-18        -0.78718E-21         0.00000E+00
    0.15909E-18        -0.26930E-20         0.00000E+00
    0.16025E-18        -0.91148E-21         0.00000E+00
    0.16017E-18        -0.36459E-20         0.00000E+00
    0.16059E-18        -0.54689E-20         0.00000E+00
    0.15963E-18        -0.71675E-20         0.00000E+00
    0.15880E-18        -0.71261E-20         0.00000E+00
    0.15938E-18        -0.66289E-20         0.00000E+00
    0.16013E-18        -0.61732E-20         0.00000E+00
    0.15851E-18        -0.56346E-20         0.00000E+00
    0.15653E-18        -0.66289E-20         0.00000E+00
    0.15818E-18        -0.49717E-20         0.00000E+00
    0.15806E-18        -0.24030E-20         0.00000E+00
    0.15549E-18        -0.46402E-20         0.00000E+00
    0.15516E-18        -0.31487E-20         0.00000E+00
    0.15520E-18        -0.33145E-21         0.00000E+00
    0.18441E-18        -0.11601E-20         0.00000E+00
    0.18312E-18        -0.20715E-20         0.00000E+00
    0.18482E-18        -0.33145E-20         0.00000E+00
    0.18346E-18        -0.48060E-20         0.00000E+00
    0.18105E-18        -0.55517E-20         0.00000E+00
    0.18225E-18        -0.80790E-20         0.00000E+00
    0.18271E-18        -0.53860E-20         0.00000E+00
    0.18118E-18        -0.62560E-20         0.00000E+00
    0.18288E-18        -0.60489E-20         0.00000E+00
    0.18404E-18        -0.60075E-20         0.00000E+00
    0.18176E-18        -0.59660E-20         0.00000E+00
    0.18109E-18        -0.12429E-20         0.00000E+00
    0.18022E-18        -0.20715E-20         0.00000E+00
    0.17877E-18        -0.28173E-20         0.00000E+00
    0.17973E-18        -0.15744E-20         0.00000E+00
    0.20715E-18        -0.29001E-21         0.00000E+00
    0.20769E-18        -0.25273E-20         0.00000E+00
    0.20699E-18        -0.33145E-20         0.00000E+00
    0.20657E-18        -0.32730E-20         0.00000E+00
    0.20695E-18        -0.52203E-20         0.00000E+00
    0.20504E-18        -0.81204E-20         0.00000E+00
    0.20517E-18        -0.57174E-20         0.00000E+00
    0.20608E-18        -0.58003E-20         0.00000E+00
    0.20450E-18        -0.62146E-20         0.00000E+00
    0.20372E-18        -0.54689E-20         0.00000E+00
    0.20347E-18        -0.40602E-20         0.00000E+00
    0.20413E-18        -0.26516E-20         0.00000E+00
    0.20504E-18        -0.12015E-20         0.00000E+00
    0.20612E-18        -0.25687E-20         0.00000E+00
    0.20442E-18        -0.16158E-20         0.00000E+00
    0.23102E-18        -0.14501E-20         0.00000E+00
    0.23164E-18        -0.23616E-20         0.00000E+00
    0.23180E-18        -0.29830E-20         0.00000E+00
    0.23143E-18        -0.29830E-20         0.00000E+00
    0.23118E-18        -0.48888E-20         0.00000E+00
    0.22915E-18        -0.50960E-20         0.00000E+00
    0.22663E-18        -0.57589E-20         0.00000E+00
    0.22534E-18        -0.52203E-20         0.00000E+00
    0.22501E-18        -0.54689E-20         0.00000E+00
    0.22530E-18        -0.52203E-20         0.00000E+00
    0.22505E-18        -0.48888E-20         0.00000E+00
    0.22584E-18        -0.33145E-20         0.00000E+00
    0.22696E-18        -0.25687E-20         0.00000E+00
    0.22493E-18         0.45574E-21         0.00000E+00
    0.22431E-18        -0.16572E-20         0.00000E+00
    0.25016E-18        -0.24030E-20         0.00000E+00
    0.25090E-18        -0.42674E-20         0.00000E+00
    0.25202E-18        -0.16987E-20         0.00000E+00
    0.25128E-18        -0.32316E-20         0.00000E+00
    0.25066E-18        -0.36045E-20         0.00000E+00
    0.24908E-18        -0.29002E-20         0.00000E+00
    0.24925E-18        -0.45574E-20         0.00000E+00
    0.24904E-18        -0.47231E-20         0.00000E+00
    0.24759E-18        -0.41431E-20         0.00000E+00
    0.24552E-18        -0.47231E-20         0.00000E+00
    0.24647E-18        -0.67118E-20         0.00000E+00
    0.24792E-18        -0.34802E-20         0.00000E+00
    0.24709E-18        -0.22373E-20         0.00000E+00
    0.24767E-18         0.91148E-21         0.00000E+00
    0.24734E-18        -0.16572E-20         0.00000E+00
    0.27328E-18        -0.29830E-20         0.00000E+00
    0.27083E-18        -0.26516E-20         0.00000E+00
    0.26922E-18        -0.15744E-20         0.00000E+00
    0.26934E-18        -0.33145E-20         0.00000E+00
    0.27005E-18        -0.38531E-20         0.00000E+00
    0.27270E-18        -0.34388E-20         0.00000E+00
    0.27125E-18        -0.26516E-20         0.00000E+00
    0.26723E-18        -0.31902E-20         0.00000E+00
    0.26802E-18        -0.47231E-20         0.00000E+00
    0.26889E-18        -0.36459E-20         0.00000E+00
    0.26644E-18        -0.69189E-20         0.00000E+00
    0.26599E-18        -0.36873E-20         0.00000E+00
    0.26773E-18        -0.30659E-20         0.00000E+00
    0.26897E-18        -0.33145E-21         0.00000E+00
    0.26889E-18        -0.13672E-20         0.00000E+00
    0.29055E-18        -0.24030E-20         0.00000E+00
    0.28931E-18         0.00000E+00         0.00000E+00
    0.29043E-18        -0.29830E-20         0.00000E+00
    0.29043E-18        -0.33145E-20         0.00000E+00
    0.28960E-18        -0.47231E-20         0.00000E+00
    0.28798E-18        -0.29830E-20         0.00000E+00
    0.28881E-18        -0.21544E-20         0.00000E+00
    0.29155E-18        -0.29830E-20         0.00000E+00
    0.28973E-18        -0.40188E-20         0.00000E+00
    0.28964E-18        -0.52203E-20         0.00000E+00
    0.29022E-18        -0.43088E-20         0.00000E+00
    0.29002E-18        -0.44745E-20         0.00000E+00
    0.29068E-18        -0.41431E-20         0.00000E+00
    0.29060E-18         0.00000E+00         0.00000E+00
    0.29093E-18        -0.22373E-20         0.00000E+00
    0.30717E-18        -0.82861E-21         0.00000E+00
    0.30874E-18        -0.19058E-20         0.00000E+00
    0.31003E-18        -0.18229E-20         0.00000E+00
    0.30808E-18        -0.27344E-20         0.00000E+00
    0.30845E-18        -0.43917E-20         0.00000E+00
    0.30845E-18        -0.82861E-21         0.00000E+00
    0.30642E-18        -0.31487E-20         0.00000E+00
    0.30675E-18        -0.41431E-20         0.00000E+00
    0.30837E-18        -0.28173E-20         0.00000E+00
    0.30737E-18        -0.60489E-20         0.00000E+00
    0.30754E-18        -0.39774E-20         0.00000E+00
    0.30862E-18        -0.59660E-20         0.00000E+00
    0.30895E-18        -0.33145E-20         0.00000E+00
    0.30936E-18        -0.45574E-21         0.00000E+00
    0.31003E-18        -0.16987E-20         0.00000E+00
    0.32801E-18         0.29001E-21         0.00000E+00
    0.32610E-18        -0.30659E-20         0.00000E+00
    0.32593E-18        -0.23201E-20         0.00000E+00
    0.32622E-18        -0.12015E-20         0.00000E+00
    0.32361E-18        -0.33973E-20         0.00000E+00
    0.32295E-18        -0.19887E-20         0.00000E+00
    0.32494E-18        -0.21544E-20         0.00000E+00
    0.32531E-18        -0.58832E-20         0.00000E+00
    0.32573E-18        -0.37288E-20         0.00000E+00
    0.32552E-18        -0.35630E-20         0.00000E+00
    0.32527E-18        -0.72918E-20         0.00000E+00
    0.32726E-18        -0.70018E-20         0.00000E+00
    0.32594E-18        -0.14915E-20         0.00000E+00
    0.32548E-18        -0.18644E-20         0.00000E+00
    0.32531E-18        -0.13258E-20         0.00000E+00
    0.34719E-18         0.00000E+00         0.00000E+00
    0.34595E-18        -0.49717E-21         0.00000E+00
    0.34611E-18        -0.27344E-20         0.00000E+00
    0.34404E-18         0.74575E-21         0.00000E+00
    0.34023E-18         0.82861E-22         0.00000E+00
    0.34093E-18        -0.53031E-20         0.00000E+00
    0.34400E-18        -0.26516E-20         0.00000E+00
    0.34358E-18        -0.52617E-20         0.00000E+00
    0.34247E-18        -0.36459E-20         0.00000E+00
    0.34251E-18        -0.31487E-20         0.00000E+00
    0.34073E-18        -0.82861E-20         0.00000E+00
    0.33861E-18        -0.57174E-20         0.00000E+00
    0.34035E-18        -0.22787E-20         0.00000E+00
    0.34102E-18        -0.16572E-20         0.00000E+00
    0.34039E-18        -0.10358E-20         0.00000E+00
    0.36177E-18        -0.99433E-21         0.00000E+00
    0.36376E-18        -0.95290E-21         0.00000E+00
    0.36289E-18        -0.70432E-21         0.00000E+00
    0.36119E-18         0.17815E-20         0.00000E+00
    0.36215E-18         0.10772E-20         0.00000E+00
    0.35970E-18        -0.36459E-20         0.00000E+00
    0.35775E-18        -0.36873E-20         0.00000E+00
    0.35825E-18        -0.44331E-20         0.00000E+00
    0.35879E-18        -0.38116E-20         0.00000E+00
    0.36103E-18        -0.38945E-20         0.00000E+00
    0.35842E-18        -0.33145E-20         0.00000E+00
    0.35477E-18        -0.48060E-20         0.00000E+00
    0.35353E-18        -0.32316E-20         0.00000E+00
    0.35340E-18        -0.91148E-21         0.00000E+00
    0.35340E-18        -0.87004E-21         0.00000E+00
    0.37905E-18        -0.95290E-21         0.00000E+00
    0.37685E-18        -0.82861E-21         0.00000E+00
    0.37569E-18         0.19058E-20         0.00000E+00
    0.37470E-18         0.33144E-21         0.00000E+00
    0.37549E-18         0.53860E-21         0.00000E+00
    0.37706E-18        -0.18229E-20         0.00000E+00
    0.37536E-18        -0.38945E-20         0.00000E+00
    0.37209E-18        -0.30659E-20         0.00000E+00
    0.37234E-18        -0.56346E-20         0.00000E+00
    0.37143E-18        -0.37288E-20         0.00000E+00
    0.37060E-18        -0.91148E-21         0.00000E+00
    0.37180E-18        -0.41431E-20         0.00000E+00
    0.37180E-18        -0.23201E-20         0.00000E+00
    0.37143E-18        -0.11601E-20         0.00000E+00
    0.36989E-18        -0.29001E-21         0.00000E+00
    0.39044E-18         0.29001E-21         0.00000E+00
    0.38999E-18        -0.82861E-22         0.00000E+00
    0.39028E-18         0.20301E-20         0.00000E+00
    0.38978E-18         0.10772E-20         0.00000E+00
    0.39065E-18        -0.74575E-21         0.00000E+00
    0.39007E-18        -0.19058E-20         0.00000E+00
    0.38837E-18         0.91147E-21         0.00000E+00
    0.38680E-18        -0.19058E-20         0.00000E+00
    0.38601E-18        -0.50545E-20         0.00000E+00
    0.38460E-18        -0.33145E-21         0.00000E+00
    0.38444E-18        -0.34802E-20         0.00000E+00
    0.38589E-18        -0.40602E-20         0.00000E+00
    0.38398E-18        -0.27344E-20         0.00000E+00
    0.38477E-18        -0.37288E-21         0.00000E+00
    0.38555E-18        -0.24858E-21         0.00000E+00
    0.40337E-18         0.00000E+00         0.00000E+00
    0.40159E-18         0.12429E-20         0.00000E+00
    0.40279E-18         0.82861E-22         0.00000E+00
    0.40502E-18         0.82861E-21         0.00000E+00
    0.40432E-18        -0.10358E-20         0.00000E+00
    0.40241E-18        -0.58003E-21         0.00000E+00
    0.40171E-18         0.99433E-21         0.00000E+00
    0.40221E-18        -0.20715E-20         0.00000E+00
    0.40043E-18        -0.28173E-20         0.00000E+00
    0.39889E-18         0.00000E+00         0.00000E+00
    0.39769E-18        -0.32316E-20         0.00000E+00
    0.39707E-18        -0.33973E-20         0.00000E+00
    0.39674E-18        -0.14086E-20         0.00000E+00
    0.39637E-18        -0.14086E-20         0.00000E+00
    0.39707E-18        -0.91147E-21         0.00000E+00
    0.41323E-18        -0.58003E-21         0.00000E+00
    0.41459E-18         0.10358E-20         0.00000E+00
    0.41480E-18         0.00000E+00         0.00000E+00
    0.41248E-18         0.37287E-21         0.00000E+00
    0.41111E-18         0.91147E-21         0.00000E+00
    0.40966E-18         0.19058E-20         0.00000E+00
    0.41020E-18        -0.12429E-20         0.00000E+00
    0.41083E-18        -0.66289E-21         0.00000E+00
    0.41095E-18        -0.11601E-20         0.00000E+00
    0.41070E-18         0.12429E-20         0.00000E+00
    0.40892E-18        -0.14086E-20         0.00000E+00
    0.40900E-18        -0.33144E-20         0.00000E+00
    0.40917E-18        -0.12429E-20         0.00000E+00
    0.40909E-18        -0.21130E-20         0.00000E+00
    0.40784E-18         0.45574E-21         0.00000E+00
    0.42305E-18        -0.10772E-20         0.00000E+00
    0.42433E-18        -0.91147E-21         0.00000E+00
    0.42296E-18         0.33559E-20         0.00000E+00
    0.42068E-18         0.15744E-20         0.00000E+00
    0.42064E-18         0.14915E-20         0.00000E+00
    0.42330E-18         0.99433E-21         0.00000E+00
    0.42114E-18         0.11601E-20         0.00000E+00
    0.41812E-18         0.00000E+00         0.00000E+00
    0.41679E-18        -0.13258E-20         0.00000E+00
    0.41754E-18         0.58003E-21         0.00000E+00
    0.41787E-18         0.29001E-21         0.00000E+00
    0.41621E-18        -0.25273E-20         0.00000E+00
    0.41754E-18        -0.38945E-20         0.00000E+00
    0.41932E-18        -0.91147E-21         0.00000E+00
    0.42019E-18        -0.29001E-21         0.00000E+00
    0.43262E-18        -0.78718E-21         0.00000E+00
    0.43071E-18        -0.29001E-21         0.00000E+00
    0.43133E-18         0.18644E-20         0.00000E+00
    0.43423E-18         0.28173E-20         0.00000E+00
    0.43224E-18         0.91147E-21         0.00000E+00
    0.42926E-18         0.24030E-20         0.00000E+00
    0.42976E-18         0.27758E-20         0.00000E+00
    0.42868E-18         0.21130E-20         0.00000E+00
    0.42748E-18        -0.14086E-20         0.00000E+00
    0.42702E-18         0.58003E-21         0.00000E+00
    0.42582E-18         0.62146E-21         0.00000E+00
    0.42566E-18        -0.15329E-20         0.00000E+00
    0.42516E-18        -0.50545E-20         0.00000E+00
    0.42561E-18        -0.16572E-20         0.00000E+00
    0.42740E-18        -0.17815E-20         0.00000E+00
    0.43941E-18         0.91147E-21         0.00000E+00
    0.43895E-18         0.13258E-20         0.00000E+00
    0.43887E-18         0.16572E-21         0.00000E+00
    0.43746E-18         0.42259E-20         0.00000E+00
    0.43593E-18         0.22372E-20         0.00000E+00
    0.43721E-18         0.24030E-20         0.00000E+00
    0.43817E-18         0.19887E-20         0.00000E+00
    0.43630E-18         0.45573E-20         0.00000E+00
    0.43452E-18         0.00000E+00         0.00000E+00
    0.43344E-18         0.12843E-20         0.00000E+00
    0.43361E-18         0.16572E-21         0.00000E+00
    0.43373E-18        -0.23201E-20         0.00000E+00
    0.43365E-18        -0.35630E-20         0.00000E+00
    0.43083E-18        -0.13258E-20         0.00000E+00
    0.42934E-18        -0.23201E-20         0.00000E+00
    0.44169E-18         0.49716E-21         0.00000E+00
    0.44314E-18         0.00000E+00         0.00000E+00
    0.44148E-18         0.27344E-20         0.00000E+00
    0.43995E-18         0.53859E-20         0.00000E+00
    0.43966E-18         0.22372E-20         0.00000E+00
    0.44003E-18         0.14915E-20         0.00000E+00
    0.44024E-18         0.30658E-20         0.00000E+00
    0.44256E-18         0.33558E-20         0.00000E+00
    0.44368E-18         0.18229E-20         0.00000E+00
    0.44148E-18         0.24858E-20         0.00000E+00
    0.44049E-18         0.82860E-21         0.00000E+00
    0.44103E-18        -0.29001E-20         0.00000E+00
    0.43895E-18        -0.82861E-21         0.00000E+00
    0.43804E-18         0.00000E+00         0.00000E+00
    0.43713E-18        -0.12015E-20         0.00000E+00
    0.44558E-18         0.16572E-21         0.00000E+00
    0.44301E-18         0.11600E-20         0.00000E+00
    0.44281E-18         0.36459E-20         0.00000E+00
    0.44351E-18         0.45573E-20         0.00000E+00
    0.44492E-18         0.14086E-20         0.00000E+00
    0.44566E-18         0.91146E-21         0.00000E+00
    0.44587E-18         0.14086E-20         0.00000E+00
    0.44604E-18         0.30658E-20         0.00000E+00
    0.44517E-18         0.28587E-20         0.00000E+00
    0.44513E-18         0.36459E-20         0.00000E+00
    0.44537E-18        -0.12429E-21         0.00000E+00
    0.44330E-18         0.49716E-21         0.00000E+00
    0.44318E-18        -0.27344E-20         0.00000E+00
    0.44330E-18         0.24858E-20         0.00000E+00
    0.44098E-18         0.16572E-21         0.00000E+00
    0.44463E-18         0.14915E-20         0.00000E+00
    0.44368E-18         0.24444E-20         0.00000E+00
    0.44492E-18         0.26515E-20         0.00000E+00
    0.44583E-18         0.36459E-20         0.00000E+00
    0.44836E-18        -0.11186E-20         0.00000E+00
    0.44923E-18         0.28172E-20         0.00000E+00
    0.44790E-18         0.33144E-21         0.00000E+00
    0.44877E-18         0.35216E-20         0.00000E+00
    0.44869E-18         0.29415E-20         0.00000E+00
    0.44947E-18         0.29001E-20         0.00000E+00
    0.44757E-18         0.19886E-20         0.00000E+00
    0.44753E-18         0.47020E-37         0.00000E+00
    0.44703E-18        -0.99432E-21         0.00000E+00
    0.44653E-18         0.13258E-20         0.00000E+00
    0.44952E-18         0.00000E+00         0.00000E+00
    0.44670E-18         0.18229E-20         0.00000E+00
    0.44691E-18         0.30244E-20         0.00000E+00
    0.44720E-18         0.19886E-20         0.00000E+00
    0.44778E-18         0.27758E-20         0.00000E+00
    0.44678E-18        -0.12843E-20         0.00000E+00
    0.44728E-18         0.19058E-20         0.00000E+00
    0.44790E-18         0.41430E-21         0.00000E+00
    0.44864E-18         0.19886E-20         0.00000E+00
    0.45005E-18         0.19058E-20         0.00000E+00
    0.44968E-18         0.31487E-20         0.00000E+00
    0.45080E-18         0.23201E-20         0.00000E+00
    0.44910E-18         0.14915E-20         0.00000E+00
    0.44740E-18         0.82860E-22         0.00000E+00
    0.44848E-18        -0.10772E-20         0.00000E+00
    0.44778E-18        -0.82860E-22         0.00000E+00
    0.44513E-18         0.41430E-21         0.00000E+00
    0.44529E-18         0.31487E-20         0.00000E+00
    0.44624E-18         0.33144E-21         0.00000E+00
    0.44674E-18         0.15743E-20         0.00000E+00
    0.44748E-18         0.33144E-21         0.00000E+00
    0.44753E-18         0.10772E-20         0.00000E+00
    0.44711E-18         0.33144E-21         0.00000E+00
    0.44790E-18         0.20715E-20         0.00000E+00
    0.44827E-18         0.74574E-21         0.00000E+00
    0.44951E-18         0.36044E-20         0.00000E+00
    0.45038E-18        -0.99431E-21         0.00000E+00
    0.45283E-18         0.37287E-20         0.00000E+00
    0.45407E-18        -0.13258E-20         0.00000E+00
    0.45221E-18         0.41430E-21         0.00000E+00
    0.45192E-18        -0.41430E-21         0.00000E+00
    0.44136E-18         0.00000E+00         0.00000E+00
    0.44235E-18         0.15743E-20         0.00000E+00
    0.44425E-18         0.82860E-22         0.00000E+00
    0.44492E-18         0.41430E-21         0.00000E+00
    0.44529E-18         0.00000E+00         0.00000E+00
    0.44653E-18         0.99431E-21         0.00000E+00
    0.44757E-18         0.00000E+00         0.00000E+00
    0.44843E-18         0.14086E-20         0.00000E+00
    0.44988E-18        -0.82859E-22         0.00000E+00
    0.45133E-18         0.16572E-20         0.00000E+00
    0.45245E-18        -0.41430E-21         0.00000E+00
    0.45196E-18         0.58001E-21         0.00000E+00
    0.45370E-18        -0.87002E-21         0.00000E+00
    0.45403E-18         0.74573E-21         0.00000E+00
    0.45374E-18        -0.33144E-21         0.00000E+00
POINT_DATA        496
VECTORS vDarcyNodal double 
    0.12595E-19        -0.33145E-20         0.00000E+00
    0.11932E-19        -0.33145E-20         0.00000E+00
    0.12595E-19        -0.29830E-20         0.00000E+00
    0.12595E-19        -0.39774E-20         0.00000E+00
    0.12595E-19        -0.66289E-20         0.00000E+00
    0.11932E-19        -0.69604E-20         0.00000E+00
    0.12595E-19        -0.66289E-20         0.00000E+00
    0.12595E-19        -0.76233E-20         0.00000E+00
    0.11932E-19        -0.86176E-20         0.00000E+00
    0.13921E-19        -0.82862E-20         0.00000E+00
    0.12926E-19        -0.69604E-20         0.00000E+00
    0.10606E-19        -0.39774E-20         0.00000E+00
    0.14584E-19        -0.26516E-20         0.00000E+00
    0.11932E-19        -0.19887E-20         0.00000E+00
    0.12595E-19        -0.16572E-20         0.00000E+00
    0.10606E-19        -0.26516E-20         0.00000E+00
    0.25190E-19        -0.21458E-20         0.00000E+00
    0.25521E-19        -0.33145E-20         0.00000E+00
    0.24858E-19        -0.38116E-20         0.00000E+00
    0.25887E-19        -0.41431E-20         0.00000E+00
    0.26481E-19        -0.57217E-20         0.00000E+00
    0.26150E-19        -0.67075E-20         0.00000E+00
    0.25853E-19        -0.78676E-20         0.00000E+00
    0.26516E-19        -0.72918E-20         0.00000E+00
    0.25818E-19        -0.92805E-20         0.00000E+00
    0.24527E-19        -0.92805E-20         0.00000E+00
    0.25173E-19        -0.56346E-20         0.00000E+00
    0.24544E-19        -0.49717E-20         0.00000E+00
    0.26516E-19        -0.33145E-20         0.00000E+00
    0.25521E-19        -0.13258E-20         0.00000E+00
    0.26516E-19        -0.10815E-20         0.00000E+00
    0.25521E-19        -0.83719E-21         0.00000E+00
    0.52368E-19        -0.29659E-20         0.00000E+00
    0.52106E-19        -0.24858E-20         0.00000E+00
    0.51374E-19        -0.39774E-20         0.00000E+00
    0.51837E-19        -0.56346E-20         0.00000E+00
    0.52369E-19        -0.64718E-20         0.00000E+00
    0.52271E-19        -0.64546E-20         0.00000E+00
    0.51374E-19        -0.72832E-20         0.00000E+00
    0.51043E-19        -0.74575E-20         0.00000E+00
    0.51740E-19        -0.64632E-20         0.00000E+00
    0.48723E-19        -0.72918E-20         0.00000E+00
    0.49917E-19        -0.67946E-20         0.00000E+00
    0.50694E-19        -0.53031E-20         0.00000E+00
    0.49883E-19        -0.36459E-20         0.00000E+00
    0.51374E-19        -0.19887E-20         0.00000E+00
    0.51374E-19        -0.15001E-20         0.00000E+00
    0.52700E-19        -0.10115E-20         0.00000E+00
    0.77227E-19        -0.99434E-21         0.00000E+00
    0.77490E-19        -0.23201E-20         0.00000E+00
    0.76895E-19        -0.36459E-20         0.00000E+00
    0.76267E-19        -0.53031E-20         0.00000E+00
    0.75570E-19        -0.66375E-20         0.00000E+00
    0.75535E-19        -0.58003E-20         0.00000E+00
    0.76598E-19        -0.61232E-20         0.00000E+00
    0.74907E-19        -0.76233E-20         0.00000E+00
    0.75204E-19        -0.71175E-20         0.00000E+00
    0.75238E-19        -0.71261E-20         0.00000E+00
    0.76381E-19        -0.68032E-20         0.00000E+00
    0.74244E-19        -0.46402E-20         0.00000E+00
    0.73738E-19        -0.39774E-20         0.00000E+00
    0.75404E-19        -0.26516E-20         0.00000E+00
    0.75238E-19        -0.24773E-20         0.00000E+00
    0.74575E-19        -0.29659E-20         0.00000E+00
    0.10076E-18        -0.42745E-20         0.00000E+00
    0.10010E-18        -0.26516E-20         0.00000E+00
    0.10010E-18        -0.26516E-20         0.00000E+00
    0.99731E-19        -0.46402E-20         0.00000E+00
    0.99137E-19        -0.59832E-20         0.00000E+00
    0.99565E-19        -0.67775E-20         0.00000E+00
    0.99731E-19        -0.62803E-20         0.00000E+00
    0.10010E-18        -0.62975E-20         0.00000E+00
    0.97445E-19        -0.69604E-20         0.00000E+00
    0.99251E-19        -0.86176E-20         0.00000E+00
    0.97594E-19        -0.56346E-20         0.00000E+00
    0.99102E-19        -0.23201E-20         0.00000E+00
    0.98779E-19        -0.46402E-20         0.00000E+00
    0.98762E-19        -0.36459E-20         0.00000E+00
    0.98771E-19        -0.51432E-21         0.00000E+00
    0.97776E-19         0.12915E-20         0.00000E+00
    0.12462E-18         0.00000E+00         0.00000E+00
    0.12297E-18        -0.16744E-20         0.00000E+00
    0.12297E-18        -0.33145E-20         0.00000E+00
    0.12300E-18        -0.43088E-20         0.00000E+00
    0.12260E-18        -0.62975E-20         0.00000E+00
    0.12337E-18        -0.62803E-20         0.00000E+00
    0.12297E-18        -0.62975E-20         0.00000E+00
    0.12363E-18        -0.53031E-20         0.00000E+00
    0.12264E-18        -0.59660E-20         0.00000E+00
    0.12298E-18        -0.69604E-20         0.00000E+00
    0.12133E-18        -0.69604E-20         0.00000E+00
    0.12264E-18        -0.59660E-20         0.00000E+00
    0.12230E-18        -0.36459E-20         0.00000E+00
    0.12231E-18        -0.23201E-20         0.00000E+00
    0.12263E-18        -0.99434E-21         0.00000E+00
    0.12363E-18        -0.13258E-20         0.00000E+00
    0.14650E-18        -0.66289E-21         0.00000E+00
    0.14816E-18        -0.99434E-21         0.00000E+00
    0.14683E-18        -0.26516E-20         0.00000E+00
    0.14683E-18        -0.43088E-20         0.00000E+00
    0.14736E-18        -0.64804E-20         0.00000E+00
    0.14646E-18        -0.72918E-20         0.00000E+00
    0.14749E-18        -0.66118E-20         0.00000E+00
    0.14716E-18        -0.59660E-20         0.00000E+00
    0.14836E-18        -0.62803E-20         0.00000E+00
    0.14648E-18        -0.72918E-20         0.00000E+00
    0.14683E-18        -0.53203E-20         0.00000E+00
    0.14617E-18        -0.36459E-20         0.00000E+00
    0.14502E-18        -0.46402E-20         0.00000E+00
    0.14484E-18        -0.36459E-20         0.00000E+00
    0.14591E-18        -0.16401E-20         0.00000E+00
    0.14517E-18        -0.96003E-21         0.00000E+00
    0.17235E-18        -0.32458E-20         0.00000E+00
    0.17136E-18        -0.19887E-20         0.00000E+00
    0.17235E-18        -0.20230E-20         0.00000E+00
    0.17202E-18        -0.49374E-20         0.00000E+00
    0.17099E-18        -0.59317E-20         0.00000E+00
    0.16967E-18        -0.63318E-20         0.00000E+00
    0.17136E-18        -0.69947E-20         0.00000E+00
    0.17003E-18        -0.64289E-20         0.00000E+00
    0.17069E-18        -0.52688E-20         0.00000E+00
    0.17088E-18        -0.53031E-20         0.00000E+00
    0.16970E-18        -0.66632E-20         0.00000E+00
    0.17020E-18        -0.43431E-20         0.00000E+00
    0.16936E-18        -0.19887E-20         0.00000E+00
    0.16705E-18        -0.27830E-20         0.00000E+00
    0.16714E-18        -0.13258E-20         0.00000E+00
    0.16804E-18        -0.68620E-22         0.00000E+00
    0.19622E-18         0.10630E-20         0.00000E+00
    0.19522E-18        -0.99434E-21         0.00000E+00
    0.19588E-18        -0.33145E-20         0.00000E+00
    0.19585E-18        -0.28173E-20         0.00000E+00
    0.19410E-18        -0.40117E-20         0.00000E+00
    0.19390E-18        -0.75890E-20         0.00000E+00
    0.19356E-18        -0.69261E-20         0.00000E+00
    0.19390E-18        -0.53031E-20         0.00000E+00
    0.19356E-18        -0.69604E-20         0.00000E+00
    0.19388E-18        -0.62975E-20         0.00000E+00
    0.19356E-18        -0.46402E-20         0.00000E+00
    0.19224E-18        -0.33145E-20         0.00000E+00
    0.19291E-18        -0.16572E-20         0.00000E+00
    0.19257E-18        -0.13258E-20         0.00000E+00
    0.19191E-18        -0.26859E-20         0.00000E+00
    0.19191E-18        -0.33831E-20         0.00000E+00
    0.21776E-18        -0.12572E-20         0.00000E+00
    0.21942E-18        -0.16572E-20         0.00000E+00
    0.21942E-18        -0.26516E-20         0.00000E+00
    0.21875E-18        -0.27830E-20         0.00000E+00
    0.21905E-18        -0.39774E-20         0.00000E+00
    0.21879E-18        -0.59660E-20         0.00000E+00
    0.21577E-18        -0.69604E-20         0.00000E+00
    0.21581E-18        -0.62975E-20         0.00000E+00
    0.21507E-18        -0.53031E-20         0.00000E+00
    0.21413E-18        -0.53031E-20         0.00000E+00
    0.21411E-18        -0.49717E-20         0.00000E+00
    0.21478E-18        -0.39774E-20         0.00000E+00
    0.21510E-18        -0.26859E-20         0.00000E+00
    0.21627E-18        -0.23201E-20         0.00000E+00
    0.21411E-18        -0.11258E-20         0.00000E+00
    0.21445E-18         0.00000E+00         0.00000E+00
    0.24030E-18        -0.19887E-20         0.00000E+00
    0.24063E-18        -0.26859E-20         0.00000E+00
    0.24229E-18        -0.26516E-20         0.00000E+00
    0.24129E-18        -0.26516E-20         0.00000E+00
    0.24129E-18        -0.39774E-20         0.00000E+00
    0.24030E-18        -0.42745E-20         0.00000E+00
    0.23798E-18        -0.39774E-20         0.00000E+00
    0.23695E-18        -0.46402E-20         0.00000E+00
    0.23665E-18        -0.53031E-20         0.00000E+00
    0.23566E-18        -0.53031E-20         0.00000E+00
    0.23500E-18        -0.53031E-20         0.00000E+00
    0.23698E-18        -0.43088E-20         0.00000E+00
    0.23732E-18        -0.33145E-20         0.00000E+00
    0.23632E-18        -0.66289E-21         0.00000E+00
    0.23599E-18        -0.33145E-21         0.00000E+00
    0.23599E-18        -0.26516E-20         0.00000E+00
    0.26151E-18        -0.19887E-20         0.00000E+00
    0.26217E-18        -0.36459E-20         0.00000E+00
    0.26052E-18        -0.33145E-20         0.00000E+00
    0.26052E-18        -0.19887E-20         0.00000E+00
    0.26055E-18        -0.29830E-20         0.00000E+00
    0.26085E-18        -0.26516E-20         0.00000E+00
    0.26081E-18        -0.36459E-20         0.00000E+00
    0.25886E-18        -0.49717E-20         0.00000E+00
    0.25720E-18        -0.39774E-20         0.00000E+00
    0.25787E-18        -0.36459E-20         0.00000E+00
    0.25687E-18        -0.63318E-20         0.00000E+00
    0.25687E-18        -0.59660E-20         0.00000E+00
    0.25703E-18        -0.22858E-20         0.00000E+00
    0.25786E-18        -0.13258E-20         0.00000E+00
    0.25894E-18        -0.66289E-21         0.00000E+00
    0.25820E-18         0.00000E+00         0.00000E+00
    0.28206E-18        -0.33145E-20         0.00000E+00
    0.28173E-18        -0.16572E-20         0.00000E+00
    0.27908E-18        -0.99434E-21         0.00000E+00
    0.27974E-18        -0.26516E-20         0.00000E+00
    0.28004E-18        -0.43431E-20         0.00000E+00
    0.28007E-18        -0.46402E-20         0.00000E+00
    0.28011E-18        -0.19544E-20         0.00000E+00
    0.27974E-18        -0.99434E-21         0.00000E+00
    0.27861E-18        -0.42745E-20         0.00000E+00
    0.27841E-18        -0.49717E-20         0.00000E+00
    0.28007E-18        -0.43431E-20         0.00000E+00
    0.27742E-18        -0.49717E-20         0.00000E+00
    0.27825E-18        -0.43088E-20         0.00000E+00
    0.28007E-18        -0.19887E-20         0.00000E+00
    0.27933E-18        -0.12915E-20         0.00000E+00
    0.28040E-18        -0.22515E-20         0.00000E+00
    0.29963E-18        -0.13258E-20         0.00000E+00
    0.29797E-18        -0.66289E-21         0.00000E+00
    0.29996E-18        -0.13258E-20         0.00000E+00
    0.29963E-18        -0.29830E-20         0.00000E+00
    0.29896E-18        -0.33145E-20         0.00000E+00
    0.29893E-18        -0.26516E-20         0.00000E+00
    0.29698E-18        -0.33145E-20         0.00000E+00
    0.29814E-18        -0.37430E-20         0.00000E+00
    0.29976E-18        -0.26516E-20         0.00000E+00
    0.29797E-18        -0.48746E-20         0.00000E+00
    0.29896E-18        -0.53031E-20         0.00000E+00
    0.29896E-18        -0.43088E-20         0.00000E+00
    0.30013E-18        -0.46402E-20         0.00000E+00
    0.29963E-18        -0.19887E-20         0.00000E+00
    0.29987E-18        -0.99434E-21         0.00000E+00
    0.30029E-18        -0.23201E-20         0.00000E+00
    0.31752E-18         0.13724E-21         0.00000E+00
    0.31686E-18        -0.19887E-20         0.00000E+00
    0.31752E-18        -0.27202E-20         0.00000E+00
    0.31786E-18        -0.15886E-20         0.00000E+00
    0.31653E-18        -0.35773E-20         0.00000E+00
    0.31554E-18        -0.27202E-20         0.00000E+00
    0.31616E-18        -0.10630E-20         0.00000E+00
    0.31491E-18        -0.34116E-20         0.00000E+00
    0.31686E-18        -0.44059E-20         0.00000E+00
    0.31751E-18        -0.43088E-20         0.00000E+00
    0.31487E-18        -0.53718E-20         0.00000E+00
    0.31819E-18        -0.60346E-20         0.00000E+00
    0.31852E-18        -0.49717E-20         0.00000E+00
    0.31653E-18        -0.22515E-20         0.00000E+00
    0.31836E-18        -0.14915E-20         0.00000E+00
    0.31719E-18        -0.21259E-20         0.00000E+00
    0.33741E-18         0.00000E+00         0.00000E+00
    0.33741E-18        -0.66289E-21         0.00000E+00
    0.33542E-18        -0.22515E-20         0.00000E+00
    0.33609E-18        -0.19887E-20         0.00000E+00
    0.33377E-18        -0.10630E-20         0.00000E+00
    0.33049E-18        -0.23201E-20         0.00000E+00
    0.33413E-18        -0.26516E-20         0.00000E+00
    0.33473E-18        -0.42402E-20         0.00000E+00
    0.33410E-18        -0.50688E-20         0.00000E+00
    0.33411E-18        -0.30516E-20         0.00000E+00
    0.33310E-18        -0.60346E-20         0.00000E+00
    0.33377E-18        -0.80518E-20         0.00000E+00
    0.33310E-18        -0.29830E-20         0.00000E+00
    0.33343E-18        -0.17258E-20         0.00000E+00
    0.33318E-18        -0.16572E-20         0.00000E+00
    0.33277E-18         0.00000E+00         0.00000E+00
    0.35398E-18        -0.19421E-21         0.00000E+00
    0.35498E-18        -0.61415E-28         0.00000E+00
    0.35531E-18        -0.13258E-20         0.00000E+00
    0.35266E-18         0.16572E-21         0.00000E+00
    0.35219E-18         0.20858E-20         0.00000E+00
    0.35100E-18        -0.29144E-20         0.00000E+00
    0.35001E-18        -0.52345E-20         0.00000E+00
    0.35166E-18        -0.36459E-20         0.00000E+00
    0.35034E-18        -0.36459E-20         0.00000E+00
    0.35067E-18        -0.33145E-20         0.00000E+00
    0.35233E-18        -0.49717E-20         0.00000E+00
    0.34736E-18        -0.59660E-20         0.00000E+00
    0.34634E-18        -0.46402E-20         0.00000E+00
    0.34736E-18        -0.19887E-20         0.00000E+00
    0.34702E-18        -0.10630E-20         0.00000E+00
    0.34702E-18        -0.21259E-20         0.00000E+00
    0.36989E-18        -0.21829E-20         0.00000E+00
    0.36989E-18        -0.19200E-20         0.00000E+00
    0.36989E-18         0.36098E-27         0.00000E+00
    0.36757E-18         0.92571E-21         0.00000E+00
    0.36857E-18         0.66289E-21         0.00000E+00
    0.36956E-18         0.68619E-22         0.00000E+00
    0.36691E-18        -0.33831E-20         0.00000E+00
    0.36592E-18        -0.46402E-20         0.00000E+00
    0.36496E-18        -0.42402E-20         0.00000E+00
    0.36658E-18        -0.49717E-20         0.00000E+00
    0.36525E-18        -0.26516E-20         0.00000E+00
    0.36326E-18        -0.23201E-20         0.00000E+00
    0.36278E-18        -0.33145E-20         0.00000E+00
    0.36227E-18        -0.21544E-20         0.00000E+00
    0.36227E-18        -0.10630E-20         0.00000E+00
    0.36161E-18        -0.13724E-21         0.00000E+00
    0.38481E-18         0.13724E-21         0.00000E+00
    0.38381E-18        -0.15727E-28         0.00000E+00
    0.38282E-18         0.99433E-21         0.00000E+00
    0.38282E-18         0.13944E-20         0.00000E+00
    0.38212E-18        -0.15777E-27         0.00000E+00
    0.38345E-18        -0.13258E-20         0.00000E+00
    0.38381E-18        -0.16572E-20         0.00000E+00
    0.38020E-18        -0.16572E-20         0.00000E+00
    0.37914E-18        -0.43088E-20         0.00000E+00
    0.37917E-18        -0.36459E-20         0.00000E+00
    0.37652E-18        -0.16572E-20         0.00000E+00
    0.37851E-18        -0.36459E-20         0.00000E+00
    0.37818E-18        -0.38802E-20         0.00000E+00
    0.37818E-18        -0.16572E-20         0.00000E+00
    0.37752E-18         0.23434E-21         0.00000E+00
    0.37818E-18         0.00000E+00         0.00000E+00
    0.39674E-18         0.00000E+00         0.00000E+00
    0.39674E-18         0.68619E-22         0.00000E+00
    0.39574E-18         0.10630E-20         0.00000E+00
    0.39740E-18         0.16572E-20         0.00000E+00
    0.39773E-18        -0.30168E-27         0.00000E+00
    0.39740E-18        -0.16572E-20         0.00000E+00
    0.39571E-18         0.44604E-27         0.00000E+00
    0.39508E-18        -0.39833E-27         0.00000E+00
    0.39475E-18        -0.33144E-20         0.00000E+00
    0.39175E-18        -0.23201E-20         0.00000E+00
    0.39144E-18        -0.19887E-20         0.00000E+00
    0.39127E-18        -0.33145E-20         0.00000E+00
    0.39077E-18        -0.26516E-20         0.00000E+00
    0.38978E-18        -0.15886E-20         0.00000E+00
    0.39077E-18        -0.99433E-21         0.00000E+00
    0.39144E-18        -0.14630E-20         0.00000E+00
    0.40801E-18         0.00000E+00         0.00000E+00
    0.40834E-18         0.92571E-21         0.00000E+00
    0.40834E-18         0.33144E-21         0.00000E+00
    0.40900E-18        -0.66289E-21         0.00000E+00
    0.40904E-18        -0.46774E-28         0.00000E+00
    0.40734E-18         0.89723E-21         0.00000E+00
    0.40539E-18         0.66289E-21         0.00000E+00
    0.40735E-18        -0.66289E-21         0.00000E+00
    0.40652E-18        -0.99433E-21         0.00000E+00
    0.40504E-18        -0.33144E-21         0.00000E+00
    0.40403E-18        -0.99433E-21         0.00000E+00
    0.40254E-18        -0.26516E-20         0.00000E+00
    0.40237E-18        -0.19887E-20         0.00000E+00
    0.40271E-18        -0.13258E-20         0.00000E+00
    0.40237E-18        -0.13258E-20         0.00000E+00
    0.40171E-18        -0.66289E-21         0.00000E+00
    0.41795E-18        -0.11316E-20         0.00000E+00
    0.41861E-18        -0.40006E-21         0.00000E+00
    0.42060E-18         0.40006E-21         0.00000E+00
    0.41729E-18         0.11601E-20         0.00000E+00
    0.41633E-18         0.16572E-20         0.00000E+00
    0.41629E-18         0.20573E-20         0.00000E+00
    0.41699E-18        -0.30958E-27         0.00000E+00
    0.41460E-18        -0.99433E-21         0.00000E+00
    0.41401E-18        -0.99433E-21         0.00000E+00
    0.41361E-18         0.18967E-27         0.00000E+00
    0.41431E-18         0.66289E-21         0.00000E+00
    0.41265E-18        -0.19887E-20         0.00000E+00
    0.41232E-18        -0.26516E-20         0.00000E+00
    0.41431E-18        -0.15886E-20         0.00000E+00
    0.41364E-18        -0.18371E-27         0.00000E+00
    0.41364E-18         0.11885E-20         0.00000E+00
    0.42789E-18        -0.13258E-20         0.00000E+00
    0.42822E-18        -0.16572E-20         0.00000E+00
    0.42690E-18         0.16572E-20         0.00000E+00
    0.42789E-18         0.36459E-20         0.00000E+00
    0.42686E-18         0.99433E-21         0.00000E+00
    0.42710E-18         0.00000E+00         0.00000E+00
    0.42550E-18         0.23201E-20         0.00000E+00
    0.42425E-18         0.23201E-20         0.00000E+00
    0.42193E-18         0.00000E+00         0.00000E+00
    0.42229E-18        -0.66289E-21         0.00000E+00
    0.42193E-18        -0.68619E-22         0.00000E+00
    0.42160E-18        -0.49717E-21         0.00000E+00
    0.42093E-18        -0.35773E-20         0.00000E+00
    0.42160E-18        -0.33144E-20         0.00000E+00
    0.42259E-18        -0.99433E-21         0.00000E+00
    0.42425E-18        -0.66289E-21         0.00000E+00
    0.43684E-18        -0.80012E-21         0.00000E+00
    0.43552E-18         0.66289E-21         0.00000E+00
    0.43419E-18         0.33144E-21         0.00000E+00
    0.43654E-18         0.99433E-21         0.00000E+00
    0.43485E-18         0.26515E-20         0.00000E+00
    0.43386E-18         0.33144E-20         0.00000E+00
    0.43323E-18         0.26515E-20         0.00000E+00
    0.43386E-18         0.26515E-20         0.00000E+00
    0.43104E-18         0.11316E-20         0.00000E+00
    0.43054E-18         0.23434E-21         0.00000E+00
    0.42955E-18         0.13543E-20         0.00000E+00
    0.42957E-18        -0.23434E-21         0.00000E+00
    0.43021E-18        -0.25829E-20         0.00000E+00
    0.42856E-18        -0.38802E-20         0.00000E+00
    0.42773E-18        -0.27486E-20         0.00000E+00
    0.42856E-18        -0.20456E-20         0.00000E+00
    0.44049E-18         0.19887E-20         0.00000E+00
    0.44082E-18         0.99433E-21         0.00000E+00
    0.44181E-18         0.33144E-21         0.00000E+00
    0.43929E-18         0.29830E-20         0.00000E+00
    0.43797E-18         0.37430E-20         0.00000E+00
    0.43784E-18         0.14915E-20         0.00000E+00
    0.43982E-18         0.20573E-20         0.00000E+00
    0.43913E-18         0.43088E-20         0.00000E+00
    0.44012E-18         0.33830E-20         0.00000E+00
    0.43784E-18         0.99433E-21         0.00000E+00
    0.43716E-18         0.92571E-21         0.00000E+00
    0.43716E-18        -0.99433E-21         0.00000E+00
    0.43783E-18        -0.26515E-20         0.00000E+00
    0.43552E-18        -0.99433E-21         0.00000E+00
    0.43394E-18        -0.92571E-21         0.00000E+00
    0.43286E-18        -0.18514E-20         0.00000E+00
    0.44347E-18        -0.13258E-20         0.00000E+00
    0.44380E-18        -0.66289E-21         0.00000E+00
    0.44281E-18         0.19887E-20         0.00000E+00
    0.44135E-18         0.44059E-20         0.00000E+00
    0.44254E-18         0.40744E-20         0.00000E+00
    0.44268E-18         0.17944E-20         0.00000E+00
    0.44281E-18         0.12287E-20         0.00000E+00
    0.44367E-18         0.23201E-20         0.00000E+00
    0.44466E-18         0.23887E-20         0.00000E+00
    0.44413E-18         0.29830E-20         0.00000E+00
    0.44284E-18         0.19200E-20         0.00000E+00
    0.44347E-18        -0.11600E-20         0.00000E+00
    0.44099E-18        -0.13258E-20         0.00000E+00
    0.44165E-18        -0.68619E-22         0.00000E+00
    0.43975E-18         0.68619E-22         0.00000E+00
    0.43883E-18         0.13724E-21         0.00000E+00
    0.44612E-18         0.13258E-20         0.00000E+00
    0.44446E-18         0.16572E-20         0.00000E+00
    0.44347E-18         0.26515E-20         0.00000E+00
    0.44426E-18         0.36459E-20         0.00000E+00
    0.44506E-18         0.26515E-20         0.00000E+00
    0.44821E-18         0.99432E-21         0.00000E+00
    0.44642E-18         0.99432E-21         0.00000E+00
    0.44741E-18         0.22916E-20         0.00000E+00
    0.44724E-18         0.31487E-20         0.00000E+00
    0.44645E-18         0.31772E-20         0.00000E+00
    0.44743E-18         0.16572E-20         0.00000E+00
    0.44546E-18         0.99432E-21         0.00000E+00
    0.44562E-18        -0.99432E-21         0.00000E+00
    0.44462E-18         0.16572E-21         0.00000E+00
    0.44537E-18         0.23201E-20         0.00000E+00
    0.44546E-18         0.00000E+00         0.00000E+00
    0.44612E-18         0.19887E-20         0.00000E+00
    0.44602E-18         0.19602E-20         0.00000E+00
    0.44546E-18         0.23201E-20         0.00000E+00
    0.44665E-18         0.25143E-20         0.00000E+00
    0.44748E-18        -0.19420E-21         0.00000E+00
    0.44764E-18         0.63440E-21         0.00000E+00
    0.44814E-18         0.19886E-20         0.00000E+00
    0.44814E-18         0.16857E-20         0.00000E+00
    0.44880E-18         0.33144E-20         0.00000E+00
    0.44943E-18         0.26230E-20         0.00000E+00
    0.44910E-18         0.30114E-20         0.00000E+00
    0.44912E-18         0.99432E-21         0.00000E+00
    0.44745E-18         0.88642E-27         0.00000E+00
    0.44662E-18        -0.12745E-26         0.00000E+00
    0.44836E-18        -0.10228E-20         0.00000E+00
    0.44844E-18         0.00000E+00         0.00000E+00
    0.44546E-18         0.93736E-21         0.00000E+00
    0.44648E-18         0.23201E-20         0.00000E+00
    0.44579E-18         0.20171E-20         0.00000E+00
    0.44741E-18         0.14630E-20         0.00000E+00
    0.44791E-18         0.16287E-20         0.00000E+00
    0.44658E-18         0.35992E-21         0.00000E+00
    0.44757E-18         0.69136E-21         0.00000E+00
    0.44744E-18         0.16287E-20         0.00000E+00
    0.44807E-18         0.16287E-20         0.00000E+00
    0.44974E-18         0.26515E-20         0.00000E+00
    0.44908E-18         0.20171E-20         0.00000E+00
    0.45173E-18         0.26800E-20         0.00000E+00
    0.45042E-18         0.16572E-20         0.00000E+00
    0.45159E-18        -0.10228E-20         0.00000E+00
    0.44976E-18         0.72372E-28         0.00000E+00
    0.45043E-18         0.56966E-22         0.00000E+00
    0.44281E-18         0.00000E+00         0.00000E+00
    0.44354E-18         0.16857E-20         0.00000E+00
    0.44512E-18         0.16857E-20         0.00000E+00
    0.44566E-18         0.33144E-21         0.00000E+00
    0.44648E-18         0.33144E-21         0.00000E+00
    0.44715E-18         0.13258E-20         0.00000E+00
    0.44701E-18         0.13258E-20         0.00000E+00
    0.44764E-18         0.99431E-21         0.00000E+00
    0.44880E-18         0.96583E-21         0.00000E+00
    0.44945E-18         0.16572E-20         0.00000E+00
    0.45143E-18         0.99431E-21         0.00000E+00
    0.45142E-18        -0.28483E-22         0.00000E+00
    0.45424E-18         0.66287E-21         0.00000E+00
    0.45341E-18         0.33144E-21         0.00000E+00
    0.45308E-18        -0.10207E-26         0.00000E+00
    0.45308E-18        -0.66288E-21         0.00000E+00
    0.44148E-18         0.00000E+00         0.00000E+00
    0.44148E-18         0.00000E+00         0.00000E+00
    0.44479E-18         0.00000E+00         0.00000E+00
    0.44465E-18         0.00000E+00         0.00000E+00
    0.44539E-18         0.33144E-21         0.00000E+00
    0.44545E-18         0.00000E+00         0.00000E+00
    0.44804E-18         0.00000E+00         0.00000E+00
    0.44803E-18         0.00000E+00         0.00000E+00
    0.45002E-18         0.00000E+00         0.00000E+00
    0.45002E-18         0.00000E+00         0.00000E+00
    0.45341E-18         0.33144E-21         0.00000E+00
    0.45208E-18        -0.33144E-21         0.00000E+00
    0.45337E-18        -0.33144E-21         0.00000E+00
    0.45374E-18         0.33144E-21         0.00000E+00
    0.45407E-18         0.66288E-21         0.00000E+00
    0.45275E-18         0.00000E+00         0.00000E+00
CELL_DATA        450
TENSORS stressef double 
   -0.20273E+08         0.15138E+03         0.00000E+00
    0.15138E+03        -0.50000E+08         0.00000E+00
    0.00000E+00         0.00000E+00        -0.19964E+08
 
   -0.20247E+08         0.43446E+03         0.00000E+00
    0.43446E+03        -0.49999E+08         0.00000E+00
    0.00000E+00         0.00000E+00        -0.19989E+08
 
   -0.20222E+08         0.69329E+03         0.00000E+00
    0.69329E+03        -0.49998E+08         0.00000E+00
    0.00000E+00         0.00000E+00        -0.20011E+08
 
   -0.20200E+08         0.92909E+03         0.00000E+00
    0.92909E+03        -0.49996E+08         0.00000E+00
    0.00000E+00         0.00000E+00        -0.20031E+08
 
   -0.20179E+08         0.11431E+04         0.00000E+00
    0.11431E+04        -0.49994E+08         0.00000E+00
    0.00000E+00         0.00000E+00        -0.20049E+08
 
   -0.20161E+08         0.13366E+04         0.00000E+00
    0.13366E+04        -0.49992E+08         0.00000E+00
    0.00000E+00         0.00000E+00        -0.20064E+08
 
   -0.20145E+08         0.15110E+04         0.00000E+00
    0.15110E+04        -0.49989E+08         0.00000E+00
    0.00000E+00         0.00000E+00        -0.20076E+08
 
   -0.20131E+08         0.16673E+04         0.00000E+00
    0.16673E+04        -0.49986E+08         0.00000E+00
    0.00000E+00         0.00000E+00        -0.20086E+08
 
   -0.20118E+08         0.18068E+04         0.00000E+00
    0.18068E+04        -0.49982E+08         0.00000E+00
    0.00000E+00         0.00000E+00        -0.20094E+08
 
   -0.20108E+08         0.19308E+04         0.00000E+00
    0.19308E+04        -0.49979E+08         0.00000E+00
    0.00000E+00         0.00000E+00        -0.20099E+08
 
   -0.20100E+08         0.20409E+04         0.00000E+00
    0.20409E+04        -0.49975E+08         0.00000E+00
    0.00000E+00         0.00000E+00        -0.20102E+08
 
   -0.20094E+08         0.21386E+04         0.00000E+00
    0.21386E+04        -0.49970E+08         0.00000E+00
    0.00000E+00         0.00000E+00        -0.20102E+08
 
   -0.20090E+08         0.22257E+04         0.00000E+00
    0.22257E+04        -0.49966E+08         0.00000E+00
    0.00000E+00         0.00000E+00        -0.20101E+08
 
   -0.20088E+08         0.23043E+04         0.00000E+00
    0.23043E+04        -0.49962E+08         0.00000E+00
    0.00000E+00         0.00000E+00        -0.20097E+08
 
   -0.20087E+08         0.23764E+04         0.00000E+00
    0.23764E+04        -0.49957E+08         0.00000E+00
    0.00000E+00         0.00000E+00        -0.20091E+08
 
   -0.20273E+08         0.45802E+03         0.00000E+00
    0.45802E+03        -0.50000E+08         0.00000E+00
    0.00000E+00         0.00000E+00        -0.19964E+08
 
   -0.20246E+08         0.13135E+04         0.00000E+00
    0.13135E+04        -0.49999E+08         0.00000E+00
    0.00000E+00         0.00000E+00        -0.19989E+08
 
   -0.20222E+08         0.20943E+04         0.00000E+00
    0.20943E+04        -0.49998E+08         0.00000E+00
    0.00000E+00         0.00000E+00        -0.20012E+08
 
   -0.20199E+08         0.28044E+04         0.00000E+00
    0.28044E+04        -0.49996E+08         0.00000E+00
    0.00000E+00         0.00000E+00        -0.20032E+08
 
   -0.20179E+08         0.34476E+04         0.00000E+00
    0.34476E+04        -0.49994E+08         0.00000E+00
    0.00000E+00         0.00000E+00        -0.20049E+08
 
   -0.20161E+08         0.40278E+04         0.00000E+00
    0.40278E+04        -0.49992E+08         0.00000E+00
    0.00000E+00         0.00000E+00        -0.20064E+08
 
   -0.20144E+08         0.45496E+04         0.00000E+00
    0.45496E+04        -0.49989E+08         0.00000E+00
    0.00000E+00         0.00000E+00        -0.20076E+08
 
   -0.20130E+08         0.50162E+04         0.00000E+00
    0.50162E+04        -0.49986E+08         0.00000E+00
    0.00000E+00         0.00000E+00        -0.20086E+08
 
   -0.20118E+08         0.54315E+04         0.00000E+00
    0.54315E+04        -0.49982E+08         0.00000E+00
    0.00000E+00         0.00000E+00        -0.20094E+08
 
   -0.20108E+08         0.57999E+04         0.00000E+00
    0.57999E+04        -0.49978E+08         0.00000E+00
    0.00000E+00         0.00000E+00        -0.20099E+08
 
   -0.20100E+08         0.61261E+04         0.00000E+00
    0.61261E+04        -0.49974E+08         0.00000E+00
    0.00000E+00         0.00000E+00        -0.20102E+08
 
   -0.20094E+08         0.64149E+04         0.00000E+00
    0.64149E+04        -0.49970E+08         0.00000E+00
    0.00000E+00         0.00000E+00        -0.20102E+08
 
   -0.20090E+08         0.66718E+04         0.00000E+00
    0.66718E+04        -0.49966E+08         0.00000E+00
    0.00000E+00         0.00000E+00        -0.20101E+08
 
   -0.20087E+08         0.69030E+04         0.00000E+00
    0.69030E+04        -0.49961E+08         0.00000E+00
    0.00000E+00         0.00000E+00        -0.20097E+08
 
   -0.20087E+08         0.71151E+04         0.00000E+00
    0.71151E+04        -0.49957E+08         0.00000E+00
    0.00000E+00         0.00000E+00        -0.20091E+08
 
   -0.20271E+08         0.77625E+03         0.00000E+00
    0.77625E+03        -0.50000E+08         0.00000E+00
    0.00000E+00         0.00000E+00        -0.19965E+08
 
   -0.20245E+08         0.22225E+04         0.00000E+00
    0.22225E+04        -0.49999E+08         0.00000E+00
    0.00000E+00         0.00000E+00        -0.19990E+08
 
   -0.20221E+08         0.35384E+04         0.00000E+00
    0.35384E+04        -0.49998E+08         0.00000E+00
    0.00000E+00         0.00000E+00        -0.20013E+08
 
   -0.20198E+08         0.47308E+04         0.00000E+00
    0.47308E+04        -0.49996E+08         0.00000E+00
    0.00000E+00         0.00000E+00        -0.20032E+08
 
   -0.20178E+08         0.58067E+04         0.00000E+00
    0.58067E+04        -0.49994E+08         0.00000E+00
    0.00000E+00         0.00000E+00        -0.20050E+08
 
   -0.20160E+08         0.67730E+04         0.00000E+00
    0.67730E+04        -0.49991E+08         0.00000E+00
    0.00000E+00         0.00000E+00        -0.20064E+08
 
   -0.20144E+08         0.76378E+04         0.00000E+00
    0.76378E+04        -0.49988E+08         0.00000E+00
    0.00000E+00         0.00000E+00        -0.20076E+08
 
   -0.20130E+08         0.84078E+04         0.00000E+00
    0.84078E+04        -0.49985E+08         0.00000E+00
    0.00000E+00         0.00000E+00        -0.20086E+08
 
   -0.20118E+08         0.90897E+04         0.00000E+00
    0.90897E+04        -0.49982E+08         0.00000E+00
    0.00000E+00         0.00000E+00        -0.20093E+08
 
   -0.20108E+08         0.96913E+04         0.00000E+00
    0.96913E+04        -0.49978E+08         0.00000E+00
    0.00000E+00         0.00000E+00        -0.20098E+08
 
   -0.20100E+08         0.10221E+05         0.00000E+00
    0.10221E+05        -0.49974E+08         0.00000E+00
    0.00000E+00         0.00000E+00        -0.20101E+08
 
   -0.20093E+08         0.10688E+05         0.00000E+00
    0.10688E+05        -0.49970E+08         0.00000E+00
    0.00000E+00         0.00000E+00        -0.20102E+08
 
   -0.20089E+08         0.11101E+05         0.00000E+00
    0.11101E+05        -0.49965E+08         0.00000E+00
    0.00000E+00         0.00000E+00        -0.20100E+08
 
   -0.20087E+08         0.11472E+05         0.00000E+00
    0.11472E+05        -0.49961E+08         0.00000E+00
    0.00000E+00         0.00000E+00        -0.20097E+08
 
   -0.20087E+08         0.11811E+05         0.00000E+00
    0.11811E+05        -0.49956E+08         0.00000E+00
    0.00000E+00         0.00000E+00        -0.20091E+08
 
   -0.20270E+08         0.11136E+04         0.00000E+00
    0.11136E+04        -0.50000E+08         0.00000E+00
    0.00000E+00         0.00000E+00        -0.19967E+08
 
   -0.20243E+08         0.31811E+04         0.00000E+00
    0.31811E+04        -0.49999E+08         0.00000E+00
    0.00000E+00         0.00000E+00        -0.19992E+08
 
   -0.20219E+08         0.50535E+04         0.00000E+00
    0.50535E+04        -0.49998E+08         0.00000E+00
    0.00000E+00         0.00000E+00        -0.20014E+08
 
   -0.20197E+08         0.67414E+04         0.00000E+00
    0.67414E+04        -0.49996E+08         0.00000E+00
    0.00000E+00         0.00000E+00        -0.20033E+08
 
   -0.20177E+08         0.82554E+04         0.00000E+00
    0.82554E+04        -0.49994E+08         0.00000E+00
    0.00000E+00         0.00000E+00        -0.20050E+08
 
   -0.20159E+08         0.96065E+04         0.00000E+00
    0.96065E+04        -0.49991E+08         0.00000E+00
    0.00000E+00         0.00000E+00        -0.20065E+08
 
   -0.20143E+08         0.10807E+05         0.00000E+00
    0.10807E+05        -0.49988E+08         0.00000E+00
    0.00000E+00         0.00000E+00        -0.20077E+08
 
   -0.20129E+08         0.11869E+05         0.00000E+00
    0.11869E+05        -0.49984E+08         0.00000E+00
    0.00000E+00         0.00000E+00        -0.20086E+08
 
   -0.20117E+08         0.12802E+05         0.00000E+00
    0.12802E+05        -0.49981E+08         0.00000E+00
    0.00000E+00         0.00000E+00        -0.20093E+08
 
   -0.20107E+08         0.13618E+05         0.00000E+00
    0.13618E+05        -0.49977E+08         0.00000E+00
    0.00000E+00         0.00000E+00        -0.20098E+08
 
   -0.20099E+08         0.14331E+05         0.00000E+00
    0.14331E+05        -0.49973E+08         0.00000E+00
    0.00000E+00         0.00000E+00        -0.20101E+08
 
   -0.20093E+08         0.14954E+05         0.00000E+00
    0.14954E+05        -0.49969E+08         0.00000E+00
    0.00000E+00         0.00000E+00        -0.20101E+08
 
   -0.20089E+08         0.15501E+05         0.00000E+00
    0.15501E+05        -0.49965E+08         0.00000E+00
    0.00000E+00         0.00000E+00        -0.20100E+08
 
   -0.20087E+08         0.15988E+05         0.00000E+00
    0.15988E+05        -0.49960E+08         0.00000E+00
    0.00000E+00         0.00000E+00        -0.20096E+08
 
   -0.20087E+08         0.16432E+05         0.00000E+00
    0.16432E+05        -0.49956E+08         0.00000E+00
    0.00000E+00         0.00000E+00        -0.20090E+08
 
   -0.20267E+08         0.14774E+04         0.00000E+00
    0.14774E+04        -0.50000E+08         0.00000E+00
    0.00000E+00         0.00000E+00        -0.19969E+08
 
   -0.20241E+08         0.42080E+04         0.00000E+00
    0.42080E+04        -0.49999E+08         0.00000E+00
    0.00000E+00         0.00000E+00        -0.19994E+08
 
   -0.20217E+08         0.66663E+04         0.00000E+00
    0.66663E+04        -0.49998E+08         0.00000E+00
    0.00000E+00         0.00000E+00        -0.20016E+08
 
   -0.20195E+08         0.88673E+04         0.00000E+00
    0.88673E+04        -0.49996E+08         0.00000E+00
    0.00000E+00         0.00000E+00        -0.20035E+08
 
   -0.20175E+08         0.10827E+05         0.00000E+00
    0.10827E+05        -0.49993E+08         0.00000E+00
    0.00000E+00         0.00000E+00        -0.20051E+08
 
   -0.20157E+08         0.12561E+05         0.00000E+00
    0.12561E+05        -0.49990E+08         0.00000E+00
    0.00000E+00         0.00000E+00        -0.20065E+08
 
   -0.20142E+08         0.14087E+05         0.00000E+00
    0.14087E+05        -0.49987E+08         0.00000E+00
    0.00000E+00         0.00000E+00        -0.20077E+08
 
   -0.20128E+08         0.15423E+05         0.00000E+00
    0.15423E+05        -0.49984E+08         0.00000E+00
    0.00000E+00         0.00000E+00        -0.20086E+08
 
   -0.20116E+08         0.16585E+05         0.00000E+00
    0.16585E+05        -0.49980E+08         0.00000E+00
    0.00000E+00         0.00000E+00        -0.20093E+08
 
   -0.20106E+08         0.17590E+05         0.00000E+00
    0.17590E+05        -0.49976E+08         0.00000E+00
    0.00000E+00         0.00000E+00        -0.20098E+08
 
   -0.20098E+08         0.18458E+05         0.00000E+00
    0.18458E+05        -0.49972E+08         0.00000E+00
    0.00000E+00         0.00000E+00        -0.20100E+08
 
   -0.20092E+08         0.19206E+05         0.00000E+00
    0.19206E+05        -0.49968E+08         0.00000E+00
    0.00000E+00         0.00000E+00        -0.20101E+08
 
   -0.20088E+08         0.19856E+05         0.00000E+00
    0.19856E+05        -0.49964E+08         0.00000E+00
    0.00000E+00         0.00000E+00        -0.20099E+08
 
   -0.20086E+08         0.20428E+05         0.00000E+00
    0.20428E+05        -0.49959E+08         0.00000E+00
    0.00000E+00         0.00000E+00        -0.20095E+08
 
   -0.20086E+08         0.20946E+05         0.00000E+00
    0.20946E+05        -0.49955E+08         0.00000E+00
    0.00000E+00         0.00000E+00        -0.20090E+08
 
   -0.20264E+08         0.18744E+04         0.00000E+00
    0.18744E+04        -0.50000E+08         0.00000E+00
    0.00000E+00         0.00000E+00        -0.19973E+08
 
   -0.20238E+08         0.53205E+04         0.00000E+00
    0.53205E+04        -0.49999E+08         0.00000E+00
    0.00000E+00         0.00000E+00        -0.19997E+08
 
   -0.20215E+08         0.84012E+04         0.00000E+00
    0.84012E+04        -0.49997E+08         0.00000E+00
    0.00000E+00         0.00000E+00        -0.20018E+08
 
   -0.20193E+08         0.11137E+05         0.00000E+00
    0.11137E+05        -0.49995E+08         0.00000E+00
    0.00000E+00         0.00000E+00        -0.20037E+08
 
   -0.20173E+08         0.13551E+05         0.00000E+00
    0.13551E+05        -0.49993E+08         0.00000E+00
    0.00000E+00         0.00000E+00        -0.20053E+08
 
   -0.20156E+08         0.15664E+05         0.00000E+00
    0.15664E+05        -0.49990E+08         0.00000E+00
    0.00000E+00         0.00000E+00        -0.20066E+08
 
   -0.20140E+08         0.17503E+05         0.00000E+00
    0.17503E+05        -0.49986E+08         0.00000E+00
    0.00000E+00         0.00000E+00        -0.20077E+08
 
   -0.20126E+08         0.19092E+05         0.00000E+00
    0.19092E+05        -0.49983E+08         0.00000E+00
    0.00000E+00         0.00000E+00        -0.20086E+08
 
   -0.20115E+08         0.20455E+05         0.00000E+00
    0.20455E+05        -0.49979E+08         0.00000E+00
    0.00000E+00         0.00000E+00        -0.20093E+08
 
   -0.20105E+08         0.21616E+05         0.00000E+00
    0.21616E+05        -0.49975E+08         0.00000E+00
    0.00000E+00         0.00000E+00        -0.20097E+08
 
   -0.20097E+08         0.22601E+05         0.00000E+00
    0.22601E+05        -0.49971E+08         0.00000E+00
    0.00000E+00         0.00000E+00        -0.20100E+08
 
   -0.20092E+08         0.23435E+05         0.00000E+00
    0.23435E+05        -0.49967E+08         0.00000E+00
    0.00000E+00         0.00000E+00        -0.20100E+08
 
   -0.20088E+08         0.24147E+05         0.00000E+00
    0.24147E+05        -0.49962E+08         0.00000E+00
    0.00000E+00         0.00000E+00        -0.20098E+08
 
   -0.20086E+08         0.24763E+05         0.00000E+00
    0.24763E+05        -0.49958E+08         0.00000E+00
    0.00000E+00         0.00000E+00        -0.20095E+08
 
   -0.20086E+08         0.25316E+05         0.00000E+00
    0.25316E+05        -0.49954E+08         0.00000E+00
    0.00000E+00         0.00000E+00        -0.20089E+08
 
   -0.20260E+08         0.23106E+04         0.00000E+00
    0.23106E+04        -0.50000E+08         0.00000E+00
    0.00000E+00         0.00000E+00        -0.19977E+08
 
   -0.20235E+08         0.65341E+04         0.00000E+00
    0.65341E+04        -0.49999E+08         0.00000E+00
    0.00000E+00         0.00000E+00        -0.20000E+08
 
   -0.20211E+08         0.10280E+05         0.00000E+00
    0.10280E+05        -0.49997E+08         0.00000E+00
    0.00000E+00         0.00000E+00        -0.20021E+08
 
   -0.20190E+08         0.13576E+05         0.00000E+00
    0.13576E+05        -0.49995E+08         0.00000E+00
    0.00000E+00         0.00000E+00        -0.20039E+08
 
   -0.20171E+08         0.16453E+05         0.00000E+00
    0.16453E+05        -0.49992E+08         0.00000E+00
    0.00000E+00         0.00000E+00        -0.20054E+08
 
   -0.20153E+08         0.18943E+05         0.00000E+00
    0.18943E+05        -0.49989E+08         0.00000E+00
    0.00000E+00         0.00000E+00        -0.20067E+08
 
   -0.20138E+08         0.21077E+05         0.00000E+00
    0.21077E+05        -0.49985E+08         0.00000E+00
    0.00000E+00         0.00000E+00        -0.20078E+08
 
   -0.20125E+08         0.22893E+05         0.00000E+00
    0.22893E+05        -0.49982E+08         0.00000E+00
    0.00000E+00         0.00000E+00        -0.20086E+08
 
   -0.20113E+08         0.24422E+05         0.00000E+00
    0.24422E+05        -0.49978E+08         0.00000E+00
    0.00000E+00         0.00000E+00        -0.20093E+08
 
   -0.20104E+08         0.25697E+05         0.00000E+00
    0.25697E+05        -0.49974E+08         0.00000E+00
    0.00000E+00         0.00000E+00        -0.20097E+08
 
   -0.20096E+08         0.26754E+05         0.00000E+00
    0.26754E+05        -0.49970E+08         0.00000E+00
    0.00000E+00         0.00000E+00        -0.20099E+08
 
   -0.20091E+08         0.27626E+05         0.00000E+00
    0.27626E+05        -0.49965E+08         0.00000E+00
    0.00000E+00         0.00000E+00        -0.20099E+08
 
   -0.20087E+08         0.28349E+05         0.00000E+00
    0.28349E+05        -0.49961E+08         0.00000E+00
    0.00000E+00         0.00000E+00        -0.20097E+08
 
   -0.20085E+08         0.28960E+05         0.00000E+00
    0.28960E+05        -0.49957E+08         0.00000E+00
    0.00000E+00         0.00000E+00        -0.20094E+08
 
   -0.20085E+08         0.29497E+05         0.00000E+00
    0.29497E+05        -0.49953E+08         0.00000E+00
    0.00000E+00         0.00000E+00        -0.20089E+08
 
   -0.20255E+08         0.27912E+04         0.00000E+00
    0.27912E+04        -0.50000E+08         0.00000E+00
    0.00000E+00         0.00000E+00        -0.19981E+08
 
   -0.20230E+08         0.78618E+04         0.00000E+00
    0.78618E+04        -0.49999E+08         0.00000E+00
    0.00000E+00         0.00000E+00        -0.20004E+08
 
   -0.20207E+08         0.12321E+05         0.00000E+00
    0.12321E+05        -0.49997E+08         0.00000E+00
    0.00000E+00         0.00000E+00        -0.20024E+08
 
   -0.20187E+08         0.16206E+05         0.00000E+00
    0.16206E+05        -0.49994E+08         0.00000E+00
    0.00000E+00         0.00000E+00        -0.20042E+08
 
   -0.20168E+08         0.19556E+05         0.00000E+00
    0.19556E+05        -0.49991E+08         0.00000E+00
    0.00000E+00         0.00000E+00        -0.20056E+08
 
   -0.20151E+08         0.22415E+05         0.00000E+00
    0.22415E+05        -0.49988E+08         0.00000E+00
    0.00000E+00         0.00000E+00        -0.20069E+08
 
   -0.20136E+08         0.24825E+05         0.00000E+00
    0.24825E+05        -0.49984E+08         0.00000E+00
    0.00000E+00         0.00000E+00        -0.20079E+08
 
   -0.20123E+08         0.26836E+05         0.00000E+00
    0.26836E+05        -0.49980E+08         0.00000E+00
    0.00000E+00         0.00000E+00        -0.20087E+08
 
   -0.20112E+08         0.28490E+05         0.00000E+00
    0.28490E+05        -0.49976E+08         0.00000E+00
    0.00000E+00         0.00000E+00        -0.20092E+08
 
   -0.20103E+08         0.29832E+05         0.00000E+00
    0.29832E+05        -0.49972E+08         0.00000E+00
    0.00000E+00         0.00000E+00        -0.20096E+08
 
   -0.20095E+08         0.30907E+05         0.00000E+00
    0.30907E+05        -0.49968E+08         0.00000E+00
    0.00000E+00         0.00000E+00        -0.20098E+08
 
   -0.20090E+08         0.31759E+05         0.00000E+00
    0.31759E+05        -0.49964E+08         0.00000E+00
    0.00000E+00         0.00000E+00        -0.20098E+08
 
   -0.20086E+08         0.32434E+05         0.00000E+00
    0.32434E+05        -0.49960E+08         0.00000E+00
    0.00000E+00         0.00000E+00        -0.20096E+08
 
   -0.20085E+08         0.32978E+05         0.00000E+00
    0.32978E+05        -0.49956E+08         0.00000E+00
    0.00000E+00         0.00000E+00        -0.20093E+08
 
   -0.20085E+08         0.33442E+05         0.00000E+00
    0.33442E+05        -0.49952E+08         0.00000E+00
    0.00000E+00         0.00000E+00        -0.20088E+08
 
   -0.20249E+08         0.33201E+04         0.00000E+00
    0.33201E+04        -0.50000E+08         0.00000E+00
    0.00000E+00         0.00000E+00        -0.19987E+08
 
   -0.20225E+08         0.93131E+04         0.00000E+00
    0.93131E+04        -0.49999E+08         0.00000E+00
    0.00000E+00         0.00000E+00        -0.20009E+08
 
   -0.20203E+08         0.14537E+05         0.00000E+00
    0.14537E+05        -0.49997E+08         0.00000E+00
    0.00000E+00         0.00000E+00        -0.20029E+08
 
   -0.20183E+08         0.19040E+05         0.00000E+00
    0.19040E+05        -0.49994E+08         0.00000E+00
    0.00000E+00         0.00000E+00        -0.20045E+08
 
   -0.20165E+08         0.22873E+05         0.00000E+00
    0.22873E+05        -0.49991E+08         0.00000E+00
    0.00000E+00         0.00000E+00        -0.20059E+08
 
   -0.20148E+08         0.26093E+05         0.00000E+00
    0.26093E+05        -0.49987E+08         0.00000E+00
    0.00000E+00         0.00000E+00        -0.20070E+08
 
   -0.20134E+08         0.28758E+05         0.00000E+00
    0.28758E+05        -0.49983E+08         0.00000E+00
    0.00000E+00         0.00000E+00        -0.20080E+08
 
   -0.20121E+08         0.30927E+05         0.00000E+00
    0.30927E+05        -0.49979E+08         0.00000E+00
    0.00000E+00         0.00000E+00        -0.20087E+08
 
   -0.20110E+08         0.32659E+05         0.00000E+00
    0.32659E+05        -0.49975E+08         0.00000E+00
    0.00000E+00         0.00000E+00        -0.20092E+08
 
   -0.20102E+08         0.34013E+05         0.00000E+00
    0.34013E+05        -0.49971E+08         0.00000E+00
    0.00000E+00         0.00000E+00        -0.20095E+08
 
   -0.20094E+08         0.35044E+05         0.00000E+00
    0.35044E+05        -0.49967E+08         0.00000E+00
    0.00000E+00         0.00000E+00        -0.20097E+08
 
   -0.20089E+08         0.35809E+05         0.00000E+00
    0.35809E+05        -0.49963E+08         0.00000E+00
    0.00000E+00         0.00000E+00        -0.20097E+08
 
   -0.20086E+08         0.36365E+05         0.00000E+00
    0.36365E+05        -0.49959E+08         0.00000E+00
    0.00000E+00         0.00000E+00        -0.20095E+08
 
   -0.20084E+08         0.36772E+05         0.00000E+00
    0.36772E+05        -0.49955E+08         0.00000E+00
    0.00000E+00         0.00000E+00        -0.20092E+08
 
   -0.20084E+08         0.37094E+05         0.00000E+00
    0.37094E+05        -0.49951E+08         0.00000E+00
    0.00000E+00         0.00000E+00        -0.20087E+08
 
   -0.20242E+08         0.38993E+04         0.00000E+00
    0.38993E+04        -0.50000E+08         0.00000E+00
    0.00000E+00         0.00000E+00        -0.19994E+08
 
   -0.20219E+08         0.10893E+05         0.00000E+00
    0.10893E+05        -0.49998E+08         0.00000E+00
    0.00000E+00         0.00000E+00        -0.20015E+08
 
   -0.20198E+08         0.16935E+05         0.00000E+00
    0.16935E+05        -0.49996E+08         0.00000E+00
    0.00000E+00         0.00000E+00        -0.20033E+08
 
   -0.20178E+08         0.22086E+05         0.00000E+00
    0.22086E+05        -0.49993E+08         0.00000E+00
    0.00000E+00         0.00000E+00        -0.20049E+08
 
   -0.20161E+08         0.26412E+05         0.00000E+00
    0.26412E+05        -0.49990E+08         0.00000E+00
    0.00000E+00         0.00000E+00        -0.20062E+08
 
   -0.20145E+08         0.29985E+05         0.00000E+00
    0.29985E+05        -0.49986E+08         0.00000E+00
    0.00000E+00         0.00000E+00        -0.20072E+08
 
   -0.20131E+08         0.32877E+05         0.00000E+00
    0.32877E+05        -0.49982E+08         0.00000E+00
    0.00000E+00         0.00000E+00        -0.20081E+08
 
   -0.20119E+08         0.35164E+05         0.00000E+00
    0.35164E+05        -0.49978E+08         0.00000E+00
    0.00000E+00         0.00000E+00        -0.20087E+08
 
   -0.20109E+08         0.36923E+05         0.00000E+00
    0.36923E+05        -0.49974E+08         0.00000E+00
    0.00000E+00         0.00000E+00        -0.20092E+08
 
   -0.20100E+08         0.38224E+05         0.00000E+00
    0.38224E+05        -0.49969E+08         0.00000E+00
    0.00000E+00         0.00000E+00        -0.20095E+08
 
   -0.20094E+08         0.39140E+05         0.00000E+00
    0.39140E+05        -0.49965E+08         0.00000E+00
    0.00000E+00         0.00000E+00        -0.20096E+08
 
   -0.20089E+08         0.39741E+05         0.00000E+00
    0.39741E+05        -0.49961E+08         0.00000E+00
    0.00000E+00         0.00000E+00        -0.20096E+08
 
   -0.20085E+08         0.40098E+05         0.00000E+00
    0.40098E+05        -0.49958E+08         0.00000E+00
    0.00000E+00         0.00000E+00        -0.20094E+08
 
   -0.20084E+08         0.40287E+05         0.00000E+00
    0.40287E+05        -0.49954E+08         0.00000E+00
    0.00000E+00         0.00000E+00        -0.20091E+08
 
   -0.20084E+08         0.40387E+05         0.00000E+00
    0.40387E+05        -0.49951E+08         0.00000E+00
    0.00000E+00         0.00000E+00        -0.20087E+08
 
   -0.20234E+08         0.45286E+04         0.00000E+00
    0.45286E+04        -0.50000E+08         0.00000E+00
    0.00000E+00         0.00000E+00        -0.20002E+08
 
   -0.20212E+08         0.12601E+05         0.00000E+00
    0.12601E+05        -0.49998E+08         0.00000E+00
    0.00000E+00         0.00000E+00        -0.20022E+08
 
   -0.20192E+08         0.19515E+05         0.00000E+00
    0.19515E+05        -0.49996E+08         0.00000E+00
    0.00000E+00         0.00000E+00        -0.20039E+08
 
   -0.20173E+08         0.25344E+05         0.00000E+00
    0.25344E+05        -0.49993E+08         0.00000E+00
    0.00000E+00         0.00000E+00        -0.20053E+08
 
   -0.20157E+08         0.30172E+05         0.00000E+00
    0.30172E+05        -0.49989E+08         0.00000E+00
    0.00000E+00         0.00000E+00        -0.20065E+08
 
   -0.20142E+08         0.34086E+05         0.00000E+00
    0.34086E+05        -0.49985E+08         0.00000E+00
    0.00000E+00         0.00000E+00        -0.20075E+08
 
   -0.20129E+08         0.37178E+05         0.00000E+00
    0.37178E+05        -0.49981E+08         0.00000E+00
    0.00000E+00         0.00000E+00        -0.20082E+08
 
   -0.20117E+08         0.39539E+05         0.00000E+00
    0.39539E+05        -0.49977E+08         0.00000E+00
    0.00000E+00         0.00000E+00        -0.20088E+08
 
   -0.20107E+08         0.41265E+05         0.00000E+00
    0.41265E+05        -0.49972E+08         0.00000E+00
    0.00000E+00         0.00000E+00        -0.20092E+08
 
   -0.20099E+08         0.42444E+05         0.00000E+00
    0.42444E+05        -0.49968E+08         0.00000E+00
    0.00000E+00         0.00000E+00        -0.20094E+08
 
   -0.20093E+08         0.43164E+05         0.00000E+00
    0.43164E+05        -0.49964E+08         0.00000E+00
    0.00000E+00         0.00000E+00        -0.20095E+08
 
   -0.20088E+08         0.43513E+05         0.00000E+00
    0.43513E+05        -0.49960E+08         0.00000E+00
    0.00000E+00         0.00000E+00        -0.20095E+08
 
   -0.20085E+08         0.43581E+05         0.00000E+00
    0.43581E+05        -0.49957E+08         0.00000E+00
    0.00000E+00         0.00000E+00        -0.20093E+08
 
   -0.20084E+08         0.43460E+05         0.00000E+00
    0.43460E+05        -0.49953E+08         0.00000E+00
    0.00000E+00         0.00000E+00        -0.20090E+08
 
   -0.20084E+08         0.43247E+05         0.00000E+00
    0.43247E+05        -0.49951E+08         0.00000E+00
    0.00000E+00         0.00000E+00        -0.20087E+08
 
   -0.20225E+08         0.52054E+04         0.00000E+00
    0.52054E+04        -0.49999E+08         0.00000E+00
    0.00000E+00         0.00000E+00        -0.20011E+08
 
   -0.20204E+08         0.14431E+05         0.00000E+00
    0.14431E+05        -0.49998E+08         0.00000E+00
    0.00000E+00         0.00000E+00        -0.20030E+08
 
   -0.20185E+08         0.22267E+05         0.00000E+00
    0.22267E+05        -0.49996E+08         0.00000E+00
    0.00000E+00         0.00000E+00        -0.20045E+08
 
   -0.20168E+08         0.28804E+05         0.00000E+00
    0.28804E+05        -0.49993E+08         0.00000E+00
    0.00000E+00         0.00000E+00        -0.20058E+08
 
   -0.20152E+08         0.34141E+05         0.00000E+00
    0.34141E+05        -0.49989E+08         0.00000E+00
    0.00000E+00         0.00000E+00        -0.20069E+08
 
   -0.20138E+08         0.38385E+05         0.00000E+00
    0.38385E+05        -0.49985E+08         0.00000E+00
    0.00000E+00         0.00000E+00        -0.20077E+08
 
   -0.20126E+08         0.41645E+05         0.00000E+00
    0.41645E+05        -0.49980E+08         0.00000E+00
    0.00000E+00         0.00000E+00        -0.20084E+08
 
   -0.20115E+08         0.44034E+05         0.00000E+00
    0.44034E+05        -0.49976E+08         0.00000E+00
    0.00000E+00         0.00000E+00        -0.20088E+08
 
   -0.20106E+08         0.45662E+05         0.00000E+00
    0.45662E+05        -0.49971E+08         0.00000E+00
    0.00000E+00         0.00000E+00        -0.20091E+08
 
   -0.20099E+08         0.46640E+05         0.00000E+00
    0.46640E+05        -0.49967E+08         0.00000E+00
    0.00000E+00         0.00000E+00        -0.20093E+08
 
   -0.20093E+08         0.47076E+05         0.00000E+00
    0.47076E+05        -0.49963E+08         0.00000E+00
    0.00000E+00         0.00000E+00        -0.20094E+08
 
   -0.20088E+08         0.47076E+05         0.00000E+00
    0.47076E+05        -0.49959E+08         0.00000E+00
    0.00000E+00         0.00000E+00        -0.20093E+08
 
   -0.20086E+08         0.46752E+05         0.00000E+00
    0.46752E+05        -0.49956E+08         0.00000E+00
    0.00000E+00         0.00000E+00        -0.20092E+08
 
   -0.20084E+08         0.46217E+05         0.00000E+00
    0.46217E+05        -0.49953E+08         0.00000E+00
    0.00000E+00         0.00000E+00        -0.20090E+08
 
   -0.20084E+08         0.45591E+05         0.00000E+00
    0.45591E+05        -0.49951E+08         0.00000E+00
    0.00000E+00         0.00000E+00        -0.20087E+08
 
   -0.20214E+08         0.59236E+04         0.00000E+00
    0.59236E+04        -0.49999E+08         0.00000E+00
    0.00000E+00         0.00000E+00        -0.20021E+08
 
   -0.20195E+08         0.16367E+05         0.00000E+00
    0.16367E+05        -0.49998E+08         0.00000E+00
    0.00000E+00         0.00000E+00        -0.20038E+08
 
   -0.20177E+08         0.25173E+05         0.00000E+00
    0.25173E+05        -0.49996E+08         0.00000E+00
    0.00000E+00         0.00000E+00        -0.20053E+08
 
   -0.20161E+08         0.32444E+05         0.00000E+00
    0.32444E+05        -0.49992E+08         0.00000E+00
    0.00000E+00         0.00000E+00        -0.20064E+08
 
   -0.20147E+08         0.38298E+05         0.00000E+00
    0.38298E+05        -0.49988E+08         0.00000E+00
    0.00000E+00         0.00000E+00        -0.20073E+08
 
   -0.20134E+08         0.42859E+05         0.00000E+00
    0.42859E+05        -0.49984E+08         0.00000E+00
    0.00000E+00         0.00000E+00        -0.20080E+08
 
   -0.20123E+08         0.46256E+05         0.00000E+00
    0.46256E+05        -0.49979E+08         0.00000E+00
    0.00000E+00         0.00000E+00        -0.20085E+08
 
   -0.20113E+08         0.48619E+05         0.00000E+00
    0.48619E+05        -0.49975E+08         0.00000E+00
    0.00000E+00         0.00000E+00        -0.20089E+08
 
   -0.20105E+08         0.50080E+05         0.00000E+00
    0.50080E+05        -0.49970E+08         0.00000E+00
    0.00000E+00         0.00000E+00        -0.20091E+08
 
   -0.20098E+08         0.50772E+05         0.00000E+00
    0.50772E+05        -0.49966E+08         0.00000E+00
    0.00000E+00         0.00000E+00        -0.20093E+08
 
   -0.20093E+08         0.50822E+05         0.00000E+00
    0.50822E+05        -0.49962E+08         0.00000E+00
    0.00000E+00         0.00000E+00        -0.20093E+08
 
   -0.20089E+08         0.50365E+05         0.00000E+00
    0.50365E+05        -0.49959E+08         0.00000E+00
    0.00000E+00         0.00000E+00        -0.20092E+08
 
   -0.20086E+08         0.49536E+05         0.00000E+00
    0.49536E+05        -0.49956E+08         0.00000E+00
    0.00000E+00         0.00000E+00        -0.20091E+08
 
   -0.20085E+08         0.48474E+05         0.00000E+00
    0.48474E+05        -0.49954E+08         0.00000E+00
    0.00000E+00         0.00000E+00        -0.20089E+08
 
   -0.20085E+08         0.47325E+05         0.00000E+00
    0.47325E+05        -0.49952E+08         0.00000E+00
    0.00000E+00         0.00000E+00        -0.20087E+08
 
   -0.20202E+08         0.66738E+04         0.00000E+00
    0.66738E+04        -0.49999E+08         0.00000E+00
    0.00000E+00         0.00000E+00        -0.20033E+08
 
   -0.20185E+08         0.18387E+05         0.00000E+00
    0.18387E+05        -0.49998E+08         0.00000E+00
    0.00000E+00         0.00000E+00        -0.20048E+08
 
   -0.20169E+08         0.28200E+05         0.00000E+00
    0.28200E+05        -0.49995E+08         0.00000E+00
    0.00000E+00         0.00000E+00        -0.20061E+08
 
   -0.20155E+08         0.36231E+05         0.00000E+00
    0.36231E+05        -0.49992E+08         0.00000E+00
    0.00000E+00         0.00000E+00        -0.20070E+08
 
   -0.20142E+08         0.42609E+05         0.00000E+00
    0.42609E+05        -0.49988E+08         0.00000E+00
    0.00000E+00         0.00000E+00        -0.20078E+08
 
   -0.20130E+08         0.47474E+05         0.00000E+00
    0.47474E+05        -0.49983E+08         0.00000E+00
    0.00000E+00         0.00000E+00        -0.20083E+08
 
   -0.20120E+08         0.50972E+05         0.00000E+00
    0.50972E+05        -0.49979E+08         0.00000E+00
    0.00000E+00         0.00000E+00        -0.20087E+08
 
   -0.20111E+08         0.53254E+05         0.00000E+00
    0.53254E+05        -0.49974E+08         0.00000E+00
    0.00000E+00         0.00000E+00        -0.20090E+08
 
   -0.20104E+08         0.54472E+05         0.00000E+00
    0.54472E+05        -0.49969E+08         0.00000E+00
    0.00000E+00         0.00000E+00        -0.20091E+08
 
   -0.20098E+08         0.54781E+05         0.00000E+00
    0.54781E+05        -0.49965E+08         0.00000E+00
    0.00000E+00         0.00000E+00        -0.20092E+08
 
   -0.20093E+08         0.54339E+05         0.00000E+00
    0.54339E+05        -0.49962E+08         0.00000E+00
    0.00000E+00         0.00000E+00        -0.20092E+08
 
   -0.20090E+08         0.53306E+05         0.00000E+00
    0.53306E+05        -0.49959E+08         0.00000E+00
    0.00000E+00         0.00000E+00        -0.20091E+08
 
   -0.20087E+08         0.51849E+05         0.00000E+00
    0.51849E+05        -0.49956E+08         0.00000E+00
    0.00000E+00         0.00000E+00        -0.20091E+08
 
   -0.20086E+08         0.50140E+05         0.00000E+00
    0.50140E+05        -0.49955E+08         0.00000E+00
    0.00000E+00         0.00000E+00        -0.20089E+08
 
   -0.20087E+08         0.48350E+05         0.00000E+00
    0.48350E+05        -0.49954E+08         0.00000E+00
    0.00000E+00         0.00000E+00        -0.20088E+08
 
   -0.20189E+08         0.74434E+04         0.00000E+00
    0.74434E+04        -0.49999E+08         0.00000E+00
    0.00000E+00         0.00000E+00        -0.20046E+08
 
   -0.20173E+08         0.20460E+05         0.00000E+00
    0.20460E+05        -0.49998E+08         0.00000E+00
    0.00000E+00         0.00000E+00        -0.20060E+08
 
   -0.20160E+08         0.31309E+05         0.00000E+00
    0.31309E+05        -0.49995E+08         0.00000E+00
    0.00000E+00         0.00000E+00        -0.20070E+08
 
   -0.20147E+08         0.40118E+05         0.00000E+00
    0.40118E+05        -0.49992E+08         0.00000E+00
    0.00000E+00         0.00000E+00        -0.20078E+08
 
   -0.20136E+08         0.47025E+05         0.00000E+00
    0.47025E+05        -0.49988E+08         0.00000E+00
    0.00000E+00         0.00000E+00        -0.20083E+08
 
   -0.20126E+08         0.52181E+05         0.00000E+00
    0.52181E+05        -0.49983E+08         0.00000E+00
    0.00000E+00         0.00000E+00        -0.20087E+08
 
   -0.20117E+08         0.55745E+05         0.00000E+00
    0.55745E+05        -0.49978E+08         0.00000E+00
    0.00000E+00         0.00000E+00        -0.20090E+08
 
   -0.20110E+08         0.57884E+05         0.00000E+00
    0.57884E+05        -0.49974E+08         0.00000E+00
    0.00000E+00         0.00000E+00        -0.20091E+08
 
   -0.20103E+08         0.58775E+05         0.00000E+00
    0.58775E+05        -0.49969E+08         0.00000E+00
    0.00000E+00         0.00000E+00        -0.20092E+08
 
   -0.20098E+08         0.58597E+05         0.00000E+00
    0.58597E+05        -0.49965E+08         0.00000E+00
    0.00000E+00         0.00000E+00        -0.20092E+08
 
   -0.20094E+08         0.57543E+05         0.00000E+00
    0.57543E+05        -0.49962E+08         0.00000E+00
    0.00000E+00         0.00000E+00        -0.20091E+08
 
   -0.20091E+08         0.55808E+05         0.00000E+00
    0.55808E+05        -0.49959E+08         0.00000E+00
    0.00000E+00         0.00000E+00        -0.20091E+08
 
   -0.20089E+08         0.53597E+05         0.00000E+00
    0.53597E+05        -0.49957E+08         0.00000E+00
    0.00000E+00         0.00000E+00        -0.20090E+08
 
   -0.20089E+08         0.51115E+05         0.00000E+00
    0.51115E+05        -0.49956E+08         0.00000E+00
    0.00000E+00         0.00000E+00        -0.20090E+08
 
   -0.20089E+08         0.48565E+05         0.00000E+00
    0.48565E+05        -0.49956E+08         0.00000E+00
    0.00000E+00         0.00000E+00        -0.20089E+08
 
   -0.20174E+08         0.82169E+04         0.00000E+00
    0.82169E+04        -0.49999E+08         0.00000E+00
    0.00000E+00         0.00000E+00        -0.20061E+08
 
   -0.20161E+08         0.22546E+05         0.00000E+00
    0.22546E+05        -0.49998E+08         0.00000E+00
    0.00000E+00         0.00000E+00        -0.20072E+08
 
   -0.20149E+08         0.34447E+05         0.00000E+00
    0.34447E+05        -0.49995E+08         0.00000E+00
    0.00000E+00         0.00000E+00        -0.20080E+08
 
   -0.20139E+08         0.44047E+05         0.00000E+00
    0.44047E+05        -0.49992E+08         0.00000E+00
    0.00000E+00         0.00000E+00        -0.20086E+08
 
   -0.20130E+08         0.51485E+05         0.00000E+00
    0.51485E+05        -0.49988E+08         0.00000E+00
    0.00000E+00         0.00000E+00        -0.20090E+08
 
   -0.20122E+08         0.56915E+05         0.00000E+00
    0.56915E+05        -0.49983E+08         0.00000E+00
    0.00000E+00         0.00000E+00        -0.20092E+08
 
   -0.20114E+08         0.60504E+05         0.00000E+00
    0.60504E+05        -0.49978E+08         0.00000E+00
    0.00000E+00         0.00000E+00        -0.20093E+08
 
   -0.20108E+08         0.62435E+05         0.00000E+00
    0.62435E+05        -0.49974E+08         0.00000E+00
    0.00000E+00         0.00000E+00        -0.20093E+08
 
   -0.20103E+08         0.62905E+05         0.00000E+00
    0.62905E+05        -0.49970E+08         0.00000E+00
    0.00000E+00         0.00000E+00        -0.20092E+08
 
   -0.20099E+08         0.62129E+05         0.00000E+00
    0.62129E+05        -0.49966E+08         0.00000E+00
    0.00000E+00         0.00000E+00        -0.20092E+08
 
   -0.20096E+08         0.60336E+05         0.00000E+00
    0.60336E+05        -0.49963E+08         0.00000E+00
    0.00000E+00         0.00000E+00        -0.20091E+08
 
   -0.20094E+08         0.57769E+05         0.00000E+00
    0.57769E+05        -0.49961E+08         0.00000E+00
    0.00000E+00         0.00000E+00        -0.20090E+08
 
   -0.20092E+08         0.54675E+05         0.00000E+00
    0.54675E+05        -0.49960E+08         0.00000E+00
    0.00000E+00         0.00000E+00        -0.20090E+08
 
   -0.20092E+08         0.51299E+05         0.00000E+00
    0.51299E+05        -0.49959E+08         0.00000E+00
    0.00000E+00         0.00000E+00        -0.20091E+08
 
   -0.20092E+08         0.47873E+05         0.00000E+00
    0.47873E+05        -0.49960E+08         0.00000E+00
    0.00000E+00         0.00000E+00        -0.20091E+08
 
   -0.20157E+08         0.89768E+04         0.00000E+00
    0.89768E+04        -0.50000E+08         0.00000E+00
    0.00000E+00         0.00000E+00        -0.20077E+08
 
   -0.20147E+08         0.24602E+05         0.00000E+00
    0.24602E+05        -0.49998E+08         0.00000E+00
    0.00000E+00         0.00000E+00        -0.20086E+08
 
   -0.20138E+08         0.37551E+05         0.00000E+00
    0.37551E+05        -0.49996E+08         0.00000E+00
    0.00000E+00         0.00000E+00        -0.20092E+08
 
   -0.20130E+08         0.47943E+05         0.00000E+00
    0.47943E+05        -0.49992E+08         0.00000E+00
    0.00000E+00         0.00000E+00        -0.20095E+08
 
   -0.20123E+08         0.55908E+05         0.00000E+00
    0.55908E+05        -0.49988E+08         0.00000E+00
    0.00000E+00         0.00000E+00        -0.20097E+08
 
   -0.20117E+08         0.61591E+05         0.00000E+00
    0.61591E+05        -0.49983E+08         0.00000E+00
    0.00000E+00         0.00000E+00        -0.20097E+08
 
   -0.20112E+08         0.65160E+05         0.00000E+00
    0.65160E+05        -0.49979E+08         0.00000E+00
    0.00000E+00         0.00000E+00        -0.20096E+08
 
   -0.20107E+08         0.66807E+05         0.00000E+00
    0.66807E+05        -0.49974E+08         0.00000E+00
    0.00000E+00         0.00000E+00        -0.20095E+08
 
   -0.20104E+08         0.66756E+05         0.00000E+00
    0.66756E+05        -0.49970E+08         0.00000E+00
    0.00000E+00         0.00000E+00        -0.20093E+08
 
   -0.20101E+08         0.65260E+05         0.00000E+00
    0.65260E+05        -0.49967E+08         0.00000E+00
    0.00000E+00         0.00000E+00        -0.20092E+08
 
   -0.20099E+08         0.62600E+05         0.00000E+00
    0.62600E+05        -0.49965E+08         0.00000E+00
    0.00000E+00         0.00000E+00        -0.20091E+08
 
   -0.20097E+08         0.59072E+05         0.00000E+00
    0.59072E+05        -0.49963E+08         0.00000E+00
    0.00000E+00         0.00000E+00        -0.20090E+08
 
   -0.20096E+08         0.54978E+05         0.00000E+00
    0.54978E+05        -0.49963E+08         0.00000E+00
    0.00000E+00         0.00000E+00        -0.20091E+08
 
   -0.20095E+08         0.50597E+05         0.00000E+00
    0.50597E+05        -0.49964E+08         0.00000E+00
    0.00000E+00         0.00000E+00        -0.20092E+08
 
   -0.20096E+08         0.46192E+05         0.00000E+00
    0.46192E+05        -0.49965E+08         0.00000E+00
    0.00000E+00         0.00000E+00        -0.20094E+08
 
   -0.20140E+08         0.97059E+04         0.00000E+00
    0.97059E+04        -0.50000E+08         0.00000E+00
    0.00000E+00         0.00000E+00        -0.20095E+08
 
   -0.20132E+08         0.26582E+05         0.00000E+00
    0.26582E+05        -0.49998E+08         0.00000E+00
    0.00000E+00         0.00000E+00        -0.20101E+08
 
   -0.20126E+08         0.40553E+05         0.00000E+00
    0.40553E+05        -0.49996E+08         0.00000E+00
    0.00000E+00         0.00000E+00        -0.20104E+08
 
   -0.20121E+08         0.51720E+05         0.00000E+00
    0.51720E+05        -0.49992E+08         0.00000E+00
    0.00000E+00         0.00000E+00        -0.20105E+08
 
   -0.20116E+08         0.60193E+05         0.00000E+00
    0.60193E+05        -0.49988E+08         0.00000E+00
    0.00000E+00         0.00000E+00        -0.20104E+08
 
   -0.20112E+08         0.66097E+05         0.00000E+00
    0.66097E+05        -0.49984E+08         0.00000E+00
    0.00000E+00         0.00000E+00        -0.20103E+08
 
   -0.20109E+08         0.69589E+05         0.00000E+00
    0.69589E+05        -0.49980E+08         0.00000E+00
    0.00000E+00         0.00000E+00        -0.20100E+08
 
   -0.20107E+08         0.70869E+05         0.00000E+00
    0.70869E+05        -0.49976E+08         0.00000E+00
    0.00000E+00         0.00000E+00        -0.20097E+08
 
   -0.20105E+08         0.70188E+05         0.00000E+00
    0.70188E+05        -0.49972E+08         0.00000E+00
    0.00000E+00         0.00000E+00        -0.20094E+08
 
   -0.20103E+08         0.67851E+05         0.00000E+00
    0.67851E+05        -0.49970E+08         0.00000E+00
    0.00000E+00         0.00000E+00        -0.20092E+08
 
   -0.20102E+08         0.64201E+05         0.00000E+00
    0.64201E+05        -0.49968E+08         0.00000E+00
    0.00000E+00         0.00000E+00        -0.20091E+08
 
   -0.20101E+08         0.59599E+05         0.00000E+00
    0.59599E+05        -0.49967E+08         0.00000E+00
    0.00000E+00         0.00000E+00        -0.20091E+08
 
   -0.20101E+08         0.54402E+05         0.00000E+00
    0.54402E+05        -0.49968E+08         0.00000E+00
    0.00000E+00         0.00000E+00        -0.20092E+08
 
   -0.20100E+08         0.48936E+05         0.00000E+00
    0.48936E+05        -0.49969E+08         0.00000E+00
    0.00000E+00         0.00000E+00        -0.20095E+08
 
   -0.20100E+08         0.43469E+05         0.00000E+00
    0.43469E+05        -0.49972E+08         0.00000E+00
    0.00000E+00         0.00000E+00        -0.20098E+08
 
   -0.20121E+08         0.10389E+05         0.00000E+00
    0.10389E+05        -0.50000E+08         0.00000E+00
    0.00000E+00         0.00000E+00        -0.20114E+08
 
   -0.20116E+08         0.28442E+05         0.00000E+00
    0.28442E+05        -0.49998E+08         0.00000E+00
    0.00000E+00         0.00000E+00        -0.20117E+08
 
   -0.20113E+08         0.43380E+05         0.00000E+00
    0.43380E+05        -0.49996E+08         0.00000E+00
    0.00000E+00         0.00000E+00        -0.20117E+08
 
   -0.20110E+08         0.55277E+05         0.00000E+00
    0.55277E+05        -0.49993E+08         0.00000E+00
    0.00000E+00         0.00000E+00        -0.20116E+08
 
   -0.20109E+08         0.64213E+05         0.00000E+00
    0.64213E+05        -0.49989E+08         0.00000E+00
    0.00000E+00         0.00000E+00        -0.20113E+08
 
   -0.20108E+08         0.70284E+05         0.00000E+00
    0.70284E+05        -0.49985E+08         0.00000E+00
    0.00000E+00         0.00000E+00        -0.20109E+08
 
   -0.20107E+08         0.73627E+05         0.00000E+00
    0.73627E+05        -0.49982E+08         0.00000E+00
    0.00000E+00         0.00000E+00        -0.20104E+08
 
   -0.20107E+08         0.74446E+05         0.00000E+00
    0.74446E+05        -0.49978E+08         0.00000E+00
    0.00000E+00         0.00000E+00        -0.20100E+08
 
   -0.20107E+08         0.73026E+05         0.00000E+00
    0.73026E+05        -0.49975E+08         0.00000E+00
    0.00000E+00         0.00000E+00        -0.20096E+08
 
   -0.20107E+08         0.69735E+05         0.00000E+00
    0.69735E+05        -0.49973E+08         0.00000E+00
    0.00000E+00         0.00000E+00        -0.20094E+08
 
   -0.20107E+08         0.64991E+05         0.00000E+00
    0.64991E+05        -0.49972E+08         0.00000E+00
    0.00000E+00         0.00000E+00        -0.20092E+08
 
   -0.20107E+08         0.59232E+05         0.00000E+00
    0.59232E+05        -0.49973E+08         0.00000E+00
    0.00000E+00         0.00000E+00        -0.20093E+08
 
   -0.20107E+08         0.52873E+05         0.00000E+00
    0.52873E+05        -0.49974E+08         0.00000E+00
    0.00000E+00         0.00000E+00        -0.20095E+08
 
   -0.20106E+08         0.46268E+05         0.00000E+00
    0.46268E+05        -0.49977E+08         0.00000E+00
    0.00000E+00         0.00000E+00        -0.20098E+08
 
   -0.20106E+08         0.39692E+05         0.00000E+00
    0.39692E+05        -0.49980E+08         0.00000E+00
    0.00000E+00         0.00000E+00        -0.20103E+08
 
   -0.20100E+08         0.11016E+05         0.00000E+00
    0.11016E+05        -0.50000E+08         0.00000E+00
    0.00000E+00         0.00000E+00        -0.20134E+08
 
   -0.20099E+08         0.30141E+05         0.00000E+00
    0.30141E+05        -0.49999E+08         0.00000E+00
    0.00000E+00         0.00000E+00        -0.20134E+08
 
   -0.20099E+08         0.45955E+05         0.00000E+00
    0.45955E+05        -0.49996E+08         0.00000E+00
    0.00000E+00         0.00000E+00        -0.20132E+08
 
   -0.20100E+08         0.58499E+05         0.00000E+00
    0.58499E+05        -0.49994E+08         0.00000E+00
    0.00000E+00         0.00000E+00        -0.20128E+08
 
   -0.20101E+08         0.67814E+05         0.00000E+00
    0.67814E+05        -0.49991E+08         0.00000E+00
    0.00000E+00         0.00000E+00        -0.20122E+08
 
   -0.20103E+08         0.73961E+05         0.00000E+00
    0.73961E+05        -0.49987E+08         0.00000E+00
    0.00000E+00         0.00000E+00        -0.20116E+08
 
   -0.20105E+08         0.77056E+05         0.00000E+00
    0.77056E+05        -0.49984E+08         0.00000E+00
    0.00000E+00         0.00000E+00        -0.20110E+08
 
   -0.20107E+08         0.77309E+05         0.00000E+00
    0.77309E+05        -0.49981E+08         0.00000E+00
    0.00000E+00         0.00000E+00        -0.20104E+08
 
   -0.20110E+08         0.75051E+05         0.00000E+00
    0.75051E+05        -0.49979E+08         0.00000E+00
    0.00000E+00         0.00000E+00        -0.20099E+08
 
   -0.20111E+08         0.70722E+05         0.00000E+00
    0.70722E+05        -0.49978E+08         0.00000E+00
    0.00000E+00         0.00000E+00        -0.20096E+08
 
   -0.20113E+08         0.64828E+05         0.00000E+00
    0.64828E+05        -0.49978E+08         0.00000E+00
    0.00000E+00         0.00000E+00        -0.20095E+08
 
   -0.20114E+08         0.57882E+05         0.00000E+00
    0.57882E+05        -0.49980E+08         0.00000E+00
    0.00000E+00         0.00000E+00        -0.20095E+08
 
   -0.20114E+08         0.50347E+05         0.00000E+00
    0.50347E+05        -0.49982E+08         0.00000E+00
    0.00000E+00         0.00000E+00        -0.20098E+08
 
   -0.20114E+08         0.42598E+05         0.00000E+00
    0.42598E+05        -0.49986E+08         0.00000E+00
    0.00000E+00         0.00000E+00        -0.20103E+08
 
   -0.20113E+08         0.34904E+05         0.00000E+00
    0.34904E+05        -0.49991E+08         0.00000E+00
    0.00000E+00         0.00000E+00        -0.20110E+08
 
   -0.20079E+08         0.11582E+05         0.00000E+00
    0.11582E+05        -0.50000E+08         0.00000E+00
    0.00000E+00         0.00000E+00        -0.20156E+08
 
   -0.20081E+08         0.31646E+05         0.00000E+00
    0.31646E+05        -0.49999E+08         0.00000E+00
    0.00000E+00         0.00000E+00        -0.20152E+08
 
   -0.20085E+08         0.48202E+05         0.00000E+00
    0.48202E+05        -0.49997E+08         0.00000E+00
    0.00000E+00         0.00000E+00        -0.20147E+08
 
   -0.20089E+08         0.61252E+05         0.00000E+00
    0.61252E+05        -0.49995E+08         0.00000E+00
    0.00000E+00         0.00000E+00        -0.20140E+08
 
   -0.20093E+08         0.70799E+05         0.00000E+00
    0.70799E+05        -0.49992E+08         0.00000E+00
    0.00000E+00         0.00000E+00        -0.20132E+08
 
   -0.20098E+08         0.76873E+05         0.00000E+00
    0.76873E+05        -0.49990E+08         0.00000E+00
    0.00000E+00         0.00000E+00        -0.20124E+08
 
   -0.20104E+08         0.79582E+05         0.00000E+00
    0.79582E+05        -0.49987E+08         0.00000E+00
    0.00000E+00         0.00000E+00        -0.20116E+08
 
   -0.20109E+08         0.79164E+05         0.00000E+00
    0.79164E+05        -0.49986E+08         0.00000E+00
    0.00000E+00         0.00000E+00        -0.20108E+08
 
   -0.20113E+08         0.76003E+05         0.00000E+00
    0.76003E+05        -0.49985E+08         0.00000E+00
    0.00000E+00         0.00000E+00        -0.20103E+08
 
   -0.20117E+08         0.70618E+05         0.00000E+00
    0.70618E+05        -0.49985E+08         0.00000E+00
    0.00000E+00         0.00000E+00        -0.20099E+08
 
   -0.20120E+08         0.63593E+05         0.00000E+00
    0.63593E+05        -0.49987E+08         0.00000E+00
    0.00000E+00         0.00000E+00        -0.20098E+08
 
   -0.20121E+08         0.55502E+05         0.00000E+00
    0.55502E+05        -0.49989E+08         0.00000E+00
    0.00000E+00         0.00000E+00        -0.20100E+08
 
   -0.20122E+08         0.46841E+05         0.00000E+00
    0.46841E+05        -0.49992E+08         0.00000E+00
    0.00000E+00         0.00000E+00        -0.20103E+08
 
   -0.20122E+08         0.37994E+05         0.00000E+00
    0.37994E+05        -0.49997E+08         0.00000E+00
    0.00000E+00         0.00000E+00        -0.20109E+08
 
   -0.20122E+08         0.29210E+05         0.00000E+00
    0.29210E+05        -0.50002E+08         0.00000E+00
    0.00000E+00         0.00000E+00        -0.20117E+08
 
   -0.20057E+08         0.12081E+05         0.00000E+00
    0.12081E+05        -0.50000E+08         0.00000E+00
    0.00000E+00         0.00000E+00        -0.20179E+08
 
   -0.20063E+08         0.32934E+05         0.00000E+00
    0.32934E+05        -0.49999E+08         0.00000E+00
    0.00000E+00         0.00000E+00        -0.20172E+08
 
   -0.20070E+08         0.50047E+05         0.00000E+00
    0.50047E+05        -0.49997E+08         0.00000E+00
    0.00000E+00         0.00000E+00        -0.20163E+08
 
   -0.20077E+08         0.63385E+05         0.00000E+00
    0.63385E+05        -0.49996E+08         0.00000E+00
    0.00000E+00         0.00000E+00        -0.20153E+08
 
   -0.20085E+08         0.72925E+05         0.00000E+00
    0.72925E+05        -0.49994E+08         0.00000E+00
    0.00000E+00         0.00000E+00        -0.20143E+08
 
   -0.20094E+08         0.78691E+05         0.00000E+00
    0.78691E+05        -0.49993E+08         0.00000E+00
    0.00000E+00         0.00000E+00        -0.20132E+08
 
   -0.20103E+08         0.80829E+05         0.00000E+00
    0.80829E+05        -0.49992E+08         0.00000E+00
    0.00000E+00         0.00000E+00        -0.20122E+08
 
   -0.20111E+08         0.79643E+05         0.00000E+00
    0.79643E+05        -0.49992E+08         0.00000E+00
    0.00000E+00         0.00000E+00        -0.20114E+08
 
   -0.20118E+08         0.75591E+05         0.00000E+00
    0.75591E+05        -0.49993E+08         0.00000E+00
    0.00000E+00         0.00000E+00        -0.20108E+08
 
   -0.20124E+08         0.69242E+05         0.00000E+00
    0.69242E+05        -0.49994E+08         0.00000E+00
    0.00000E+00         0.00000E+00        -0.20104E+08
 
   -0.20128E+08         0.61217E+05         0.00000E+00
    0.61217E+05        -0.49997E+08         0.00000E+00
    0.00000E+00         0.00000E+00        -0.20104E+08
 
   -0.20130E+08         0.52114E+05         0.00000E+00
    0.52114E+05        -0.50000E+08         0.00000E+00
    0.00000E+00         0.00000E+00        -0.20106E+08
 
   -0.20131E+08         0.42444E+05         0.00000E+00
    0.42444E+05        -0.50005E+08         0.00000E+00
    0.00000E+00         0.00000E+00        -0.20110E+08
 
   -0.20131E+08         0.32588E+05         0.00000E+00
    0.32588E+05        -0.50010E+08         0.00000E+00
    0.00000E+00         0.00000E+00        -0.20117E+08
 
   -0.20131E+08         0.22781E+05         0.00000E+00
    0.22781E+05        -0.50016E+08         0.00000E+00
    0.00000E+00         0.00000E+00        -0.20126E+08
 
   -0.20034E+08         0.12512E+05         0.00000E+00
    0.12512E+05        -0.50000E+08         0.00000E+00
    0.00000E+00         0.00000E+00        -0.20202E+08
 
   -0.20043E+08         0.33968E+05         0.00000E+00
    0.33968E+05        -0.49999E+08         0.00000E+00
    0.00000E+00         0.00000E+00        -0.20191E+08
 
   -0.20054E+08         0.51397E+05         0.00000E+00
    0.51397E+05        -0.49998E+08         0.00000E+00
    0.00000E+00         0.00000E+00        -0.20179E+08
 
   -0.20066E+08         0.64713E+05         0.00000E+00
    0.64713E+05        -0.49997E+08         0.00000E+00
    0.00000E+00         0.00000E+00        -0.20166E+08
 
   -0.20078E+08         0.73879E+05         0.00000E+00
    0.73879E+05        -0.49997E+08         0.00000E+00
    0.00000E+00         0.00000E+00        -0.20153E+08
 
   -0.20091E+08         0.78997E+05         0.00000E+00
    0.78997E+05        -0.49997E+08         0.00000E+00
    0.00000E+00         0.00000E+00        -0.20141E+08
 
   -0.20103E+08         0.80333E+05         0.00000E+00
    0.80333E+05        -0.49998E+08         0.00000E+00
    0.00000E+00         0.00000E+00        -0.20130E+08
 
   -0.20114E+08         0.78332E+05         0.00000E+00
    0.78332E+05        -0.50000E+08         0.00000E+00
    0.00000E+00         0.00000E+00        -0.20122E+08
 
   -0.20124E+08         0.73522E+05         0.00000E+00
    0.73522E+05        -0.50003E+08         0.00000E+00
    0.00000E+00         0.00000E+00        -0.20115E+08
 
   -0.20131E+08         0.66460E+05         0.00000E+00
    0.66460E+05        -0.50006E+08         0.00000E+00
    0.00000E+00         0.00000E+00        -0.20112E+08
 
   -0.20137E+08         0.57708E+05         0.00000E+00
    0.57708E+05        -0.50010E+08         0.00000E+00
    0.00000E+00         0.00000E+00        -0.20111E+08
 
   -0.20140E+08         0.47826E+05         0.00000E+00
    0.47826E+05        -0.50014E+08         0.00000E+00
    0.00000E+00         0.00000E+00        -0.20114E+08
 
   -0.20142E+08         0.37323E+05         0.00000E+00
    0.37323E+05        -0.50019E+08         0.00000E+00
    0.00000E+00         0.00000E+00        -0.20119E+08
 
   -0.20142E+08         0.26589E+05         0.00000E+00
    0.26589E+05        -0.50025E+08         0.00000E+00
    0.00000E+00         0.00000E+00        -0.20126E+08
 
   -0.20141E+08         0.15854E+05         0.00000E+00
    0.15854E+05        -0.50031E+08         0.00000E+00
    0.00000E+00         0.00000E+00        -0.20136E+08
 
   -0.20010E+08         0.12874E+05         0.00000E+00
    0.12874E+05        -0.50000E+08         0.00000E+00
    0.00000E+00         0.00000E+00        -0.20226E+08
 
   -0.20024E+08         0.34703E+05         0.00000E+00
    0.34703E+05        -0.49999E+08         0.00000E+00
    0.00000E+00         0.00000E+00        -0.20211E+08
 
   -0.20039E+08         0.52110E+05         0.00000E+00
    0.52110E+05        -0.49999E+08         0.00000E+00
    0.00000E+00         0.00000E+00        -0.20196E+08
 
   -0.20055E+08         0.64956E+05         0.00000E+00
    0.64956E+05        -0.49999E+08         0.00000E+00
    0.00000E+00         0.00000E+00        -0.20180E+08
 
   -0.20071E+08         0.73252E+05         0.00000E+00
    0.73252E+05        -0.50000E+08         0.00000E+00
    0.00000E+00         0.00000E+00        -0.20165E+08
 
   -0.20088E+08         0.77279E+05         0.00000E+00
    0.77279E+05        -0.50002E+08         0.00000E+00
    0.00000E+00         0.00000E+00        -0.20151E+08
 
   -0.20104E+08         0.77592E+05         0.00000E+00
    0.77592E+05        -0.50006E+08         0.00000E+00
    0.00000E+00         0.00000E+00        -0.20140E+08
 
   -0.20118E+08         0.74828E+05         0.00000E+00
    0.74828E+05        -0.50010E+08         0.00000E+00
    0.00000E+00         0.00000E+00        -0.20131E+08
 
   -0.20130E+08         0.69549E+05         0.00000E+00
    0.69549E+05        -0.50015E+08         0.00000E+00
    0.00000E+00         0.00000E+00        -0.20125E+08
 
   -0.20140E+08         0.62192E+05         0.00000E+00
    0.62192E+05        -0.50020E+08         0.00000E+00
    0.00000E+00         0.00000E+00        -0.20122E+08
 
   -0.20146E+08         0.53142E+05         0.00000E+00
    0.53142E+05        -0.50025E+08         0.00000E+00
    0.00000E+00         0.00000E+00        -0.20122E+08
 
   -0.20151E+08         0.42830E+05         0.00000E+00
    0.42830E+05        -0.50030E+08         0.00000E+00
    0.00000E+00         0.00000E+00        -0.20125E+08
 
   -0.20152E+08         0.31733E+05         0.00000E+00
    0.31733E+05        -0.50036E+08         0.00000E+00
    0.00000E+00         0.00000E+00        -0.20130E+08
 
   -0.20153E+08         0.20276E+05         0.00000E+00
    0.20276E+05        -0.50042E+08         0.00000E+00
    0.00000E+00         0.00000E+00        -0.20137E+08
 
   -0.20152E+08         0.87287E+04         0.00000E+00
    0.87287E+04        -0.50048E+08         0.00000E+00
    0.00000E+00         0.00000E+00        -0.20147E+08
 
   -0.19986E+08         0.13163E+05         0.00000E+00
    0.13163E+05        -0.50000E+08         0.00000E+00
    0.00000E+00         0.00000E+00        -0.20251E+08
 
   -0.20004E+08         0.35064E+05         0.00000E+00
    0.35064E+05        -0.50000E+08         0.00000E+00
    0.00000E+00         0.00000E+00        -0.20232E+08
 
   -0.20024E+08         0.51955E+05         0.00000E+00
    0.51955E+05        -0.50000E+08         0.00000E+00
    0.00000E+00         0.00000E+00        -0.20212E+08
 
   -0.20045E+08         0.63679E+05         0.00000E+00
    0.63679E+05        -0.50001E+08         0.00000E+00
    0.00000E+00         0.00000E+00        -0.20193E+08
 
   -0.20066E+08         0.70456E+05         0.00000E+00
    0.70456E+05        -0.50005E+08         0.00000E+00
    0.00000E+00         0.00000E+00        -0.20176E+08
 
   -0.20086E+08         0.72983E+05         0.00000E+00
    0.72983E+05        -0.50010E+08         0.00000E+00
    0.00000E+00         0.00000E+00        -0.20162E+08
 
   -0.20105E+08         0.72182E+05         0.00000E+00
    0.72182E+05        -0.50016E+08         0.00000E+00
    0.00000E+00         0.00000E+00        -0.20152E+08
 
   -0.20122E+08         0.68859E+05         0.00000E+00
    0.68859E+05        -0.50023E+08         0.00000E+00
    0.00000E+00         0.00000E+00        -0.20144E+08
 
   -0.20136E+08         0.63522E+05         0.00000E+00
    0.63522E+05        -0.50030E+08         0.00000E+00
    0.00000E+00         0.00000E+00        -0.20139E+08
 
   -0.20148E+08         0.56410E+05         0.00000E+00
    0.56410E+05        -0.50037E+08         0.00000E+00
    0.00000E+00         0.00000E+00        -0.20137E+08
 
   -0.20156E+08         0.47634E+05         0.00000E+00
    0.47634E+05        -0.50043E+08         0.00000E+00
    0.00000E+00         0.00000E+00        -0.20136E+08
 
   -0.20161E+08         0.37370E+05         0.00000E+00
    0.37370E+05        -0.50049E+08         0.00000E+00
    0.00000E+00         0.00000E+00        -0.20138E+08
 
   -0.20164E+08         0.25998E+05         0.00000E+00
    0.25998E+05        -0.50055E+08         0.00000E+00
    0.00000E+00         0.00000E+00        -0.20143E+08
 
   -0.20165E+08         0.14007E+05         0.00000E+00
    0.14007E+05        -0.50060E+08         0.00000E+00
    0.00000E+00         0.00000E+00        -0.20150E+08
 
   -0.20164E+08         0.17705E+04         0.00000E+00
    0.17705E+04        -0.50067E+08         0.00000E+00
    0.00000E+00         0.00000E+00        -0.20159E+08
 
   -0.19962E+08         0.13370E+05         0.00000E+00
    0.13370E+05        -0.50000E+08         0.00000E+00
    0.00000E+00         0.00000E+00        -0.20276E+08
 
   -0.19985E+08         0.34890E+05         0.00000E+00
    0.34890E+05        -0.50000E+08         0.00000E+00
    0.00000E+00         0.00000E+00        -0.20252E+08
 
   -0.20010E+08         0.50489E+05         0.00000E+00
    0.50489E+05        -0.50001E+08         0.00000E+00
    0.00000E+00         0.00000E+00        -0.20228E+08
 
   -0.20036E+08         0.60171E+05         0.00000E+00
    0.60171E+05        -0.50005E+08         0.00000E+00
    0.00000E+00         0.00000E+00        -0.20206E+08
 
   -0.20062E+08         0.64763E+05         0.00000E+00
    0.64763E+05        -0.50012E+08         0.00000E+00
    0.00000E+00         0.00000E+00        -0.20189E+08
 
   -0.20086E+08         0.65613E+05         0.00000E+00
    0.65613E+05        -0.50020E+08         0.00000E+00
    0.00000E+00         0.00000E+00        -0.20176E+08
 
   -0.20108E+08         0.63912E+05         0.00000E+00
    0.63912E+05        -0.50029E+08         0.00000E+00
    0.00000E+00         0.00000E+00        -0.20166E+08
 
   -0.20126E+08         0.60402E+05         0.00000E+00
    0.60402E+05        -0.50039E+08         0.00000E+00
    0.00000E+00         0.00000E+00        -0.20160E+08
 
   -0.20142E+08         0.55442E+05         0.00000E+00
    0.55442E+05        -0.50048E+08         0.00000E+00
    0.00000E+00         0.00000E+00        -0.20157E+08
 
   -0.20155E+08         0.49101E+05         0.00000E+00
    0.49101E+05        -0.50057E+08         0.00000E+00
    0.00000E+00         0.00000E+00        -0.20155E+08
 
   -0.20165E+08         0.41237E+05         0.00000E+00
    0.41237E+05        -0.50064E+08         0.00000E+00
    0.00000E+00         0.00000E+00        -0.20155E+08
 
   -0.20172E+08         0.31676E+05         0.00000E+00
    0.31676E+05        -0.50070E+08         0.00000E+00
    0.00000E+00         0.00000E+00        -0.20156E+08
 
   -0.20176E+08         0.20503E+05         0.00000E+00
    0.20503E+05        -0.50076E+08         0.00000E+00
    0.00000E+00         0.00000E+00        -0.20159E+08
 
   -0.20177E+08         0.82261E+04         0.00000E+00
    0.82261E+04        -0.50081E+08         0.00000E+00
    0.00000E+00         0.00000E+00        -0.20165E+08
 
   -0.20177E+08        -0.45735E+04         0.00000E+00
   -0.45735E+04        -0.50087E+08         0.00000E+00
    0.00000E+00         0.00000E+00        -0.20173E+08
 
   -0.19937E+08         0.13464E+05         0.00000E+00
    0.13464E+05        -0.50000E+08         0.00000E+00
    0.00000E+00         0.00000E+00        -0.20301E+08
 
   -0.19967E+08         0.33808E+05         0.00000E+00
    0.33808E+05        -0.50001E+08         0.00000E+00
    0.00000E+00         0.00000E+00        -0.20271E+08
 
   -0.19999E+08         0.46834E+05         0.00000E+00
    0.46834E+05        -0.50004E+08         0.00000E+00
    0.00000E+00         0.00000E+00        -0.20243E+08
 
   -0.20031E+08         0.53389E+05         0.00000E+00
    0.53389E+05        -0.50012E+08         0.00000E+00
    0.00000E+00         0.00000E+00        -0.20221E+08
 
   -0.20060E+08         0.55519E+05         0.00000E+00
    0.55519E+05        -0.50022E+08         0.00000E+00
    0.00000E+00         0.00000E+00        -0.20204E+08
 
   -0.20087E+08         0.55028E+05         0.00000E+00
    0.55028E+05        -0.50033E+08         0.00000E+00
    0.00000E+00         0.00000E+00        -0.20193E+08
 
   -0.20110E+08         0.52925E+05         0.00000E+00
    0.52925E+05        -0.50045E+08         0.00000E+00
    0.00000E+00         0.00000E+00        -0.20185E+08
 
   -0.20130E+08         0.49686E+05         0.00000E+00
    0.49686E+05        -0.50057E+08         0.00000E+00
    0.00000E+00         0.00000E+00        -0.20181E+08
 
   -0.20147E+08         0.45486E+05         0.00000E+00
    0.45486E+05        -0.50069E+08         0.00000E+00
    0.00000E+00         0.00000E+00        -0.20178E+08
 
   -0.20162E+08         0.40291E+05         0.00000E+00
    0.40291E+05        -0.50079E+08         0.00000E+00
    0.00000E+00         0.00000E+00        -0.20177E+08
 
   -0.20173E+08         0.33875E+05         0.00000E+00
    0.33875E+05        -0.50087E+08         0.00000E+00
    0.00000E+00         0.00000E+00        -0.20177E+08
 
   -0.20182E+08         0.25802E+05         0.00000E+00
    0.25802E+05        -0.50094E+08         0.00000E+00
    0.00000E+00         0.00000E+00        -0.20178E+08
 
   -0.20187E+08         0.15624E+05         0.00000E+00
    0.15624E+05        -0.50099E+08         0.00000E+00
    0.00000E+00         0.00000E+00        -0.20179E+08
 
   -0.20189E+08         0.34927E+04         0.00000E+00
    0.34927E+04        -0.50104E+08         0.00000E+00
    0.00000E+00         0.00000E+00        -0.20182E+08
 
   -0.20190E+08        -0.97321E+04         0.00000E+00
   -0.97321E+04        -0.50108E+08         0.00000E+00
    0.00000E+00         0.00000E+00        -0.20187E+08
 
   -0.19914E+08         0.13327E+05         0.00000E+00
    0.13327E+05        -0.50000E+08         0.00000E+00
    0.00000E+00         0.00000E+00        -0.20325E+08
 
   -0.19952E+08         0.30828E+05         0.00000E+00
    0.30828E+05        -0.50003E+08         0.00000E+00
    0.00000E+00         0.00000E+00        -0.20289E+08
 
   -0.19991E+08         0.39392E+05         0.00000E+00
    0.39392E+05        -0.50010E+08         0.00000E+00
    0.00000E+00         0.00000E+00        -0.20259E+08
 
   -0.20028E+08         0.42348E+05         0.00000E+00
    0.42348E+05        -0.50022E+08         0.00000E+00
    0.00000E+00         0.00000E+00        -0.20237E+08
 
   -0.20060E+08         0.42651E+05         0.00000E+00
    0.42651E+05        -0.50036E+08         0.00000E+00
    0.00000E+00         0.00000E+00        -0.20223E+08
 
   -0.20089E+08         0.41582E+05         0.00000E+00
    0.41582E+05        -0.50050E+08         0.00000E+00
    0.00000E+00         0.00000E+00        -0.20214E+08
 
   -0.20113E+08         0.39660E+05         0.00000E+00
    0.39660E+05        -0.50065E+08         0.00000E+00
    0.00000E+00         0.00000E+00        -0.20208E+08
 
   -0.20134E+08         0.37093E+05         0.00000E+00
    0.37093E+05        -0.50079E+08         0.00000E+00
    0.00000E+00         0.00000E+00        -0.20205E+08
 
   -0.20151E+08         0.33932E+05         0.00000E+00
    0.33932E+05        -0.50091E+08         0.00000E+00
    0.00000E+00         0.00000E+00        -0.20204E+08
 
   -0.20167E+08         0.30109E+05         0.00000E+00
    0.30109E+05        -0.50103E+08         0.00000E+00
    0.00000E+00         0.00000E+00        -0.20204E+08
 
   -0.20179E+08         0.25427E+05         0.00000E+00
    0.25427E+05        -0.50113E+08         0.00000E+00
    0.00000E+00         0.00000E+00        -0.20204E+08
 
   -0.20190E+08         0.19469E+05         0.00000E+00
    0.19469E+05        -0.50120E+08         0.00000E+00
    0.00000E+00         0.00000E+00        -0.20204E+08
 
   -0.20197E+08         0.11466E+05         0.00000E+00
    0.11466E+05        -0.50126E+08         0.00000E+00
    0.00000E+00         0.00000E+00        -0.20203E+08
 
   -0.20202E+08         0.50874E+03         0.00000E+00
    0.50874E+03        -0.50129E+08         0.00000E+00
    0.00000E+00         0.00000E+00        -0.20203E+08
 
   -0.20204E+08        -0.12873E+05         0.00000E+00
   -0.12873E+05        -0.50130E+08         0.00000E+00
    0.00000E+00         0.00000E+00        -0.20203E+08
 
   -0.19893E+08         0.12291E+05         0.00000E+00
    0.12291E+05        -0.50001E+08         0.00000E+00
    0.00000E+00         0.00000E+00        -0.20347E+08
 
   -0.19942E+08         0.23396E+05         0.00000E+00
    0.23396E+05        -0.50008E+08         0.00000E+00
    0.00000E+00         0.00000E+00        -0.20307E+08
 
   -0.19988E+08         0.26521E+05         0.00000E+00
    0.26521E+05        -0.50022E+08         0.00000E+00
    0.00000E+00         0.00000E+00        -0.20278E+08
 
   -0.20027E+08         0.27211E+05         0.00000E+00
    0.27211E+05        -0.50038E+08         0.00000E+00
    0.00000E+00         0.00000E+00        -0.20259E+08
 
   -0.20061E+08         0.26875E+05         0.00000E+00
    0.26875E+05        -0.50054E+08         0.00000E+00
    0.00000E+00         0.00000E+00        -0.20247E+08
 
   -0.20090E+08         0.25961E+05         0.00000E+00
    0.25961E+05        -0.50071E+08         0.00000E+00
    0.00000E+00         0.00000E+00        -0.20239E+08
 
   -0.20115E+08         0.24654E+05         0.00000E+00
    0.24654E+05        -0.50087E+08         0.00000E+00
    0.00000E+00         0.00000E+00        -0.20236E+08
 
   -0.20136E+08         0.23025E+05         0.00000E+00
    0.23025E+05        -0.50102E+08         0.00000E+00
    0.00000E+00         0.00000E+00        -0.20234E+08
 
   -0.20154E+08         0.21078E+05         0.00000E+00
    0.21078E+05        -0.50116E+08         0.00000E+00
    0.00000E+00         0.00000E+00        -0.20234E+08
 
   -0.20170E+08         0.18753E+05         0.00000E+00
    0.18753E+05        -0.50129E+08         0.00000E+00
    0.00000E+00         0.00000E+00        -0.20235E+08
 
   -0.20184E+08         0.15916E+05         0.00000E+00
    0.15916E+05        -0.50140E+08         0.00000E+00
    0.00000E+00         0.00000E+00        -0.20236E+08
 
   -0.20195E+08         0.12307E+05         0.00000E+00
    0.12307E+05        -0.50148E+08         0.00000E+00
    0.00000E+00         0.00000E+00        -0.20235E+08
 
   -0.20205E+08         0.73683E+04         0.00000E+00
    0.73683E+04        -0.50154E+08         0.00000E+00
    0.00000E+00         0.00000E+00        -0.20233E+08
 
   -0.20213E+08        -0.21135E+03         0.00000E+00
   -0.21135E+03        -0.50156E+08         0.00000E+00
    0.00000E+00         0.00000E+00        -0.20228E+08
 
   -0.20217E+08        -0.12655E+05         0.00000E+00
   -0.12655E+05        -0.50155E+08         0.00000E+00
    0.00000E+00         0.00000E+00        -0.20222E+08
 
   -0.19879E+08         0.63059E+04         0.00000E+00
    0.63059E+04        -0.50009E+08         0.00000E+00
    0.00000E+00         0.00000E+00        -0.20372E+08
 
   -0.19939E+08         0.84890E+04         0.00000E+00
    0.84890E+04        -0.50022E+08         0.00000E+00
    0.00000E+00         0.00000E+00        -0.20329E+08
 
   -0.19987E+08         0.92482E+04         0.00000E+00
    0.92482E+04        -0.50040E+08         0.00000E+00
    0.00000E+00         0.00000E+00        -0.20303E+08
 
   -0.20027E+08         0.93764E+04         0.00000E+00
    0.93764E+04        -0.50058E+08         0.00000E+00
    0.00000E+00         0.00000E+00        -0.20286E+08
 
   -0.20062E+08         0.91959E+04         0.00000E+00
    0.91959E+04        -0.50077E+08         0.00000E+00
    0.00000E+00         0.00000E+00        -0.20276E+08
 
   -0.20091E+08         0.88505E+04         0.00000E+00
    0.88505E+04        -0.50095E+08         0.00000E+00
    0.00000E+00         0.00000E+00        -0.20270E+08
 
   -0.20116E+08         0.83912E+04         0.00000E+00
    0.83912E+04        -0.50112E+08         0.00000E+00
    0.00000E+00         0.00000E+00        -0.20267E+08
 
   -0.20137E+08         0.78354E+04         0.00000E+00
    0.78354E+04        -0.50128E+08         0.00000E+00
    0.00000E+00         0.00000E+00        -0.20267E+08
 
   -0.20156E+08         0.71801E+04         0.00000E+00
    0.71801E+04        -0.50143E+08         0.00000E+00
    0.00000E+00         0.00000E+00        -0.20268E+08
 
   -0.20172E+08         0.64027E+04         0.00000E+00
    0.64027E+04        -0.50157E+08         0.00000E+00
    0.00000E+00         0.00000E+00        -0.20270E+08
 
   -0.20186E+08         0.54542E+04         0.00000E+00
    0.54542E+04        -0.50168E+08         0.00000E+00
    0.00000E+00         0.00000E+00        -0.20271E+08
 
   -0.20198E+08         0.42414E+04         0.00000E+00
    0.42414E+04        -0.50178E+08         0.00000E+00
    0.00000E+00         0.00000E+00        -0.20272E+08
 
   -0.20209E+08         0.25886E+04         0.00000E+00
    0.25886E+04        -0.50185E+08         0.00000E+00
    0.00000E+00         0.00000E+00        -0.20270E+08
 
   -0.20220E+08         0.84925E+01         0.00000E+00
    0.84925E+01        -0.50188E+08         0.00000E+00
    0.00000E+00         0.00000E+00        -0.20263E+08
 
   -0.20228E+08        -0.56934E+04         0.00000E+00
   -0.56934E+04        -0.50181E+08         0.00000E+00
    0.00000E+00         0.00000E+00        -0.20246E+08
 
TENSORS stresstot double 
   -0.30273E+08         0.15138E+03         0.00000E+00
    0.15138E+03        -0.60000E+08         0.00000E+00
    0.00000E+00         0.00000E+00        -0.29964E+08
 
   -0.30247E+08         0.43446E+03         0.00000E+00
    0.43446E+03        -0.59999E+08         0.00000E+00
    0.00000E+00         0.00000E+00        -0.29989E+08
 
   -0.30222E+08         0.69329E+03         0.00000E+00
    0.69329E+03        -0.59998E+08         0.00000E+00
    0.00000E+00         0.00000E+00        -0.30011E+08
 
   -0.30200E+08         0.92909E+03         0.00000E+00
    0.92909E+03        -0.59996E+08         0.00000E+00
    0.00000E+00         0.00000E+00        -0.30031E+08
 
   -0.30179E+08         0.11431E+04         0.00000E+00
    0.11431E+04        -0.59994E+08         0.00000E+00
    0.00000E+00         0.00000E+00        -0.30049E+08
 
   -0.30161E+08         0.13366E+04         0.00000E+00
    0.13366E+04        -0.59992E+08         0.00000E+00
    0.00000E+00         0.00000E+00        -0.30064E+08
 
   -0.30145E+08         0.15110E+04         0.00000E+00
    0.15110E+04        -0.59989E+08         0.00000E+00
    0.00000E+00         0.00000E+00        -0.30076E+08
 
   -0.30131E+08         0.16673E+04         0.00000E+00
    0.16673E+04        -0.59986E+08         0.00000E+00
    0.00000E+00         0.00000E+00        -0.30086E+08
 
   -0.30118E+08         0.18068E+04         0.00000E+00
    0.18068E+04        -0.59982E+08         0.00000E+00
    0.00000E+00         0.00000E+00        -0.30094E+08
 
   -0.30108E+08         0.19308E+04         0.00000E+00
    0.19308E+04        -0.59979E+08         0.00000E+00
    0.00000E+00         0.00000E+00        -0.30099E+08
 
   -0.30100E+08         0.20409E+04         0.00000E+00
    0.20409E+04        -0.59975E+08         0.00000E+00
    0.00000E+00         0.00000E+00        -0.30102E+08
 
   -0.30094E+08         0.21386E+04         0.00000E+00
    0.21386E+04        -0.59970E+08         0.00000E+00
    0.00000E+00         0.00000E+00        -0.30102E+08
 
   -0.30090E+08         0.22257E+04         0.00000E+00
    0.22257E+04        -0.59966E+08         0.00000E+00
    0.00000E+00         0.00000E+00        -0.30101E+08
 
   -0.30088E+08         0.23043E+04         0.00000E+00
    0.23043E+04        -0.59962E+08         0.00000E+00
    0.00000E+00         0.00000E+00        -0.30097E+08
 
   -0.30087E+08         0.23764E+04         0.00000E+00
    0.23764E+04        -0.59957E+08         0.00000E+00
    0.00000E+00         0.00000E+00        -0.30091E+08
 
   -0.30273E+08         0.45802E+03         0.00000E+00
    0.45802E+03        -0.60000E+08         0.00000E+00
    0.00000E+00         0.00000E+00        -0.29964E+08
 
   -0.30246E+08         0.13135E+04         0.00000E+00
    0.13135E+04        -0.59999E+08         0.00000E+00
    0.00000E+00         0.00000E+00        -0.29989E+08
 
   -0.30222E+08         0.20943E+04         0.00000E+00
    0.20943E+04        -0.59998E+08         0.00000E+00
    0.00000E+00         0.00000E+00        -0.30012E+08
 
   -0.30199E+08         0.28044E+04         0.00000E+00
    0.28044E+04        -0.59996E+08         0.00000E+00
    0.00000E+00         0.00000E+00        -0.30032E+08
 
   -0.30179E+08         0.34476E+04         0.00000E+00
    0.34476E+04        -0.59994E+08         0.00000E+00
    0.00000E+00         0.00000E+00        -0.30049E+08
 
   -0.30161E+08         0.40278E+04         0.00000E+00
    0.40278E+04        -0.59992E+08         0.00000E+00
    0.00000E+00         0.00000E+00        -0.30064E+08
 
   -0.30144E+08         0.45496E+04         0.00000E+00
    0.45496E+04        -0.59989E+08         0.00000E+00
    0.00000E+00         0.00000E+00        -0.30076E+08
 
   -0.30130E+08         0.50162E+04         0.00000E+00
    0.50162E+04        -0.59986E+08         0.00000E+00
    0.00000E+00         0.00000E+00        -0.30086E+08
 
   -0.30118E+08         0.54315E+04         0.00000E+00
    0.54315E+04        -0.59982E+08         0.00000E+00
    0.00000E+00         0.00000E+00        -0.30094E+08
 
   -0.30108E+08         0.57999E+04         0.00000E+00
    0.57999E+04        -0.59978E+08         0.00000E+00
    0.00000E+00         0.00000E+00        -0.30099E+08
 
   -0.30100E+08         0.61261E+04         0.00000E+00
    0.61261E+04        -0.59974E+08         0.00000E+00
    0.00000E+00         0.00000E+00        -0.30102E+08
 
   -0.30094E+08         0.64149E+04         0.00000E+00
    0.64149E+04        -0.59970E+08         0.00000E+00
    0.00000E+00         0.00000E+00        -0.30102E+08
 
   -0.30090E+08         0.66718E+04         0.00000E+00
    0.66718E+04        -0.59966E+08         0.00000E+00
    0.00000E+00         0.00000E+00        -0.30101E+08
 
   -0.30087E+08         0.69030E+04         0.00000E+00
    0.69030E+04        -0.59961E+08         0.00000E+00
    0.00000E+00         0.00000E+00        -0.30097E+08
 
   -0.30087E+08         0.71151E+04         0.00000E+00
    0.71151E+04        -0.59957E+08         0.00000E+00
    0.00000E+00         0.00000E+00        -0.30091E+08
 
   -0.30271E+08         0.77625E+03         0.00000E+00
    0.77625E+03        -0.60000E+08         0.00000E+00
    0.00000E+00         0.00000E+00        -0.29965E+08
 
   -0.30245E+08         0.22225E+04         0.00000E+00
    0.22225E+04        -0.59999E+08         0.00000E+00
    0.00000E+00         0.00000E+00        -0.29990E+08
 
   -0.30221E+08         0.35384E+04         0.00000E+00
    0.35384E+04        -0.59998E+08         0.00000E+00
    0.00000E+00         0.00000E+00        -0.30013E+08
 
   -0.30198E+08         0.47308E+04         0.00000E+00
    0.47308E+04        -0.59996E+08         0.00000E+00
    0.00000E+00         0.00000E+00        -0.30032E+08
 
   -0.30178E+08         0.58067E+04         0.00000E+00
    0.58067E+04        -0.59994E+08         0.00000E+00
    0.00000E+00         0.00000E+00        -0.30050E+08
 
   -0.30160E+08         0.67730E+04         0.00000E+00
    0.67730E+04        -0.59991E+08         0.00000E+00
    0.00000E+00         0.00000E+00        -0.30064E+08
 
   -0.30144E+08         0.76378E+04         0.00000E+00
    0.76378E+04        -0.59988E+08         0.00000E+00
    0.00000E+00         0.00000E+00        -0.30076E+08
 
   -0.30130E+08         0.84078E+04         0.00000E+00
    0.84078E+04        -0.59985E+08         0.00000E+00
    0.00000E+00         0.00000E+00        -0.30086E+08
 
   -0.30118E+08         0.90897E+04         0.00000E+00
    0.90897E+04        -0.59982E+08         0.00000E+00
    0.00000E+00         0.00000E+00        -0.30093E+08
 
   -0.30108E+08         0.96913E+04         0.00000E+00
    0.96913E+04        -0.59978E+08         0.00000E+00
    0.00000E+00         0.00000E+00        -0.30098E+08
 
   -0.30100E+08         0.10221E+05         0.00000E+00
    0.10221E+05        -0.59974E+08         0.00000E+00
    0.00000E+00         0.00000E+00        -0.30101E+08
 
   -0.30093E+08         0.10688E+05         0.00000E+00
    0.10688E+05        -0.59970E+08         0.00000E+00
    0.00000E+00         0.00000E+00        -0.30102E+08
 
   -0.30089E+08         0.11101E+05         0.00000E+00
    0.11101E+05        -0.59965E+08         0.00000E+00
    0.00000E+00         0.00000E+00        -0.30100E+08
 
   -0.30087E+08         0.11472E+05         0.00000E+00
    0.11472E+05        -0.59961E+08         0.00000E+00
    0.00000E+00         0.00000E+00        -0.30097E+08
 
   -0.30087E+08         0.11811E+05         0.00000E+00
    0.11811E+05        -0.59956E+08         0.00000E+00
    0.00000E+00         0.00000E+00        -0.30091E+08
 
   -0.30270E+08         0.11136E+04         0.00000E+00
    0.11136E+04        -0.60000E+08         0.00000E+00
    0.00000E+00         0.00000E+00        -0.29967E+08
 
   -0.30243E+08         0.31811E+04         0.00000E+00
    0.31811E+04        -0.59999E+08         0.00000E+00
    0.00000E+00         0.00000E+00        -0.29992E+08
 
   -0.30219E+08         0.50535E+04         0.00000E+00
    0.50535E+04        -0.59998E+08         0.00000E+00
    0.00000E+00         0.00000E+00        -0.30014E+08
 
   -0.30197E+08         0.67414E+04         0.00000E+00
    0.67414E+04        -0.59996E+08         0.00000E+00
    0.00000E+00         0.00000E+00        -0.30033E+08
 
   -0.30177E+08         0.82554E+04         0.00000E+00
    0.82554E+04        -0.59994E+08         0.00000E+00
    0.00000E+00         0.00000E+00        -0.30050E+08
 
   -0.30159E+08         0.96065E+04         0.00000E+00
    0.96065E+04        -0.59991E+08         0.00000E+00
    0.00000E+00         0.00000E+00        -0.30065E+08
 
   -0.30143E+08         0.10807E+05         0.00000E+00
    0.10807E+05        -0.59988E+08         0.00000E+00
    0.00000E+00         0.00000E+00        -0.30077E+08
 
   -0.30129E+08         0.11869E+05         0.00000E+00
    0.11869E+05        -0.59984E+08         0.00000E+00
    0.00000E+00         0.00000E+00        -0.30086E+08
 
   -0.30117E+08         0.12802E+05         0.00000E+00
    0.12802E+05        -0.59981E+08         0.00000E+00
    0.00000E+00         0.00000E+00        -0.30093E+08
 
   -0.30107E+08         0.13618E+05         0.00000E+00
    0.13618E+05        -0.59977E+08         0.00000E+00
    0.00000E+00         0.00000E+00        -0.30098E+08
 
   -0.30099E+08         0.14331E+05         0.00000E+00
    0.14331E+05        -0.59973E+08         0.00000E+00
    0.00000E+00         0.00000E+00        -0.30101E+08
 
   -0.30093E+08         0.14954E+05         0.00000E+00
    0.14954E+05        -0.59969E+08         0.00000E+00
    0.00000E+00         0.00000E+00        -0.30101E+08
 
   -0.30089E+08         0.15501E+05         0.00000E+00
    0.15501E+05        -0.59965E+08         0.00000E+00
    0.00000E+00         0.00000E+00        -0.30100E+08
 
   -0.30087E+08         0.15988E+05         0.00000E+00
    0.15988E+05        -0.59960E+08         0.00000E+00
    0.00000E+00         0.00000E+00        -0.30096E+08
 
   -0.30087E+08         0.16432E+05         0.00000E+00
    0.16432E+05        -0.59956E+08         0.00000E+00
    0.00000E+00         0.00000E+00        -0.30090E+08
 
   -0.30267E+08         0.14774E+04         0.00000E+00
    0.14774E+04        -0.60000E+08         0.00000E+00
    0.00000E+00         0.00000E+00        -0.29969E+08
 
   -0.30241E+08         0.42080E+04         0.00000E+00
    0.42080E+04        -0.59999E+08         0.00000E+00
    0.00000E+00         0.00000E+00        -0.29994E+08
 
   -0.30217E+08         0.66663E+04         0.00000E+00
    0.66663E+04        -0.59998E+08         0.00000E+00
    0.00000E+00         0.00000E+00        -0.30016E+08
 
   -0.30195E+08         0.88673E+04         0.00000E+00
    0.88673E+04        -0.59996E+08         0.00000E+00
    0.00000E+00         0.00000E+00        -0.30035E+08
 
   -0.30175E+08         0.10827E+05         0.00000E+00
    0.10827E+05        -0.59993E+08         0.00000E+00
    0.00000E+00         0.00000E+00        -0.30051E+08
 
   -0.30157E+08         0.12561E+05         0.00000E+00
    0.12561E+05        -0.59990E+08         0.00000E+00
    0.00000E+00         0.00000E+00        -0.30065E+08
 
   -0.30142E+08         0.14087E+05         0.00000E+00
    0.14087E+05        -0.59987E+08         0.00000E+00
    0.00000E+00         0.00000E+00        -0.30077E+08
 
   -0.30128E+08         0.15423E+05         0.00000E+00
    0.15423E+05        -0.59984E+08         0.00000E+00
    0.00000E+00         0.00000E+00        -0.30086E+08
 
   -0.30116E+08         0.16585E+05         0.00000E+00
    0.16585E+05        -0.59980E+08         0.00000E+00
    0.00000E+00         0.00000E+00        -0.30093E+08
 
   -0.30106E+08         0.17590E+05         0.00000E+00
    0.17590E+05        -0.59976E+08         0.00000E+00
    0.00000E+00         0.00000E+00        -0.30098E+08
 
   -0.30098E+08         0.18458E+05         0.00000E+00
    0.18458E+05        -0.59972E+08         0.00000E+00
    0.00000E+00         0.00000E+00        -0.30100E+08
 
   -0.30092E+08         0.19206E+05         0.00000E+00
    0.19206E+05        -0.59968E+08         0.00000E+00
    0.00000E+00         0.00000E+00        -0.30101E+08
 
   -0.30088E+08         0.19856E+05         0.00000E+00
    0.19856E+05        -0.59964E+08         0.00000E+00
    0.00000E+00         0.00000E+00        -0.30099E+08
 
   -0.30086E+08         0.20428E+05         0.00000E+00
    0.20428E+05        -0.59959E+08         0.00000E+00
    0.00000E+00         0.00000E+00        -0.30095E+08
 
   -0.30086E+08         0.20946E+05         0.00000E+00
    0.20946E+05        -0.59955E+08         0.00000E+00
    0.00000E+00         0.00000E+00        -0.30090E+08
 
   -0.30264E+08         0.18744E+04         0.00000E+00
    0.18744E+04        -0.60000E+08         0.00000E+00
    0.00000E+00         0.00000E+00        -0.29973E+08
 
   -0.30238E+08         0.53205E+04         0.00000E+00
    0.53205E+04        -0.59999E+08         0.00000E+00
    0.00000E+00         0.00000E+00        -0.29997E+08
 
   -0.30215E+08         0.84012E+04         0.00000E+00
    0.84012E+04        -0.59997E+08         0.00000E+00
    0.00000E+00         0.00000E+00        -0.30018E+08
 
   -0.30193E+08         0.11137E+05         0.00000E+00
    0.11137E+05        -0.59995E+08         0.00000E+00
    0.00000E+00         0.00000E+00        -0.30037E+08
 
   -0.30173E+08         0.13551E+05         0.00000E+00
    0.13551E+05        -0.59993E+08         0.00000E+00
    0.00000E+00         0.00000E+00        -0.30053E+08
 
   -0.30156E+08         0.15664E+05         0.00000E+00
    0.15664E+05        -0.59990E+08         0.00000E+00
    0.00000E+00         0.00000E+00        -0.30066E+08
 
   -0.30140E+08         0.17503E+05         0.00000E+00
    0.17503E+05        -0.59986E+08         0.00000E+00
    0.00000E+00         0.00000E+00        -0.30077E+08
 
   -0.30126E+08         0.19092E+05         0.00000E+00
    0.19092E+05        -0.59983E+08         0.00000E+00
    0.00000E+00         0.00000E+00        -0.30086E+08
 
   -0.30115E+08         0.20455E+05         0.00000E+00
    0.20455E+05        -0.59979E+08         0.00000E+00
    0.00000E+00         0.00000E+00        -0.30093E+08
 
   -0.30105E+08         0.21616E+05         0.00000E+00
    0.21616E+05        -0.59975E+08         0.00000E+00
    0.00000E+00         0.00000E+00        -0.30097E+08
 
   -0.30097E+08         0.22601E+05         0.00000E+00
    0.22601E+05        -0.59971E+08         0.00000E+00
    0.00000E+00         0.00000E+00        -0.30100E+08
 
   -0.30092E+08         0.23435E+05         0.00000E+00
    0.23435E+05        -0.59967E+08         0.00000E+00
    0.00000E+00         0.00000E+00        -0.30100E+08
 
   -0.30088E+08         0.24147E+05         0.00000E+00
    0.24147E+05        -0.59962E+08         0.00000E+00
    0.00000E+00         0.00000E+00        -0.30098E+08
 
   -0.30086E+08         0.24763E+05         0.00000E+00
    0.24763E+05        -0.59958E+08         0.00000E+00
    0.00000E+00         0.00000E+00        -0.30095E+08
 
   -0.30086E+08         0.25316E+05         0.00000E+00
    0.25316E+05        -0.59954E+08         0.00000E+00
    0.00000E+00         0.00000E+00        -0.30089E+08
 
   -0.30260E+08         0.23106E+04         0.00000E+00
    0.23106E+04        -0.60000E+08         0.00000E+00
    0.00000E+00         0.00000E+00        -0.29977E+08
 
   -0.30235E+08         0.65341E+04         0.00000E+00
    0.65341E+04        -0.59999E+08         0.00000E+00
    0.00000E+00         0.00000E+00        -0.30000E+08
 
   -0.30211E+08         0.10280E+05         0.00000E+00
    0.10280E+05        -0.59997E+08         0.00000E+00
    0.00000E+00         0.00000E+00        -0.30021E+08
 
   -0.30190E+08         0.13576E+05         0.00000E+00
    0.13576E+05        -0.59995E+08         0.00000E+00
    0.00000E+00         0.00000E+00        -0.30039E+08
 
   -0.30171E+08         0.16453E+05         0.00000E+00
    0.16453E+05        -0.59992E+08         0.00000E+00
    0.00000E+00         0.00000E+00        -0.30054E+08
 
   -0.30153E+08         0.18943E+05         0.00000E+00
    0.18943E+05        -0.59989E+08         0.00000E+00
    0.00000E+00         0.00000E+00        -0.30067E+08
 
   -0.30138E+08         0.21077E+05         0.00000E+00
    0.21077E+05        -0.59985E+08         0.00000E+00
    0.00000E+00         0.00000E+00        -0.30078E+08
 
   -0.30125E+08         0.22893E+05         0.00000E+00
    0.22893E+05        -0.59982E+08         0.00000E+00
    0.00000E+00         0.00000E+00        -0.30086E+08
 
   -0.30113E+08         0.24422E+05         0.00000E+00
    0.24422E+05        -0.59978E+08         0.00000E+00
    0.00000E+00         0.00000E+00        -0.30093E+08
 
   -0.30104E+08         0.25697E+05         0.00000E+00
    0.25697E+05        -0.59974E+08         0.00000E+00
    0.00000E+00         0.00000E+00        -0.30097E+08
 
   -0.30096E+08         0.26754E+05         0.00000E+00
    0.26754E+05        -0.59970E+08         0.00000E+00
    0.00000E+00         0.00000E+00        -0.30099E+08
 
   -0.30091E+08         0.27626E+05         0.00000E+00
    0.27626E+05        -0.59965E+08         0.00000E+00
    0.00000E+00         0.00000E+00        -0.30099E+08
 
   -0.30087E+08         0.28349E+05         0.00000E+00
    0.28349E+05        -0.59961E+08         0.00000E+00
    0.00000E+00         0.00000E+00        -0.30097E+08
 
   -0.30085E+08         0.28960E+05         0.00000E+00
    0.28960E+05        -0.59957E+08         0.00000E+00
    0.00000E+00         0.00000E+00        -0.30094E+08
 
   -0.30085E+08         0.29497E+05         0.00000E+00
    0.29497E+05        -0.59953E+08         0.00000E+00
    0.00000E+00         0.00000E+00        -0.30089E+08
 
   -0.30255E+08         0.27912E+04         0.00000E+00
    0.27912E+04        -0.60000E+08         0.00000E+00
    0.00000E+00         0.00000E+00        -0.29981E+08
 
   -0.30230E+08         0.78618E+04         0.00000E+00
    0.78618E+04        -0.59999E+08         0.00000E+00
    0.00000E+00         0.00000E+00        -0.30004E+08
 
   -0.30207E+08         0.12321E+05         0.00000E+00
    0.12321E+05        -0.59997E+08         0.00000E+00
    0.00000E+00         0.00000E+00        -0.30024E+08
 
   -0.30187E+08         0.16206E+05         0.00000E+00
    0.16206E+05        -0.59994E+08         0.00000E+00
    0.00000E+00         0.00000E+00        -0.30042E+08
 
   -0.30168E+08         0.19556E+05         0.00000E+00
    0.19556E+05        -0.59991E+08         0.00000E+00
    0.00000E+00         0.00000E+00        -0.30056E+08
 
   -0.30151E+08         0.22415E+05         0.00000E+00
    0.22415E+05        -0.59988E+08         0.00000E+00
    0.00000E+00         0.00000E+00        -0.30069E+08
 
   -0.30136E+08         0.24825E+05         0.00000E+00
    0.24825E+05        -0.59984E+08         0.00000E+00
    0.00000E+00         0.00000E+00        -0.30079E+08
 
   -0.30123E+08         0.26836E+05         0.00000E+00
    0.26836E+05        -0.59980E+08         0.00000E+00
    0.00000E+00         0.00000E+00        -0.30087E+08
 
   -0.30112E+08         0.28490E+05         0.00000E+00
    0.28490E+05        -0.59976E+08         0.00000E+00
    0.00000E+00         0.00000E+00        -0.30092E+08
 
   -0.30103E+08         0.29832E+05         0.00000E+00
    0.29832E+05        -0.59972E+08         0.00000E+00
    0.00000E+00         0.00000E+00        -0.30096E+08
 
   -0.30095E+08         0.30907E+05         0.00000E+00
    0.30907E+05        -0.59968E+08         0.00000E+00
    0.00000E+00         0.00000E+00        -0.30098E+08
 
   -0.30090E+08         0.31759E+05         0.00000E+00
    0.31759E+05        -0.59964E+08         0.00000E+00
    0.00000E+00         0.00000E+00        -0.30098E+08
 
   -0.30086E+08         0.32434E+05         0.00000E+00
    0.32434E+05        -0.59960E+08         0.00000E+00
    0.00000E+00         0.00000E+00        -0.30096E+08
 
   -0.30085E+08         0.32978E+05         0.00000E+00
    0.32978E+05        -0.59956E+08         0.00000E+00
    0.00000E+00         0.00000E+00        -0.30093E+08
 
   -0.30085E+08         0.33442E+05         0.00000E+00
    0.33442E+05        -0.59952E+08         0.00000E+00
    0.00000E+00         0.00000E+00        -0.30088E+08
 
   -0.30249E+08         0.33201E+04         0.00000E+00
    0.33201E+04        -0.60000E+08         0.00000E+00
    0.00000E+00         0.00000E+00        -0.29987E+08
 
   -0.30225E+08         0.93131E+04         0.00000E+00
    0.93131E+04        -0.59999E+08         0.00000E+00
    0.00000E+00         0.00000E+00        -0.30009E+08
 
   -0.30203E+08         0.14537E+05         0.00000E+00
    0.14537E+05        -0.59997E+08         0.00000E+00
    0.00000E+00         0.00000E+00        -0.30029E+08
 
   -0.30183E+08         0.19040E+05         0.00000E+00
    0.19040E+05        -0.59994E+08         0.00000E+00
    0.00000E+00         0.00000E+00        -0.30045E+08
 
   -0.30165E+08         0.22873E+05         0.00000E+00
    0.22873E+05        -0.59991E+08         0.00000E+00
    0.00000E+00         0.00000E+00        -0.30059E+08
 
   -0.30148E+08         0.26093E+05         0.00000E+00
    0.26093E+05        -0.59987E+08         0.00000E+00
    0.00000E+00         0.00000E+00        -0.30070E+08
 
   -0.30134E+08         0.28758E+05         0.00000E+00
    0.28758E+05        -0.59983E+08         0.00000E+00
    0.00000E+00         0.00000E+00        -0.30080E+08
 
   -0.30121E+08         0.30927E+05         0.00000E+00
    0.30927E+05        -0.59979E+08         0.00000E+00
    0.00000E+00         0.00000E+00        -0.30087E+08
 
   -0.30110E+08         0.32659E+05         0.00000E+00
    0.32659E+05        -0.59975E+08         0.00000E+00
    0.00000E+00         0.00000E+00        -0.30092E+08
 
   -0.30102E+08         0.34013E+05         0.00000E+00
    0.34013E+05        -0.59971E+08         0.00000E+00
    0.00000E+00         0.00000E+00        -0.30095E+08
 
   -0.30094E+08         0.35044E+05         0.00000E+00
    0.35044E+05        -0.59967E+08         0.00000E+00
    0.00000E+00         0.00000E+00        -0.30097E+08
 
   -0.30089E+08         0.35809E+05         0.00000E+00
    0.35809E+05        -0.59963E+08         0.00000E+00
    0.00000E+00         0.00000E+00        -0.30097E+08
 
   -0.30086E+08         0.36365E+05         0.00000E+00
    0.36365E+05        -0.59959E+08         0.00000E+00
    0.00000E+00         0.00000E+00        -0.30095E+08
 
   -0.30084E+08         0.36772E+05         0.00000E+00
    0.36772E+05        -0.59955E+08         0.00000E+00
    0.00000E+00         0.00000E+00        -0.30092E+08
 
   -0.30084E+08         0.37094E+05         0.00000E+00
    0.37094E+05        -0.59951E+08         0.00000E+00
    0.00000E+00         0.00000E+00        -0.30087E+08
 
   -0.30242E+08         0.38993E+04         0.00000E+00
    0.38993E+04        -0.60000E+08         0.00000E+00
    0.00000E+00         0.00000E+00        -0.29994E+08
 
   -0.30219E+08         0.10893E+05         0.00000E+00
    0.10893E+05        -0.59998E+08         0.00000E+00
    0.00000E+00         0.00000E+00        -0.30015E+08
 
   -0.30198E+08         0.16935E+05         0.00000E+00
    0.16935E+05        -0.59996E+08         0.00000E+00
    0.00000E+00         0.00000E+00        -0.30033E+08
 
   -0.30178E+08         0.22086E+05         0.00000E+00
    0.22086E+05        -0.59993E+08         0.00000E+00
    0.00000E+00         0.00000E+00        -0.30049E+08
 
   -0.30161E+08         0.26412E+05         0.00000E+00
    0.26412E+05        -0.59990E+08         0.00000E+00
    0.00000E+00         0.00000E+00        -0.30062E+08
 
   -0.30145E+08         0.29985E+05         0.00000E+00
    0.29985E+05        -0.59986E+08         0.00000E+00
    0.00000E+00         0.00000E+00        -0.30072E+08
 
   -0.30131E+08         0.32877E+05         0.00000E+00
    0.32877E+05        -0.59982E+08         0.00000E+00
    0.00000E+00         0.00000E+00        -0.30081E+08
 
   -0.30119E+08         0.35164E+05         0.00000E+00
    0.35164E+05        -0.59978E+08         0.00000E+00
    0.00000E+00         0.00000E+00        -0.30087E+08
 
   -0.30109E+08         0.36923E+05         0.00000E+00
    0.36923E+05        -0.59974E+08         0.00000E+00
    0.00000E+00         0.00000E+00        -0.30092E+08
 
   -0.30100E+08         0.38224E+05         0.00000E+00
    0.38224E+05        -0.59969E+08         0.00000E+00
    0.00000E+00         0.00000E+00        -0.30095E+08
 
   -0.30094E+08         0.39140E+05         0.00000E+00
    0.39140E+05        -0.59965E+08         0.00000E+00
    0.00000E+00         0.00000E+00        -0.30096E+08
 
   -0.30089E+08         0.39741E+05         0.00000E+00
    0.39741E+05        -0.59961E+08         0.00000E+00
    0.00000E+00         0.00000E+00        -0.30096E+08
 
   -0.30085E+08         0.40098E+05         0.00000E+00
    0.40098E+05        -0.59958E+08         0.00000E+00
    0.00000E+00         0.00000E+00        -0.30094E+08
 
   -0.30084E+08         0.40287E+05         0.00000E+00
    0.40287E+05        -0.59954E+08         0.00000E+00
    0.00000E+00         0.00000E+00        -0.30091E+08
 
   -0.30084E+08         0.40387E+05         0.00000E+00
    0.40387E+05        -0.59951E+08         0.00000E+00
    0.00000E+00         0.00000E+00        -0.30087E+08
 
   -0.30234E+08         0.45286E+04         0.00000E+00
    0.45286E+04        -0.60000E+08         0.00000E+00
    0.00000E+00         0.00000E+00        -0.30002E+08
 
   -0.30212E+08         0.12601E+05         0.00000E+00
    0.12601E+05        -0.59998E+08         0.00000E+00
    0.00000E+00         0.00000E+00        -0.30022E+08
 
   -0.30192E+08         0.19515E+05         0.00000E+00
    0.19515E+05        -0.59996E+08         0.00000E+00
    0.00000E+00         0.00000E+00        -0.30039E+08
 
   -0.30173E+08         0.25344E+05         0.00000E+00
    0.25344E+05        -0.59993E+08         0.00000E+00
    0.00000E+00         0.00000E+00        -0.30053E+08
 
   -0.30157E+08         0.30172E+05         0.00000E+00
    0.30172E+05        -0.59989E+08         0.00000E+00
    0.00000E+00         0.00000E+00        -0.30065E+08
 
   -0.30142E+08         0.34086E+05         0.00000E+00
    0.34086E+05        -0.59985E+08         0.00000E+00
    0.00000E+00         0.00000E+00        -0.30075E+08
 
   -0.30129E+08         0.37178E+05         0.00000E+00
    0.37178E+05        -0.59981E+08         0.00000E+00
    0.00000E+00         0.00000E+00        -0.30082E+08
 
   -0.30117E+08         0.39539E+05         0.00000E+00
    0.39539E+05        -0.59977E+08         0.00000E+00
    0.00000E+00         0.00000E+00        -0.30088E+08
 
   -0.30107E+08         0.41265E+05         0.00000E+00
    0.41265E+05        -0.59972E+08         0.00000E+00
    0.00000E+00         0.00000E+00        -0.30092E+08
 
   -0.30099E+08         0.42444E+05         0.00000E+00
    0.42444E+05        -0.59968E+08         0.00000E+00
    0.00000E+00         0.00000E+00        -0.30094E+08
 
   -0.30093E+08         0.43164E+05         0.00000E+00
    0.43164E+05        -0.59964E+08         0.00000E+00
    0.00000E+00         0.00000E+00        -0.30095E+08
 
   -0.30088E+08         0.43513E+05         0.00000E+00
    0.43513E+05        -0.59960E+08         0.00000E+00
    0.00000E+00         0.00000E+00        -0.30095E+08
 
   -0.30085E+08         0.43581E+05         0.00000E+00
    0.43581E+05        -0.59957E+08         0.00000E+00
    0.00000E+00         0.00000E+00        -0.30093E+08
 
   -0.30084E+08         0.43460E+05         0.00000E+00
    0.43460E+05        -0.59953E+08         0.00000E+00
    0.00000E+00         0.00000E+00        -0.30090E+08
 
   -0.30084E+08         0.43247E+05         0.00000E+00
    0.43247E+05        -0.59951E+08         0.00000E+00
    0.00000E+00         0.00000E+00        -0.30087E+08
 
   -0.30225E+08         0.52054E+04         0.00000E+00
    0.52054E+04        -0.59999E+08         0.00000E+00
    0.00000E+00         0.00000E+00        -0.30011E+08
 
   -0.30204E+08         0.14431E+05         0.00000E+00
    0.14431E+05        -0.59998E+08         0.00000E+00
    0.00000E+00         0.00000E+00        -0.30030E+08
 
   -0.30185E+08         0.22267E+05         0.00000E+00
    0.22267E+05        -0.59996E+08         0.00000E+00
    0.00000E+00         0.00000E+00        -0.30045E+08
 
   -0.30168E+08         0.28804E+05         0.00000E+00
    0.28804E+05        -0.59993E+08         0.00000E+00
    0.00000E+00         0.00000E+00        -0.30058E+08
 
   -0.30152E+08         0.34141E+05         0.00000E+00
    0.34141E+05        -0.59989E+08         0.00000E+00
    0.00000E+00         0.00000E+00        -0.30069E+08
 
   -0.30138E+08         0.38385E+05         0.00000E+00
    0.38385E+05        -0.59985E+08         0.00000E+00
    0.00000E+00         0.00000E+00        -0.30077E+08
 
   -0.30126E+08         0.41645E+05         0.00000E+00
    0.41645E+05        -0.59980E+08         0.00000E+00
    0.00000E+00         0.00000E+00        -0.30084E+08
 
   -0.30115E+08         0.44034E+05         0.00000E+00
    0.44034E+05        -0.59976E+08         0.00000E+00
    0.00000E+00         0.00000E+00        -0.30088E+08
 
   -0.30106E+08         0.45662E+05         0.00000E+00
    0.45662E+05        -0.59971E+08         0.00000E+00
    0.00000E+00         0.00000E+00        -0.30091E+08
 
   -0.30099E+08         0.46640E+05         0.00000E+00
    0.46640E+05        -0.59967E+08         0.00000E+00
    0.00000E+00         0.00000E+00        -0.30093E+08
 
   -0.30093E+08         0.47076E+05         0.00000E+00
    0.47076E+05        -0.59963E+08         0.00000E+00
    0.00000E+00         0.00000E+00        -0.30094E+08
 
   -0.30088E+08         0.47076E+05         0.00000E+00
    0.47076E+05        -0.59959E+08         0.00000E+00
    0.00000E+00         0.00000E+00        -0.30093E+08
 
   -0.30086E+08         0.46752E+05         0.00000E+00
    0.46752E+05        -0.59956E+08         0.00000E+00
    0.00000E+00         0.00000E+00        -0.30092E+08
 
   -0.30084E+08         0.46217E+05         0.00000E+00
    0.46217E+05        -0.59953E+08         0.00000E+00
    0.00000E+00         0.00000E+00        -0.30090E+08
 
   -0.30084E+08         0.45591E+05         0.00000E+00
    0.45591E+05        -0.59951E+08         0.00000E+00
    0.00000E+00         0.00000E+00        -0.30087E+08
 
   -0.30214E+08         0.59236E+04         0.00000E+00
    0.59236E+04        -0.59999E+08         0.00000E+00
    0.00000E+00         0.00000E+00        -0.30021E+08
 
   -0.30195E+08         0.16367E+05         0.00000E+00
    0.16367E+05        -0.59998E+08         0.00000E+00
    0.00000E+00         0.00000E+00        -0.30038E+08
 
   -0.30177E+08         0.25173E+05         0.00000E+00
    0.25173E+05        -0.59996E+08         0.00000E+00
    0.00000E+00         0.00000E+00        -0.30053E+08
 
   -0.30161E+08         0.32444E+05         0.00000E+00
    0.32444E+05        -0.59992E+08         0.00000E+00
    0.00000E+00         0.00000E+00        -0.30064E+08
 
   -0.30147E+08         0.38298E+05         0.00000E+00
    0.38298E+05        -0.59988E+08         0.00000E+00
    0.00000E+00         0.00000E+00        -0.30073E+08
 
   -0.30134E+08         0.42859E+05         0.00000E+00
    0.42859E+05        -0.59984E+08         0.00000E+00
    0.00000E+00         0.00000E+00        -0.30080E+08
 
   -0.30123E+08         0.46256E+05         0.00000E+00
    0.46256E+05        -0.59979E+08         0.00000E+00
    0.00000E+00         0.00000E+00        -0.30085E+08
 
   -0.30113E+08         0.48619E+05         0.00000E+00
    0.48619E+05        -0.59975E+08         0.00000E+00
    0.00000E+00         0.00000E+00        -0.30089E+08
 
   -0.30105E+08         0.50080E+05         0.00000E+00
    0.50080E+05        -0.59970E+08         0.00000E+00
    0.00000E+00         0.00000E+00        -0.30091E+08
 
   -0.30098E+08         0.50772E+05         0.00000E+00
    0.50772E+05        -0.59966E+08         0.00000E+00
    0.00000E+00         0.00000E+00        -0.30093E+08
 
   -0.30093E+08         0.50822E+05         0.00000E+00
    0.50822E+05        -0.59962E+08         0.00000E+00
    0.00000E+00         0.00000E+00        -0.30093E+08
 
   -0.30089E+08         0.50365E+05         0.00000E+00
    0.50365E+05        -0.59959E+08         0.00000E+00
    0.00000E+00         0.00000E+00        -0.30092E+08
 
   -0.30086E+08         0.49536E+05         0.00000E+00
    0.49536E+05        -0.59956E+08         0.00000E+00
    0.00000E+00         0.00000E+00        -0.30091E+08
 
   -0.30085E+08         0.48474E+05         0.00000E+00
    0.48474E+05        -0.59954E+08         0.00000E+00
    0.00000E+00         0.00000E+00        -0.30089E+08
 
   -0.30085E+08         0.47325E+05         0.00000E+00
    0.47325E+05        -0.59952E+08         0.00000E+00
    0.00000E+00         0.00000E+00        -0.30087E+08
 
   -0.30202E+08         0.66738E+04         0.00000E+00
    0.66738E+04        -0.59999E+08         0.00000E+00
    0.00000E+00         0.00000E+00        -0.30033E+08
 
   -0.30185E+08         0.18387E+05         0.00000E+00
    0.18387E+05        -0.59998E+08         0.00000E+00
    0.00000E+00         0.00000E+00        -0.30048E+08
 
   -0.30169E+08         0.28200E+05         0.00000E+00
    0.28200E+05        -0.59995E+08         0.00000E+00
    0.00000E+00         0.00000E+00        -0.30061E+08
 
   -0.30155E+08         0.36231E+05         0.00000E+00
    0.36231E+05        -0.59992E+08         0.00000E+00
    0.00000E+00         0.00000E+00        -0.30070E+08
 
   -0.30142E+08         0.42609E+05         0.00000E+00
    0.42609E+05        -0.59988E+08         0.00000E+00
    0.00000E+00         0.00000E+00        -0.30078E+08
 
   -0.30130E+08         0.47474E+05         0.00000E+00
    0.47474E+05        -0.59983E+08         0.00000E+00
    0.00000E+00         0.00000E+00        -0.30083E+08
 
   -0.30120E+08         0.50972E+05         0.00000E+00
    0.50972E+05        -0.59979E+08         0.00000E+00
    0.00000E+00         0.00000E+00        -0.30087E+08
 
   -0.30111E+08         0.53254E+05         0.00000E+00
    0.53254E+05        -0.59974E+08         0.00000E+00
    0.00000E+00         0.00000E+00        -0.30090E+08
 
   -0.30104E+08         0.54472E+05         0.00000E+00
    0.54472E+05        -0.59969E+08         0.00000E+00
    0.00000E+00         0.00000E+00        -0.30091E+08
 
   -0.30098E+08         0.54781E+05         0.00000E+00
    0.54781E+05        -0.59965E+08         0.00000E+00
    0.00000E+00         0.00000E+00        -0.30092E+08
 
   -0.30093E+08         0.54339E+05         0.00000E+00
    0.54339E+05        -0.59962E+08         0.00000E+00
    0.00000E+00         0.00000E+00        -0.30092E+08
 
   -0.30090E+08         0.53306E+05         0.00000E+00
    0.53306E+05        -0.59959E+08         0.00000E+00
    0.00000E+00         0.00000E+00        -0.30091E+08
 
   -0.30087E+08         0.51849E+05         0.00000E+00
    0.51849E+05        -0.59956E+08         0.00000E+00
    0.00000E+00         0.00000E+00        -0.30091E+08
 
   -0.30086E+08         0.50140E+05         0.00000E+00
    0.50140E+05        -0.59955E+08         0.00000E+00
    0.00000E+00         0.00000E+00        -0.30089E+08
 
   -0.30087E+08         0.48350E+05         0.00000E+00
    0.48350E+05        -0.59954E+08         0.00000E+00
    0.00000E+00         0.00000E+00        -0.30088E+08
 
   -0.30189E+08         0.74434E+04         0.00000E+00
    0.74434E+04        -0.59999E+08         0.00000E+00
    0.00000E+00         0.00000E+00        -0.30046E+08
 
   -0.30173E+08         0.20460E+05         0.00000E+00
    0.20460E+05        -0.59998E+08         0.00000E+00
    0.00000E+00         0.00000E+00        -0.30060E+08
 
   -0.30160E+08         0.31309E+05         0.00000E+00
    0.31309E+05        -0.59995E+08         0.00000E+00
    0.00000E+00         0.00000E+00        -0.30070E+08
 
   -0.30147E+08         0.40118E+05         0.00000E+00
    0.40118E+05        -0.59992E+08         0.00000E+00
    0.00000E+00         0.00000E+00        -0.30078E+08
 
   -0.30136E+08         0.47025E+05         0.00000E+00
    0.47025E+05        -0.59988E+08         0.00000E+00
    0.00000E+00         0.00000E+00        -0.30083E+08
 
   -0.30126E+08         0.52181E+05         0.00000E+00
    0.52181E+05        -0.59983E+08         0.00000E+00
    0.00000E+00         0.00000E+00        -0.30087E+08
 
   -0.30117E+08         0.55745E+05         0.00000E+00
    0.55745E+05        -0.59978E+08         0.00000E+00
    0.00000E+00         0.00000E+00        -0.30090E+08
 
   -0.30110E+08         0.57884E+05         0.00000E+00
    0.57884E+05        -0.59974E+08         0.00000E+00
    0.00000E+00         0.00000E+00        -0.30091E+08
 
   -0.30103E+08         0.58775E+05         0.00000E+00
    0.58775E+05        -0.59969E+08         0.00000E+00
    0.00000E+00         0.00000E+00        -0.30092E+08
 
   -0.30098E+08         0.58597E+05         0.00000E+00
    0.58597E+05        -0.59965E+08         0.00000E+00
    0.00000E+00         0.00000E+00        -0.30092E+08
 
   -0.30094E+08         0.57543E+05         0.00000E+00
    0.57543E+05        -0.59962E+08         0.00000E+00
    0.00000E+00         0.00000E+00        -0.30091E+08
 
   -0.30091E+08         0.55808E+05         0.00000E+00
    0.55808E+05        -0.59959E+08         0.00000E+00
    0.00000E+00         0.00000E+00        -0.30091E+08
 
   -0.30089E+08         0.53597E+05         0.00000E+00
    0.53597E+05        -0.59957E+08         0.00000E+00
    0.00000E+00         0.00000E+00        -0.30090E+08
 
   -0.30089E+08         0.51115E+05         0.00000E+00
    0.51115E+05        -0.59956E+08         0.00000E+00
    0.00000E+00         0.00000E+00        -0.30090E+08
 
   -0.30089E+08         0.48565E+05         0.00000E+00
    0.48565E+05        -0.59956E+08         0.00000E+00
    0.00000E+00         0.00000E+00        -0.30089E+08
 
   -0.30174E+08         0.82169E+04         0.00000E+00
    0.82169E+04        -0.59999E+08         0.00000E+00
    0.00000E+00         0.00000E+00        -0.30061E+08
 
   -0.30161E+08         0.22546E+05         0.00000E+00
    0.22546E+05        -0.59998E+08         0.00000E+00
    0.00000E+00         0.00000E+00        -0.30072E+08
 
   -0.30149E+08         0.34447E+05         0.00000E+00
    0.34447E+05        -0.59995E+08         0.00000E+00
    0.00000E+00         0.00000E+00        -0.30080E+08
 
   -0.30139E+08         0.44047E+05         0.00000E+00
    0.44047E+05        -0.59992E+08         0.00000E+00
    0.00000E+00         0.00000E+00        -0.30086E+08
 
   -0.30130E+08         0.51485E+05         0.00000E+00
    0.51485E+05        -0.59988E+08         0.00000E+00
    0.00000E+00         0.00000E+00        -0.30090E+08
 
   -0.30122E+08         0.56915E+05         0.00000E+00
    0.56915E+05        -0.59983E+08         0.00000E+00
    0.00000E+00         0.00000E+00        -0.30092E+08
 
   -0.30114E+08         0.60504E+05         0.00000E+00
    0.60504E+05        -0.59978E+08         0.00000E+00
    0.00000E+00         0.00000E+00        -0.30093E+08
 
   -0.30108E+08         0.62435E+05         0.00000E+00
    0.62435E+05        -0.59974E+08         0.00000E+00
    0.00000E+00         0.00000E+00        -0.30093E+08
 
   -0.30103E+08         0.62905E+05         0.00000E+00
    0.62905E+05        -0.59970E+08         0.00000E+00
    0.00000E+00         0.00000E+00        -0.30092E+08
 
   -0.30099E+08         0.62129E+05         0.00000E+00
    0.62129E+05        -0.59966E+08         0.00000E+00
    0.00000E+00         0.00000E+00        -0.30092E+08
 
   -0.30096E+08         0.60336E+05         0.00000E+00
    0.60336E+05        -0.59963E+08         0.00000E+00
    0.00000E+00         0.00000E+00        -0.30091E+08
 
   -0.30094E+08         0.57769E+05         0.00000E+00
    0.57769E+05        -0.59961E+08         0.00000E+00
    0.00000E+00         0.00000E+00        -0.30090E+08
 
   -0.30092E+08         0.54675E+05         0.00000E+00
    0.54675E+05        -0.59960E+08         0.00000E+00
    0.00000E+00         0.00000E+00        -0.30090E+08
 
   -0.30092E+08         0.51299E+05         0.00000E+00
    0.51299E+05        -0.59959E+08         0.00000E+00
    0.00000E+00         0.00000E+00        -0.30091E+08
 
   -0.30092E+08         0.47873E+05         0.00000E+00
    0.47873E+05        -0.59960E+08         0.00000E+00
    0.00000E+00         0.00000E+00        -0.30091E+08
 
   -0.30157E+08         0.89768E+04         0.00000E+00
    0.89768E+04        -0.60000E+08         0.00000E+00
    0.00000E+00         0.00000E+00        -0.30077E+08
 
   -0.30147E+08         0.24602E+05         0.00000E+00
    0.24602E+05        -0.59998E+08         0.00000E+00
    0.00000E+00         0.00000E+00        -0.30086E+08
 
   -0.30138E+08         0.37551E+05         0.00000E+00
    0.37551E+05        -0.59996E+08         0.00000E+00
    0.00000E+00         0.00000E+00        -0.30092E+08
 
   -0.30130E+08         0.47943E+05         0.00000E+00
    0.47943E+05        -0.59992E+08         0.00000E+00
    0.00000E+00         0.00000E+00        -0.30095E+08
 
   -0.30123E+08         0.55908E+05         0.00000E+00
    0.55908E+05        -0.59988E+08         0.00000E+00
    0.00000E+00         0.00000E+00        -0.30097E+08
 
   -0.30117E+08         0.61591E+05         0.00000E+00
    0.61591E+05        -0.59983E+08         0.00000E+00
    0.00000E+00         0.00000E+00        -0.30097E+08
 
   -0.30112E+08         0.65160E+05         0.00000E+00
    0.65160E+05        -0.59979E+08         0.00000E+00
    0.00000E+00         0.00000E+00        -0.30096E+08
 
   -0.30107E+08         0.66807E+05         0.00000E+00
    0.66807E+05        -0.59974E+08         0.00000E+00
    0.00000E+00         0.00000E+00        -0.30095E+08
 
   -0.30104E+08         0.66756E+05         0.00000E+00
    0.66756E+05        -0.59970E+08         0.00000E+00
    0.00000E+00         0.00000E+00        -0.30093E+08
 
   -0.30101E+08         0.65260E+05         0.00000E+00
    0.65260E+05        -0.59967E+08         0.00000E+00
    0.00000E+00         0.00000E+00        -0.30092E+08
 
   -0.30099E+08         0.62600E+05         0.00000E+00
    0.62600E+05        -0.59965E+08         0.00000E+00
    0.00000E+00         0.00000E+00        -0.30091E+08
 
   -0.30097E+08         0.59072E+05         0.00000E+00
    0.59072E+05        -0.59963E+08         0.00000E+00
    0.00000E+00         0.00000E+00        -0.30090E+08
 
   -0.30096E+08         0.54978E+05         0.00000E+00
    0.54978E+05        -0.59963E+08         0.00000E+00
    0.00000E+00         0.00000E+00        -0.30091E+08
 
   -0.30095E+08         0.50597E+05         0.00000E+00
    0.50597E+05        -0.59964E+08         0.00000E+00
    0.00000E+00         0.00000E+00        -0.30092E+08
 
   -0.30096E+08         0.46192E+05         0.00000E+00
    0.46192E+05        -0.59965E+08         0.00000E+00
    0.00000E+00         0.00000E+00        -0.30094E+08
 
   -0.30140E+08         0.97059E+04         0.00000E+00
    0.97059E+04        -0.60000E+08         0.00000E+00
    0.00000E+00         0.00000E+00        -0.30095E+08
 
   -0.30132E+08         0.26582E+05         0.00000E+00
    0.26582E+05        -0.59998E+08         0.00000E+00
    0.00000E+00         0.00000E+00        -0.30101E+08
 
   -0.30126E+08         0.40553E+05         0.00000E+00
    0.40553E+05        -0.59996E+08         0.00000E+00
    0.00000E+00         0.00000E+00        -0.30104E+08
 
   -0.30121E+08         0.51720E+05         0.00000E+00
    0.51720E+05        -0.59992E+08         0.00000E+00
    0.00000E+00         0.00000E+00        -0.30105E+08
 
   -0.30116E+08         0.60193E+05         0.00000E+00
    0.60193E+05        -0.59988E+08         0.00000E+00
    0.00000E+00         0.00000E+00        -0.30104E+08
 
   -0.30112E+08         0.66097E+05         0.00000E+00
    0.66097E+05        -0.59984E+08         0.00000E+00
    0.00000E+00         0.00000E+00        -0.30103E+08
 
   -0.30109E+08         0.69589E+05         0.00000E+00
    0.69589E+05        -0.59980E+08         0.00000E+00
    0.00000E+00         0.00000E+00        -0.30100E+08
 
   -0.30107E+08         0.70869E+05         0.00000E+00
    0.70869E+05        -0.59976E+08         0.00000E+00
    0.00000E+00         0.00000E+00        -0.30097E+08
 
   -0.30105E+08         0.70188E+05         0.00000E+00
    0.70188E+05        -0.59972E+08         0.00000E+00
    0.00000E+00         0.00000E+00        -0.30094E+08
 
   -0.30103E+08         0.67851E+05         0.00000E+00
    0.67851E+05        -0.59970E+08         0.00000E+00
    0.00000E+00         0.00000E+00        -0.30092E+08
 
   -0.30102E+08         0.64201E+05         0.00000E+00
    0.64201E+05        -0.59968E+08         0.00000E+00
    0.00000E+00         0.00000E+00        -0.30091E+08
 
   -0.30101E+08         0.59599E+05         0.00000E+00
    0.59599E+05        -0.59967E+08         0.00000E+00
    0.00000E+00         0.00000E+00        -0.30091E+08
 
   -0.30101E+08         0.54402E+05         0.00000E+00
    0.54402E+05        -0.59968E+08         0.00000E+00
    0.00000E+00         0.00000E+00        -0.30092E+08
 
   -0.30100E+08         0.48936E+05         0.00000E+00
    0.48936E+05        -0.59969E+08         0.00000E+00
    0.00000E+00         0.00000E+00        -0.30095E+08
 
   -0.30100E+08         0.43469E+05         0.00000E+00
    0.43469E+05        -0.59972E+08         0.00000E+00
    0.00000E+00         0.00000E+00        -0.30098E+08
 
   -0.30121E+08         0.10389E+05         0.00000E+00
    0.10389E+05        -0.60000E+08         0.00000E+00
    0.00000E+00         0.00000E+00        -0.30114E+08
 
   -0.30116E+08         0.28442E+05         0.00000E+00
    0.28442E+05        -0.59998E+08         0.00000E+00
    0.00000E+00         0.00000E+00        -0.30117E+08
 
   -0.30113E+08         0.43380E+05         0.00000E+00
    0.43380E+05        -0.59996E+08         0.00000E+00
    0.00000E+00         0.00000E+00        -0.30117E+08
 
   -0.30110E+08         0.55277E+05         0.00000E+00
    0.55277E+05        -0.59993E+08         0.00000E+00
    0.00000E+00         0.00000E+00        -0.30116E+08
 
   -0.30109E+08         0.64213E+05         0.00000E+00
    0.64213E+05        -0.59989E+08         0.00000E+00
    0.00000E+00         0.00000E+00        -0.30113E+08
 
   -0.30108E+08         0.70284E+05         0.00000E+00
    0.70284E+05        -0.59985E+08         0.00000E+00
    0.00000E+00         0.00000E+00        -0.30109E+08
 
   -0.30107E+08         0.73627E+05         0.00000E+00
    0.73627E+05        -0.59982E+08         0.00000E+00
    0.00000E+00         0.00000E+00        -0.30104E+08
 
   -0.30107E+08         0.74446E+05         0.00000E+00
    0.74446E+05        -0.59978E+08         0.00000E+00
    0.00000E+00         0.00000E+00        -0.30100E+08
 
   -0.30107E+08         0.73026E+05         0.00000E+00
    0.73026E+05        -0.59975E+08         0.00000E+00
    0.00000E+00         0.00000E+00        -0.30096E+08
 
   -0.30107E+08         0.69735E+05         0.00000E+00
    0.69735E+05        -0.59973E+08         0.00000E+00
    0.00000E+00         0.00000E+00        -0.30094E+08
 
   -0.30107E+08         0.64991E+05         0.00000E+00
    0.64991E+05        -0.59972E+08         0.00000E+00
    0.00000E+00         0.00000E+00        -0.30092E+08
 
   -0.30107E+08         0.59232E+05         0.00000E+00
    0.59232E+05        -0.59973E+08         0.00000E+00
    0.00000E+00         0.00000E+00        -0.30093E+08
 
   -0.30107E+08         0.52873E+05         0.00000E+00
    0.52873E+05        -0.59974E+08         0.00000E+00
    0.00000E+00         0.00000E+00        -0.30095E+08
 
   -0.30106E+08         0.46268E+05         0.00000E+00
    0.46268E+05        -0.59977E+08         0.00000E+00
    0.00000E+00         0.00000E+00        -0.30098E+08
 
   -0.30106E+08         0.39692E+05         0.00000E+00
    0.39692E+05        -0.59980E+08         0.00000E+00
    0.00000E+00         0.00000E+00        -0.30103E+08
 
   -0.30100E+08         0.11016E+05         0.00000E+00
    0.11016E+05        -0.60000E+08         0.00000E+00
    0.00000E+00         0.00000E+00        -0.30134E+08
 
   -0.30099E+08         0.30141E+05         0.00000E+00
    0.30141E+05        -0.59999E+08         0.00000E+00
    0.00000E+00         0.00000E+00        -0.30134E+08
 
   -0.30099E+08         0.45955E+05         0.00000E+00
    0.45955E+05        -0.59996E+08         0.00000E+00
    0.00000E+00         0.00000E+00        -0.30132E+08
 
   -0.30100E+08         0.58499E+05         0.00000E+00
    0.58499E+05        -0.59994E+08         0.00000E+00
    0.00000E+00         0.00000E+00        -0.30128E+08
 
   -0.30101E+08         0.67814E+05         0.00000E+00
    0.67814E+05        -0.59991E+08         0.00000E+00
    0.00000E+00         0.00000E+00        -0.30122E+08
 
   -0.30103E+08         0.73961E+05         0.00000E+00
    0.73961E+05        -0.59987E+08         0.00000E+00
    0.00000E+00         0.00000E+00        -0.30116E+08
 
   -0.30105E+08         0.77056E+05         0.00000E+00
    0.77056E+05        -0.59984E+08         0.00000E+00
    0.00000E+00         0.00000E+00        -0.30110E+08
 
   -0.30107E+08         0.77309E+05         0.00000E+00
    0.77309E+05        -0.59981E+08         0.00000E+00
    0.00000E+00         0.00000E+00        -0.30104E+08
 
   -0.30110E+08         0.75051E+05         0.00000E+00
    0.75051E+05        -0.59979E+08         0.00000E+00
    0.00000E+00         0.00000E+00        -0.30099E+08
 
   -0.30111E+08         0.70722E+05         0.00000E+00
    0.70722E+05        -0.59978E+08         0.00000E+00
    0.00000E+00         0.00000E+00        -0.30096E+08
 
   -0.30113E+08         0.64828E+05         0.00000E+00
    0.64828E+05        -0.59978E+08         0.00000E+00
    0.00000E+00         0.00000E+00        -0.30095E+08
 
   -0.30114E+08         0.57882E+05         0.00000E+00
    0.57882E+05        -0.59980E+08         0.00000E+00
    0.00000E+00         0.00000E+00        -0.30095E+08
 
   -0.30114E+08         0.50347E+05         0.00000E+00
    0.50347E+05        -0.59982E+08         0.00000E+00
    0.00000E+00         0.00000E+00        -0.30098E+08
 
   -0.30114E+08         0.42598E+05         0.00000E+00
    0.42598E+05        -0.59986E+08         0.00000E+00
    0.00000E+00         0.00000E+00        -0.30103E+08
 
   -0.30113E+08         0.34904E+05         0.00000E+00
    0.34904E+05        -0.59991E+08         0.00000E+00
    0.00000E+00         0.00000E+00        -0.30110E+08
 
   -0.30079E+08         0.11582E+05         0.00000E+00
    0.11582E+05        -0.60000E+08         0.00000E+00
    0.00000E+00         0.00000E+00        -0.30156E+08
 
   -0.30081E+08         0.31646E+05         0.00000E+00
    0.31646E+05        -0.59999E+08         0.00000E+00
    0.00000E+00         0.00000E+00        -0.30152E+08
 
   -0.30085E+08         0.48202E+05         0.00000E+00
    0.48202E+05        -0.59997E+08         0.00000E+00
    0.00000E+00         0.00000E+00        -0.30147E+08
 
   -0.30089E+08         0.61252E+05         0.00000E+00
    0.61252E+05        -0.59995E+08         0.00000E+00
    0.00000E+00         0.00000E+00        -0.30140E+08
 
   -0.30093E+08         0.70799E+05         0.00000E+00
    0.70799E+05        -0.59992E+08         0.00000E+00
    0.00000E+00         0.00000E+00        -0.30132E+08
 
   -0.30098E+08         0.76873E+05         0.00000E+00
    0.76873E+05        -0.59990E+08         0.00000E+00
    0.00000E+00         0.00000E+00        -0.30124E+08
 
   -0.30104E+08         0.79582E+05         0.00000E+00
    0.79582E+05        -0.59987E+08         0.00000E+00
    0.00000E+00         0.00000E+00        -0.30116E+08
 
   -0.30109E+08         0.79164E+05         0.00000E+00
    0.79164E+05        -0.59986E+08         0.00000E+00
    0.00000E+00         0.00000E+00        -0.30108E+08
 
   -0.30113E+08         0.76003E+05         0.00000E+00
    0.76003E+05        -0.59985E+08         0.00000E+00
    0.00000E+00         0.00000E+00        -0.30103E+08
 
   -0.30117E+08         0.70618E+05         0.00000E+00
    0.70618E+05        -0.59985E+08         0.00000E+00
    0.00000E+00         0.00000E+00        -0.30099E+08
 
   -0.30120E+08         0.63593E+05         0.00000E+00
    0.63593E+05        -0.59987E+08         0.00000E+00
    0.00000E+00         0.00000E+00        -0.30098E+08
 
   -0.30121E+08         0.55502E+05         0.00000E+00
    0.55502E+05        -0.59989E+08         0.00000E+00
    0.00000E+00         0.00000E+00        -0.30100E+08
 
   -0.30122E+08         0.46841E+05         0.00000E+00
    0.46841E+05        -0.59992E+08         0.00000E+00
    0.00000E+00         0.00000E+00        -0.30103E+08
 
   -0.30122E+08         0.37994E+05         0.00000E+00
    0.37994E+05        -0.59997E+08         0.00000E+00
    0.00000E+00         0.00000E+00        -0.30109E+08
 
   -0.30122E+08         0.29210E+05         0.00000E+00
    0.29210E+05        -0.60002E+08         0.00000E+00
    0.00000E+00         0.00000E+00        -0.30117E+08
 
   -0.30057E+08         0.12081E+05         0.00000E+00
    0.12081E+05        -0.60000E+08         0.00000E+00
    0.00000E+00         0.00000E+00        -0.30179E+08
 
   -0.30063E+08         0.32934E+05         0.00000E+00
    0.32934E+05        -0.59999E+08         0.00000E+00
    0.00000E+00         0.00000E+00        -0.30172E+08
 
   -0.30070E+08         0.50047E+05         0.00000E+00
    0.50047E+05        -0.59997E+08         0.00000E+00
    0.00000E+00         0.00000E+00        -0.30163E+08
 
   -0.30077E+08         0.63385E+05         0.00000E+00
    0.63385E+05        -0.59996E+08         0.00000E+00
    0.00000E+00         0.00000E+00        -0.30153E+08
 
   -0.30085E+08         0.72925E+05         0.00000E+00
    0.72925E+05        -0.59994E+08         0.00000E+00
    0.00000E+00         0.00000E+00        -0.30143E+08
 
   -0.30094E+08         0.78691E+05         0.00000E+00
    0.78691E+05        -0.59993E+08         0.00000E+00
    0.00000E+00         0.00000E+00        -0.30132E+08
 
   -0.30103E+08         0.80829E+05         0.00000E+00
    0.80829E+05        -0.59992E+08         0.00000E+00
    0.00000E+00         0.00000E+00        -0.30122E+08
 
   -0.30111E+08         0.79643E+05         0.00000E+00
    0.79643E+05        -0.59992E+08         0.00000E+00
    0.00000E+00         0.00000E+00        -0.30114E+08
 
   -0.30118E+08         0.75591E+05         0.00000E+00
    0.75591E+05        -0.59993E+08         0.00000E+00
    0.00000E+00         0.00000E+00        -0.30108E+08
 
   -0.30124E+08         0.69242E+05         0.00000E+00
    0.69242E+05        -0.59994E+08         0.00000E+00
    0.00000E+00         0.00000E+00        -0.30104E+08
 
   -0.30128E+08         0.61217E+05         0.00000E+00
    0.61217E+05        -0.59997E+08         0.00000E+00
    0.00000E+00         0.00000E+00        -0.30104E+08
 
   -0.30130E+08         0.52114E+05         0.00000E+00
    0.52114E+05        -0.60000E+08         0.00000E+00
    0.00000E+00         0.00000E+00        -0.30106E+08
 
   -0.30131E+08         0.42444E+05         0.00000E+00
    0.42444E+05        -0.60005E+08         0.00000E+00
    0.00000E+00         0.00000E+00        -0.30110E+08
 
   -0.30131E+08         0.32588E+05         0.00000E+00
    0.32588E+05        -0.60010E+08         0.00000E+00
    0.00000E+00         0.00000E+00        -0.30117E+08
 
   -0.30131E+08         0.22781E+05         0.00000E+00
    0.22781E+05        -0.60016E+08         0.00000E+00
    0.00000E+00         0.00000E+00        -0.30126E+08
 
   -0.30034E+08         0.12512E+05         0.00000E+00
    0.12512E+05        -0.60000E+08         0.00000E+00
    0.00000E+00         0.00000E+00        -0.30202E+08
 
   -0.30043E+08         0.33968E+05         0.00000E+00
    0.33968E+05        -0.59999E+08         0.00000E+00
    0.00000E+00         0.00000E+00        -0.30191E+08
 
   -0.30054E+08         0.51397E+05         0.00000E+00
    0.51397E+05        -0.59998E+08         0.00000E+00
    0.00000E+00         0.00000E+00        -0.30179E+08
 
   -0.30066E+08         0.64713E+05         0.00000E+00
    0.64713E+05        -0.59997E+08         0.00000E+00
    0.00000E+00         0.00000E+00        -0.30166E+08
 
   -0.30078E+08         0.73879E+05         0.00000E+00
    0.73879E+05        -0.59997E+08         0.00000E+00
    0.00000E+00         0.00000E+00        -0.30153E+08
 
   -0.30091E+08         0.78997E+05         0.00000E+00
    0.78997E+05        -0.59997E+08         0.00000E+00
    0.00000E+00         0.00000E+00        -0.30141E+08
 
   -0.30103E+08         0.80333E+05         0.00000E+00
    0.80333E+05        -0.59998E+08         0.00000E+00
    0.00000E+00         0.00000E+00        -0.30130E+08
 
   -0.30114E+08         0.78332E+05         0.00000E+00
    0.78332E+05        -0.60000E+08         0.00000E+00
    0.00000E+00         0.00000E+00        -0.30122E+08
 
   -0.30124E+08         0.73522E+05         0.00000E+00
    0.73522E+05        -0.60003E+08         0.00000E+00
    0.00000E+00         0.00000E+00        -0.30115E+08
 
   -0.30131E+08         0.66460E+05         0.00000E+00
    0.66460E+05        -0.60006E+08         0.00000E+00
    0.00000E+00         0.00000E+00        -0.30112E+08
 
   -0.30137E+08         0.57708E+05         0.00000E+00
    0.57708E+05        -0.60010E+08         0.00000E+00
    0.00000E+00         0.00000E+00        -0.30111E+08
 
   -0.30140E+08         0.47826E+05         0.00000E+00
    0.47826E+05        -0.60014E+08         0.00000E+00
    0.00000E+00         0.00000E+00        -0.30114E+08
 
   -0.30142E+08         0.37323E+05         0.00000E+00
    0.37323E+05        -0.60019E+08         0.00000E+00
    0.00000E+00         0.00000E+00        -0.30119E+08
 
   -0.30142E+08         0.26589E+05         0.00000E+00
    0.26589E+05        -0.60025E+08         0.00000E+00
    0.00000E+00         0.00000E+00        -0.30126E+08
 
   -0.30141E+08         0.15854E+05         0.00000E+00
    0.15854E+05        -0.60031E+08         0.00000E+00
    0.00000E+00         0.00000E+00        -0.30136E+08
 
   -0.30010E+08         0.12874E+05         0.00000E+00
    0.12874E+05        -0.60000E+08         0.00000E+00
    0.00000E+00         0.00000E+00        -0.30226E+08
 
   -0.30024E+08         0.34703E+05         0.00000E+00
    0.34703E+05        -0.59999E+08         0.00000E+00
    0.00000E+00         0.00000E+00        -0.30211E+08
 
   -0.30039E+08         0.52110E+05         0.00000E+00
    0.52110E+05        -0.59999E+08         0.00000E+00
    0.00000E+00         0.00000E+00        -0.30196E+08
 
   -0.30055E+08         0.64956E+05         0.00000E+00
    0.64956E+05        -0.59999E+08         0.00000E+00
    0.00000E+00         0.00000E+00        -0.30180E+08
 
   -0.30071E+08         0.73252E+05         0.00000E+00
    0.73252E+05        -0.60000E+08         0.00000E+00
    0.00000E+00         0.00000E+00        -0.30165E+08
 
   -0.30088E+08         0.77279E+05         0.00000E+00
    0.77279E+05        -0.60002E+08         0.00000E+00
    0.00000E+00         0.00000E+00        -0.30151E+08
 
   -0.30104E+08         0.77592E+05         0.00000E+00
    0.77592E+05        -0.60006E+08         0.00000E+00
    0.00000E+00         0.00000E+00        -0.30140E+08
 
   -0.30118E+08         0.74828E+05         0.00000E+00
    0.74828E+05        -0.60010E+08         0.00000E+00
    0.00000E+00         0.00000E+00        -0.30131E+08
 
   -0.30130E+08         0.69549E+05         0.00000E+00
    0.69549E+05        -0.60015E+08         0.00000E+00
    0.00000E+00         0.00000E+00        -0.30125E+08
 
   -0.30140E+08         0.62192E+05         0.00000E+00
    0.62192E+05        -0.60020E+08         0.00000E+00
    0.00000E+00         0.00000E+00        -0.30122E+08
 
   -0.30146E+08         0.53142E+05         0.00000E+00
    0.53142E+05        -0.60025E+08         0.00000E+00
    0.00000E+00         0.00000E+00        -0.30122E+08
 
   -0.30151E+08         0.42830E+05         0.00000E+00
    0.42830E+05        -0.60030E+08         0.00000E+00
    0.00000E+00         0.00000E+00        -0.30125E+08
 
   -0.30152E+08         0.31733E+05         0.00000E+00
    0.31733E+05        -0.60036E+08         0.00000E+00
    0.00000E+00         0.00000E+00        -0.30130E+08
 
   -0.30153E+08         0.20276E+05         0.00000E+00
    0.20276E+05        -0.60042E+08         0.00000E+00
    0.00000E+00         0.00000E+00        -0.30137E+08
 
   -0.30152E+08         0.87287E+04         0.00000E+00
    0.87287E+04        -0.60048E+08         0.00000E+00
    0.00000E+00         0.00000E+00        -0.30147E+08
 
   -0.29986E+08         0.13163E+05         0.00000E+00
    0.13163E+05        -0.60000E+08         0.00000E+00
    0.00000E+00         0.00000E+00        -0.30251E+08
 
   -0.30004E+08         0.35064E+05         0.00000E+00
    0.35064E+05        -0.60000E+08         0.00000E+00
    0.00000E+00         0.00000E+00        -0.30232E+08
 
   -0.30024E+08         0.51955E+05         0.00000E+00
    0.51955E+05        -0.60000E+08         0.00000E+00
    0.00000E+00         0.00000E+00        -0.30212E+08
 
   -0.30045E+08         0.63679E+05         0.00000E+00
    0.63679E+05        -0.60001E+08         0.00000E+00
    0.00000E+00         0.00000E+00        -0.30193E+08
 
   -0.30066E+08         0.70456E+05         0.00000E+00
    0.70456E+05        -0.60005E+08         0.00000E+00
    0.00000E+00         0.00000E+00        -0.30176E+08
 
   -0.30086E+08         0.72983E+05         0.00000E+00
    0.72983E+05        -0.60010E+08         0.00000E+00
    0.00000E+00         0.00000E+00        -0.30162E+08
 
   -0.30105E+08         0.72182E+05         0.00000E+00
    0.72182E+05        -0.60016E+08         0.00000E+00
    0.00000E+00         0.00000E+00        -0.30152E+08
 
   -0.30122E+08         0.68859E+05         0.00000E+00
    0.68859E+05        -0.60023E+08         0.00000E+00
    0.00000E+00         0.00000E+00        -0.30144E+08
 
   -0.30136E+08         0.63522E+05         0.00000E+00
    0.63522E+05        -0.60030E+08         0.00000E+00
    0.00000E+00         0.00000E+00        -0.30139E+08
 
   -0.30148E+08         0.56410E+05         0.00000E+00
    0.56410E+05        -0.60037E+08         0.00000E+00
    0.00000E+00         0.00000E+00        -0.30137E+08
 
   -0.30156E+08         0.47634E+05         0.00000E+00
    0.47634E+05        -0.60043E+08         0.00000E+00
    0.00000E+00         0.00000E+00        -0.30136E+08
 
   -0.30161E+08         0.37370E+05         0.00000E+00
    0.37370E+05        -0.60049E+08         0.00000E+00
    0.00000E+00         0.00000E+00        -0.30138E+08
 
   -0.30164E+08         0.25998E+05         0.00000E+00
    0.25998E+05        -0.60055E+08         0.00000E+00
    0.00000E+00         0.00000E+00        -0.30143E+08
 
   -0.30165E+08         0.14007E+05         0.00000E+00
    0.14007E+05        -0.60060E+08         0.00000E+00
    0.00000E+00         0.00000E+00        -0.30150E+08
 
   -0.30164E+08         0.17705E+04         0.00000E+00
    0.17705E+04        -0.60067E+08         0.00000E+00
    0.00000E+00         0.00000E+00        -0.30159E+08
 
   -0.29962E+08         0.13370E+05         0.00000E+00
    0.13370E+05        -0.60000E+08         0.00000E+00
    0.00000E+00         0.00000E+00        -0.30276E+08
 
   -0.29985E+08         0.34890E+05         0.00000E+00
    0.34890E+05        -0.60000E+08         0.00000E+00
    0.00000E+00         0.00000E+00        -0.30252E+08
 
   -0.30010E+08         0.50489E+05         0.00000E+00
    0.50489E+05        -0.60001E+08         0.00000E+00
    0.00000E+00         0.00000E+00        -0.30228E+08
 
   -0.30036E+08         0.60171E+05         0.00000E+00
    0.60171E+05        -0.60005E+08         0.00000E+00
    0.00000E+00         0.00000E+00        -0.30206E+08
 
   -0.30062E+08         0.64763E+05         0.00000E+00
    0.64763E+05        -0.60012E+08         0.00000E+00
    0.00000E+00         0.00000E+00        -0.30189E+08
 
   -0.30086E+08         0.65613E+05         0.00000E+00
    0.65613E+05        -0.60020E+08         0.00000E+00
    0.00000E+00         0.00000E+00        -0.30176E+08
 
   -0.30108E+08         0.63912E+05         0.00000E+00
    0.63912E+05        -0.60029E+08         0.00000E+00
    0.00000E+00         0.00000E+00        -0.30166E+08
 
   -0.30126E+08         0.60402E+05         0.00000E+00
    0.60402E+05        -0.60039E+08         0.00000E+00
    0.00000E+00         0.00000E+00        -0.30160E+08
 
   -0.30142E+08         0.55442E+05         0.00000E+00
    0.55442E+05        -0.60048E+08         0.00000E+00
    0.00000E+00         0.00000E+00        -0.30157E+08
 
   -0.30155E+08         0.49101E+05         0.00000E+00
    0.49101E+05        -0.60057E+08         0.00000E+00
    0.00000E+00         0.00000E+00        -0.30155E+08
 
   -0.30165E+08         0.41237E+05         0.00000E+00
    0.41237E+05        -0.60064E+08         0.00000E+00
    0.00000E+00         0.00000E+00        -0.30155E+08
 
   -0.30172E+08         0.31676E+05         0.00000E+00
    0.31676E+05        -0.60070E+08         0.00000E+00
    0.00000E+00         0.00000E+00        -0.30156E+08
 
   -0.30176E+08         0.20503E+05         0.00000E+00
    0.20503E+05        -0.60076E+08         0.00000E+00
    0.00000E+00         0.00000E+00        -0.30159E+08
 
   -0.30177E+08         0.82261E+04         0.00000E+00
    0.82261E+04        -0.60081E+08         0.00000E+00
    0.00000E+00         0.00000E+00        -0.30165E+08
 
   -0.30177E+08        -0.45735E+04         0.00000E+00
   -0.45735E+04        -0.60087E+08         0.00000E+00
    0.00000E+00         0.00000E+00        -0.30173E+08
 
   -0.29937E+08         0.13464E+05         0.00000E+00
    0.13464E+05        -0.60000E+08         0.00000E+00
    0.00000E+00         0.00000E+00        -0.30301E+08
 
   -0.29967E+08         0.33808E+05         0.00000E+00
    0.33808E+05        -0.60001E+08         0.00000E+00
    0.00000E+00         0.00000E+00        -0.30271E+08
 
   -0.29999E+08         0.46834E+05         0.00000E+00
    0.46834E+05        -0.60004E+08         0.00000E+00
    0.00000E+00         0.00000E+00        -0.30243E+08
 
   -0.30031E+08         0.53389E+05         0.00000E+00
    0.53389E+05        -0.60012E+08         0.00000E+00
    0.00000E+00         0.00000E+00        -0.30221E+08
 
   -0.30060E+08         0.55519E+05         0.00000E+00
    0.55519E+05        -0.60022E+08         0.00000E+00
    0.00000E+00         0.00000E+00        -0.30204E+08
 
   -0.30087E+08         0.55028E+05         0.00000E+00
    0.55028E+05        -0.60033E+08         0.00000E+00
    0.00000E+00         0.00000E+00        -0.30193E+08
 
   -0.30110E+08         0.52925E+05         0.00000E+00
    0.52925E+05        -0.60045E+08         0.00000E+00
    0.00000E+00         0.00000E+00        -0.30185E+08
 
   -0.30130E+08         0.49686E+05         0.00000E+00
    0.49686E+05        -0.60057E+08         0.00000E+00
    0.00000E+00         0.00000E+00        -0.30181E+08
 
   -0.30147E+08         0.45486E+05         0.00000E+00
    0.45486E+05        -0.60069E+08         0.00000E+00
    0.00000E+00         0.00000E+00        -0.30178E+08
 
   -0.30162E+08         0.40291E+05         0.00000E+00
    0.40291E+05        -0.60079E+08         0.00000E+00
    0.00000E+00         0.00000E+00        -0.30177E+08
 
   -0.30173E+08         0.33875E+05         0.00000E+00
    0.33875E+05        -0.60087E+08         0.00000E+00
    0.00000E+00         0.00000E+00        -0.30177E+08
 
   -0.30182E+08         0.25802E+05         0.00000E+00
    0.25802E+05        -0.60094E+08         0.00000E+00
    0.00000E+00         0.00000E+00        -0.30178E+08
 
   -0.30187E+08         0.15624E+05         0.00000E+00
    0.15624E+05        -0.60099E+08         0.00000E+00
    0.00000E+00         0.00000E+00        -0.30179E+08
 
   -0.30189E+08         0.34927E+04         0.00000E+00
    0.34927E+04        -0.60104E+08         0.00000E+00
    0.00000E+00         0.00000E+00        -0.30182E+08
 
   -0.30190E+08        -0.97321E+04         0.00000E+00
   -0.97321E+04        -0.60108E+08         0.00000E+00
    0.00000E+00         0.00000E+00        -0.30187E+08
 
   -0.29914E+08         0.13327E+05         0.00000E+00
    0.13327E+05        -0.60000E+08         0.00000E+00
    0.00000E+00         0.00000E+00        -0.30325E+08
 
   -0.29952E+08         0.30828E+05         0.00000E+00
    0.30828E+05        -0.60003E+08         0.00000E+00
    0.00000E+00         0.00000E+00        -0.30289E+08
 
   -0.29991E+08         0.39392E+05         0.00000E+00
    0.39392E+05        -0.60010E+08         0.00000E+00
    0.00000E+00         0.00000E+00        -0.30259E+08
 
   -0.30028E+08         0.42348E+05         0.00000E+00
    0.42348E+05        -0.60022E+08         0.00000E+00
    0.00000E+00         0.00000E+00        -0.30237E+08
 
   -0.30060E+08         0.42651E+05         0.00000E+00
    0.42651E+05        -0.60036E+08         0.00000E+00
    0.00000E+00         0.00000E+00        -0.30223E+08
 
   -0.30089E+08         0.41582E+05         0.00000E+00
    0.41582E+05        -0.60050E+08         0.00000E+00
    0.00000E+00         0.00000E+00        -0.30214E+08
 
   -0.30113E+08         0.39660E+05         0.00000E+00
    0.39660E+05        -0.60065E+08         0.00000E+00
    0.00000E+00         0.00000E+00        -0.30208E+08
 
   -0.30134E+08         0.37093E+05         0.00000E+00
    0.37093E+05        -0.60079E+08         0.00000E+00
    0.00000E+00         0.00000E+00        -0.30205E+08
 
   -0.30151E+08         0.33932E+05         0.00000E+00
    0.33932E+05        -0.60091E+08         0.00000E+00
    0.00000E+00         0.00000E+00        -0.30204E+08
 
   -0.30167E+08         0.30109E+05         0.00000E+00
    0.30109E+05        -0.60103E+08         0.00000E+00
    0.00000E+00         0.00000E+00        -0.30204E+08
 
   -0.30179E+08         0.25427E+05         0.00000E+00
    0.25427E+05        -0.60113E+08         0.00000E+00
    0.00000E+00         0.00000E+00        -0.30204E+08
 
   -0.30190E+08         0.19469E+05         0.00000E+00
    0.19469E+05        -0.60120E+08         0.00000E+00
    0.00000E+00         0.00000E+00        -0.30204E+08
 
   -0.30197E+08         0.11466E+05         0.00000E+00
    0.11466E+05        -0.60126E+08         0.00000E+00
    0.00000E+00         0.00000E+00        -0.30203E+08
 
   -0.30202E+08         0.50874E+03         0.00000E+00
    0.50874E+03        -0.60129E+08         0.00000E+00
    0.00000E+00         0.00000E+00        -0.30203E+08
 
   -0.30204E+08        -0.12873E+05         0.00000E+00
   -0.12873E+05        -0.60130E+08         0.00000E+00
    0.00000E+00         0.00000E+00        -0.30203E+08
 
   -0.29893E+08         0.12291E+05         0.00000E+00
    0.12291E+05        -0.60001E+08         0.00000E+00
    0.00000E+00         0.00000E+00        -0.30347E+08
 
   -0.29942E+08         0.23396E+05         0.00000E+00
    0.23396E+05        -0.60008E+08         0.00000E+00
    0.00000E+00         0.00000E+00        -0.30307E+08
 
   -0.29988E+08         0.26521E+05         0.00000E+00
    0.26521E+05        -0.60022E+08         0.00000E+00
    0.00000E+00         0.00000E+00        -0.30278E+08
 
   -0.30027E+08         0.27211E+05         0.00000E+00
    0.27211E+05        -0.60038E+08         0.00000E+00
    0.00000E+00         0.00000E+00        -0.30259E+08
 
   -0.30061E+08         0.26875E+05         0.00000E+00
    0.26875E+05        -0.60054E+08         0.00000E+00
    0.00000E+00         0.00000E+00        -0.30247E+08
 
   -0.30090E+08         0.25961E+05         0.00000E+00
    0.25961E+05        -0.60071E+08         0.00000E+00
    0.00000E+00         0.00000E+00        -0.30239E+08
 
   -0.30115E+08         0.24654E+05         0.00000E+00
    0.24654E+05        -0.60087E+08         0.00000E+00
    0.00000E+00         0.00000E+00        -0.30236E+08
 
   -0.30136E+08         0.23025E+05         0.00000E+00
    0.23025E+05        -0.60102E+08         0.00000E+00
    0.00000E+00         0.00000E+00        -0.30234E+08
 
   -0.30154E+08         0.21078E+05         0.00000E+00
    0.21078E+05        -0.60116E+08         0.00000E+00
    0.00000E+00         0.00000E+00        -0.30234E+08
 
   -0.30170E+08         0.18753E+05         0.00000E+00
    0.18753E+05        -0.60129E+08         0.00000E+00
    0.00000E+00         0.00000E+00        -0.30235E+08
 
   -0.30184E+08         0.15916E+05         0.00000E+00
    0.15916E+05        -0.60140E+08         0.00000E+00
    0.00000E+00         0.00000E+00        -0.30236E+08
 
   -0.30195E+08         0.12307E+05         0.00000E+00
    0.12307E+05        -0.60148E+08         0.00000E+00
    0.00000E+00         0.00000E+00        -0.30235E+08
 
   -0.30205E+08         0.73683E+04         0.00000E+00
    0.73683E+04        -0.60154E+08         0.00000E+00
    0.00000E+00         0.00000E+00        -0.30233E+08
 
   -0.30213E+08        -0.21135E+03         0.00000E+00
   -0.21135E+03        -0.60156E+08         0.00000E+00
    0.00000E+00         0.00000E+00        -0.30228E+08
 
   -0.30217E+08        -0.12655E+05         0.00000E+00
   -0.12655E+05        -0.60155E+08         0.00000E+00
    0.00000E+00         0.00000E+00        -0.30222E+08
 
   -0.29879E+08         0.63059E+04         0.00000E+00
    0.63059E+04        -0.60009E+08         0.00000E+00
    0.00000E+00         0.00000E+00        -0.30372E+08
 
   -0.29939E+08         0.84890E+04         0.00000E+00
    0.84890E+04        -0.60022E+08         0.00000E+00
    0.00000E+00         0.00000E+00        -0.30329E+08
 
   -0.29987E+08         0.92482E+04         0.00000E+00
    0.92482E+04        -0.60040E+08         0.00000E+00
    0.00000E+00         0.00000E+00        -0.30303E+08
 
   -0.30027E+08         0.93764E+04         0.00000E+00
    0.93764E+04        -0.60058E+08         0.00000E+00
    0.00000E+00         0.00000E+00        -0.30286E+08
 
   -0.30062E+08         0.91959E+04         0.00000E+00
    0.91959E+04        -0.60077E+08         0.00000E+00
    0.00000E+00         0.00000E+00        -0.30276E+08
 
   -0.30091E+08         0.88505E+04         0.00000E+00
    0.88505E+04        -0.60095E+08         0.00000E+00
    0.00000E+00         0.00000E+00        -0.30270E+08
 
   -0.30116E+08         0.83912E+04         0.00000E+00
    0.83912E+04        -0.60112E+08         0.00000E+00
    0.00000E+00         0.00000E+00        -0.30267E+08
 
   -0.30137E+08         0.78354E+04         0.00000E+00
    0.78354E+04        -0.60128E+08         0.00000E+00
    0.00000E+00         0.00000E+00        -0.30267E+08
 
   -0.30156E+08         0.71801E+04         0.00000E+00
    0.71801E+04        -0.60143E+08         0.00000E+00
    0.00000E+00         0.00000E+00        -0.30268E+08
 
   -0.30172E+08         0.64027E+04         0.00000E+00
    0.64027E+04        -0.60157E+08         0.00000E+00
    0.00000E+00         0.00000E+00        -0.30270E+08
 
   -0.30186E+08         0.54542E+04         0.00000E+00
    0.54542E+04        -0.60168E+08         0.00000E+00
    0.00000E+00         0.00000E+00        -0.30271E+08
 
   -0.30198E+08         0.42414E+04         0.00000E+00
    0.42414E+04        -0.60178E+08         0.00000E+00
    0.00000E+00         0.00000E+00        -0.30272E+08
 
   -0.30209E+08         0.25886E+04         0.00000E+00
    0.25886E+04        -0.60185E+08         0.00000E+00
    0.00000E+00         0.00000E+00        -0.30270E+08
 
   -0.30220E+08         0.84925E+01         0.00000E+00
    0.84925E+01        -0.60188E+08         0.00000E+00
    0.00000E+00         0.00000E+00        -0.30263E+08
 
   -0.30228E+08        -0.56934E+04         0.00000E+00
   -0.56934E+04        -0.60181E+08         0.00000E+00
    0.00000E+00         0.00000E+00        -0.30246E+08
 
SCALARS stressS double 
LOOKUP_TABLE default
  -40078821.7811180     
  -40078176.4083334     
  -40077159.3098086     
  -40075798.5904068     
  -40074121.5112306     
  -40072154.3753506     
  -40069922.2037771     
  -40067448.8863935     
  -40064757.3600694     
  -40061869.3044321     
  -40058804.9244451     
  -40055582.7417837     
  -40052219.3515333     
  -40048729.1279263     
  -40045123.8481655     
  -40078814.0526394     
  -40078158.9742000     
  -40077123.9099014     
  -40075739.6473029     
  -40074035.9206481     
  -40072041.2266542     
  -40069782.6852238     
  -40067285.7777152     
  -40064574.7622628     
  -40061672.4350181     
  -40058599.7794073     
  -40055375.8383217     
  -40052017.5048379     
  -40048539.2560640     
  -40044952.7852511     
  -40078798.5620002     
  -40078124.2733777     
  -40077053.6096937     
  -40075622.6990871     
  -40073866.2197812     
  -40071817.1661064     
  -40069506.5441684     
  -40066963.1190383     
  -40064213.9587687     
  -40061283.8990585     
  -40058195.4900322     
  -40054968.8270060     
  -40051621.4135784     
  -40048167.9365722     
  -40044619.9312795     
  -40078775.2663087     
  -40078072.6746731     
  -40076949.4830236     
  -40075449.7857007     
  -40073615.5794337     
  -40071486.4634357     
  -40069099.4830463     
  -40066488.3414967     
  -40063683.9130984     
  -40060714.2187022     
  -40057604.1334762     
  -40054375.3575645     
  -40051046.3442774     
  -40047632.1110867     
  -40044143.9446539     
  -40078744.1413300     
  -40078004.8218159     
  -40076813.3031520     
  -40075224.2065674     
  -40073289.2383693     
  -40071056.6338018     
  -40068571.0829469     
  -40065873.0169229     
  -40062998.4253308     
  -40059979.4319422     
  -40056844.0099585     
  -40053616.0530884     
  -40050315.3054682     
  -40046957.2691330     
  -40043552.9070683     
  -40078705.2302991     
  -40077921.7210486     
  -40076647.7076364     
  -40074950.7470339     
  -40072894.4214366     
  -40070537.7716429     
  -40067934.4429693     
  -40065133.1087833     
  -40062176.4111249     
  -40059101.3310873     
  -40055939.8860878     
  -40052718.7028180     
  -40049459.2086131     
  -40046177.5687626     
  -40042884.4326024     
  -40078658.7208081     
  -40077824.8933114     
  -40076456.4137033     
  -40074635.9599188     
  -40072440.9969760     
  -40069942.8100559     
  -40067206.3964828     
  -40064289.5145637     
  -40061242.1068212     
  -40058107.8638740     
  -40054923.3133715     
  -40051718.5370664     
  -40048517.1176309     
  -40045336.1434030     
  -40042185.9363484     
  -40078605.1473835     
  -40077716.4485900     
  -40076244.4287178     
  -40074288.6061006     
  -40071941.8987618     
  -40069289.6520038     
  -40066408.6844456     
  -40063367.7275296     
  -40060225.9234942     
  -40057033.5380793     
  -40053832.9961274     
  -40050658.5617006     
  -40047536.6044452     
  -40044485.4319011     
  -40041515.0120345     
  -40078544.8900221     
  -40077599.3035174     
  -40076018.3978841     
  -40073919.9653906     
  -40071413.6585145     
  -40068599.8256039     
  -40065568.9296307     
  -40062400.5661269     
  -40059164.5672867     
  -40055919.8381396     
  -40052715.1365427     
  -40049590.0335790     
  -40046574.2561100     
  -40043687.6662238     
  -40040939.8969087     
  -40078479.4146718     
  -40077477.3148459     
  -40075786.7857093     
  -40073544.1368410     
  -40070876.3194256     
  -40067899.5176109     
  -40064718.1928332     
  -40061425.2161266     
  -40058101.5138859     
  -40054815.3038129     
  -40051624.0360234     
  -40048573.0947692     
  -40045696.3539632     
  -40043015.5985994     
  -40040540.0716332     
  -40078410.4795141     
  -40077355.6202663     
  -40075560.0385980     
  -40073178.0863712     
  -40070353.7946754     
  -40067219.4090358     
  -40063894.5218274     
  -40060485.6791759     
  -40057086.2826829     
  -40053776.5511706     
  -40050622.7358416     
  -40047677.5449908     
  -40044979.7797090     
  -40042553.3278839     
  -40040406.9195237     
  -40078340.4407690     
  -40077240.3254887     
  -40075350.5338675     
  -40072841.6134141     
  -40069873.6872085     
  -40066594.9342235     
  -40063140.5529415     
  -40059632.1800952     
  -40056177.1538769     
  -40052868.5398246     
  -40049783.6593578     
  -40046983.9344128     
  -40044513.0977683     
  -40042397.2410760     
  -40040644.2096676     
  -40078272.4212828     
  -40077138.4774416     
  -40075172.1497345     
  -40072556.8488051     
  -40069466.7577377     
  -40066065.2841047     
  -40062503.7291650     
  -40058919.9999513     
  -40055437.9274205     
  -40052164.7234927     
  -40049190.1378365     
  -40046584.7150957     
  -40044397.7824239     
  -40042656.8231404     
  -40041368.1149667     
  -40078210.1956342     
  -40077057.8335610     
  -40075039.6093174     
  -40072347.1731849     
  -40069165.7234586     
  -40065672.7305597     
  -40062036.0366188     
  -40058411.6758103     
  -40054941.1351190     
  -40051748.7905574     
  -40048937.2782976     
  -40046585.9090920     
  -40044749.3477551     
  -40043454.9602264     
  -40042706.3210113     
  -40078158.0395798     
  -40077006.1647031     
  -40074967.3688615     
  -40072235.7825702     
  -40069003.8803135     
  -40065461.4986499     
  -40061793.4397268     
  -40058175.3477576     
  -40054768.6942869     
  -40051715.6244204     
  -40049133.5209396     
  -40047108.9408450     
  -40045697.9775377     
  -40044927.3669928     
  -40044795.7158104     
  -40078120.4113265     
  -40076990.3462335     
  -40074967.9494938     
  -40072243.6809508     
  -40069013.1682103     
  -40065476.6347594     
  -40061835.5724472     
  -40058286.6049518     
  -40055013.0385861     
  -40052175.3491101     
  -40049903.3500753     
  -40048290.2433605     
  -40047389.1020436     
  -40047220.1437035     
  -40047778.0777086     
  -40078101.4957202     
  -40077015.2880461     
  -40075050.0056871     
  -40072387.3437513     
  -40069222.2125820     
  -40065762.7377874     
  -40062226.3225545     
  -40058830.7230336     
  -40055780.9846275     
  -40053255.1101208     
  -40051391.6948193     
  -40050283.7887701     
  -40049979.0520184     
  -40050486.2342367     
  -40051792.4243569     
  -40078104.8348362     
  -40077082.7518239     
  -40075216.6300768     
  -40072676.7427760     
  -40069654.6638388     
  -40066363.7833204     
  -40063035.1386537     
  -40059905.4798034     
  -40057198.6060445     
  -40055104.6625566     
  -40053764.2489015     
  -40053262.2570475     
  -40053633.7225463     
  -40054876.0144779     
  -40056967.5193151     
  -40078132.0995234     
  -40077190.9270887     
  -40075464.6948330     
  -40073114.6695692     
  -40070328.8996385     
  -40067324.1630194     
  -40064340.7965093     
  -40061627.4965263     
  -40059417.0815379     
  -40057900.3403222     
  -40057208.2951822     
  -40057409.4597550     
  -40058520.9994582     
  -40060529.3636490     
  -40063409.5723841     
  -40078184.7957063     
  -40077333.9449776     
  -40075786.2836675     
  -40073698.5373874     
  -40071260.5272138     
  -40068692.9933113     
  -40066238.1224838     
  -40064140.7839072     
  -40062621.0749567     
  -40061849.0731409     
  -40061931.1863721     
  -40062913.3547020     
  -40064797.6437841     
  -40067564.2903503     
  -40071192.1676304     
  -40078261.1457657     
  -40077507.9637865     
  -40076172.0339888     
  -40074425.7506382     
  -40072470.7115470     
  -40070534.3116061     
  -40068849.7776843     
  -40067627.2386268     
  -40067034.4762843     
  -40067187.2691706     
  -40068152.1756295     
  -40069955.5811239     
  -40072596.8629191     
  -40076064.1357828     
  -40080350.1584527     
  -40078366.2938667     
  -40077712.7817875     
  -40076623.2319092     
  -40075306.7595066     
  -40074002.5087617     
  -40072949.0390932     
  -40072344.2662113     
  -40072315.4012122     
  -40072917.0971405     
  -40074168.8104184     
  -40076087.5103536     
  -40078696.6923351     
  -40082019.1017315     
  -40086072.1423283     
  -40090874.2703561     
  -40078497.8969524     
  -40077949.4480615     
  -40077155.2427099     
  -40076391.3565628     
  -40075959.3911850     
  -40076109.8558153     
  -40076960.7045231     
  -40078478.2391493     
  -40080541.4157005     
  -40083036.6002110     
  -40085929.0221029     
  -40089265.2109799     
  -40093127.7363583     
  -40097592.3865952     
  -40102715.9433959     
  -40078656.5659552     
  -40078220.3603117     
  -40077801.0073086     
  -40077790.6864761     
  -40078560.9426458     
  -40080321.5927163     
  -40083024.9065800     
  -40086407.7951784     
  -40090141.7580234     
  -40093976.0956488     
  -40097820.1969949     
  -40101754.4766420     
  -40105956.3261141     
  -40110598.2894165     
  -40115796.7719655     
  -40078841.5182479     
  -40078542.8462837     
  -40078651.5997725     
  -40079738.2117151     
  -40082202.6978661     
  -40086054.1437958     
  -40090938.3828946     
  -40096358.9368309     
  -40101848.2696024     
  -40107059.4782580     
  -40111829.5776021     
  -40116228.3962217     
  -40120530.6880580     
  -40125055.5411651     
  -40130024.4887081     
  -40079051.5828971     
  -40078963.1121716     
  -40079934.9137438     
  -40082728.3340184     
  -40087533.5261210     
  -40093882.6770532     
  -40101074.7928290     
  -40108488.8964831     
  -40115651.7197939     
  -40122206.2169233     
  -40127911.2339602     
  -40132723.6809723     
  -40136903.2697235     
  -40140960.7415881     
  -40145314.5495561     
  -40079284.4109254     
  -40079642.8066786     
  -40082219.5823895     
  -40087681.4511454     
  -40095389.2403051     
  -40104311.3339827     
  -40113634.3770410     
  -40122805.2156820     
  -40131433.2985510     
  -40139213.3032977     
  -40145872.7050114     
  -40151188.4612820     
  -40155195.4977750     
  -40158396.2062018     
  -40161638.2032248     
  -40079608.9949792     
  -40081151.1570322     
  -40086870.0484883     
  -40095833.8289321     
  -40106418.2985190     
  -40117544.6766730     
  -40128595.2097475     
  -40139180.0927156     
  -40149015.7751219     
  -40157852.4941088     
  -40165425.5405086     
  -40171414.6069797     
  -40175452.8862514     
  -40177696.8020632     
  -40179049.7750203     
  -40080376.8755346     
  -40085760.9040233     
  -40095831.8368417     
  -40107967.6440116     
  -40120726.9838171     
  -40133455.4539096     
  -40145775.7228598     
  -40157434.3118858     
  -40168224.5745532     
  -40177941.1936122     
  -40186337.7807374     
  -40193068.4214608     
  -40197603.2820730     
  -40199016.6809307     
  -40198220.3276348     
  -40086688.0156438     
  -40096730.1219124     
  -40109917.4933081     
  -40123936.3687724     
  -40138024.3952831     
  -40151782.3420696     
  -40164968.1897588     
  -40177402.8726968     
  -40188926.1470307     
  -40199363.7801341     
  -40208490.9465437     
  -40215975.4533544     
  -40221253.2979151     
  -40223241.2184436     
  -40218442.5605602     
SCALARS 2waySource double 
LOOKUP_TABLE default
 -2.757706775662358E-015
 -2.951889365658714E-015
 -2.938772474466038E-015
 -2.934469468563215E-015
 -2.840864203801338E-015
 -2.793500541530042E-015
 -2.792476758425381E-015
 -2.771777638531714E-015
 -2.758055173130637E-015
 -2.728409601039057E-015
 -2.708269214025750E-015
 -2.675932848228390E-015
 -2.642232258934111E-015
 -2.606249896790342E-015
 -2.568327433153283E-015
 -2.731029682188705E-015
 -2.937804720729399E-015
 -2.944392862537750E-015
 -2.920016819121705E-015
 -2.845512244116408E-015
 -2.810544477037329E-015
 -2.780937789197745E-015
 -2.760191827976043E-015
 -2.753535105703647E-015
 -2.722742371639311E-015
 -2.704529535023275E-015
 -2.664411024116762E-015
 -2.637264286398831E-015
 -2.601840657135426E-015
 -2.563854207054326E-015
 -2.727588196270441E-015
 -2.906829215372907E-015
 -2.931352508885138E-015
 -2.911007611443698E-015
 -2.808532432023957E-015
 -2.780797265213645E-015
 -2.769091438845926E-015
 -2.747902166535922E-015
 -2.740529042283049E-015
 -2.712665902584648E-015
 -2.688849823012909E-015
 -2.656466615887513E-015
 -2.632488273195675E-015
 -2.595806654187440E-015
 -2.557278616341982E-015
 -2.704655375819265E-015
 -2.882168760932609E-015
 -2.889396767181380E-015
 -2.820523900379875E-015
 -2.789731166315539E-015
 -2.737608635957094E-015
 -2.752456524194924E-015
 -2.730358890572326E-015
 -2.719514584189161E-015
 -2.695937305277580E-015
 -2.667963337807102E-015
 -2.650893069143833E-015
 -2.616569760525149E-015
 -2.583691806963431E-015
 -2.546118971758607E-015
 -2.666072539569743E-015
 -2.844391415299641E-015
 -2.860817225502505E-015
 -2.849341011754971E-015
 -2.764090407042571E-015
 -2.735629650211804E-015
 -2.728465630407068E-015
 -2.711557624863901E-015
 -2.688155160168426E-015
 -2.676402492472678E-015
 -2.650228102511384E-015
 -2.630804117478552E-015
 -2.599422954321821E-015
 -2.564604899266815E-015
 -2.533526523214284E-015
 -2.651726123880322E-015
 -2.812882279254828E-015
 -2.823010183657506E-015
 -2.769075524693862E-015
 -2.712428332888432E-015
 -2.708044195425565E-015
 -2.692219365411102E-015
 -2.679831427294923E-015
 -2.656522645255522E-015
 -2.650978794723871E-015
 -2.633448069856296E-015
 -2.605904862378097E-015
 -2.578250827127826E-015
 -2.546805677527054E-015
 -2.514550443289740E-015
 -2.577912848663464E-015
 -2.768755592473652E-015
 -2.771574359067511E-015
 -2.753820747691844E-015
 -2.682898182588913E-015
 -2.658821563221020E-015
 -2.646083996672610E-015
 -2.651524976508217E-015
 -2.631431430822944E-015
 -2.619486803795064E-015
 -2.598553477261225E-015
 -2.578523918019998E-015
 -2.557155237473889E-015
 -2.524597216132377E-015
 -2.492150022562940E-015
 -2.566474288203981E-015
 -2.699141221499638E-015
 -2.708440665185820E-015
 -2.708654363653943E-015
 -2.617927257909990E-015
 -2.578303493439794E-015
 -2.607253171722950E-015
 -2.605185097341580E-015
 -2.593415284529821E-015
 -2.581918562610229E-015
 -2.565884628147641E-015
 -2.550980710541796E-015
 -2.523932249499923E-015
 -2.499412319043729E-015
 -2.467395885466578E-015
 -2.498229965710815E-015
 -2.640076326880607E-015
 -2.663141714239860E-015
 -2.657669807228278E-015
 -2.573770874916777E-015
 -2.563156181153806E-015
 -2.569411839645941E-015
 -2.557087887973811E-015
 -2.556081249985149E-015
 -2.544444004081460E-015
 -2.531782975073108E-015
 -2.517437790347631E-015
 -2.490785799066024E-015
 -2.469451408751933E-015
 -2.440935853517093E-015
 -2.454788753734139E-015
 -2.568120790633045E-015
 -2.592614387933256E-015
 -2.583408626903134E-015
 -2.519716200141079E-015
 -2.510095593270741E-015
 -2.519216859684768E-015
 -2.506543279580402E-015
 -2.511408381419628E-015
 -2.506632368216477E-015
 -2.489882031773415E-015
 -2.477144465225000E-015
 -2.459264111925192E-015
 -2.435110955017235E-015
 -2.408586936623713E-015
 -2.382069974178072E-015
 -2.479116724858208E-015
 -2.534649813958945E-015
 -2.451283281371828E-015
 -2.462020123038953E-015
 -2.443790141306918E-015
 -2.454519025898008E-015
 -2.451951611060329E-015
 -2.462151458983077E-015
 -2.450245716207206E-015
 -2.445354281211987E-015
 -2.432552728219534E-015
 -2.420800060523776E-015
 -2.398271666908893E-015
 -2.372225249835684E-015
 -2.328783136730864E-015
 -2.404640615100997E-015
 -2.429143400441184E-015
 -2.381608287009814E-015
 -2.383523286311063E-015
 -2.391795583836558E-015
 -2.376908811346719E-015
 -2.391091732952098E-015
 -2.399445162037628E-015
 -2.397325652308238E-015
 -2.399901024221952E-015
 -2.383662579331215E-015
 -2.374839506001400E-015
 -2.354763105432137E-015
 -2.331215522732578E-015
 -2.242597837549889E-015
 -2.293918240347820E-015
 -2.337695298696761E-015
 -2.329421770207329E-015
 -2.346047496818347E-015
 -2.370831330126741E-015
 -2.287427144251568E-015
 -2.341194946075135E-015
 -2.335143798011134E-015
 -2.346443966578618E-015
 -2.343305267764551E-015
 -2.338303004997254E-015
 -2.326234999101282E-015
 -2.306333412748135E-015
 -2.283630204917137E-015
 -2.185220461704025E-015
 -2.191809834476326E-015
 -2.212120441685765E-015
 -2.247040136472869E-015
 -2.259691977441240E-015
 -2.210082063516415E-015
 -2.235879260925546E-015
 -2.232328178199160E-015
 -2.267976826062747E-015
 -2.289067821696692E-015
 -2.277460272005030E-015
 -2.284112400257438E-015
 -2.272155222133541E-015
 -2.252539277768583E-015
 -2.229136813073114E-015
 -2.081855297051654E-015
 -2.104552679898720E-015
 -2.062294151090757E-015
 -2.101198150524429E-015
 -2.120463235493213E-015
 -2.178493928003662E-015
 -2.150897153085337E-015
 -2.171156324946754E-015
 -2.213653654414860E-015
 -2.209867134084355E-015
 -2.217026559869105E-015
 -2.218395377386003E-015
 -2.209414634956072E-015
 -2.191056680335953E-015
 -2.167287442092250E-015
 -1.973234055947913E-015
 -2.003059036275599E-015
 -1.976550932034136E-015
 -1.961200340283954E-015
 -2.004896267072845E-015
 -2.038008427274734E-015
 -2.071495318100887E-015
 -2.098867074419015E-015
 -2.129382123571190E-015
 -2.120533948049335E-015
 -2.121476599593942E-015
 -2.138891902669456E-015
 -2.140768017718706E-015
 -2.121949606894269E-015
 -2.096666433129570E-015
 -1.809413440023610E-015
 -1.808352003630887E-015
 -1.848439587361425E-015
 -1.858575448840144E-015
 -1.871475278508654E-015
 -1.951046102725282E-015
 -2.023730592049342E-015
 -2.029688057457270E-015
 -2.052369526152267E-015
 -2.060075133721360E-015
 -2.038658380883271E-015
 -2.011896792793534E-015
 -2.003918094332270E-015
 -1.989245020310556E-015
 -1.978516135719464E-015
 -1.681600288435120E-015
 -1.702588413373018E-015
 -1.745226266825237E-015
 -1.740489137874080E-015
 -1.777152380802363E-015
 -1.882956987404337E-015
 -1.935421189118981E-015
 -1.939672759673795E-015
 -1.955527285900272E-015
 -1.968341389988747E-015
 -1.975057504685192E-015
 -1.968371086200773E-015
 -1.954920480727930E-015
 -1.927283590593669E-015
 -1.868889487591021E-015
 -1.562498151440420E-015
 -1.572705956439207E-015
 -1.620402102026723E-015
 -1.596278641330802E-015
 -1.655969618330279E-015
 -1.708344731408847E-015
 -1.818937902309994E-015
 -1.833342479459531E-015
 -1.855196718401978E-015
 -1.870765602640273E-015
 -1.871021548416439E-015
 -1.873567224118125E-015
 -1.869093998019167E-015
 -1.855324691290054E-015
 -1.817422735825050E-015
 -1.428534344147923E-015
 -1.447416741416400E-015
 -1.479970168737927E-015
 -1.493538328094926E-015
 -1.538612260440706E-015
 -1.616878253584465E-015
 -1.688966356740096E-015
 -1.706300528255568E-015
 -1.737630256064268E-015
 -1.751685204781567E-015
 -1.756141285764517E-015
 -1.756921674189031E-015
 -1.753135153858521E-015
 -1.742214309935303E-015
 -1.726107200988697E-015
 -1.276427511667376E-015
 -1.305923371734883E-015
 -1.332958050716789E-015
 -1.350420195120334E-015
 -1.395800277626354E-015
 -1.519929779580378E-015
 -1.545131821785036E-015
 -1.569676854433268E-015
 -1.605411227876903E-015
 -1.618993169293870E-015
 -1.627666530599613E-015
 -1.623035635400546E-015
 -1.616907949796492E-015
 -1.607931801386551E-015
 -1.601292224230163E-015
 -1.138553805176278E-015
 -1.152544767449525E-015
 -1.205736691276723E-015
 -1.199156506544390E-015
 -1.225458869393766E-015
 -1.344241074168258E-015
 -1.392090294835902E-015
 -1.431010208421637E-015
 -1.450306220566387E-015
 -1.468071152074132E-015
 -1.473196793709522E-015
 -1.468706422494560E-015
 -1.455815780866023E-015
 -1.458156946139568E-015
 -1.464156658855542E-015
 -1.036529893920887E-015
 -1.017088763772044E-015
 -1.036892073449136E-015
 -1.050976718378458E-015
 -1.080989064018285E-015
 -1.140598909457712E-015
 -1.239270423430925E-015
 -1.258950354239920E-015
 -1.279964812333807E-015
 -1.298032530945749E-015
 -1.324168036655040E-015
 -1.240406265271602E-015
 -1.266366956764776E-015
 -1.273812024537717E-015
 -1.327289590353100E-015
 -8.941110178107507E-016
 -8.788700228686944E-016
 -8.775777428918485E-016
 -8.930357993580658E-016
 -8.957048539278472E-016
 -9.654814880219666E-016
 -1.046178966039298E-015
 -1.071905450892299E-015
 -1.090677020388699E-015
 -1.123149316150179E-015
 -1.111444720746403E-015
 -1.067973812557699E-015
 -1.102740432264683E-015
 -1.115759046781300E-015
 -1.157831441241067E-015
 -7.041114179051737E-016
 -7.326428872920703E-016
 -7.500021609995721E-016
 -7.484413841505437E-016
 -7.349405742936249E-016
 -7.565309103838852E-016
 -8.515907182426989E-016
 -8.575950249786607E-016
 -8.668317131847540E-016
 -9.022256462361321E-016
 -8.589809876115722E-016
 -8.619059879575201E-016
 -8.774966113318060E-016
 -9.344625043934935E-016
 -9.598816081223103E-016
 -5.784667494661984E-016
 -5.780359894739158E-016
 -5.942401441326316E-016
 -5.834941144255306E-016
 -5.642495376288024E-016
 -5.536314808097841E-016
 -5.706686902049860E-016
 -6.258818470855157E-016
 -6.273832315104903E-016
 -6.434765583971354E-016
 -6.582947504229389E-016
 -5.623140301555033E-016
 -6.349219819394992E-016
 -7.237809297102429E-016
 -7.486413005586941E-016
 -4.594549320715307E-016
 -4.447291917378493E-016
 -4.362900370722736E-016
 -3.998564067641749E-016
 -3.686078105155155E-016
 -3.285281838610041E-016
 -3.141658540195202E-016
 -3.688775383516446E-016
 -3.700372514204213E-016
 -3.680628596951143E-016
 -3.979940737748900E-016
 -2.910021899842135E-016
 -3.590557841092014E-016
 -5.045322274733465E-016
 -5.558982406353667E-016
 -3.330516143440360E-016
 -3.222667003849293E-016
 -3.069148776708021E-016
 -1.994215213317159E-016
 -1.479605945496793E-016
 -9.439730315425782E-017
 -6.079499053603599E-017
 -3.774215427280330E-017
 -8.307203239474143E-017
 -9.147230280831105E-017
 -1.004610023142709E-016
 -7.620038069028404E-017
 -5.997112383952988E-017
 -2.330924144139677E-016
 -3.515329478322553E-016
 -2.051515062115593E-016
 -1.647862375688581E-016
 -1.090565951160074E-016
 -7.165250768680231E-018
  9.892040380149779E-017
  1.615924105149326E-016
  2.053991650758993E-016
  2.223197217150901E-016
  2.482427599202053E-016
  1.975998748507405E-016
  1.967943842341874E-016
  1.922103303631534E-016
  2.669720821085570E-016
  5.622315792522771E-017
 -8.130428318967866E-017
 -7.177612801145798E-017
  4.992065810505628E-017
  1.475340987415914E-016
  2.342266954549073E-016
  4.122130878685820E-016
  4.423191161644752E-016
  4.657901613239699E-016
  4.984544164175682E-016
  5.249269994630682E-016
  5.102116781333107E-016
  4.851673050287684E-016
  4.974444153728743E-016
  5.343819801572733E-016
  4.119286768443391E-016
  2.251467752207739E-016
SCALARS poroP double 
LOOKUP_TABLE default
  1.813679531386507E-005
  1.814453996611568E-005
  1.814783078714718E-005
  1.814660201005784E-005
  1.814075802941441E-005
  1.813018842722878E-005
  1.811477626179751E-005
  1.809441206115910E-005
  1.806901047669575E-005
  1.803851343928074E-005
  1.800289626588208E-005
  1.796217400785466E-005
  1.791640719954921E-005
  1.786570675677727E-005
  1.781023715329803E-005
  1.813510796118923E-005
  1.814284572484618E-005
  1.814613620495765E-005
  1.814491652150324E-005
  1.813909423778956E-005
  1.812856249768717E-005
  1.811320927280273E-005
  1.809292713899201E-005
  1.806763086646855E-005
  1.803726338344771E-005
  1.800179995059707E-005
  1.796125479765268E-005
  1.791568715191429E-005
  1.786520636290364E-005
  1.780997538830932E-005
  1.813171284963673E-005
  1.813943648603393E-005
  1.814272698565295E-005
  1.814152711529203E-005
  1.813575096627067E-005
  1.812529851001592E-005
  1.811006611886669E-005
  1.808995083342715E-005
  1.806486849728753E-005
  1.803476348738257E-005
  1.799961050127967E-005
  1.795942203441085E-005
  1.791425475514496E-005
  1.786421501087739E-005
  1.780946259490263E-005
  1.812656869736794E-005
  1.813427052509682E-005
  1.813756314947244E-005
  1.813639740501733E-005
  1.813069703209307E-005
  1.812037227793537E-005
  1.810532858110296E-005
  1.808547069033396E-005
  1.806071788374932E-005
  1.803101462314189E-005
  1.799633442166567E-005
  1.795668701755117E-005
  1.791212529266048E-005
  1.786275120366811E-005
  1.780872004666956E-005
  1.811961261407362E-005
  1.812728473569508E-005
  1.813058476460429E-005
  1.812947350636317E-005
  1.812388643824420E-005
  1.811374522981232E-005
  1.809896808974022E-005
  1.807946992019852E-005
  1.805517202979425E-005
  1.802601872970201E-005
  1.799198156034574E-005
  1.795306646527256E-005
  1.790932133482604E-005
  1.786084246710420E-005
  1.780777970665541E-005
  1.811075930894944E-005
  1.811839423564036E-005
  1.812171187964136E-005
  1.812068388532041E-005
  1.811525890846853E-005
  1.810537046200666E-005
  1.809095091871018E-005
  1.807192756447706E-005
  1.804822269043450E-005
  1.801977879332469E-005
  1.798656492211618E-005
  1.794858216728129E-005
  1.790587227988190E-005
  1.785852512057227E-005
  1.780668435029702E-005
  1.809990055623820E-005
  1.810749233249765E-005
  1.811084508099418E-005
  1.810994066384320E-005
  1.810474108382737E-005
  1.809519384988073E-005
  1.808124029361473E-005
  1.806282006595707E-005
  1.803986053010649E-005
  1.801229873198343E-005
  1.798010040520118E-005
  1.794326044768396E-005
  1.790181380752981E-005
  1.785584366566146E-005
  1.780548732540729E-005
  1.808690648010838E-005
  1.809445155838183E-005
  1.809786701928614E-005
  1.809714192485742E-005
  1.809224998480676E-005
  1.808315057269614E-005
  1.806979290659564E-005
  1.805212322681800E-005
  1.803007547918115E-005
  1.800358367668166E-005
  1.797260605109200E-005
  1.793713103392912E-005
  1.789718683393207E-005
  1.785285024015309E-005
  1.780425277470752E-005
  1.807162851712955E-005
  1.807912681324178E-005
  1.808264499068373E-005
  1.808217401845436E-005
  1.807769374917120E-005
  1.806917127074069E-005
  1.805655868649582E-005
  1.803980696405581E-005
  1.801885734691264E-005
  1.799363834699211E-005
  1.796410000979595E-005
  1.793022521737201E-005
  1.789203622826771E-005
  1.784960421561549E-005
  1.780305606215004E-005
  1.805389876554686E-005
  1.806135949386349E-005
  1.806503592527884E-005
  1.806491444966342E-005
  1.806097379087376E-005
  1.805318108612947E-005
  1.804148908786651E-005
  1.802584388762269E-005
  1.800619200359598E-005
  1.798246313422374E-005
  1.795459739894580E-005
  1.792257370055473E-005
  1.788640950054364E-005
  1.784617181897706E-005
  1.780198410283395E-005
  1.803354134862659E-005
  1.804098192400482E-005
  1.804489150768813E-005
  1.804523716332919E-005
  1.804198768417308E-005
  1.803510183818896E-005
  1.802452625274865E-005
  1.801019754528578E-005
  1.799205918509272E-005
  1.797005004453442E-005
  1.794410741836011E-005
  1.791420391932730E-005
  1.788035535502150E-005
  1.784262593212492E-005
  1.780113595913876E-005
  1.801038656362063E-005
  1.801783021322048E-005
  1.802206452280536E-005
  1.802301740708063E-005
  1.802063186421756E-005
  1.801484923534033E-005
  1.800560201332906E-005
  1.799281545260436E-005
  1.797642411113435E-005
  1.795637966448093E-005
  1.793262805912130E-005
  1.790513693369083E-005
  1.787392253319384E-005
  1.783904623811531E-005
  1.780062328224043E-005
  1.798428777378495E-005
  1.799176063444497E-005
  1.799642094474644E-005
  1.799813565017098E-005
  1.799680183104512E-005
  1.799232979278790E-005
  1.798463255718598E-005
  1.797362563772000E-005
  1.795923440436275E-005
  1.794141515817155E-005
  1.792014037657060E-005
  1.789538460294179E-005
  1.786715900174562E-005
  1.783551982713706E-005
  1.780057048382960E-005
  1.795514450724362E-005
  1.796266755956482E-005
  1.796785402418202E-005
  1.797048469817488E-005
  1.797039114583699E-005
  1.796743749403164E-005
  1.796151179773650E-005
  1.795252184922538E-005
  1.794039610955494E-005
  1.792509268087814E-005
  1.790660852540437E-005
  1.788494678657335E-005
  1.786011212641416E-005
  1.783214196849975E-005
  1.780111411299161E-005
  1.792293029624476E-005
  1.793050543115432E-005
  1.793629817770241E-005
  1.793997778543388E-005
  1.794129131401448E-005
  1.794004612329001E-005
  1.793610079211108E-005
  1.792935992974324E-005
  1.791976842564150E-005
  1.790730392673184E-005
  1.789197556576998E-005
  1.787381389641345E-005
  1.785282879977921E-005
  1.782901629582782E-005
  1.780240073010454E-005
  1.788772270790096E-005
  1.789531259723427E-005
  1.790174434463415E-005
  1.790655521007873E-005
  1.790939305431770E-005
  1.791000259729717E-005
  1.790821655140387E-005
  1.790394570478746E-005
  1.789716399504294E-005
  1.788788727975318E-005
  1.787614714182836E-005
  1.786197042427650E-005
  1.784535801865698E-005
  1.782625357134414E-005
  1.780458195856734E-005
  1.784973126080303E-005
  1.785723409726336E-005
  1.786425539197034E-005
  1.787019158796489E-005
  1.787458668862683E-005
  1.787712542788867E-005
  1.787762605865173E-005
  1.787602376589282E-005
  1.787234052456775E-005
  1.786664179557186E-005
  1.785898613177234E-005
  1.784937943244910E-005
  1.783775516903800E-005
  1.782396803824120E-005
  1.780780592611458E-005
  1.780931770175284E-005
  1.781653877221366E-005
  1.782397969662115E-005
  1.783090491833227E-005
  1.783676599547494E-005
  1.784120417832321E-005
  1.784404663692681E-005
  1.784528078438543E-005
  1.784500001982444E-005
  1.784332746806487E-005
  1.784033448958832E-005
  1.783597572548361E-005
  1.783005868336111E-005
  1.782226911837472E-005
  1.781220292256996E-005
  1.776699752983559E-005
  1.777362582318940E-005
  1.778116083767808E-005
  1.778876723430539E-005
  1.779583782894887E-005
  1.780200741614513E-005
  1.780715430080981E-005
  1.781135771549952E-005
  1.781480658027027E-005
  1.781767796595651E-005
  1.782002107659997E-005
  1.782167991435410E-005
  1.782227220708411E-005
  1.782122870877362E-005
  1.781787116910133E-005
  1.772343805040568E-005
  1.772901527922815E-005
  1.773613756304944E-005
  1.774391485359042E-005
  1.775173756844997E-005
  1.775930375125595E-005
  1.776661171402337E-005
  1.777388430157709E-005
  1.778142114454449E-005
  1.778942489016611E-005
  1.779786004765630E-005
  1.780638295867617E-005
  1.781434456290842E-005
  1.782084718065371E-005
  1.782484924762293E-005
  1.767942302498966E-005
  1.768333406860781E-005
  1.768933391285776E-005
  1.769655029671682E-005
  1.770445022310882E-005
  1.771290156906667E-005
  1.772212745444458E-005
  1.773254869763398E-005
  1.774456209506196E-005
  1.775832927271398E-005
  1.777364507622804E-005
  1.778990183852929E-005
  1.780612024823764E-005
  1.782101396164055E-005
  1.783309101764438E-005
  1.763570679830442E-005
  1.763724129800563E-005
  1.764124066596446E-005
  1.764693961233295E-005
  1.765403396248368E-005
  1.766271963554677E-005
  1.767356302734972E-005
  1.768721142031472E-005
  1.770408858757302E-005
  1.772420970506323E-005
  1.774712277140559E-005
  1.777191952669963E-005
  1.779726886943150E-005
  1.782145532782498E-005
  1.784244564216548E-005
  1.759301558915638E-005
  1.759131210730426E-005
  1.759229676972630E-005
  1.759538226914640E-005
  1.760067058649064E-005
  1.760890731625820E-005
  1.762110289876425E-005
  1.763805979154532E-005
  1.766008679580595E-005
  1.768695198263027E-005
  1.771794607126688E-005
  1.775191077816770E-005
  1.778720749432579E-005
  1.782167516181694E-005
  1.785263680595798E-005
  1.755199504763655E-005
  1.754600468453592E-005
  1.754279261200794E-005
  1.754211121672707E-005
  1.754471708262990E-005
  1.755204722718659E-005
  1.756547785379031E-005
  1.758575776807166E-005
  1.761292443626983E-005
  1.764649812873324E-005
  1.768563121941057E-005
  1.772908016916044E-005
  1.777503013911311E-005
  1.782090085553176E-005
  1.786325045429797E-005
  1.751310910463570E-005
  1.750154508109503E-005
  1.749280890766137E-005
  1.748733329639351E-005
  1.748684940805162E-005
  1.749336246634604E-005
  1.750813057612761E-005
  1.753150248420553E-005
  1.756324842560363E-005
  1.760284848403948E-005
  1.764957308787413E-005
  1.770235796662050E-005
  1.775946731054923E-005
  1.781802569590483E-005
  1.787371145651657E-005
  1.747654823669833E-005
  1.745776897977828E-005
  1.744218139740073E-005
  1.743149701540073E-005
  1.742845405855339E-005
  1.743483540093305E-005
  1.745105182494779E-005
  1.747686361250939E-005
  1.751197060256708E-005
  1.755615741390463E-005
  1.760917984861963E-005
  1.767051123219584E-005
  1.773888966885536E-005
  1.781154340894923E-005
  1.788325427671038E-005
  1.744206985810894E-005
  1.741403119664679E-005
  1.739084357206618E-005
  1.737598808762239E-005
  1.737192250594413E-005
  1.737889879129683E-005
  1.739624432557403E-005
  1.742340196385411E-005
  1.746023516925724E-005
  1.750700493700278E-005
  1.756422167280004E-005
  1.763238882273289E-005
  1.771142232582393E-005
  1.779942438580780E-005
  1.789085397102704E-005
  1.740881509104051E-005
  1.736955390685008E-005
  1.734027699943379E-005
  1.732381390353919E-005
  1.732000696957469E-005
  1.732746422299677E-005
  1.734508254116666E-005
  1.737236245307479E-005
  1.740935995568439E-005
  1.745667489685340E-005
  1.751548502415159E-005
  1.758754025196194E-005
  1.767504662582991E-005
  1.777907560804236E-005
  1.789502615162886E-005
  1.737495162837360E-005
  1.732653926915263E-005
  1.729484161233521E-005
  1.727811903050708E-005
  1.727414743714469E-005
  1.728113529497710E-005
  1.729809103717972E-005
  1.732459129738044E-005
  1.736071882676452E-005
  1.740713059240606E-005
  1.746526094294183E-005
  1.753770382685370E-005
  1.762877212241882E-005
  1.774598196375205E-005
  1.789360427758549E-005
  1.734788081467232E-005
  1.729239765680328E-005
  1.725755634540146E-005
  1.723925282174882E-005
  1.723392411420868E-005
  1.723966695372379E-005
  1.725543196358090E-005
  1.728073093878227E-005
  1.731555831695088E-005
  1.736046653966550E-005
  1.741681495137848E-005
  1.748732464438466E-005
  1.757734457011185E-005
  1.769778349148526E-005
  1.787982583979100E-005
SCALARS elementIsPlast double 
LOOKUP_TABLE default
   1.00000000000000     
   1.00000000000000     
   1.00000000000000     
   1.00000000000000     
   1.00000000000000     
   1.00000000000000     
   1.00000000000000     
   1.00000000000000     
   1.00000000000000     
   1.00000000000000     
   1.00000000000000     
   1.00000000000000     
   1.00000000000000     
   1.00000000000000     
   1.00000000000000     
   1.00000000000000     
   1.00000000000000     
   1.00000000000000     
   1.00000000000000     
   1.00000000000000     
   1.00000000000000     
   1.00000000000000     
   1.00000000000000     
   1.00000000000000     
   1.00000000000000     
   1.00000000000000     
   1.00000000000000     
   1.00000000000000     
   1.00000000000000     
   1.00000000000000     
   1.00000000000000     
   1.00000000000000     
   1.00000000000000     
   1.00000000000000     
   1.00000000000000     
   1.00000000000000     
   1.00000000000000     
   1.00000000000000     
   1.00000000000000     
   1.00000000000000     
   1.00000000000000     
   1.00000000000000     
   1.00000000000000     
   1.00000000000000     
   1.00000000000000     
   1.00000000000000     
   1.00000000000000     
   1.00000000000000     
   1.00000000000000     
   1.00000000000000     
   1.00000000000000     
   1.00000000000000     
   1.00000000000000     
   1.00000000000000     
   1.00000000000000     
   1.00000000000000     
   1.00000000000000     
   1.00000000000000     
   1.00000000000000     
   1.00000000000000     
   1.00000000000000     
   1.00000000000000     
   1.00000000000000     
   1.00000000000000     
   1.00000000000000     
   1.00000000000000     
   1.00000000000000     
   1.00000000000000     
   1.00000000000000     
   1.00000000000000     
   1.00000000000000     
   1.00000000000000     
   1.00000000000000     
   1.00000000000000     
   1.00000000000000     
   1.00000000000000     
   1.00000000000000     
   1.00000000000000     
   1.00000000000000     
   1.00000000000000     
   1.00000000000000     
   1.00000000000000     
   1.00000000000000     
   1.00000000000000     
   1.00000000000000     
   1.00000000000000     
   1.00000000000000     
   1.00000000000000     
   1.00000000000000     
   1.00000000000000     
   1.00000000000000     
   1.00000000000000     
   1.00000000000000     
   1.00000000000000     
   1.00000000000000     
   1.00000000000000     
   1.00000000000000     
   1.00000000000000     
   1.00000000000000     
   1.00000000000000     
   1.00000000000000     
   1.00000000000000     
   1.00000000000000     
   1.00000000000000     
   1.00000000000000     
   1.00000000000000     
   1.00000000000000     
   1.00000000000000     
   1.00000000000000     
   1.00000000000000     
   1.00000000000000     
   1.00000000000000     
   1.00000000000000     
   1.00000000000000     
   1.00000000000000     
   1.00000000000000     
   1.00000000000000     
   1.00000000000000     
   1.00000000000000     
   1.00000000000000     
   1.00000000000000     
   1.00000000000000     
   1.00000000000000     
   1.00000000000000     
   1.00000000000000     
   1.00000000000000     
   1.00000000000000     
   1.00000000000000     
   1.00000000000000     
   1.00000000000000     
   1.00000000000000     
   1.00000000000000     
   1.00000000000000     
   1.00000000000000     
   1.00000000000000     
   1.00000000000000     
   1.00000000000000     
   1.00000000000000     
   1.00000000000000     
   1.00000000000000     
   1.00000000000000     
   1.00000000000000     
   1.00000000000000     
   1.00000000000000     
   1.00000000000000     
   1.00000000000000     
   1.00000000000000     
   1.00000000000000     
   1.00000000000000     
   1.00000000000000     
   1.00000000000000     
   1.00000000000000     
   1.00000000000000     
   1.00000000000000     
   1.00000000000000     
   1.00000000000000     
   1.00000000000000     
   1.00000000000000     
   1.00000000000000     
   1.00000000000000     
   1.00000000000000     
   1.00000000000000     
   1.00000000000000     
   1.00000000000000     
   1.00000000000000     
   1.00000000000000     
   1.00000000000000     
   1.00000000000000     
   1.00000000000000     
   1.00000000000000     
   1.00000000000000     
   1.00000000000000     
   1.00000000000000     
   1.00000000000000     
   1.00000000000000     
   1.00000000000000     
   1.00000000000000     
   1.00000000000000     
   1.00000000000000     
   1.00000000000000     
   1.00000000000000     
   1.00000000000000     
   1.00000000000000     
   1.00000000000000     
   1.00000000000000     
   1.00000000000000     
   1.00000000000000     
   1.00000000000000     
   1.00000000000000     
   1.00000000000000     
   1.00000000000000     
   1.00000000000000     
   1.00000000000000     
   1.00000000000000     
   1.00000000000000     
   1.00000000000000     
   1.00000000000000     
   1.00000000000000     
   1.00000000000000     
   1.00000000000000     
   1.00000000000000     
   1.00000000000000     
   1.00000000000000     
   1.00000000000000     
   1.00000000000000     
   1.00000000000000     
   1.00000000000000     
   1.00000000000000     
   1.00000000000000     
   1.00000000000000     
   1.00000000000000     
   1.00000000000000     
   1.00000000000000     
   1.00000000000000     
   1.00000000000000     
   1.00000000000000     
   1.00000000000000     
   1.00000000000000     
   1.00000000000000     
   1.00000000000000     
   1.00000000000000     
   1.00000000000000     
   1.00000000000000     
   1.00000000000000     
   1.00000000000000     
   1.00000000000000     
   1.00000000000000     
   1.00000000000000     
   1.00000000000000     
   1.00000000000000     
   1.00000000000000     
   1.00000000000000     
   1.00000000000000     
   1.00000000000000     
   1.00000000000000     
   1.00000000000000     
   1.00000000000000     
   1.00000000000000     
   1.00000000000000     
   1.00000000000000     
   1.00000000000000     
   1.00000000000000     
   1.00000000000000     
   1.00000000000000     
   1.00000000000000     
   1.00000000000000     
   1.00000000000000     
   1.00000000000000     
   1.00000000000000     
   1.00000000000000     
   1.00000000000000     
   1.00000000000000     
   1.00000000000000     
   1.00000000000000     
   1.00000000000000     
   1.00000000000000     
   1.00000000000000     
   1.00000000000000     
   1.00000000000000     
   1.00000000000000     
   1.00000000000000     
   1.00000000000000     
   1.00000000000000     
   1.00000000000000     
   1.00000000000000     
   1.00000000000000     
   1.00000000000000     
   1.00000000000000     
   1.00000000000000     
   1.00000000000000     
   1.00000000000000     
   1.00000000000000     
   1.00000000000000     
   1.00000000000000     
   1.00000000000000     
   1.00000000000000     
   1.00000000000000     
   1.00000000000000     
   1.00000000000000     
   1.00000000000000     
   1.00000000000000     
   1.00000000000000     
   1.00000000000000     
   1.00000000000000     
   1.00000000000000     
   1.00000000000000     
   1.00000000000000     
   1.00000000000000     
   1.00000000000000     
   1.00000000000000     
   1.00000000000000     
   1.00000000000000     
   1.00000000000000     
   1.00000000000000     
   1.00000000000000     
   1.00000000000000     
   1.00000000000000     
   1.00000000000000     
   1.00000000000000     
   1.00000000000000     
   1.00000000000000     
   1.00000000000000     
   1.00000000000000     
   1.00000000000000     
   1.00000000000000     
   1.00000000000000     
   1.00000000000000     
   1.00000000000000     
   1.00000000000000     
   1.00000000000000     
   1.00000000000000     
   1.00000000000000     
   1.00000000000000     
   1.00000000000000     
   1.00000000000000     
   1.00000000000000     
   1.00000000000000     
   1.00000000000000     
   1.00000000000000     
   1.00000000000000     
   1.00000000000000     
   1.00000000000000     
   1.00000000000000     
   1.00000000000000     
   1.00000000000000     
   1.00000000000000     
   1.00000000000000     
   1.00000000000000     
   1.00000000000000     
   1.00000000000000     
   1.00000000000000     
   1.00000000000000     
   1.00000000000000     
   1.00000000000000     
   1.00000000000000     
   1.00000000000000     
   1.00000000000000     
   1.00000000000000     
   1.00000000000000     
   1.00000000000000     
   1.00000000000000     
   1.00000000000000     
   1.00000000000000     
   1.00000000000000     
   1.00000000000000     
   1.00000000000000     
   1.00000000000000     
   1.00000000000000     
   1.00000000000000     
   1.00000000000000     
   1.00000000000000     
   1.00000000000000     
   1.00000000000000     
   1.00000000000000     
   1.00000000000000     
   1.00000000000000     
   1.00000000000000     
   1.00000000000000     
   1.00000000000000     
   1.00000000000000     
   1.00000000000000     
   1.00000000000000     
   1.00000000000000     
   1.00000000000000     
   1.00000000000000     
   1.00000000000000     
   1.00000000000000     
   1.00000000000000     
   1.00000000000000     
   1.00000000000000     
   1.00000000000000     
   1.00000000000000     
   1.00000000000000     
   1.00000000000000     
   1.00000000000000     
   1.00000000000000     
   1.00000000000000     
   1.00000000000000     
   1.00000000000000     
   1.00000000000000     
   1.00000000000000     
   1.00000000000000     
   1.00000000000000     
   1.00000000000000     
   1.00000000000000     
   1.00000000000000     
   1.00000000000000     
   1.00000000000000     
   1.00000000000000     
   1.00000000000000     
   1.00000000000000     
   1.00000000000000     
   1.00000000000000     
   1.00000000000000     
   1.00000000000000     
   1.00000000000000     
   1.00000000000000     
   1.00000000000000     
   1.00000000000000     
   1.00000000000000     
   1.00000000000000     
   1.00000000000000     
   1.00000000000000     
   1.00000000000000     
   1.00000000000000     
   1.00000000000000     
   1.00000000000000     
   1.00000000000000     
   1.00000000000000     
   1.00000000000000     
   1.00000000000000     
   1.00000000000000     
   1.00000000000000     
   1.00000000000000     
   1.00000000000000     
   1.00000000000000     
   1.00000000000000     
   1.00000000000000     
   1.00000000000000     
   1.00000000000000     
   1.00000000000000     
   1.00000000000000     
   1.00000000000000     
   1.00000000000000     
   1.00000000000000     
   1.00000000000000     
   1.00000000000000     
   1.00000000000000     
   1.00000000000000     
   1.00000000000000     
   1.00000000000000     
   1.00000000000000     
   1.00000000000000     
   1.00000000000000     
   1.00000000000000     
   1.00000000000000     
   1.00000000000000     
   1.00000000000000     
   1.00000000000000     
   1.00000000000000     
   1.00000000000000     
   1.00000000000000     
   1.00000000000000     
   1.00000000000000     
   1.00000000000000     
   1.00000000000000     
   1.00000000000000     
   1.00000000000000     
   1.00000000000000     
   1.00000000000000     
SCALARS poroL double 
LOOKUP_TABLE default
  0.155786761243152     
  0.155786773952210     
  0.155786785066866     
  0.155786794305161     
  0.155786801361789     
  0.155786805924002     
  0.155786807682387     
  0.155786806343704     
  0.155786801646169     
  0.155786793364944     
  0.155786781319924     
  0.155786765383687     
  0.155786745489111     
  0.155786721636542     
  0.155786693899860     
  0.155786759615249     
  0.155786772392077     
  0.155786783644590     
  0.155786793073081     
  0.155786800356387     
  0.155786805168447     
  0.155786807188617     
  0.155786806113464     
  0.155786801671157     
  0.155786793629268     
  0.155786781801648     
  0.155786766056041     
  0.155786746321730     
  0.155786722596701     
  0.155786694953963     
  0.155786756339296     
  0.155786769249768     
  0.155786780776142     
  0.155786790583276     
  0.155786798318507     
  0.155786803628002     
  0.155786806169625     
  0.155786805619149     
  0.155786801684199     
  0.155786794118110     
  0.155786782722117     
  0.155786767354134     
  0.155786747936189     
  0.155786724461653     
  0.155786697001585     
  0.155786751374341     
  0.155786764480720     
  0.155786776413280     
  0.155786786783669     
  0.155786795192575     
  0.155786801245636     
  0.155786804563327     
  0.155786804791140     
  0.155786801610860     
  0.155786794751402     
  0.155786783994934     
  0.155786769184267     
  0.155786750230337     
  0.155786727119580     
  0.155786699920473     
  0.155786744657681     
  0.155786758016876     
  0.155786770482433     
  0.155786781594994     
  0.155786790892297     
  0.155786797924970     
  0.155786802267452     
  0.155786803523636     
  0.155786801337989     
  0.155786795407715     
  0.155786785489176     
  0.155786771404519     
  0.155786753049754     
  0.155786730401935     
  0.155786703526576     
  0.155786736103691     
  0.155786749765612     
  0.155786762883359     
  0.155786774908908     
  0.155786785301821     
  0.155786793541450     
  0.155786799147511     
  0.155786801672882     
  0.155786800711836     
  0.155786795922400     
  0.155786787027337     
  0.155786773822915     
  0.155786756186060     
  0.155786734082284     
  0.155786707573330     
  0.155786725602704     
  0.155786739608538     
  0.155786753488053     
  0.155786766587126     
  0.155786778271876     
  0.155786787941465     
  0.155786795037244     
  0.155786799054569     
  0.155786799536632     
  0.155786796084395     
  0.155786788382610     
  0.155786776194778     
  0.155786759374441     
  0.155786737873332     
  0.155786711749354     
  0.155786713020731     
  0.155786727401954     
  0.155786742140645     
  0.155786756460340     
  0.155786769619994     
  0.155786780922480     
  0.155786789726103     
  0.155786795448400     
  0.155786797568375     
  0.155786795633384     
  0.155786789275312     
  0.155786778219021     
  0.155786762289877     
  0.155786741423841     
  0.155786715675759     
  0.155786698206286     
  0.155786712978325     
  0.155786728657315     
  0.155786744328131     
  0.155786759127145     
  0.155786772249535     
  0.155786782951536     
  0.155786790571840     
  0.155786794514522     
  0.155786794254977     
  0.155786789368190     
  0.155786779532651     
  0.155786764541951     
  0.155786744314476     
  0.155786718903009     
  0.155786680980191     
  0.155786696149380     
  0.155786712829881     
  0.155786729959551     
  0.155786746540565     
  0.155786761646335     
  0.155786774426066     
  0.155786784111456     
  0.155786790026512     
  0.155786791576182     
  0.155786788258660     
  0.155786779703741     
  0.155786765668316     
  0.155786746051830     
  0.155786720906629     
  0.155786661153045     
  0.155786676707922     
  0.155786694429672     
  0.155786713098038     
  0.155786731573879     
  0.155786748798692     
  0.155786763799162     
  0.155786775692321     
  0.155786783703165     
  0.155786787153497     
  0.155786785470989     
  0.155786778222804     
  0.155786765126280     
  0.155786746061872     
  0.155786721082732     
  0.155786638537019     
  0.155786654443094     
  0.155786673214262     
  0.155786693466535     
  0.155786713911193     
  0.155786733349741     
  0.155786750674683     
  0.155786764875606     
  0.155786775061389     
  0.155786780467820     
  0.155786780446064     
  0.155786774491284     
  0.155786762283320     
  0.155786743682845     
  0.155786718744746     
  0.155786612961456     
  0.155786629156962     
  0.155786648942870     
  0.155786670775275     
  0.155786693211387     
  0.155786714904531     
  0.155786734603871     
  0.155786751164100     
  0.155786763558040     
  0.155786770917285     
  0.155786772523932     
  0.155786767809872     
  0.155786756406829     
  0.155786738159649     
  0.155786713123446     
  0.155786584296849     
  0.155786600684225     
  0.155786621395491     
  0.155786644737212     
  0.155786669116350     
  0.155786693031874     
  0.155786715080747     
  0.155786733970497     
  0.155786748541224     
  0.155786757794292     
  0.155786760937154     
  0.155786757362871     
  0.155786746655605     
  0.155786728642275     
  0.155786703373182     
  0.155786552483838     
  0.155786568919549     
  0.155786590395340     
  0.155786615087150     
  0.155786641261466     
  0.155786667265365     
  0.155786691535871     
  0.155786712626486     
  0.155786729240008     
  0.155786740260662     
  0.155786744794636     
  0.155786742206659     
  0.155786732075126     
  0.155786714190396     
  0.155786688587532     
  0.155786517565698     
  0.155786533848396     
  0.155786555837041     
  0.155786581603818     
  0.155786609291760     
  0.155786637105407     
  0.155786663327533     
  0.155786686356436     
  0.155786704756006     
  0.155786717307671     
  0.155786723044449     
  0.155786721276245     
  0.155786711595695     
  0.155786693790928     
  0.155786667827515     
  0.155786479719755     
  0.155786495578035     
  0.155786517716887     
  0.155786544135098     
  0.155786572877361     
  0.155786602027445     
  0.155786629731270     
  0.155786654248973     
  0.155786674025258     
  0.155786687756333     
  0.155786694434633     
  0.155786693350288     
  0.155786684070154     
  0.155786666381621     
  0.155786640171893     
  0.155786439280511     
  0.155786454363758     
  0.155786476159465     
  0.155786502622282     
  0.155786531730120     
  0.155786561482768     
  0.155786589930186     
  0.155786615238632     
  0.155786635779973     
  0.155786650214679     
  0.155786657532575     
  0.155786657035287     
  0.155786648260818     
  0.155786630915161     
  0.155786604760466     
  0.155786396750610     
  0.155786410618692     
  0.155786431432416     
  0.155786457115930     
  0.155786485615524     
  0.155786514898470     
  0.155786542994328     
  0.155786568069281     
  0.155786588521338     
  0.155786603059964     
  0.155786610726498     
  0.155786610837916     
  0.155786602879904     
  0.155786586387450     
  0.155786560874459     
  0.155786352785776     
  0.155786364908010     
  0.155786383935381     
  0.155786407772258     
  0.155786434348898     
  0.155786461665341     
  0.155786487856926     
  0.155786511262887     
  0.155786530489799     
  0.155786544432020     
  0.155786552235537     
  0.155786553203307     
  0.155786546670380     
  0.155786531891101     
  0.155786507986420     
  0.155786308183442     
  0.155786317888193     
  0.155786334164421     
  0.155786354813753     
  0.155786377752442     
  0.155786401099172     
  0.155786423283011     
  0.155786443108401     
  0.155786459681508     
  0.155786472273356     
  0.155786480166802     
  0.155786482551215     
  0.155786478452072     
  0.155786466674456     
  0.155786445782107     
  0.155786263658384     
  0.155786270219900     
  0.155786282600421     
  0.155786298426078     
  0.155786315553126     
  0.155786332342412     
  0.155786347837903     
  0.155786361708334     
  0.155786373957071     
  0.155786384449625     
  0.155786392603461     
  0.155786397329586     
  0.155786397121933     
  0.155786390131156     
  0.155786374182024     
  0.155786219954843     
  0.155786222470199     
  0.155786229564134     
  0.155786238525680     
  0.155786247136808     
  0.155786254216118     
  0.155786259866710     
  0.155786265150260     
  0.155786271306675     
  0.155786278978135     
  0.155786287722824     
  0.155786296024540     
  0.155786301609522     
  0.155786301733727     
  0.155786293283395     
  0.155786177713771     
  0.155786175078836     
  0.155786175092556     
  0.155786174490552     
  0.155786171171370     
  0.155786164958053     
  0.155786157593957     
  0.155786151851651     
  0.155786150295528     
  0.155786154374316     
  0.155786163937396     
  0.155786177122657     
  0.155786190750708     
  0.155786200914014     
  0.155786203275285     
  0.155786137405118     
  0.155786128138571     
  0.155786118565833     
  0.155786104731668     
  0.155786085290194     
  0.155786062176745     
  0.155786039373785     
  0.155786021049124     
  0.155786010569429     
  0.155786010083267     
  0.155786020114799     
  0.155786039062611     
  0.155786063077402     
  0.155786086829225     
  0.155786104292313     
  0.155786099228368     
  0.155786081129655     
  0.155786058066676     
  0.155786025894446     
  0.155785985888473     
  0.155785943430193     
  0.155785904322649     
  0.155785873102870     
  0.155785853111220     
  0.155785846878822     
  0.155785856016510     
  0.155785880329071     
  0.155785916556825     
  0.155785957999243     
  0.155785996219280     
  0.155786062959005     
  0.155786032163453     
  0.155785989154477     
  0.155785932284617     
  0.155785868928350     
  0.155785807273145     
  0.155785752902964     
  0.155785709515689     
  0.155785679979027     
  0.155785666902604     
  0.155785672893173     
  0.155785700169890     
  0.155785748380035     
  0.155785811761261     
  0.155785878252408     
  0.155786027207437     
  0.155785976083468     
  0.155785902815088     
  0.155785817399835     
  0.155785732173904     
  0.155785654043633     
  0.155785586657851     
  0.155785532515586     
  0.155785493853993     
  0.155785473194173     
  0.155785473750097     
  0.155785499735583     
  0.155785556178270     
  0.155785642946361     
  0.155785748489421     
  0.155785987437201     
  0.155785897609238     
  0.155785788442867     
  0.155785678367923     
  0.155785576247562     
  0.155785485324111     
  0.155785407508554     
  0.155785344327360     
  0.155785297452869     
  0.155785269121411     
  0.155785262662630     
  0.155785283331354     
  0.155785339516106     
  0.155785445853649     
  0.155785599601757     
  0.155785911819156     
  0.155785779089027     
  0.155785642806397     
  0.155785516665370     
  0.155785402967227     
  0.155785302879707     
  0.155785217215119     
  0.155785146862687     
  0.155785093049494     
  0.155785057668231     
  0.155785043807670     
  0.155785056744234     
  0.155785106165355     
  0.155785211312580     
  0.155785430267682     
