# vtk DataFile Version 3.0
vtk output
ASCII
DATASET UNSTRUCTURED_GRID
POINTS       496 double 
  0.00000000E+00  3.00000000E+02  0.00000000E+00
  0.00000000E+00  2.80000000E+02  0.00000000E+00
  0.00000000E+00  2.60000000E+02  0.00000000E+00
  0.00000000E+00  2.40000000E+02  0.00000000E+00
  0.00000000E+00  2.20000000E+02  0.00000000E+00
  0.00000000E+00  2.00000000E+02  0.00000000E+00
  0.00000000E+00  1.80000000E+02  0.00000000E+00
  0.00000000E+00  1.60000000E+02  0.00000000E+00
  0.00000000E+00  1.40000000E+02  0.00000000E+00
  0.00000000E+00  1.20000000E+02  0.00000000E+00
  0.00000000E+00  1.00000000E+02  0.00000000E+00
  0.00000000E+00  8.00000000E+01  0.00000000E+00
  0.00000000E+00  6.00000000E+01  0.00000000E+00
  0.00000000E+00  4.00000000E+01  0.00000000E+00
  0.00000000E+00  2.00000000E+01  0.00000000E+00
  0.00000000E+00  4.99600361E-14  0.00000000E+00
  2.00000000E+01  3.00000000E+02  0.00000000E+00
  2.00000000E+01  2.80000000E+02  0.00000000E+00
  2.00000000E+01  2.60000000E+02  0.00000000E+00
  2.00000000E+01  2.40000000E+02  0.00000000E+00
  2.00000000E+01  2.20000000E+02  0.00000000E+00
  2.00000000E+01  2.00000000E+02  0.00000000E+00
  2.00000000E+01  1.80000000E+02  0.00000000E+00
  2.00000000E+01  1.60000000E+02  0.00000000E+00
  2.00000000E+01  1.40000000E+02  0.00000000E+00
  2.00000000E+01  1.20000000E+02  0.00000000E+00
  2.00000000E+01  1.00000000E+02  0.00000000E+00
  2.00000000E+01  8.00000000E+01  0.00000000E+00
  2.00000000E+01  6.00000000E+01  0.00000000E+00
  2.00000000E+01  4.00000000E+01  0.00000000E+00
  2.00000000E+01  2.00000000E+01  0.00000000E+00
  2.00000000E+01  4.99600361E-14  0.00000000E+00
  4.00000000E+01  3.00000000E+02  0.00000000E+00
  4.00000000E+01  2.80000000E+02  0.00000000E+00
  4.00000000E+01  2.60000000E+02  0.00000000E+00
  4.00000000E+01  2.40000000E+02  0.00000000E+00
  4.00000000E+01  2.20000000E+02  0.00000000E+00
  4.00000000E+01  2.00000000E+02  0.00000000E+00
  4.00000000E+01  1.80000000E+02  0.00000000E+00
  4.00000000E+01  1.60000000E+02  0.00000000E+00
  4.00000000E+01  1.40000000E+02  0.00000000E+00
  4.00000000E+01  1.20000000E+02  0.00000000E+00
  4.00000000E+01  1.00000000E+02  0.00000000E+00
  4.00000000E+01  8.00000000E+01  0.00000000E+00
  4.00000000E+01  6.00000000E+01  0.00000000E+00
  4.00000000E+01  4.00000000E+01  0.00000000E+00
  4.00000000E+01  2.00000000E+01  0.00000000E+00
  4.00000000E+01  4.99600361E-14  0.00000000E+00
  6.00000000E+01  3.00000000E+02  0.00000000E+00
  6.00000000E+01  2.80000000E+02  0.00000000E+00
  6.00000000E+01  2.60000000E+02  0.00000000E+00
  6.00000000E+01  2.40000000E+02  0.00000000E+00
  6.00000000E+01  2.20000000E+02  0.00000000E+00
  6.00000000E+01  2.00000000E+02  0.00000000E+00
  6.00000000E+01  1.80000000E+02  0.00000000E+00
  6.00000000E+01  1.60000000E+02  0.00000000E+00
  6.00000000E+01  1.40000000E+02  0.00000000E+00
  6.00000000E+01  1.20000000E+02  0.00000000E+00
  6.00000000E+01  1.00000000E+02  0.00000000E+00
  6.00000000E+01  8.00000000E+01  0.00000000E+00
  6.00000000E+01  6.00000000E+01  0.00000000E+00
  6.00000000E+01  4.00000000E+01  0.00000000E+00
  6.00000000E+01  2.00000000E+01  0.00000000E+00
  6.00000000E+01  4.99600361E-14  0.00000000E+00
  8.00000000E+01  3.00000000E+02  0.00000000E+00
  8.00000000E+01  2.80000000E+02  0.00000000E+00
  8.00000000E+01  2.60000000E+02  0.00000000E+00
  8.00000000E+01  2.40000000E+02  0.00000000E+00
  8.00000000E+01  2.20000000E+02  0.00000000E+00
  8.00000000E+01  2.00000000E+02  0.00000000E+00
  8.00000000E+01  1.80000000E+02  0.00000000E+00
  8.00000000E+01  1.60000000E+02  0.00000000E+00
  8.00000000E+01  1.40000000E+02  0.00000000E+00
  8.00000000E+01  1.20000000E+02  0.00000000E+00
  8.00000000E+01  1.00000000E+02  0.00000000E+00
  8.00000000E+01  8.00000000E+01  0.00000000E+00
  8.00000000E+01  6.00000000E+01  0.00000000E+00
  8.00000000E+01  4.00000000E+01  0.00000000E+00
  8.00000000E+01  2.00000000E+01  0.00000000E+00
  8.00000000E+01  4.99600361E-14  0.00000000E+00
  1.00000000E+02  3.00000000E+02  0.00000000E+00
  1.00000000E+02  2.80000000E+02  0.00000000E+00
  1.00000000E+02  2.60000000E+02  0.00000000E+00
  1.00000000E+02  2.40000000E+02  0.00000000E+00
  1.00000000E+02  2.20000000E+02  0.00000000E+00
  1.00000000E+02  2.00000000E+02  0.00000000E+00
  1.00000000E+02  1.80000000E+02  0.00000000E+00
  1.00000000E+02  1.60000000E+02  0.00000000E+00
  1.00000000E+02  1.40000000E+02  0.00000000E+00
  1.00000000E+02  1.20000000E+02  0.00000000E+00
  1.00000000E+02  1.00000000E+02  0.00000000E+00
  1.00000000E+02  8.00000000E+01  0.00000000E+00
  1.00000000E+02  6.00000000E+01  0.00000000E+00
  1.00000000E+02  4.00000000E+01  0.00000000E+00
  1.00000000E+02  2.00000000E+01  0.00000000E+00
  1.00000000E+02  4.99600361E-14  0.00000000E+00
  1.20000000E+02  3.00000000E+02  0.00000000E+00
  1.20000000E+02  2.80000000E+02  0.00000000E+00
  1.20000000E+02  2.60000000E+02  0.00000000E+00
  1.20000000E+02  2.40000000E+02  0.00000000E+00
  1.20000000E+02  2.20000000E+02  0.00000000E+00
  1.20000000E+02  2.00000000E+02  0.00000000E+00
  1.20000000E+02  1.80000000E+02  0.00000000E+00
  1.20000000E+02  1.60000000E+02  0.00000000E+00
  1.20000000E+02  1.40000000E+02  0.00000000E+00
  1.20000000E+02  1.20000000E+02  0.00000000E+00
  1.20000000E+02  1.00000000E+02  0.00000000E+00
  1.20000000E+02  8.00000000E+01  0.00000000E+00
  1.20000000E+02  6.00000000E+01  0.00000000E+00
  1.20000000E+02  4.00000000E+01  0.00000000E+00
  1.20000000E+02  2.00000000E+01  0.00000000E+00
  1.20000000E+02  4.99600361E-14  0.00000000E+00
  1.40000000E+02  3.00000000E+02  0.00000000E+00
  1.40000000E+02  2.80000000E+02  0.00000000E+00
  1.40000000E+02  2.60000000E+02  0.00000000E+00
  1.40000000E+02  2.40000000E+02  0.00000000E+00
  1.40000000E+02  2.20000000E+02  0.00000000E+00
  1.40000000E+02  2.00000000E+02  0.00000000E+00
  1.40000000E+02  1.80000000E+02  0.00000000E+00
  1.40000000E+02  1.60000000E+02  0.00000000E+00
  1.40000000E+02  1.40000000E+02  0.00000000E+00
  1.40000000E+02  1.20000000E+02  0.00000000E+00
  1.40000000E+02  1.00000000E+02  0.00000000E+00
  1.40000000E+02  8.00000000E+01  0.00000000E+00
  1.40000000E+02  6.00000000E+01  0.00000000E+00
  1.40000000E+02  4.00000000E+01  0.00000000E+00
  1.40000000E+02  2.00000000E+01  0.00000000E+00
  1.40000000E+02  4.99600361E-14  0.00000000E+00
  1.60000000E+02  3.00000000E+02  0.00000000E+00
  1.60000000E+02  2.80000000E+02  0.00000000E+00
  1.60000000E+02  2.60000000E+02  0.00000000E+00
  1.60000000E+02  2.40000000E+02  0.00000000E+00
  1.60000000E+02  2.20000000E+02  0.00000000E+00
  1.60000000E+02  2.00000000E+02  0.00000000E+00
  1.60000000E+02  1.80000000E+02  0.00000000E+00
  1.60000000E+02  1.60000000E+02  0.00000000E+00
  1.60000000E+02  1.40000000E+02  0.00000000E+00
  1.60000000E+02  1.20000000E+02  0.00000000E+00
  1.60000000E+02  1.00000000E+02  0.00000000E+00
  1.60000000E+02  8.00000000E+01  0.00000000E+00
  1.60000000E+02  6.00000000E+01  0.00000000E+00
  1.60000000E+02  4.00000000E+01  0.00000000E+00
  1.60000000E+02  2.00000000E+01  0.00000000E+00
  1.60000000E+02  4.99600361E-14  0.00000000E+00
  1.80000000E+02  3.00000000E+02  0.00000000E+00
  1.80000000E+02  2.80000000E+02  0.00000000E+00
  1.80000000E+02  2.60000000E+02  0.00000000E+00
  1.80000000E+02  2.40000000E+02  0.00000000E+00
  1.80000000E+02  2.20000000E+02  0.00000000E+00
  1.80000000E+02  2.00000000E+02  0.00000000E+00
  1.80000000E+02  1.80000000E+02  0.00000000E+00
  1.80000000E+02  1.60000000E+02  0.00000000E+00
  1.80000000E+02  1.40000000E+02  0.00000000E+00
  1.80000000E+02  1.20000000E+02  0.00000000E+00
  1.80000000E+02  1.00000000E+02  0.00000000E+00
  1.80000000E+02  8.00000000E+01  0.00000000E+00
  1.80000000E+02  6.00000000E+01  0.00000000E+00
  1.80000000E+02  4.00000000E+01  0.00000000E+00
  1.80000000E+02  2.00000000E+01  0.00000000E+00
  1.80000000E+02  4.99600361E-14  0.00000000E+00
  2.00000000E+02  3.00000000E+02  0.00000000E+00
  2.00000000E+02  2.80000000E+02  0.00000000E+00
  2.00000000E+02  2.60000000E+02  0.00000000E+00
  2.00000000E+02  2.40000000E+02  0.00000000E+00
  2.00000000E+02  2.20000000E+02  0.00000000E+00
  2.00000000E+02  2.00000000E+02  0.00000000E+00
  2.00000000E+02  1.80000000E+02  0.00000000E+00
  2.00000000E+02  1.60000000E+02  0.00000000E+00
  2.00000000E+02  1.40000000E+02  0.00000000E+00
  2.00000000E+02  1.20000000E+02  0.00000000E+00
  2.00000000E+02  1.00000000E+02  0.00000000E+00
  2.00000000E+02  8.00000000E+01  0.00000000E+00
  2.00000000E+02  6.00000000E+01  0.00000000E+00
  2.00000000E+02  4.00000000E+01  0.00000000E+00
  2.00000000E+02  2.00000000E+01  0.00000000E+00
  2.00000000E+02  4.99600361E-14  0.00000000E+00
  2.20000000E+02  3.00000000E+02  0.00000000E+00
  2.20000000E+02  2.80000000E+02  0.00000000E+00
  2.20000000E+02  2.60000000E+02  0.00000000E+00
  2.20000000E+02  2.40000000E+02  0.00000000E+00
  2.20000000E+02  2.20000000E+02  0.00000000E+00
  2.20000000E+02  2.00000000E+02  0.00000000E+00
  2.20000000E+02  1.80000000E+02  0.00000000E+00
  2.20000000E+02  1.60000000E+02  0.00000000E+00
  2.20000000E+02  1.40000000E+02  0.00000000E+00
  2.20000000E+02  1.20000000E+02  0.00000000E+00
  2.20000000E+02  1.00000000E+02  0.00000000E+00
  2.20000000E+02  8.00000000E+01  0.00000000E+00
  2.20000000E+02  6.00000000E+01  0.00000000E+00
  2.20000000E+02  4.00000000E+01  0.00000000E+00
  2.20000000E+02  2.00000000E+01  0.00000000E+00
  2.20000000E+02  4.99600361E-14  0.00000000E+00
  2.40000000E+02  3.00000000E+02  0.00000000E+00
  2.40000000E+02  2.80000000E+02  0.00000000E+00
  2.40000000E+02  2.60000000E+02  0.00000000E+00
  2.40000000E+02  2.40000000E+02  0.00000000E+00
  2.40000000E+02  2.20000000E+02  0.00000000E+00
  2.40000000E+02  2.00000000E+02  0.00000000E+00
  2.40000000E+02  1.80000000E+02  0.00000000E+00
  2.40000000E+02  1.60000000E+02  0.00000000E+00
  2.40000000E+02  1.40000000E+02  0.00000000E+00
  2.40000000E+02  1.20000000E+02  0.00000000E+00
  2.40000000E+02  1.00000000E+02  0.00000000E+00
  2.40000000E+02  8.00000000E+01  0.00000000E+00
  2.40000000E+02  6.00000000E+01  0.00000000E+00
  2.40000000E+02  4.00000000E+01  0.00000000E+00
  2.40000000E+02  2.00000000E+01  0.00000000E+00
  2.40000000E+02  4.99600361E-14  0.00000000E+00
  2.60000000E+02  3.00000000E+02  0.00000000E+00
  2.60000000E+02  2.80000000E+02  0.00000000E+00
  2.60000000E+02  2.60000000E+02  0.00000000E+00
  2.60000000E+02  2.40000000E+02  0.00000000E+00
  2.60000000E+02  2.20000000E+02  0.00000000E+00
  2.60000000E+02  2.00000000E+02  0.00000000E+00
  2.60000000E+02  1.80000000E+02  0.00000000E+00
  2.60000000E+02  1.60000000E+02  0.00000000E+00
  2.60000000E+02  1.40000000E+02  0.00000000E+00
  2.60000000E+02  1.20000000E+02  0.00000000E+00
  2.60000000E+02  1.00000000E+02  0.00000000E+00
  2.60000000E+02  8.00000000E+01  0.00000000E+00
  2.60000000E+02  6.00000000E+01  0.00000000E+00
  2.60000000E+02  4.00000000E+01  0.00000000E+00
  2.60000000E+02  2.00000000E+01  0.00000000E+00
  2.60000000E+02  4.99600361E-14  0.00000000E+00
  2.80000000E+02  3.00000000E+02  0.00000000E+00
  2.80000000E+02  2.80000000E+02  0.00000000E+00
  2.80000000E+02  2.60000000E+02  0.00000000E+00
  2.80000000E+02  2.40000000E+02  0.00000000E+00
  2.80000000E+02  2.20000000E+02  0.00000000E+00
  2.80000000E+02  2.00000000E+02  0.00000000E+00
  2.80000000E+02  1.80000000E+02  0.00000000E+00
  2.80000000E+02  1.60000000E+02  0.00000000E+00
  2.80000000E+02  1.40000000E+02  0.00000000E+00
  2.80000000E+02  1.20000000E+02  0.00000000E+00
  2.80000000E+02  1.00000000E+02  0.00000000E+00
  2.80000000E+02  8.00000000E+01  0.00000000E+00
  2.80000000E+02  6.00000000E+01  0.00000000E+00
  2.80000000E+02  4.00000000E+01  0.00000000E+00
  2.80000000E+02  2.00000000E+01  0.00000000E+00
  2.80000000E+02  4.99600361E-14  0.00000000E+00
  3.00000000E+02  3.00000000E+02  0.00000000E+00
  3.00000000E+02  2.80000000E+02  0.00000000E+00
  3.00000000E+02  2.60000000E+02  0.00000000E+00
  3.00000000E+02  2.40000000E+02  0.00000000E+00
  3.00000000E+02  2.20000000E+02  0.00000000E+00
  3.00000000E+02  2.00000000E+02  0.00000000E+00
  3.00000000E+02  1.80000000E+02  0.00000000E+00
  3.00000000E+02  1.60000000E+02  0.00000000E+00
  3.00000000E+02  1.40000000E+02  0.00000000E+00
  3.00000000E+02  1.20000000E+02  0.00000000E+00
  3.00000000E+02  1.00000000E+02  0.00000000E+00
  3.00000000E+02  8.00000000E+01  0.00000000E+00
  3.00000000E+02  6.00000000E+01  0.00000000E+00
  3.00000000E+02  4.00000000E+01  0.00000000E+00
  3.00000000E+02  2.00000000E+01  0.00000000E+00
  3.00000000E+02  4.99600361E-14  0.00000000E+00
  3.20000000E+02  3.00000000E+02  0.00000000E+00
  3.20000000E+02  2.80000000E+02  0.00000000E+00
  3.20000000E+02  2.60000000E+02  0.00000000E+00
  3.20000000E+02  2.40000000E+02  0.00000000E+00
  3.20000000E+02  2.20000000E+02  0.00000000E+00
  3.20000000E+02  2.00000000E+02  0.00000000E+00
  3.20000000E+02  1.80000000E+02  0.00000000E+00
  3.20000000E+02  1.60000000E+02  0.00000000E+00
  3.20000000E+02  1.40000000E+02  0.00000000E+00
  3.20000000E+02  1.20000000E+02  0.00000000E+00
  3.20000000E+02  1.00000000E+02  0.00000000E+00
  3.20000000E+02  8.00000000E+01  0.00000000E+00
  3.20000000E+02  6.00000000E+01  0.00000000E+00
  3.20000000E+02  4.00000000E+01  0.00000000E+00
  3.20000000E+02  2.00000000E+01  0.00000000E+00
  3.20000000E+02  4.99600361E-14  0.00000000E+00
  3.40000000E+02  3.00000000E+02  0.00000000E+00
  3.40000000E+02  2.80000000E+02  0.00000000E+00
  3.40000000E+02  2.60000000E+02  0.00000000E+00
  3.40000000E+02  2.40000000E+02  0.00000000E+00
  3.40000000E+02  2.20000000E+02  0.00000000E+00
  3.40000000E+02  2.00000000E+02  0.00000000E+00
  3.40000000E+02  1.80000000E+02  0.00000000E+00
  3.40000000E+02  1.60000000E+02  0.00000000E+00
  3.40000000E+02  1.40000000E+02  0.00000000E+00
  3.40000000E+02  1.20000000E+02  0.00000000E+00
  3.40000000E+02  1.00000000E+02  0.00000000E+00
  3.40000000E+02  8.00000000E+01  0.00000000E+00
  3.40000000E+02  6.00000000E+01  0.00000000E+00
  3.40000000E+02  4.00000000E+01  0.00000000E+00
  3.40000000E+02  2.00000000E+01  0.00000000E+00
  3.40000000E+02  4.99600361E-14  0.00000000E+00
  3.60000000E+02  3.00000000E+02  0.00000000E+00
  3.60000000E+02  2.80000000E+02  0.00000000E+00
  3.60000000E+02  2.60000000E+02  0.00000000E+00
  3.60000000E+02  2.40000000E+02  0.00000000E+00
  3.60000000E+02  2.20000000E+02  0.00000000E+00
  3.60000000E+02  2.00000000E+02  0.00000000E+00
  3.60000000E+02  1.80000000E+02  0.00000000E+00
  3.60000000E+02  1.60000000E+02  0.00000000E+00
  3.60000000E+02  1.40000000E+02  0.00000000E+00
  3.60000000E+02  1.20000000E+02  0.00000000E+00
  3.60000000E+02  1.00000000E+02  0.00000000E+00
  3.60000000E+02  8.00000000E+01  0.00000000E+00
  3.60000000E+02  6.00000000E+01  0.00000000E+00
  3.60000000E+02  4.00000000E+01  0.00000000E+00
  3.60000000E+02  2.00000000E+01  0.00000000E+00
  3.60000000E+02  4.99600361E-14  0.00000000E+00
  3.80000000E+02  3.00000000E+02  0.00000000E+00
  3.80000000E+02  2.80000000E+02  0.00000000E+00
  3.80000000E+02  2.60000000E+02  0.00000000E+00
  3.80000000E+02  2.40000000E+02  0.00000000E+00
  3.80000000E+02  2.20000000E+02  0.00000000E+00
  3.80000000E+02  2.00000000E+02  0.00000000E+00
  3.80000000E+02  1.80000000E+02  0.00000000E+00
  3.80000000E+02  1.60000000E+02  0.00000000E+00
  3.80000000E+02  1.40000000E+02  0.00000000E+00
  3.80000000E+02  1.20000000E+02  0.00000000E+00
  3.80000000E+02  1.00000000E+02  0.00000000E+00
  3.80000000E+02  8.00000000E+01  0.00000000E+00
  3.80000000E+02  6.00000000E+01  0.00000000E+00
  3.80000000E+02  4.00000000E+01  0.00000000E+00
  3.80000000E+02  2.00000000E+01  0.00000000E+00
  3.80000000E+02  4.99600361E-14  0.00000000E+00
  4.00000000E+02  3.00000000E+02  0.00000000E+00
  4.00000000E+02  2.80000000E+02  0.00000000E+00
  4.00000000E+02  2.60000000E+02  0.00000000E+00
  4.00000000E+02  2.40000000E+02  0.00000000E+00
  4.00000000E+02  2.20000000E+02  0.00000000E+00
  4.00000000E+02  2.00000000E+02  0.00000000E+00
  4.00000000E+02  1.80000000E+02  0.00000000E+00
  4.00000000E+02  1.60000000E+02  0.00000000E+00
  4.00000000E+02  1.40000000E+02  0.00000000E+00
  4.00000000E+02  1.20000000E+02  0.00000000E+00
  4.00000000E+02  1.00000000E+02  0.00000000E+00
  4.00000000E+02  8.00000000E+01  0.00000000E+00
  4.00000000E+02  6.00000000E+01  0.00000000E+00
  4.00000000E+02  4.00000000E+01  0.00000000E+00
  4.00000000E+02  2.00000000E+01  0.00000000E+00
  4.00000000E+02  4.99600361E-14  0.00000000E+00
  4.20000000E+02  3.00000000E+02  0.00000000E+00
  4.20000000E+02  2.80000000E+02  0.00000000E+00
  4.20000000E+02  2.60000000E+02  0.00000000E+00
  4.20000000E+02  2.40000000E+02  0.00000000E+00
  4.20000000E+02  2.20000000E+02  0.00000000E+00
  4.20000000E+02  2.00000000E+02  0.00000000E+00
  4.20000000E+02  1.80000000E+02  0.00000000E+00
  4.20000000E+02  1.60000000E+02  0.00000000E+00
  4.20000000E+02  1.40000000E+02  0.00000000E+00
  4.20000000E+02  1.20000000E+02  0.00000000E+00
  4.20000000E+02  1.00000000E+02  0.00000000E+00
  4.20000000E+02  8.00000000E+01  0.00000000E+00
  4.20000000E+02  6.00000000E+01  0.00000000E+00
  4.20000000E+02  4.00000000E+01  0.00000000E+00
  4.20000000E+02  2.00000000E+01  0.00000000E+00
  4.20000000E+02  4.99600361E-14  0.00000000E+00
  4.40000000E+02  3.00000000E+02  0.00000000E+00
  4.40000000E+02  2.80000000E+02  0.00000000E+00
  4.40000000E+02  2.60000000E+02  0.00000000E+00
  4.40000000E+02  2.40000000E+02  0.00000000E+00
  4.40000000E+02  2.20000000E+02  0.00000000E+00
  4.40000000E+02  2.00000000E+02  0.00000000E+00
  4.40000000E+02  1.80000000E+02  0.00000000E+00
  4.40000000E+02  1.60000000E+02  0.00000000E+00
  4.40000000E+02  1.40000000E+02  0.00000000E+00
  4.40000000E+02  1.20000000E+02  0.00000000E+00
  4.40000000E+02  1.00000000E+02  0.00000000E+00
  4.40000000E+02  8.00000000E+01  0.00000000E+00
  4.40000000E+02  6.00000000E+01  0.00000000E+00
  4.40000000E+02  4.00000000E+01  0.00000000E+00
  4.40000000E+02  2.00000000E+01  0.00000000E+00
  4.40000000E+02  4.99600361E-14  0.00000000E+00
  4.60000000E+02  3.00000000E+02  0.00000000E+00
  4.60000000E+02  2.80000000E+02  0.00000000E+00
  4.60000000E+02  2.60000000E+02  0.00000000E+00
  4.60000000E+02  2.40000000E+02  0.00000000E+00
  4.60000000E+02  2.20000000E+02  0.00000000E+00
  4.60000000E+02  2.00000000E+02  0.00000000E+00
  4.60000000E+02  1.80000000E+02  0.00000000E+00
  4.60000000E+02  1.60000000E+02  0.00000000E+00
  4.60000000E+02  1.40000000E+02  0.00000000E+00
  4.60000000E+02  1.20000000E+02  0.00000000E+00
  4.60000000E+02  1.00000000E+02  0.00000000E+00
  4.60000000E+02  8.00000000E+01  0.00000000E+00
  4.60000000E+02  6.00000000E+01  0.00000000E+00
  4.60000000E+02  4.00000000E+01  0.00000000E+00
  4.60000000E+02  2.00000000E+01  0.00000000E+00
  4.60000000E+02  4.99600361E-14  0.00000000E+00
  4.80000000E+02  3.00000000E+02  0.00000000E+00
  4.80000000E+02  2.80000000E+02  0.00000000E+00
  4.80000000E+02  2.60000000E+02  0.00000000E+00
  4.80000000E+02  2.40000000E+02  0.00000000E+00
  4.80000000E+02  2.20000000E+02  0.00000000E+00
  4.80000000E+02  2.00000000E+02  0.00000000E+00
  4.80000000E+02  1.80000000E+02  0.00000000E+00
  4.80000000E+02  1.60000000E+02  0.00000000E+00
  4.80000000E+02  1.40000000E+02  0.00000000E+00
  4.80000000E+02  1.20000000E+02  0.00000000E+00
  4.80000000E+02  1.00000000E+02  0.00000000E+00
  4.80000000E+02  8.00000000E+01  0.00000000E+00
  4.80000000E+02  6.00000000E+01  0.00000000E+00
  4.80000000E+02  4.00000000E+01  0.00000000E+00
  4.80000000E+02  2.00000000E+01  0.00000000E+00
  4.80000000E+02  4.99600361E-14  0.00000000E+00
  5.00000000E+02  3.00000000E+02  0.00000000E+00
  5.00000000E+02  2.80000000E+02  0.00000000E+00
  5.00000000E+02  2.60000000E+02  0.00000000E+00
  5.00000000E+02  2.40000000E+02  0.00000000E+00
  5.00000000E+02  2.20000000E+02  0.00000000E+00
  5.00000000E+02  2.00000000E+02  0.00000000E+00
  5.00000000E+02  1.80000000E+02  0.00000000E+00
  5.00000000E+02  1.60000000E+02  0.00000000E+00
  5.00000000E+02  1.40000000E+02  0.00000000E+00
  5.00000000E+02  1.20000000E+02  0.00000000E+00
  5.00000000E+02  1.00000000E+02  0.00000000E+00
  5.00000000E+02  8.00000000E+01  0.00000000E+00
  5.00000000E+02  6.00000000E+01  0.00000000E+00
  5.00000000E+02  4.00000000E+01  0.00000000E+00
  5.00000000E+02  2.00000000E+01  0.00000000E+00
  5.00000000E+02  4.99600361E-14  0.00000000E+00
  5.20000000E+02  3.00000000E+02  0.00000000E+00
  5.20000000E+02  2.80000000E+02  0.00000000E+00
  5.20000000E+02  2.60000000E+02  0.00000000E+00
  5.20000000E+02  2.40000000E+02  0.00000000E+00
  5.20000000E+02  2.20000000E+02  0.00000000E+00
  5.20000000E+02  2.00000000E+02  0.00000000E+00
  5.20000000E+02  1.80000000E+02  0.00000000E+00
  5.20000000E+02  1.60000000E+02  0.00000000E+00
  5.20000000E+02  1.40000000E+02  0.00000000E+00
  5.20000000E+02  1.20000000E+02  0.00000000E+00
  5.20000000E+02  1.00000000E+02  0.00000000E+00
  5.20000000E+02  8.00000000E+01  0.00000000E+00
  5.20000000E+02  6.00000000E+01  0.00000000E+00
  5.20000000E+02  4.00000000E+01  0.00000000E+00
  5.20000000E+02  2.00000000E+01  0.00000000E+00
  5.20000000E+02  4.99600361E-14  0.00000000E+00
  5.40000000E+02  3.00000000E+02  0.00000000E+00
  5.40000000E+02  2.80000000E+02  0.00000000E+00
  5.40000000E+02  2.60000000E+02  0.00000000E+00
  5.40000000E+02  2.40000000E+02  0.00000000E+00
  5.40000000E+02  2.20000000E+02  0.00000000E+00
  5.40000000E+02  2.00000000E+02  0.00000000E+00
  5.40000000E+02  1.80000000E+02  0.00000000E+00
  5.40000000E+02  1.60000000E+02  0.00000000E+00
  5.40000000E+02  1.40000000E+02  0.00000000E+00
  5.40000000E+02  1.20000000E+02  0.00000000E+00
  5.40000000E+02  1.00000000E+02  0.00000000E+00
  5.40000000E+02  8.00000000E+01  0.00000000E+00
  5.40000000E+02  6.00000000E+01  0.00000000E+00
  5.40000000E+02  4.00000000E+01  0.00000000E+00
  5.40000000E+02  2.00000000E+01  0.00000000E+00
  5.40000000E+02  4.99600361E-14  0.00000000E+00
  5.60000000E+02  3.00000000E+02  0.00000000E+00
  5.60000000E+02  2.80000000E+02  0.00000000E+00
  5.60000000E+02  2.60000000E+02  0.00000000E+00
  5.60000000E+02  2.40000000E+02  0.00000000E+00
  5.60000000E+02  2.20000000E+02  0.00000000E+00
  5.60000000E+02  2.00000000E+02  0.00000000E+00
  5.60000000E+02  1.80000000E+02  0.00000000E+00
  5.60000000E+02  1.60000000E+02  0.00000000E+00
  5.60000000E+02  1.40000000E+02  0.00000000E+00
  5.60000000E+02  1.20000000E+02  0.00000000E+00
  5.60000000E+02  1.00000000E+02  0.00000000E+00
  5.60000000E+02  8.00000000E+01  0.00000000E+00
  5.60000000E+02  6.00000000E+01  0.00000000E+00
  5.60000000E+02  4.00000000E+01  0.00000000E+00
  5.60000000E+02  2.00000000E+01  0.00000000E+00
  5.60000000E+02  4.99600361E-14  0.00000000E+00
  5.80000000E+02  3.00000000E+02  0.00000000E+00
  5.80000000E+02  2.80000000E+02  0.00000000E+00
  5.80000000E+02  2.60000000E+02  0.00000000E+00
  5.80000000E+02  2.40000000E+02  0.00000000E+00
  5.80000000E+02  2.20000000E+02  0.00000000E+00
  5.80000000E+02  2.00000000E+02  0.00000000E+00
  5.80000000E+02  1.80000000E+02  0.00000000E+00
  5.80000000E+02  1.60000000E+02  0.00000000E+00
  5.80000000E+02  1.40000000E+02  0.00000000E+00
  5.80000000E+02  1.20000000E+02  0.00000000E+00
  5.80000000E+02  1.00000000E+02  0.00000000E+00
  5.80000000E+02  8.00000000E+01  0.00000000E+00
  5.80000000E+02  6.00000000E+01  0.00000000E+00
  5.80000000E+02  4.00000000E+01  0.00000000E+00
  5.80000000E+02  2.00000000E+01  0.00000000E+00
  5.80000000E+02  4.99600361E-14  0.00000000E+00
  6.00000000E+02  3.00000000E+02  0.00000000E+00
  6.00000000E+02  2.80000000E+02  0.00000000E+00
  6.00000000E+02  2.60000000E+02  0.00000000E+00
  6.00000000E+02  2.40000000E+02  0.00000000E+00
  6.00000000E+02  2.20000000E+02  0.00000000E+00
  6.00000000E+02  2.00000000E+02  0.00000000E+00
  6.00000000E+02  1.80000000E+02  0.00000000E+00
  6.00000000E+02  1.60000000E+02  0.00000000E+00
  6.00000000E+02  1.40000000E+02  0.00000000E+00
  6.00000000E+02  1.20000000E+02  0.00000000E+00
  6.00000000E+02  1.00000000E+02  0.00000000E+00
  6.00000000E+02  8.00000000E+01  0.00000000E+00
  6.00000000E+02  6.00000000E+01  0.00000000E+00
  6.00000000E+02  4.00000000E+01  0.00000000E+00
  6.00000000E+02  2.00000000E+01  0.00000000E+00
  6.00000000E+02  4.99600361E-14  0.00000000E+00
CELLS       450      2250
         4           0           1          17          16
         4           1           2          18          17
         4           2           3          19          18
         4           3           4          20          19
         4           4           5          21          20
         4           5           6          22          21
         4           6           7          23          22
         4           7           8          24          23
         4           8           9          25          24
         4           9          10          26          25
         4          10          11          27          26
         4          11          12          28          27
         4          12          13          29          28
         4          13          14          30          29
         4          14          15          31          30
         4          16          17          33          32
         4          17          18          34          33
         4          18          19          35          34
         4          19          20          36          35
         4          20          21          37          36
         4          21          22          38          37
         4          22          23          39          38
         4          23          24          40          39
         4          24          25          41          40
         4          25          26          42          41
         4          26          27          43          42
         4          27          28          44          43
         4          28          29          45          44
         4          29          30          46          45
         4          30          31          47          46
         4          32          33          49          48
         4          33          34          50          49
         4          34          35          51          50
         4          35          36          52          51
         4          36          37          53          52
         4          37          38          54          53
         4          38          39          55          54
         4          39          40          56          55
         4          40          41          57          56
         4          41          42          58          57
         4          42          43          59          58
         4          43          44          60          59
         4          44          45          61          60
         4          45          46          62          61
         4          46          47          63          62
         4          48          49          65          64
         4          49          50          66          65
         4          50          51          67          66
         4          51          52          68          67
         4          52          53          69          68
         4          53          54          70          69
         4          54          55          71          70
         4          55          56          72          71
         4          56          57          73          72
         4          57          58          74          73
         4          58          59          75          74
         4          59          60          76          75
         4          60          61          77          76
         4          61          62          78          77
         4          62          63          79          78
         4          64          65          81          80
         4          65          66          82          81
         4          66          67          83          82
         4          67          68          84          83
         4          68          69          85          84
         4          69          70          86          85
         4          70          71          87          86
         4          71          72          88          87
         4          72          73          89          88
         4          73          74          90          89
         4          74          75          91          90
         4          75          76          92          91
         4          76          77          93          92
         4          77          78          94          93
         4          78          79          95          94
         4          80          81          97          96
         4          81          82          98          97
         4          82          83          99          98
         4          83          84         100          99
         4          84          85         101         100
         4          85          86         102         101
         4          86          87         103         102
         4          87          88         104         103
         4          88          89         105         104
         4          89          90         106         105
         4          90          91         107         106
         4          91          92         108         107
         4          92          93         109         108
         4          93          94         110         109
         4          94          95         111         110
         4          96          97         113         112
         4          97          98         114         113
         4          98          99         115         114
         4          99         100         116         115
         4         100         101         117         116
         4         101         102         118         117
         4         102         103         119         118
         4         103         104         120         119
         4         104         105         121         120
         4         105         106         122         121
         4         106         107         123         122
         4         107         108         124         123
         4         108         109         125         124
         4         109         110         126         125
         4         110         111         127         126
         4         112         113         129         128
         4         113         114         130         129
         4         114         115         131         130
         4         115         116         132         131
         4         116         117         133         132
         4         117         118         134         133
         4         118         119         135         134
         4         119         120         136         135
         4         120         121         137         136
         4         121         122         138         137
         4         122         123         139         138
         4         123         124         140         139
         4         124         125         141         140
         4         125         126         142         141
         4         126         127         143         142
         4         128         129         145         144
         4         129         130         146         145
         4         130         131         147         146
         4         131         132         148         147
         4         132         133         149         148
         4         133         134         150         149
         4         134         135         151         150
         4         135         136         152         151
         4         136         137         153         152
         4         137         138         154         153
         4         138         139         155         154
         4         139         140         156         155
         4         140         141         157         156
         4         141         142         158         157
         4         142         143         159         158
         4         144         145         161         160
         4         145         146         162         161
         4         146         147         163         162
         4         147         148         164         163
         4         148         149         165         164
         4         149         150         166         165
         4         150         151         167         166
         4         151         152         168         167
         4         152         153         169         168
         4         153         154         170         169
         4         154         155         171         170
         4         155         156         172         171
         4         156         157         173         172
         4         157         158         174         173
         4         158         159         175         174
         4         160         161         177         176
         4         161         162         178         177
         4         162         163         179         178
         4         163         164         180         179
         4         164         165         181         180
         4         165         166         182         181
         4         166         167         183         182
         4         167         168         184         183
         4         168         169         185         184
         4         169         170         186         185
         4         170         171         187         186
         4         171         172         188         187
         4         172         173         189         188
         4         173         174         190         189
         4         174         175         191         190
         4         176         177         193         192
         4         177         178         194         193
         4         178         179         195         194
         4         179         180         196         195
         4         180         181         197         196
         4         181         182         198         197
         4         182         183         199         198
         4         183         184         200         199
         4         184         185         201         200
         4         185         186         202         201
         4         186         187         203         202
         4         187         188         204         203
         4         188         189         205         204
         4         189         190         206         205
         4         190         191         207         206
         4         192         193         209         208
         4         193         194         210         209
         4         194         195         211         210
         4         195         196         212         211
         4         196         197         213         212
         4         197         198         214         213
         4         198         199         215         214
         4         199         200         216         215
         4         200         201         217         216
         4         201         202         218         217
         4         202         203         219         218
         4         203         204         220         219
         4         204         205         221         220
         4         205         206         222         221
         4         206         207         223         222
         4         208         209         225         224
         4         209         210         226         225
         4         210         211         227         226
         4         211         212         228         227
         4         212         213         229         228
         4         213         214         230         229
         4         214         215         231         230
         4         215         216         232         231
         4         216         217         233         232
         4         217         218         234         233
         4         218         219         235         234
         4         219         220         236         235
         4         220         221         237         236
         4         221         222         238         237
         4         222         223         239         238
         4         224         225         241         240
         4         225         226         242         241
         4         226         227         243         242
         4         227         228         244         243
         4         228         229         245         244
         4         229         230         246         245
         4         230         231         247         246
         4         231         232         248         247
         4         232         233         249         248
         4         233         234         250         249
         4         234         235         251         250
         4         235         236         252         251
         4         236         237         253         252
         4         237         238         254         253
         4         238         239         255         254
         4         240         241         257         256
         4         241         242         258         257
         4         242         243         259         258
         4         243         244         260         259
         4         244         245         261         260
         4         245         246         262         261
         4         246         247         263         262
         4         247         248         264         263
         4         248         249         265         264
         4         249         250         266         265
         4         250         251         267         266
         4         251         252         268         267
         4         252         253         269         268
         4         253         254         270         269
         4         254         255         271         270
         4         256         257         273         272
         4         257         258         274         273
         4         258         259         275         274
         4         259         260         276         275
         4         260         261         277         276
         4         261         262         278         277
         4         262         263         279         278
         4         263         264         280         279
         4         264         265         281         280
         4         265         266         282         281
         4         266         267         283         282
         4         267         268         284         283
         4         268         269         285         284
         4         269         270         286         285
         4         270         271         287         286
         4         272         273         289         288
         4         273         274         290         289
         4         274         275         291         290
         4         275         276         292         291
         4         276         277         293         292
         4         277         278         294         293
         4         278         279         295         294
         4         279         280         296         295
         4         280         281         297         296
         4         281         282         298         297
         4         282         283         299         298
         4         283         284         300         299
         4         284         285         301         300
         4         285         286         302         301
         4         286         287         303         302
         4         288         289         305         304
         4         289         290         306         305
         4         290         291         307         306
         4         291         292         308         307
         4         292         293         309         308
         4         293         294         310         309
         4         294         295         311         310
         4         295         296         312         311
         4         296         297         313         312
         4         297         298         314         313
         4         298         299         315         314
         4         299         300         316         315
         4         300         301         317         316
         4         301         302         318         317
         4         302         303         319         318
         4         304         305         321         320
         4         305         306         322         321
         4         306         307         323         322
         4         307         308         324         323
         4         308         309         325         324
         4         309         310         326         325
         4         310         311         327         326
         4         311         312         328         327
         4         312         313         329         328
         4         313         314         330         329
         4         314         315         331         330
         4         315         316         332         331
         4         316         317         333         332
         4         317         318         334         333
         4         318         319         335         334
         4         320         321         337         336
         4         321         322         338         337
         4         322         323         339         338
         4         323         324         340         339
         4         324         325         341         340
         4         325         326         342         341
         4         326         327         343         342
         4         327         328         344         343
         4         328         329         345         344
         4         329         330         346         345
         4         330         331         347         346
         4         331         332         348         347
         4         332         333         349         348
         4         333         334         350         349
         4         334         335         351         350
         4         336         337         353         352
         4         337         338         354         353
         4         338         339         355         354
         4         339         340         356         355
         4         340         341         357         356
         4         341         342         358         357
         4         342         343         359         358
         4         343         344         360         359
         4         344         345         361         360
         4         345         346         362         361
         4         346         347         363         362
         4         347         348         364         363
         4         348         349         365         364
         4         349         350         366         365
         4         350         351         367         366
         4         352         353         369         368
         4         353         354         370         369
         4         354         355         371         370
         4         355         356         372         371
         4         356         357         373         372
         4         357         358         374         373
         4         358         359         375         374
         4         359         360         376         375
         4         360         361         377         376
         4         361         362         378         377
         4         362         363         379         378
         4         363         364         380         379
         4         364         365         381         380
         4         365         366         382         381
         4         366         367         383         382
         4         368         369         385         384
         4         369         370         386         385
         4         370         371         387         386
         4         371         372         388         387
         4         372         373         389         388
         4         373         374         390         389
         4         374         375         391         390
         4         375         376         392         391
         4         376         377         393         392
         4         377         378         394         393
         4         378         379         395         394
         4         379         380         396         395
         4         380         381         397         396
         4         381         382         398         397
         4         382         383         399         398
         4         384         385         401         400
         4         385         386         402         401
         4         386         387         403         402
         4         387         388         404         403
         4         388         389         405         404
         4         389         390         406         405
         4         390         391         407         406
         4         391         392         408         407
         4         392         393         409         408
         4         393         394         410         409
         4         394         395         411         410
         4         395         396         412         411
         4         396         397         413         412
         4         397         398         414         413
         4         398         399         415         414
         4         400         401         417         416
         4         401         402         418         417
         4         402         403         419         418
         4         403         404         420         419
         4         404         405         421         420
         4         405         406         422         421
         4         406         407         423         422
         4         407         408         424         423
         4         408         409         425         424
         4         409         410         426         425
         4         410         411         427         426
         4         411         412         428         427
         4         412         413         429         428
         4         413         414         430         429
         4         414         415         431         430
         4         416         417         433         432
         4         417         418         434         433
         4         418         419         435         434
         4         419         420         436         435
         4         420         421         437         436
         4         421         422         438         437
         4         422         423         439         438
         4         423         424         440         439
         4         424         425         441         440
         4         425         426         442         441
         4         426         427         443         442
         4         427         428         444         443
         4         428         429         445         444
         4         429         430         446         445
         4         430         431         447         446
         4         432         433         449         448
         4         433         434         450         449
         4         434         435         451         450
         4         435         436         452         451
         4         436         437         453         452
         4         437         438         454         453
         4         438         439         455         454
         4         439         440         456         455
         4         440         441         457         456
         4         441         442         458         457
         4         442         443         459         458
         4         443         444         460         459
         4         444         445         461         460
         4         445         446         462         461
         4         446         447         463         462
         4         448         449         465         464
         4         449         450         466         465
         4         450         451         467         466
         4         451         452         468         467
         4         452         453         469         468
         4         453         454         470         469
         4         454         455         471         470
         4         455         456         472         471
         4         456         457         473         472
         4         457         458         474         473
         4         458         459         475         474
         4         459         460         476         475
         4         460         461         477         476
         4         461         462         478         477
         4         462         463         479         478
         4         464         465         481         480
         4         465         466         482         481
         4         466         467         483         482
         4         467         468         484         483
         4         468         469         485         484
         4         469         470         486         485
         4         470         471         487         486
         4         471         472         488         487
         4         472         473         489         488
         4         473         474         490         489
         4         474         475         491         490
         4         475         476         492         491
         4         476         477         493         492
         4         477         478         494         493
         4         478         479         495         494
CELL_TYPES        450
9
9
9
9
9
9
9
9
9
9
9
9
9
9
9
9
9
9
9
9
9
9
9
9
9
9
9
9
9
9
9
9
9
9
9
9
9
9
9
9
9
9
9
9
9
9
9
9
9
9
9
9
9
9
9
9
9
9
9
9
9
9
9
9
9
9
9
9
9
9
9
9
9
9
9
9
9
9
9
9
9
9
9
9
9
9
9
9
9
9
9
9
9
9
9
9
9
9
9
9
9
9
9
9
9
9
9
9
9
9
9
9
9
9
9
9
9
9
9
9
9
9
9
9
9
9
9
9
9
9
9
9
9
9
9
9
9
9
9
9
9
9
9
9
9
9
9
9
9
9
9
9
9
9
9
9
9
9
9
9
9
9
9
9
9
9
9
9
9
9
9
9
9
9
9
9
9
9
9
9
9
9
9
9
9
9
9
9
9
9
9
9
9
9
9
9
9
9
9
9
9
9
9
9
9
9
9
9
9
9
9
9
9
9
9
9
9
9
9
9
9
9
9
9
9
9
9
9
9
9
9
9
9
9
9
9
9
9
9
9
9
9
9
9
9
9
9
9
9
9
9
9
9
9
9
9
9
9
9
9
9
9
9
9
9
9
9
9
9
9
9
9
9
9
9
9
9
9
9
9
9
9
9
9
9
9
9
9
9
9
9
9
9
9
9
9
9
9
9
9
9
9
9
9
9
9
9
9
9
9
9
9
9
9
9
9
9
9
9
9
9
9
9
9
9
9
9
9
9
9
9
9
9
9
9
9
9
9
9
9
9
9
9
9
9
9
9
9
9
9
9
9
9
9
9
9
9
9
9
9
9
9
9
9
9
9
9
9
9
9
9
9
9
9
9
9
9
9
9
9
9
9
9
9
9
9
9
9
9
9
9
9
9
9
9
9
9
9
9
9
9
9
9
9
9
9
9
9
9
9
9
9
9
9
9
9
9
9
9
9
9
9
9
9
9
9
9
9
9
9
9
9
9
9
9
9
9
9
9
9
9
9
9
9
9
9
9
9
9
9
POINT_DATA       496
SCALARS p double 
LOOKUP_TABLE default
   60000000.0000000     
   60000000.0000000     
   60000000.0000000     
   60000000.0000000     
   60000000.0000000     
   60000000.0000000     
   60000000.0000000     
   60000000.0000000     
   60000000.0000000     
   60000000.0000000     
   60000000.0000000     
   60000000.0000000     
   60000000.0000000     
   60000000.0000000     
   60000000.0000000     
   60000000.0000000     
   60000000.0000000     
   60000000.0000000     
   60000000.0000000     
   60000000.0000000     
   60000000.0000000     
   60000000.0000000     
   60000000.0000000     
   60000000.0000000     
   60000000.0000000     
   60000000.0000000     
   60000000.0000000     
   60000000.0000000     
   60000000.0000000     
   60000000.0000000     
   60000000.0000000     
   60000000.0000000     
   60000000.0000000     
   60000000.0000000     
   60000000.0000000     
   60000000.0000000     
   60000000.0000000     
   60000000.0000000     
   60000000.0000000     
   60000000.0000000     
   60000000.0000000     
   60000000.0000000     
   60000000.0000000     
   60000000.0000000     
   60000000.0000000     
   60000000.0000000     
   60000000.0000000     
   60000000.0000000     
   60000000.0000000     
   60000000.0000000     
   60000000.0000000     
   60000000.0000000     
   60000000.0000000     
   60000000.0000000     
   60000000.0000000     
   60000000.0000000     
   60000000.0000000     
   60000000.0000000     
   60000000.0000000     
   60000000.0000000     
   60000000.0000000     
   60000000.0000000     
   60000000.0000000     
   60000000.0000000     
   60000000.0000000     
   60000000.0000000     
   60000000.0000000     
   60000000.0000000     
   60000000.0000000     
   60000000.0000000     
   60000000.0000000     
   60000000.0000000     
   60000000.0000000     
   60000000.0000000     
   60000000.0000000     
   60000000.0000000     
   60000000.0000000     
   60000000.0000000     
   60000000.0000000     
   60000000.0000000     
   60000000.0000000     
   60000000.0000000     
   60000000.0000000     
   60000000.0000000     
   60000000.0000000     
   60000000.0000000     
   60000000.0000000     
   60000000.0000000     
   60000000.0000000     
   60000000.0000000     
   60000000.0000000     
   60000000.0000000     
   60000000.0000000     
   60000000.0000000     
   60000000.0000000     
   60000000.0000000     
   60000000.0000000     
   60000000.0000000     
   60000000.0000000     
   60000000.0000000     
   60000000.0000000     
   60000000.0000000     
   60000000.0000000     
   60000000.0000000     
   60000000.0000000     
   60000000.0000000     
   60000000.0000000     
   60000000.0000000     
   60000000.0000000     
   60000000.0000000     
   60000000.0000000     
   60000000.0000000     
   60000000.0000000     
   60000000.0000000     
   60000000.0000000     
   60000000.0000000     
   60000000.0000000     
   60000000.0000000     
   60000000.0000000     
   60000000.0000000     
   60000000.0000000     
   60000000.0000000     
   60000000.0000000     
   60000000.0000000     
   60000000.0000000     
   60000000.0000000     
   60000000.0000000     
   60000000.0000000     
   60000000.0000000     
   60000000.0000000     
   60000000.0000000     
   60000000.0000000     
   60000000.0000000     
   60000000.0000000     
   60000000.0000000     
   60000000.0000000     
   60000000.0000000     
   60000000.0000000     
   60000000.0000000     
   60000000.0000000     
   60000000.0000000     
   60000000.0000000     
   60000000.0000000     
   60000000.0000000     
   60000000.0000000     
   60000000.0000000     
   60000000.0000000     
   60000000.0000000     
   60000000.0000000     
   60000000.0000000     
   60000000.0000000     
   60000000.0000000     
   60000000.0000000     
   60000000.0000000     
   60000000.0000000     
   60000000.0000000     
   60000000.0000000     
   60000000.0000000     
   60000000.0000000     
   60000000.0000000     
   60000000.0000000     
   60000000.0000000     
   60000000.0000000     
   60000000.0000000     
   60000000.0000000     
   60000000.0000000     
   60000000.0000000     
   60000000.0000000     
   60000000.0000000     
   60000000.0000000     
   60000000.0000000     
   60000000.0000000     
   60000000.0000000     
   60000000.0000000     
   60000000.0000000     
   60000000.0000000     
   60000000.0000000     
   60000000.0000000     
   60000000.0000000     
   60000000.0000000     
   60000000.0000000     
   60000000.0000000     
   60000000.0000000     
   60000000.0000000     
   60000000.0000000     
   60000000.0000000     
   60000000.0000000     
   60000000.0000000     
   60000000.0000000     
   60000000.0000000     
   60000000.0000000     
   60000000.0000000     
   60000000.0000000     
   60000000.0000000     
   60000000.0000000     
   60000000.0000000     
   60000000.0000000     
   60000000.0000000     
   60000000.0000000     
   60000000.0000000     
   60000000.0000000     
   60000000.0000000     
   60000000.0000000     
   60000000.0000000     
   60000000.0000000     
   60000000.0000000     
   60000000.0000000     
   60000000.0000000     
   60000000.0000000     
   60000000.0000000     
   60000000.0000000     
   60000000.0000000     
   60000000.0000000     
   60000000.0000000     
   60000000.0000000     
   60000000.0000000     
   60000000.0000000     
   60000000.0000000     
   60000000.0000000     
   60000000.0000000     
   60000000.0000000     
   60000000.0000000     
   60000000.0000000     
   60000000.0000000     
   60000000.0000000     
   60000000.0000000     
   60000000.0000000     
   60000000.0000000     
   60000000.0000000     
   60000000.0000000     
   60000000.0000000     
   60000000.0000000     
   60000000.0000000     
   60000000.0000000     
   60000000.0000000     
   60000000.0000000     
   60000000.0000000     
   60000000.0000000     
   60000000.0000000     
   60000000.0000000     
   60000000.0000000     
   60000000.0000000     
   60000000.0000000     
   60000000.0000000     
   60000000.0000000     
   60000000.0000000     
   60000000.0000000     
   60000000.0000000     
   60000000.0000000     
   60000000.0000000     
   60000000.0000000     
   60000000.0000000     
   60000000.0000000     
   60000000.0000000     
   60000000.0000000     
   60000000.0000000     
   60000000.0000000     
   60000000.0000000     
   60000000.0000000     
   60000000.0000000     
   60000000.0000000     
   60000000.0000000     
   60000000.0000000     
   60000000.0000000     
   60000000.0000000     
   60000000.0000000     
   60000000.0000000     
   60000000.0000000     
   60000000.0000000     
   60000000.0000000     
   60000000.0000000     
   60000000.0000000     
   60000000.0000000     
   60000000.0000000     
   60000000.0000000     
   60000000.0000000     
   60000000.0000000     
   60000000.0000000     
   60000000.0000000     
   60000000.0000000     
   60000000.0000000     
   60000000.0000000     
   60000000.0000000     
   60000000.0000000     
   60000000.0000000     
   60000000.0000000     
   60000000.0000000     
   60000000.0000000     
   60000000.0000000     
   60000000.0000000     
   60000000.0000000     
   60000000.0000000     
   60000000.0000000     
   60000000.0000000     
   60000000.0000000     
   60000000.0000000     
   60000000.0000000     
   60000000.0000000     
   60000000.0000000     
   60000000.0000000     
   60000000.0000000     
   60000000.0000000     
   60000000.0000000     
   60000000.0000000     
   60000000.0000000     
   60000000.0000000     
   60000000.0000000     
   60000000.0000000     
   60000000.0000000     
   60000000.0000000     
   60000000.0000000     
   60000000.0000000     
   60000000.0000000     
   60000000.0000000     
   60000000.0000000     
   60000000.0000000     
   60000000.0000000     
   60000000.0000000     
   60000000.0000000     
   60000000.0000000     
   60000000.0000000     
   60000000.0000000     
   60000000.0000000     
   60000000.0000000     
   60000000.0000000     
   60000000.0000000     
   60000000.0000000     
   60000000.0000000     
   60000000.0000000     
   60000000.0000000     
   60000000.0000000     
   60000000.0000000     
   60000000.0000000     
   60000000.0000000     
   60000000.0000000     
   60000000.0000000     
   60000000.0000000     
   60000000.0000000     
   60000000.0000000     
   60000000.0000000     
   60000000.0000000     
   60000000.0000000     
   60000000.0000000     
   60000000.0000000     
   60000000.0000000     
   60000000.0000000     
   60000000.0000000     
   60000000.0000000     
   60000000.0000000     
   60000000.0000000     
   60000000.0000000     
   60000000.0000000     
   60000000.0000000     
   60000000.0000000     
   60000000.0000000     
   60000000.0000000     
   60000000.0000000     
   60000000.0000000     
   60000000.0000000     
   60000000.0000000     
   60000000.0000000     
   60000000.0000000     
   60000000.0000000     
   60000000.0000000     
   60000000.0000000     
   60000000.0000000     
   60000000.0000000     
   60000000.0000000     
   60000000.0000000     
   60000000.0000000     
   60000000.0000000     
   60000000.0000000     
   60000000.0000000     
   60000000.0000000     
   60000000.0000000     
   60000000.0000000     
   60000000.0000000     
   60000000.0000000     
   60000000.0000000     
   60000000.0000000     
   60000000.0000000     
   60000000.0000000     
   60000000.0000000     
   60000000.0000000     
   60000000.0000000     
   60000000.0000000     
   60000000.0000000     
   60000000.0000000     
   60000000.0000000     
   60000000.0000000     
   60000000.0000000     
   60000000.0000000     
   60000000.0000000     
   60000000.0000000     
   60000000.0000000     
   60000000.0000000     
   60000000.0000000     
   60000000.0000000     
   60000000.0000000     
   60000000.0000000     
   60000000.0000000     
   60000000.0000000     
   60000000.0000000     
   60000000.0000000     
   60000000.0000000     
   60000000.0000000     
   60000000.0000000     
   60000000.0000000     
   60000000.0000000     
   60000000.0000000     
   60000000.0000000     
   60000000.0000000     
   60000000.0000000     
   60000000.0000000     
   60000000.0000000     
   60000000.0000000     
   60000000.0000000     
   60000000.0000000     
   60000000.0000000     
   60000000.0000000     
   60000000.0000000     
   60000000.0000000     
   60000000.0000000     
   60000000.0000000     
   60000000.0000000     
   60000000.0000000     
   60000000.0000000     
   60000000.0000000     
   60000000.0000000     
   60000000.0000000     
   60000000.0000000     
   60000000.0000000     
   60000000.0000000     
   60000000.0000000     
   60000000.0000000     
   60000000.0000000     
   60000000.0000000     
   60000000.0000000     
   60000000.0000000     
   60000000.0000000     
   60000000.0000000     
   60000000.0000000     
   60000000.0000000     
   60000000.0000000     
   60000000.0000000     
   60000000.0000000     
   60000000.0000000     
   60000000.0000000     
   60000000.0000000     
   60000000.0000000     
   60000000.0000000     
   60000000.0000000     
   60000000.0000000     
   60000000.0000000     
   60000000.0000000     
   60000000.0000000     
   60000000.0000000     
   60000000.0000000     
   60000000.0000000     
   60000000.0000000     
   60000000.0000000     
   60000000.0000000     
   60000000.0000000     
   60000000.0000000     
   60000000.0000000     
   60000000.0000000     
   60000000.0000000     
   60000000.0000000     
   60000000.0000000     
   60000000.0000000     
   60000000.0000000     
   60000000.0000000     
   60000000.0000000     
   60000000.0000000     
   60000000.0000000     
   60000000.0000000     
   60000000.0000000     
   60000000.0000000     
   60000000.0000000     
   60000000.0000000     
   60000000.0000000     
   60000000.0000000     
   60000000.0000000     
   60000000.0000000     
   60000000.0000000     
   60000000.0000000     
   60000000.0000000     
   60000000.0000000     
   60000000.0000000     
   60000000.0000000     
   60000000.0000000     
   60000000.0000000     
   60000000.0000000     
   60000000.0000000     
   60000000.0000000     
   60000000.0000000     
VECTORS u double 
    0.00000E+00        -0.24170E-16         0.00000E+00
    0.00000E+00        -0.24391E-16         0.00000E+00
    0.00000E+00        -0.22147E-16         0.00000E+00
    0.00000E+00        -0.17519E-16         0.00000E+00
    0.00000E+00        -0.15107E-16         0.00000E+00
    0.00000E+00        -0.13529E-16         0.00000E+00
    0.00000E+00        -0.10668E-16         0.00000E+00
    0.00000E+00        -0.90913E-17         0.00000E+00
    0.00000E+00        -0.78735E-17         0.00000E+00
    0.00000E+00        -0.72079E-17         0.00000E+00
    0.00000E+00        -0.61430E-17         0.00000E+00
    0.00000E+00        -0.43775E-17         0.00000E+00
    0.00000E+00        -0.37738E-17         0.00000E+00
    0.00000E+00        -0.23188E-17         0.00000E+00
    0.00000E+00        -0.10208E-17         0.00000E+00
    0.00000E+00         0.00000E+00         0.00000E+00
   -0.51221E-17        -0.24789E-16         0.00000E+00
   -0.43119E-17        -0.24262E-16         0.00000E+00
    0.54782E-17        -0.21633E-16         0.00000E+00
    0.21762E-17        -0.18240E-16         0.00000E+00
    0.13125E-17        -0.15890E-16         0.00000E+00
    0.26477E-17        -0.12950E-16         0.00000E+00
    0.88961E-18        -0.10763E-16         0.00000E+00
   -0.20211E-18        -0.88468E-17         0.00000E+00
   -0.65762E-18        -0.79611E-17         0.00000E+00
   -0.15920E-17        -0.72272E-17         0.00000E+00
    0.48659E-18        -0.61533E-17         0.00000E+00
   -0.63503E-18        -0.52379E-17         0.00000E+00
    0.53414E-18        -0.35101E-17         0.00000E+00
    0.77265E-18        -0.22599E-17         0.00000E+00
    0.30947E-18        -0.10738E-17         0.00000E+00
    0.00000E+00         0.00000E+00         0.00000E+00
   -0.95332E-17        -0.23599E-16         0.00000E+00
   -0.54176E-17        -0.22495E-16         0.00000E+00
    0.68082E-17        -0.20360E-16         0.00000E+00
    0.26257E-17        -0.18173E-16         0.00000E+00
    0.40975E-17        -0.14444E-16         0.00000E+00
    0.29593E-17        -0.12695E-16         0.00000E+00
    0.19452E-17        -0.11388E-16         0.00000E+00
   -0.49631E-18        -0.96432E-17         0.00000E+00
   -0.19294E-17        -0.80428E-17         0.00000E+00
   -0.20820E-17        -0.66226E-17         0.00000E+00
    0.35924E-18        -0.58658E-17         0.00000E+00
   -0.31747E-18        -0.47189E-17         0.00000E+00
    0.14454E-17        -0.38468E-17         0.00000E+00
    0.12198E-17        -0.26667E-17         0.00000E+00
   -0.95840E-19        -0.14672E-17         0.00000E+00
    0.00000E+00         0.00000E+00         0.00000E+00
   -0.13198E-16        -0.21393E-16         0.00000E+00
   -0.66838E-17        -0.19874E-16         0.00000E+00
    0.67004E-17        -0.17950E-16         0.00000E+00
    0.41268E-17        -0.15829E-16         0.00000E+00
    0.52295E-17        -0.14197E-16         0.00000E+00
    0.51064E-18        -0.13301E-16         0.00000E+00
    0.12172E-17        -0.11643E-16         0.00000E+00
    0.25151E-18        -0.95890E-17         0.00000E+00
   -0.93352E-18        -0.79672E-17         0.00000E+00
   -0.22638E-17        -0.67926E-17         0.00000E+00
   -0.74440E-18        -0.57740E-17         0.00000E+00
   -0.10528E-17        -0.50255E-17         0.00000E+00
    0.15281E-17        -0.35729E-17         0.00000E+00
    0.16137E-17        -0.25115E-17         0.00000E+00
    0.30966E-18        -0.10283E-17         0.00000E+00
    0.00000E+00         0.00000E+00         0.00000E+00
   -0.12688E-16        -0.20745E-16         0.00000E+00
   -0.63226E-17        -0.18347E-16         0.00000E+00
    0.59770E-17        -0.16567E-16         0.00000E+00
    0.31174E-17        -0.14672E-16         0.00000E+00
    0.30318E-17        -0.13383E-16         0.00000E+00
    0.17275E-17        -0.12474E-16         0.00000E+00
    0.22961E-17        -0.10307E-16         0.00000E+00
    0.25008E-18        -0.87639E-17         0.00000E+00
   -0.21001E-17        -0.76729E-17         0.00000E+00
   -0.31783E-17        -0.69584E-17         0.00000E+00
   -0.96178E-18        -0.60030E-17         0.00000E+00
   -0.18142E-17        -0.45477E-17         0.00000E+00
    0.28303E-18        -0.36565E-17         0.00000E+00
    0.12196E-17        -0.25439E-17         0.00000E+00
    0.32471E-18        -0.10613E-17         0.00000E+00
    0.00000E+00         0.00000E+00         0.00000E+00
   -0.12003E-16        -0.18025E-16         0.00000E+00
   -0.57939E-17        -0.16458E-16         0.00000E+00
    0.63707E-17        -0.15471E-16         0.00000E+00
    0.32166E-17        -0.13707E-16         0.00000E+00
    0.42790E-17        -0.12133E-16         0.00000E+00
    0.41132E-17        -0.10559E-16         0.00000E+00
    0.25289E-17        -0.89575E-17         0.00000E+00
   -0.11949E-18        -0.90113E-17         0.00000E+00
   -0.29667E-17        -0.80893E-17         0.00000E+00
   -0.29853E-17        -0.69070E-17         0.00000E+00
   -0.11238E-17        -0.53663E-17         0.00000E+00
   -0.24211E-17        -0.45939E-17         0.00000E+00
   -0.32682E-18        -0.33406E-17         0.00000E+00
    0.77271E-18        -0.25140E-17         0.00000E+00
   -0.31938E-19        -0.20536E-17         0.00000E+00
    0.00000E+00         0.00000E+00         0.00000E+00
   -0.11849E-16        -0.15074E-16         0.00000E+00
   -0.58420E-17        -0.15148E-16         0.00000E+00
    0.64181E-17        -0.14561E-16         0.00000E+00
    0.37317E-17        -0.11528E-16         0.00000E+00
    0.43753E-17        -0.10814E-16         0.00000E+00
    0.37697E-17        -0.10858E-16         0.00000E+00
    0.75069E-18        -0.10570E-16         0.00000E+00
   -0.31044E-18        -0.86766E-17         0.00000E+00
   -0.37157E-17        -0.76364E-17         0.00000E+00
   -0.32134E-17        -0.58987E-17         0.00000E+00
   -0.16148E-17        -0.61585E-17         0.00000E+00
   -0.12575E-17        -0.43613E-17         0.00000E+00
   -0.32877E-19        -0.33628E-17         0.00000E+00
    0.24478E-18        -0.20683E-17         0.00000E+00
   -0.22422E-18        -0.11174E-17         0.00000E+00
    0.00000E+00         0.00000E+00         0.00000E+00
   -0.11530E-16        -0.15581E-16         0.00000E+00
   -0.62566E-17        -0.14521E-16         0.00000E+00
    0.66361E-17        -0.13470E-16         0.00000E+00
    0.43996E-17        -0.12151E-16         0.00000E+00
    0.38814E-17        -0.11029E-16         0.00000E+00
    0.34302E-17        -0.10882E-16         0.00000E+00
    0.19663E-17        -0.10106E-16         0.00000E+00
   -0.17074E-18        -0.84378E-17         0.00000E+00
   -0.30406E-17        -0.72381E-17         0.00000E+00
   -0.33490E-17        -0.60701E-17         0.00000E+00
   -0.19619E-17        -0.51322E-17         0.00000E+00
   -0.42472E-18        -0.36521E-17         0.00000E+00
   -0.51915E-18        -0.31055E-17         0.00000E+00
    0.64841E-18        -0.27343E-17         0.00000E+00
   -0.38056E-18        -0.14726E-17         0.00000E+00
    0.00000E+00         0.00000E+00         0.00000E+00
   -0.99609E-17        -0.14381E-16         0.00000E+00
   -0.77287E-17        -0.13751E-16         0.00000E+00
    0.57099E-17        -0.13765E-16         0.00000E+00
    0.31325E-17        -0.13714E-16         0.00000E+00
    0.43408E-17        -0.12882E-16         0.00000E+00
    0.19726E-17        -0.11123E-16         0.00000E+00
    0.26713E-17        -0.94916E-17         0.00000E+00
   -0.42576E-18        -0.86770E-17         0.00000E+00
   -0.23771E-17        -0.75164E-17         0.00000E+00
   -0.31508E-17        -0.57501E-17         0.00000E+00
   -0.95251E-18        -0.47085E-17         0.00000E+00
   -0.12868E-17        -0.40811E-17         0.00000E+00
   -0.82237E-18        -0.35774E-17         0.00000E+00
    0.31187E-18        -0.16960E-17         0.00000E+00
   -0.46049E-18         0.14033E-19         0.00000E+00
    0.00000E+00         0.00000E+00         0.00000E+00
   -0.10699E-16        -0.20407E-16         0.00000E+00
   -0.68593E-17        -0.17568E-16         0.00000E+00
    0.54051E-17        -0.15100E-16         0.00000E+00
    0.44589E-17        -0.14900E-16         0.00000E+00
    0.57029E-17        -0.12887E-16         0.00000E+00
    0.20520E-17        -0.10092E-16         0.00000E+00
    0.18132E-17        -0.90482E-17         0.00000E+00
   -0.56691E-18        -0.80183E-17         0.00000E+00
   -0.11216E-17        -0.73941E-17         0.00000E+00
   -0.27112E-17        -0.61195E-17         0.00000E+00
   -0.17106E-17        -0.49116E-17         0.00000E+00
   -0.21954E-17        -0.38835E-17         0.00000E+00
   -0.51126E-18        -0.28208E-17         0.00000E+00
    0.14301E-18        -0.19852E-17         0.00000E+00
   -0.83449E-18        -0.17784E-17         0.00000E+00
    0.00000E+00         0.00000E+00         0.00000E+00
   -0.12655E-16        -0.20678E-16         0.00000E+00
   -0.60495E-17        -0.17210E-16         0.00000E+00
    0.62171E-17        -0.14869E-16         0.00000E+00
    0.53817E-17        -0.13408E-16         0.00000E+00
    0.64839E-17        -0.12277E-16         0.00000E+00
    0.35079E-17        -0.11414E-16         0.00000E+00
    0.25168E-18        -0.95474E-17         0.00000E+00
   -0.54122E-18        -0.84144E-17         0.00000E+00
   -0.23346E-17        -0.72651E-17         0.00000E+00
   -0.36027E-17        -0.64988E-17         0.00000E+00
   -0.17308E-17        -0.53931E-17         0.00000E+00
   -0.19185E-17        -0.31155E-17         0.00000E+00
   -0.33782E-18        -0.28693E-17         0.00000E+00
   -0.32257E-19        -0.19500E-17         0.00000E+00
   -0.15405E-17        -0.97084E-18         0.00000E+00
    0.00000E+00         0.00000E+00         0.00000E+00
   -0.13614E-16        -0.15386E-16         0.00000E+00
   -0.61773E-17        -0.14106E-16         0.00000E+00
    0.67275E-17        -0.13394E-16         0.00000E+00
    0.44084E-17        -0.12872E-16         0.00000E+00
    0.59399E-17        -0.12556E-16         0.00000E+00
    0.45014E-17        -0.11233E-16         0.00000E+00
    0.79783E-18        -0.98443E-17         0.00000E+00
   -0.92024E-18        -0.89493E-17         0.00000E+00
   -0.29340E-17        -0.80032E-17         0.00000E+00
   -0.34339E-17        -0.56352E-17         0.00000E+00
   -0.13459E-17        -0.45519E-17         0.00000E+00
   -0.27923E-17        -0.41362E-17         0.00000E+00
   -0.71113E-18        -0.24139E-17         0.00000E+00
    0.17539E-18        -0.24509E-17         0.00000E+00
   -0.18455E-17        -0.16766E-17         0.00000E+00
    0.00000E+00         0.00000E+00         0.00000E+00
   -0.13266E-16        -0.11720E-16         0.00000E+00
   -0.67469E-17        -0.11274E-16         0.00000E+00
    0.62311E-17        -0.11485E-16         0.00000E+00
    0.47121E-17        -0.11062E-16         0.00000E+00
    0.63056E-17        -0.10039E-16         0.00000E+00
    0.33906E-17        -0.11322E-16         0.00000E+00
    0.18312E-17        -0.12122E-16         0.00000E+00
   -0.52896E-18        -0.96930E-17         0.00000E+00
   -0.20742E-17        -0.79587E-17         0.00000E+00
   -0.26287E-17        -0.58256E-17         0.00000E+00
   -0.17150E-17        -0.54391E-17         0.00000E+00
   -0.23135E-17        -0.47527E-17         0.00000E+00
   -0.70137E-18        -0.20421E-17         0.00000E+00
   -0.82831E-18        -0.19849E-17         0.00000E+00
   -0.17654E-17        -0.13910E-17         0.00000E+00
    0.00000E+00         0.00000E+00         0.00000E+00
   -0.13012E-16        -0.81018E-17         0.00000E+00
   -0.77884E-17        -0.95772E-17         0.00000E+00
    0.55126E-17        -0.10315E-16         0.00000E+00
    0.46991E-17        -0.98508E-17         0.00000E+00
    0.42090E-17        -0.99757E-17         0.00000E+00
    0.10989E-17        -0.12158E-16         0.00000E+00
    0.28380E-17        -0.11755E-16         0.00000E+00
    0.78512E-18        -0.93333E-17         0.00000E+00
   -0.71955E-18        -0.70070E-17         0.00000E+00
   -0.20174E-17        -0.67261E-17         0.00000E+00
   -0.94186E-18        -0.71062E-17         0.00000E+00
   -0.10476E-17        -0.40272E-17         0.00000E+00
    0.29801E-19        -0.30035E-17         0.00000E+00
   -0.11542E-17        -0.18660E-17         0.00000E+00
   -0.14724E-17        -0.49052E-18         0.00000E+00
    0.00000E+00         0.00000E+00         0.00000E+00
   -0.12420E-16        -0.99783E-17         0.00000E+00
   -0.85029E-17        -0.97556E-17         0.00000E+00
    0.49982E-17        -0.89687E-17         0.00000E+00
    0.36528E-17        -0.11468E-16         0.00000E+00
    0.26178E-17        -0.12223E-16         0.00000E+00
    0.18816E-17        -0.10336E-16         0.00000E+00
    0.18522E-17        -0.88628E-17         0.00000E+00
    0.18024E-17        -0.89032E-17         0.00000E+00
   -0.60154E-18        -0.91489E-17         0.00000E+00
   -0.18233E-17        -0.69391E-17         0.00000E+00
   -0.55491E-18        -0.47591E-17         0.00000E+00
   -0.53737E-18        -0.29571E-17         0.00000E+00
   -0.47699E-18        -0.35243E-17         0.00000E+00
   -0.12347E-18        -0.31582E-17         0.00000E+00
   -0.18081E-17        -0.17648E-17         0.00000E+00
    0.00000E+00         0.00000E+00         0.00000E+00
   -0.12832E-16        -0.10552E-16         0.00000E+00
   -0.85037E-17        -0.91805E-17         0.00000E+00
    0.36744E-17        -0.10489E-16         0.00000E+00
    0.27970E-17        -0.11353E-16         0.00000E+00
    0.27635E-17        -0.10318E-16         0.00000E+00
    0.22600E-17        -0.10171E-16         0.00000E+00
    0.84161E-18        -0.92921E-17         0.00000E+00
    0.18589E-17        -0.94828E-17         0.00000E+00
   -0.77319E-18        -0.81163E-17         0.00000E+00
   -0.12658E-17        -0.59187E-17         0.00000E+00
   -0.30260E-18        -0.45358E-17         0.00000E+00
   -0.10966E-17        -0.47898E-17         0.00000E+00
   -0.39012E-18        -0.33647E-17         0.00000E+00
   -0.91562E-18        -0.11749E-17         0.00000E+00
   -0.60422E-18        -0.13056E-18         0.00000E+00
    0.00000E+00         0.00000E+00         0.00000E+00
   -0.12293E-16        -0.12621E-16         0.00000E+00
   -0.84358E-17        -0.88301E-17         0.00000E+00
    0.22868E-17        -0.88393E-17         0.00000E+00
    0.16486E-17        -0.72132E-17         0.00000E+00
    0.27635E-17        -0.84549E-17         0.00000E+00
    0.24475E-17        -0.84229E-17         0.00000E+00
    0.33816E-18        -0.74229E-17         0.00000E+00
    0.19371E-17        -0.84383E-17         0.00000E+00
   -0.86831E-18        -0.67332E-17         0.00000E+00
   -0.24605E-17        -0.65468E-17         0.00000E+00
   -0.52315E-18        -0.55050E-17         0.00000E+00
   -0.98414E-18        -0.41374E-17         0.00000E+00
   -0.77368E-18        -0.26579E-17         0.00000E+00
   -0.10916E-17        -0.11682E-17         0.00000E+00
   -0.12842E-17        -0.20678E-18         0.00000E+00
    0.00000E+00         0.00000E+00         0.00000E+00
   -0.11751E-16        -0.78977E-17         0.00000E+00
   -0.79247E-17        -0.11535E-16         0.00000E+00
    0.24469E-17        -0.80874E-17         0.00000E+00
    0.72446E-18        -0.52864E-17         0.00000E+00
    0.19723E-17        -0.76911E-17         0.00000E+00
    0.41651E-17        -0.77077E-17         0.00000E+00
    0.71570E-18        -0.25979E-17         0.00000E+00
    0.57822E-18        -0.66670E-17         0.00000E+00
   -0.11410E-17        -0.10074E-16         0.00000E+00
   -0.23389E-17        -0.68527E-17         0.00000E+00
   -0.68987E-18        -0.53787E-17         0.00000E+00
   -0.14474E-17        -0.43384E-17         0.00000E+00
   -0.63597E-18        -0.37484E-17         0.00000E+00
   -0.12397E-17        -0.98802E-18         0.00000E+00
   -0.13594E-17         0.15342E-17         0.00000E+00
    0.00000E+00         0.00000E+00         0.00000E+00
   -0.11408E-16        -0.98728E-17         0.00000E+00
   -0.95381E-17        -0.12461E-16         0.00000E+00
    0.44199E-17        -0.10052E-16         0.00000E+00
    0.17688E-17        -0.44703E-17         0.00000E+00
    0.28209E-17        -0.53225E-17         0.00000E+00
    0.35742E-17        -0.70296E-17         0.00000E+00
    0.17859E-17        -0.48077E-17         0.00000E+00
   -0.84098E-18        -0.60382E-17         0.00000E+00
   -0.14073E-18        -0.81748E-17         0.00000E+00
   -0.16968E-17        -0.66106E-17         0.00000E+00
   -0.10444E-17        -0.55209E-17         0.00000E+00
   -0.24827E-17        -0.48348E-17         0.00000E+00
   -0.58591E-18        -0.42299E-17         0.00000E+00
   -0.71187E-18        -0.24791E-17         0.00000E+00
   -0.23664E-17         0.23101E-18         0.00000E+00
    0.00000E+00         0.00000E+00         0.00000E+00
   -0.12726E-16        -0.21125E-16         0.00000E+00
   -0.83012E-17        -0.11905E-16         0.00000E+00
    0.59863E-17        -0.89285E-17         0.00000E+00
    0.45492E-17        -0.49881E-17         0.00000E+00
    0.27901E-17        -0.43159E-17         0.00000E+00
    0.36183E-17        -0.47630E-17         0.00000E+00
    0.17037E-17        -0.61005E-17         0.00000E+00
   -0.18200E-18        -0.57502E-17         0.00000E+00
   -0.12571E-17        -0.61162E-17         0.00000E+00
   -0.20944E-17        -0.54282E-17         0.00000E+00
   -0.14642E-17        -0.58598E-17         0.00000E+00
   -0.27684E-17        -0.56489E-17         0.00000E+00
   -0.81678E-18        -0.58722E-17         0.00000E+00
   -0.72754E-18        -0.78249E-17         0.00000E+00
   -0.22622E-17        -0.19902E-17         0.00000E+00
    0.00000E+00         0.00000E+00         0.00000E+00
   -0.12838E-16        -0.16770E-16         0.00000E+00
   -0.54545E-17        -0.77504E-17         0.00000E+00
    0.72760E-17        -0.39407E-17         0.00000E+00
    0.59562E-17        -0.58325E-17         0.00000E+00
    0.29201E-17        -0.49145E-17         0.00000E+00
    0.35447E-17        -0.67465E-17         0.00000E+00
    0.11851E-17        -0.59259E-17         0.00000E+00
   -0.39841E-18        -0.57213E-17         0.00000E+00
   -0.29507E-17        -0.60001E-17         0.00000E+00
   -0.25704E-17        -0.61882E-17         0.00000E+00
   -0.29785E-17        -0.54821E-17         0.00000E+00
   -0.39410E-17        -0.54614E-17         0.00000E+00
   -0.22933E-17        -0.58180E-17         0.00000E+00
   -0.15648E-17        -0.55963E-17         0.00000E+00
   -0.18470E-17        -0.36049E-17         0.00000E+00
    0.00000E+00         0.00000E+00         0.00000E+00
   -0.11082E-16        -0.64822E-17         0.00000E+00
   -0.33646E-17        -0.67205E-17         0.00000E+00
    0.75698E-17        -0.33371E-17         0.00000E+00
    0.62826E-17        -0.44596E-17         0.00000E+00
    0.25832E-17        -0.58012E-17         0.00000E+00
   -0.32320E-19        -0.67244E-17         0.00000E+00
    0.87725E-18        -0.67280E-17         0.00000E+00
   -0.16134E-17        -0.58527E-17         0.00000E+00
   -0.49628E-17        -0.68198E-17         0.00000E+00
   -0.45766E-17        -0.62401E-17         0.00000E+00
   -0.32092E-17        -0.64760E-17         0.00000E+00
   -0.48727E-17        -0.52330E-17         0.00000E+00
   -0.28089E-17        -0.48999E-17         0.00000E+00
   -0.16304E-17        -0.47987E-17         0.00000E+00
   -0.15658E-17        -0.24897E-17         0.00000E+00
    0.00000E+00         0.00000E+00         0.00000E+00
   -0.79426E-17         0.25108E-17         0.00000E+00
   -0.41769E-17        -0.66834E-17         0.00000E+00
    0.79195E-17        -0.24964E-17         0.00000E+00
    0.42741E-17        -0.63719E-17         0.00000E+00
    0.15757E-17        -0.65178E-17         0.00000E+00
   -0.16692E-17        -0.75889E-17         0.00000E+00
   -0.32758E-19        -0.59473E-17         0.00000E+00
   -0.44796E-17        -0.75846E-17         0.00000E+00
   -0.55209E-17        -0.66881E-17         0.00000E+00
   -0.51071E-17        -0.60408E-17         0.00000E+00
   -0.33933E-17        -0.53022E-17         0.00000E+00
   -0.46991E-17        -0.57070E-17         0.00000E+00
   -0.37383E-17        -0.51372E-17         0.00000E+00
   -0.21656E-17        -0.25999E-17         0.00000E+00
   -0.12966E-17        -0.19811E-17         0.00000E+00
    0.00000E+00         0.00000E+00         0.00000E+00
   -0.61677E-17        -0.11702E-16         0.00000E+00
   -0.47293E-17        -0.10360E-16         0.00000E+00
    0.85456E-17        -0.68636E-17         0.00000E+00
    0.37390E-17        -0.10101E-16         0.00000E+00
    0.22859E-17        -0.78253E-17         0.00000E+00
    0.17683E-17        -0.98562E-17         0.00000E+00
   -0.54279E-18        -0.56839E-17         0.00000E+00
   -0.62165E-17        -0.10165E-16         0.00000E+00
   -0.53404E-17        -0.66897E-17         0.00000E+00
   -0.53366E-17        -0.53357E-17         0.00000E+00
   -0.37942E-17        -0.43509E-17         0.00000E+00
   -0.46219E-17        -0.90921E-17         0.00000E+00
   -0.28071E-17        -0.40611E-17         0.00000E+00
   -0.22115E-17        -0.16307E-18         0.00000E+00
   -0.11747E-17        -0.20650E-17         0.00000E+00
    0.00000E+00         0.00000E+00         0.00000E+00
   -0.80500E-17        -0.17241E-16         0.00000E+00
   -0.23449E-17        -0.13050E-16         0.00000E+00
    0.74120E-17        -0.92111E-17         0.00000E+00
    0.35731E-17        -0.10435E-16         0.00000E+00
    0.27890E-17        -0.67890E-17         0.00000E+00
    0.25723E-17        -0.10511E-16         0.00000E+00
   -0.18271E-17        -0.12289E-16         0.00000E+00
   -0.78426E-17        -0.10289E-16         0.00000E+00
   -0.42722E-17        -0.55626E-17         0.00000E+00
   -0.65585E-17        -0.61207E-17         0.00000E+00
   -0.46623E-17        -0.91766E-17         0.00000E+00
   -0.49689E-17        -0.93043E-17         0.00000E+00
   -0.15245E-17        -0.43105E-17         0.00000E+00
   -0.18240E-17        -0.20223E-17         0.00000E+00
   -0.14984E-17         0.12691E-17         0.00000E+00
    0.00000E+00         0.00000E+00         0.00000E+00
   -0.83764E-17        -0.78748E-17         0.00000E+00
   -0.15979E-17        -0.88751E-17         0.00000E+00
    0.86298E-17        -0.10864E-16         0.00000E+00
    0.38726E-17        -0.11338E-16         0.00000E+00
    0.31604E-17        -0.11363E-16         0.00000E+00
    0.20374E-17        -0.14404E-16         0.00000E+00
   -0.31104E-17        -0.15290E-16         0.00000E+00
   -0.69978E-17        -0.11059E-16         0.00000E+00
   -0.41812E-17        -0.96303E-17         0.00000E+00
   -0.64861E-17        -0.93484E-17         0.00000E+00
   -0.42157E-17        -0.98776E-17         0.00000E+00
   -0.40877E-17        -0.72000E-17         0.00000E+00
   -0.14427E-17        -0.49641E-17         0.00000E+00
    0.31151E-18        -0.11852E-17         0.00000E+00
   -0.13857E-17         0.53577E-18         0.00000E+00
    0.00000E+00         0.00000E+00         0.00000E+00
   -0.60414E-17        -0.30897E-18         0.00000E+00
   -0.28414E-17        -0.72774E-17         0.00000E+00
    0.53746E-17        -0.14099E-16         0.00000E+00
    0.16253E-17        -0.15838E-16         0.00000E+00
    0.18691E-17        -0.16862E-16         0.00000E+00
    0.19056E-17        -0.17004E-16         0.00000E+00
   -0.31604E-17        -0.16581E-16         0.00000E+00
   -0.67329E-17        -0.15611E-16         0.00000E+00
   -0.40287E-17        -0.11484E-16         0.00000E+00
   -0.63438E-17        -0.95966E-17         0.00000E+00
   -0.38638E-17        -0.97924E-17         0.00000E+00
   -0.36043E-17        -0.69934E-17         0.00000E+00
   -0.50402E-18        -0.50150E-17         0.00000E+00
    0.51104E-18        -0.23019E-17         0.00000E+00
   -0.81476E-18        -0.76365E-18         0.00000E+00
    0.00000E+00         0.00000E+00         0.00000E+00
    0.44060E-17        -0.16101E-16         0.00000E+00
   -0.56195E-17        -0.20017E-16         0.00000E+00
    0.33457E-17        -0.22151E-16         0.00000E+00
    0.57703E-19        -0.21790E-16         0.00000E+00
   -0.31276E-18        -0.21955E-16         0.00000E+00
    0.31465E-17        -0.22497E-16         0.00000E+00
   -0.25640E-17        -0.19056E-16         0.00000E+00
   -0.55782E-17        -0.15877E-16         0.00000E+00
   -0.46683E-17        -0.13067E-16         0.00000E+00
   -0.74597E-17        -0.11892E-16         0.00000E+00
   -0.42258E-17        -0.11311E-16         0.00000E+00
   -0.23673E-17        -0.65501E-17         0.00000E+00
   -0.36544E-18        -0.50563E-17         0.00000E+00
    0.17959E-18        -0.21183E-17         0.00000E+00
   -0.38547E-18        -0.25277E-17         0.00000E+00
    0.00000E+00         0.00000E+00         0.00000E+00
    0.95349E-17        -0.53766E-16         0.00000E+00
   -0.34200E-17        -0.40172E-16         0.00000E+00
    0.51733E-19        -0.29050E-16         0.00000E+00
   -0.30294E-17        -0.27569E-16         0.00000E+00
   -0.15509E-17        -0.30549E-16         0.00000E+00
    0.48645E-17        -0.26604E-16         0.00000E+00
   -0.60028E-18        -0.20824E-16         0.00000E+00
   -0.36668E-17        -0.18059E-16         0.00000E+00
   -0.62080E-17        -0.17671E-16         0.00000E+00
   -0.58344E-17        -0.15984E-16         0.00000E+00
   -0.31506E-17        -0.59004E-17         0.00000E+00
   -0.22431E-17        -0.34429E-17         0.00000E+00
   -0.95589E-18        -0.35984E-17         0.00000E+00
    0.70723E-18        -0.51472E-17         0.00000E+00
    0.68953E-18        -0.50240E-17         0.00000E+00
    0.00000E+00         0.00000E+00         0.00000E+00
    0.23894E-17        -0.44574E-16         0.00000E+00
    0.17374E-17        -0.41811E-16         0.00000E+00
    0.70189E-18        -0.33704E-16         0.00000E+00
   -0.57516E-17        -0.31961E-16         0.00000E+00
   -0.16615E-17        -0.28534E-16         0.00000E+00
    0.41567E-17        -0.25802E-16         0.00000E+00
    0.35723E-17        -0.28320E-16         0.00000E+00
   -0.77137E-18        -0.25489E-16         0.00000E+00
   -0.78517E-17        -0.20440E-16         0.00000E+00
   -0.48845E-17        -0.17351E-16         0.00000E+00
    0.21352E-17        -0.94579E-17         0.00000E+00
   -0.89613E-18        -0.38069E-17         0.00000E+00
   -0.34567E-17        -0.34824E-17         0.00000E+00
   -0.76243E-19        -0.22907E-17         0.00000E+00
    0.28341E-17         0.97138E-18         0.00000E+00
    0.00000E+00         0.00000E+00         0.00000E+00
    0.00000E+00        -0.44309E-16         0.00000E+00
    0.00000E+00        -0.45497E-16         0.00000E+00
    0.00000E+00        -0.57030E-16         0.00000E+00
    0.00000E+00        -0.33596E-16         0.00000E+00
    0.00000E+00        -0.91017E-17         0.00000E+00
    0.00000E+00        -0.23774E-16         0.00000E+00
    0.00000E+00        -0.32524E-16         0.00000E+00
    0.00000E+00        -0.50471E-16         0.00000E+00
    0.00000E+00        -0.40736E-16         0.00000E+00
    0.00000E+00         0.24880E-17         0.00000E+00
    0.00000E+00         0.91815E-17         0.00000E+00
    0.00000E+00        -0.17972E-16         0.00000E+00
    0.00000E+00        -0.28335E-17         0.00000E+00
    0.00000E+00         0.18769E-16         0.00000E+00
    0.00000E+00         0.48973E-17         0.00000E+00
    0.00000E+00         0.00000E+00         0.00000E+00
CELL_DATA        450
VECTORS vDarcy double 
    0.00000E+00         0.00000E+00         0.00000E+00
    0.00000E+00         0.00000E+00         0.00000E+00
    0.00000E+00         0.00000E+00         0.00000E+00
    0.00000E+00         0.00000E+00         0.00000E+00
    0.00000E+00         0.00000E+00         0.00000E+00
    0.00000E+00         0.00000E+00         0.00000E+00
    0.00000E+00         0.00000E+00         0.00000E+00
    0.00000E+00         0.00000E+00         0.00000E+00
    0.00000E+00         0.00000E+00         0.00000E+00
    0.00000E+00         0.00000E+00         0.00000E+00
    0.00000E+00         0.00000E+00         0.00000E+00
    0.00000E+00         0.00000E+00         0.00000E+00
    0.00000E+00         0.00000E+00         0.00000E+00
    0.00000E+00         0.00000E+00         0.00000E+00
    0.00000E+00         0.00000E+00         0.00000E+00
    0.00000E+00         0.00000E+00         0.00000E+00
    0.00000E+00         0.00000E+00         0.00000E+00
    0.00000E+00         0.00000E+00         0.00000E+00
    0.00000E+00         0.00000E+00         0.00000E+00
    0.00000E+00         0.00000E+00         0.00000E+00
    0.00000E+00         0.00000E+00         0.00000E+00
    0.00000E+00         0.00000E+00         0.00000E+00
    0.00000E+00         0.00000E+00         0.00000E+00
    0.00000E+00         0.00000E+00         0.00000E+00
    0.00000E+00         0.00000E+00         0.00000E+00
    0.00000E+00         0.00000E+00         0.00000E+00
    0.00000E+00         0.00000E+00         0.00000E+00
    0.00000E+00         0.00000E+00         0.00000E+00
    0.00000E+00         0.00000E+00         0.00000E+00
    0.00000E+00         0.00000E+00         0.00000E+00
    0.00000E+00         0.00000E+00         0.00000E+00
    0.00000E+00         0.00000E+00         0.00000E+00
    0.00000E+00         0.00000E+00         0.00000E+00
    0.00000E+00         0.00000E+00         0.00000E+00
    0.00000E+00         0.00000E+00         0.00000E+00
    0.00000E+00         0.00000E+00         0.00000E+00
    0.00000E+00         0.00000E+00         0.00000E+00
    0.00000E+00         0.00000E+00         0.00000E+00
    0.00000E+00         0.00000E+00         0.00000E+00
    0.00000E+00         0.00000E+00         0.00000E+00
    0.00000E+00         0.00000E+00         0.00000E+00
    0.00000E+00         0.00000E+00         0.00000E+00
    0.00000E+00         0.00000E+00         0.00000E+00
    0.00000E+00         0.00000E+00         0.00000E+00
    0.00000E+00         0.00000E+00         0.00000E+00
    0.00000E+00         0.00000E+00         0.00000E+00
    0.00000E+00         0.00000E+00         0.00000E+00
    0.00000E+00         0.00000E+00         0.00000E+00
    0.00000E+00         0.00000E+00         0.00000E+00
    0.00000E+00         0.00000E+00         0.00000E+00
    0.00000E+00         0.00000E+00         0.00000E+00
    0.00000E+00         0.00000E+00         0.00000E+00
    0.00000E+00         0.00000E+00         0.00000E+00
    0.00000E+00         0.00000E+00         0.00000E+00
    0.00000E+00         0.00000E+00         0.00000E+00
    0.00000E+00         0.00000E+00         0.00000E+00
    0.00000E+00         0.00000E+00         0.00000E+00
    0.00000E+00         0.00000E+00         0.00000E+00
    0.00000E+00         0.00000E+00         0.00000E+00
    0.00000E+00         0.00000E+00         0.00000E+00
    0.00000E+00         0.00000E+00         0.00000E+00
    0.00000E+00         0.00000E+00         0.00000E+00
    0.00000E+00         0.00000E+00         0.00000E+00
    0.00000E+00         0.00000E+00         0.00000E+00
    0.00000E+00         0.00000E+00         0.00000E+00
    0.00000E+00         0.00000E+00         0.00000E+00
    0.00000E+00         0.00000E+00         0.00000E+00
    0.00000E+00         0.00000E+00         0.00000E+00
    0.00000E+00         0.00000E+00         0.00000E+00
    0.00000E+00         0.00000E+00         0.00000E+00
    0.00000E+00         0.00000E+00         0.00000E+00
    0.00000E+00         0.00000E+00         0.00000E+00
    0.00000E+00         0.00000E+00         0.00000E+00
    0.00000E+00         0.00000E+00         0.00000E+00
    0.00000E+00         0.00000E+00         0.00000E+00
    0.00000E+00         0.00000E+00         0.00000E+00
    0.00000E+00         0.00000E+00         0.00000E+00
    0.00000E+00         0.00000E+00         0.00000E+00
    0.00000E+00         0.00000E+00         0.00000E+00
    0.00000E+00         0.00000E+00         0.00000E+00
    0.00000E+00         0.00000E+00         0.00000E+00
    0.00000E+00         0.00000E+00         0.00000E+00
    0.00000E+00         0.00000E+00         0.00000E+00
    0.00000E+00         0.00000E+00         0.00000E+00
    0.00000E+00         0.00000E+00         0.00000E+00
    0.00000E+00         0.00000E+00         0.00000E+00
    0.00000E+00         0.00000E+00         0.00000E+00
    0.00000E+00         0.00000E+00         0.00000E+00
    0.00000E+00         0.00000E+00         0.00000E+00
    0.00000E+00         0.00000E+00         0.00000E+00
    0.00000E+00         0.00000E+00         0.00000E+00
    0.00000E+00         0.00000E+00         0.00000E+00
    0.00000E+00         0.00000E+00         0.00000E+00
    0.00000E+00         0.00000E+00         0.00000E+00
    0.00000E+00         0.00000E+00         0.00000E+00
    0.00000E+00         0.00000E+00         0.00000E+00
    0.00000E+00         0.00000E+00         0.00000E+00
    0.00000E+00         0.00000E+00         0.00000E+00
    0.00000E+00         0.00000E+00         0.00000E+00
    0.00000E+00         0.00000E+00         0.00000E+00
    0.00000E+00         0.00000E+00         0.00000E+00
    0.00000E+00         0.00000E+00         0.00000E+00
    0.00000E+00         0.00000E+00         0.00000E+00
    0.00000E+00         0.00000E+00         0.00000E+00
    0.00000E+00         0.00000E+00         0.00000E+00
    0.00000E+00         0.00000E+00         0.00000E+00
    0.00000E+00         0.00000E+00         0.00000E+00
    0.00000E+00         0.00000E+00         0.00000E+00
    0.00000E+00         0.00000E+00         0.00000E+00
    0.00000E+00         0.00000E+00         0.00000E+00
    0.00000E+00         0.00000E+00         0.00000E+00
    0.00000E+00         0.00000E+00         0.00000E+00
    0.00000E+00         0.00000E+00         0.00000E+00
    0.00000E+00         0.00000E+00         0.00000E+00
    0.00000E+00         0.00000E+00         0.00000E+00
    0.00000E+00         0.00000E+00         0.00000E+00
    0.00000E+00         0.00000E+00         0.00000E+00
    0.00000E+00         0.00000E+00         0.00000E+00
    0.00000E+00         0.00000E+00         0.00000E+00
    0.00000E+00         0.00000E+00         0.00000E+00
    0.00000E+00         0.00000E+00         0.00000E+00
    0.00000E+00         0.00000E+00         0.00000E+00
    0.00000E+00         0.00000E+00         0.00000E+00
    0.00000E+00         0.00000E+00         0.00000E+00
    0.00000E+00         0.00000E+00         0.00000E+00
    0.00000E+00         0.00000E+00         0.00000E+00
    0.00000E+00         0.00000E+00         0.00000E+00
    0.00000E+00         0.00000E+00         0.00000E+00
    0.00000E+00         0.00000E+00         0.00000E+00
    0.00000E+00         0.00000E+00         0.00000E+00
    0.00000E+00         0.00000E+00         0.00000E+00
    0.00000E+00         0.00000E+00         0.00000E+00
    0.00000E+00         0.00000E+00         0.00000E+00
    0.00000E+00         0.00000E+00         0.00000E+00
    0.00000E+00         0.00000E+00         0.00000E+00
    0.00000E+00         0.00000E+00         0.00000E+00
    0.00000E+00         0.00000E+00         0.00000E+00
    0.00000E+00         0.00000E+00         0.00000E+00
    0.00000E+00         0.00000E+00         0.00000E+00
    0.00000E+00         0.00000E+00         0.00000E+00
    0.00000E+00         0.00000E+00         0.00000E+00
    0.00000E+00         0.00000E+00         0.00000E+00
    0.00000E+00         0.00000E+00         0.00000E+00
    0.00000E+00         0.00000E+00         0.00000E+00
    0.00000E+00         0.00000E+00         0.00000E+00
    0.00000E+00         0.00000E+00         0.00000E+00
    0.00000E+00         0.00000E+00         0.00000E+00
    0.00000E+00         0.00000E+00         0.00000E+00
    0.00000E+00         0.00000E+00         0.00000E+00
    0.00000E+00         0.00000E+00         0.00000E+00
    0.00000E+00         0.00000E+00         0.00000E+00
    0.00000E+00         0.00000E+00         0.00000E+00
    0.00000E+00         0.00000E+00         0.00000E+00
    0.00000E+00         0.00000E+00         0.00000E+00
    0.00000E+00         0.00000E+00         0.00000E+00
    0.00000E+00         0.00000E+00         0.00000E+00
    0.00000E+00         0.00000E+00         0.00000E+00
    0.00000E+00         0.00000E+00         0.00000E+00
    0.00000E+00         0.00000E+00         0.00000E+00
    0.00000E+00         0.00000E+00         0.00000E+00
    0.00000E+00         0.00000E+00         0.00000E+00
    0.00000E+00         0.00000E+00         0.00000E+00
    0.00000E+00         0.00000E+00         0.00000E+00
    0.00000E+00         0.00000E+00         0.00000E+00
    0.00000E+00         0.00000E+00         0.00000E+00
    0.00000E+00         0.00000E+00         0.00000E+00
    0.00000E+00         0.00000E+00         0.00000E+00
    0.00000E+00         0.00000E+00         0.00000E+00
    0.00000E+00         0.00000E+00         0.00000E+00
    0.00000E+00         0.00000E+00         0.00000E+00
    0.00000E+00         0.00000E+00         0.00000E+00
    0.00000E+00         0.00000E+00         0.00000E+00
    0.00000E+00         0.00000E+00         0.00000E+00
    0.00000E+00         0.00000E+00         0.00000E+00
    0.00000E+00         0.00000E+00         0.00000E+00
    0.00000E+00         0.00000E+00         0.00000E+00
    0.00000E+00         0.00000E+00         0.00000E+00
    0.00000E+00         0.00000E+00         0.00000E+00
    0.00000E+00         0.00000E+00         0.00000E+00
    0.00000E+00         0.00000E+00         0.00000E+00
    0.00000E+00         0.00000E+00         0.00000E+00
    0.00000E+00         0.00000E+00         0.00000E+00
    0.00000E+00         0.00000E+00         0.00000E+00
    0.00000E+00         0.00000E+00         0.00000E+00
    0.00000E+00         0.00000E+00         0.00000E+00
    0.00000E+00         0.00000E+00         0.00000E+00
    0.00000E+00         0.00000E+00         0.00000E+00
    0.00000E+00         0.00000E+00         0.00000E+00
    0.00000E+00         0.00000E+00         0.00000E+00
    0.00000E+00         0.00000E+00         0.00000E+00
    0.00000E+00         0.00000E+00         0.00000E+00
    0.00000E+00         0.00000E+00         0.00000E+00
    0.00000E+00         0.00000E+00         0.00000E+00
    0.00000E+00         0.00000E+00         0.00000E+00
    0.00000E+00         0.00000E+00         0.00000E+00
    0.00000E+00         0.00000E+00         0.00000E+00
    0.00000E+00         0.00000E+00         0.00000E+00
    0.00000E+00         0.00000E+00         0.00000E+00
    0.00000E+00         0.00000E+00         0.00000E+00
    0.00000E+00         0.00000E+00         0.00000E+00
    0.00000E+00         0.00000E+00         0.00000E+00
    0.00000E+00         0.00000E+00         0.00000E+00
    0.00000E+00         0.00000E+00         0.00000E+00
    0.00000E+00         0.00000E+00         0.00000E+00
    0.00000E+00         0.00000E+00         0.00000E+00
    0.00000E+00         0.00000E+00         0.00000E+00
    0.00000E+00         0.00000E+00         0.00000E+00
    0.00000E+00         0.00000E+00         0.00000E+00
    0.00000E+00         0.00000E+00         0.00000E+00
    0.00000E+00         0.00000E+00         0.00000E+00
    0.00000E+00         0.00000E+00         0.00000E+00
    0.00000E+00         0.00000E+00         0.00000E+00
    0.00000E+00         0.00000E+00         0.00000E+00
    0.00000E+00         0.00000E+00         0.00000E+00
    0.00000E+00         0.00000E+00         0.00000E+00
    0.00000E+00         0.00000E+00         0.00000E+00
    0.00000E+00         0.00000E+00         0.00000E+00
    0.00000E+00         0.00000E+00         0.00000E+00
    0.00000E+00         0.00000E+00         0.00000E+00
    0.00000E+00         0.00000E+00         0.00000E+00
    0.00000E+00         0.00000E+00         0.00000E+00
    0.00000E+00         0.00000E+00         0.00000E+00
    0.00000E+00         0.00000E+00         0.00000E+00
    0.00000E+00         0.00000E+00         0.00000E+00
    0.00000E+00         0.00000E+00         0.00000E+00
    0.00000E+00         0.00000E+00         0.00000E+00
    0.00000E+00         0.00000E+00         0.00000E+00
    0.00000E+00         0.00000E+00         0.00000E+00
    0.00000E+00         0.00000E+00         0.00000E+00
    0.00000E+00         0.00000E+00         0.00000E+00
    0.00000E+00         0.00000E+00         0.00000E+00
    0.00000E+00         0.00000E+00         0.00000E+00
    0.00000E+00         0.00000E+00         0.00000E+00
    0.00000E+00         0.00000E+00         0.00000E+00
    0.00000E+00         0.00000E+00         0.00000E+00
    0.00000E+00         0.00000E+00         0.00000E+00
    0.00000E+00         0.00000E+00         0.00000E+00
    0.00000E+00         0.00000E+00         0.00000E+00
    0.00000E+00         0.00000E+00         0.00000E+00
    0.00000E+00         0.00000E+00         0.00000E+00
    0.00000E+00         0.00000E+00         0.00000E+00
    0.00000E+00         0.00000E+00         0.00000E+00
    0.00000E+00         0.00000E+00         0.00000E+00
    0.00000E+00         0.00000E+00         0.00000E+00
    0.00000E+00         0.00000E+00         0.00000E+00
    0.00000E+00         0.00000E+00         0.00000E+00
    0.00000E+00         0.00000E+00         0.00000E+00
    0.00000E+00         0.00000E+00         0.00000E+00
    0.00000E+00         0.00000E+00         0.00000E+00
    0.00000E+00         0.00000E+00         0.00000E+00
    0.00000E+00         0.00000E+00         0.00000E+00
    0.00000E+00         0.00000E+00         0.00000E+00
    0.00000E+00         0.00000E+00         0.00000E+00
    0.00000E+00         0.00000E+00         0.00000E+00
    0.00000E+00         0.00000E+00         0.00000E+00
    0.00000E+00         0.00000E+00         0.00000E+00
    0.00000E+00         0.00000E+00         0.00000E+00
    0.00000E+00         0.00000E+00         0.00000E+00
    0.00000E+00         0.00000E+00         0.00000E+00
    0.00000E+00         0.00000E+00         0.00000E+00
    0.00000E+00         0.00000E+00         0.00000E+00
    0.00000E+00         0.00000E+00         0.00000E+00
    0.00000E+00         0.00000E+00         0.00000E+00
    0.00000E+00         0.00000E+00         0.00000E+00
    0.00000E+00         0.00000E+00         0.00000E+00
    0.00000E+00         0.00000E+00         0.00000E+00
    0.00000E+00         0.00000E+00         0.00000E+00
    0.00000E+00         0.00000E+00         0.00000E+00
    0.00000E+00         0.00000E+00         0.00000E+00
    0.00000E+00         0.00000E+00         0.00000E+00
    0.00000E+00         0.00000E+00         0.00000E+00
    0.00000E+00         0.00000E+00         0.00000E+00
    0.00000E+00         0.00000E+00         0.00000E+00
    0.00000E+00         0.00000E+00         0.00000E+00
    0.00000E+00         0.00000E+00         0.00000E+00
    0.00000E+00         0.00000E+00         0.00000E+00
    0.00000E+00         0.00000E+00         0.00000E+00
    0.00000E+00         0.00000E+00         0.00000E+00
    0.00000E+00         0.00000E+00         0.00000E+00
    0.00000E+00         0.00000E+00         0.00000E+00
    0.00000E+00         0.00000E+00         0.00000E+00
    0.00000E+00         0.00000E+00         0.00000E+00
    0.00000E+00         0.00000E+00         0.00000E+00
    0.00000E+00         0.00000E+00         0.00000E+00
    0.00000E+00         0.00000E+00         0.00000E+00
    0.00000E+00         0.00000E+00         0.00000E+00
    0.00000E+00         0.00000E+00         0.00000E+00
    0.00000E+00         0.00000E+00         0.00000E+00
    0.00000E+00         0.00000E+00         0.00000E+00
    0.00000E+00         0.00000E+00         0.00000E+00
    0.00000E+00         0.00000E+00         0.00000E+00
    0.00000E+00         0.00000E+00         0.00000E+00
    0.00000E+00         0.00000E+00         0.00000E+00
    0.00000E+00         0.00000E+00         0.00000E+00
    0.00000E+00         0.00000E+00         0.00000E+00
    0.00000E+00         0.00000E+00         0.00000E+00
    0.00000E+00         0.00000E+00         0.00000E+00
    0.00000E+00         0.00000E+00         0.00000E+00
    0.00000E+00         0.00000E+00         0.00000E+00
    0.00000E+00         0.00000E+00         0.00000E+00
    0.00000E+00         0.00000E+00         0.00000E+00
    0.00000E+00         0.00000E+00         0.00000E+00
    0.00000E+00         0.00000E+00         0.00000E+00
    0.00000E+00         0.00000E+00         0.00000E+00
    0.00000E+00         0.00000E+00         0.00000E+00
    0.00000E+00         0.00000E+00         0.00000E+00
    0.00000E+00         0.00000E+00         0.00000E+00
    0.00000E+00         0.00000E+00         0.00000E+00
    0.00000E+00         0.00000E+00         0.00000E+00
    0.00000E+00         0.00000E+00         0.00000E+00
    0.00000E+00         0.00000E+00         0.00000E+00
    0.00000E+00         0.00000E+00         0.00000E+00
    0.00000E+00         0.00000E+00         0.00000E+00
    0.00000E+00         0.00000E+00         0.00000E+00
    0.00000E+00         0.00000E+00         0.00000E+00
    0.00000E+00         0.00000E+00         0.00000E+00
    0.00000E+00         0.00000E+00         0.00000E+00
    0.00000E+00         0.00000E+00         0.00000E+00
    0.00000E+00         0.00000E+00         0.00000E+00
    0.00000E+00         0.00000E+00         0.00000E+00
    0.00000E+00         0.00000E+00         0.00000E+00
    0.00000E+00         0.00000E+00         0.00000E+00
    0.00000E+00         0.00000E+00         0.00000E+00
    0.00000E+00         0.00000E+00         0.00000E+00
    0.00000E+00         0.00000E+00         0.00000E+00
    0.00000E+00         0.00000E+00         0.00000E+00
    0.00000E+00         0.00000E+00         0.00000E+00
    0.00000E+00         0.00000E+00         0.00000E+00
    0.00000E+00         0.00000E+00         0.00000E+00
    0.00000E+00         0.00000E+00         0.00000E+00
    0.00000E+00         0.00000E+00         0.00000E+00
    0.00000E+00         0.00000E+00         0.00000E+00
    0.00000E+00         0.00000E+00         0.00000E+00
    0.00000E+00         0.00000E+00         0.00000E+00
    0.00000E+00         0.00000E+00         0.00000E+00
    0.00000E+00         0.00000E+00         0.00000E+00
    0.00000E+00         0.00000E+00         0.00000E+00
    0.00000E+00         0.00000E+00         0.00000E+00
    0.00000E+00         0.00000E+00         0.00000E+00
    0.00000E+00         0.00000E+00         0.00000E+00
    0.00000E+00         0.00000E+00         0.00000E+00
    0.65834E-08         0.14356E-10         0.00000E+00
    0.65793E-08         0.86841E-11         0.00000E+00
    0.65766E-08         0.41090E-11         0.00000E+00
    0.65752E-08         0.91095E-12         0.00000E+00
    0.67927E-08         0.12818E-10         0.00000E+00
    0.67871E-08         0.33094E-10         0.00000E+00
    0.67784E-08         0.46414E-10         0.00000E+00
    0.67686E-08         0.53950E-10         0.00000E+00
    0.67589E-08         0.56972E-10         0.00000E+00
    0.67496E-08         0.56501E-10         0.00000E+00
    0.67409E-08         0.53354E-10         0.00000E+00
    0.67330E-08         0.48207E-10         0.00000E+00
    0.67258E-08         0.41643E-10         0.00000E+00
    0.67196E-08         0.34196E-10         0.00000E+00
    0.67142E-08         0.26385E-10         0.00000E+00
    0.67099E-08         0.18727E-10         0.00000E+00
    0.67067E-08         0.11736E-10         0.00000E+00
    0.67046E-08         0.58786E-11         0.00000E+00
    0.67036E-08         0.15287E-11         0.00000E+00
    0.68770E-08         0.16619E-10         0.00000E+00
    0.68712E-08         0.41069E-10         0.00000E+00
    0.68634E-08         0.55199E-10         0.00000E+00
    0.68560E-08         0.62556E-10         0.00000E+00
    0.68494E-08         0.65023E-10         0.00000E+00
    0.68436E-08         0.63869E-10         0.00000E+00
    0.68384E-08         0.60023E-10         0.00000E+00
    0.68339E-08         0.54205E-10         0.00000E+00
    0.68299E-08         0.46990E-10         0.00000E+00
    0.68263E-08         0.38873E-10         0.00000E+00
    0.68232E-08         0.30321E-10         0.00000E+00
    0.68206E-08         0.21826E-10         0.00000E+00
    0.68186E-08         0.13922E-10         0.00000E+00
    0.68173E-08         0.71566E-11         0.00000E+00
    0.68166E-08         0.20127E-11         0.00000E+00
    0.69351E-08         0.20615E-10         0.00000E+00
    0.69300E-08         0.48393E-10         0.00000E+00
    0.69246E-08         0.61407E-10         0.00000E+00
    0.69210E-08         0.67653E-10         0.00000E+00
    0.69188E-08         0.69099E-10         0.00000E+00
    0.69176E-08         0.67115E-10         0.00000E+00
    0.69171E-08         0.62670E-10         0.00000E+00
    0.69170E-08         0.56470E-10         0.00000E+00
    0.69169E-08         0.49037E-10         0.00000E+00
    0.69167E-08         0.40783E-10         0.00000E+00
    0.69164E-08         0.32080E-10         0.00000E+00
    0.69159E-08         0.23335E-10         0.00000E+00
    0.69153E-08         0.15055E-10         0.00000E+00
    0.69149E-08         0.78520E-11         0.00000E+00
    0.69147E-08         0.23447E-11         0.00000E+00
    0.69665E-08         0.24108E-10         0.00000E+00
    0.69633E-08         0.53595E-10         0.00000E+00
    0.69618E-08         0.63621E-10         0.00000E+00
    0.69635E-08         0.67767E-10         0.00000E+00
    0.69673E-08         0.67813E-10         0.00000E+00
    0.69722E-08         0.65017E-10         0.00000E+00
    0.69775E-08         0.60248E-10         0.00000E+00
    0.69827E-08         0.54108E-10         0.00000E+00
    0.69874E-08         0.47018E-10         0.00000E+00
    0.69913E-08         0.39279E-10         0.00000E+00
    0.69943E-08         0.31141E-10         0.00000E+00
    0.69964E-08         0.22882E-10         0.00000E+00
    0.69976E-08         0.14919E-10         0.00000E+00
    0.69983E-08         0.78682E-11         0.00000E+00
    0.69985E-08         0.25125E-11         0.00000E+00
    0.69686E-08         0.26244E-10         0.00000E+00
    0.69694E-08         0.54403E-10         0.00000E+00
    0.69746E-08         0.59742E-10         0.00000E+00
    0.69840E-08         0.61002E-10         0.00000E+00
    0.69957E-08         0.59596E-10         0.00000E+00
    0.70081E-08         0.56318E-10         0.00000E+00
    0.70203E-08         0.51748E-10         0.00000E+00
    0.70317E-08         0.46293E-10         0.00000E+00
    0.70419E-08         0.40227E-10         0.00000E+00
    0.70506E-08         0.33736E-10         0.00000E+00
    0.70575E-08         0.26955E-10         0.00000E+00
    0.70626E-08         0.20030E-10         0.00000E+00
    0.70661E-08         0.13220E-10         0.00000E+00
    0.70680E-08         0.70981E-11         0.00000E+00
    0.70688E-08         0.25147E-11         0.00000E+00
    0.69360E-08         0.24868E-10         0.00000E+00
    0.69455E-08         0.46251E-10         0.00000E+00
    0.69629E-08         0.46003E-10         0.00000E+00
    0.69839E-08         0.44916E-10         0.00000E+00
    0.70056E-08         0.42798E-10         0.00000E+00
    0.70269E-08         0.39857E-10         0.00000E+00
    0.70469E-08         0.36318E-10         0.00000E+00
    0.70652E-08         0.32358E-10         0.00000E+00
    0.70813E-08         0.28105E-10         0.00000E+00
    0.70951E-08         0.23642E-10         0.00000E+00
    0.71064E-08         0.19025E-10         0.00000E+00
    0.71151E-08         0.14303E-10         0.00000E+00
    0.71212E-08         0.95795E-11         0.00000E+00
    0.71249E-08         0.52303E-11         0.00000E+00
    0.71263E-08         0.24861E-11         0.00000E+00
    0.68609E-08         0.11456E-10         0.00000E+00
    0.68925E-08         0.19574E-10         0.00000E+00
    0.69305E-08         0.18032E-10         0.00000E+00
    0.69660E-08         0.17103E-10         0.00000E+00
    0.69994E-08         0.16024E-10         0.00000E+00
    0.70304E-08         0.14776E-10         0.00000E+00
    0.70587E-08         0.13388E-10         0.00000E+00
    0.70842E-08         0.11895E-10         0.00000E+00
    0.71065E-08         0.10327E-10         0.00000E+00
    0.71257E-08         0.87018E-11         0.00000E+00
    0.71415E-08         0.70336E-11         0.00000E+00
    0.71540E-08         0.53302E-11         0.00000E+00
    0.71630E-08         0.36114E-11         0.00000E+00
    0.71687E-08         0.19792E-11         0.00000E+00
    0.71722E-08         0.12487E-11         0.00000E+00
POINT_DATA        496
VECTORS vDarcyNodal double 
    0.00000E+00        -0.38209E-01         0.00000E+00
    0.00000E+00        -0.35348E-01         0.00000E+00
    0.00000E+00        -0.32529E-01         0.00000E+00
    0.00000E+00        -0.29756E-01         0.00000E+00
    0.00000E+00        -0.27031E-01         0.00000E+00
    0.00000E+00        -0.24356E-01         0.00000E+00
    0.00000E+00        -0.21731E-01         0.00000E+00
    0.00000E+00        -0.19157E-01         0.00000E+00
    0.00000E+00        -0.16631E-01         0.00000E+00
    0.00000E+00        -0.14152E-01         0.00000E+00
    0.00000E+00        -0.11715E-01         0.00000E+00
    0.00000E+00        -0.93179E-02         0.00000E+00
    0.00000E+00        -0.69549E-02         0.00000E+00
    0.00000E+00        -0.46213E-02         0.00000E+00
    0.00000E+00        -0.23031E-02         0.00000E+00
    0.00000E+00         0.00000E+00         0.00000E+00
    0.84576E-03        -0.38243E-01         0.00000E+00
    0.77671E-03        -0.35381E-01         0.00000E+00
    0.70523E-03        -0.32562E-01         0.00000E+00
    0.63215E-03        -0.29787E-01         0.00000E+00
    0.55858E-03        -0.27061E-01         0.00000E+00
    0.48579E-03        -0.24384E-01         0.00000E+00
    0.41506E-03        -0.21758E-01         0.00000E+00
    0.34755E-03        -0.19181E-01         0.00000E+00
    0.28427E-03        -0.16653E-01         0.00000E+00
    0.22608E-03        -0.14171E-01         0.00000E+00
    0.17375E-03        -0.11731E-01         0.00000E+00
    0.12796E-03        -0.93303E-02         0.00000E+00
    0.89181E-04        -0.69637E-02         0.00000E+00
    0.57315E-04        -0.46269E-02         0.00000E+00
    0.28718E-04        -0.23060E-02         0.00000E+00
    0.00000E+00         0.00000E+00         0.00000E+00
    0.16852E-02        -0.38344E-01         0.00000E+00
    0.15474E-02        -0.35480E-01         0.00000E+00
    0.14049E-02        -0.32658E-01         0.00000E+00
    0.12592E-02        -0.29881E-01         0.00000E+00
    0.11125E-02        -0.27151E-01         0.00000E+00
    0.96754E-03        -0.24470E-01         0.00000E+00
    0.82684E-03        -0.21838E-01         0.00000E+00
    0.69265E-03        -0.19256E-01         0.00000E+00
    0.56696E-03        -0.16720E-01         0.00000E+00
    0.45135E-03        -0.14229E-01         0.00000E+00
    0.34714E-03        -0.11779E-01         0.00000E+00
    0.25556E-03        -0.93677E-02         0.00000E+00
    0.17759E-03        -0.69906E-02         0.00000E+00
    0.11361E-03        -0.46437E-02         0.00000E+00
    0.56815E-04        -0.23146E-02         0.00000E+00
    0.00000E+00         0.00000E+00         0.00000E+00
    0.25117E-02        -0.38512E-01         0.00000E+00
    0.23061E-02        -0.35645E-01         0.00000E+00
    0.20933E-02        -0.32818E-01         0.00000E+00
    0.18758E-02        -0.30036E-01         0.00000E+00
    0.16571E-02        -0.27300E-01         0.00000E+00
    0.14413E-02        -0.24612E-01         0.00000E+00
    0.12321E-02        -0.21972E-01         0.00000E+00
    0.10329E-02        -0.19379E-01         0.00000E+00
    0.84644E-03        -0.16831E-01         0.00000E+00
    0.67485E-03        -0.14326E-01         0.00000E+00
    0.51978E-03        -0.11860E-01         0.00000E+00
    0.38267E-03        -0.94307E-02         0.00000E+00
    0.26490E-03        -0.70356E-02         0.00000E+00
    0.16799E-03        -0.46716E-02         0.00000E+00
    0.83444E-04        -0.23290E-02         0.00000E+00
    0.00000E+00         0.00000E+00         0.00000E+00
    0.33187E-02        -0.38746E-01         0.00000E+00
    0.30464E-02        -0.35874E-01         0.00000E+00
    0.27644E-02        -0.33042E-01         0.00000E+00
    0.24765E-02        -0.30253E-01         0.00000E+00
    0.21875E-02        -0.27509E-01         0.00000E+00
    0.19029E-02        -0.24811E-01         0.00000E+00
    0.16276E-02        -0.22159E-01         0.00000E+00
    0.13658E-02        -0.19551E-01         0.00000E+00
    0.11209E-02        -0.16986E-01         0.00000E+00
    0.89539E-03        -0.14460E-01         0.00000E+00
    0.69104E-03        -0.11973E-01         0.00000E+00
    0.50932E-03        -0.95202E-02         0.00000E+00
    0.35154E-03        -0.71002E-02         0.00000E+00
    0.21922E-03        -0.47114E-02         0.00000E+00
    0.10755E-03        -0.23491E-02         0.00000E+00
    0.00000E+00         0.00000E+00         0.00000E+00
    0.40992E-02        -0.39045E-01         0.00000E+00
    0.37615E-02        -0.36167E-01         0.00000E+00
    0.34121E-02        -0.33328E-01         0.00000E+00
    0.30558E-02        -0.30531E-01         0.00000E+00
    0.26992E-02        -0.27777E-01         0.00000E+00
    0.23488E-02        -0.25066E-01         0.00000E+00
    0.20105E-02        -0.22398E-01         0.00000E+00
    0.16892E-02        -0.19771E-01         0.00000E+00
    0.13887E-02        -0.17183E-01         0.00000E+00
    0.11116E-02        -0.14633E-01         0.00000E+00
    0.85991E-03        -0.12118E-01         0.00000E+00
    0.63502E-03        -0.96365E-02         0.00000E+00
    0.43784E-03        -0.71860E-02         0.00000E+00
    0.26899E-03        -0.47657E-02         0.00000E+00
    0.12828E-03        -0.23740E-02         0.00000E+00
    0.00000E+00         0.00000E+00         0.00000E+00
    0.48459E-02        -0.39407E-01         0.00000E+00
    0.44445E-02        -0.36522E-01         0.00000E+00
    0.40297E-02        -0.33676E-01         0.00000E+00
    0.36080E-02        -0.30869E-01         0.00000E+00
    0.31873E-02        -0.28103E-01         0.00000E+00
    0.27751E-02        -0.25376E-01         0.00000E+00
    0.23778E-02        -0.22688E-01         0.00000E+00
    0.20008E-02        -0.20038E-01         0.00000E+00
    0.16480E-02        -0.17423E-01         0.00000E+00
    0.13221E-02        -0.14843E-01         0.00000E+00
    0.10253E-02        -0.12296E-01         0.00000E+00
    0.75877E-03        -0.97794E-02         0.00000E+00
    0.52344E-03        -0.72933E-02         0.00000E+00
    0.31964E-03        -0.48360E-02         0.00000E+00
    0.14722E-03        -0.24064E-02         0.00000E+00
    0.00000E+00         0.00000E+00         0.00000E+00
    0.55511E-02        -0.39831E-01         0.00000E+00
    0.50881E-02        -0.36939E-01         0.00000E+00
    0.46109E-02        -0.34084E-01         0.00000E+00
    0.41277E-02        -0.31266E-01         0.00000E+00
    0.36476E-02        -0.28485E-01         0.00000E+00
    0.31785E-02        -0.25739E-01         0.00000E+00
    0.27271E-02        -0.23028E-01         0.00000E+00
    0.22987E-02        -0.20350E-01         0.00000E+00
    0.18972E-02        -0.17704E-01         0.00000E+00
    0.15257E-02        -0.15089E-01         0.00000E+00
    0.11861E-02        -0.12504E-01         0.00000E+00
    0.87982E-03        -0.99480E-02         0.00000E+00
    0.60787E-03        -0.74208E-02         0.00000E+00
    0.37068E-03        -0.49213E-02         0.00000E+00
    0.16831E-03        -0.24486E-02         0.00000E+00
    0.00000E+00         0.00000E+00         0.00000E+00
    0.62073E-02        -0.40314E-01         0.00000E+00
    0.56851E-02        -0.37416E-01         0.00000E+00
    0.51494E-02        -0.34551E-01         0.00000E+00
    0.46099E-02        -0.31720E-01         0.00000E+00
    0.40760E-02        -0.28921E-01         0.00000E+00
    0.35558E-02        -0.26153E-01         0.00000E+00
    0.30557E-02        -0.23415E-01         0.00000E+00
    0.25807E-02        -0.20705E-01         0.00000E+00
    0.21349E-02        -0.18023E-01         0.00000E+00
    0.17211E-02        -0.15369E-01         0.00000E+00
    0.13416E-02        -0.12741E-01         0.00000E+00
    0.99781E-03        -0.10141E-01         0.00000E+00
    0.69097E-03        -0.75670E-02         0.00000E+00
    0.42189E-03        -0.50195E-02         0.00000E+00
    0.19137E-03        -0.24975E-02         0.00000E+00
    0.00000E+00         0.00000E+00         0.00000E+00
    0.68071E-02        -0.40856E-01         0.00000E+00
    0.62289E-02        -0.37949E-01         0.00000E+00
    0.56397E-02        -0.35074E-01         0.00000E+00
    0.50500E-02        -0.32228E-01         0.00000E+00
    0.44691E-02        -0.29409E-01         0.00000E+00
    0.39041E-02        -0.26616E-01         0.00000E+00
    0.33611E-02        -0.23847E-01         0.00000E+00
    0.28449E-02        -0.21102E-01         0.00000E+00
    0.23594E-02        -0.18380E-01         0.00000E+00
    0.19075E-02        -0.15681E-01         0.00000E+00
    0.14913E-02        -0.13007E-01         0.00000E+00
    0.11127E-02        -0.10356E-01         0.00000E+00
    0.77299E-03        -0.77303E-02         0.00000E+00
    0.47356E-03        -0.51290E-02         0.00000E+00
    0.21557E-03        -0.25523E-02         0.00000E+00
    0.00000E+00         0.00000E+00         0.00000E+00
    0.73438E-02        -0.41452E-01         0.00000E+00
    0.67139E-02        -0.38536E-01         0.00000E+00
    0.60773E-02        -0.35649E-01         0.00000E+00
    0.54444E-02        -0.32786E-01         0.00000E+00
    0.48232E-02        -0.29944E-01         0.00000E+00
    0.42202E-02        -0.27123E-01         0.00000E+00
    0.36408E-02        -0.24321E-01         0.00000E+00
    0.30894E-02        -0.21537E-01         0.00000E+00
    0.25695E-02        -0.18771E-01         0.00000E+00
    0.20839E-02        -0.16025E-01         0.00000E+00
    0.16349E-02        -0.13298E-01         0.00000E+00
    0.12244E-02        -0.10593E-01         0.00000E+00
    0.85417E-03        -0.79095E-02         0.00000E+00
    0.52573E-03        -0.52490E-02         0.00000E+00
    0.24058E-03        -0.26123E-02         0.00000E+00
    0.00000E+00         0.00000E+00         0.00000E+00
    0.78122E-02        -0.42100E-01         0.00000E+00
    0.71357E-02        -0.39174E-01         0.00000E+00
    0.64584E-02        -0.36272E-01         0.00000E+00
    0.57894E-02        -0.33390E-01         0.00000E+00
    0.51352E-02        -0.30524E-01         0.00000E+00
    0.45013E-02        -0.27672E-01         0.00000E+00
    0.38923E-02        -0.24833E-01         0.00000E+00
    0.33120E-02        -0.22007E-01         0.00000E+00
    0.27636E-02        -0.19194E-01         0.00000E+00
    0.22495E-02        -0.16396E-01         0.00000E+00
    0.17719E-02        -0.13614E-01         0.00000E+00
    0.13330E-02        -0.10849E-01         0.00000E+00
    0.93456E-03        -0.81033E-02         0.00000E+00
    0.57843E-03        -0.53789E-02         0.00000E+00
    0.26635E-03        -0.26773E-02         0.00000E+00
    0.00000E+00         0.00000E+00         0.00000E+00
    0.82081E-02        -0.42796E-01         0.00000E+00
    0.74910E-02        -0.39857E-01         0.00000E+00
    0.67798E-02        -0.36939E-01         0.00000E+00
    0.60816E-02        -0.34035E-01         0.00000E+00
    0.54017E-02        -0.31142E-01         0.00000E+00
    0.47443E-02        -0.28257E-01         0.00000E+00
    0.41130E-02        -0.25380E-01         0.00000E+00
    0.35108E-02        -0.22509E-01         0.00000E+00
    0.29402E-02        -0.19647E-01         0.00000E+00
    0.24033E-02        -0.16793E-01         0.00000E+00
    0.19020E-02        -0.13951E-01         0.00000E+00
    0.14383E-02        -0.11122E-01         0.00000E+00
    0.10142E-02        -0.83106E-02         0.00000E+00
    0.63172E-03        -0.55178E-02         0.00000E+00
    0.29295E-03        -0.27469E-02         0.00000E+00
    0.00000E+00         0.00000E+00         0.00000E+00
    0.85289E-02        -0.43533E-01         0.00000E+00
    0.77769E-02        -0.40581E-01         0.00000E+00
    0.70381E-02        -0.37644E-01         0.00000E+00
    0.63178E-02        -0.34717E-01         0.00000E+00
    0.56196E-02        -0.31795E-01         0.00000E+00
    0.49463E-02        -0.28875E-01         0.00000E+00
    0.43004E-02        -0.25957E-01         0.00000E+00
    0.36837E-02        -0.23040E-01         0.00000E+00
    0.30978E-02        -0.20124E-01         0.00000E+00
    0.25442E-02        -0.17212E-01         0.00000E+00
    0.20244E-02        -0.14307E-01         0.00000E+00
    0.15401E-02        -0.11412E-01         0.00000E+00
    0.10931E-02        -0.85298E-02         0.00000E+00
    0.68578E-03        -0.56648E-02         0.00000E+00
    0.32053E-03        -0.28204E-02         0.00000E+00
    0.00000E+00         0.00000E+00         0.00000E+00
    0.87718E-02        -0.44308E-01         0.00000E+00
    0.79905E-02        -0.41339E-01         0.00000E+00
    0.72306E-02        -0.38382E-01         0.00000E+00
    0.64951E-02        -0.35429E-01         0.00000E+00
    0.57860E-02        -0.32476E-01         0.00000E+00
    0.51046E-02        -0.29520E-01         0.00000E+00
    0.44519E-02        -0.26559E-01         0.00000E+00
    0.38284E-02        -0.23593E-01         0.00000E+00
    0.32346E-02        -0.20622E-01         0.00000E+00
    0.26710E-02        -0.17650E-01         0.00000E+00
    0.21384E-02        -0.14680E-01         0.00000E+00
    0.16379E-02        -0.11715E-01         0.00000E+00
    0.11712E-02        -0.87595E-02         0.00000E+00
    0.74076E-03        -0.58189E-02         0.00000E+00
    0.34928E-03        -0.28976E-02         0.00000E+00
    0.00000E+00         0.00000E+00         0.00000E+00
    0.89333E-02        -0.45114E-01         0.00000E+00
    0.81291E-02        -0.42127E-01         0.00000E+00
    0.73545E-02        -0.39147E-01         0.00000E+00
    0.66109E-02        -0.36167E-01         0.00000E+00
    0.58983E-02        -0.33181E-01         0.00000E+00
    0.52165E-02        -0.30186E-01         0.00000E+00
    0.45650E-02        -0.27181E-01         0.00000E+00
    0.39426E-02        -0.24164E-01         0.00000E+00
    0.33486E-02        -0.21137E-01         0.00000E+00
    0.27821E-02        -0.18103E-01         0.00000E+00
    0.22428E-02        -0.15065E-01         0.00000E+00
    0.17312E-02        -0.12029E-01         0.00000E+00
    0.12484E-02        -0.89977E-02         0.00000E+00
    0.79678E-03        -0.59788E-02         0.00000E+00
    0.37939E-03        -0.29777E-02         0.00000E+00
    0.00000E+00         0.00000E+00         0.00000E+00
    0.90103E-02        -0.45945E-01         0.00000E+00
    0.81898E-02        -0.42937E-01         0.00000E+00
    0.74075E-02        -0.39932E-01         0.00000E+00
    0.66628E-02        -0.36922E-01         0.00000E+00
    0.59541E-02        -0.33902E-01         0.00000E+00
    0.52797E-02        -0.30867E-01         0.00000E+00
    0.46372E-02        -0.27815E-01         0.00000E+00
    0.40240E-02        -0.24747E-01         0.00000E+00
    0.34376E-02        -0.21664E-01         0.00000E+00
    0.28756E-02        -0.18567E-01         0.00000E+00
    0.23363E-02        -0.15461E-01         0.00000E+00
    0.18190E-02        -0.12350E-01         0.00000E+00
    0.13242E-02        -0.92424E-02         0.00000E+00
    0.85379E-03        -0.61433E-02         0.00000E+00
    0.41094E-03        -0.30601E-02         0.00000E+00
    0.00000E+00         0.00000E+00         0.00000E+00
    0.90001E-02        -0.46793E-01         0.00000E+00
    0.81704E-02        -0.43763E-01         0.00000E+00
    0.73874E-02        -0.40731E-01         0.00000E+00
    0.66487E-02        -0.37689E-01         0.00000E+00
    0.59513E-02        -0.34632E-01         0.00000E+00
    0.52917E-02        -0.31555E-01         0.00000E+00
    0.46660E-02        -0.28457E-01         0.00000E+00
    0.40699E-02        -0.25337E-01         0.00000E+00
    0.34990E-02        -0.22195E-01         0.00000E+00
    0.29492E-02        -0.19035E-01         0.00000E+00
    0.24169E-02        -0.15861E-01         0.00000E+00
    0.19000E-02        -0.12677E-01         0.00000E+00
    0.13978E-02        -0.94914E-02         0.00000E+00
    0.91145E-03        -0.63109E-02         0.00000E+00
    0.44393E-03        -0.31442E-02         0.00000E+00
    0.00000E+00         0.00000E+00         0.00000E+00
    0.88999E-02        -0.47652E-01         0.00000E+00
    0.80683E-02        -0.44598E-01         0.00000E+00
    0.72919E-02        -0.41536E-01         0.00000E+00
    0.65665E-02        -0.38460E-01         0.00000E+00
    0.58877E-02        -0.35364E-01         0.00000E+00
    0.52504E-02        -0.32244E-01         0.00000E+00
    0.46491E-02        -0.29099E-01         0.00000E+00
    0.40778E-02        -0.25926E-01         0.00000E+00
    0.35302E-02        -0.22727E-01         0.00000E+00
    0.30001E-02        -0.19504E-01         0.00000E+00
    0.24822E-02        -0.16262E-01         0.00000E+00
    0.19722E-02        -0.13006E-01         0.00000E+00
    0.14679E-02        -0.97423E-02         0.00000E+00
    0.96906E-03        -0.64803E-02         0.00000E+00
    0.47816E-03        -0.32294E-02         0.00000E+00
    0.00000E+00         0.00000E+00         0.00000E+00
    0.87072E-02        -0.48513E-01         0.00000E+00
    0.78815E-02        -0.45432E-01         0.00000E+00
    0.71191E-02        -0.42339E-01         0.00000E+00
    0.64144E-02        -0.39227E-01         0.00000E+00
    0.57615E-02        -0.36091E-01         0.00000E+00
    0.51537E-02        -0.32927E-01         0.00000E+00
    0.45841E-02        -0.29732E-01         0.00000E+00
    0.40450E-02        -0.26507E-01         0.00000E+00
    0.35280E-02        -0.23252E-01         0.00000E+00
    0.30251E-02        -0.19968E-01         0.00000E+00
    0.25288E-02        -0.16660E-01         0.00000E+00
    0.20327E-02        -0.13332E-01         0.00000E+00
    0.15323E-02        -0.99928E-02         0.00000E+00
    0.10255E-02        -0.66500E-02         0.00000E+00
    0.51328E-03        -0.33150E-02         0.00000E+00
    0.00000E+00         0.00000E+00         0.00000E+00
    0.84196E-02        -0.49369E-01         0.00000E+00
    0.76079E-02        -0.46259E-01         0.00000E+00
    0.68674E-02        -0.43132E-01         0.00000E+00
    0.61909E-02        -0.39982E-01         0.00000E+00
    0.55711E-02        -0.36804E-01         0.00000E+00
    0.49999E-02        -0.33594E-01         0.00000E+00
    0.44688E-02        -0.30350E-01         0.00000E+00
    0.39685E-02        -0.27073E-01         0.00000E+00
    0.34890E-02        -0.23762E-01         0.00000E+00
    0.30203E-02        -0.20420E-01         0.00000E+00
    0.25528E-02        -0.17048E-01         0.00000E+00
    0.20778E-02        -0.13653E-01         0.00000E+00
    0.15882E-02        -0.10240E-01         0.00000E+00
    0.10790E-02        -0.68187E-02         0.00000E+00
    0.54871E-03        -0.34005E-02         0.00000E+00
    0.00000E+00         0.00000E+00         0.00000E+00
    0.80350E-02        -0.50211E-01         0.00000E+00
    0.72459E-02        -0.47070E-01         0.00000E+00
    0.65353E-02        -0.43907E-01         0.00000E+00
    0.58947E-02        -0.40716E-01         0.00000E+00
    0.53152E-02        -0.37494E-01         0.00000E+00
    0.47873E-02        -0.34237E-01         0.00000E+00
    0.43010E-02        -0.30945E-01         0.00000E+00
    0.38455E-02        -0.27616E-01         0.00000E+00
    0.34093E-02        -0.24252E-01         0.00000E+00
    0.29809E-02        -0.20853E-01         0.00000E+00
    0.25489E-02        -0.17423E-01         0.00000E+00
    0.21024E-02        -0.13964E-01         0.00000E+00
    0.16313E-02        -0.10481E-01         0.00000E+00
    0.11270E-02        -0.69846E-02         0.00000E+00
    0.58357E-03        -0.34851E-02         0.00000E+00
    0.00000E+00         0.00000E+00         0.00000E+00
    0.75516E-02        -0.51030E-01         0.00000E+00
    0.67941E-02        -0.47855E-01         0.00000E+00
    0.61220E-02        -0.44653E-01         0.00000E+00
    0.55251E-02        -0.41420E-01         0.00000E+00
    0.49929E-02        -0.38152E-01         0.00000E+00
    0.45146E-02        -0.34848E-01         0.00000E+00
    0.40786E-02        -0.31506E-01         0.00000E+00
    0.36728E-02        -0.28127E-01         0.00000E+00
    0.32846E-02        -0.24712E-01         0.00000E+00
    0.29015E-02        -0.21261E-01         0.00000E+00
    0.25108E-02        -0.17776E-01         0.00000E+00
    0.20999E-02        -0.14259E-01         0.00000E+00
    0.16560E-02        -0.10713E-01         0.00000E+00
    0.11658E-02        -0.71459E-02         0.00000E+00
    0.61652E-03        -0.35682E-02         0.00000E+00
    0.00000E+00         0.00000E+00         0.00000E+00
    0.69680E-02        -0.51817E-01         0.00000E+00
    0.62518E-02        -0.48605E-01         0.00000E+00
    0.56271E-02        -0.45363E-01         0.00000E+00
    0.50819E-02        -0.42085E-01         0.00000E+00
    0.46040E-02        -0.38769E-01         0.00000E+00
    0.41808E-02        -0.35416E-01         0.00000E+00
    0.37995E-02        -0.32025E-01         0.00000E+00
    0.34470E-02        -0.28598E-01         0.00000E+00
    0.31101E-02        -0.25135E-01         0.00000E+00
    0.27759E-02        -0.21637E-01         0.00000E+00
    0.24313E-02        -0.18103E-01         0.00000E+00
    0.20626E-02        -0.14534E-01         0.00000E+00
    0.16546E-02        -0.10932E-01         0.00000E+00
    0.11894E-02        -0.73003E-02         0.00000E+00
    0.64526E-03        -0.36489E-02         0.00000E+00
    0.00000E+00         0.00000E+00         0.00000E+00
    0.62828E-02        -0.52561E-01         0.00000E+00
    0.56184E-02        -0.49311E-01         0.00000E+00
    0.50508E-02        -0.46025E-01         0.00000E+00
    0.45656E-02        -0.42699E-01         0.00000E+00
    0.41484E-02        -0.39335E-01         0.00000E+00
    0.37851E-02        -0.35933E-01         0.00000E+00
    0.34615E-02        -0.32494E-01         0.00000E+00
    0.31643E-02        -0.29021E-01         0.00000E+00
    0.28804E-02        -0.25514E-01         0.00000E+00
    0.25974E-02        -0.21973E-01         0.00000E+00
    0.23023E-02        -0.18397E-01         0.00000E+00
    0.19811E-02        -0.14785E-01         0.00000E+00
    0.16175E-02        -0.11134E-01         0.00000E+00
    0.11896E-02        -0.74455E-02         0.00000E+00
    0.66550E-03        -0.37267E-02         0.00000E+00
    0.00000E+00         0.00000E+00         0.00000E+00
    0.54950E-02        -0.53250E-01         0.00000E+00
    0.48940E-02        -0.49960E-01         0.00000E+00
    0.43940E-02        -0.46628E-01         0.00000E+00
    0.39773E-02        -0.43253E-01         0.00000E+00
    0.36269E-02        -0.39839E-01         0.00000E+00
    0.33266E-02        -0.36387E-01         0.00000E+00
    0.30621E-02        -0.32903E-01         0.00000E+00
    0.28204E-02        -0.29387E-01         0.00000E+00
    0.25896E-02        -0.25842E-01         0.00000E+00
    0.23584E-02        -0.22265E-01         0.00000E+00
    0.21149E-02        -0.18654E-01         0.00000E+00
    0.18456E-02        -0.15005E-01         0.00000E+00
    0.15337E-02        -0.11314E-01         0.00000E+00
    0.11554E-02        -0.75785E-02         0.00000E+00
    0.67039E-03        -0.37999E-02         0.00000E+00
    0.00000E+00         0.00000E+00         0.00000E+00
    0.46035E-02        -0.53873E-01         0.00000E+00
    0.40794E-02        -0.50540E-01         0.00000E+00
    0.36589E-02        -0.47159E-01         0.00000E+00
    0.33191E-02        -0.43734E-01         0.00000E+00
    0.30400E-02        -0.40269E-01         0.00000E+00
    0.28043E-02        -0.36771E-01         0.00000E+00
    0.25982E-02        -0.33244E-01         0.00000E+00
    0.24105E-02        -0.29691E-01         0.00000E+00
    0.22313E-02        -0.26112E-01         0.00000E+00
    0.20512E-02        -0.22505E-01         0.00000E+00
    0.18599E-02        -0.18867E-01         0.00000E+00
    0.16455E-02        -0.15191E-01         0.00000E+00
    0.13916E-02        -0.11470E-01         0.00000E+00
    0.10741E-02        -0.76972E-02         0.00000E+00
    0.64795E-03        -0.38687E-02         0.00000E+00
    0.00000E+00         0.00000E+00         0.00000E+00
    0.36070E-02        -0.54415E-01         0.00000E+00
    0.31769E-02        -0.51035E-01         0.00000E+00
    0.28488E-02        -0.47605E-01         0.00000E+00
    0.25932E-02        -0.44128E-01         0.00000E+00
    0.23875E-02        -0.40616E-01         0.00000E+00
    0.22155E-02        -0.37076E-01         0.00000E+00
    0.20657E-02        -0.33512E-01         0.00000E+00
    0.19295E-02        -0.29928E-01         0.00000E+00
    0.17993E-02        -0.26322E-01         0.00000E+00
    0.16681E-02        -0.22692E-01         0.00000E+00
    0.15283E-02        -0.19033E-01         0.00000E+00
    0.13701E-02        -0.15338E-01         0.00000E+00
    0.11792E-02        -0.11598E-01         0.00000E+00
    0.93241E-03        -0.78007E-02         0.00000E+00
    0.58494E-03        -0.39338E-02         0.00000E+00
    0.00000E+00         0.00000E+00         0.00000E+00
    0.25068E-02        -0.54856E-01         0.00000E+00
    0.21909E-02        -0.51428E-01         0.00000E+00
    0.19680E-02        -0.47945E-01         0.00000E+00
    0.18006E-02        -0.44421E-01         0.00000E+00
    0.16672E-02        -0.40868E-01         0.00000E+00
    0.15561E-02        -0.37295E-01         0.00000E+00
    0.14594E-02        -0.33703E-01         0.00000E+00
    0.13714E-02        -0.30095E-01         0.00000E+00
    0.12873E-02        -0.26469E-01         0.00000E+00
    0.12024E-02        -0.22822E-01         0.00000E+00
    0.11118E-02        -0.19149E-01         0.00000E+00
    0.10089E-02        -0.15444E-01         0.00000E+00
    0.88349E-03        -0.11695E-01         0.00000E+00
    0.71674E-03        -0.78864E-02         0.00000E+00
    0.46751E-03        -0.39949E-02         0.00000E+00
    0.00000E+00         0.00000E+00         0.00000E+00
    0.13030E-02        -0.55170E-01         0.00000E+00
    0.11291E-02        -0.51691E-01         0.00000E+00
    0.10200E-02        -0.48161E-01         0.00000E+00
    0.93874E-03        -0.44601E-01         0.00000E+00
    0.87403E-03        -0.41021E-01         0.00000E+00
    0.82006E-03        -0.37425E-01         0.00000E+00
    0.77309E-03        -0.33816E-01         0.00000E+00
    0.73031E-03        -0.30193E-01         0.00000E+00
    0.68939E-03        -0.26555E-01         0.00000E+00
    0.64812E-03        -0.22897E-01         0.00000E+00
    0.60405E-03        -0.19217E-01         0.00000E+00
    0.55401E-03        -0.15506E-01         0.00000E+00
    0.49286E-03        -0.11755E-01         0.00000E+00
    0.41047E-03        -0.79463E-02         0.00000E+00
    0.28164E-03        -0.40497E-02         0.00000E+00
    0.00000E+00         0.00000E+00         0.00000E+00
    0.00000E+00        -0.55306E-01         0.00000E+00
    0.00000E+00        -0.51786E-01         0.00000E+00
    0.00000E+00        -0.48234E-01         0.00000E+00
    0.00000E+00        -0.44661E-01         0.00000E+00
    0.00000E+00        -0.41071E-01         0.00000E+00
    0.00000E+00        -0.37468E-01         0.00000E+00
    0.00000E+00        -0.33853E-01         0.00000E+00
    0.00000E+00        -0.30225E-01         0.00000E+00
    0.00000E+00        -0.26582E-01         0.00000E+00
    0.00000E+00        -0.22922E-01         0.00000E+00
    0.00000E+00        -0.19239E-01         0.00000E+00
    0.00000E+00        -0.15526E-01         0.00000E+00
    0.00000E+00        -0.11775E-01         0.00000E+00
    0.00000E+00        -0.79687E-02         0.00000E+00
    0.00000E+00        -0.40766E-02         0.00000E+00
    0.00000E+00         0.00000E+00         0.00000E+00
CELL_DATA        450
TENSORS stressef double 
   -0.61818E-07        -0.31674E-08         0.00000E+00
   -0.31674E-08        -0.17318E-07         0.00000E+00
    0.00000E+00         0.00000E+00        -0.15827E-07
 
   -0.33660E-09        -0.22294E-07         0.00000E+00
   -0.22294E-07        -0.29775E-07         0.00000E+00
    0.00000E+00         0.00000E+00        -0.60223E-08
 
    0.36720E-07         0.75448E-08         0.00000E+00
    0.75448E-08        -0.39697E-07         0.00000E+00
    0.00000E+00         0.00000E+00        -0.59538E-09
 
    0.14938E-07        -0.15620E-08         0.00000E+00
   -0.15620E-08        -0.25288E-07         0.00000E+00
    0.00000E+00         0.00000E+00        -0.20700E-08
 
    0.18401E-07        -0.37525E-08         0.00000E+00
   -0.37525E-08        -0.22927E-07         0.00000E+00
    0.00000E+00         0.00000E+00        -0.90519E-09
 
    0.14789E-07         0.54674E-08         0.00000E+00
    0.54674E-08        -0.27067E-07         0.00000E+00
    0.00000E+00         0.00000E+00        -0.24555E-08
 
   -0.12076E-08         0.30271E-08         0.00000E+00
    0.30271E-08        -0.21588E-07         0.00000E+00
    0.00000E+00         0.00000E+00        -0.45591E-08
 
   -0.90063E-08         0.14927E-08         0.00000E+00
    0.14927E-08        -0.15069E-07         0.00000E+00
    0.00000E+00         0.00000E+00        -0.48152E-08
 
   -0.16897E-07         0.20167E-08         0.00000E+00
    0.20167E-08        -0.12753E-07         0.00000E+00
    0.00000E+00         0.00000E+00        -0.59299E-08
 
   -0.10661E-07        -0.51388E-08         0.00000E+00
   -0.51388E-08        -0.15699E-07         0.00000E+00
    0.00000E+00         0.00000E+00        -0.52718E-08
 
   -0.53212E-08         0.61157E-09         0.00000E+00
    0.61157E-09        -0.17666E-07         0.00000E+00
    0.00000E+00         0.00000E+00        -0.45975E-08
 
   -0.44447E-08        -0.43043E-08         0.00000E+00
   -0.43043E-08        -0.15320E-07         0.00000E+00
    0.00000E+00         0.00000E+00        -0.39529E-08
 
    0.40983E-08         0.20496E-09         0.00000E+00
    0.20496E-09        -0.15460E-07         0.00000E+00
    0.00000E+00         0.00000E+00        -0.22723E-08
 
    0.29971E-08         0.11431E-08         0.00000E+00
    0.11431E-08        -0.14388E-07         0.00000E+00
    0.00000E+00         0.00000E+00        -0.22783E-08
 
   -0.13922E-08         0.62493E-09         0.00000E+00
    0.62493E-09        -0.13112E-07         0.00000E+00
    0.00000E+00         0.00000E+00        -0.29008E-08
 
   -0.38510E-07        -0.47998E-08         0.00000E+00
   -0.47998E-08        -0.19567E-07         0.00000E+00
    0.00000E+00         0.00000E+00        -0.11615E-07
 
   -0.62819E-08        -0.46255E-07         0.00000E+00
   -0.46255E-07        -0.30595E-07         0.00000E+00
    0.00000E+00         0.00000E+00        -0.73754E-08
 
    0.24993E-08         0.21509E-07         0.00000E+00
    0.21509E-07        -0.33378E-07         0.00000E+00
    0.00000E+00         0.00000E+00        -0.61757E-08
 
    0.11145E-07         0.22071E-08         0.00000E+00
    0.22071E-08        -0.34259E-07         0.00000E+00
    0.00000E+00         0.00000E+00        -0.46227E-08
 
    0.12507E-07         0.36682E-08         0.00000E+00
    0.36682E-08        -0.25449E-07         0.00000E+00
    0.00000E+00         0.00000E+00        -0.25885E-08
 
    0.32085E-08         0.58562E-08         0.00000E+00
    0.58562E-08        -0.20489E-07         0.00000E+00
    0.00000E+00         0.00000E+00        -0.34560E-08
 
   -0.10000E-08         0.51466E-08         0.00000E+00
    0.51466E-08        -0.22558E-07         0.00000E+00
    0.00000E+00         0.00000E+00        -0.47117E-08
 
   -0.14218E-07         0.24629E-08         0.00000E+00
    0.24629E-08        -0.18704E-07         0.00000E+00
    0.00000E+00         0.00000E+00        -0.65845E-08
 
   -0.14952E-07         0.39243E-08         0.00000E+00
    0.39243E-08        -0.16865E-07         0.00000E+00
    0.00000E+00         0.00000E+00        -0.63635E-08
 
   -0.69882E-08        -0.88426E-08         0.00000E+00
   -0.88426E-08        -0.12903E-07         0.00000E+00
    0.00000E+00         0.00000E+00        -0.39782E-08
 
   -0.21147E-08         0.63492E-08         0.00000E+00
    0.63492E-08        -0.13095E-07         0.00000E+00
    0.00000E+00         0.00000E+00        -0.30420E-08
 
    0.37625E-08        -0.67027E-08         0.00000E+00
   -0.67027E-08        -0.14903E-07         0.00000E+00
    0.00000E+00         0.00000E+00        -0.22281E-08
 
    0.48804E-08        -0.18436E-08         0.00000E+00
   -0.18436E-08        -0.13589E-07         0.00000E+00
    0.00000E+00         0.00000E+00        -0.17418E-08
 
   -0.36049E-08         0.23856E-08         0.00000E+00
    0.23856E-08        -0.15439E-07         0.00000E+00
    0.00000E+00         0.00000E+00        -0.38087E-08
 
   -0.67637E-08        -0.43798E-09         0.00000E+00
   -0.43798E-09        -0.17175E-07         0.00000E+00
    0.00000E+00         0.00000E+00        -0.47878E-08
 
   -0.36315E-07        -0.14147E-07         0.00000E+00
   -0.14147E-07        -0.25058E-07         0.00000E+00
    0.00000E+00         0.00000E+00        -0.12275E-07
 
   -0.15526E-07        -0.50162E-07         0.00000E+00
   -0.50162E-07        -0.28615E-07         0.00000E+00
    0.00000E+00         0.00000E+00        -0.88282E-08
 
    0.20553E-08         0.28056E-07         0.00000E+00
    0.28056E-07        -0.25740E-07         0.00000E+00
    0.00000E+00         0.00000E+00        -0.47369E-08
 
    0.84028E-08         0.41188E-10         0.00000E+00
    0.41188E-10        -0.30571E-07         0.00000E+00
    0.00000E+00         0.00000E+00        -0.44337E-08
 
   -0.12855E-07         0.13400E-07         0.00000E+00
    0.13400E-07        -0.19329E-07         0.00000E+00
    0.00000E+00         0.00000E+00        -0.64369E-08
 
   -0.25467E-07        -0.13499E-08         0.00000E+00
   -0.13499E-08        -0.24437E-07         0.00000E+00
    0.00000E+00         0.00000E+00        -0.99806E-08
 
   -0.60433E-08         0.78169E-08         0.00000E+00
    0.78169E-08        -0.24657E-07         0.00000E+00
    0.00000E+00         0.00000E+00        -0.61401E-08
 
    0.60976E-08         0.66981E-08         0.00000E+00
    0.66981E-08        -0.18111E-07         0.00000E+00
    0.00000E+00         0.00000E+00        -0.24028E-08
 
    0.10751E-08         0.33847E-08         0.00000E+00
    0.33847E-08        -0.15543E-07         0.00000E+00
    0.00000E+00         0.00000E+00        -0.28936E-08
 
   -0.11240E-07        -0.98449E-08         0.00000E+00
   -0.98449E-08        -0.13628E-07         0.00000E+00
    0.00000E+00         0.00000E+00        -0.49736E-08
 
   -0.15033E-07         0.18776E-08         0.00000E+00
    0.18776E-08        -0.15308E-07         0.00000E+00
    0.00000E+00         0.00000E+00        -0.60683E-08
 
   -0.80197E-08        -0.10668E-07         0.00000E+00
   -0.10668E-07        -0.16171E-07         0.00000E+00
    0.00000E+00         0.00000E+00        -0.48382E-08
 
   -0.54399E-09         0.13873E-08         0.00000E+00
    0.13873E-08        -0.13795E-07         0.00000E+00
    0.00000E+00         0.00000E+00        -0.28678E-08
 
    0.83731E-09         0.78334E-08         0.00000E+00
    0.78334E-08        -0.16138E-07         0.00000E+00
    0.00000E+00         0.00000E+00        -0.30602E-08
 
   -0.14195E-08         0.15908E-08         0.00000E+00
    0.15908E-08        -0.15562E-07         0.00000E+00
    0.00000E+00         0.00000E+00        -0.33963E-08
 
   -0.70052E-09        -0.26095E-07         0.00000E+00
   -0.26095E-07        -0.24038E-07         0.00000E+00
    0.00000E+00         0.00000E+00        -0.49476E-08
 
   -0.83747E-08        -0.55511E-07         0.00000E+00
   -0.55511E-07        -0.24670E-07         0.00000E+00
    0.00000E+00         0.00000E+00        -0.66089E-08
 
   -0.17789E-07         0.19435E-07         0.00000E+00
    0.19435E-07        -0.28919E-07         0.00000E+00
    0.00000E+00         0.00000E+00        -0.93416E-08
 
   -0.25595E-07         0.23256E-08         0.00000E+00
    0.23256E-08        -0.24204E-07         0.00000E+00
    0.00000E+00         0.00000E+00        -0.99596E-08
 
   -0.93072E-08         0.18683E-07         0.00000E+00
    0.18683E-07        -0.13319E-07         0.00000E+00
    0.00000E+00         0.00000E+00        -0.45252E-08
 
    0.87060E-08         0.21636E-08         0.00000E+00
    0.21636E-08        -0.21135E-07         0.00000E+00
    0.00000E+00         0.00000E+00        -0.24858E-08
 
    0.11584E-08         0.12607E-07         0.00000E+00
    0.12607E-07        -0.21630E-07         0.00000E+00
    0.00000E+00         0.00000E+00        -0.40943E-08
 
   -0.12000E-07         0.11346E-07         0.00000E+00
    0.11346E-07        -0.19531E-07         0.00000E+00
    0.00000E+00         0.00000E+00        -0.63063E-08
 
   -0.16596E-07         0.61836E-08         0.00000E+00
    0.61836E-08        -0.15660E-07         0.00000E+00
    0.00000E+00         0.00000E+00        -0.64513E-08
 
   -0.10565E-07        -0.10068E-07         0.00000E+00
   -0.10068E-07        -0.14670E-07         0.00000E+00
    0.00000E+00         0.00000E+00        -0.50471E-08
 
   -0.99435E-08         0.34362E-08         0.00000E+00
    0.34362E-08        -0.15916E-07         0.00000E+00
    0.00000E+00         0.00000E+00        -0.51718E-08
 
   -0.16851E-07        -0.10442E-07         0.00000E+00
   -0.10442E-07        -0.18495E-07         0.00000E+00
    0.00000E+00         0.00000E+00        -0.70692E-08
 
   -0.14188E-07        -0.27744E-08         0.00000E+00
   -0.27744E-08        -0.16795E-07         0.00000E+00
    0.00000E+00         0.00000E+00        -0.61966E-08
 
   -0.72834E-08         0.52008E-08         0.00000E+00
    0.52008E-08        -0.19893E-07         0.00000E+00
    0.00000E+00         0.00000E+00        -0.54353E-08
 
   -0.32978E-08         0.14660E-08         0.00000E+00
    0.14660E-08        -0.13558E-07         0.00000E+00
    0.00000E+00         0.00000E+00        -0.33712E-08
 
    0.14483E-08        -0.19418E-07         0.00000E+00
   -0.19418E-07        -0.23795E-07         0.00000E+00
    0.00000E+00         0.00000E+00        -0.44693E-08
 
    0.14985E-08        -0.52356E-07         0.00000E+00
   -0.52356E-07        -0.16491E-07         0.00000E+00
    0.00000E+00         0.00000E+00        -0.29985E-08
 
   -0.27422E-08         0.19681E-07         0.00000E+00
    0.19681E-07        -0.22982E-07         0.00000E+00
    0.00000E+00         0.00000E+00        -0.51448E-08
 
    0.40978E-08         0.30171E-08         0.00000E+00
    0.30171E-08        -0.16428E-07         0.00000E+00
    0.00000E+00         0.00000E+00        -0.24660E-08
 
    0.19580E-07         0.11298E-07         0.00000E+00
    0.11298E-07        -0.10234E-07         0.00000E+00
    0.00000E+00         0.00000E+00         0.18693E-08
 
    0.10898E-07         0.10434E-07         0.00000E+00
    0.10434E-07        -0.20236E-07         0.00000E+00
    0.00000E+00         0.00000E+00        -0.18676E-08
 
   -0.33096E-08         0.14130E-07         0.00000E+00
    0.14130E-07        -0.99051E-08         0.00000E+00
    0.00000E+00         0.00000E+00        -0.26429E-08
 
   -0.11306E-07         0.11051E-07         0.00000E+00
    0.11051E-07        -0.15093E-07         0.00000E+00
    0.00000E+00         0.00000E+00        -0.52798E-08
 
   -0.74612E-08         0.17839E-08         0.00000E+00
    0.17839E-08        -0.13424E-07         0.00000E+00
    0.00000E+00         0.00000E+00        -0.41770E-08
 
   -0.38552E-08        -0.82626E-08         0.00000E+00
   -0.82626E-08        -0.16175E-07         0.00000E+00
    0.00000E+00         0.00000E+00        -0.40060E-08
 
   -0.86185E-08         0.66794E-08         0.00000E+00
    0.66794E-08        -0.15730E-07         0.00000E+00
    0.00000E+00         0.00000E+00        -0.48697E-08
 
   -0.11394E-07        -0.95594E-08         0.00000E+00
   -0.95594E-08        -0.15916E-07         0.00000E+00
    0.00000E+00         0.00000E+00        -0.54619E-08
 
   -0.10020E-07        -0.41200E-08         0.00000E+00
   -0.41200E-08        -0.14322E-07         0.00000E+00
    0.00000E+00         0.00000E+00        -0.48685E-08
 
   -0.83804E-08         0.17967E-08         0.00000E+00
    0.17967E-08        -0.13935E-07         0.00000E+00
    0.00000E+00         0.00000E+00        -0.44631E-08
 
   -0.73799E-08        -0.17051E-08         0.00000E+00
   -0.17051E-08        -0.20826E-07         0.00000E+00
    0.00000E+00         0.00000E+00        -0.56413E-08
 
   -0.17340E-08        -0.19390E-07         0.00000E+00
   -0.19390E-07        -0.95251E-08         0.00000E+00
    0.00000E+00         0.00000E+00        -0.22518E-08
 
   -0.25636E-08        -0.54125E-07         0.00000E+00
   -0.54125E-07        -0.10234E-07         0.00000E+00
    0.00000E+00         0.00000E+00        -0.25596E-08
 
   -0.41397E-08         0.21766E-07         0.00000E+00
    0.21766E-07        -0.30269E-07         0.00000E+00
    0.00000E+00         0.00000E+00        -0.68818E-08
 
    0.25553E-09         0.43674E-08         0.00000E+00
    0.43674E-08        -0.13880E-07         0.00000E+00
    0.00000E+00         0.00000E+00        -0.27248E-08
 
   -0.40943E-08         0.43652E-08         0.00000E+00
    0.43652E-08        -0.10350E-07         0.00000E+00
    0.00000E+00         0.00000E+00        -0.28888E-08
 
   -0.16860E-07         0.65605E-08         0.00000E+00
    0.65605E-08        -0.15725E-07         0.00000E+00
    0.00000E+00         0.00000E+00        -0.65170E-08
 
   -0.15790E-07         0.59267E-08         0.00000E+00
    0.59267E-08        -0.15159E-07         0.00000E+00
    0.00000E+00         0.00000E+00        -0.61898E-08
 
   -0.92979E-08         0.17160E-07         0.00000E+00
    0.17160E-07        -0.14281E-07         0.00000E+00
    0.00000E+00         0.00000E+00        -0.47159E-08
 
   -0.11096E-07         0.23827E-08         0.00000E+00
    0.23827E-08        -0.20568E-07         0.00000E+00
    0.00000E+00         0.00000E+00        -0.63327E-08
 
   -0.67558E-08        -0.79070E-08         0.00000E+00
   -0.79070E-08        -0.94947E-08         0.00000E+00
    0.00000E+00         0.00000E+00        -0.32501E-08
 
    0.19681E-09         0.92722E-09         0.00000E+00
    0.92722E-09        -0.15609E-07         0.00000E+00
    0.00000E+00         0.00000E+00        -0.30825E-08
 
    0.58153E-08        -0.75770E-08         0.00000E+00
   -0.75770E-08        -0.12268E-07         0.00000E+00
    0.00000E+00         0.00000E+00        -0.12905E-08
 
   -0.49678E-08        -0.23244E-08         0.00000E+00
   -0.23244E-08        -0.14167E-07         0.00000E+00
    0.00000E+00         0.00000E+00        -0.38270E-08
 
   -0.69746E-08         0.64729E-08         0.00000E+00
    0.64729E-08        -0.10343E-07         0.00000E+00
    0.00000E+00         0.00000E+00        -0.34636E-08
 
   -0.64028E-08         0.16576E-08         0.00000E+00
    0.16576E-08        -0.20924E-07         0.00000E+00
    0.00000E+00         0.00000E+00        -0.54654E-08
 
   -0.22251E-08        -0.27205E-07         0.00000E+00
   -0.27205E-07        -0.65606E-08         0.00000E+00
    0.00000E+00         0.00000E+00        -0.17571E-08
 
   -0.39396E-08        -0.57122E-07         0.00000E+00
   -0.57122E-07        -0.10967E-07         0.00000E+00
    0.00000E+00         0.00000E+00        -0.29812E-08
 
   -0.13151E-08         0.13140E-07         0.00000E+00
    0.13140E-07        -0.26854E-07         0.00000E+00
    0.00000E+00         0.00000E+00        -0.56338E-08
 
   -0.18520E-08        -0.23468E-08         0.00000E+00
   -0.23468E-08        -0.11651E-07         0.00000E+00
    0.00000E+00         0.00000E+00        -0.27007E-08
 
   -0.55849E-08         0.19954E-08         0.00000E+00
    0.19954E-08        -0.20263E-08         0.00000E+00
    0.00000E+00         0.00000E+00        -0.15222E-08
 
    0.39674E-08         0.12000E-07         0.00000E+00
    0.12000E-07        -0.54850E-08         0.00000E+00
    0.00000E+00         0.00000E+00        -0.30353E-09
 
    0.30210E-08         0.95084E-08         0.00000E+00
    0.95084E-08        -0.20952E-07         0.00000E+00
    0.00000E+00         0.00000E+00        -0.35862E-08
 
    0.16563E-08         0.16848E-07         0.00000E+00
    0.16848E-07        -0.13235E-07         0.00000E+00
    0.00000E+00         0.00000E+00        -0.23158E-08
 
   -0.12149E-08         0.80367E-10         0.00000E+00
    0.80367E-10        -0.18010E-07         0.00000E+00
    0.00000E+00         0.00000E+00        -0.38450E-08
 
   -0.42390E-08        -0.51939E-08         0.00000E+00
   -0.51939E-08        -0.51926E-08         0.00000E+00
    0.00000E+00         0.00000E+00        -0.18863E-08
 
   -0.21684E-08        -0.38760E-09         0.00000E+00
   -0.38760E-09        -0.20513E-07         0.00000E+00
    0.00000E+00         0.00000E+00        -0.45363E-08
 
   -0.25875E-09        -0.39894E-09         0.00000E+00
   -0.39894E-09        -0.94804E-08         0.00000E+00
    0.00000E+00         0.00000E+00        -0.19478E-08
 
   -0.32439E-08        -0.45190E-08         0.00000E+00
   -0.45190E-08        -0.10961E-07         0.00000E+00
    0.00000E+00         0.00000E+00        -0.28410E-08
 
   -0.19879E-08         0.11621E-08         0.00000E+00
    0.11621E-08        -0.13979E-07         0.00000E+00
    0.00000E+00         0.00000E+00        -0.31935E-08
 
   -0.52249E-08        -0.23399E-08         0.00000E+00
   -0.23399E-08        -0.17089E-07         0.00000E+00
    0.00000E+00         0.00000E+00        -0.44628E-08
 
   -0.21147E-08        -0.13492E-07         0.00000E+00
   -0.13492E-07        -0.10828E-07         0.00000E+00
    0.00000E+00         0.00000E+00        -0.25884E-08
 
   -0.17274E-07        -0.63023E-07         0.00000E+00
   -0.63023E-07        -0.10638E-07         0.00000E+00
    0.00000E+00         0.00000E+00        -0.55825E-08
 
   -0.16482E-07         0.72051E-08         0.00000E+00
    0.72051E-08        -0.12468E-07         0.00000E+00
    0.00000E+00         0.00000E+00        -0.57901E-08
 
   -0.84268E-08        -0.10011E-07         0.00000E+00
   -0.10011E-07        -0.14019E-07         0.00000E+00
    0.00000E+00         0.00000E+00        -0.44891E-08
 
   -0.95858E-08         0.17673E-08         0.00000E+00
    0.17673E-08        -0.14013E-07         0.00000E+00
    0.00000E+00         0.00000E+00        -0.47197E-08
 
   -0.88017E-08         0.27762E-08         0.00000E+00
    0.27762E-08        -0.16864E-07         0.00000E+00
    0.00000E+00         0.00000E+00        -0.51332E-08
 
   -0.11100E-08         0.13673E-07         0.00000E+00
    0.13673E-07        -0.15409E-07         0.00000E+00
    0.00000E+00         0.00000E+00        -0.33037E-08
 
   -0.11807E-08         0.10490E-07         0.00000E+00
    0.10490E-07        -0.14678E-07         0.00000E+00
    0.00000E+00         0.00000E+00        -0.31718E-08
 
    0.83264E-09         0.27393E-08         0.00000E+00
    0.27393E-08        -0.17673E-07         0.00000E+00
    0.00000E+00         0.00000E+00        -0.33680E-08
 
    0.46324E-08        -0.69268E-08         0.00000E+00
   -0.69268E-08        -0.10905E-07         0.00000E+00
    0.00000E+00         0.00000E+00        -0.12545E-08
 
   -0.24674E-08        -0.29451E-08         0.00000E+00
   -0.29451E-08        -0.13459E-07         0.00000E+00
    0.00000E+00         0.00000E+00        -0.31854E-08
 
   -0.92811E-08        -0.30979E-08         0.00000E+00
   -0.30979E-08        -0.87206E-08         0.00000E+00
    0.00000E+00         0.00000E+00        -0.36004E-08
 
   -0.78189E-08        -0.42302E-08         0.00000E+00
   -0.42302E-08        -0.15681E-07         0.00000E+00
    0.00000E+00         0.00000E+00        -0.47001E-08
 
   -0.75361E-08         0.10545E-07         0.00000E+00
    0.10545E-07        -0.19993E-07         0.00000E+00
    0.00000E+00         0.00000E+00        -0.55058E-08
 
   -0.28897E-08         0.15736E-08         0.00000E+00
    0.15736E-08        -0.96106E-08         0.00000E+00
    0.00000E+00         0.00000E+00        -0.25001E-08
 
   -0.47855E-08        -0.38793E-07         0.00000E+00
   -0.38793E-07        -0.22336E-07         0.00000E+00
    0.00000E+00         0.00000E+00        -0.54243E-08
 
   -0.31744E-09        -0.75209E-07         0.00000E+00
   -0.75209E-07        -0.15033E-07         0.00000E+00
    0.00000E+00         0.00000E+00        -0.30701E-08
 
    0.62331E-08         0.24441E-08         0.00000E+00
    0.24441E-08         0.32139E-10         0.00000E+00
    0.00000E+00         0.00000E+00         0.12531E-08
 
    0.12852E-07        -0.88805E-08         0.00000E+00
   -0.88805E-08        -0.14125E-07         0.00000E+00
    0.00000E+00         0.00000E+00        -0.25462E-09
 
    0.19691E-08         0.17170E-07         0.00000E+00
    0.17170E-07        -0.27261E-07         0.00000E+00
    0.00000E+00         0.00000E+00        -0.50583E-08
 
   -0.94086E-08         0.24711E-08         0.00000E+00
    0.24711E-08        -0.18653E-07         0.00000E+00
    0.00000E+00         0.00000E+00        -0.56124E-08
 
   -0.94922E-08         0.16037E-07         0.00000E+00
    0.16037E-07        -0.13613E-07         0.00000E+00
    0.00000E+00         0.00000E+00        -0.46210E-08
 
    0.43430E-08         0.80122E-08         0.00000E+00
    0.80122E-08        -0.97904E-08         0.00000E+00
    0.00000E+00         0.00000E+00        -0.10895E-08
 
    0.60763E-08         0.51582E-08         0.00000E+00
    0.51582E-08        -0.17012E-07         0.00000E+00
    0.00000E+00         0.00000E+00        -0.21871E-08
 
   -0.57260E-08        -0.91927E-08         0.00000E+00
   -0.91927E-08        -0.15139E-07         0.00000E+00
    0.00000E+00         0.00000E+00        -0.41730E-08
 
   -0.13524E-07         0.19829E-08         0.00000E+00
    0.19829E-08        -0.13469E-07         0.00000E+00
    0.00000E+00         0.00000E+00        -0.53987E-08
 
   -0.64294E-08        -0.29113E-08         0.00000E+00
   -0.29113E-08        -0.11153E-07         0.00000E+00
    0.00000E+00         0.00000E+00        -0.35165E-08
 
   -0.34904E-08        -0.32201E-08         0.00000E+00
   -0.32201E-08        -0.17429E-07         0.00000E+00
    0.00000E+00         0.00000E+00        -0.41839E-08
 
   -0.66435E-08        -0.80870E-09         0.00000E+00
   -0.80870E-09        -0.13342E-07         0.00000E+00
    0.00000E+00         0.00000E+00        -0.39970E-08
 
   -0.52981E-08        -0.75256E-08         0.00000E+00
   -0.75256E-08        -0.12076E-07         0.00000E+00
    0.00000E+00         0.00000E+00        -0.34749E-08
 
   -0.17695E-07        -0.25247E-07         0.00000E+00
   -0.25247E-07        -0.42858E-07         0.00000E+00
    0.00000E+00         0.00000E+00        -0.12111E-07
 
    0.27279E-08        -0.58358E-07         0.00000E+00
   -0.58358E-07        -0.28620E-07         0.00000E+00
    0.00000E+00         0.00000E+00        -0.51783E-08
 
    0.85771E-08         0.85430E-08         0.00000E+00
    0.85430E-08        -0.79786E-08         0.00000E+00
    0.00000E+00         0.00000E+00         0.11969E-09
 
    0.59666E-08        -0.59549E-09         0.00000E+00
   -0.59549E-09        -0.17663E-07         0.00000E+00
    0.00000E+00         0.00000E+00        -0.23392E-08
 
    0.85955E-08         0.14417E-07         0.00000E+00
    0.14417E-07        -0.20143E-07         0.00000E+00
    0.00000E+00         0.00000E+00        -0.23094E-08
 
   -0.54169E-08         0.40798E-08         0.00000E+00
    0.40798E-08        -0.19093E-07         0.00000E+00
    0.00000E+00         0.00000E+00        -0.49019E-08
 
   -0.13498E-07         0.55520E-08         0.00000E+00
    0.55520E-08        -0.16555E-07         0.00000E+00
    0.00000E+00         0.00000E+00        -0.60106E-08
 
   -0.10600E-07         0.50727E-08         0.00000E+00
    0.50727E-08        -0.13457E-07         0.00000E+00
    0.00000E+00         0.00000E+00        -0.48113E-08
 
   -0.16996E-07         0.63556E-08         0.00000E+00
    0.63556E-08        -0.16686E-07         0.00000E+00
    0.00000E+00         0.00000E+00        -0.67364E-08
 
   -0.96853E-08        -0.91001E-08         0.00000E+00
   -0.91001E-08        -0.16519E-07         0.00000E+00
    0.00000E+00         0.00000E+00        -0.52409E-08
 
   -0.37028E-08         0.23376E-08         0.00000E+00
    0.23376E-08        -0.21070E-07         0.00000E+00
    0.00000E+00         0.00000E+00        -0.49545E-08
 
    0.80025E-09        -0.62044E-08         0.00000E+00
   -0.62044E-08        -0.77766E-08         0.00000E+00
    0.00000E+00         0.00000E+00        -0.13953E-08
 
   -0.28635E-08        -0.23722E-08         0.00000E+00
   -0.23722E-08        -0.11409E-07         0.00000E+00
    0.00000E+00         0.00000E+00        -0.28546E-08
 
   -0.76556E-08         0.81132E-08         0.00000E+00
    0.81132E-08        -0.91410E-08         0.00000E+00
    0.00000E+00         0.00000E+00        -0.33593E-08
 
   -0.90567E-08        -0.38207E-08         0.00000E+00
   -0.38207E-08        -0.19017E-07         0.00000E+00
    0.00000E+00         0.00000E+00        -0.56148E-08
 
   -0.14780E-07        -0.13761E-07         0.00000E+00
   -0.13761E-07        -0.32631E-07         0.00000E+00
    0.00000E+00         0.00000E+00        -0.94823E-08
 
   -0.24723E-08        -0.50195E-07         0.00000E+00
   -0.50195E-07        -0.19215E-07         0.00000E+00
    0.00000E+00         0.00000E+00        -0.43374E-08
 
   -0.62322E-08         0.12589E-07         0.00000E+00
    0.12589E-07        -0.13645E-07         0.00000E+00
    0.00000E+00         0.00000E+00        -0.39755E-08
 
   -0.12214E-07        -0.57921E-08         0.00000E+00
   -0.57921E-08        -0.11871E-07         0.00000E+00
    0.00000E+00         0.00000E+00        -0.48170E-08
 
   -0.63065E-09         0.10525E-07         0.00000E+00
    0.10525E-07        -0.13479E-07         0.00000E+00
    0.00000E+00         0.00000E+00        -0.28219E-08
 
    0.47179E-08         0.16684E-07         0.00000E+00
    0.16684E-07        -0.18657E-07         0.00000E+00
    0.00000E+00         0.00000E+00        -0.27879E-08
 
   -0.22093E-08         0.40930E-08         0.00000E+00
    0.40930E-08        -0.12911E-07         0.00000E+00
    0.00000E+00         0.00000E+00        -0.30240E-08
 
   -0.97647E-08         0.61771E-08         0.00000E+00
    0.61771E-08        -0.15210E-07         0.00000E+00
    0.00000E+00         0.00000E+00        -0.49950E-08
 
   -0.78914E-08         0.46154E-08         0.00000E+00
    0.46154E-08        -0.21073E-07         0.00000E+00
    0.00000E+00         0.00000E+00        -0.57928E-08
 
    0.42671E-10        -0.54967E-08         0.00000E+00
   -0.54967E-08        -0.13328E-07         0.00000E+00
    0.00000E+00         0.00000E+00        -0.26570E-08
 
   -0.75543E-08         0.35455E-08         0.00000E+00
    0.35455E-08        -0.18301E-07         0.00000E+00
    0.00000E+00         0.00000E+00        -0.51710E-08
 
   -0.11305E-07        -0.10304E-07         0.00000E+00
   -0.10304E-07        -0.14822E-07         0.00000E+00
    0.00000E+00         0.00000E+00        -0.52254E-08
 
   -0.25106E-08        -0.30164E-08         0.00000E+00
   -0.30164E-08        -0.60043E-08         0.00000E+00
    0.00000E+00         0.00000E+00        -0.17030E-08
 
   -0.34822E-08         0.56612E-08         0.00000E+00
    0.56612E-08        -0.11555E-07         0.00000E+00
    0.00000E+00         0.00000E+00        -0.30075E-08
 
   -0.62848E-08        -0.99739E-08         0.00000E+00
   -0.99739E-08        -0.17704E-07         0.00000E+00
    0.00000E+00         0.00000E+00        -0.47978E-08
 
   -0.42457E-08        -0.18178E-07         0.00000E+00
   -0.18178E-07        -0.11581E-07         0.00000E+00
    0.00000E+00         0.00000E+00        -0.31654E-08
 
   -0.77428E-08        -0.51532E-07         0.00000E+00
   -0.51532E-07        -0.49877E-08         0.00000E+00
    0.00000E+00         0.00000E+00        -0.25461E-08
 
   -0.27870E-08         0.18422E-07         0.00000E+00
    0.18422E-07        -0.64524E-08         0.00000E+00
    0.00000E+00         0.00000E+00        -0.18479E-08
 
    0.21734E-08         0.29296E-08         0.00000E+00
    0.29296E-08        -0.76247E-08         0.00000E+00
    0.00000E+00         0.00000E+00        -0.10903E-08
 
   -0.49072E-08         0.16529E-07         0.00000E+00
    0.16529E-07        -0.14669E-08         0.00000E+00
    0.00000E+00         0.00000E+00        -0.12748E-08
 
   -0.14593E-08         0.70585E-08         0.00000E+00
    0.70585E-08        -0.39493E-08         0.00000E+00
    0.00000E+00         0.00000E+00        -0.10817E-08
 
    0.38586E-08         0.25755E-08         0.00000E+00
    0.25755E-08        -0.19292E-07         0.00000E+00
    0.00000E+00         0.00000E+00        -0.30866E-08
 
    0.37766E-08         0.69705E-08         0.00000E+00
    0.69705E-08        -0.15390E-07         0.00000E+00
    0.00000E+00         0.00000E+00        -0.23227E-08
 
    0.35080E-08         0.22144E-08         0.00000E+00
    0.22144E-08        -0.26552E-07         0.00000E+00
    0.00000E+00         0.00000E+00        -0.46088E-08
 
    0.44638E-09        -0.99433E-08         0.00000E+00
   -0.99433E-08        -0.88441E-08         0.00000E+00
    0.00000E+00         0.00000E+00        -0.16795E-08
 
   -0.10780E-08         0.13193E-08         0.00000E+00
    0.13193E-08        -0.69854E-08         0.00000E+00
    0.00000E+00         0.00000E+00        -0.16127E-08
 
   -0.40283E-08        -0.95988E-08         0.00000E+00
   -0.95988E-08        -0.28021E-07         0.00000E+00
    0.00000E+00         0.00000E+00        -0.64098E-08
 
   -0.64934E-08         0.19058E-09         0.00000E+00
    0.19058E-09        -0.17466E-08         0.00000E+00
    0.00000E+00         0.00000E+00        -0.16480E-08
 
   -0.82265E-08         0.90424E-08         0.00000E+00
    0.90424E-08        -0.10394E-07         0.00000E+00
    0.00000E+00         0.00000E+00        -0.37241E-08
 
   -0.44641E-08        -0.81053E-08         0.00000E+00
   -0.81053E-08        -0.19809E-07         0.00000E+00
    0.00000E+00         0.00000E+00        -0.48547E-08
 
   -0.34511E-08        -0.15667E-07         0.00000E+00
   -0.15667E-07         0.54106E-08         0.00000E+00
    0.00000E+00         0.00000E+00         0.39191E-09
 
   -0.98997E-08        -0.57068E-07         0.00000E+00
   -0.57068E-07         0.33016E-08         0.00000E+00
    0.00000E+00         0.00000E+00        -0.13196E-08
 
   -0.61951E-08         0.11490E-07         0.00000E+00
    0.11490E-07        -0.69496E-08         0.00000E+00
    0.00000E+00         0.00000E+00        -0.26289E-08
 
   -0.15173E-07         0.41688E-09         0.00000E+00
    0.41688E-09        -0.92711E-08         0.00000E+00
    0.00000E+00         0.00000E+00        -0.48889E-08
 
   -0.22892E-07         0.12801E-07         0.00000E+00
    0.12801E-07         0.15399E-07         0.00000E+00
    0.00000E+00         0.00000E+00        -0.14987E-08
 
   -0.77072E-08        -0.15823E-08         0.00000E+00
   -0.15823E-08         0.49360E-09         0.00000E+00
    0.00000E+00         0.00000E+00        -0.14427E-08
 
    0.72023E-08         0.12528E-07         0.00000E+00
    0.12528E-07        -0.27761E-07         0.00000E+00
    0.00000E+00         0.00000E+00        -0.41117E-08
 
    0.10748E-07         0.10631E-07         0.00000E+00
    0.10631E-07        -0.22058E-07         0.00000E+00
    0.00000E+00         0.00000E+00        -0.22619E-08
 
    0.88554E-08         0.46400E-08         0.00000E+00
    0.46400E-08        -0.12497E-07         0.00000E+00
    0.00000E+00         0.00000E+00        -0.72829E-09
 
    0.89881E-08        -0.11108E-07         0.00000E+00
   -0.11108E-07         0.22086E-08         0.00000E+00
    0.00000E+00         0.00000E+00         0.22393E-08
 
    0.71347E-08        -0.57825E-09         0.00000E+00
   -0.57825E-09        -0.21162E-07         0.00000E+00
    0.00000E+00         0.00000E+00        -0.28055E-08
 
    0.69128E-08        -0.71306E-08         0.00000E+00
   -0.71306E-08        -0.21028E-07         0.00000E+00
    0.00000E+00         0.00000E+00        -0.28230E-08
 
    0.69324E-09         0.11417E-08         0.00000E+00
    0.11417E-08        -0.71064E-08         0.00000E+00
    0.00000E+00         0.00000E+00        -0.12826E-08
 
   -0.34139E-08         0.55445E-08         0.00000E+00
    0.55445E-08        -0.12855E-07         0.00000E+00
    0.00000E+00         0.00000E+00        -0.32538E-08
 
   -0.11528E-08        -0.56974E-08         0.00000E+00
   -0.56974E-08        -0.11753E-07         0.00000E+00
    0.00000E+00         0.00000E+00        -0.25812E-08
 
    0.12394E-08        -0.27291E-07         0.00000E+00
   -0.27291E-07         0.79438E-08         0.00000E+00
    0.00000E+00         0.00000E+00         0.18366E-08
 
   -0.80676E-08        -0.62484E-07         0.00000E+00
   -0.62484E-07        -0.23173E-08         0.00000E+00
    0.00000E+00         0.00000E+00        -0.20770E-08
 
   -0.68368E-08         0.46007E-08         0.00000E+00
    0.46007E-08         0.10696E-07         0.00000E+00
    0.00000E+00         0.00000E+00         0.77175E-09
 
   -0.15715E-07        -0.57026E-08         0.00000E+00
   -0.57026E-08         0.14285E-08         0.00000E+00
    0.00000E+00         0.00000E+00        -0.28573E-08
 
   -0.47745E-08         0.83414E-08         0.00000E+00
    0.83414E-08         0.60737E-09         0.00000E+00
    0.00000E+00         0.00000E+00        -0.83342E-09
 
   -0.43678E-08         0.73260E-08         0.00000E+00
    0.73260E-08        -0.12522E-07         0.00000E+00
    0.00000E+00         0.00000E+00        -0.33780E-08
 
   -0.36655E-08         0.13224E-07         0.00000E+00
    0.13224E-07        -0.15429E-07         0.00000E+00
    0.00000E+00         0.00000E+00        -0.38190E-08
 
    0.39981E-08         0.53549E-08         0.00000E+00
    0.53549E-08        -0.11679E-07         0.00000E+00
    0.00000E+00         0.00000E+00        -0.15363E-08
 
   -0.20185E-08         0.40172E-09         0.00000E+00
    0.40172E-09        -0.15682E-07         0.00000E+00
    0.00000E+00         0.00000E+00        -0.35401E-08
 
    0.85203E-09        -0.51173E-09         0.00000E+00
   -0.51173E-09        -0.10755E-07         0.00000E+00
    0.00000E+00         0.00000E+00        -0.19806E-08
 
   -0.21000E-08         0.85442E-08         0.00000E+00
    0.85442E-08        -0.30269E-07         0.00000E+00
    0.00000E+00         0.00000E+00        -0.64738E-08
 
   -0.71954E-09        -0.14347E-08         0.00000E+00
   -0.14347E-08        -0.29621E-08         0.00000E+00
    0.00000E+00         0.00000E+00        -0.73633E-09
 
    0.96217E-09        -0.23948E-08         0.00000E+00
   -0.23948E-08        -0.89216E-08         0.00000E+00
    0.00000E+00         0.00000E+00        -0.15919E-08
 
    0.18070E-10        -0.13736E-08         0.00000E+00
   -0.13736E-08        -0.16868E-07         0.00000E+00
    0.00000E+00         0.00000E+00        -0.33700E-08
 
   -0.58470E-08        -0.11102E-07         0.00000E+00
   -0.11102E-07        -0.15205E-07         0.00000E+00
    0.00000E+00         0.00000E+00        -0.42105E-08
 
   -0.52686E-08        -0.20094E-07         0.00000E+00
   -0.20094E-07        -0.11030E-07         0.00000E+00
    0.00000E+00         0.00000E+00        -0.32597E-08
 
   -0.77619E-08        -0.64898E-07         0.00000E+00
   -0.64898E-07         0.12408E-08         0.00000E+00
    0.00000E+00         0.00000E+00        -0.13042E-08
 
   -0.87017E-08         0.19923E-08         0.00000E+00
    0.19923E-08         0.18320E-07         0.00000E+00
    0.00000E+00         0.00000E+00         0.19237E-08
 
   -0.50712E-08         0.75266E-08         0.00000E+00
    0.75266E-08        -0.29769E-08         0.00000E+00
    0.00000E+00         0.00000E+00        -0.16096E-08
 
    0.10026E-09         0.80657E-08         0.00000E+00
    0.80657E-08        -0.12375E-07         0.00000E+00
    0.00000E+00         0.00000E+00        -0.24550E-08
 
   -0.79297E-08         0.28849E-08         0.00000E+00
    0.28849E-08        -0.16311E-07         0.00000E+00
    0.00000E+00         0.00000E+00        -0.48481E-08
 
   -0.58258E-08        -0.48173E-08         0.00000E+00
   -0.48173E-08        -0.48282E-10         0.00000E+00
    0.00000E+00         0.00000E+00        -0.11748E-08
 
   -0.25694E-08         0.13379E-07         0.00000E+00
    0.13379E-07        -0.74719E-08         0.00000E+00
    0.00000E+00         0.00000E+00        -0.20083E-08
 
   -0.46538E-08         0.91831E-08         0.00000E+00
    0.91831E-08        -0.28021E-07         0.00000E+00
    0.00000E+00         0.00000E+00        -0.65349E-08
 
   -0.52573E-09        -0.24081E-08         0.00000E+00
   -0.24081E-08        -0.21843E-07         0.00000E+00
    0.00000E+00         0.00000E+00        -0.44737E-08
 
   -0.45107E-08        -0.20302E-08         0.00000E+00
   -0.20302E-08        -0.10561E-07         0.00000E+00
    0.00000E+00         0.00000E+00        -0.30143E-08
 
   -0.44650E-08        -0.59474E-08         0.00000E+00
   -0.59474E-08        -0.63449E-08         0.00000E+00
    0.00000E+00         0.00000E+00        -0.21620E-08
 
   -0.87376E-08         0.56424E-08         0.00000E+00
    0.56424E-08        -0.17759E-07         0.00000E+00
    0.00000E+00         0.00000E+00        -0.52993E-08
 
   -0.12848E-08         0.12165E-07         0.00000E+00
    0.12165E-07        -0.15176E-07         0.00000E+00
    0.00000E+00         0.00000E+00        -0.32922E-08
 
    0.47453E-08        -0.18965E-08         0.00000E+00
   -0.18965E-08        -0.10364E-07         0.00000E+00
    0.00000E+00         0.00000E+00        -0.11237E-08
 
   -0.44457E-08        -0.24141E-07         0.00000E+00
   -0.24141E-07        -0.32568E-07         0.00000E+00
    0.00000E+00         0.00000E+00        -0.74028E-08
 
   -0.64360E-08        -0.50944E-07         0.00000E+00
   -0.50944E-07         0.64234E-08         0.00000E+00
    0.00000E+00         0.00000E+00        -0.25147E-11
 
   -0.17723E-07         0.17808E-07         0.00000E+00
    0.17808E-07        -0.90767E-08         0.00000E+00
    0.00000E+00         0.00000E+00        -0.53599E-08
 
   -0.71281E-08         0.11998E-07         0.00000E+00
    0.11998E-07        -0.52072E-09         0.00000E+00
    0.00000E+00         0.00000E+00        -0.15298E-08
 
    0.92606E-09         0.10800E-07         0.00000E+00
    0.10800E-07        -0.86437E-09         0.00000E+00
    0.00000E+00         0.00000E+00         0.12339E-10
 
   -0.51066E-08         0.17415E-07         0.00000E+00
    0.17415E-07        -0.12724E-07         0.00000E+00
    0.00000E+00         0.00000E+00        -0.35661E-08
 
   -0.80428E-09         0.72504E-09         0.00000E+00
    0.72504E-09         0.71485E-08         0.00000E+00
    0.00000E+00         0.00000E+00         0.12688E-08
 
   -0.51012E-08         0.19171E-07         0.00000E+00
    0.19171E-07        -0.19992E-07         0.00000E+00
    0.00000E+00         0.00000E+00        -0.50187E-08
 
   -0.12258E-07         0.69221E-08         0.00000E+00
    0.69221E-08        -0.17593E-07         0.00000E+00
    0.00000E+00         0.00000E+00        -0.59701E-08
 
   -0.13139E-07        -0.10963E-07         0.00000E+00
   -0.10963E-07        -0.18060E-07         0.00000E+00
    0.00000E+00         0.00000E+00        -0.62397E-08
 
   -0.25121E-08         0.22871E-08         0.00000E+00
    0.22871E-08        -0.74145E-08         0.00000E+00
    0.00000E+00         0.00000E+00        -0.19853E-08
 
   -0.64819E-08         0.10780E-08         0.00000E+00
    0.10780E-08        -0.19320E-07         0.00000E+00
    0.00000E+00         0.00000E+00        -0.51605E-08
 
   -0.96159E-08         0.37947E-08         0.00000E+00
    0.37947E-08        -0.24825E-07         0.00000E+00
    0.00000E+00         0.00000E+00        -0.68882E-08
 
   -0.88231E-08        -0.45899E-09         0.00000E+00
   -0.45899E-09        -0.14429E-07         0.00000E+00
    0.00000E+00         0.00000E+00        -0.46504E-08
 
   -0.49681E-08        -0.47888E-08         0.00000E+00
   -0.47888E-08        -0.32976E-08         0.00000E+00
    0.00000E+00         0.00000E+00        -0.16532E-08
 
    0.65977E-08        -0.13809E-07         0.00000E+00
   -0.13809E-07         0.71562E-09         0.00000E+00
    0.00000E+00         0.00000E+00         0.14627E-08
 
   -0.12255E-08        -0.56179E-07         0.00000E+00
   -0.56179E-07        -0.21262E-07         0.00000E+00
    0.00000E+00         0.00000E+00        -0.44975E-08
 
   -0.12161E-07         0.12283E-07         0.00000E+00
    0.12283E-07        -0.30018E-07         0.00000E+00
    0.00000E+00         0.00000E+00        -0.84357E-08
 
   -0.52246E-08         0.79895E-09         0.00000E+00
    0.79895E-09         0.20914E-07         0.00000E+00
    0.00000E+00         0.00000E+00         0.31378E-08
 
    0.59969E-08        -0.96954E-09         0.00000E+00
   -0.96954E-09         0.14060E-08         0.00000E+00
    0.00000E+00         0.00000E+00         0.14806E-08
 
    0.36900E-08         0.27054E-07         0.00000E+00
    0.27054E-07        -0.36310E-07         0.00000E+00
    0.00000E+00         0.00000E+00        -0.65239E-08
 
    0.18836E-08         0.12516E-07         0.00000E+00
    0.12516E-07         0.31455E-07         0.00000E+00
    0.00000E+00         0.00000E+00         0.66676E-08
 
   -0.78396E-08         0.72033E-08         0.00000E+00
    0.72033E-08         0.84114E-08         0.00000E+00
    0.00000E+00         0.00000E+00         0.11436E-09
 
   -0.65199E-08        -0.20880E-08         0.00000E+00
   -0.20880E-08        -0.22396E-07         0.00000E+00
    0.00000E+00         0.00000E+00        -0.57831E-08
 
   -0.43816E-08        -0.91795E-08         0.00000E+00
   -0.91795E-08        -0.16426E-07         0.00000E+00
    0.00000E+00         0.00000E+00        -0.41615E-08
 
   -0.80077E-08         0.27882E-08         0.00000E+00
    0.27882E-08        -0.16676E-07         0.00000E+00
    0.00000E+00         0.00000E+00        -0.49366E-08
 
   -0.54787E-08        -0.56389E-08         0.00000E+00
   -0.56389E-08        -0.13980E-07         0.00000E+00
    0.00000E+00         0.00000E+00        -0.38918E-08
 
   -0.69741E-08         0.27619E-10         0.00000E+00
    0.27619E-10        -0.27642E-07         0.00000E+00
    0.00000E+00         0.00000E+00        -0.69233E-08
 
   -0.71127E-08         0.54443E-08         0.00000E+00
    0.54443E-08        -0.23007E-07         0.00000E+00
    0.00000E+00         0.00000E+00        -0.60240E-08
 
    0.16683E-08        -0.22001E-08         0.00000E+00
   -0.22001E-08         0.85062E-08         0.00000E+00
    0.00000E+00         0.00000E+00         0.20349E-08
 
    0.18606E-08        -0.20955E-07         0.00000E+00
   -0.20955E-07         0.38407E-07         0.00000E+00
    0.00000E+00         0.00000E+00         0.80536E-08
 
   -0.71814E-08        -0.66349E-07         0.00000E+00
   -0.66349E-07        -0.37490E-07         0.00000E+00
    0.00000E+00         0.00000E+00        -0.89343E-08
 
    0.59912E-08         0.78612E-08         0.00000E+00
    0.78612E-08        -0.49584E-07         0.00000E+00
    0.00000E+00         0.00000E+00        -0.87186E-08
 
    0.17596E-07         0.21568E-08         0.00000E+00
    0.21568E-08         0.24246E-07         0.00000E+00
    0.00000E+00         0.00000E+00         0.83684E-08
 
    0.44755E-08         0.24550E-09         0.00000E+00
    0.24550E-09         0.11623E-07         0.00000E+00
    0.00000E+00         0.00000E+00         0.32197E-08
 
   -0.87990E-08         0.90334E-08         0.00000E+00
    0.90334E-08        -0.46877E-07         0.00000E+00
    0.00000E+00         0.00000E+00        -0.11135E-07
 
    0.63433E-08         0.28841E-08         0.00000E+00
    0.28841E-08         0.33880E-07         0.00000E+00
    0.00000E+00         0.00000E+00         0.80447E-08
 
    0.62854E-08         0.86455E-08         0.00000E+00
    0.86455E-08         0.35353E-07         0.00000E+00
    0.00000E+00         0.00000E+00         0.83277E-08
 
    0.28994E-08         0.11932E-07         0.00000E+00
    0.11932E-07        -0.28437E-07         0.00000E+00
    0.00000E+00         0.00000E+00        -0.51075E-08
 
   -0.22967E-08        -0.53662E-08         0.00000E+00
   -0.53662E-08        -0.16197E-07         0.00000E+00
    0.00000E+00         0.00000E+00        -0.36988E-08
 
   -0.11839E-07         0.37955E-08         0.00000E+00
    0.37955E-08        -0.13480E-07         0.00000E+00
    0.00000E+00         0.00000E+00        -0.50638E-08
 
   -0.83458E-08        -0.89850E-08         0.00000E+00
   -0.89850E-08        -0.93677E-08         0.00000E+00
    0.00000E+00         0.00000E+00        -0.35427E-08
 
   -0.35743E-08        -0.30296E-08         0.00000E+00
   -0.30296E-08        -0.28384E-07         0.00000E+00
    0.00000E+00         0.00000E+00        -0.63916E-08
 
   -0.11617E-07        -0.24864E-08         0.00000E+00
   -0.24864E-08        -0.34789E-07         0.00000E+00
    0.00000E+00         0.00000E+00        -0.92813E-08
 
   -0.36773E-08        -0.12258E-07         0.00000E+00
   -0.12258E-07         0.98376E-08         0.00000E+00
    0.00000E+00         0.00000E+00         0.12321E-08
 
   -0.11303E-07        -0.41412E-07         0.00000E+00
   -0.41412E-07        -0.43235E-07         0.00000E+00
    0.00000E+00         0.00000E+00        -0.10908E-07
 
    0.94697E-08        -0.64753E-07         0.00000E+00
   -0.64753E-07        -0.30453E-07         0.00000E+00
    0.00000E+00         0.00000E+00        -0.41966E-08
 
    0.12780E-07         0.11441E-07         0.00000E+00
    0.11441E-07        -0.54830E-07         0.00000E+00
    0.00000E+00         0.00000E+00        -0.84100E-08
 
    0.18165E-07         0.29146E-08         0.00000E+00
    0.29146E-08         0.56380E-08         0.00000E+00
    0.00000E+00         0.00000E+00         0.47605E-08
 
    0.35873E-08         0.41237E-08         0.00000E+00
    0.41237E-08         0.14024E-07         0.00000E+00
    0.00000E+00         0.00000E+00         0.35222E-08
 
   -0.16842E-08         0.11399E-07         0.00000E+00
    0.11399E-07        -0.58096E-08         0.00000E+00
    0.00000E+00         0.00000E+00        -0.14987E-08
 
    0.51796E-08         0.85504E-08         0.00000E+00
    0.85504E-08         0.66582E-08         0.00000E+00
    0.00000E+00         0.00000E+00         0.23676E-08
 
    0.10936E-08         0.66339E-08         0.00000E+00
    0.66339E-08         0.15524E-07         0.00000E+00
    0.00000E+00         0.00000E+00         0.33235E-08
 
   -0.13501E-07         0.13734E-07         0.00000E+00
    0.13734E-07        -0.17099E-07         0.00000E+00
    0.00000E+00         0.00000E+00        -0.61201E-08
 
   -0.63829E-08        -0.10702E-08         0.00000E+00
   -0.10702E-08        -0.56065E-08         0.00000E+00
    0.00000E+00         0.00000E+00        -0.23979E-08
 
   -0.60436E-08         0.38743E-08         0.00000E+00
    0.38743E-08        -0.69763E-08         0.00000E+00
    0.00000E+00         0.00000E+00        -0.26040E-08
 
   -0.39782E-08        -0.15368E-07         0.00000E+00
   -0.15368E-07        -0.33202E-08         0.00000E+00
    0.00000E+00         0.00000E+00        -0.14597E-08
 
   -0.12745E-08        -0.16944E-07         0.00000E+00
   -0.16944E-07         0.91149E-09         0.00000E+00
    0.00000E+00         0.00000E+00        -0.72597E-10
 
   -0.13310E-07        -0.10671E-07         0.00000E+00
   -0.10671E-07        -0.55397E-07         0.00000E+00
    0.00000E+00         0.00000E+00        -0.13741E-07
 
   -0.21814E-08        -0.16697E-07         0.00000E+00
   -0.16697E-07        -0.11266E-07         0.00000E+00
    0.00000E+00         0.00000E+00        -0.26894E-08
 
   -0.11866E-07        -0.80395E-08         0.00000E+00
   -0.80395E-08        -0.11411E-06         0.00000E+00
    0.00000E+00         0.00000E+00        -0.25195E-07
 
    0.15860E-07        -0.43572E-07         0.00000E+00
   -0.43572E-07        -0.37387E-07         0.00000E+00
    0.00000E+00         0.00000E+00        -0.43055E-08
 
    0.14200E-07         0.16820E-07         0.00000E+00
    0.16820E-07        -0.89340E-08         0.00000E+00
    0.00000E+00         0.00000E+00         0.10532E-08
 
    0.74065E-08         0.81710E-08         0.00000E+00
    0.81710E-08        -0.78388E-08         0.00000E+00
    0.00000E+00         0.00000E+00        -0.86458E-10
 
    0.40699E-08        -0.98352E-08         0.00000E+00
   -0.98352E-08         0.14906E-07         0.00000E+00
    0.00000E+00         0.00000E+00         0.37952E-08
 
   -0.30093E-08         0.60090E-08         0.00000E+00
    0.60090E-08         0.23977E-08         0.00000E+00
    0.00000E+00         0.00000E+00        -0.12233E-09
 
   -0.56795E-08         0.89524E-08         0.00000E+00
    0.89524E-08        -0.48016E-08         0.00000E+00
    0.00000E+00         0.00000E+00        -0.20962E-08
 
   -0.11367E-07         0.91950E-08         0.00000E+00
    0.91950E-08         0.10880E-08         0.00000E+00
    0.00000E+00         0.00000E+00        -0.20558E-08
 
   -0.14914E-07        -0.45570E-09         0.00000E+00
   -0.45570E-09        -0.67750E-08         0.00000E+00
    0.00000E+00         0.00000E+00        -0.43379E-08
 
   -0.13383E-07        -0.14731E-08         0.00000E+00
   -0.14731E-08        -0.50184E-08         0.00000E+00
    0.00000E+00         0.00000E+00        -0.36802E-08
 
   -0.17841E-07         0.69031E-08         0.00000E+00
    0.69031E-08        -0.58713E-08         0.00000E+00
    0.00000E+00         0.00000E+00        -0.47424E-08
 
   -0.16277E-07        -0.81840E-08         0.00000E+00
   -0.81840E-08        -0.53545E-09         0.00000E+00
    0.00000E+00         0.00000E+00        -0.33625E-08
 
   -0.12227E-07         0.35711E-08         0.00000E+00
    0.35711E-08         0.74915E-08         0.00000E+00
    0.00000E+00         0.00000E+00        -0.94712E-09
 
   -0.15461E-07         0.59248E-08         0.00000E+00
    0.59248E-08        -0.51555E-07         0.00000E+00
    0.00000E+00         0.00000E+00        -0.13403E-07
 
   -0.63929E-08        -0.13952E-07         0.00000E+00
   -0.13952E-07        -0.35694E-07         0.00000E+00
    0.00000E+00         0.00000E+00        -0.84173E-08
 
    0.10733E-07        -0.92223E-08         0.00000E+00
   -0.92223E-08        -0.50825E-07         0.00000E+00
    0.00000E+00         0.00000E+00        -0.80184E-08
 
    0.38053E-08        -0.53702E-07         0.00000E+00
   -0.53702E-07        -0.42881E-07         0.00000E+00
    0.00000E+00         0.00000E+00        -0.78151E-08
 
    0.89289E-08         0.11172E-07         0.00000E+00
    0.11172E-07         0.20600E-07         0.00000E+00
    0.00000E+00         0.00000E+00         0.59058E-08
 
    0.62038E-09         0.17603E-07         0.00000E+00
    0.17603E-07         0.27366E-08         0.00000E+00
    0.00000E+00         0.00000E+00         0.67140E-09
 
   -0.20963E-07         0.27454E-08         0.00000E+00
    0.27454E-08         0.11549E-07         0.00000E+00
    0.00000E+00         0.00000E+00        -0.18827E-08
 
   -0.26579E-07         0.16332E-08         0.00000E+00
    0.16332E-08        -0.11624E-07         0.00000E+00
    0.00000E+00         0.00000E+00        -0.76407E-08
 
   -0.11654E-07         0.76555E-08         0.00000E+00
    0.76555E-08        -0.94939E-08         0.00000E+00
    0.00000E+00         0.00000E+00        -0.42295E-08
 
   -0.18952E-07         0.12067E-07         0.00000E+00
    0.12067E-07         0.28548E-08         0.00000E+00
    0.00000E+00         0.00000E+00        -0.32194E-08
 
   -0.26755E-07        -0.39929E-08         0.00000E+00
   -0.39929E-08        -0.90753E-08         0.00000E+00
    0.00000E+00         0.00000E+00        -0.71661E-08
 
   -0.15304E-07        -0.48877E-08         0.00000E+00
   -0.48877E-08        -0.66912E-08         0.00000E+00
    0.00000E+00         0.00000E+00        -0.43990E-08
 
   -0.96091E-08         0.45350E-08         0.00000E+00
    0.45350E-08        -0.10103E-07         0.00000E+00
    0.00000E+00         0.00000E+00        -0.39425E-08
 
   -0.93691E-08        -0.62523E-08         0.00000E+00
   -0.62523E-08        -0.21986E-08         0.00000E+00
    0.00000E+00         0.00000E+00        -0.23135E-08
 
   -0.43025E-08        -0.46635E-09         0.00000E+00
   -0.46635E-09        -0.30430E-08         0.00000E+00
    0.00000E+00         0.00000E+00        -0.14691E-08
 
   -0.55867E-08         0.51926E-08         0.00000E+00
    0.51926E-08        -0.27603E-07         0.00000E+00
    0.00000E+00         0.00000E+00        -0.66379E-08
 
   -0.80760E-08        -0.56004E-08         0.00000E+00
   -0.56004E-08        -0.39158E-07         0.00000E+00
    0.00000E+00         0.00000E+00        -0.94468E-08
 
    0.30451E-07        -0.59783E-08         0.00000E+00
   -0.59783E-08         0.65092E-07         0.00000E+00
    0.00000E+00         0.00000E+00         0.19109E-07
 
   -0.15309E-07        -0.53998E-07         0.00000E+00
   -0.53998E-07        -0.49959E-07         0.00000E+00
    0.00000E+00         0.00000E+00        -0.13053E-07
 
   -0.26607E-08         0.94111E-08         0.00000E+00
    0.94111E-08         0.29791E-07         0.00000E+00
    0.00000E+00         0.00000E+00         0.54260E-08
 
   -0.17187E-07         0.91865E-08         0.00000E+00
    0.91865E-08         0.47677E-08         0.00000E+00
    0.00000E+00         0.00000E+00        -0.24839E-08
 
   -0.13948E-07         0.10431E-07         0.00000E+00
    0.10431E-07         0.86660E-08         0.00000E+00
    0.00000E+00         0.00000E+00        -0.10564E-08
 
   -0.19216E-07        -0.64101E-08         0.00000E+00
   -0.64101E-08        -0.14785E-07         0.00000E+00
    0.00000E+00         0.00000E+00        -0.68003E-08
 
   -0.23307E-07         0.14591E-07         0.00000E+00
    0.14591E-07        -0.11834E-08         0.00000E+00
    0.00000E+00         0.00000E+00        -0.48980E-08
 
   -0.22143E-07         0.68016E-08         0.00000E+00
    0.68016E-08        -0.51053E-08         0.00000E+00
    0.00000E+00         0.00000E+00        -0.54497E-08
 
   -0.90705E-08        -0.11432E-08         0.00000E+00
   -0.11432E-08        -0.97445E-08         0.00000E+00
    0.00000E+00         0.00000E+00        -0.37630E-08
 
   -0.54624E-08        -0.41634E-08         0.00000E+00
   -0.41634E-08        -0.44290E-08         0.00000E+00
    0.00000E+00         0.00000E+00        -0.19783E-08
 
   -0.14308E-08         0.89434E-08         0.00000E+00
    0.89434E-08        -0.54658E-08         0.00000E+00
    0.00000E+00         0.00000E+00        -0.13793E-08
 
   -0.63798E-08        -0.91062E-08         0.00000E+00
   -0.91062E-08        -0.70966E-08         0.00000E+00
    0.00000E+00         0.00000E+00        -0.26953E-08
 
   -0.13807E-07        -0.19247E-08         0.00000E+00
   -0.19247E-08        -0.19530E-07         0.00000E+00
    0.00000E+00         0.00000E+00        -0.66675E-08
 
   -0.64867E-08         0.43235E-08         0.00000E+00
    0.43235E-08        -0.19463E-07         0.00000E+00
    0.00000E+00         0.00000E+00        -0.51899E-08
 
   -0.55154E-08        -0.57374E-08         0.00000E+00
   -0.57374E-08        -0.28623E-07         0.00000E+00
    0.00000E+00         0.00000E+00        -0.68277E-08
 
    0.20706E-07        -0.56289E-07         0.00000E+00
   -0.56289E-07         0.53025E-07         0.00000E+00
    0.00000E+00         0.00000E+00         0.14746E-07
 
   -0.12006E-07        -0.81449E-07         0.00000E+00
   -0.81449E-07        -0.49821E-07         0.00000E+00
    0.00000E+00         0.00000E+00        -0.12365E-07
 
    0.12149E-07         0.86827E-09         0.00000E+00
    0.86827E-09         0.46379E-07         0.00000E+00
    0.00000E+00         0.00000E+00         0.11706E-07
 
   -0.23220E-08        -0.21563E-08         0.00000E+00
   -0.21563E-08        -0.13556E-07         0.00000E+00
    0.00000E+00         0.00000E+00        -0.31756E-08
 
    0.32001E-07         0.45693E-09         0.00000E+00
    0.45693E-09         0.26903E-07         0.00000E+00
    0.00000E+00         0.00000E+00         0.11781E-07
 
    0.95810E-08        -0.32398E-08         0.00000E+00
   -0.32398E-08        -0.33033E-07         0.00000E+00
    0.00000E+00         0.00000E+00        -0.46904E-08
 
   -0.46632E-08         0.19022E-07         0.00000E+00
    0.19022E-07         0.36117E-07         0.00000E+00
    0.00000E+00         0.00000E+00         0.62907E-08
 
   -0.17220E-07        -0.58904E-08         0.00000E+00
   -0.58904E-08        -0.30944E-07         0.00000E+00
    0.00000E+00         0.00000E+00        -0.96328E-08
 
   -0.35703E-08         0.69712E-09         0.00000E+00
    0.69712E-09        -0.13088E-07         0.00000E+00
    0.00000E+00         0.00000E+00        -0.33317E-08
 
   -0.68975E-08        -0.38996E-08         0.00000E+00
   -0.38996E-08        -0.12226E-07         0.00000E+00
    0.00000E+00         0.00000E+00        -0.38247E-08
 
    0.62589E-08        -0.73201E-09         0.00000E+00
   -0.73201E-09         0.32923E-07         0.00000E+00
    0.00000E+00         0.00000E+00         0.78364E-08
 
   -0.25465E-08        -0.12393E-07         0.00000E+00
   -0.12393E-07        -0.34767E-07         0.00000E+00
    0.00000E+00         0.00000E+00        -0.74626E-08
 
   -0.47031E-08         0.32777E-08         0.00000E+00
    0.32777E-08        -0.40391E-07         0.00000E+00
    0.00000E+00         0.00000E+00        -0.90188E-08
 
    0.25790E-08         0.10899E-08         0.00000E+00
    0.10899E-08         0.84641E-08         0.00000E+00
    0.00000E+00         0.00000E+00         0.22086E-08
 
   -0.57829E-08        -0.62283E-08         0.00000E+00
   -0.62283E-08        -0.26102E-07         0.00000E+00
    0.00000E+00         0.00000E+00        -0.63770E-08
 
   -0.57275E-08        -0.37472E-07         0.00000E+00
   -0.37472E-07        -0.35149E-07         0.00000E+00
    0.00000E+00         0.00000E+00        -0.81753E-08
 
   -0.37893E-08        -0.68420E-07         0.00000E+00
   -0.68420E-07        -0.45645E-07         0.00000E+00
    0.00000E+00         0.00000E+00        -0.98870E-08
 
   -0.11972E-08         0.14535E-07         0.00000E+00
    0.14535E-07         0.26886E-07         0.00000E+00
    0.00000E+00         0.00000E+00         0.51378E-08
 
   -0.74307E-08         0.71631E-08         0.00000E+00
    0.71631E-08        -0.37942E-07         0.00000E+00
    0.00000E+00         0.00000E+00        -0.90746E-08
 
    0.17845E-07         0.27189E-08         0.00000E+00
    0.27189E-08         0.39519E-07         0.00000E+00
    0.00000E+00         0.00000E+00         0.11473E-07
 
   -0.70134E-08        -0.13394E-08         0.00000E+00
   -0.13394E-08        -0.16346E-07         0.00000E+00
    0.00000E+00         0.00000E+00        -0.46720E-08
 
   -0.14885E-07         0.12089E-07         0.00000E+00
    0.12089E-07         0.11400E-07         0.00000E+00
    0.00000E+00         0.00000E+00        -0.69716E-09
 
   -0.16954E-07        -0.83949E-08         0.00000E+00
   -0.83949E-08        -0.54218E-07         0.00000E+00
    0.00000E+00         0.00000E+00        -0.14234E-07
 
   -0.22926E-08         0.63975E-08         0.00000E+00
    0.63975E-08        -0.54238E-08         0.00000E+00
    0.00000E+00         0.00000E+00        -0.15433E-08
 
   -0.10220E-07        -0.22058E-07         0.00000E+00
   -0.22058E-07         0.10066E-07         0.00000E+00
    0.00000E+00         0.00000E+00        -0.30694E-10
 
    0.13492E-10        -0.95148E-08         0.00000E+00
   -0.95148E-08         0.29673E-07         0.00000E+00
    0.00000E+00         0.00000E+00         0.59373E-08
 
   -0.10209E-07        -0.13944E-07         0.00000E+00
   -0.13944E-07        -0.63641E-07         0.00000E+00
    0.00000E+00         0.00000E+00        -0.14770E-07
 
    0.80381E-09        -0.58617E-08         0.00000E+00
   -0.58617E-08        -0.37496E-07         0.00000E+00
    0.00000E+00         0.00000E+00        -0.73384E-08
 
   -0.18425E-08         0.27432E-09         0.00000E+00
    0.27432E-09        -0.89279E-08         0.00000E+00
    0.00000E+00         0.00000E+00        -0.21541E-08
 
   -0.33970E-08         0.16112E-08         0.00000E+00
    0.16112E-08        -0.56992E-08         0.00000E+00
    0.00000E+00         0.00000E+00        -0.18192E-08
 
   -0.24511E-08         0.25777E-08         0.00000E+00
    0.25777E-08        -0.20057E-07         0.00000E+00
    0.00000E+00         0.00000E+00        -0.45016E-08
 
    0.97655E-08        -0.42565E-07         0.00000E+00
   -0.42565E-07        -0.88317E-08         0.00000E+00
    0.00000E+00         0.00000E+00         0.18676E-09
 
    0.12622E-07         0.14724E-07         0.00000E+00
    0.14724E-07         0.13506E-07         0.00000E+00
    0.00000E+00         0.00000E+00         0.52256E-08
 
   -0.15247E-08        -0.97022E-08         0.00000E+00
   -0.97022E-08        -0.22451E-07         0.00000E+00
    0.00000E+00         0.00000E+00        -0.47952E-08
 
    0.99281E-08        -0.17373E-07         0.00000E+00
   -0.17373E-07         0.43699E-07         0.00000E+00
    0.00000E+00         0.00000E+00         0.10725E-07
 
   -0.74906E-08         0.64657E-08         0.00000E+00
    0.64657E-08         0.14357E-07         0.00000E+00
    0.00000E+00         0.00000E+00         0.13734E-08
 
   -0.12974E-07         0.14946E-07         0.00000E+00
    0.14946E-07        -0.41211E-07         0.00000E+00
    0.00000E+00         0.00000E+00        -0.10837E-07
 
   -0.39196E-08        -0.27360E-07         0.00000E+00
   -0.27360E-07        -0.38491E-07         0.00000E+00
    0.00000E+00         0.00000E+00        -0.84820E-08
 
    0.15111E-08        -0.65912E-08         0.00000E+00
   -0.65912E-08         0.20606E-08         0.00000E+00
    0.00000E+00         0.00000E+00         0.71434E-09
 
    0.91992E-08        -0.19732E-07         0.00000E+00
   -0.19732E-07         0.24146E-07         0.00000E+00
    0.00000E+00         0.00000E+00         0.66691E-08
 
    0.44863E-08         0.38559E-08         0.00000E+00
    0.38559E-08        -0.14417E-07         0.00000E+00
    0.00000E+00         0.00000E+00        -0.19861E-08
 
   -0.54891E-08        -0.11307E-07         0.00000E+00
   -0.11307E-07        -0.45428E-07         0.00000E+00
    0.00000E+00         0.00000E+00        -0.10183E-07
 
    0.45535E-08        -0.30988E-08         0.00000E+00
   -0.30988E-08        -0.35832E-07         0.00000E+00
    0.00000E+00         0.00000E+00        -0.62558E-08
 
    0.64677E-08         0.35962E-08         0.00000E+00
    0.35962E-08        -0.28928E-07         0.00000E+00
    0.00000E+00         0.00000E+00        -0.44920E-08
 
    0.36654E-08        -0.88175E-08         0.00000E+00
   -0.88175E-08         0.11915E-07         0.00000E+00
    0.00000E+00         0.00000E+00         0.31161E-08
 
    0.20044E-07        -0.19867E-08         0.00000E+00
   -0.19867E-08         0.53570E-07         0.00000E+00
    0.00000E+00         0.00000E+00         0.14723E-07
 
   -0.14924E-07        -0.48948E-07         0.00000E+00
   -0.48948E-07         0.49961E-07         0.00000E+00
    0.00000E+00         0.00000E+00         0.70073E-08
 
   -0.32170E-07         0.18810E-08         0.00000E+00
    0.18810E-08         0.54405E-08         0.00000E+00
    0.00000E+00         0.00000E+00        -0.53460E-08
 
   -0.21296E-07        -0.23231E-07         0.00000E+00
   -0.23231E-07         0.10680E-08         0.00000E+00
    0.00000E+00         0.00000E+00        -0.40455E-08
 
   -0.40760E-08        -0.17094E-07         0.00000E+00
   -0.17094E-07         0.18383E-07         0.00000E+00
    0.00000E+00         0.00000E+00         0.28613E-08
 
   -0.42975E-09         0.15411E-07         0.00000E+00
    0.15411E-07         0.27125E-08         0.00000E+00
    0.00000E+00         0.00000E+00         0.45655E-09
 
   -0.70567E-08         0.39425E-08         0.00000E+00
    0.39425E-08        -0.33462E-07         0.00000E+00
    0.00000E+00         0.00000E+00        -0.81038E-08
 
   -0.63153E-08        -0.29069E-07         0.00000E+00
   -0.29069E-07        -0.35434E-07         0.00000E+00
    0.00000E+00         0.00000E+00        -0.83499E-08
 
   -0.16086E-08         0.61385E-08         0.00000E+00
    0.61385E-08        -0.13619E-07         0.00000E+00
    0.00000E+00         0.00000E+00        -0.30456E-08
 
    0.43900E-08        -0.11977E-07         0.00000E+00
   -0.11977E-07         0.55152E-08         0.00000E+00
    0.00000E+00         0.00000E+00         0.19810E-08
 
   -0.34700E-08        -0.23363E-09         0.00000E+00
   -0.23363E-09        -0.34240E-07         0.00000E+00
    0.00000E+00         0.00000E+00        -0.75421E-08
 
    0.23952E-08        -0.13625E-07         0.00000E+00
   -0.13625E-07        -0.25082E-07         0.00000E+00
    0.00000E+00         0.00000E+00        -0.45374E-08
 
   -0.31512E-08        -0.95958E-08         0.00000E+00
   -0.95958E-08        -0.40348E-07         0.00000E+00
    0.00000E+00         0.00000E+00        -0.86999E-08
 
   -0.28812E-09         0.14795E-08         0.00000E+00
    0.14795E-08        -0.19933E-07         0.00000E+00
    0.00000E+00         0.00000E+00        -0.40442E-08
 
    0.33408E-08        -0.85310E-08         0.00000E+00
   -0.85310E-08        -0.55346E-09         0.00000E+00
    0.00000E+00         0.00000E+00         0.55748E-09
 
    0.67537E-07        -0.52910E-07         0.00000E+00
   -0.52910E-07         0.83209E-07         0.00000E+00
    0.00000E+00         0.00000E+00         0.30149E-07
 
   -0.16693E-07        -0.92557E-07         0.00000E+00
   -0.92557E-07         0.50401E-07         0.00000E+00
    0.00000E+00         0.00000E+00         0.67415E-08
 
   -0.21139E-07        -0.16981E-07         0.00000E+00
   -0.16981E-07         0.31130E-08         0.00000E+00
    0.00000E+00         0.00000E+00        -0.36051E-08
 
   -0.22439E-07        -0.26616E-07         0.00000E+00
   -0.26616E-07         0.16385E-08         0.00000E+00
    0.00000E+00         0.00000E+00        -0.41601E-08
 
   -0.50049E-08        -0.34325E-07         0.00000E+00
   -0.34325E-07         0.29159E-08         0.00000E+00
    0.00000E+00         0.00000E+00        -0.41781E-09
 
    0.56643E-08         0.68463E-08         0.00000E+00
    0.68463E-08        -0.22129E-07         0.00000E+00
    0.00000E+00         0.00000E+00        -0.32929E-08
 
    0.46379E-08         0.93737E-08         0.00000E+00
    0.93737E-08        -0.24132E-07         0.00000E+00
    0.00000E+00         0.00000E+00        -0.38988E-08
 
   -0.79234E-08        -0.13318E-07         0.00000E+00
   -0.13318E-07        -0.44248E-07         0.00000E+00
    0.00000E+00         0.00000E+00        -0.10434E-07
 
   -0.16387E-07         0.29912E-08         0.00000E+00
    0.29912E-08        -0.22756E-07         0.00000E+00
    0.00000E+00         0.00000E+00        -0.78285E-08
 
   -0.10233E-07        -0.23226E-07         0.00000E+00
   -0.23226E-07        -0.49079E-08         0.00000E+00
    0.00000E+00         0.00000E+00        -0.30281E-08
 
   -0.65966E-08        -0.77839E-08         0.00000E+00
   -0.77839E-08        -0.47718E-07         0.00000E+00
    0.00000E+00         0.00000E+00        -0.10863E-07
 
    0.32991E-08        -0.11457E-07         0.00000E+00
   -0.11457E-07        -0.20335E-07         0.00000E+00
    0.00000E+00         0.00000E+00        -0.34071E-08
 
   -0.10437E-07        -0.34560E-08         0.00000E+00
   -0.34560E-08        -0.37045E-07         0.00000E+00
    0.00000E+00         0.00000E+00        -0.94964E-08
 
   -0.11985E-08         0.75656E-09         0.00000E+00
    0.75656E-09        -0.71787E-08         0.00000E+00
    0.00000E+00         0.00000E+00        -0.16754E-08
 
   -0.25580E-08        -0.72253E-08         0.00000E+00
   -0.72253E-08        -0.20696E-07         0.00000E+00
    0.00000E+00         0.00000E+00        -0.46508E-08
 
    0.31908E-07        -0.84920E-07         0.00000E+00
   -0.84920E-07        -0.50997E-07         0.00000E+00
    0.00000E+00         0.00000E+00        -0.38179E-08
 
   -0.21720E-07        -0.96261E-07         0.00000E+00
   -0.96261E-07        -0.60202E-07         0.00000E+00
    0.00000E+00         0.00000E+00        -0.16384E-07
 
   -0.44469E-07        -0.15378E-07         0.00000E+00
   -0.15378E-07        -0.22341E-07         0.00000E+00
    0.00000E+00         0.00000E+00        -0.13362E-07
 
   -0.23002E-07        -0.37733E-07         0.00000E+00
   -0.37733E-07         0.13419E-07         0.00000E+00
    0.00000E+00         0.00000E+00        -0.19166E-08
 
   -0.24118E-08        -0.55029E-07         0.00000E+00
   -0.55029E-07        -0.21343E-07         0.00000E+00
    0.00000E+00         0.00000E+00        -0.47509E-08
 
    0.89457E-08         0.12921E-07         0.00000E+00
    0.12921E-07        -0.53958E-07         0.00000E+00
    0.00000E+00         0.00000E+00        -0.90024E-08
 
    0.15529E-07         0.51947E-08         0.00000E+00
    0.51947E-08        -0.32339E-07         0.00000E+00
    0.00000E+00         0.00000E+00        -0.33620E-08
 
   -0.27794E-08        -0.12565E-07         0.00000E+00
   -0.12565E-07        -0.20178E-07         0.00000E+00
    0.00000E+00         0.00000E+00        -0.45915E-08
 
   -0.40945E-08        -0.15302E-07         0.00000E+00
   -0.15302E-07        -0.18464E-07         0.00000E+00
    0.00000E+00         0.00000E+00        -0.45117E-08
 
    0.22241E-09        -0.11209E-07         0.00000E+00
   -0.11209E-07        -0.64935E-07         0.00000E+00
    0.00000E+00         0.00000E+00        -0.12942E-07
 
   -0.39340E-08         0.14020E-07         0.00000E+00
    0.14020E-07        -0.44971E-07         0.00000E+00
    0.00000E+00         0.00000E+00        -0.97810E-08
 
   -0.52056E-08         0.31105E-08         0.00000E+00
    0.31105E-08        -0.94575E-08         0.00000E+00
    0.00000E+00         0.00000E+00        -0.29326E-08
 
   -0.26656E-08        -0.92115E-08         0.00000E+00
   -0.92115E-08        -0.91312E-08         0.00000E+00
    0.00000E+00         0.00000E+00        -0.23594E-08
 
    0.10882E-07        -0.12047E-07         0.00000E+00
   -0.12047E-07         0.44643E-08         0.00000E+00
    0.00000E+00         0.00000E+00         0.30693E-08
 
   -0.52840E-08        -0.53438E-08         0.00000E+00
   -0.53438E-08        -0.47339E-07         0.00000E+00
    0.00000E+00         0.00000E+00        -0.10525E-07
 
   -0.39502E-07         0.51577E-07         0.00000E+00
    0.51577E-07        -0.10955E-06         0.00000E+00
    0.00000E+00         0.00000E+00        -0.29811E-07
 
    0.65025E-08        -0.21274E-07         0.00000E+00
   -0.21274E-07        -0.11555E-06         0.00000E+00
    0.00000E+00         0.00000E+00        -0.21810E-07
 
   -0.18707E-07         0.11908E-08         0.00000E+00
    0.11908E-08        -0.24321E-07         0.00000E+00
    0.00000E+00         0.00000E+00        -0.86055E-08
 
   -0.19139E-07        -0.19368E-07         0.00000E+00
   -0.19368E-07        -0.75055E-08         0.00000E+00
    0.00000E+00         0.00000E+00        -0.53288E-08
 
   -0.16171E-07        -0.22950E-07         0.00000E+00
   -0.22950E-07        -0.44735E-07         0.00000E+00
    0.00000E+00         0.00000E+00        -0.12181E-07
 
    0.17219E-07        -0.15701E-08         0.00000E+00
   -0.15701E-08        -0.15577E-07         0.00000E+00
    0.00000E+00         0.00000E+00         0.32844E-09
 
    0.36849E-07        -0.18319E-07         0.00000E+00
   -0.18319E-07        -0.24886E-07         0.00000E+00
    0.00000E+00         0.00000E+00         0.23927E-08
 
   -0.69757E-09        -0.14064E-08         0.00000E+00
   -0.14064E-08        -0.33300E-07         0.00000E+00
    0.00000E+00         0.00000E+00        -0.67996E-08
 
   -0.12272E-07        -0.18225E-07         0.00000E+00
   -0.18225E-07        -0.32174E-07         0.00000E+00
    0.00000E+00         0.00000E+00        -0.88890E-08
 
    0.11319E-07        -0.35656E-07         0.00000E+00
   -0.35656E-07        -0.10672E-06         0.00000E+00
    0.00000E+00         0.00000E+00        -0.19080E-07
 
    0.29937E-07        -0.43818E-08         0.00000E+00
   -0.43818E-08        -0.41927E-07         0.00000E+00
    0.00000E+00         0.00000E+00        -0.23980E-08
 
   -0.77749E-08         0.24992E-08         0.00000E+00
    0.24992E-08        -0.29739E-08         0.00000E+00
    0.00000E+00         0.00000E+00        -0.21498E-08
 
   -0.20768E-07        -0.50485E-08         0.00000E+00
   -0.50485E-08        -0.30155E-08         0.00000E+00
    0.00000E+00         0.00000E+00        -0.47566E-08
 
    0.33459E-08         0.14526E-07         0.00000E+00
    0.14526E-07        -0.19793E-07         0.00000E+00
    0.00000E+00         0.00000E+00        -0.32893E-08
 
    0.73540E-08         0.23203E-07         0.00000E+00
    0.23203E-07        -0.22857E-07         0.00000E+00
    0.00000E+00         0.00000E+00        -0.31007E-08
 
   -0.29385E-07        -0.67486E-08         0.00000E+00
   -0.67486E-08        -0.16946E-07         0.00000E+00
    0.00000E+00         0.00000E+00        -0.92662E-08
 
   -0.10288E-07        -0.63320E-07         0.00000E+00
   -0.63320E-07         0.18306E-07         0.00000E+00
    0.00000E+00         0.00000E+00         0.16035E-08
 
   -0.80884E-08        -0.45112E-07         0.00000E+00
   -0.45112E-07        -0.15544E-06         0.00000E+00
    0.00000E+00         0.00000E+00        -0.32706E-07
 
    0.28124E-08         0.33413E-07         0.00000E+00
    0.33413E-07        -0.16944E-06         0.00000E+00
    0.00000E+00         0.00000E+00        -0.33326E-07
 
    0.31836E-08         0.38126E-07         0.00000E+00
    0.38126E-07         0.73556E-07         0.00000E+00
    0.00000E+00         0.00000E+00         0.15348E-07
 
   -0.31929E-07        -0.38826E-08         0.00000E+00
   -0.38826E-08         0.60681E-07         0.00000E+00
    0.00000E+00         0.00000E+00         0.57505E-08
 
    0.63571E-08        -0.60555E-07         0.00000E+00
   -0.60555E-07         0.93702E-07         0.00000E+00
    0.00000E+00         0.00000E+00         0.20012E-07
 
    0.32027E-07        -0.93107E-07         0.00000E+00
   -0.93107E-07        -0.82081E-07         0.00000E+00
    0.00000E+00         0.00000E+00        -0.10011E-07
 
    0.75273E-08        -0.83445E-08         0.00000E+00
   -0.83445E-08        -0.28034E-06         0.00000E+00
    0.00000E+00         0.00000E+00        -0.54562E-07
 
   -0.58327E-08         0.76681E-07         0.00000E+00
    0.76681E-07        -0.90346E-07         0.00000E+00
    0.00000E+00         0.00000E+00        -0.19236E-07
 
    0.26888E-07         0.18294E-07         0.00000E+00
    0.18294E-07         0.13775E-06         0.00000E+00
    0.00000E+00         0.00000E+00         0.32929E-07
 
    0.31655E-08        -0.26705E-07         0.00000E+00
   -0.26705E-07        -0.93438E-07         0.00000E+00
    0.00000E+00         0.00000E+00        -0.18055E-07
 
   -0.14076E-07         0.44675E-07         0.00000E+00
    0.44675E-07        -0.14242E-06         0.00000E+00
    0.00000E+00         0.00000E+00        -0.31299E-07
 
   -0.68565E-09         0.53808E-07         0.00000E+00
    0.53808E-07         0.64479E-07         0.00000E+00
    0.00000E+00         0.00000E+00         0.12759E-07
 
   -0.88848E-08         0.16478E-07         0.00000E+00
    0.16478E-07         0.33541E-07         0.00000E+00
    0.00000E+00         0.00000E+00         0.49313E-08
 
TENSORS stresstot double 
   -0.60000E+08        -0.31674E-08         0.00000E+00
   -0.31674E-08        -0.60000E+08         0.00000E+00
    0.00000E+00         0.00000E+00        -0.60000E+08
 
   -0.60000E+08        -0.22294E-07         0.00000E+00
   -0.22294E-07        -0.60000E+08         0.00000E+00
    0.00000E+00         0.00000E+00        -0.60000E+08
 
   -0.60000E+08         0.75448E-08         0.00000E+00
    0.75448E-08        -0.60000E+08         0.00000E+00
    0.00000E+00         0.00000E+00        -0.60000E+08
 
   -0.60000E+08        -0.15620E-08         0.00000E+00
   -0.15620E-08        -0.60000E+08         0.00000E+00
    0.00000E+00         0.00000E+00        -0.60000E+08
 
   -0.60000E+08        -0.37525E-08         0.00000E+00
   -0.37525E-08        -0.60000E+08         0.00000E+00
    0.00000E+00         0.00000E+00        -0.60000E+08
 
   -0.60000E+08         0.54674E-08         0.00000E+00
    0.54674E-08        -0.60000E+08         0.00000E+00
    0.00000E+00         0.00000E+00        -0.60000E+08
 
   -0.60000E+08         0.30271E-08         0.00000E+00
    0.30271E-08        -0.60000E+08         0.00000E+00
    0.00000E+00         0.00000E+00        -0.60000E+08
 
   -0.60000E+08         0.14927E-08         0.00000E+00
    0.14927E-08        -0.60000E+08         0.00000E+00
    0.00000E+00         0.00000E+00        -0.60000E+08
 
   -0.60000E+08         0.20167E-08         0.00000E+00
    0.20167E-08        -0.60000E+08         0.00000E+00
    0.00000E+00         0.00000E+00        -0.60000E+08
 
   -0.60000E+08        -0.51388E-08         0.00000E+00
   -0.51388E-08        -0.60000E+08         0.00000E+00
    0.00000E+00         0.00000E+00        -0.60000E+08
 
   -0.60000E+08         0.61157E-09         0.00000E+00
    0.61157E-09        -0.60000E+08         0.00000E+00
    0.00000E+00         0.00000E+00        -0.60000E+08
 
   -0.60000E+08        -0.43043E-08         0.00000E+00
   -0.43043E-08        -0.60000E+08         0.00000E+00
    0.00000E+00         0.00000E+00        -0.60000E+08
 
   -0.60000E+08         0.20496E-09         0.00000E+00
    0.20496E-09        -0.60000E+08         0.00000E+00
    0.00000E+00         0.00000E+00        -0.60000E+08
 
   -0.60000E+08         0.11431E-08         0.00000E+00
    0.11431E-08        -0.60000E+08         0.00000E+00
    0.00000E+00         0.00000E+00        -0.60000E+08
 
   -0.60000E+08         0.62493E-09         0.00000E+00
    0.62493E-09        -0.60000E+08         0.00000E+00
    0.00000E+00         0.00000E+00        -0.60000E+08
 
   -0.60000E+08        -0.47998E-08         0.00000E+00
   -0.47998E-08        -0.60000E+08         0.00000E+00
    0.00000E+00         0.00000E+00        -0.60000E+08
 
   -0.60000E+08        -0.46255E-07         0.00000E+00
   -0.46255E-07        -0.60000E+08         0.00000E+00
    0.00000E+00         0.00000E+00        -0.60000E+08
 
   -0.60000E+08         0.21509E-07         0.00000E+00
    0.21509E-07        -0.60000E+08         0.00000E+00
    0.00000E+00         0.00000E+00        -0.60000E+08
 
   -0.60000E+08         0.22071E-08         0.00000E+00
    0.22071E-08        -0.60000E+08         0.00000E+00
    0.00000E+00         0.00000E+00        -0.60000E+08
 
   -0.60000E+08         0.36682E-08         0.00000E+00
    0.36682E-08        -0.60000E+08         0.00000E+00
    0.00000E+00         0.00000E+00        -0.60000E+08
 
   -0.60000E+08         0.58562E-08         0.00000E+00
    0.58562E-08        -0.60000E+08         0.00000E+00
    0.00000E+00         0.00000E+00        -0.60000E+08
 
   -0.60000E+08         0.51466E-08         0.00000E+00
    0.51466E-08        -0.60000E+08         0.00000E+00
    0.00000E+00         0.00000E+00        -0.60000E+08
 
   -0.60000E+08         0.24629E-08         0.00000E+00
    0.24629E-08        -0.60000E+08         0.00000E+00
    0.00000E+00         0.00000E+00        -0.60000E+08
 
   -0.60000E+08         0.39243E-08         0.00000E+00
    0.39243E-08        -0.60000E+08         0.00000E+00
    0.00000E+00         0.00000E+00        -0.60000E+08
 
   -0.60000E+08        -0.88426E-08         0.00000E+00
   -0.88426E-08        -0.60000E+08         0.00000E+00
    0.00000E+00         0.00000E+00        -0.60000E+08
 
   -0.60000E+08         0.63492E-08         0.00000E+00
    0.63492E-08        -0.60000E+08         0.00000E+00
    0.00000E+00         0.00000E+00        -0.60000E+08
 
   -0.60000E+08        -0.67027E-08         0.00000E+00
   -0.67027E-08        -0.60000E+08         0.00000E+00
    0.00000E+00         0.00000E+00        -0.60000E+08
 
   -0.60000E+08        -0.18436E-08         0.00000E+00
   -0.18436E-08        -0.60000E+08         0.00000E+00
    0.00000E+00         0.00000E+00        -0.60000E+08
 
   -0.60000E+08         0.23856E-08         0.00000E+00
    0.23856E-08        -0.60000E+08         0.00000E+00
    0.00000E+00         0.00000E+00        -0.60000E+08
 
   -0.60000E+08        -0.43798E-09         0.00000E+00
   -0.43798E-09        -0.60000E+08         0.00000E+00
    0.00000E+00         0.00000E+00        -0.60000E+08
 
   -0.60000E+08        -0.14147E-07         0.00000E+00
   -0.14147E-07        -0.60000E+08         0.00000E+00
    0.00000E+00         0.00000E+00        -0.60000E+08
 
   -0.60000E+08        -0.50162E-07         0.00000E+00
   -0.50162E-07        -0.60000E+08         0.00000E+00
    0.00000E+00         0.00000E+00        -0.60000E+08
 
   -0.60000E+08         0.28056E-07         0.00000E+00
    0.28056E-07        -0.60000E+08         0.00000E+00
    0.00000E+00         0.00000E+00        -0.60000E+08
 
   -0.60000E+08         0.41188E-10         0.00000E+00
    0.41188E-10        -0.60000E+08         0.00000E+00
    0.00000E+00         0.00000E+00        -0.60000E+08
 
   -0.60000E+08         0.13400E-07         0.00000E+00
    0.13400E-07        -0.60000E+08         0.00000E+00
    0.00000E+00         0.00000E+00        -0.60000E+08
 
   -0.60000E+08        -0.13499E-08         0.00000E+00
   -0.13499E-08        -0.60000E+08         0.00000E+00
    0.00000E+00         0.00000E+00        -0.60000E+08
 
   -0.60000E+08         0.78169E-08         0.00000E+00
    0.78169E-08        -0.60000E+08         0.00000E+00
    0.00000E+00         0.00000E+00        -0.60000E+08
 
   -0.60000E+08         0.66981E-08         0.00000E+00
    0.66981E-08        -0.60000E+08         0.00000E+00
    0.00000E+00         0.00000E+00        -0.60000E+08
 
   -0.60000E+08         0.33847E-08         0.00000E+00
    0.33847E-08        -0.60000E+08         0.00000E+00
    0.00000E+00         0.00000E+00        -0.60000E+08
 
   -0.60000E+08        -0.98449E-08         0.00000E+00
   -0.98449E-08        -0.60000E+08         0.00000E+00
    0.00000E+00         0.00000E+00        -0.60000E+08
 
   -0.60000E+08         0.18776E-08         0.00000E+00
    0.18776E-08        -0.60000E+08         0.00000E+00
    0.00000E+00         0.00000E+00        -0.60000E+08
 
   -0.60000E+08        -0.10668E-07         0.00000E+00
   -0.10668E-07        -0.60000E+08         0.00000E+00
    0.00000E+00         0.00000E+00        -0.60000E+08
 
   -0.60000E+08         0.13873E-08         0.00000E+00
    0.13873E-08        -0.60000E+08         0.00000E+00
    0.00000E+00         0.00000E+00        -0.60000E+08
 
   -0.60000E+08         0.78334E-08         0.00000E+00
    0.78334E-08        -0.60000E+08         0.00000E+00
    0.00000E+00         0.00000E+00        -0.60000E+08
 
   -0.60000E+08         0.15908E-08         0.00000E+00
    0.15908E-08        -0.60000E+08         0.00000E+00
    0.00000E+00         0.00000E+00        -0.60000E+08
 
   -0.60000E+08        -0.26095E-07         0.00000E+00
   -0.26095E-07        -0.60000E+08         0.00000E+00
    0.00000E+00         0.00000E+00        -0.60000E+08
 
   -0.60000E+08        -0.55511E-07         0.00000E+00
   -0.55511E-07        -0.60000E+08         0.00000E+00
    0.00000E+00         0.00000E+00        -0.60000E+08
 
   -0.60000E+08         0.19435E-07         0.00000E+00
    0.19435E-07        -0.60000E+08         0.00000E+00
    0.00000E+00         0.00000E+00        -0.60000E+08
 
   -0.60000E+08         0.23256E-08         0.00000E+00
    0.23256E-08        -0.60000E+08         0.00000E+00
    0.00000E+00         0.00000E+00        -0.60000E+08
 
   -0.60000E+08         0.18683E-07         0.00000E+00
    0.18683E-07        -0.60000E+08         0.00000E+00
    0.00000E+00         0.00000E+00        -0.60000E+08
 
   -0.60000E+08         0.21636E-08         0.00000E+00
    0.21636E-08        -0.60000E+08         0.00000E+00
    0.00000E+00         0.00000E+00        -0.60000E+08
 
   -0.60000E+08         0.12607E-07         0.00000E+00
    0.12607E-07        -0.60000E+08         0.00000E+00
    0.00000E+00         0.00000E+00        -0.60000E+08
 
   -0.60000E+08         0.11346E-07         0.00000E+00
    0.11346E-07        -0.60000E+08         0.00000E+00
    0.00000E+00         0.00000E+00        -0.60000E+08
 
   -0.60000E+08         0.61836E-08         0.00000E+00
    0.61836E-08        -0.60000E+08         0.00000E+00
    0.00000E+00         0.00000E+00        -0.60000E+08
 
   -0.60000E+08        -0.10068E-07         0.00000E+00
   -0.10068E-07        -0.60000E+08         0.00000E+00
    0.00000E+00         0.00000E+00        -0.60000E+08
 
   -0.60000E+08         0.34362E-08         0.00000E+00
    0.34362E-08        -0.60000E+08         0.00000E+00
    0.00000E+00         0.00000E+00        -0.60000E+08
 
   -0.60000E+08        -0.10442E-07         0.00000E+00
   -0.10442E-07        -0.60000E+08         0.00000E+00
    0.00000E+00         0.00000E+00        -0.60000E+08
 
   -0.60000E+08        -0.27744E-08         0.00000E+00
   -0.27744E-08        -0.60000E+08         0.00000E+00
    0.00000E+00         0.00000E+00        -0.60000E+08
 
   -0.60000E+08         0.52008E-08         0.00000E+00
    0.52008E-08        -0.60000E+08         0.00000E+00
    0.00000E+00         0.00000E+00        -0.60000E+08
 
   -0.60000E+08         0.14660E-08         0.00000E+00
    0.14660E-08        -0.60000E+08         0.00000E+00
    0.00000E+00         0.00000E+00        -0.60000E+08
 
   -0.60000E+08        -0.19418E-07         0.00000E+00
   -0.19418E-07        -0.60000E+08         0.00000E+00
    0.00000E+00         0.00000E+00        -0.60000E+08
 
   -0.60000E+08        -0.52356E-07         0.00000E+00
   -0.52356E-07        -0.60000E+08         0.00000E+00
    0.00000E+00         0.00000E+00        -0.60000E+08
 
   -0.60000E+08         0.19681E-07         0.00000E+00
    0.19681E-07        -0.60000E+08         0.00000E+00
    0.00000E+00         0.00000E+00        -0.60000E+08
 
   -0.60000E+08         0.30171E-08         0.00000E+00
    0.30171E-08        -0.60000E+08         0.00000E+00
    0.00000E+00         0.00000E+00        -0.60000E+08
 
   -0.60000E+08         0.11298E-07         0.00000E+00
    0.11298E-07        -0.60000E+08         0.00000E+00
    0.00000E+00         0.00000E+00        -0.60000E+08
 
   -0.60000E+08         0.10434E-07         0.00000E+00
    0.10434E-07        -0.60000E+08         0.00000E+00
    0.00000E+00         0.00000E+00        -0.60000E+08
 
   -0.60000E+08         0.14130E-07         0.00000E+00
    0.14130E-07        -0.60000E+08         0.00000E+00
    0.00000E+00         0.00000E+00        -0.60000E+08
 
   -0.60000E+08         0.11051E-07         0.00000E+00
    0.11051E-07        -0.60000E+08         0.00000E+00
    0.00000E+00         0.00000E+00        -0.60000E+08
 
   -0.60000E+08         0.17839E-08         0.00000E+00
    0.17839E-08        -0.60000E+08         0.00000E+00
    0.00000E+00         0.00000E+00        -0.60000E+08
 
   -0.60000E+08        -0.82626E-08         0.00000E+00
   -0.82626E-08        -0.60000E+08         0.00000E+00
    0.00000E+00         0.00000E+00        -0.60000E+08
 
   -0.60000E+08         0.66794E-08         0.00000E+00
    0.66794E-08        -0.60000E+08         0.00000E+00
    0.00000E+00         0.00000E+00        -0.60000E+08
 
   -0.60000E+08        -0.95594E-08         0.00000E+00
   -0.95594E-08        -0.60000E+08         0.00000E+00
    0.00000E+00         0.00000E+00        -0.60000E+08
 
   -0.60000E+08        -0.41200E-08         0.00000E+00
   -0.41200E-08        -0.60000E+08         0.00000E+00
    0.00000E+00         0.00000E+00        -0.60000E+08
 
   -0.60000E+08         0.17967E-08         0.00000E+00
    0.17967E-08        -0.60000E+08         0.00000E+00
    0.00000E+00         0.00000E+00        -0.60000E+08
 
   -0.60000E+08        -0.17051E-08         0.00000E+00
   -0.17051E-08        -0.60000E+08         0.00000E+00
    0.00000E+00         0.00000E+00        -0.60000E+08
 
   -0.60000E+08        -0.19390E-07         0.00000E+00
   -0.19390E-07        -0.60000E+08         0.00000E+00
    0.00000E+00         0.00000E+00        -0.60000E+08
 
   -0.60000E+08        -0.54125E-07         0.00000E+00
   -0.54125E-07        -0.60000E+08         0.00000E+00
    0.00000E+00         0.00000E+00        -0.60000E+08
 
   -0.60000E+08         0.21766E-07         0.00000E+00
    0.21766E-07        -0.60000E+08         0.00000E+00
    0.00000E+00         0.00000E+00        -0.60000E+08
 
   -0.60000E+08         0.43674E-08         0.00000E+00
    0.43674E-08        -0.60000E+08         0.00000E+00
    0.00000E+00         0.00000E+00        -0.60000E+08
 
   -0.60000E+08         0.43652E-08         0.00000E+00
    0.43652E-08        -0.60000E+08         0.00000E+00
    0.00000E+00         0.00000E+00        -0.60000E+08
 
   -0.60000E+08         0.65605E-08         0.00000E+00
    0.65605E-08        -0.60000E+08         0.00000E+00
    0.00000E+00         0.00000E+00        -0.60000E+08
 
   -0.60000E+08         0.59267E-08         0.00000E+00
    0.59267E-08        -0.60000E+08         0.00000E+00
    0.00000E+00         0.00000E+00        -0.60000E+08
 
   -0.60000E+08         0.17160E-07         0.00000E+00
    0.17160E-07        -0.60000E+08         0.00000E+00
    0.00000E+00         0.00000E+00        -0.60000E+08
 
   -0.60000E+08         0.23827E-08         0.00000E+00
    0.23827E-08        -0.60000E+08         0.00000E+00
    0.00000E+00         0.00000E+00        -0.60000E+08
 
   -0.60000E+08        -0.79070E-08         0.00000E+00
   -0.79070E-08        -0.60000E+08         0.00000E+00
    0.00000E+00         0.00000E+00        -0.60000E+08
 
   -0.60000E+08         0.92722E-09         0.00000E+00
    0.92722E-09        -0.60000E+08         0.00000E+00
    0.00000E+00         0.00000E+00        -0.60000E+08
 
   -0.60000E+08        -0.75770E-08         0.00000E+00
   -0.75770E-08        -0.60000E+08         0.00000E+00
    0.00000E+00         0.00000E+00        -0.60000E+08
 
   -0.60000E+08        -0.23244E-08         0.00000E+00
   -0.23244E-08        -0.60000E+08         0.00000E+00
    0.00000E+00         0.00000E+00        -0.60000E+08
 
   -0.60000E+08         0.64729E-08         0.00000E+00
    0.64729E-08        -0.60000E+08         0.00000E+00
    0.00000E+00         0.00000E+00        -0.60000E+08
 
   -0.60000E+08         0.16576E-08         0.00000E+00
    0.16576E-08        -0.60000E+08         0.00000E+00
    0.00000E+00         0.00000E+00        -0.60000E+08
 
   -0.60000E+08        -0.27205E-07         0.00000E+00
   -0.27205E-07        -0.60000E+08         0.00000E+00
    0.00000E+00         0.00000E+00        -0.60000E+08
 
   -0.60000E+08        -0.57122E-07         0.00000E+00
   -0.57122E-07        -0.60000E+08         0.00000E+00
    0.00000E+00         0.00000E+00        -0.60000E+08
 
   -0.60000E+08         0.13140E-07         0.00000E+00
    0.13140E-07        -0.60000E+08         0.00000E+00
    0.00000E+00         0.00000E+00        -0.60000E+08
 
   -0.60000E+08        -0.23468E-08         0.00000E+00
   -0.23468E-08        -0.60000E+08         0.00000E+00
    0.00000E+00         0.00000E+00        -0.60000E+08
 
   -0.60000E+08         0.19954E-08         0.00000E+00
    0.19954E-08        -0.60000E+08         0.00000E+00
    0.00000E+00         0.00000E+00        -0.60000E+08
 
   -0.60000E+08         0.12000E-07         0.00000E+00
    0.12000E-07        -0.60000E+08         0.00000E+00
    0.00000E+00         0.00000E+00        -0.60000E+08
 
   -0.60000E+08         0.95084E-08         0.00000E+00
    0.95084E-08        -0.60000E+08         0.00000E+00
    0.00000E+00         0.00000E+00        -0.60000E+08
 
   -0.60000E+08         0.16848E-07         0.00000E+00
    0.16848E-07        -0.60000E+08         0.00000E+00
    0.00000E+00         0.00000E+00        -0.60000E+08
 
   -0.60000E+08         0.80367E-10         0.00000E+00
    0.80367E-10        -0.60000E+08         0.00000E+00
    0.00000E+00         0.00000E+00        -0.60000E+08
 
   -0.60000E+08        -0.51939E-08         0.00000E+00
   -0.51939E-08        -0.60000E+08         0.00000E+00
    0.00000E+00         0.00000E+00        -0.60000E+08
 
   -0.60000E+08        -0.38760E-09         0.00000E+00
   -0.38760E-09        -0.60000E+08         0.00000E+00
    0.00000E+00         0.00000E+00        -0.60000E+08
 
   -0.60000E+08        -0.39894E-09         0.00000E+00
   -0.39894E-09        -0.60000E+08         0.00000E+00
    0.00000E+00         0.00000E+00        -0.60000E+08
 
   -0.60000E+08        -0.45190E-08         0.00000E+00
   -0.45190E-08        -0.60000E+08         0.00000E+00
    0.00000E+00         0.00000E+00        -0.60000E+08
 
   -0.60000E+08         0.11621E-08         0.00000E+00
    0.11621E-08        -0.60000E+08         0.00000E+00
    0.00000E+00         0.00000E+00        -0.60000E+08
 
   -0.60000E+08        -0.23399E-08         0.00000E+00
   -0.23399E-08        -0.60000E+08         0.00000E+00
    0.00000E+00         0.00000E+00        -0.60000E+08
 
   -0.60000E+08        -0.13492E-07         0.00000E+00
   -0.13492E-07        -0.60000E+08         0.00000E+00
    0.00000E+00         0.00000E+00        -0.60000E+08
 
   -0.60000E+08        -0.63023E-07         0.00000E+00
   -0.63023E-07        -0.60000E+08         0.00000E+00
    0.00000E+00         0.00000E+00        -0.60000E+08
 
   -0.60000E+08         0.72051E-08         0.00000E+00
    0.72051E-08        -0.60000E+08         0.00000E+00
    0.00000E+00         0.00000E+00        -0.60000E+08
 
   -0.60000E+08        -0.10011E-07         0.00000E+00
   -0.10011E-07        -0.60000E+08         0.00000E+00
    0.00000E+00         0.00000E+00        -0.60000E+08
 
   -0.60000E+08         0.17673E-08         0.00000E+00
    0.17673E-08        -0.60000E+08         0.00000E+00
    0.00000E+00         0.00000E+00        -0.60000E+08
 
   -0.60000E+08         0.27762E-08         0.00000E+00
    0.27762E-08        -0.60000E+08         0.00000E+00
    0.00000E+00         0.00000E+00        -0.60000E+08
 
   -0.60000E+08         0.13673E-07         0.00000E+00
    0.13673E-07        -0.60000E+08         0.00000E+00
    0.00000E+00         0.00000E+00        -0.60000E+08
 
   -0.60000E+08         0.10490E-07         0.00000E+00
    0.10490E-07        -0.60000E+08         0.00000E+00
    0.00000E+00         0.00000E+00        -0.60000E+08
 
   -0.60000E+08         0.27393E-08         0.00000E+00
    0.27393E-08        -0.60000E+08         0.00000E+00
    0.00000E+00         0.00000E+00        -0.60000E+08
 
   -0.60000E+08        -0.69268E-08         0.00000E+00
   -0.69268E-08        -0.60000E+08         0.00000E+00
    0.00000E+00         0.00000E+00        -0.60000E+08
 
   -0.60000E+08        -0.29451E-08         0.00000E+00
   -0.29451E-08        -0.60000E+08         0.00000E+00
    0.00000E+00         0.00000E+00        -0.60000E+08
 
   -0.60000E+08        -0.30979E-08         0.00000E+00
   -0.30979E-08        -0.60000E+08         0.00000E+00
    0.00000E+00         0.00000E+00        -0.60000E+08
 
   -0.60000E+08        -0.42302E-08         0.00000E+00
   -0.42302E-08        -0.60000E+08         0.00000E+00
    0.00000E+00         0.00000E+00        -0.60000E+08
 
   -0.60000E+08         0.10545E-07         0.00000E+00
    0.10545E-07        -0.60000E+08         0.00000E+00
    0.00000E+00         0.00000E+00        -0.60000E+08
 
   -0.60000E+08         0.15736E-08         0.00000E+00
    0.15736E-08        -0.60000E+08         0.00000E+00
    0.00000E+00         0.00000E+00        -0.60000E+08
 
   -0.60000E+08        -0.38793E-07         0.00000E+00
   -0.38793E-07        -0.60000E+08         0.00000E+00
    0.00000E+00         0.00000E+00        -0.60000E+08
 
   -0.60000E+08        -0.75209E-07         0.00000E+00
   -0.75209E-07        -0.60000E+08         0.00000E+00
    0.00000E+00         0.00000E+00        -0.60000E+08
 
   -0.60000E+08         0.24441E-08         0.00000E+00
    0.24441E-08        -0.60000E+08         0.00000E+00
    0.00000E+00         0.00000E+00        -0.60000E+08
 
   -0.60000E+08        -0.88805E-08         0.00000E+00
   -0.88805E-08        -0.60000E+08         0.00000E+00
    0.00000E+00         0.00000E+00        -0.60000E+08
 
   -0.60000E+08         0.17170E-07         0.00000E+00
    0.17170E-07        -0.60000E+08         0.00000E+00
    0.00000E+00         0.00000E+00        -0.60000E+08
 
   -0.60000E+08         0.24711E-08         0.00000E+00
    0.24711E-08        -0.60000E+08         0.00000E+00
    0.00000E+00         0.00000E+00        -0.60000E+08
 
   -0.60000E+08         0.16037E-07         0.00000E+00
    0.16037E-07        -0.60000E+08         0.00000E+00
    0.00000E+00         0.00000E+00        -0.60000E+08
 
   -0.60000E+08         0.80122E-08         0.00000E+00
    0.80122E-08        -0.60000E+08         0.00000E+00
    0.00000E+00         0.00000E+00        -0.60000E+08
 
   -0.60000E+08         0.51582E-08         0.00000E+00
    0.51582E-08        -0.60000E+08         0.00000E+00
    0.00000E+00         0.00000E+00        -0.60000E+08
 
   -0.60000E+08        -0.91927E-08         0.00000E+00
   -0.91927E-08        -0.60000E+08         0.00000E+00
    0.00000E+00         0.00000E+00        -0.60000E+08
 
   -0.60000E+08         0.19829E-08         0.00000E+00
    0.19829E-08        -0.60000E+08         0.00000E+00
    0.00000E+00         0.00000E+00        -0.60000E+08
 
   -0.60000E+08        -0.29113E-08         0.00000E+00
   -0.29113E-08        -0.60000E+08         0.00000E+00
    0.00000E+00         0.00000E+00        -0.60000E+08
 
   -0.60000E+08        -0.32201E-08         0.00000E+00
   -0.32201E-08        -0.60000E+08         0.00000E+00
    0.00000E+00         0.00000E+00        -0.60000E+08
 
   -0.60000E+08        -0.80870E-09         0.00000E+00
   -0.80870E-09        -0.60000E+08         0.00000E+00
    0.00000E+00         0.00000E+00        -0.60000E+08
 
   -0.60000E+08        -0.75256E-08         0.00000E+00
   -0.75256E-08        -0.60000E+08         0.00000E+00
    0.00000E+00         0.00000E+00        -0.60000E+08
 
   -0.60000E+08        -0.25247E-07         0.00000E+00
   -0.25247E-07        -0.60000E+08         0.00000E+00
    0.00000E+00         0.00000E+00        -0.60000E+08
 
   -0.60000E+08        -0.58358E-07         0.00000E+00
   -0.58358E-07        -0.60000E+08         0.00000E+00
    0.00000E+00         0.00000E+00        -0.60000E+08
 
   -0.60000E+08         0.85430E-08         0.00000E+00
    0.85430E-08        -0.60000E+08         0.00000E+00
    0.00000E+00         0.00000E+00        -0.60000E+08
 
   -0.60000E+08        -0.59549E-09         0.00000E+00
   -0.59549E-09        -0.60000E+08         0.00000E+00
    0.00000E+00         0.00000E+00        -0.60000E+08
 
   -0.60000E+08         0.14417E-07         0.00000E+00
    0.14417E-07        -0.60000E+08         0.00000E+00
    0.00000E+00         0.00000E+00        -0.60000E+08
 
   -0.60000E+08         0.40798E-08         0.00000E+00
    0.40798E-08        -0.60000E+08         0.00000E+00
    0.00000E+00         0.00000E+00        -0.60000E+08
 
   -0.60000E+08         0.55520E-08         0.00000E+00
    0.55520E-08        -0.60000E+08         0.00000E+00
    0.00000E+00         0.00000E+00        -0.60000E+08
 
   -0.60000E+08         0.50727E-08         0.00000E+00
    0.50727E-08        -0.60000E+08         0.00000E+00
    0.00000E+00         0.00000E+00        -0.60000E+08
 
   -0.60000E+08         0.63556E-08         0.00000E+00
    0.63556E-08        -0.60000E+08         0.00000E+00
    0.00000E+00         0.00000E+00        -0.60000E+08
 
   -0.60000E+08        -0.91001E-08         0.00000E+00
   -0.91001E-08        -0.60000E+08         0.00000E+00
    0.00000E+00         0.00000E+00        -0.60000E+08
 
   -0.60000E+08         0.23376E-08         0.00000E+00
    0.23376E-08        -0.60000E+08         0.00000E+00
    0.00000E+00         0.00000E+00        -0.60000E+08
 
   -0.60000E+08        -0.62044E-08         0.00000E+00
   -0.62044E-08        -0.60000E+08         0.00000E+00
    0.00000E+00         0.00000E+00        -0.60000E+08
 
   -0.60000E+08        -0.23722E-08         0.00000E+00
   -0.23722E-08        -0.60000E+08         0.00000E+00
    0.00000E+00         0.00000E+00        -0.60000E+08
 
   -0.60000E+08         0.81132E-08         0.00000E+00
    0.81132E-08        -0.60000E+08         0.00000E+00
    0.00000E+00         0.00000E+00        -0.60000E+08
 
   -0.60000E+08        -0.38207E-08         0.00000E+00
   -0.38207E-08        -0.60000E+08         0.00000E+00
    0.00000E+00         0.00000E+00        -0.60000E+08
 
   -0.60000E+08        -0.13761E-07         0.00000E+00
   -0.13761E-07        -0.60000E+08         0.00000E+00
    0.00000E+00         0.00000E+00        -0.60000E+08
 
   -0.60000E+08        -0.50195E-07         0.00000E+00
   -0.50195E-07        -0.60000E+08         0.00000E+00
    0.00000E+00         0.00000E+00        -0.60000E+08
 
   -0.60000E+08         0.12589E-07         0.00000E+00
    0.12589E-07        -0.60000E+08         0.00000E+00
    0.00000E+00         0.00000E+00        -0.60000E+08
 
   -0.60000E+08        -0.57921E-08         0.00000E+00
   -0.57921E-08        -0.60000E+08         0.00000E+00
    0.00000E+00         0.00000E+00        -0.60000E+08
 
   -0.60000E+08         0.10525E-07         0.00000E+00
    0.10525E-07        -0.60000E+08         0.00000E+00
    0.00000E+00         0.00000E+00        -0.60000E+08
 
   -0.60000E+08         0.16684E-07         0.00000E+00
    0.16684E-07        -0.60000E+08         0.00000E+00
    0.00000E+00         0.00000E+00        -0.60000E+08
 
   -0.60000E+08         0.40930E-08         0.00000E+00
    0.40930E-08        -0.60000E+08         0.00000E+00
    0.00000E+00         0.00000E+00        -0.60000E+08
 
   -0.60000E+08         0.61771E-08         0.00000E+00
    0.61771E-08        -0.60000E+08         0.00000E+00
    0.00000E+00         0.00000E+00        -0.60000E+08
 
   -0.60000E+08         0.46154E-08         0.00000E+00
    0.46154E-08        -0.60000E+08         0.00000E+00
    0.00000E+00         0.00000E+00        -0.60000E+08
 
   -0.60000E+08        -0.54967E-08         0.00000E+00
   -0.54967E-08        -0.60000E+08         0.00000E+00
    0.00000E+00         0.00000E+00        -0.60000E+08
 
   -0.60000E+08         0.35455E-08         0.00000E+00
    0.35455E-08        -0.60000E+08         0.00000E+00
    0.00000E+00         0.00000E+00        -0.60000E+08
 
   -0.60000E+08        -0.10304E-07         0.00000E+00
   -0.10304E-07        -0.60000E+08         0.00000E+00
    0.00000E+00         0.00000E+00        -0.60000E+08
 
   -0.60000E+08        -0.30164E-08         0.00000E+00
   -0.30164E-08        -0.60000E+08         0.00000E+00
    0.00000E+00         0.00000E+00        -0.60000E+08
 
   -0.60000E+08         0.56612E-08         0.00000E+00
    0.56612E-08        -0.60000E+08         0.00000E+00
    0.00000E+00         0.00000E+00        -0.60000E+08
 
   -0.60000E+08        -0.99739E-08         0.00000E+00
   -0.99739E-08        -0.60000E+08         0.00000E+00
    0.00000E+00         0.00000E+00        -0.60000E+08
 
   -0.60000E+08        -0.18178E-07         0.00000E+00
   -0.18178E-07        -0.60000E+08         0.00000E+00
    0.00000E+00         0.00000E+00        -0.60000E+08
 
   -0.60000E+08        -0.51532E-07         0.00000E+00
   -0.51532E-07        -0.60000E+08         0.00000E+00
    0.00000E+00         0.00000E+00        -0.60000E+08
 
   -0.60000E+08         0.18422E-07         0.00000E+00
    0.18422E-07        -0.60000E+08         0.00000E+00
    0.00000E+00         0.00000E+00        -0.60000E+08
 
   -0.60000E+08         0.29296E-08         0.00000E+00
    0.29296E-08        -0.60000E+08         0.00000E+00
    0.00000E+00         0.00000E+00        -0.60000E+08
 
   -0.60000E+08         0.16529E-07         0.00000E+00
    0.16529E-07        -0.60000E+08         0.00000E+00
    0.00000E+00         0.00000E+00        -0.60000E+08
 
   -0.60000E+08         0.70585E-08         0.00000E+00
    0.70585E-08        -0.60000E+08         0.00000E+00
    0.00000E+00         0.00000E+00        -0.60000E+08
 
   -0.60000E+08         0.25755E-08         0.00000E+00
    0.25755E-08        -0.60000E+08         0.00000E+00
    0.00000E+00         0.00000E+00        -0.60000E+08
 
   -0.60000E+08         0.69705E-08         0.00000E+00
    0.69705E-08        -0.60000E+08         0.00000E+00
    0.00000E+00         0.00000E+00        -0.60000E+08
 
   -0.60000E+08         0.22144E-08         0.00000E+00
    0.22144E-08        -0.60000E+08         0.00000E+00
    0.00000E+00         0.00000E+00        -0.60000E+08
 
   -0.60000E+08        -0.99433E-08         0.00000E+00
   -0.99433E-08        -0.60000E+08         0.00000E+00
    0.00000E+00         0.00000E+00        -0.60000E+08
 
   -0.60000E+08         0.13193E-08         0.00000E+00
    0.13193E-08        -0.60000E+08         0.00000E+00
    0.00000E+00         0.00000E+00        -0.60000E+08
 
   -0.60000E+08        -0.95988E-08         0.00000E+00
   -0.95988E-08        -0.60000E+08         0.00000E+00
    0.00000E+00         0.00000E+00        -0.60000E+08
 
   -0.60000E+08         0.19058E-09         0.00000E+00
    0.19058E-09        -0.60000E+08         0.00000E+00
    0.00000E+00         0.00000E+00        -0.60000E+08
 
   -0.60000E+08         0.90424E-08         0.00000E+00
    0.90424E-08        -0.60000E+08         0.00000E+00
    0.00000E+00         0.00000E+00        -0.60000E+08
 
   -0.60000E+08        -0.81053E-08         0.00000E+00
   -0.81053E-08        -0.60000E+08         0.00000E+00
    0.00000E+00         0.00000E+00        -0.60000E+08
 
   -0.60000E+08        -0.15667E-07         0.00000E+00
   -0.15667E-07        -0.60000E+08         0.00000E+00
    0.00000E+00         0.00000E+00        -0.60000E+08
 
   -0.60000E+08        -0.57068E-07         0.00000E+00
   -0.57068E-07        -0.60000E+08         0.00000E+00
    0.00000E+00         0.00000E+00        -0.60000E+08
 
   -0.60000E+08         0.11490E-07         0.00000E+00
    0.11490E-07        -0.60000E+08         0.00000E+00
    0.00000E+00         0.00000E+00        -0.60000E+08
 
   -0.60000E+08         0.41688E-09         0.00000E+00
    0.41688E-09        -0.60000E+08         0.00000E+00
    0.00000E+00         0.00000E+00        -0.60000E+08
 
   -0.60000E+08         0.12801E-07         0.00000E+00
    0.12801E-07        -0.60000E+08         0.00000E+00
    0.00000E+00         0.00000E+00        -0.60000E+08
 
   -0.60000E+08        -0.15823E-08         0.00000E+00
   -0.15823E-08        -0.60000E+08         0.00000E+00
    0.00000E+00         0.00000E+00        -0.60000E+08
 
   -0.60000E+08         0.12528E-07         0.00000E+00
    0.12528E-07        -0.60000E+08         0.00000E+00
    0.00000E+00         0.00000E+00        -0.60000E+08
 
   -0.60000E+08         0.10631E-07         0.00000E+00
    0.10631E-07        -0.60000E+08         0.00000E+00
    0.00000E+00         0.00000E+00        -0.60000E+08
 
   -0.60000E+08         0.46400E-08         0.00000E+00
    0.46400E-08        -0.60000E+08         0.00000E+00
    0.00000E+00         0.00000E+00        -0.60000E+08
 
   -0.60000E+08        -0.11108E-07         0.00000E+00
   -0.11108E-07        -0.60000E+08         0.00000E+00
    0.00000E+00         0.00000E+00        -0.60000E+08
 
   -0.60000E+08        -0.57825E-09         0.00000E+00
   -0.57825E-09        -0.60000E+08         0.00000E+00
    0.00000E+00         0.00000E+00        -0.60000E+08
 
   -0.60000E+08        -0.71306E-08         0.00000E+00
   -0.71306E-08        -0.60000E+08         0.00000E+00
    0.00000E+00         0.00000E+00        -0.60000E+08
 
   -0.60000E+08         0.11417E-08         0.00000E+00
    0.11417E-08        -0.60000E+08         0.00000E+00
    0.00000E+00         0.00000E+00        -0.60000E+08
 
   -0.60000E+08         0.55445E-08         0.00000E+00
    0.55445E-08        -0.60000E+08         0.00000E+00
    0.00000E+00         0.00000E+00        -0.60000E+08
 
   -0.60000E+08        -0.56974E-08         0.00000E+00
   -0.56974E-08        -0.60000E+08         0.00000E+00
    0.00000E+00         0.00000E+00        -0.60000E+08
 
   -0.60000E+08        -0.27291E-07         0.00000E+00
   -0.27291E-07        -0.60000E+08         0.00000E+00
    0.00000E+00         0.00000E+00        -0.60000E+08
 
   -0.60000E+08        -0.62484E-07         0.00000E+00
   -0.62484E-07        -0.60000E+08         0.00000E+00
    0.00000E+00         0.00000E+00        -0.60000E+08
 
   -0.60000E+08         0.46007E-08         0.00000E+00
    0.46007E-08        -0.60000E+08         0.00000E+00
    0.00000E+00         0.00000E+00        -0.60000E+08
 
   -0.60000E+08        -0.57026E-08         0.00000E+00
   -0.57026E-08        -0.60000E+08         0.00000E+00
    0.00000E+00         0.00000E+00        -0.60000E+08
 
   -0.60000E+08         0.83414E-08         0.00000E+00
    0.83414E-08        -0.60000E+08         0.00000E+00
    0.00000E+00         0.00000E+00        -0.60000E+08
 
   -0.60000E+08         0.73260E-08         0.00000E+00
    0.73260E-08        -0.60000E+08         0.00000E+00
    0.00000E+00         0.00000E+00        -0.60000E+08
 
   -0.60000E+08         0.13224E-07         0.00000E+00
    0.13224E-07        -0.60000E+08         0.00000E+00
    0.00000E+00         0.00000E+00        -0.60000E+08
 
   -0.60000E+08         0.53549E-08         0.00000E+00
    0.53549E-08        -0.60000E+08         0.00000E+00
    0.00000E+00         0.00000E+00        -0.60000E+08
 
   -0.60000E+08         0.40172E-09         0.00000E+00
    0.40172E-09        -0.60000E+08         0.00000E+00
    0.00000E+00         0.00000E+00        -0.60000E+08
 
   -0.60000E+08        -0.51173E-09         0.00000E+00
   -0.51173E-09        -0.60000E+08         0.00000E+00
    0.00000E+00         0.00000E+00        -0.60000E+08
 
   -0.60000E+08         0.85442E-08         0.00000E+00
    0.85442E-08        -0.60000E+08         0.00000E+00
    0.00000E+00         0.00000E+00        -0.60000E+08
 
   -0.60000E+08        -0.14347E-08         0.00000E+00
   -0.14347E-08        -0.60000E+08         0.00000E+00
    0.00000E+00         0.00000E+00        -0.60000E+08
 
   -0.60000E+08        -0.23948E-08         0.00000E+00
   -0.23948E-08        -0.60000E+08         0.00000E+00
    0.00000E+00         0.00000E+00        -0.60000E+08
 
   -0.60000E+08        -0.13736E-08         0.00000E+00
   -0.13736E-08        -0.60000E+08         0.00000E+00
    0.00000E+00         0.00000E+00        -0.60000E+08
 
   -0.60000E+08        -0.11102E-07         0.00000E+00
   -0.11102E-07        -0.60000E+08         0.00000E+00
    0.00000E+00         0.00000E+00        -0.60000E+08
 
   -0.60000E+08        -0.20094E-07         0.00000E+00
   -0.20094E-07        -0.60000E+08         0.00000E+00
    0.00000E+00         0.00000E+00        -0.60000E+08
 
   -0.60000E+08        -0.64898E-07         0.00000E+00
   -0.64898E-07        -0.60000E+08         0.00000E+00
    0.00000E+00         0.00000E+00        -0.60000E+08
 
   -0.60000E+08         0.19923E-08         0.00000E+00
    0.19923E-08        -0.60000E+08         0.00000E+00
    0.00000E+00         0.00000E+00        -0.60000E+08
 
   -0.60000E+08         0.75266E-08         0.00000E+00
    0.75266E-08        -0.60000E+08         0.00000E+00
    0.00000E+00         0.00000E+00        -0.60000E+08
 
   -0.60000E+08         0.80657E-08         0.00000E+00
    0.80657E-08        -0.60000E+08         0.00000E+00
    0.00000E+00         0.00000E+00        -0.60000E+08
 
   -0.60000E+08         0.28849E-08         0.00000E+00
    0.28849E-08        -0.60000E+08         0.00000E+00
    0.00000E+00         0.00000E+00        -0.60000E+08
 
   -0.60000E+08        -0.48173E-08         0.00000E+00
   -0.48173E-08        -0.60000E+08         0.00000E+00
    0.00000E+00         0.00000E+00        -0.60000E+08
 
   -0.60000E+08         0.13379E-07         0.00000E+00
    0.13379E-07        -0.60000E+08         0.00000E+00
    0.00000E+00         0.00000E+00        -0.60000E+08
 
   -0.60000E+08         0.91831E-08         0.00000E+00
    0.91831E-08        -0.60000E+08         0.00000E+00
    0.00000E+00         0.00000E+00        -0.60000E+08
 
   -0.60000E+08        -0.24081E-08         0.00000E+00
   -0.24081E-08        -0.60000E+08         0.00000E+00
    0.00000E+00         0.00000E+00        -0.60000E+08
 
   -0.60000E+08        -0.20302E-08         0.00000E+00
   -0.20302E-08        -0.60000E+08         0.00000E+00
    0.00000E+00         0.00000E+00        -0.60000E+08
 
   -0.60000E+08        -0.59474E-08         0.00000E+00
   -0.59474E-08        -0.60000E+08         0.00000E+00
    0.00000E+00         0.00000E+00        -0.60000E+08
 
   -0.60000E+08         0.56424E-08         0.00000E+00
    0.56424E-08        -0.60000E+08         0.00000E+00
    0.00000E+00         0.00000E+00        -0.60000E+08
 
   -0.60000E+08         0.12165E-07         0.00000E+00
    0.12165E-07        -0.60000E+08         0.00000E+00
    0.00000E+00         0.00000E+00        -0.60000E+08
 
   -0.60000E+08        -0.18965E-08         0.00000E+00
   -0.18965E-08        -0.60000E+08         0.00000E+00
    0.00000E+00         0.00000E+00        -0.60000E+08
 
   -0.60000E+08        -0.24141E-07         0.00000E+00
   -0.24141E-07        -0.60000E+08         0.00000E+00
    0.00000E+00         0.00000E+00        -0.60000E+08
 
   -0.60000E+08        -0.50944E-07         0.00000E+00
   -0.50944E-07        -0.60000E+08         0.00000E+00
    0.00000E+00         0.00000E+00        -0.60000E+08
 
   -0.60000E+08         0.17808E-07         0.00000E+00
    0.17808E-07        -0.60000E+08         0.00000E+00
    0.00000E+00         0.00000E+00        -0.60000E+08
 
   -0.60000E+08         0.11998E-07         0.00000E+00
    0.11998E-07        -0.60000E+08         0.00000E+00
    0.00000E+00         0.00000E+00        -0.60000E+08
 
   -0.60000E+08         0.10800E-07         0.00000E+00
    0.10800E-07        -0.60000E+08         0.00000E+00
    0.00000E+00         0.00000E+00        -0.60000E+08
 
   -0.60000E+08         0.17415E-07         0.00000E+00
    0.17415E-07        -0.60000E+08         0.00000E+00
    0.00000E+00         0.00000E+00        -0.60000E+08
 
   -0.60000E+08         0.72504E-09         0.00000E+00
    0.72504E-09        -0.60000E+08         0.00000E+00
    0.00000E+00         0.00000E+00        -0.60000E+08
 
   -0.60000E+08         0.19171E-07         0.00000E+00
    0.19171E-07        -0.60000E+08         0.00000E+00
    0.00000E+00         0.00000E+00        -0.60000E+08
 
   -0.60000E+08         0.69221E-08         0.00000E+00
    0.69221E-08        -0.60000E+08         0.00000E+00
    0.00000E+00         0.00000E+00        -0.60000E+08
 
   -0.60000E+08        -0.10963E-07         0.00000E+00
   -0.10963E-07        -0.60000E+08         0.00000E+00
    0.00000E+00         0.00000E+00        -0.60000E+08
 
   -0.60000E+08         0.22871E-08         0.00000E+00
    0.22871E-08        -0.60000E+08         0.00000E+00
    0.00000E+00         0.00000E+00        -0.60000E+08
 
   -0.60000E+08         0.10780E-08         0.00000E+00
    0.10780E-08        -0.60000E+08         0.00000E+00
    0.00000E+00         0.00000E+00        -0.60000E+08
 
   -0.60000E+08         0.37947E-08         0.00000E+00
    0.37947E-08        -0.60000E+08         0.00000E+00
    0.00000E+00         0.00000E+00        -0.60000E+08
 
   -0.60000E+08        -0.45899E-09         0.00000E+00
   -0.45899E-09        -0.60000E+08         0.00000E+00
    0.00000E+00         0.00000E+00        -0.60000E+08
 
   -0.60000E+08        -0.47888E-08         0.00000E+00
   -0.47888E-08        -0.60000E+08         0.00000E+00
    0.00000E+00         0.00000E+00        -0.60000E+08
 
   -0.60000E+08        -0.13809E-07         0.00000E+00
   -0.13809E-07        -0.60000E+08         0.00000E+00
    0.00000E+00         0.00000E+00        -0.60000E+08
 
   -0.60000E+08        -0.56179E-07         0.00000E+00
   -0.56179E-07        -0.60000E+08         0.00000E+00
    0.00000E+00         0.00000E+00        -0.60000E+08
 
   -0.60000E+08         0.12283E-07         0.00000E+00
    0.12283E-07        -0.60000E+08         0.00000E+00
    0.00000E+00         0.00000E+00        -0.60000E+08
 
   -0.60000E+08         0.79895E-09         0.00000E+00
    0.79895E-09        -0.60000E+08         0.00000E+00
    0.00000E+00         0.00000E+00        -0.60000E+08
 
   -0.60000E+08        -0.96954E-09         0.00000E+00
   -0.96954E-09        -0.60000E+08         0.00000E+00
    0.00000E+00         0.00000E+00        -0.60000E+08
 
   -0.60000E+08         0.27054E-07         0.00000E+00
    0.27054E-07        -0.60000E+08         0.00000E+00
    0.00000E+00         0.00000E+00        -0.60000E+08
 
   -0.60000E+08         0.12516E-07         0.00000E+00
    0.12516E-07        -0.60000E+08         0.00000E+00
    0.00000E+00         0.00000E+00        -0.60000E+08
 
   -0.60000E+08         0.72033E-08         0.00000E+00
    0.72033E-08        -0.60000E+08         0.00000E+00
    0.00000E+00         0.00000E+00        -0.60000E+08
 
   -0.60000E+08        -0.20880E-08         0.00000E+00
   -0.20880E-08        -0.60000E+08         0.00000E+00
    0.00000E+00         0.00000E+00        -0.60000E+08
 
   -0.60000E+08        -0.91795E-08         0.00000E+00
   -0.91795E-08        -0.60000E+08         0.00000E+00
    0.00000E+00         0.00000E+00        -0.60000E+08
 
   -0.60000E+08         0.27882E-08         0.00000E+00
    0.27882E-08        -0.60000E+08         0.00000E+00
    0.00000E+00         0.00000E+00        -0.60000E+08
 
   -0.60000E+08        -0.56389E-08         0.00000E+00
   -0.56389E-08        -0.60000E+08         0.00000E+00
    0.00000E+00         0.00000E+00        -0.60000E+08
 
   -0.60000E+08         0.27619E-10         0.00000E+00
    0.27619E-10        -0.60000E+08         0.00000E+00
    0.00000E+00         0.00000E+00        -0.60000E+08
 
   -0.60000E+08         0.54443E-08         0.00000E+00
    0.54443E-08        -0.60000E+08         0.00000E+00
    0.00000E+00         0.00000E+00        -0.60000E+08
 
   -0.60000E+08        -0.22001E-08         0.00000E+00
   -0.22001E-08        -0.60000E+08         0.00000E+00
    0.00000E+00         0.00000E+00        -0.60000E+08
 
   -0.60000E+08        -0.20955E-07         0.00000E+00
   -0.20955E-07        -0.60000E+08         0.00000E+00
    0.00000E+00         0.00000E+00        -0.60000E+08
 
   -0.60000E+08        -0.66349E-07         0.00000E+00
   -0.66349E-07        -0.60000E+08         0.00000E+00
    0.00000E+00         0.00000E+00        -0.60000E+08
 
   -0.60000E+08         0.78612E-08         0.00000E+00
    0.78612E-08        -0.60000E+08         0.00000E+00
    0.00000E+00         0.00000E+00        -0.60000E+08
 
   -0.60000E+08         0.21568E-08         0.00000E+00
    0.21568E-08        -0.60000E+08         0.00000E+00
    0.00000E+00         0.00000E+00        -0.60000E+08
 
   -0.60000E+08         0.24550E-09         0.00000E+00
    0.24550E-09        -0.60000E+08         0.00000E+00
    0.00000E+00         0.00000E+00        -0.60000E+08
 
   -0.60000E+08         0.90334E-08         0.00000E+00
    0.90334E-08        -0.60000E+08         0.00000E+00
    0.00000E+00         0.00000E+00        -0.60000E+08
 
   -0.60000E+08         0.28841E-08         0.00000E+00
    0.28841E-08        -0.60000E+08         0.00000E+00
    0.00000E+00         0.00000E+00        -0.60000E+08
 
   -0.60000E+08         0.86455E-08         0.00000E+00
    0.86455E-08        -0.60000E+08         0.00000E+00
    0.00000E+00         0.00000E+00        -0.60000E+08
 
   -0.60000E+08         0.11932E-07         0.00000E+00
    0.11932E-07        -0.60000E+08         0.00000E+00
    0.00000E+00         0.00000E+00        -0.60000E+08
 
   -0.60000E+08        -0.53662E-08         0.00000E+00
   -0.53662E-08        -0.60000E+08         0.00000E+00
    0.00000E+00         0.00000E+00        -0.60000E+08
 
   -0.60000E+08         0.37955E-08         0.00000E+00
    0.37955E-08        -0.60000E+08         0.00000E+00
    0.00000E+00         0.00000E+00        -0.60000E+08
 
   -0.60000E+08        -0.89850E-08         0.00000E+00
   -0.89850E-08        -0.60000E+08         0.00000E+00
    0.00000E+00         0.00000E+00        -0.60000E+08
 
   -0.60000E+08        -0.30296E-08         0.00000E+00
   -0.30296E-08        -0.60000E+08         0.00000E+00
    0.00000E+00         0.00000E+00        -0.60000E+08
 
   -0.60000E+08        -0.24864E-08         0.00000E+00
   -0.24864E-08        -0.60000E+08         0.00000E+00
    0.00000E+00         0.00000E+00        -0.60000E+08
 
   -0.60000E+08        -0.12258E-07         0.00000E+00
   -0.12258E-07        -0.60000E+08         0.00000E+00
    0.00000E+00         0.00000E+00        -0.60000E+08
 
   -0.60000E+08        -0.41412E-07         0.00000E+00
   -0.41412E-07        -0.60000E+08         0.00000E+00
    0.00000E+00         0.00000E+00        -0.60000E+08
 
   -0.60000E+08        -0.64753E-07         0.00000E+00
   -0.64753E-07        -0.60000E+08         0.00000E+00
    0.00000E+00         0.00000E+00        -0.60000E+08
 
   -0.60000E+08         0.11441E-07         0.00000E+00
    0.11441E-07        -0.60000E+08         0.00000E+00
    0.00000E+00         0.00000E+00        -0.60000E+08
 
   -0.60000E+08         0.29146E-08         0.00000E+00
    0.29146E-08        -0.60000E+08         0.00000E+00
    0.00000E+00         0.00000E+00        -0.60000E+08
 
   -0.60000E+08         0.41237E-08         0.00000E+00
    0.41237E-08        -0.60000E+08         0.00000E+00
    0.00000E+00         0.00000E+00        -0.60000E+08
 
   -0.60000E+08         0.11399E-07         0.00000E+00
    0.11399E-07        -0.60000E+08         0.00000E+00
    0.00000E+00         0.00000E+00        -0.60000E+08
 
   -0.60000E+08         0.85504E-08         0.00000E+00
    0.85504E-08        -0.60000E+08         0.00000E+00
    0.00000E+00         0.00000E+00        -0.60000E+08
 
   -0.60000E+08         0.66339E-08         0.00000E+00
    0.66339E-08        -0.60000E+08         0.00000E+00
    0.00000E+00         0.00000E+00        -0.60000E+08
 
   -0.60000E+08         0.13734E-07         0.00000E+00
    0.13734E-07        -0.60000E+08         0.00000E+00
    0.00000E+00         0.00000E+00        -0.60000E+08
 
   -0.60000E+08        -0.10702E-08         0.00000E+00
   -0.10702E-08        -0.60000E+08         0.00000E+00
    0.00000E+00         0.00000E+00        -0.60000E+08
 
   -0.60000E+08         0.38743E-08         0.00000E+00
    0.38743E-08        -0.60000E+08         0.00000E+00
    0.00000E+00         0.00000E+00        -0.60000E+08
 
   -0.60000E+08        -0.15368E-07         0.00000E+00
   -0.15368E-07        -0.60000E+08         0.00000E+00
    0.00000E+00         0.00000E+00        -0.60000E+08
 
   -0.60000E+08        -0.16944E-07         0.00000E+00
   -0.16944E-07        -0.60000E+08         0.00000E+00
    0.00000E+00         0.00000E+00        -0.60000E+08
 
   -0.60000E+08        -0.10671E-07         0.00000E+00
   -0.10671E-07        -0.60000E+08         0.00000E+00
    0.00000E+00         0.00000E+00        -0.60000E+08
 
   -0.60000E+08        -0.16697E-07         0.00000E+00
   -0.16697E-07        -0.60000E+08         0.00000E+00
    0.00000E+00         0.00000E+00        -0.60000E+08
 
   -0.60000E+08        -0.80395E-08         0.00000E+00
   -0.80395E-08        -0.60000E+08         0.00000E+00
    0.00000E+00         0.00000E+00        -0.60000E+08
 
   -0.60000E+08        -0.43572E-07         0.00000E+00
   -0.43572E-07        -0.60000E+08         0.00000E+00
    0.00000E+00         0.00000E+00        -0.60000E+08
 
   -0.60000E+08         0.16820E-07         0.00000E+00
    0.16820E-07        -0.60000E+08         0.00000E+00
    0.00000E+00         0.00000E+00        -0.60000E+08
 
   -0.60000E+08         0.81710E-08         0.00000E+00
    0.81710E-08        -0.60000E+08         0.00000E+00
    0.00000E+00         0.00000E+00        -0.60000E+08
 
   -0.60000E+08        -0.98352E-08         0.00000E+00
   -0.98352E-08        -0.60000E+08         0.00000E+00
    0.00000E+00         0.00000E+00        -0.60000E+08
 
   -0.60000E+08         0.60090E-08         0.00000E+00
    0.60090E-08        -0.60000E+08         0.00000E+00
    0.00000E+00         0.00000E+00        -0.60000E+08
 
   -0.60000E+08         0.89524E-08         0.00000E+00
    0.89524E-08        -0.60000E+08         0.00000E+00
    0.00000E+00         0.00000E+00        -0.60000E+08
 
   -0.60000E+08         0.91950E-08         0.00000E+00
    0.91950E-08        -0.60000E+08         0.00000E+00
    0.00000E+00         0.00000E+00        -0.60000E+08
 
   -0.60000E+08        -0.45570E-09         0.00000E+00
   -0.45570E-09        -0.60000E+08         0.00000E+00
    0.00000E+00         0.00000E+00        -0.60000E+08
 
   -0.60000E+08        -0.14731E-08         0.00000E+00
   -0.14731E-08        -0.60000E+08         0.00000E+00
    0.00000E+00         0.00000E+00        -0.60000E+08
 
   -0.60000E+08         0.69031E-08         0.00000E+00
    0.69031E-08        -0.60000E+08         0.00000E+00
    0.00000E+00         0.00000E+00        -0.60000E+08
 
   -0.60000E+08        -0.81840E-08         0.00000E+00
   -0.81840E-08        -0.60000E+08         0.00000E+00
    0.00000E+00         0.00000E+00        -0.60000E+08
 
   -0.60000E+08         0.35711E-08         0.00000E+00
    0.35711E-08        -0.60000E+08         0.00000E+00
    0.00000E+00         0.00000E+00        -0.60000E+08
 
   -0.60000E+08         0.59248E-08         0.00000E+00
    0.59248E-08        -0.60000E+08         0.00000E+00
    0.00000E+00         0.00000E+00        -0.60000E+08
 
   -0.60000E+08        -0.13952E-07         0.00000E+00
   -0.13952E-07        -0.60000E+08         0.00000E+00
    0.00000E+00         0.00000E+00        -0.60000E+08
 
   -0.60000E+08        -0.92223E-08         0.00000E+00
   -0.92223E-08        -0.60000E+08         0.00000E+00
    0.00000E+00         0.00000E+00        -0.60000E+08
 
   -0.60000E+08        -0.53702E-07         0.00000E+00
   -0.53702E-07        -0.60000E+08         0.00000E+00
    0.00000E+00         0.00000E+00        -0.60000E+08
 
   -0.60000E+08         0.11172E-07         0.00000E+00
    0.11172E-07        -0.60000E+08         0.00000E+00
    0.00000E+00         0.00000E+00        -0.60000E+08
 
   -0.60000E+08         0.17603E-07         0.00000E+00
    0.17603E-07        -0.60000E+08         0.00000E+00
    0.00000E+00         0.00000E+00        -0.60000E+08
 
   -0.60000E+08         0.27454E-08         0.00000E+00
    0.27454E-08        -0.60000E+08         0.00000E+00
    0.00000E+00         0.00000E+00        -0.60000E+08
 
   -0.60000E+08         0.16332E-08         0.00000E+00
    0.16332E-08        -0.60000E+08         0.00000E+00
    0.00000E+00         0.00000E+00        -0.60000E+08
 
   -0.60000E+08         0.76555E-08         0.00000E+00
    0.76555E-08        -0.60000E+08         0.00000E+00
    0.00000E+00         0.00000E+00        -0.60000E+08
 
   -0.60000E+08         0.12067E-07         0.00000E+00
    0.12067E-07        -0.60000E+08         0.00000E+00
    0.00000E+00         0.00000E+00        -0.60000E+08
 
   -0.60000E+08        -0.39929E-08         0.00000E+00
   -0.39929E-08        -0.60000E+08         0.00000E+00
    0.00000E+00         0.00000E+00        -0.60000E+08
 
   -0.60000E+08        -0.48877E-08         0.00000E+00
   -0.48877E-08        -0.60000E+08         0.00000E+00
    0.00000E+00         0.00000E+00        -0.60000E+08
 
   -0.60000E+08         0.45350E-08         0.00000E+00
    0.45350E-08        -0.60000E+08         0.00000E+00
    0.00000E+00         0.00000E+00        -0.60000E+08
 
   -0.60000E+08        -0.62523E-08         0.00000E+00
   -0.62523E-08        -0.60000E+08         0.00000E+00
    0.00000E+00         0.00000E+00        -0.60000E+08
 
   -0.60000E+08        -0.46635E-09         0.00000E+00
   -0.46635E-09        -0.60000E+08         0.00000E+00
    0.00000E+00         0.00000E+00        -0.60000E+08
 
   -0.60000E+08         0.51926E-08         0.00000E+00
    0.51926E-08        -0.60000E+08         0.00000E+00
    0.00000E+00         0.00000E+00        -0.60000E+08
 
   -0.60000E+08        -0.56004E-08         0.00000E+00
   -0.56004E-08        -0.60000E+08         0.00000E+00
    0.00000E+00         0.00000E+00        -0.60000E+08
 
   -0.60000E+08        -0.59783E-08         0.00000E+00
   -0.59783E-08        -0.60000E+08         0.00000E+00
    0.00000E+00         0.00000E+00        -0.60000E+08
 
   -0.60000E+08        -0.53998E-07         0.00000E+00
   -0.53998E-07        -0.60000E+08         0.00000E+00
    0.00000E+00         0.00000E+00        -0.60000E+08
 
   -0.60000E+08         0.94111E-08         0.00000E+00
    0.94111E-08        -0.60000E+08         0.00000E+00
    0.00000E+00         0.00000E+00        -0.60000E+08
 
   -0.60000E+08         0.91865E-08         0.00000E+00
    0.91865E-08        -0.60000E+08         0.00000E+00
    0.00000E+00         0.00000E+00        -0.60000E+08
 
   -0.60000E+08         0.10431E-07         0.00000E+00
    0.10431E-07        -0.60000E+08         0.00000E+00
    0.00000E+00         0.00000E+00        -0.60000E+08
 
   -0.60000E+08        -0.64101E-08         0.00000E+00
   -0.64101E-08        -0.60000E+08         0.00000E+00
    0.00000E+00         0.00000E+00        -0.60000E+08
 
   -0.60000E+08         0.14591E-07         0.00000E+00
    0.14591E-07        -0.60000E+08         0.00000E+00
    0.00000E+00         0.00000E+00        -0.60000E+08
 
   -0.60000E+08         0.68016E-08         0.00000E+00
    0.68016E-08        -0.60000E+08         0.00000E+00
    0.00000E+00         0.00000E+00        -0.60000E+08
 
   -0.60000E+08        -0.11432E-08         0.00000E+00
   -0.11432E-08        -0.60000E+08         0.00000E+00
    0.00000E+00         0.00000E+00        -0.60000E+08
 
   -0.60000E+08        -0.41634E-08         0.00000E+00
   -0.41634E-08        -0.60000E+08         0.00000E+00
    0.00000E+00         0.00000E+00        -0.60000E+08
 
   -0.60000E+08         0.89434E-08         0.00000E+00
    0.89434E-08        -0.60000E+08         0.00000E+00
    0.00000E+00         0.00000E+00        -0.60000E+08
 
   -0.60000E+08        -0.91062E-08         0.00000E+00
   -0.91062E-08        -0.60000E+08         0.00000E+00
    0.00000E+00         0.00000E+00        -0.60000E+08
 
   -0.60000E+08        -0.19247E-08         0.00000E+00
   -0.19247E-08        -0.60000E+08         0.00000E+00
    0.00000E+00         0.00000E+00        -0.60000E+08
 
   -0.60000E+08         0.43235E-08         0.00000E+00
    0.43235E-08        -0.60000E+08         0.00000E+00
    0.00000E+00         0.00000E+00        -0.60000E+08
 
   -0.60000E+08        -0.57374E-08         0.00000E+00
   -0.57374E-08        -0.60000E+08         0.00000E+00
    0.00000E+00         0.00000E+00        -0.60000E+08
 
   -0.60000E+08        -0.56289E-07         0.00000E+00
   -0.56289E-07        -0.60000E+08         0.00000E+00
    0.00000E+00         0.00000E+00        -0.60000E+08
 
   -0.60000E+08        -0.81449E-07         0.00000E+00
   -0.81449E-07        -0.60000E+08         0.00000E+00
    0.00000E+00         0.00000E+00        -0.60000E+08
 
   -0.60000E+08         0.86827E-09         0.00000E+00
    0.86827E-09        -0.60000E+08         0.00000E+00
    0.00000E+00         0.00000E+00        -0.60000E+08
 
   -0.60000E+08        -0.21563E-08         0.00000E+00
   -0.21563E-08        -0.60000E+08         0.00000E+00
    0.00000E+00         0.00000E+00        -0.60000E+08
 
   -0.60000E+08         0.45693E-09         0.00000E+00
    0.45693E-09        -0.60000E+08         0.00000E+00
    0.00000E+00         0.00000E+00        -0.60000E+08
 
   -0.60000E+08        -0.32398E-08         0.00000E+00
   -0.32398E-08        -0.60000E+08         0.00000E+00
    0.00000E+00         0.00000E+00        -0.60000E+08
 
   -0.60000E+08         0.19022E-07         0.00000E+00
    0.19022E-07        -0.60000E+08         0.00000E+00
    0.00000E+00         0.00000E+00        -0.60000E+08
 
   -0.60000E+08        -0.58904E-08         0.00000E+00
   -0.58904E-08        -0.60000E+08         0.00000E+00
    0.00000E+00         0.00000E+00        -0.60000E+08
 
   -0.60000E+08         0.69712E-09         0.00000E+00
    0.69712E-09        -0.60000E+08         0.00000E+00
    0.00000E+00         0.00000E+00        -0.60000E+08
 
   -0.60000E+08        -0.38996E-08         0.00000E+00
   -0.38996E-08        -0.60000E+08         0.00000E+00
    0.00000E+00         0.00000E+00        -0.60000E+08
 
   -0.60000E+08        -0.73201E-09         0.00000E+00
   -0.73201E-09        -0.60000E+08         0.00000E+00
    0.00000E+00         0.00000E+00        -0.60000E+08
 
   -0.60000E+08        -0.12393E-07         0.00000E+00
   -0.12393E-07        -0.60000E+08         0.00000E+00
    0.00000E+00         0.00000E+00        -0.60000E+08
 
   -0.60000E+08         0.32777E-08         0.00000E+00
    0.32777E-08        -0.60000E+08         0.00000E+00
    0.00000E+00         0.00000E+00        -0.60000E+08
 
   -0.60000E+08         0.10899E-08         0.00000E+00
    0.10899E-08        -0.60000E+08         0.00000E+00
    0.00000E+00         0.00000E+00        -0.60000E+08
 
   -0.60000E+08        -0.62283E-08         0.00000E+00
   -0.62283E-08        -0.60000E+08         0.00000E+00
    0.00000E+00         0.00000E+00        -0.60000E+08
 
   -0.60000E+08        -0.37472E-07         0.00000E+00
   -0.37472E-07        -0.60000E+08         0.00000E+00
    0.00000E+00         0.00000E+00        -0.60000E+08
 
   -0.60000E+08        -0.68420E-07         0.00000E+00
   -0.68420E-07        -0.60000E+08         0.00000E+00
    0.00000E+00         0.00000E+00        -0.60000E+08
 
   -0.60000E+08         0.14535E-07         0.00000E+00
    0.14535E-07        -0.60000E+08         0.00000E+00
    0.00000E+00         0.00000E+00        -0.60000E+08
 
   -0.60000E+08         0.71631E-08         0.00000E+00
    0.71631E-08        -0.60000E+08         0.00000E+00
    0.00000E+00         0.00000E+00        -0.60000E+08
 
   -0.60000E+08         0.27189E-08         0.00000E+00
    0.27189E-08        -0.60000E+08         0.00000E+00
    0.00000E+00         0.00000E+00        -0.60000E+08
 
   -0.60000E+08        -0.13394E-08         0.00000E+00
   -0.13394E-08        -0.60000E+08         0.00000E+00
    0.00000E+00         0.00000E+00        -0.60000E+08
 
   -0.60000E+08         0.12089E-07         0.00000E+00
    0.12089E-07        -0.60000E+08         0.00000E+00
    0.00000E+00         0.00000E+00        -0.60000E+08
 
   -0.60000E+08        -0.83949E-08         0.00000E+00
   -0.83949E-08        -0.60000E+08         0.00000E+00
    0.00000E+00         0.00000E+00        -0.60000E+08
 
   -0.60000E+08         0.63975E-08         0.00000E+00
    0.63975E-08        -0.60000E+08         0.00000E+00
    0.00000E+00         0.00000E+00        -0.60000E+08
 
   -0.60000E+08        -0.22058E-07         0.00000E+00
   -0.22058E-07        -0.60000E+08         0.00000E+00
    0.00000E+00         0.00000E+00        -0.60000E+08
 
   -0.60000E+08        -0.95148E-08         0.00000E+00
   -0.95148E-08        -0.60000E+08         0.00000E+00
    0.00000E+00         0.00000E+00        -0.60000E+08
 
   -0.60000E+08        -0.13944E-07         0.00000E+00
   -0.13944E-07        -0.60000E+08         0.00000E+00
    0.00000E+00         0.00000E+00        -0.60000E+08
 
   -0.60000E+08        -0.58617E-08         0.00000E+00
   -0.58617E-08        -0.60000E+08         0.00000E+00
    0.00000E+00         0.00000E+00        -0.60000E+08
 
   -0.60000E+08         0.27432E-09         0.00000E+00
    0.27432E-09        -0.60000E+08         0.00000E+00
    0.00000E+00         0.00000E+00        -0.60000E+08
 
   -0.60000E+08         0.16112E-08         0.00000E+00
    0.16112E-08        -0.60000E+08         0.00000E+00
    0.00000E+00         0.00000E+00        -0.60000E+08
 
   -0.60000E+08         0.25777E-08         0.00000E+00
    0.25777E-08        -0.60000E+08         0.00000E+00
    0.00000E+00         0.00000E+00        -0.60000E+08
 
   -0.60000E+08        -0.42565E-07         0.00000E+00
   -0.42565E-07        -0.60000E+08         0.00000E+00
    0.00000E+00         0.00000E+00        -0.60000E+08
 
   -0.60000E+08         0.14724E-07         0.00000E+00
    0.14724E-07        -0.60000E+08         0.00000E+00
    0.00000E+00         0.00000E+00        -0.60000E+08
 
   -0.60000E+08        -0.97022E-08         0.00000E+00
   -0.97022E-08        -0.60000E+08         0.00000E+00
    0.00000E+00         0.00000E+00        -0.60000E+08
 
   -0.60000E+08        -0.17373E-07         0.00000E+00
   -0.17373E-07        -0.60000E+08         0.00000E+00
    0.00000E+00         0.00000E+00        -0.60000E+08
 
   -0.60000E+08         0.64657E-08         0.00000E+00
    0.64657E-08        -0.60000E+08         0.00000E+00
    0.00000E+00         0.00000E+00        -0.60000E+08
 
   -0.60000E+08         0.14946E-07         0.00000E+00
    0.14946E-07        -0.60000E+08         0.00000E+00
    0.00000E+00         0.00000E+00        -0.60000E+08
 
   -0.60000E+08        -0.27360E-07         0.00000E+00
   -0.27360E-07        -0.60000E+08         0.00000E+00
    0.00000E+00         0.00000E+00        -0.60000E+08
 
   -0.60000E+08        -0.65912E-08         0.00000E+00
   -0.65912E-08        -0.60000E+08         0.00000E+00
    0.00000E+00         0.00000E+00        -0.60000E+08
 
   -0.60000E+08        -0.19732E-07         0.00000E+00
   -0.19732E-07        -0.60000E+08         0.00000E+00
    0.00000E+00         0.00000E+00        -0.60000E+08
 
   -0.60000E+08         0.38559E-08         0.00000E+00
    0.38559E-08        -0.60000E+08         0.00000E+00
    0.00000E+00         0.00000E+00        -0.60000E+08
 
   -0.60000E+08        -0.11307E-07         0.00000E+00
   -0.11307E-07        -0.60000E+08         0.00000E+00
    0.00000E+00         0.00000E+00        -0.60000E+08
 
   -0.60000E+08        -0.30988E-08         0.00000E+00
   -0.30988E-08        -0.60000E+08         0.00000E+00
    0.00000E+00         0.00000E+00        -0.60000E+08
 
   -0.60000E+08         0.35962E-08         0.00000E+00
    0.35962E-08        -0.60000E+08         0.00000E+00
    0.00000E+00         0.00000E+00        -0.60000E+08
 
   -0.60000E+08        -0.88175E-08         0.00000E+00
   -0.88175E-08        -0.60000E+08         0.00000E+00
    0.00000E+00         0.00000E+00        -0.60000E+08
 
   -0.60000E+08        -0.19867E-08         0.00000E+00
   -0.19867E-08        -0.60000E+08         0.00000E+00
    0.00000E+00         0.00000E+00        -0.60000E+08
 
   -0.60000E+08        -0.48948E-07         0.00000E+00
   -0.48948E-07        -0.60000E+08         0.00000E+00
    0.00000E+00         0.00000E+00        -0.60000E+08
 
   -0.60000E+08         0.18810E-08         0.00000E+00
    0.18810E-08        -0.60000E+08         0.00000E+00
    0.00000E+00         0.00000E+00        -0.60000E+08
 
   -0.60000E+08        -0.23231E-07         0.00000E+00
   -0.23231E-07        -0.60000E+08         0.00000E+00
    0.00000E+00         0.00000E+00        -0.60000E+08
 
   -0.60000E+08        -0.17094E-07         0.00000E+00
   -0.17094E-07        -0.60000E+08         0.00000E+00
    0.00000E+00         0.00000E+00        -0.60000E+08
 
   -0.60000E+08         0.15411E-07         0.00000E+00
    0.15411E-07        -0.60000E+08         0.00000E+00
    0.00000E+00         0.00000E+00        -0.60000E+08
 
   -0.60000E+08         0.39425E-08         0.00000E+00
    0.39425E-08        -0.60000E+08         0.00000E+00
    0.00000E+00         0.00000E+00        -0.60000E+08
 
   -0.60000E+08        -0.29069E-07         0.00000E+00
   -0.29069E-07        -0.60000E+08         0.00000E+00
    0.00000E+00         0.00000E+00        -0.60000E+08
 
   -0.60000E+08         0.61385E-08         0.00000E+00
    0.61385E-08        -0.60000E+08         0.00000E+00
    0.00000E+00         0.00000E+00        -0.60000E+08
 
   -0.60000E+08        -0.11977E-07         0.00000E+00
   -0.11977E-07        -0.60000E+08         0.00000E+00
    0.00000E+00         0.00000E+00        -0.60000E+08
 
   -0.60000E+08        -0.23363E-09         0.00000E+00
   -0.23363E-09        -0.60000E+08         0.00000E+00
    0.00000E+00         0.00000E+00        -0.60000E+08
 
   -0.60000E+08        -0.13625E-07         0.00000E+00
   -0.13625E-07        -0.60000E+08         0.00000E+00
    0.00000E+00         0.00000E+00        -0.60000E+08
 
   -0.60000E+08        -0.95958E-08         0.00000E+00
   -0.95958E-08        -0.60000E+08         0.00000E+00
    0.00000E+00         0.00000E+00        -0.60000E+08
 
   -0.60000E+08         0.14795E-08         0.00000E+00
    0.14795E-08        -0.60000E+08         0.00000E+00
    0.00000E+00         0.00000E+00        -0.60000E+08
 
   -0.60000E+08        -0.85310E-08         0.00000E+00
   -0.85310E-08        -0.60000E+08         0.00000E+00
    0.00000E+00         0.00000E+00        -0.60000E+08
 
   -0.60000E+08        -0.52910E-07         0.00000E+00
   -0.52910E-07        -0.60000E+08         0.00000E+00
    0.00000E+00         0.00000E+00        -0.60000E+08
 
   -0.60000E+08        -0.92557E-07         0.00000E+00
   -0.92557E-07        -0.60000E+08         0.00000E+00
    0.00000E+00         0.00000E+00        -0.60000E+08
 
   -0.60000E+08        -0.16981E-07         0.00000E+00
   -0.16981E-07        -0.60000E+08         0.00000E+00
    0.00000E+00         0.00000E+00        -0.60000E+08
 
   -0.60000E+08        -0.26616E-07         0.00000E+00
   -0.26616E-07        -0.60000E+08         0.00000E+00
    0.00000E+00         0.00000E+00        -0.60000E+08
 
   -0.60000E+08        -0.34325E-07         0.00000E+00
   -0.34325E-07        -0.60000E+08         0.00000E+00
    0.00000E+00         0.00000E+00        -0.60000E+08
 
   -0.60000E+08         0.68463E-08         0.00000E+00
    0.68463E-08        -0.60000E+08         0.00000E+00
    0.00000E+00         0.00000E+00        -0.60000E+08
 
   -0.60000E+08         0.93737E-08         0.00000E+00
    0.93737E-08        -0.60000E+08         0.00000E+00
    0.00000E+00         0.00000E+00        -0.60000E+08
 
   -0.60000E+08        -0.13318E-07         0.00000E+00
   -0.13318E-07        -0.60000E+08         0.00000E+00
    0.00000E+00         0.00000E+00        -0.60000E+08
 
   -0.60000E+08         0.29912E-08         0.00000E+00
    0.29912E-08        -0.60000E+08         0.00000E+00
    0.00000E+00         0.00000E+00        -0.60000E+08
 
   -0.60000E+08        -0.23226E-07         0.00000E+00
   -0.23226E-07        -0.60000E+08         0.00000E+00
    0.00000E+00         0.00000E+00        -0.60000E+08
 
   -0.60000E+08        -0.77839E-08         0.00000E+00
   -0.77839E-08        -0.60000E+08         0.00000E+00
    0.00000E+00         0.00000E+00        -0.60000E+08
 
   -0.60000E+08        -0.11457E-07         0.00000E+00
   -0.11457E-07        -0.60000E+08         0.00000E+00
    0.00000E+00         0.00000E+00        -0.60000E+08
 
   -0.60000E+08        -0.34560E-08         0.00000E+00
   -0.34560E-08        -0.60000E+08         0.00000E+00
    0.00000E+00         0.00000E+00        -0.60000E+08
 
   -0.60000E+08         0.75656E-09         0.00000E+00
    0.75656E-09        -0.60000E+08         0.00000E+00
    0.00000E+00         0.00000E+00        -0.60000E+08
 
   -0.60000E+08        -0.72253E-08         0.00000E+00
   -0.72253E-08        -0.60000E+08         0.00000E+00
    0.00000E+00         0.00000E+00        -0.60000E+08
 
   -0.60000E+08        -0.84920E-07         0.00000E+00
   -0.84920E-07        -0.60000E+08         0.00000E+00
    0.00000E+00         0.00000E+00        -0.60000E+08
 
   -0.60000E+08        -0.96261E-07         0.00000E+00
   -0.96261E-07        -0.60000E+08         0.00000E+00
    0.00000E+00         0.00000E+00        -0.60000E+08
 
   -0.60000E+08        -0.15378E-07         0.00000E+00
   -0.15378E-07        -0.60000E+08         0.00000E+00
    0.00000E+00         0.00000E+00        -0.60000E+08
 
   -0.60000E+08        -0.37733E-07         0.00000E+00
   -0.37733E-07        -0.60000E+08         0.00000E+00
    0.00000E+00         0.00000E+00        -0.60000E+08
 
   -0.60000E+08        -0.55029E-07         0.00000E+00
   -0.55029E-07        -0.60000E+08         0.00000E+00
    0.00000E+00         0.00000E+00        -0.60000E+08
 
   -0.60000E+08         0.12921E-07         0.00000E+00
    0.12921E-07        -0.60000E+08         0.00000E+00
    0.00000E+00         0.00000E+00        -0.60000E+08
 
   -0.60000E+08         0.51947E-08         0.00000E+00
    0.51947E-08        -0.60000E+08         0.00000E+00
    0.00000E+00         0.00000E+00        -0.60000E+08
 
   -0.60000E+08        -0.12565E-07         0.00000E+00
   -0.12565E-07        -0.60000E+08         0.00000E+00
    0.00000E+00         0.00000E+00        -0.60000E+08
 
   -0.60000E+08        -0.15302E-07         0.00000E+00
   -0.15302E-07        -0.60000E+08         0.00000E+00
    0.00000E+00         0.00000E+00        -0.60000E+08
 
   -0.60000E+08        -0.11209E-07         0.00000E+00
   -0.11209E-07        -0.60000E+08         0.00000E+00
    0.00000E+00         0.00000E+00        -0.60000E+08
 
   -0.60000E+08         0.14020E-07         0.00000E+00
    0.14020E-07        -0.60000E+08         0.00000E+00
    0.00000E+00         0.00000E+00        -0.60000E+08
 
   -0.60000E+08         0.31105E-08         0.00000E+00
    0.31105E-08        -0.60000E+08         0.00000E+00
    0.00000E+00         0.00000E+00        -0.60000E+08
 
   -0.60000E+08        -0.92115E-08         0.00000E+00
   -0.92115E-08        -0.60000E+08         0.00000E+00
    0.00000E+00         0.00000E+00        -0.60000E+08
 
   -0.60000E+08        -0.12047E-07         0.00000E+00
   -0.12047E-07        -0.60000E+08         0.00000E+00
    0.00000E+00         0.00000E+00        -0.60000E+08
 
   -0.60000E+08        -0.53438E-08         0.00000E+00
   -0.53438E-08        -0.60000E+08         0.00000E+00
    0.00000E+00         0.00000E+00        -0.60000E+08
 
   -0.60000E+08         0.51577E-07         0.00000E+00
    0.51577E-07        -0.60000E+08         0.00000E+00
    0.00000E+00         0.00000E+00        -0.60000E+08
 
   -0.60000E+08        -0.21274E-07         0.00000E+00
   -0.21274E-07        -0.60000E+08         0.00000E+00
    0.00000E+00         0.00000E+00        -0.60000E+08
 
   -0.60000E+08         0.11908E-08         0.00000E+00
    0.11908E-08        -0.60000E+08         0.00000E+00
    0.00000E+00         0.00000E+00        -0.60000E+08
 
   -0.60000E+08        -0.19368E-07         0.00000E+00
   -0.19368E-07        -0.60000E+08         0.00000E+00
    0.00000E+00         0.00000E+00        -0.60000E+08
 
   -0.60000E+08        -0.22950E-07         0.00000E+00
   -0.22950E-07        -0.60000E+08         0.00000E+00
    0.00000E+00         0.00000E+00        -0.60000E+08
 
   -0.60000E+08        -0.15701E-08         0.00000E+00
   -0.15701E-08        -0.60000E+08         0.00000E+00
    0.00000E+00         0.00000E+00        -0.60000E+08
 
   -0.60000E+08        -0.18319E-07         0.00000E+00
   -0.18319E-07        -0.60000E+08         0.00000E+00
    0.00000E+00         0.00000E+00        -0.60000E+08
 
   -0.60000E+08        -0.14064E-08         0.00000E+00
   -0.14064E-08        -0.60000E+08         0.00000E+00
    0.00000E+00         0.00000E+00        -0.60000E+08
 
   -0.60000E+08        -0.18225E-07         0.00000E+00
   -0.18225E-07        -0.60000E+08         0.00000E+00
    0.00000E+00         0.00000E+00        -0.60000E+08
 
   -0.60000E+08        -0.35656E-07         0.00000E+00
   -0.35656E-07        -0.60000E+08         0.00000E+00
    0.00000E+00         0.00000E+00        -0.60000E+08
 
   -0.60000E+08        -0.43818E-08         0.00000E+00
   -0.43818E-08        -0.60000E+08         0.00000E+00
    0.00000E+00         0.00000E+00        -0.60000E+08
 
   -0.60000E+08         0.24992E-08         0.00000E+00
    0.24992E-08        -0.60000E+08         0.00000E+00
    0.00000E+00         0.00000E+00        -0.60000E+08
 
   -0.60000E+08        -0.50485E-08         0.00000E+00
   -0.50485E-08        -0.60000E+08         0.00000E+00
    0.00000E+00         0.00000E+00        -0.60000E+08
 
   -0.60000E+08         0.14526E-07         0.00000E+00
    0.14526E-07        -0.60000E+08         0.00000E+00
    0.00000E+00         0.00000E+00        -0.60000E+08
 
   -0.60000E+08         0.23203E-07         0.00000E+00
    0.23203E-07        -0.60000E+08         0.00000E+00
    0.00000E+00         0.00000E+00        -0.60000E+08
 
   -0.60000E+08        -0.67486E-08         0.00000E+00
   -0.67486E-08        -0.60000E+08         0.00000E+00
    0.00000E+00         0.00000E+00        -0.60000E+08
 
   -0.60000E+08        -0.63320E-07         0.00000E+00
   -0.63320E-07        -0.60000E+08         0.00000E+00
    0.00000E+00         0.00000E+00        -0.60000E+08
 
   -0.60000E+08        -0.45112E-07         0.00000E+00
   -0.45112E-07        -0.60000E+08         0.00000E+00
    0.00000E+00         0.00000E+00        -0.60000E+08
 
   -0.60000E+08         0.33413E-07         0.00000E+00
    0.33413E-07        -0.60000E+08         0.00000E+00
    0.00000E+00         0.00000E+00        -0.60000E+08
 
   -0.60000E+08         0.38126E-07         0.00000E+00
    0.38126E-07        -0.60000E+08         0.00000E+00
    0.00000E+00         0.00000E+00        -0.60000E+08
 
   -0.60000E+08        -0.38826E-08         0.00000E+00
   -0.38826E-08        -0.60000E+08         0.00000E+00
    0.00000E+00         0.00000E+00        -0.60000E+08
 
   -0.60000E+08        -0.60555E-07         0.00000E+00
   -0.60555E-07        -0.60000E+08         0.00000E+00
    0.00000E+00         0.00000E+00        -0.60000E+08
 
   -0.60000E+08        -0.93107E-07         0.00000E+00
   -0.93107E-07        -0.60000E+08         0.00000E+00
    0.00000E+00         0.00000E+00        -0.60000E+08
 
   -0.60000E+08        -0.83445E-08         0.00000E+00
   -0.83445E-08        -0.60000E+08         0.00000E+00
    0.00000E+00         0.00000E+00        -0.60000E+08
 
   -0.60000E+08         0.76681E-07         0.00000E+00
    0.76681E-07        -0.60000E+08         0.00000E+00
    0.00000E+00         0.00000E+00        -0.60000E+08
 
   -0.60000E+08         0.18294E-07         0.00000E+00
    0.18294E-07        -0.60000E+08         0.00000E+00
    0.00000E+00         0.00000E+00        -0.60000E+08
 
   -0.60000E+08        -0.26705E-07         0.00000E+00
   -0.26705E-07        -0.60000E+08         0.00000E+00
    0.00000E+00         0.00000E+00        -0.60000E+08
 
   -0.60000E+08         0.44675E-07         0.00000E+00
    0.44675E-07        -0.60000E+08         0.00000E+00
    0.00000E+00         0.00000E+00        -0.60000E+08
 
   -0.60000E+08         0.53808E-07         0.00000E+00
    0.53808E-07        -0.60000E+08         0.00000E+00
    0.00000E+00         0.00000E+00        -0.60000E+08
 
   -0.60000E+08         0.16478E-07         0.00000E+00
    0.16478E-07        -0.60000E+08         0.00000E+00
    0.00000E+00         0.00000E+00        -0.60000E+08
 
SCALARS stressS double 
LOOKUP_TABLE default
  -60000000.0000000     
  -60000000.0000000     
  -60000000.0000000     
  -60000000.0000000     
  -60000000.0000000     
  -60000000.0000000     
  -60000000.0000000     
  -60000000.0000000     
  -60000000.0000000     
  -60000000.0000000     
  -60000000.0000000     
  -60000000.0000000     
  -60000000.0000000     
  -60000000.0000000     
  -60000000.0000000     
  -60000000.0000000     
  -60000000.0000000     
  -60000000.0000000     
  -60000000.0000000     
  -60000000.0000000     
  -60000000.0000000     
  -60000000.0000000     
  -60000000.0000000     
  -60000000.0000000     
  -60000000.0000000     
  -60000000.0000000     
  -60000000.0000000     
  -60000000.0000000     
  -60000000.0000000     
  -60000000.0000000     
  -60000000.0000000     
  -60000000.0000000     
  -60000000.0000000     
  -60000000.0000000     
  -60000000.0000000     
  -60000000.0000000     
  -60000000.0000000     
  -60000000.0000000     
  -60000000.0000000     
  -60000000.0000000     
  -60000000.0000000     
  -60000000.0000000     
  -60000000.0000000     
  -60000000.0000000     
  -60000000.0000000     
  -60000000.0000000     
  -60000000.0000000     
  -60000000.0000000     
  -60000000.0000000     
  -60000000.0000000     
  -60000000.0000000     
  -60000000.0000000     
  -60000000.0000000     
  -60000000.0000000     
  -60000000.0000000     
  -60000000.0000000     
  -60000000.0000000     
  -60000000.0000000     
  -60000000.0000000     
  -60000000.0000000     
  -60000000.0000000     
  -60000000.0000000     
  -60000000.0000000     
  -60000000.0000000     
  -60000000.0000000     
  -60000000.0000000     
  -60000000.0000000     
  -60000000.0000000     
  -60000000.0000000     
  -60000000.0000000     
  -60000000.0000000     
  -60000000.0000000     
  -60000000.0000000     
  -60000000.0000000     
  -60000000.0000000     
  -60000000.0000000     
  -60000000.0000000     
  -60000000.0000000     
  -60000000.0000000     
  -60000000.0000000     
  -60000000.0000000     
  -60000000.0000000     
  -60000000.0000000     
  -60000000.0000000     
  -60000000.0000000     
  -60000000.0000000     
  -60000000.0000000     
  -60000000.0000000     
  -60000000.0000000     
  -60000000.0000000     
  -60000000.0000000     
  -60000000.0000000     
  -60000000.0000000     
  -60000000.0000000     
  -60000000.0000000     
  -60000000.0000000     
  -60000000.0000000     
  -60000000.0000000     
  -60000000.0000000     
  -60000000.0000000     
  -60000000.0000000     
  -60000000.0000000     
  -60000000.0000000     
  -60000000.0000000     
  -60000000.0000000     
  -60000000.0000000     
  -60000000.0000000     
  -60000000.0000000     
  -60000000.0000000     
  -60000000.0000000     
  -60000000.0000000     
  -60000000.0000000     
  -60000000.0000000     
  -60000000.0000000     
  -60000000.0000000     
  -60000000.0000000     
  -60000000.0000000     
  -60000000.0000000     
  -60000000.0000000     
  -60000000.0000000     
  -60000000.0000000     
  -60000000.0000000     
  -60000000.0000000     
  -60000000.0000000     
  -60000000.0000000     
  -60000000.0000000     
  -60000000.0000000     
  -60000000.0000000     
  -60000000.0000000     
  -60000000.0000000     
  -60000000.0000000     
  -60000000.0000000     
  -60000000.0000000     
  -60000000.0000000     
  -60000000.0000000     
  -60000000.0000000     
  -60000000.0000000     
  -60000000.0000000     
  -60000000.0000000     
  -60000000.0000000     
  -60000000.0000000     
  -60000000.0000000     
  -60000000.0000000     
  -60000000.0000000     
  -60000000.0000000     
  -60000000.0000000     
  -60000000.0000000     
  -60000000.0000000     
  -60000000.0000000     
  -60000000.0000000     
  -60000000.0000000     
  -60000000.0000000     
  -60000000.0000000     
  -60000000.0000000     
  -60000000.0000000     
  -60000000.0000000     
  -60000000.0000000     
  -60000000.0000000     
  -60000000.0000000     
  -60000000.0000000     
  -60000000.0000000     
  -60000000.0000000     
  -60000000.0000000     
  -60000000.0000000     
  -60000000.0000000     
  -60000000.0000000     
  -60000000.0000000     
  -60000000.0000000     
  -60000000.0000000     
  -60000000.0000000     
  -60000000.0000000     
  -60000000.0000000     
  -60000000.0000000     
  -60000000.0000000     
  -60000000.0000000     
  -60000000.0000000     
  -60000000.0000000     
  -60000000.0000000     
  -60000000.0000000     
  -60000000.0000000     
  -60000000.0000000     
  -60000000.0000000     
  -60000000.0000000     
  -60000000.0000000     
  -60000000.0000000     
  -60000000.0000000     
  -60000000.0000000     
  -60000000.0000000     
  -60000000.0000000     
  -60000000.0000000     
  -60000000.0000000     
  -60000000.0000000     
  -60000000.0000000     
  -60000000.0000000     
  -60000000.0000000     
  -60000000.0000000     
  -60000000.0000000     
  -60000000.0000000     
  -60000000.0000000     
  -60000000.0000000     
  -60000000.0000000     
  -60000000.0000000     
  -60000000.0000000     
  -60000000.0000000     
  -60000000.0000000     
  -60000000.0000000     
  -60000000.0000000     
  -60000000.0000000     
  -60000000.0000000     
  -60000000.0000000     
  -60000000.0000000     
  -60000000.0000000     
  -60000000.0000000     
  -60000000.0000000     
  -60000000.0000000     
  -60000000.0000000     
  -60000000.0000000     
  -60000000.0000000     
  -60000000.0000000     
  -60000000.0000000     
  -60000000.0000000     
  -60000000.0000000     
  -60000000.0000000     
  -60000000.0000000     
  -60000000.0000000     
  -60000000.0000000     
  -60000000.0000000     
  -60000000.0000000     
  -60000000.0000000     
  -60000000.0000000     
  -60000000.0000000     
  -60000000.0000000     
  -60000000.0000000     
  -60000000.0000000     
  -60000000.0000000     
  -60000000.0000000     
  -60000000.0000000     
  -60000000.0000000     
  -60000000.0000000     
  -60000000.0000000     
  -60000000.0000000     
  -60000000.0000000     
  -60000000.0000000     
  -60000000.0000000     
  -60000000.0000000     
  -60000000.0000000     
  -60000000.0000000     
  -60000000.0000000     
  -60000000.0000000     
  -60000000.0000000     
  -60000000.0000000     
  -60000000.0000000     
  -60000000.0000000     
  -60000000.0000000     
  -60000000.0000000     
  -60000000.0000000     
  -60000000.0000000     
  -60000000.0000000     
  -60000000.0000000     
  -60000000.0000000     
  -60000000.0000000     
  -60000000.0000000     
  -60000000.0000000     
  -60000000.0000000     
  -60000000.0000000     
  -60000000.0000000     
  -60000000.0000000     
  -60000000.0000000     
  -60000000.0000000     
  -60000000.0000000     
  -60000000.0000000     
  -60000000.0000000     
  -60000000.0000000     
  -60000000.0000000     
  -60000000.0000000     
  -60000000.0000000     
  -60000000.0000000     
  -60000000.0000000     
  -60000000.0000000     
  -60000000.0000000     
  -60000000.0000000     
  -60000000.0000000     
  -60000000.0000000     
  -60000000.0000000     
  -60000000.0000000     
  -60000000.0000001     
  -60000000.0000000     
  -60000000.0000000     
  -60000000.0000000     
  -60000000.0000000     
  -60000000.0000000     
  -60000000.0000000     
  -60000000.0000000     
  -60000000.0000000     
  -60000000.0000000     
  -60000000.0000000     
  -60000000.0000000     
  -60000000.0000000     
  -60000000.0000000     
  -60000000.0000000     
  -60000000.0000000     
  -60000000.0000000     
  -60000000.0000000     
  -60000000.0000000     
  -60000000.0000000     
  -60000000.0000000     
  -60000000.0000000     
  -60000000.0000000     
  -60000000.0000000     
  -60000000.0000000     
  -60000000.0000000     
  -60000000.0000000     
  -60000000.0000000     
  -60000000.0000000     
  -60000000.0000000     
  -60000000.0000000     
  -60000000.0000000     
  -60000000.0000000     
  -60000000.0000000     
  -60000000.0000000     
  -60000000.0000000     
  -60000000.0000000     
  -60000000.0000000     
  -60000000.0000000     
  -60000000.0000000     
  -60000000.0000000     
  -60000000.0000000     
  -60000000.0000000     
  -60000000.0000000     
  -60000000.0000000     
  -60000000.0000000     
  -60000000.0000000     
  -60000000.0000000     
  -60000000.0000000     
  -60000000.0000000     
  -60000000.0000000     
  -60000000.0000000     
  -60000000.0000000     
  -60000000.0000000     
  -60000000.0000000     
  -60000000.0000000     
  -60000000.0000000     
  -60000000.0000000     
  -60000000.0000000     
  -60000000.0000000     
  -60000000.0000000     
  -60000000.0000000     
  -60000000.0000000     
  -60000000.0000000     
  -60000000.0000000     
  -60000000.0000000     
  -60000000.0000000     
  -60000000.0000000     
  -60000000.0000000     
  -60000000.0000000     
  -60000000.0000000     
  -60000000.0000000     
  -60000000.0000000     
  -60000000.0000000     
  -60000000.0000000     
  -60000000.0000000     
  -60000000.0000000     
  -60000000.0000000     
  -60000000.0000000     
  -60000000.0000000     
  -60000000.0000000     
  -60000000.0000000     
  -60000000.0000000     
  -60000000.0000000     
  -60000000.0000000     
  -60000000.0000000     
  -60000000.0000000     
  -60000000.0000000     
  -60000000.0000000     
  -60000000.0000000     
  -60000000.0000000     
  -60000000.0000000     
  -60000000.0000000     
  -60000000.0000000     
  -60000000.0000000     
  -60000000.0000000     
  -60000000.0000000     
  -60000000.0000000     
  -60000000.0000000     
  -60000000.0000000     
  -60000000.0000000     
  -60000000.0000000     
  -60000000.0000000     
  -60000000.0000000     
  -60000000.0000000     
  -59999999.9999999     
  -60000000.0000000     
  -60000000.0000000     
  -60000000.0000000     
  -60000000.0000000     
  -60000000.0000000     
  -60000000.0000000     
  -60000000.0000000     
  -60000000.0000000     
  -60000000.0000000     
  -60000000.0000000     
  -60000000.0000000     
  -60000000.0000000     
  -60000000.0000000     
  -60000000.0000000     
  -60000000.0000000     
  -60000000.0000000     
  -60000000.0000000     
  -60000000.0000000     
  -60000000.0000000     
  -60000000.0000000     
  -60000000.0000000     
  -60000000.0000000     
  -60000000.0000000     
  -60000000.0000000     
  -60000000.0000000     
  -60000000.0000000     
  -60000000.0000000     
  -60000000.0000000     
  -60000000.0000000     
  -60000000.0000001     
  -60000000.0000000     
  -60000000.0000000     
  -60000000.0000000     
  -60000000.0000000     
  -60000000.0000000     
  -60000000.0000000     
  -60000000.0000000     
  -60000000.0000000     
  -60000000.0000000     
  -60000000.0000000     
  -60000000.0000000     
  -60000000.0000000     
  -60000000.0000000     
  -60000000.0000000     
  -60000000.0000000     
  -60000000.0000000     
  -60000000.0000001     
  -60000000.0000001     
  -60000000.0000000     
  -60000000.0000000     
  -60000000.0000000     
  -60000000.0000000     
  -60000000.0000001     
  -60000000.0000000     
  -59999999.9999999     
  -60000000.0000000     
  -60000000.0000001     
  -60000000.0000000     
  -60000000.0000000     
SCALARS 2waySource double 
LOOKUP_TABLE default
 -4.792264198612384E-005
 -4.753556749449898E-005
 -4.696718262819792E-005
 -4.616317232286159E-005
 -4.508484492870730E-005
 -4.373004638245860E-005
 -4.214571278085975E-005
 -4.044703134339397E-005
 -3.883614882818868E-005
 -3.759420854618862E-005
 -3.698775361452238E-005
 -3.977597621613346E-005
 -7.135689649911865E-005
 -7.993337812033400E-005
 -8.229076860307515E-005
 -4.772454479809956E-005
 -4.735711903008172E-005
 -4.681340779066245E-005
 -4.605817694044720E-005
 -4.507370868587589E-005
 -4.387352857102356E-005
 -4.249314774675004E-005
 -4.098638840886034E-005
 -3.943522500243713E-005
 -3.800548255751687E-005
 -3.699600628700265E-005
 -3.830266186198093E-005
 -6.849666775597725E-005
 -8.004007566138956E-005
 -8.230859704519395E-005
 -4.737931679508419E-005
 -4.703593209026337E-005
 -4.652525797820507E-005
 -4.583664387552780E-005
 -4.498039839521823E-005
 -4.399118429969395E-005
 -4.290309098382307E-005
 -4.172557739088117E-005
 -4.042186334048896E-005
 -3.893572995647705E-005
 -3.735547467736833E-005
 -3.676124899669784E-005
 -6.281633737658491E-005
 -8.019834104775393E-005
 -8.204730623230668E-005
 -4.688545173978765E-005
 -4.657275417012793E-005
 -4.610678583115161E-005
 -4.549860640101436E-005
 -4.478412018541106E-005
 -4.401232856416123E-005
 -4.322226366391715E-005
 -4.241134643101463E-005
 -4.150228708341840E-005
 -4.030400875833783E-005
 -3.854459681113285E-005
 -3.638025543443507E-005
 -5.335782401245206E-005
 -7.919918838147021E-005
 -8.133480648583779E-005
 -4.623677833328956E-005
 -4.596258511414314E-005
 -4.555329730083444E-005
 -4.503690233237942E-005
 -4.446539198544627E-005
 -4.389334530163251E-005
 -4.335983663640309E-005
 -4.286498399860107E-005
 -4.235653770093438E-005
 -4.168776158274944E-005
 -4.054839805525018E-005
 -3.831640982046789E-005
 -4.363930900903862E-005
 -7.239396485417339E-005
 -8.093962349026539E-005
 -4.542399860169418E-005
 -4.519452295338752E-005
 -4.485194978089639E-005
 -4.443672424663335E-005
 -4.400699754355733E-005
 -4.361662455199462E-005
 -4.329396765868042E-005
 -4.304115114372822E-005
 -4.284033045514834E-005
 -4.263702741075325E-005
 -4.227320285440472E-005
 -4.124971234465466E-005
 -4.084644613852292E-005
 -6.017013718869053E-005
 -7.942424637624639E-005
 -4.443788148049324E-005
 -4.425591052290867E-005
 -4.398731834100395E-005
 -4.368117459173560E-005
 -4.339863435959259E-005
 -4.317999661612931E-005
 -4.303834360667261E-005
 -4.297135652283975E-005
 -4.297129619085662E-005
 -4.301872690418065E-005
 -4.306343707992444E-005
 -4.298084146247703E-005
 -4.287523544995287E-005
 -4.888140560636759E-005
 -6.966274681755835E-005
 -4.327276183875193E-005
 -4.313737612822609E-005
 -4.294752909788571E-005
 -4.276345439342062E-005
 -4.263733067268982E-005
 -4.258737953951484E-005
 -4.260993661669464E-005
 -4.268999219378378E-005
 -4.280808649365890E-005
 -4.293920196957572E-005
 -4.306124622343791E-005
 -4.316952883835031E-005
 -4.331538907262380E-005
 -4.525397597849498E-005
 -5.532236539822588E-005
 -4.192889936746126E-005
 -4.183635719620719E-005
 -4.173381027505828E-005
 -4.168836835535058E-005
 -4.172665339584418E-005
 -4.184384128995863E-005
 -4.201660133987251E-005
 -4.221271522108126E-005
 -4.239508347301529E-005
 -4.252347443985626E-005
 -4.255844462517933E-005
 -4.246179783409028E-005
 -4.227183628844179E-005
 -4.269229778784172E-005
 -4.646855361586375E-005
 -4.041277663157058E-005
 -4.036085761529216E-005
 -4.036250593129067E-005
 -4.046859474254913E-005
 -4.067557573722335E-005
 -4.095394294731309E-005
 -4.126098134178540E-005
 -4.154772853894163E-005
 -4.176280225841527E-005
 -4.185443578093159E-005
 -4.177562258006498E-005
 -4.151415823018789E-005
 -4.119073812297960E-005
 -4.123873386204378E-005
 -4.268743025229009E-005
 -3.873770674113246E-005
 -3.873520850616035E-005
 -3.885904365291946E-005
 -3.912376881808176E-005
 -3.949616944815896E-005
 -3.992420214650532E-005
 -4.034843961040342E-005
 -4.070829605345225E-005
 -4.094691767412182E-005
 -4.101818405166124E-005
 -4.090411889890771E-005
 -4.065251641947245E-005
 -4.041167853211291E-005
 -4.042910849686313E-005
 -4.100954448088293E-005
 -3.692751649094461E-005
 -3.699471444886157E-005
 -3.725308706434216E-005
 -3.767585698325151E-005
 -3.820335115064174E-005
 -3.876549445065826E-005
 -3.929202943262949E-005
 -3.971906390032874E-005
 -3.999691076629855E-005
 -4.010135480838317E-005
 -4.005065837540348E-005
 -3.991521490319509E-005
 -3.980072876828089E-005
 -3.980355479021015E-005
 -4.000642707247030E-005
 -3.501748232808359E-005
 -3.517848899519410E-005
 -3.557641649404014E-005
 -3.614868858417130E-005
 -3.681499516228029E-005
 -3.749401098905402E-005
 -3.811237359756948E-005
 -3.861176092908859E-005
 -3.895727643221939E-005
 -3.914605024124012E-005
 -3.920983512955870E-005
 -3.920280734803915E-005
 -3.917493558060747E-005
 -3.915669827294545E-005
 -3.916912293098895E-005
 -3.305489357629381E-005
 -3.332712594527096E-005
 -3.386058473880795E-005
 -3.456621842756786E-005
 -3.535053637690329E-005
 -3.612872045717598E-005
 -3.683134379794218E-005
 -3.741015696105930E-005
 -3.784325810841845E-005
 -3.813604780464009E-005
 -3.831320250689142E-005
 -3.840288046419801E-005
 -3.842398199826505E-005
 -3.838549341521109E-005
 -3.829423336598951E-005
 -3.109402354069386E-005
 -3.148129827482282E-005
 -3.213595056972107E-005
 -3.295111730516653E-005
 -3.382866830043793E-005
 -3.468645559956144E-005
 -3.546252631207067E-005
 -3.611771568724251E-005
 -3.663615564051539E-005
 -3.702061498592791E-005
 -3.728285717328821E-005
 -3.743419342417337E-005
 -3.748158060308791E-005
 -3.742932386515950E-005
 -3.728124971195937E-005
 -2.918958351197254E-005
 -2.968012400871594E-005
 -3.043015585841947E-005
 -3.132394613234541E-005
 -3.226471564537088E-005
 -3.317665330857040E-005
 -3.400510258803962E-005
 -3.471654483697708E-005
 -3.529588785325640E-005
 -3.574064738945228E-005
 -3.605401254578134E-005
 -3.624002903476237E-005
 -3.630244127717198E-005
 -3.624503384348425E-005
 -3.607042138859139E-005
 -2.739353407626314E-005
 -2.795945019418214E-005
 -2.876812731420779E-005
 -2.970191662205438E-005
 -3.066873734067755E-005
 -3.159909078705524E-005
 -3.244413676329781E-005
 -3.317404993042993E-005
 -3.377451175350674E-005
 -3.424128729686245E-005
 -3.457486326543967E-005
 -3.477721384765704E-005
 -3.485086967966768E-005
 -3.479865004746361E-005
 -3.462175641061258E-005
 -2.575305472157685E-005
 -2.635138630289299E-005
 -2.717233183131997E-005
 -2.809967274307643E-005
 -2.904541469537526E-005
 -2.994476529282615E-005
 -3.075409495905145E-005
 -3.144977621627381E-005
 -3.202317795179437E-005
 -3.247361347495468E-005
 -3.280217656661233E-005
 -3.300970305595428E-005
 -3.309657916341511E-005
 -3.306265553725056E-005
 -3.290661443081260E-005
 -2.430883583087701E-005
 -2.488416181754650E-005
 -2.566348991740755E-005
 -2.652992400696430E-005
 -2.739535225996471E-005
 -2.819729928894150E-005
 -2.890166816084892E-005
 -2.949960489163874E-005
 -2.999542336474217E-005
 -3.039461448125073E-005
 -3.069897882571144E-005
 -3.090661418366095E-005
 -3.101362498885411E-005
 -3.101485517055117E-005
 -3.090399022114535E-005
 -2.309403423985412E-005
 -2.358275405789913E-005
 -2.426207267213219E-005
 -2.500506690766770E-005
 -2.571389131160385E-005
 -2.633122017768190E-005
 -2.684670916403362E-005
 -2.727909839715352E-005
 -2.764912770850323E-005
 -2.796739011734092E-005
 -2.823389242220133E-005
 -2.844162774225394E-005
 -2.857999049228566E-005
 -2.863690927030425E-005
 -2.859926583281389E-005
 -2.213588157711923E-005
 -2.247150070344273E-005
 -2.299205167222485E-005
 -2.353429914961749E-005
 -2.398269199506926E-005
 -2.430631017905446E-005
 -2.454541571134331E-005
 -2.474901888444735E-005
 -2.495020582039203E-005
 -2.516203574573297E-005
 -2.538088478390246E-005
 -2.559241293588120E-005
 -2.577715923677868E-005
 -2.591419079909291E-005
 -2.598210965184183E-005
 -2.145727055764743E-005
 -2.158322686381806E-005
 -2.188183977120871E-005
 -2.210878597993254E-005
 -2.214737126619079E-005
 -2.206903544680208E-005
 -2.195965456314050E-005
 -2.188210790088548E-005
 -2.187563414089678E-005
 -2.195650710590078E-005
 -2.211887467752215E-005
 -2.234008210534968E-005
 -2.258949529456609E-005
 -2.283502205523407E-005
 -2.304545527369309E-005
 -2.109803328556859E-005
 -2.096883283756096E-005
 -2.096731906025456E-005
 -2.062904293052184E-005
 -2.011693812852223E-005
 -1.956884662856574E-005
 -1.906606972725283E-005
 -1.866660987492118E-005
 -1.841559531879056E-005
 -1.833816381021382E-005
 -1.843207901161236E-005
 -1.866851809623743E-005
 -1.900306263944946E-005
 -1.938949129965267E-005
 -1.978473124849447E-005
 -2.105666096972623E-005
 -2.089377484550103E-005
 -2.002001177014720E-005
 -1.891076424278037E-005
 -1.780563918610712E-005
 -1.677247012089757E-005
 -1.585419057128677E-005
 -1.510438215398992E-005
 -1.457586459298660E-005
 -1.430789726666100E-005
 -1.431230200872111E-005
 -1.456347723490683E-005
 -1.500417247473529E-005
 -1.556800409690699E-005
 -1.619961879088563E-005
 -2.319162378871429E-005
 -2.058455649528848E-005
 -1.861483344410149E-005
 -1.681028656168645E-005
 -1.516528847275209E-005
 -1.365330734448919E-005
 -1.231484451757095E-005
 -1.120523154812728E-005
 -1.037930827965887E-005
 -9.887414639839704E-006
 -9.765939285093402E-006
 -1.001374627725753E-005
 -1.057544599876737E-005
 -1.136021133940558E-005
 -1.228489298672403E-005
 -2.771595833799102E-005
 -1.912231509176882E-005
 -1.657633997805513E-005
 -1.430544948432706E-005
 -1.215127695213792E-005
 -1.017138014941808E-005
 -8.431247922623907E-006
 -6.980829614044640E-006
 -5.862631771362707E-006
 -5.125117094688879E-006
 -4.827402332852070E-006
 -5.021002215292626E-006
 -5.694308301072992E-006
 -6.746706121759145E-006
 -8.048861420823312E-006
 -3.517352975742429E-005
 -1.692123845207499E-005
 -1.419479359478304E-005
 -1.137593547048566E-005
 -8.690955268316977E-006
 -6.272481416277055E-006
 -4.181768227928994E-006
 -2.440654941925739E-006
 -1.065733827219105E-006
 -8.920435495377725E-008
  4.252107429173766E-007
  3.754476822114054E-007
 -3.418472761035899E-007
 -1.689776839872524E-006
 -3.491061536707939E-006
 -4.187805881706345E-005
 -1.547346088067733E-005
 -1.157363757837991E-005
 -7.936135946351493E-006
 -4.700781862528736E-006
 -1.911722218145312E-006
  4.491657333281480E-007
  2.408786262310371E-006
  3.981018067777609E-006
  5.155096629806249E-006
  5.881261551339694E-006
  6.049038247108145E-006
  5.456778113819952E-006
  3.861142696814244E-006
  1.395602652999451E-006
 -4.487030910834330E-005
 -1.405501417170264E-005
 -8.403800643119868E-006
 -3.837186300755604E-006
 -1.297664880306975E-007
  2.925908887571504E-006
  5.463349128772057E-006
  7.563028940851033E-006
  9.263123714063822E-006
  1.056812200216359E-005
  1.144585144219177E-005
  1.180916852177998E-005
  1.146220731830404E-005
  9.973235636262566E-006
  6.615002814278896E-006
 -4.479156026940263E-005
 -1.103561700049060E-005
 -4.076237762321557E-006
  1.059030493628502E-006
  5.035467171438641E-006
  8.228628456840899E-006
  1.085385060635202E-005
  1.302173053904172E-005
  1.478068345352983E-005
  1.614113323680748E-005
  1.707831023484109E-005
  1.752189198148581E-005
  1.731241826247915E-005
  1.604946216055046E-005
  1.247348272056085E-005
SCALARS poroP double 
LOOKUP_TABLE default
  0.000000000000000E+000
  0.000000000000000E+000
  0.000000000000000E+000
  0.000000000000000E+000
  0.000000000000000E+000
  0.000000000000000E+000
  0.000000000000000E+000
  0.000000000000000E+000
  0.000000000000000E+000
  0.000000000000000E+000
  0.000000000000000E+000
  0.000000000000000E+000
  0.000000000000000E+000
  0.000000000000000E+000
  0.000000000000000E+000
  0.000000000000000E+000
  0.000000000000000E+000
  0.000000000000000E+000
  0.000000000000000E+000
  0.000000000000000E+000
  0.000000000000000E+000
  0.000000000000000E+000
  0.000000000000000E+000
  0.000000000000000E+000
  0.000000000000000E+000
  0.000000000000000E+000
  0.000000000000000E+000
  0.000000000000000E+000
  0.000000000000000E+000
  0.000000000000000E+000
  0.000000000000000E+000
  0.000000000000000E+000
  0.000000000000000E+000
  0.000000000000000E+000
  0.000000000000000E+000
  0.000000000000000E+000
  0.000000000000000E+000
  0.000000000000000E+000
  0.000000000000000E+000
  0.000000000000000E+000
  0.000000000000000E+000
  0.000000000000000E+000
  0.000000000000000E+000
  0.000000000000000E+000
  0.000000000000000E+000
  0.000000000000000E+000
  0.000000000000000E+000
  0.000000000000000E+000
  0.000000000000000E+000
  0.000000000000000E+000
  0.000000000000000E+000
  0.000000000000000E+000
  0.000000000000000E+000
  0.000000000000000E+000
  0.000000000000000E+000
  0.000000000000000E+000
  0.000000000000000E+000
  0.000000000000000E+000
  0.000000000000000E+000
  0.000000000000000E+000
  0.000000000000000E+000
  0.000000000000000E+000
  0.000000000000000E+000
  0.000000000000000E+000
  0.000000000000000E+000
  0.000000000000000E+000
  0.000000000000000E+000
  0.000000000000000E+000
  0.000000000000000E+000
  0.000000000000000E+000
  0.000000000000000E+000
  0.000000000000000E+000
  0.000000000000000E+000
  0.000000000000000E+000
  0.000000000000000E+000
  0.000000000000000E+000
  0.000000000000000E+000
  0.000000000000000E+000
  0.000000000000000E+000
  0.000000000000000E+000
  0.000000000000000E+000
  0.000000000000000E+000
  0.000000000000000E+000
  0.000000000000000E+000
  0.000000000000000E+000
  0.000000000000000E+000
  0.000000000000000E+000
  0.000000000000000E+000
  0.000000000000000E+000
  0.000000000000000E+000
  0.000000000000000E+000
  0.000000000000000E+000
  0.000000000000000E+000
  0.000000000000000E+000
  0.000000000000000E+000
  0.000000000000000E+000
  0.000000000000000E+000
  0.000000000000000E+000
  0.000000000000000E+000
  0.000000000000000E+000
  0.000000000000000E+000
  0.000000000000000E+000
  0.000000000000000E+000
  0.000000000000000E+000
  0.000000000000000E+000
  0.000000000000000E+000
  0.000000000000000E+000
  0.000000000000000E+000
  0.000000000000000E+000
  0.000000000000000E+000
  0.000000000000000E+000
  0.000000000000000E+000
  0.000000000000000E+000
  0.000000000000000E+000
  0.000000000000000E+000
  0.000000000000000E+000
  0.000000000000000E+000
  0.000000000000000E+000
  0.000000000000000E+000
  0.000000000000000E+000
  0.000000000000000E+000
  0.000000000000000E+000
  0.000000000000000E+000
  0.000000000000000E+000
  0.000000000000000E+000
  0.000000000000000E+000
  0.000000000000000E+000
  0.000000000000000E+000
  0.000000000000000E+000
  0.000000000000000E+000
  0.000000000000000E+000
  0.000000000000000E+000
  0.000000000000000E+000
  0.000000000000000E+000
  0.000000000000000E+000
  0.000000000000000E+000
  0.000000000000000E+000
  0.000000000000000E+000
  0.000000000000000E+000
  0.000000000000000E+000
  0.000000000000000E+000
  0.000000000000000E+000
  0.000000000000000E+000
  0.000000000000000E+000
  0.000000000000000E+000
  0.000000000000000E+000
  0.000000000000000E+000
  0.000000000000000E+000
  0.000000000000000E+000
  0.000000000000000E+000
  0.000000000000000E+000
  0.000000000000000E+000
  0.000000000000000E+000
  0.000000000000000E+000
  0.000000000000000E+000
  0.000000000000000E+000
  0.000000000000000E+000
  0.000000000000000E+000
  0.000000000000000E+000
  0.000000000000000E+000
  0.000000000000000E+000
  0.000000000000000E+000
  0.000000000000000E+000
  0.000000000000000E+000
  0.000000000000000E+000
  0.000000000000000E+000
  0.000000000000000E+000
  0.000000000000000E+000
  0.000000000000000E+000
  0.000000000000000E+000
  0.000000000000000E+000
  0.000000000000000E+000
  0.000000000000000E+000
  0.000000000000000E+000
  0.000000000000000E+000
  0.000000000000000E+000
  0.000000000000000E+000
  0.000000000000000E+000
  0.000000000000000E+000
  0.000000000000000E+000
  0.000000000000000E+000
  0.000000000000000E+000
  0.000000000000000E+000
  0.000000000000000E+000
  0.000000000000000E+000
  0.000000000000000E+000
  0.000000000000000E+000
  0.000000000000000E+000
  0.000000000000000E+000
  0.000000000000000E+000
  0.000000000000000E+000
  0.000000000000000E+000
  0.000000000000000E+000
  0.000000000000000E+000
  0.000000000000000E+000
  0.000000000000000E+000
  0.000000000000000E+000
  0.000000000000000E+000
  0.000000000000000E+000
  0.000000000000000E+000
  0.000000000000000E+000
  0.000000000000000E+000
  0.000000000000000E+000
  0.000000000000000E+000
  0.000000000000000E+000
  0.000000000000000E+000
  0.000000000000000E+000
  0.000000000000000E+000
  0.000000000000000E+000
  0.000000000000000E+000
  0.000000000000000E+000
  0.000000000000000E+000
  0.000000000000000E+000
  0.000000000000000E+000
  0.000000000000000E+000
  0.000000000000000E+000
  0.000000000000000E+000
  0.000000000000000E+000
  0.000000000000000E+000
  0.000000000000000E+000
  0.000000000000000E+000
  0.000000000000000E+000
  0.000000000000000E+000
  0.000000000000000E+000
  0.000000000000000E+000
  0.000000000000000E+000
  0.000000000000000E+000
  0.000000000000000E+000
  0.000000000000000E+000
  0.000000000000000E+000
  0.000000000000000E+000
  0.000000000000000E+000
  0.000000000000000E+000
  0.000000000000000E+000
  0.000000000000000E+000
  0.000000000000000E+000
  0.000000000000000E+000
  0.000000000000000E+000
  0.000000000000000E+000
  0.000000000000000E+000
  0.000000000000000E+000
  0.000000000000000E+000
  0.000000000000000E+000
  0.000000000000000E+000
  0.000000000000000E+000
  0.000000000000000E+000
  0.000000000000000E+000
  0.000000000000000E+000
  0.000000000000000E+000
  0.000000000000000E+000
  0.000000000000000E+000
  0.000000000000000E+000
  0.000000000000000E+000
  0.000000000000000E+000
  0.000000000000000E+000
  0.000000000000000E+000
  0.000000000000000E+000
  0.000000000000000E+000
  0.000000000000000E+000
  0.000000000000000E+000
  0.000000000000000E+000
  0.000000000000000E+000
  0.000000000000000E+000
  0.000000000000000E+000
  0.000000000000000E+000
  0.000000000000000E+000
  0.000000000000000E+000
  0.000000000000000E+000
  0.000000000000000E+000
  0.000000000000000E+000
  0.000000000000000E+000
  0.000000000000000E+000
  0.000000000000000E+000
  0.000000000000000E+000
  0.000000000000000E+000
  0.000000000000000E+000
  0.000000000000000E+000
  0.000000000000000E+000
  0.000000000000000E+000
  0.000000000000000E+000
  0.000000000000000E+000
  0.000000000000000E+000
  0.000000000000000E+000
  0.000000000000000E+000
  0.000000000000000E+000
  0.000000000000000E+000
  0.000000000000000E+000
  0.000000000000000E+000
  0.000000000000000E+000
  0.000000000000000E+000
  0.000000000000000E+000
  0.000000000000000E+000
  0.000000000000000E+000
  0.000000000000000E+000
  0.000000000000000E+000
  0.000000000000000E+000
  0.000000000000000E+000
  0.000000000000000E+000
  0.000000000000000E+000
  0.000000000000000E+000
  0.000000000000000E+000
  0.000000000000000E+000
  0.000000000000000E+000
  0.000000000000000E+000
  0.000000000000000E+000
  0.000000000000000E+000
  0.000000000000000E+000
  0.000000000000000E+000
  0.000000000000000E+000
  0.000000000000000E+000
  0.000000000000000E+000
  0.000000000000000E+000
  0.000000000000000E+000
  0.000000000000000E+000
  0.000000000000000E+000
  0.000000000000000E+000
  0.000000000000000E+000
  0.000000000000000E+000
  0.000000000000000E+000
  0.000000000000000E+000
  0.000000000000000E+000
  0.000000000000000E+000
  0.000000000000000E+000
  0.000000000000000E+000
  0.000000000000000E+000
  0.000000000000000E+000
  0.000000000000000E+000
  0.000000000000000E+000
  0.000000000000000E+000
  0.000000000000000E+000
  0.000000000000000E+000
  0.000000000000000E+000
  0.000000000000000E+000
  0.000000000000000E+000
  0.000000000000000E+000
  0.000000000000000E+000
  0.000000000000000E+000
  0.000000000000000E+000
  0.000000000000000E+000
  0.000000000000000E+000
  0.000000000000000E+000
  0.000000000000000E+000
  0.000000000000000E+000
  0.000000000000000E+000
  0.000000000000000E+000
  0.000000000000000E+000
  0.000000000000000E+000
  0.000000000000000E+000
  0.000000000000000E+000
  0.000000000000000E+000
  0.000000000000000E+000
  0.000000000000000E+000
  0.000000000000000E+000
  0.000000000000000E+000
  0.000000000000000E+000
  0.000000000000000E+000
  0.000000000000000E+000
  0.000000000000000E+000
  0.000000000000000E+000
  0.000000000000000E+000
  0.000000000000000E+000
  0.000000000000000E+000
  0.000000000000000E+000
  0.000000000000000E+000
  0.000000000000000E+000
  0.000000000000000E+000
  0.000000000000000E+000
  0.000000000000000E+000
  0.000000000000000E+000
  0.000000000000000E+000
  0.000000000000000E+000
  0.000000000000000E+000
  0.000000000000000E+000
  0.000000000000000E+000
  0.000000000000000E+000
  0.000000000000000E+000
  0.000000000000000E+000
  0.000000000000000E+000
  0.000000000000000E+000
  0.000000000000000E+000
  0.000000000000000E+000
  0.000000000000000E+000
  0.000000000000000E+000
  0.000000000000000E+000
  0.000000000000000E+000
  0.000000000000000E+000
  0.000000000000000E+000
  0.000000000000000E+000
  0.000000000000000E+000
  0.000000000000000E+000
  0.000000000000000E+000
  0.000000000000000E+000
  0.000000000000000E+000
  0.000000000000000E+000
  0.000000000000000E+000
  0.000000000000000E+000
  0.000000000000000E+000
  0.000000000000000E+000
  0.000000000000000E+000
  0.000000000000000E+000
  0.000000000000000E+000
  0.000000000000000E+000
  0.000000000000000E+000
  0.000000000000000E+000
  0.000000000000000E+000
  0.000000000000000E+000
  0.000000000000000E+000
  0.000000000000000E+000
  0.000000000000000E+000
  0.000000000000000E+000
  0.000000000000000E+000
  0.000000000000000E+000
  0.000000000000000E+000
  0.000000000000000E+000
  0.000000000000000E+000
  0.000000000000000E+000
  0.000000000000000E+000
  0.000000000000000E+000
  0.000000000000000E+000
  0.000000000000000E+000
  0.000000000000000E+000
  0.000000000000000E+000
  0.000000000000000E+000
  0.000000000000000E+000
  0.000000000000000E+000
  0.000000000000000E+000
  0.000000000000000E+000
  0.000000000000000E+000
  0.000000000000000E+000
  0.000000000000000E+000
  0.000000000000000E+000
  0.000000000000000E+000
  0.000000000000000E+000
  0.000000000000000E+000
  0.000000000000000E+000
  0.000000000000000E+000
  0.000000000000000E+000
  0.000000000000000E+000
  0.000000000000000E+000
  0.000000000000000E+000
  0.000000000000000E+000
  0.000000000000000E+000
  0.000000000000000E+000
  0.000000000000000E+000
  0.000000000000000E+000
  0.000000000000000E+000
  0.000000000000000E+000
  0.000000000000000E+000
  0.000000000000000E+000
  0.000000000000000E+000
SCALARS elementIsPlast double 
LOOKUP_TABLE default
  0.000000000000000E+000
  0.000000000000000E+000
  0.000000000000000E+000
  0.000000000000000E+000
  0.000000000000000E+000
  0.000000000000000E+000
  0.000000000000000E+000
  0.000000000000000E+000
  0.000000000000000E+000
  0.000000000000000E+000
  0.000000000000000E+000
  0.000000000000000E+000
  0.000000000000000E+000
  0.000000000000000E+000
  0.000000000000000E+000
  0.000000000000000E+000
  0.000000000000000E+000
  0.000000000000000E+000
  0.000000000000000E+000
  0.000000000000000E+000
  0.000000000000000E+000
  0.000000000000000E+000
  0.000000000000000E+000
  0.000000000000000E+000
  0.000000000000000E+000
  0.000000000000000E+000
  0.000000000000000E+000
  0.000000000000000E+000
  0.000000000000000E+000
  0.000000000000000E+000
  0.000000000000000E+000
  0.000000000000000E+000
  0.000000000000000E+000
  0.000000000000000E+000
  0.000000000000000E+000
  0.000000000000000E+000
  0.000000000000000E+000
  0.000000000000000E+000
  0.000000000000000E+000
  0.000000000000000E+000
  0.000000000000000E+000
  0.000000000000000E+000
  0.000000000000000E+000
  0.000000000000000E+000
  0.000000000000000E+000
  0.000000000000000E+000
  0.000000000000000E+000
  0.000000000000000E+000
  0.000000000000000E+000
  0.000000000000000E+000
  0.000000000000000E+000
  0.000000000000000E+000
  0.000000000000000E+000
  0.000000000000000E+000
  0.000000000000000E+000
  0.000000000000000E+000
  0.000000000000000E+000
  0.000000000000000E+000
  0.000000000000000E+000
  0.000000000000000E+000
  0.000000000000000E+000
  0.000000000000000E+000
  0.000000000000000E+000
  0.000000000000000E+000
  0.000000000000000E+000
  0.000000000000000E+000
  0.000000000000000E+000
  0.000000000000000E+000
  0.000000000000000E+000
  0.000000000000000E+000
  0.000000000000000E+000
  0.000000000000000E+000
  0.000000000000000E+000
  0.000000000000000E+000
  0.000000000000000E+000
  0.000000000000000E+000
  0.000000000000000E+000
  0.000000000000000E+000
  0.000000000000000E+000
  0.000000000000000E+000
  0.000000000000000E+000
  0.000000000000000E+000
  0.000000000000000E+000
  0.000000000000000E+000
  0.000000000000000E+000
  0.000000000000000E+000
  0.000000000000000E+000
  0.000000000000000E+000
  0.000000000000000E+000
  0.000000000000000E+000
  0.000000000000000E+000
  0.000000000000000E+000
  0.000000000000000E+000
  0.000000000000000E+000
  0.000000000000000E+000
  0.000000000000000E+000
  0.000000000000000E+000
  0.000000000000000E+000
  0.000000000000000E+000
  0.000000000000000E+000
  0.000000000000000E+000
  0.000000000000000E+000
  0.000000000000000E+000
  0.000000000000000E+000
  0.000000000000000E+000
  0.000000000000000E+000
  0.000000000000000E+000
  0.000000000000000E+000
  0.000000000000000E+000
  0.000000000000000E+000
  0.000000000000000E+000
  0.000000000000000E+000
  0.000000000000000E+000
  0.000000000000000E+000
  0.000000000000000E+000
  0.000000000000000E+000
  0.000000000000000E+000
  0.000000000000000E+000
  0.000000000000000E+000
  0.000000000000000E+000
  0.000000000000000E+000
  0.000000000000000E+000
  0.000000000000000E+000
  0.000000000000000E+000
  0.000000000000000E+000
  0.000000000000000E+000
  0.000000000000000E+000
  0.000000000000000E+000
  0.000000000000000E+000
  0.000000000000000E+000
  0.000000000000000E+000
  0.000000000000000E+000
  0.000000000000000E+000
  0.000000000000000E+000
  0.000000000000000E+000
  0.000000000000000E+000
  0.000000000000000E+000
  0.000000000000000E+000
  0.000000000000000E+000
  0.000000000000000E+000
  0.000000000000000E+000
  0.000000000000000E+000
  0.000000000000000E+000
  0.000000000000000E+000
  0.000000000000000E+000
  0.000000000000000E+000
  0.000000000000000E+000
  0.000000000000000E+000
  0.000000000000000E+000
  0.000000000000000E+000
  0.000000000000000E+000
  0.000000000000000E+000
  0.000000000000000E+000
  0.000000000000000E+000
  0.000000000000000E+000
  0.000000000000000E+000
  0.000000000000000E+000
  0.000000000000000E+000
  0.000000000000000E+000
  0.000000000000000E+000
  0.000000000000000E+000
  0.000000000000000E+000
  0.000000000000000E+000
  0.000000000000000E+000
  0.000000000000000E+000
  0.000000000000000E+000
  0.000000000000000E+000
  0.000000000000000E+000
  0.000000000000000E+000
  0.000000000000000E+000
  0.000000000000000E+000
  0.000000000000000E+000
  0.000000000000000E+000
  0.000000000000000E+000
  0.000000000000000E+000
  0.000000000000000E+000
  0.000000000000000E+000
  0.000000000000000E+000
  0.000000000000000E+000
  0.000000000000000E+000
  0.000000000000000E+000
  0.000000000000000E+000
  0.000000000000000E+000
  0.000000000000000E+000
  0.000000000000000E+000
  0.000000000000000E+000
  0.000000000000000E+000
  0.000000000000000E+000
  0.000000000000000E+000
  0.000000000000000E+000
  0.000000000000000E+000
  0.000000000000000E+000
  0.000000000000000E+000
  0.000000000000000E+000
  0.000000000000000E+000
  0.000000000000000E+000
  0.000000000000000E+000
  0.000000000000000E+000
  0.000000000000000E+000
  0.000000000000000E+000
  0.000000000000000E+000
  0.000000000000000E+000
  0.000000000000000E+000
  0.000000000000000E+000
  0.000000000000000E+000
  0.000000000000000E+000
  0.000000000000000E+000
  0.000000000000000E+000
  0.000000000000000E+000
  0.000000000000000E+000
  0.000000000000000E+000
  0.000000000000000E+000
  0.000000000000000E+000
  0.000000000000000E+000
  0.000000000000000E+000
  0.000000000000000E+000
  0.000000000000000E+000
  0.000000000000000E+000
  0.000000000000000E+000
  0.000000000000000E+000
  0.000000000000000E+000
  0.000000000000000E+000
  0.000000000000000E+000
  0.000000000000000E+000
  0.000000000000000E+000
  0.000000000000000E+000
  0.000000000000000E+000
  0.000000000000000E+000
  0.000000000000000E+000
  0.000000000000000E+000
  0.000000000000000E+000
  0.000000000000000E+000
  0.000000000000000E+000
  0.000000000000000E+000
  0.000000000000000E+000
  0.000000000000000E+000
  0.000000000000000E+000
  0.000000000000000E+000
  0.000000000000000E+000
  0.000000000000000E+000
  0.000000000000000E+000
  0.000000000000000E+000
  0.000000000000000E+000
  0.000000000000000E+000
  0.000000000000000E+000
  0.000000000000000E+000
  0.000000000000000E+000
  0.000000000000000E+000
  0.000000000000000E+000
  0.000000000000000E+000
  0.000000000000000E+000
  0.000000000000000E+000
  0.000000000000000E+000
  0.000000000000000E+000
  0.000000000000000E+000
  0.000000000000000E+000
  0.000000000000000E+000
  0.000000000000000E+000
  0.000000000000000E+000
  0.000000000000000E+000
  0.000000000000000E+000
  0.000000000000000E+000
  0.000000000000000E+000
  0.000000000000000E+000
  0.000000000000000E+000
  0.000000000000000E+000
  0.000000000000000E+000
  0.000000000000000E+000
  0.000000000000000E+000
  0.000000000000000E+000
  0.000000000000000E+000
  0.000000000000000E+000
  0.000000000000000E+000
  0.000000000000000E+000
  0.000000000000000E+000
  0.000000000000000E+000
  0.000000000000000E+000
  0.000000000000000E+000
  0.000000000000000E+000
  0.000000000000000E+000
  0.000000000000000E+000
  0.000000000000000E+000
  0.000000000000000E+000
  0.000000000000000E+000
  0.000000000000000E+000
  0.000000000000000E+000
  0.000000000000000E+000
  0.000000000000000E+000
  0.000000000000000E+000
  0.000000000000000E+000
  0.000000000000000E+000
  0.000000000000000E+000
  0.000000000000000E+000
  0.000000000000000E+000
  0.000000000000000E+000
  0.000000000000000E+000
  0.000000000000000E+000
  0.000000000000000E+000
  0.000000000000000E+000
  0.000000000000000E+000
  0.000000000000000E+000
  0.000000000000000E+000
  0.000000000000000E+000
  0.000000000000000E+000
  0.000000000000000E+000
  0.000000000000000E+000
  0.000000000000000E+000
  0.000000000000000E+000
  0.000000000000000E+000
  0.000000000000000E+000
  0.000000000000000E+000
  0.000000000000000E+000
  0.000000000000000E+000
  0.000000000000000E+000
  0.000000000000000E+000
  0.000000000000000E+000
  0.000000000000000E+000
  0.000000000000000E+000
  0.000000000000000E+000
  0.000000000000000E+000
  0.000000000000000E+000
  0.000000000000000E+000
  0.000000000000000E+000
  0.000000000000000E+000
  0.000000000000000E+000
  0.000000000000000E+000
  0.000000000000000E+000
  0.000000000000000E+000
  0.000000000000000E+000
  0.000000000000000E+000
  0.000000000000000E+000
  0.000000000000000E+000
  0.000000000000000E+000
  0.000000000000000E+000
  0.000000000000000E+000
  0.000000000000000E+000
  0.000000000000000E+000
  0.000000000000000E+000
  0.000000000000000E+000
  0.000000000000000E+000
  0.000000000000000E+000
  0.000000000000000E+000
  0.000000000000000E+000
  0.000000000000000E+000
  0.000000000000000E+000
  0.000000000000000E+000
  0.000000000000000E+000
  0.000000000000000E+000
  0.000000000000000E+000
  0.000000000000000E+000
  0.000000000000000E+000
  0.000000000000000E+000
  0.000000000000000E+000
  0.000000000000000E+000
  0.000000000000000E+000
  0.000000000000000E+000
  0.000000000000000E+000
  0.000000000000000E+000
  0.000000000000000E+000
  0.000000000000000E+000
  0.000000000000000E+000
  0.000000000000000E+000
  0.000000000000000E+000
  0.000000000000000E+000
  0.000000000000000E+000
  0.000000000000000E+000
  0.000000000000000E+000
  0.000000000000000E+000
  0.000000000000000E+000
  0.000000000000000E+000
  0.000000000000000E+000
  0.000000000000000E+000
  0.000000000000000E+000
  0.000000000000000E+000
  0.000000000000000E+000
  0.000000000000000E+000
  0.000000000000000E+000
  0.000000000000000E+000
  0.000000000000000E+000
  0.000000000000000E+000
  0.000000000000000E+000
  0.000000000000000E+000
  0.000000000000000E+000
  0.000000000000000E+000
  0.000000000000000E+000
  0.000000000000000E+000
  0.000000000000000E+000
  0.000000000000000E+000
  0.000000000000000E+000
  0.000000000000000E+000
  0.000000000000000E+000
  0.000000000000000E+000
  0.000000000000000E+000
  0.000000000000000E+000
  0.000000000000000E+000
  0.000000000000000E+000
  0.000000000000000E+000
  0.000000000000000E+000
  0.000000000000000E+000
  0.000000000000000E+000
  0.000000000000000E+000
  0.000000000000000E+000
  0.000000000000000E+000
  0.000000000000000E+000
  0.000000000000000E+000
  0.000000000000000E+000
  0.000000000000000E+000
  0.000000000000000E+000
  0.000000000000000E+000
  0.000000000000000E+000
  0.000000000000000E+000
  0.000000000000000E+000
  0.000000000000000E+000
  0.000000000000000E+000
  0.000000000000000E+000
  0.000000000000000E+000
  0.000000000000000E+000
  0.000000000000000E+000
  0.000000000000000E+000
  0.000000000000000E+000
  0.000000000000000E+000
  0.000000000000000E+000
  0.000000000000000E+000
  0.000000000000000E+000
  0.000000000000000E+000
  0.000000000000000E+000
  0.000000000000000E+000
  0.000000000000000E+000
  0.000000000000000E+000
  0.000000000000000E+000
  0.000000000000000E+000
  0.000000000000000E+000
  0.000000000000000E+000
  0.000000000000000E+000
  0.000000000000000E+000
  0.000000000000000E+000
  0.000000000000000E+000
  0.000000000000000E+000
  0.000000000000000E+000
  0.000000000000000E+000
  0.000000000000000E+000
  0.000000000000000E+000
  0.000000000000000E+000
  0.000000000000000E+000
  0.000000000000000E+000
  0.000000000000000E+000
  0.000000000000000E+000
  0.000000000000000E+000
  0.000000000000000E+000
  0.000000000000000E+000
SCALARS poroL double 
LOOKUP_TABLE default
  0.156000000000000     
  0.156000000000000     
  0.156000000000000     
  0.156000000000000     
  0.156000000000000     
  0.156000000000000     
  0.156000000000000     
  0.156000000000000     
  0.156000000000000     
  0.156000000000000     
  0.156000000000000     
  0.156000000000000     
  0.156000000000000     
  0.156000000000000     
  0.156000000000000     
  0.156000000000000     
  0.156000000000000     
  0.156000000000000     
  0.156000000000000     
  0.156000000000000     
  0.156000000000000     
  0.156000000000000     
  0.156000000000000     
  0.156000000000000     
  0.156000000000000     
  0.156000000000000     
  0.156000000000000     
  0.156000000000000     
  0.156000000000000     
  0.156000000000000     
  0.156000000000000     
  0.156000000000000     
  0.156000000000000     
  0.156000000000000     
  0.156000000000000     
  0.156000000000000     
  0.156000000000000     
  0.156000000000000     
  0.156000000000000     
  0.156000000000000     
  0.156000000000000     
  0.156000000000000     
  0.156000000000000     
  0.156000000000000     
  0.156000000000000     
  0.156000000000000     
  0.156000000000000     
  0.156000000000000     
  0.156000000000000     
  0.156000000000000     
  0.156000000000000     
  0.156000000000000     
  0.156000000000000     
  0.156000000000000     
  0.156000000000000     
  0.156000000000000     
  0.156000000000000     
  0.156000000000000     
  0.156000000000000     
  0.156000000000000     
  0.156000000000000     
  0.156000000000000     
  0.156000000000000     
  0.156000000000000     
  0.156000000000000     
  0.156000000000000     
  0.156000000000000     
  0.156000000000000     
  0.156000000000000     
  0.156000000000000     
  0.156000000000000     
  0.156000000000000     
  0.156000000000000     
  0.156000000000000     
  0.156000000000000     
  0.156000000000000     
  0.156000000000000     
  0.156000000000000     
  0.156000000000000     
  0.156000000000000     
  0.156000000000000     
  0.156000000000000     
  0.156000000000000     
  0.156000000000000     
  0.156000000000000     
  0.156000000000000     
  0.156000000000000     
  0.156000000000000     
  0.156000000000000     
  0.156000000000000     
  0.156000000000000     
  0.156000000000000     
  0.156000000000000     
  0.156000000000000     
  0.156000000000000     
  0.156000000000000     
  0.156000000000000     
  0.156000000000000     
  0.156000000000000     
  0.156000000000000     
  0.156000000000000     
  0.156000000000000     
  0.156000000000000     
  0.156000000000000     
  0.156000000000000     
  0.156000000000000     
  0.156000000000000     
  0.156000000000000     
  0.156000000000000     
  0.156000000000000     
  0.156000000000000     
  0.156000000000000     
  0.156000000000000     
  0.156000000000000     
  0.156000000000000     
  0.156000000000000     
  0.156000000000000     
  0.156000000000000     
  0.156000000000000     
  0.156000000000000     
  0.156000000000000     
  0.156000000000000     
  0.156000000000000     
  0.156000000000000     
  0.156000000000000     
  0.156000000000000     
  0.156000000000000     
  0.156000000000000     
  0.156000000000000     
  0.156000000000000     
  0.156000000000000     
  0.156000000000000     
  0.156000000000000     
  0.156000000000000     
  0.156000000000000     
  0.156000000000000     
  0.156000000000000     
  0.156000000000000     
  0.156000000000000     
  0.156000000000000     
  0.156000000000000     
  0.156000000000000     
  0.156000000000000     
  0.156000000000000     
  0.156000000000000     
  0.156000000000000     
  0.156000000000000     
  0.156000000000000     
  0.156000000000000     
  0.156000000000000     
  0.156000000000000     
  0.156000000000000     
  0.156000000000000     
  0.156000000000000     
  0.156000000000000     
  0.156000000000000     
  0.156000000000000     
  0.156000000000000     
  0.156000000000000     
  0.156000000000000     
  0.156000000000000     
  0.156000000000000     
  0.156000000000000     
  0.156000000000000     
  0.156000000000000     
  0.156000000000000     
  0.156000000000000     
  0.156000000000000     
  0.156000000000000     
  0.156000000000000     
  0.156000000000000     
  0.156000000000000     
  0.156000000000000     
  0.156000000000000     
  0.156000000000000     
  0.156000000000000     
  0.156000000000000     
  0.156000000000000     
  0.156000000000000     
  0.156000000000000     
  0.156000000000000     
  0.156000000000000     
  0.156000000000000     
  0.156000000000000     
  0.156000000000000     
  0.156000000000000     
  0.156000000000000     
  0.156000000000000     
  0.156000000000000     
  0.156000000000000     
  0.156000000000000     
  0.156000000000000     
  0.156000000000000     
  0.156000000000000     
  0.156000000000000     
  0.156000000000000     
  0.156000000000000     
  0.156000000000000     
  0.156000000000000     
  0.156000000000000     
  0.156000000000000     
  0.156000000000000     
  0.156000000000000     
  0.156000000000000     
  0.156000000000000     
  0.156000000000000     
  0.156000000000000     
  0.156000000000000     
  0.156000000000000     
  0.156000000000000     
  0.156000000000000     
  0.156000000000000     
  0.156000000000000     
  0.156000000000000     
  0.156000000000000     
  0.156000000000000     
  0.156000000000000     
  0.156000000000000     
  0.156000000000000     
  0.156000000000000     
  0.156000000000000     
  0.156000000000000     
  0.156000000000000     
  0.156000000000000     
  0.156000000000000     
  0.156000000000000     
  0.156000000000000     
  0.156000000000000     
  0.156000000000000     
  0.156000000000000     
  0.156000000000000     
  0.156000000000000     
  0.156000000000000     
  0.156000000000000     
  0.156000000000000     
  0.156000000000000     
  0.156000000000000     
  0.156000000000000     
  0.156000000000000     
  0.156000000000000     
  0.156000000000000     
  0.156000000000000     
  0.156000000000000     
  0.156000000000000     
  0.156000000000000     
  0.156000000000000     
  0.156000000000000     
  0.156000000000000     
  0.156000000000000     
  0.156000000000000     
  0.156000000000000     
  0.156000000000000     
  0.156000000000000     
  0.156000000000000     
  0.156000000000000     
  0.156000000000000     
  0.156000000000000     
  0.156000000000000     
  0.156000000000000     
  0.156000000000000     
  0.156000000000000     
  0.156000000000000     
  0.156000000000000     
  0.156000000000000     
  0.156000000000000     
  0.156000000000000     
  0.156000000000000     
  0.156000000000000     
  0.156000000000000     
  0.156000000000000     
  0.156000000000000     
  0.156000000000000     
  0.156000000000000     
  0.156000000000000     
  0.156000000000000     
  0.156000000000000     
  0.156000000000000     
  0.156000000000000     
  0.156000000000000     
  0.156000000000000     
  0.156000000000000     
  0.156000000000000     
  0.156000000000000     
  0.156000000000000     
  0.156000000000000     
  0.156000000000000     
  0.156000000000000     
  0.156000000000000     
  0.156000000000000     
  0.156000000000000     
  0.156000000000000     
  0.156000000000000     
  0.156000000000000     
  0.156000000000000     
  0.156000000000000     
  0.156000000000000     
  0.156000000000000     
  0.156000000000000     
  0.156000000000000     
  0.156000000000000     
  0.156000000000000     
  0.156000000000000     
  0.156000000000000     
  0.156000000000000     
  0.156000000000000     
  0.156000000000000     
  0.156000000000000     
  0.156000000000000     
  0.156000000000000     
  0.156000000000000     
  0.156000000000000     
  0.156000000000000     
  0.156000000000000     
  0.156000000000000     
  0.156000000000000     
  0.156000000000000     
  0.156000000000000     
  0.156000000000000     
  0.156000000000000     
  0.156000000000000     
  0.156000000000000     
  0.156000000000000     
  0.156000000000000     
  0.156000000000000     
  0.156000000000000     
  0.156000000000000     
  0.156000000000000     
  0.156000000000000     
  0.156000000000000     
  0.156000000000000     
  0.156000000000000     
  0.156000000000000     
  0.156000000000000     
  0.156000000000000     
  0.156000000000000     
  0.156000000000000     
  0.156000000000000     
  0.156000000000000     
  0.156000000000000     
  0.156000000000000     
  0.156000000000000     
  0.156000000000000     
  0.156000000000000     
  0.156000000000000     
  0.156000000000000     
  0.156000000000000     
  0.156000000000000     
  0.156000000000000     
  0.156000000000000     
  0.156000000000000     
  0.156000000000000     
  0.156000000000000     
  0.156000000000000     
  0.156000000000000     
  0.156000000000000     
  0.156000000000000     
  0.156000000000000     
  0.156000000000000     
  0.156000000000000     
  0.156000000000000     
  0.156000000000000     
  0.156000000000000     
  0.156000000000000     
  0.156000000000000     
  0.156000000000000     
  0.156000000000000     
  0.156000000000000     
  0.156000000000000     
  0.156000000000000     
  0.156000000000000     
  0.156000000000000     
  0.156000000000000     
  0.156000000000000     
  0.156000000000000     
  0.156000000000000     
  0.156000000000000     
  0.156000000000000     
  0.156000000000000     
  0.156000000000000     
  0.156000000000000     
  0.156000000000000     
  0.156000000000000     
  0.156000000000000     
  0.156000000000000     
  0.156000000000000     
  0.156000000000000     
  0.156000000000000     
  0.156000000000000     
  0.156000000000000     
  0.156000000000000     
  0.156000000000000     
  0.156000000000000     
  0.156000000000000     
  0.156000000000000     
  0.156000000000000     
  0.156000000000000     
  0.156000000000000     
  0.156000000000000     
  0.156000000000000     
  0.156000000000000     
  0.156000000000000     
  0.156000000000000     
  0.156000000000000     
  0.156000000000000     
  0.156000000000000     
  0.156000000000000     
  0.156000000000000     
  0.156000000000000     
  0.156000000000000     
  0.156000000000000     
  0.156000000000000     
  0.156000000000000     
  0.156000000000000     
  0.156000000000000     
  0.156000000000000     
  0.156000000000000     
  0.156000000000000     
  0.156000000000000     
  0.156000000000000     
  0.156000000000000     
  0.156000000000000     
  0.156000000000000     
  0.156000000000000     
  0.156000000000000     
  0.156000000000000     
  0.156000000000000     
  0.156000000000000     
  0.156000000000000     
  0.156000000000000     
  0.156000000000000     
  0.156000000000000     
  0.156000000000000     
  0.156000000000000     
  0.156000000000000     
  0.156000000000000     
  0.156000000000000     
  0.156000000000000     
  0.156000000000000     
  0.156000000000000     
  0.156000000000000     
  0.156000000000000     
  0.156000000000000     
  0.156000000000000     
  0.156000000000000     
  0.156000000000000     
  0.156000000000000     
  0.156000000000000     
  0.156000000000000     
  0.156000000000000     
  0.156000000000000     
