# vtk DataFile Version 3.0
vtk output
ASCII
DATASET UNSTRUCTURED_GRID
POINTS       496 double 
  0.00000000E+00  3.00000000E+02  0.00000000E+00
  0.00000000E+00  2.80000000E+02  0.00000000E+00
  0.00000000E+00  2.60000000E+02  0.00000000E+00
  0.00000000E+00  2.40000000E+02  0.00000000E+00
  0.00000000E+00  2.20000000E+02  0.00000000E+00
  0.00000000E+00  2.00000000E+02  0.00000000E+00
  0.00000000E+00  1.80000000E+02  0.00000000E+00
  0.00000000E+00  1.60000000E+02  0.00000000E+00
  0.00000000E+00  1.40000000E+02  0.00000000E+00
  0.00000000E+00  1.20000000E+02  0.00000000E+00
  0.00000000E+00  1.00000000E+02  0.00000000E+00
  0.00000000E+00  8.00000000E+01  0.00000000E+00
  0.00000000E+00  6.00000000E+01  0.00000000E+00
  0.00000000E+00  4.00000000E+01  0.00000000E+00
  0.00000000E+00  2.00000000E+01  0.00000000E+00
  0.00000000E+00  4.99600361E-14  0.00000000E+00
  2.00000000E+01  3.00000000E+02  0.00000000E+00
  2.00000000E+01  2.80000000E+02  0.00000000E+00
  2.00000000E+01  2.60000000E+02  0.00000000E+00
  2.00000000E+01  2.40000000E+02  0.00000000E+00
  2.00000000E+01  2.20000000E+02  0.00000000E+00
  2.00000000E+01  2.00000000E+02  0.00000000E+00
  2.00000000E+01  1.80000000E+02  0.00000000E+00
  2.00000000E+01  1.60000000E+02  0.00000000E+00
  2.00000000E+01  1.40000000E+02  0.00000000E+00
  2.00000000E+01  1.20000000E+02  0.00000000E+00
  2.00000000E+01  1.00000000E+02  0.00000000E+00
  2.00000000E+01  8.00000000E+01  0.00000000E+00
  2.00000000E+01  6.00000000E+01  0.00000000E+00
  2.00000000E+01  4.00000000E+01  0.00000000E+00
  2.00000000E+01  2.00000000E+01  0.00000000E+00
  2.00000000E+01  4.99600361E-14  0.00000000E+00
  4.00000000E+01  3.00000000E+02  0.00000000E+00
  4.00000000E+01  2.80000000E+02  0.00000000E+00
  4.00000000E+01  2.60000000E+02  0.00000000E+00
  4.00000000E+01  2.40000000E+02  0.00000000E+00
  4.00000000E+01  2.20000000E+02  0.00000000E+00
  4.00000000E+01  2.00000000E+02  0.00000000E+00
  4.00000000E+01  1.80000000E+02  0.00000000E+00
  4.00000000E+01  1.60000000E+02  0.00000000E+00
  4.00000000E+01  1.40000000E+02  0.00000000E+00
  4.00000000E+01  1.20000000E+02  0.00000000E+00
  4.00000000E+01  1.00000000E+02  0.00000000E+00
  4.00000000E+01  8.00000000E+01  0.00000000E+00
  4.00000000E+01  6.00000000E+01  0.00000000E+00
  4.00000000E+01  4.00000000E+01  0.00000000E+00
  4.00000000E+01  2.00000000E+01  0.00000000E+00
  4.00000000E+01  4.99600361E-14  0.00000000E+00
  6.00000000E+01  3.00000000E+02  0.00000000E+00
  6.00000000E+01  2.80000000E+02  0.00000000E+00
  6.00000000E+01  2.60000000E+02  0.00000000E+00
  6.00000000E+01  2.40000000E+02  0.00000000E+00
  6.00000000E+01  2.20000000E+02  0.00000000E+00
  6.00000000E+01  2.00000000E+02  0.00000000E+00
  6.00000000E+01  1.80000000E+02  0.00000000E+00
  6.00000000E+01  1.60000000E+02  0.00000000E+00
  6.00000000E+01  1.40000000E+02  0.00000000E+00
  6.00000000E+01  1.20000000E+02  0.00000000E+00
  6.00000000E+01  1.00000000E+02  0.00000000E+00
  6.00000000E+01  8.00000000E+01  0.00000000E+00
  6.00000000E+01  6.00000000E+01  0.00000000E+00
  6.00000000E+01  4.00000000E+01  0.00000000E+00
  6.00000000E+01  2.00000000E+01  0.00000000E+00
  6.00000000E+01  4.99600361E-14  0.00000000E+00
  8.00000000E+01  3.00000000E+02  0.00000000E+00
  8.00000000E+01  2.80000000E+02  0.00000000E+00
  8.00000000E+01  2.60000000E+02  0.00000000E+00
  8.00000000E+01  2.40000000E+02  0.00000000E+00
  8.00000000E+01  2.20000000E+02  0.00000000E+00
  8.00000000E+01  2.00000000E+02  0.00000000E+00
  8.00000000E+01  1.80000000E+02  0.00000000E+00
  8.00000000E+01  1.60000000E+02  0.00000000E+00
  8.00000000E+01  1.40000000E+02  0.00000000E+00
  8.00000000E+01  1.20000000E+02  0.00000000E+00
  8.00000000E+01  1.00000000E+02  0.00000000E+00
  8.00000000E+01  8.00000000E+01  0.00000000E+00
  8.00000000E+01  6.00000000E+01  0.00000000E+00
  8.00000000E+01  4.00000000E+01  0.00000000E+00
  8.00000000E+01  2.00000000E+01  0.00000000E+00
  8.00000000E+01  4.99600361E-14  0.00000000E+00
  1.00000000E+02  3.00000000E+02  0.00000000E+00
  1.00000000E+02  2.80000000E+02  0.00000000E+00
  1.00000000E+02  2.60000000E+02  0.00000000E+00
  1.00000000E+02  2.40000000E+02  0.00000000E+00
  1.00000000E+02  2.20000000E+02  0.00000000E+00
  1.00000000E+02  2.00000000E+02  0.00000000E+00
  1.00000000E+02  1.80000000E+02  0.00000000E+00
  1.00000000E+02  1.60000000E+02  0.00000000E+00
  1.00000000E+02  1.40000000E+02  0.00000000E+00
  1.00000000E+02  1.20000000E+02  0.00000000E+00
  1.00000000E+02  1.00000000E+02  0.00000000E+00
  1.00000000E+02  8.00000000E+01  0.00000000E+00
  1.00000000E+02  6.00000000E+01  0.00000000E+00
  1.00000000E+02  4.00000000E+01  0.00000000E+00
  1.00000000E+02  2.00000000E+01  0.00000000E+00
  1.00000000E+02  4.99600361E-14  0.00000000E+00
  1.20000000E+02  3.00000000E+02  0.00000000E+00
  1.20000000E+02  2.80000000E+02  0.00000000E+00
  1.20000000E+02  2.60000000E+02  0.00000000E+00
  1.20000000E+02  2.40000000E+02  0.00000000E+00
  1.20000000E+02  2.20000000E+02  0.00000000E+00
  1.20000000E+02  2.00000000E+02  0.00000000E+00
  1.20000000E+02  1.80000000E+02  0.00000000E+00
  1.20000000E+02  1.60000000E+02  0.00000000E+00
  1.20000000E+02  1.40000000E+02  0.00000000E+00
  1.20000000E+02  1.20000000E+02  0.00000000E+00
  1.20000000E+02  1.00000000E+02  0.00000000E+00
  1.20000000E+02  8.00000000E+01  0.00000000E+00
  1.20000000E+02  6.00000000E+01  0.00000000E+00
  1.20000000E+02  4.00000000E+01  0.00000000E+00
  1.20000000E+02  2.00000000E+01  0.00000000E+00
  1.20000000E+02  4.99600361E-14  0.00000000E+00
  1.40000000E+02  3.00000000E+02  0.00000000E+00
  1.40000000E+02  2.80000000E+02  0.00000000E+00
  1.40000000E+02  2.60000000E+02  0.00000000E+00
  1.40000000E+02  2.40000000E+02  0.00000000E+00
  1.40000000E+02  2.20000000E+02  0.00000000E+00
  1.40000000E+02  2.00000000E+02  0.00000000E+00
  1.40000000E+02  1.80000000E+02  0.00000000E+00
  1.40000000E+02  1.60000000E+02  0.00000000E+00
  1.40000000E+02  1.40000000E+02  0.00000000E+00
  1.40000000E+02  1.20000000E+02  0.00000000E+00
  1.40000000E+02  1.00000000E+02  0.00000000E+00
  1.40000000E+02  8.00000000E+01  0.00000000E+00
  1.40000000E+02  6.00000000E+01  0.00000000E+00
  1.40000000E+02  4.00000000E+01  0.00000000E+00
  1.40000000E+02  2.00000000E+01  0.00000000E+00
  1.40000000E+02  4.99600361E-14  0.00000000E+00
  1.60000000E+02  3.00000000E+02  0.00000000E+00
  1.60000000E+02  2.80000000E+02  0.00000000E+00
  1.60000000E+02  2.60000000E+02  0.00000000E+00
  1.60000000E+02  2.40000000E+02  0.00000000E+00
  1.60000000E+02  2.20000000E+02  0.00000000E+00
  1.60000000E+02  2.00000000E+02  0.00000000E+00
  1.60000000E+02  1.80000000E+02  0.00000000E+00
  1.60000000E+02  1.60000000E+02  0.00000000E+00
  1.60000000E+02  1.40000000E+02  0.00000000E+00
  1.60000000E+02  1.20000000E+02  0.00000000E+00
  1.60000000E+02  1.00000000E+02  0.00000000E+00
  1.60000000E+02  8.00000000E+01  0.00000000E+00
  1.60000000E+02  6.00000000E+01  0.00000000E+00
  1.60000000E+02  4.00000000E+01  0.00000000E+00
  1.60000000E+02  2.00000000E+01  0.00000000E+00
  1.60000000E+02  4.99600361E-14  0.00000000E+00
  1.80000000E+02  3.00000000E+02  0.00000000E+00
  1.80000000E+02  2.80000000E+02  0.00000000E+00
  1.80000000E+02  2.60000000E+02  0.00000000E+00
  1.80000000E+02  2.40000000E+02  0.00000000E+00
  1.80000000E+02  2.20000000E+02  0.00000000E+00
  1.80000000E+02  2.00000000E+02  0.00000000E+00
  1.80000000E+02  1.80000000E+02  0.00000000E+00
  1.80000000E+02  1.60000000E+02  0.00000000E+00
  1.80000000E+02  1.40000000E+02  0.00000000E+00
  1.80000000E+02  1.20000000E+02  0.00000000E+00
  1.80000000E+02  1.00000000E+02  0.00000000E+00
  1.80000000E+02  8.00000000E+01  0.00000000E+00
  1.80000000E+02  6.00000000E+01  0.00000000E+00
  1.80000000E+02  4.00000000E+01  0.00000000E+00
  1.80000000E+02  2.00000000E+01  0.00000000E+00
  1.80000000E+02  4.99600361E-14  0.00000000E+00
  2.00000000E+02  3.00000000E+02  0.00000000E+00
  2.00000000E+02  2.80000000E+02  0.00000000E+00
  2.00000000E+02  2.60000000E+02  0.00000000E+00
  2.00000000E+02  2.40000000E+02  0.00000000E+00
  2.00000000E+02  2.20000000E+02  0.00000000E+00
  2.00000000E+02  2.00000000E+02  0.00000000E+00
  2.00000000E+02  1.80000000E+02  0.00000000E+00
  2.00000000E+02  1.60000000E+02  0.00000000E+00
  2.00000000E+02  1.40000000E+02  0.00000000E+00
  2.00000000E+02  1.20000000E+02  0.00000000E+00
  2.00000000E+02  1.00000000E+02  0.00000000E+00
  2.00000000E+02  8.00000000E+01  0.00000000E+00
  2.00000000E+02  6.00000000E+01  0.00000000E+00
  2.00000000E+02  4.00000000E+01  0.00000000E+00
  2.00000000E+02  2.00000000E+01  0.00000000E+00
  2.00000000E+02  4.99600361E-14  0.00000000E+00
  2.20000000E+02  3.00000000E+02  0.00000000E+00
  2.20000000E+02  2.80000000E+02  0.00000000E+00
  2.20000000E+02  2.60000000E+02  0.00000000E+00
  2.20000000E+02  2.40000000E+02  0.00000000E+00
  2.20000000E+02  2.20000000E+02  0.00000000E+00
  2.20000000E+02  2.00000000E+02  0.00000000E+00
  2.20000000E+02  1.80000000E+02  0.00000000E+00
  2.20000000E+02  1.60000000E+02  0.00000000E+00
  2.20000000E+02  1.40000000E+02  0.00000000E+00
  2.20000000E+02  1.20000000E+02  0.00000000E+00
  2.20000000E+02  1.00000000E+02  0.00000000E+00
  2.20000000E+02  8.00000000E+01  0.00000000E+00
  2.20000000E+02  6.00000000E+01  0.00000000E+00
  2.20000000E+02  4.00000000E+01  0.00000000E+00
  2.20000000E+02  2.00000000E+01  0.00000000E+00
  2.20000000E+02  4.99600361E-14  0.00000000E+00
  2.40000000E+02  3.00000000E+02  0.00000000E+00
  2.40000000E+02  2.80000000E+02  0.00000000E+00
  2.40000000E+02  2.60000000E+02  0.00000000E+00
  2.40000000E+02  2.40000000E+02  0.00000000E+00
  2.40000000E+02  2.20000000E+02  0.00000000E+00
  2.40000000E+02  2.00000000E+02  0.00000000E+00
  2.40000000E+02  1.80000000E+02  0.00000000E+00
  2.40000000E+02  1.60000000E+02  0.00000000E+00
  2.40000000E+02  1.40000000E+02  0.00000000E+00
  2.40000000E+02  1.20000000E+02  0.00000000E+00
  2.40000000E+02  1.00000000E+02  0.00000000E+00
  2.40000000E+02  8.00000000E+01  0.00000000E+00
  2.40000000E+02  6.00000000E+01  0.00000000E+00
  2.40000000E+02  4.00000000E+01  0.00000000E+00
  2.40000000E+02  2.00000000E+01  0.00000000E+00
  2.40000000E+02  4.99600361E-14  0.00000000E+00
  2.60000000E+02  3.00000000E+02  0.00000000E+00
  2.60000000E+02  2.80000000E+02  0.00000000E+00
  2.60000000E+02  2.60000000E+02  0.00000000E+00
  2.60000000E+02  2.40000000E+02  0.00000000E+00
  2.60000000E+02  2.20000000E+02  0.00000000E+00
  2.60000000E+02  2.00000000E+02  0.00000000E+00
  2.60000000E+02  1.80000000E+02  0.00000000E+00
  2.60000000E+02  1.60000000E+02  0.00000000E+00
  2.60000000E+02  1.40000000E+02  0.00000000E+00
  2.60000000E+02  1.20000000E+02  0.00000000E+00
  2.60000000E+02  1.00000000E+02  0.00000000E+00
  2.60000000E+02  8.00000000E+01  0.00000000E+00
  2.60000000E+02  6.00000000E+01  0.00000000E+00
  2.60000000E+02  4.00000000E+01  0.00000000E+00
  2.60000000E+02  2.00000000E+01  0.00000000E+00
  2.60000000E+02  4.99600361E-14  0.00000000E+00
  2.80000000E+02  3.00000000E+02  0.00000000E+00
  2.80000000E+02  2.80000000E+02  0.00000000E+00
  2.80000000E+02  2.60000000E+02  0.00000000E+00
  2.80000000E+02  2.40000000E+02  0.00000000E+00
  2.80000000E+02  2.20000000E+02  0.00000000E+00
  2.80000000E+02  2.00000000E+02  0.00000000E+00
  2.80000000E+02  1.80000000E+02  0.00000000E+00
  2.80000000E+02  1.60000000E+02  0.00000000E+00
  2.80000000E+02  1.40000000E+02  0.00000000E+00
  2.80000000E+02  1.20000000E+02  0.00000000E+00
  2.80000000E+02  1.00000000E+02  0.00000000E+00
  2.80000000E+02  8.00000000E+01  0.00000000E+00
  2.80000000E+02  6.00000000E+01  0.00000000E+00
  2.80000000E+02  4.00000000E+01  0.00000000E+00
  2.80000000E+02  2.00000000E+01  0.00000000E+00
  2.80000000E+02  4.99600361E-14  0.00000000E+00
  3.00000000E+02  3.00000000E+02  0.00000000E+00
  3.00000000E+02  2.80000000E+02  0.00000000E+00
  3.00000000E+02  2.60000000E+02  0.00000000E+00
  3.00000000E+02  2.40000000E+02  0.00000000E+00
  3.00000000E+02  2.20000000E+02  0.00000000E+00
  3.00000000E+02  2.00000000E+02  0.00000000E+00
  3.00000000E+02  1.80000000E+02  0.00000000E+00
  3.00000000E+02  1.60000000E+02  0.00000000E+00
  3.00000000E+02  1.40000000E+02  0.00000000E+00
  3.00000000E+02  1.20000000E+02  0.00000000E+00
  3.00000000E+02  1.00000000E+02  0.00000000E+00
  3.00000000E+02  8.00000000E+01  0.00000000E+00
  3.00000000E+02  6.00000000E+01  0.00000000E+00
  3.00000000E+02  4.00000000E+01  0.00000000E+00
  3.00000000E+02  2.00000000E+01  0.00000000E+00
  3.00000000E+02  4.99600361E-14  0.00000000E+00
  3.20000000E+02  3.00000000E+02  0.00000000E+00
  3.20000000E+02  2.80000000E+02  0.00000000E+00
  3.20000000E+02  2.60000000E+02  0.00000000E+00
  3.20000000E+02  2.40000000E+02  0.00000000E+00
  3.20000000E+02  2.20000000E+02  0.00000000E+00
  3.20000000E+02  2.00000000E+02  0.00000000E+00
  3.20000000E+02  1.80000000E+02  0.00000000E+00
  3.20000000E+02  1.60000000E+02  0.00000000E+00
  3.20000000E+02  1.40000000E+02  0.00000000E+00
  3.20000000E+02  1.20000000E+02  0.00000000E+00
  3.20000000E+02  1.00000000E+02  0.00000000E+00
  3.20000000E+02  8.00000000E+01  0.00000000E+00
  3.20000000E+02  6.00000000E+01  0.00000000E+00
  3.20000000E+02  4.00000000E+01  0.00000000E+00
  3.20000000E+02  2.00000000E+01  0.00000000E+00
  3.20000000E+02  4.99600361E-14  0.00000000E+00
  3.40000000E+02  3.00000000E+02  0.00000000E+00
  3.40000000E+02  2.80000000E+02  0.00000000E+00
  3.40000000E+02  2.60000000E+02  0.00000000E+00
  3.40000000E+02  2.40000000E+02  0.00000000E+00
  3.40000000E+02  2.20000000E+02  0.00000000E+00
  3.40000000E+02  2.00000000E+02  0.00000000E+00
  3.40000000E+02  1.80000000E+02  0.00000000E+00
  3.40000000E+02  1.60000000E+02  0.00000000E+00
  3.40000000E+02  1.40000000E+02  0.00000000E+00
  3.40000000E+02  1.20000000E+02  0.00000000E+00
  3.40000000E+02  1.00000000E+02  0.00000000E+00
  3.40000000E+02  8.00000000E+01  0.00000000E+00
  3.40000000E+02  6.00000000E+01  0.00000000E+00
  3.40000000E+02  4.00000000E+01  0.00000000E+00
  3.40000000E+02  2.00000000E+01  0.00000000E+00
  3.40000000E+02  4.99600361E-14  0.00000000E+00
  3.60000000E+02  3.00000000E+02  0.00000000E+00
  3.60000000E+02  2.80000000E+02  0.00000000E+00
  3.60000000E+02  2.60000000E+02  0.00000000E+00
  3.60000000E+02  2.40000000E+02  0.00000000E+00
  3.60000000E+02  2.20000000E+02  0.00000000E+00
  3.60000000E+02  2.00000000E+02  0.00000000E+00
  3.60000000E+02  1.80000000E+02  0.00000000E+00
  3.60000000E+02  1.60000000E+02  0.00000000E+00
  3.60000000E+02  1.40000000E+02  0.00000000E+00
  3.60000000E+02  1.20000000E+02  0.00000000E+00
  3.60000000E+02  1.00000000E+02  0.00000000E+00
  3.60000000E+02  8.00000000E+01  0.00000000E+00
  3.60000000E+02  6.00000000E+01  0.00000000E+00
  3.60000000E+02  4.00000000E+01  0.00000000E+00
  3.60000000E+02  2.00000000E+01  0.00000000E+00
  3.60000000E+02  4.99600361E-14  0.00000000E+00
  3.80000000E+02  3.00000000E+02  0.00000000E+00
  3.80000000E+02  2.80000000E+02  0.00000000E+00
  3.80000000E+02  2.60000000E+02  0.00000000E+00
  3.80000000E+02  2.40000000E+02  0.00000000E+00
  3.80000000E+02  2.20000000E+02  0.00000000E+00
  3.80000000E+02  2.00000000E+02  0.00000000E+00
  3.80000000E+02  1.80000000E+02  0.00000000E+00
  3.80000000E+02  1.60000000E+02  0.00000000E+00
  3.80000000E+02  1.40000000E+02  0.00000000E+00
  3.80000000E+02  1.20000000E+02  0.00000000E+00
  3.80000000E+02  1.00000000E+02  0.00000000E+00
  3.80000000E+02  8.00000000E+01  0.00000000E+00
  3.80000000E+02  6.00000000E+01  0.00000000E+00
  3.80000000E+02  4.00000000E+01  0.00000000E+00
  3.80000000E+02  2.00000000E+01  0.00000000E+00
  3.80000000E+02  4.99600361E-14  0.00000000E+00
  4.00000000E+02  3.00000000E+02  0.00000000E+00
  4.00000000E+02  2.80000000E+02  0.00000000E+00
  4.00000000E+02  2.60000000E+02  0.00000000E+00
  4.00000000E+02  2.40000000E+02  0.00000000E+00
  4.00000000E+02  2.20000000E+02  0.00000000E+00
  4.00000000E+02  2.00000000E+02  0.00000000E+00
  4.00000000E+02  1.80000000E+02  0.00000000E+00
  4.00000000E+02  1.60000000E+02  0.00000000E+00
  4.00000000E+02  1.40000000E+02  0.00000000E+00
  4.00000000E+02  1.20000000E+02  0.00000000E+00
  4.00000000E+02  1.00000000E+02  0.00000000E+00
  4.00000000E+02  8.00000000E+01  0.00000000E+00
  4.00000000E+02  6.00000000E+01  0.00000000E+00
  4.00000000E+02  4.00000000E+01  0.00000000E+00
  4.00000000E+02  2.00000000E+01  0.00000000E+00
  4.00000000E+02  4.99600361E-14  0.00000000E+00
  4.20000000E+02  3.00000000E+02  0.00000000E+00
  4.20000000E+02  2.80000000E+02  0.00000000E+00
  4.20000000E+02  2.60000000E+02  0.00000000E+00
  4.20000000E+02  2.40000000E+02  0.00000000E+00
  4.20000000E+02  2.20000000E+02  0.00000000E+00
  4.20000000E+02  2.00000000E+02  0.00000000E+00
  4.20000000E+02  1.80000000E+02  0.00000000E+00
  4.20000000E+02  1.60000000E+02  0.00000000E+00
  4.20000000E+02  1.40000000E+02  0.00000000E+00
  4.20000000E+02  1.20000000E+02  0.00000000E+00
  4.20000000E+02  1.00000000E+02  0.00000000E+00
  4.20000000E+02  8.00000000E+01  0.00000000E+00
  4.20000000E+02  6.00000000E+01  0.00000000E+00
  4.20000000E+02  4.00000000E+01  0.00000000E+00
  4.20000000E+02  2.00000000E+01  0.00000000E+00
  4.20000000E+02  4.99600361E-14  0.00000000E+00
  4.40000000E+02  3.00000000E+02  0.00000000E+00
  4.40000000E+02  2.80000000E+02  0.00000000E+00
  4.40000000E+02  2.60000000E+02  0.00000000E+00
  4.40000000E+02  2.40000000E+02  0.00000000E+00
  4.40000000E+02  2.20000000E+02  0.00000000E+00
  4.40000000E+02  2.00000000E+02  0.00000000E+00
  4.40000000E+02  1.80000000E+02  0.00000000E+00
  4.40000000E+02  1.60000000E+02  0.00000000E+00
  4.40000000E+02  1.40000000E+02  0.00000000E+00
  4.40000000E+02  1.20000000E+02  0.00000000E+00
  4.40000000E+02  1.00000000E+02  0.00000000E+00
  4.40000000E+02  8.00000000E+01  0.00000000E+00
  4.40000000E+02  6.00000000E+01  0.00000000E+00
  4.40000000E+02  4.00000000E+01  0.00000000E+00
  4.40000000E+02  2.00000000E+01  0.00000000E+00
  4.40000000E+02  4.99600361E-14  0.00000000E+00
  4.60000000E+02  3.00000000E+02  0.00000000E+00
  4.60000000E+02  2.80000000E+02  0.00000000E+00
  4.60000000E+02  2.60000000E+02  0.00000000E+00
  4.60000000E+02  2.40000000E+02  0.00000000E+00
  4.60000000E+02  2.20000000E+02  0.00000000E+00
  4.60000000E+02  2.00000000E+02  0.00000000E+00
  4.60000000E+02  1.80000000E+02  0.00000000E+00
  4.60000000E+02  1.60000000E+02  0.00000000E+00
  4.60000000E+02  1.40000000E+02  0.00000000E+00
  4.60000000E+02  1.20000000E+02  0.00000000E+00
  4.60000000E+02  1.00000000E+02  0.00000000E+00
  4.60000000E+02  8.00000000E+01  0.00000000E+00
  4.60000000E+02  6.00000000E+01  0.00000000E+00
  4.60000000E+02  4.00000000E+01  0.00000000E+00
  4.60000000E+02  2.00000000E+01  0.00000000E+00
  4.60000000E+02  4.99600361E-14  0.00000000E+00
  4.80000000E+02  3.00000000E+02  0.00000000E+00
  4.80000000E+02  2.80000000E+02  0.00000000E+00
  4.80000000E+02  2.60000000E+02  0.00000000E+00
  4.80000000E+02  2.40000000E+02  0.00000000E+00
  4.80000000E+02  2.20000000E+02  0.00000000E+00
  4.80000000E+02  2.00000000E+02  0.00000000E+00
  4.80000000E+02  1.80000000E+02  0.00000000E+00
  4.80000000E+02  1.60000000E+02  0.00000000E+00
  4.80000000E+02  1.40000000E+02  0.00000000E+00
  4.80000000E+02  1.20000000E+02  0.00000000E+00
  4.80000000E+02  1.00000000E+02  0.00000000E+00
  4.80000000E+02  8.00000000E+01  0.00000000E+00
  4.80000000E+02  6.00000000E+01  0.00000000E+00
  4.80000000E+02  4.00000000E+01  0.00000000E+00
  4.80000000E+02  2.00000000E+01  0.00000000E+00
  4.80000000E+02  4.99600361E-14  0.00000000E+00
  5.00000000E+02  3.00000000E+02  0.00000000E+00
  5.00000000E+02  2.80000000E+02  0.00000000E+00
  5.00000000E+02  2.60000000E+02  0.00000000E+00
  5.00000000E+02  2.40000000E+02  0.00000000E+00
  5.00000000E+02  2.20000000E+02  0.00000000E+00
  5.00000000E+02  2.00000000E+02  0.00000000E+00
  5.00000000E+02  1.80000000E+02  0.00000000E+00
  5.00000000E+02  1.60000000E+02  0.00000000E+00
  5.00000000E+02  1.40000000E+02  0.00000000E+00
  5.00000000E+02  1.20000000E+02  0.00000000E+00
  5.00000000E+02  1.00000000E+02  0.00000000E+00
  5.00000000E+02  8.00000000E+01  0.00000000E+00
  5.00000000E+02  6.00000000E+01  0.00000000E+00
  5.00000000E+02  4.00000000E+01  0.00000000E+00
  5.00000000E+02  2.00000000E+01  0.00000000E+00
  5.00000000E+02  4.99600361E-14  0.00000000E+00
  5.20000000E+02  3.00000000E+02  0.00000000E+00
  5.20000000E+02  2.80000000E+02  0.00000000E+00
  5.20000000E+02  2.60000000E+02  0.00000000E+00
  5.20000000E+02  2.40000000E+02  0.00000000E+00
  5.20000000E+02  2.20000000E+02  0.00000000E+00
  5.20000000E+02  2.00000000E+02  0.00000000E+00
  5.20000000E+02  1.80000000E+02  0.00000000E+00
  5.20000000E+02  1.60000000E+02  0.00000000E+00
  5.20000000E+02  1.40000000E+02  0.00000000E+00
  5.20000000E+02  1.20000000E+02  0.00000000E+00
  5.20000000E+02  1.00000000E+02  0.00000000E+00
  5.20000000E+02  8.00000000E+01  0.00000000E+00
  5.20000000E+02  6.00000000E+01  0.00000000E+00
  5.20000000E+02  4.00000000E+01  0.00000000E+00
  5.20000000E+02  2.00000000E+01  0.00000000E+00
  5.20000000E+02  4.99600361E-14  0.00000000E+00
  5.40000000E+02  3.00000000E+02  0.00000000E+00
  5.40000000E+02  2.80000000E+02  0.00000000E+00
  5.40000000E+02  2.60000000E+02  0.00000000E+00
  5.40000000E+02  2.40000000E+02  0.00000000E+00
  5.40000000E+02  2.20000000E+02  0.00000000E+00
  5.40000000E+02  2.00000000E+02  0.00000000E+00
  5.40000000E+02  1.80000000E+02  0.00000000E+00
  5.40000000E+02  1.60000000E+02  0.00000000E+00
  5.40000000E+02  1.40000000E+02  0.00000000E+00
  5.40000000E+02  1.20000000E+02  0.00000000E+00
  5.40000000E+02  1.00000000E+02  0.00000000E+00
  5.40000000E+02  8.00000000E+01  0.00000000E+00
  5.40000000E+02  6.00000000E+01  0.00000000E+00
  5.40000000E+02  4.00000000E+01  0.00000000E+00
  5.40000000E+02  2.00000000E+01  0.00000000E+00
  5.40000000E+02  4.99600361E-14  0.00000000E+00
  5.60000000E+02  3.00000000E+02  0.00000000E+00
  5.60000000E+02  2.80000000E+02  0.00000000E+00
  5.60000000E+02  2.60000000E+02  0.00000000E+00
  5.60000000E+02  2.40000000E+02  0.00000000E+00
  5.60000000E+02  2.20000000E+02  0.00000000E+00
  5.60000000E+02  2.00000000E+02  0.00000000E+00
  5.60000000E+02  1.80000000E+02  0.00000000E+00
  5.60000000E+02  1.60000000E+02  0.00000000E+00
  5.60000000E+02  1.40000000E+02  0.00000000E+00
  5.60000000E+02  1.20000000E+02  0.00000000E+00
  5.60000000E+02  1.00000000E+02  0.00000000E+00
  5.60000000E+02  8.00000000E+01  0.00000000E+00
  5.60000000E+02  6.00000000E+01  0.00000000E+00
  5.60000000E+02  4.00000000E+01  0.00000000E+00
  5.60000000E+02  2.00000000E+01  0.00000000E+00
  5.60000000E+02  4.99600361E-14  0.00000000E+00
  5.80000000E+02  3.00000000E+02  0.00000000E+00
  5.80000000E+02  2.80000000E+02  0.00000000E+00
  5.80000000E+02  2.60000000E+02  0.00000000E+00
  5.80000000E+02  2.40000000E+02  0.00000000E+00
  5.80000000E+02  2.20000000E+02  0.00000000E+00
  5.80000000E+02  2.00000000E+02  0.00000000E+00
  5.80000000E+02  1.80000000E+02  0.00000000E+00
  5.80000000E+02  1.60000000E+02  0.00000000E+00
  5.80000000E+02  1.40000000E+02  0.00000000E+00
  5.80000000E+02  1.20000000E+02  0.00000000E+00
  5.80000000E+02  1.00000000E+02  0.00000000E+00
  5.80000000E+02  8.00000000E+01  0.00000000E+00
  5.80000000E+02  6.00000000E+01  0.00000000E+00
  5.80000000E+02  4.00000000E+01  0.00000000E+00
  5.80000000E+02  2.00000000E+01  0.00000000E+00
  5.80000000E+02  4.99600361E-14  0.00000000E+00
  6.00000000E+02  3.00000000E+02  0.00000000E+00
  6.00000000E+02  2.80000000E+02  0.00000000E+00
  6.00000000E+02  2.60000000E+02  0.00000000E+00
  6.00000000E+02  2.40000000E+02  0.00000000E+00
  6.00000000E+02  2.20000000E+02  0.00000000E+00
  6.00000000E+02  2.00000000E+02  0.00000000E+00
  6.00000000E+02  1.80000000E+02  0.00000000E+00
  6.00000000E+02  1.60000000E+02  0.00000000E+00
  6.00000000E+02  1.40000000E+02  0.00000000E+00
  6.00000000E+02  1.20000000E+02  0.00000000E+00
  6.00000000E+02  1.00000000E+02  0.00000000E+00
  6.00000000E+02  8.00000000E+01  0.00000000E+00
  6.00000000E+02  6.00000000E+01  0.00000000E+00
  6.00000000E+02  4.00000000E+01  0.00000000E+00
  6.00000000E+02  2.00000000E+01  0.00000000E+00
  6.00000000E+02  4.99600361E-14  0.00000000E+00
CELLS       450      2250
         4           0           1          17          16
         4           1           2          18          17
         4           2           3          19          18
         4           3           4          20          19
         4           4           5          21          20
         4           5           6          22          21
         4           6           7          23          22
         4           7           8          24          23
         4           8           9          25          24
         4           9          10          26          25
         4          10          11          27          26
         4          11          12          28          27
         4          12          13          29          28
         4          13          14          30          29
         4          14          15          31          30
         4          16          17          33          32
         4          17          18          34          33
         4          18          19          35          34
         4          19          20          36          35
         4          20          21          37          36
         4          21          22          38          37
         4          22          23          39          38
         4          23          24          40          39
         4          24          25          41          40
         4          25          26          42          41
         4          26          27          43          42
         4          27          28          44          43
         4          28          29          45          44
         4          29          30          46          45
         4          30          31          47          46
         4          32          33          49          48
         4          33          34          50          49
         4          34          35          51          50
         4          35          36          52          51
         4          36          37          53          52
         4          37          38          54          53
         4          38          39          55          54
         4          39          40          56          55
         4          40          41          57          56
         4          41          42          58          57
         4          42          43          59          58
         4          43          44          60          59
         4          44          45          61          60
         4          45          46          62          61
         4          46          47          63          62
         4          48          49          65          64
         4          49          50          66          65
         4          50          51          67          66
         4          51          52          68          67
         4          52          53          69          68
         4          53          54          70          69
         4          54          55          71          70
         4          55          56          72          71
         4          56          57          73          72
         4          57          58          74          73
         4          58          59          75          74
         4          59          60          76          75
         4          60          61          77          76
         4          61          62          78          77
         4          62          63          79          78
         4          64          65          81          80
         4          65          66          82          81
         4          66          67          83          82
         4          67          68          84          83
         4          68          69          85          84
         4          69          70          86          85
         4          70          71          87          86
         4          71          72          88          87
         4          72          73          89          88
         4          73          74          90          89
         4          74          75          91          90
         4          75          76          92          91
         4          76          77          93          92
         4          77          78          94          93
         4          78          79          95          94
         4          80          81          97          96
         4          81          82          98          97
         4          82          83          99          98
         4          83          84         100          99
         4          84          85         101         100
         4          85          86         102         101
         4          86          87         103         102
         4          87          88         104         103
         4          88          89         105         104
         4          89          90         106         105
         4          90          91         107         106
         4          91          92         108         107
         4          92          93         109         108
         4          93          94         110         109
         4          94          95         111         110
         4          96          97         113         112
         4          97          98         114         113
         4          98          99         115         114
         4          99         100         116         115
         4         100         101         117         116
         4         101         102         118         117
         4         102         103         119         118
         4         103         104         120         119
         4         104         105         121         120
         4         105         106         122         121
         4         106         107         123         122
         4         107         108         124         123
         4         108         109         125         124
         4         109         110         126         125
         4         110         111         127         126
         4         112         113         129         128
         4         113         114         130         129
         4         114         115         131         130
         4         115         116         132         131
         4         116         117         133         132
         4         117         118         134         133
         4         118         119         135         134
         4         119         120         136         135
         4         120         121         137         136
         4         121         122         138         137
         4         122         123         139         138
         4         123         124         140         139
         4         124         125         141         140
         4         125         126         142         141
         4         126         127         143         142
         4         128         129         145         144
         4         129         130         146         145
         4         130         131         147         146
         4         131         132         148         147
         4         132         133         149         148
         4         133         134         150         149
         4         134         135         151         150
         4         135         136         152         151
         4         136         137         153         152
         4         137         138         154         153
         4         138         139         155         154
         4         139         140         156         155
         4         140         141         157         156
         4         141         142         158         157
         4         142         143         159         158
         4         144         145         161         160
         4         145         146         162         161
         4         146         147         163         162
         4         147         148         164         163
         4         148         149         165         164
         4         149         150         166         165
         4         150         151         167         166
         4         151         152         168         167
         4         152         153         169         168
         4         153         154         170         169
         4         154         155         171         170
         4         155         156         172         171
         4         156         157         173         172
         4         157         158         174         173
         4         158         159         175         174
         4         160         161         177         176
         4         161         162         178         177
         4         162         163         179         178
         4         163         164         180         179
         4         164         165         181         180
         4         165         166         182         181
         4         166         167         183         182
         4         167         168         184         183
         4         168         169         185         184
         4         169         170         186         185
         4         170         171         187         186
         4         171         172         188         187
         4         172         173         189         188
         4         173         174         190         189
         4         174         175         191         190
         4         176         177         193         192
         4         177         178         194         193
         4         178         179         195         194
         4         179         180         196         195
         4         180         181         197         196
         4         181         182         198         197
         4         182         183         199         198
         4         183         184         200         199
         4         184         185         201         200
         4         185         186         202         201
         4         186         187         203         202
         4         187         188         204         203
         4         188         189         205         204
         4         189         190         206         205
         4         190         191         207         206
         4         192         193         209         208
         4         193         194         210         209
         4         194         195         211         210
         4         195         196         212         211
         4         196         197         213         212
         4         197         198         214         213
         4         198         199         215         214
         4         199         200         216         215
         4         200         201         217         216
         4         201         202         218         217
         4         202         203         219         218
         4         203         204         220         219
         4         204         205         221         220
         4         205         206         222         221
         4         206         207         223         222
         4         208         209         225         224
         4         209         210         226         225
         4         210         211         227         226
         4         211         212         228         227
         4         212         213         229         228
         4         213         214         230         229
         4         214         215         231         230
         4         215         216         232         231
         4         216         217         233         232
         4         217         218         234         233
         4         218         219         235         234
         4         219         220         236         235
         4         220         221         237         236
         4         221         222         238         237
         4         222         223         239         238
         4         224         225         241         240
         4         225         226         242         241
         4         226         227         243         242
         4         227         228         244         243
         4         228         229         245         244
         4         229         230         246         245
         4         230         231         247         246
         4         231         232         248         247
         4         232         233         249         248
         4         233         234         250         249
         4         234         235         251         250
         4         235         236         252         251
         4         236         237         253         252
         4         237         238         254         253
         4         238         239         255         254
         4         240         241         257         256
         4         241         242         258         257
         4         242         243         259         258
         4         243         244         260         259
         4         244         245         261         260
         4         245         246         262         261
         4         246         247         263         262
         4         247         248         264         263
         4         248         249         265         264
         4         249         250         266         265
         4         250         251         267         266
         4         251         252         268         267
         4         252         253         269         268
         4         253         254         270         269
         4         254         255         271         270
         4         256         257         273         272
         4         257         258         274         273
         4         258         259         275         274
         4         259         260         276         275
         4         260         261         277         276
         4         261         262         278         277
         4         262         263         279         278
         4         263         264         280         279
         4         264         265         281         280
         4         265         266         282         281
         4         266         267         283         282
         4         267         268         284         283
         4         268         269         285         284
         4         269         270         286         285
         4         270         271         287         286
         4         272         273         289         288
         4         273         274         290         289
         4         274         275         291         290
         4         275         276         292         291
         4         276         277         293         292
         4         277         278         294         293
         4         278         279         295         294
         4         279         280         296         295
         4         280         281         297         296
         4         281         282         298         297
         4         282         283         299         298
         4         283         284         300         299
         4         284         285         301         300
         4         285         286         302         301
         4         286         287         303         302
         4         288         289         305         304
         4         289         290         306         305
         4         290         291         307         306
         4         291         292         308         307
         4         292         293         309         308
         4         293         294         310         309
         4         294         295         311         310
         4         295         296         312         311
         4         296         297         313         312
         4         297         298         314         313
         4         298         299         315         314
         4         299         300         316         315
         4         300         301         317         316
         4         301         302         318         317
         4         302         303         319         318
         4         304         305         321         320
         4         305         306         322         321
         4         306         307         323         322
         4         307         308         324         323
         4         308         309         325         324
         4         309         310         326         325
         4         310         311         327         326
         4         311         312         328         327
         4         312         313         329         328
         4         313         314         330         329
         4         314         315         331         330
         4         315         316         332         331
         4         316         317         333         332
         4         317         318         334         333
         4         318         319         335         334
         4         320         321         337         336
         4         321         322         338         337
         4         322         323         339         338
         4         323         324         340         339
         4         324         325         341         340
         4         325         326         342         341
         4         326         327         343         342
         4         327         328         344         343
         4         328         329         345         344
         4         329         330         346         345
         4         330         331         347         346
         4         331         332         348         347
         4         332         333         349         348
         4         333         334         350         349
         4         334         335         351         350
         4         336         337         353         352
         4         337         338         354         353
         4         338         339         355         354
         4         339         340         356         355
         4         340         341         357         356
         4         341         342         358         357
         4         342         343         359         358
         4         343         344         360         359
         4         344         345         361         360
         4         345         346         362         361
         4         346         347         363         362
         4         347         348         364         363
         4         348         349         365         364
         4         349         350         366         365
         4         350         351         367         366
         4         352         353         369         368
         4         353         354         370         369
         4         354         355         371         370
         4         355         356         372         371
         4         356         357         373         372
         4         357         358         374         373
         4         358         359         375         374
         4         359         360         376         375
         4         360         361         377         376
         4         361         362         378         377
         4         362         363         379         378
         4         363         364         380         379
         4         364         365         381         380
         4         365         366         382         381
         4         366         367         383         382
         4         368         369         385         384
         4         369         370         386         385
         4         370         371         387         386
         4         371         372         388         387
         4         372         373         389         388
         4         373         374         390         389
         4         374         375         391         390
         4         375         376         392         391
         4         376         377         393         392
         4         377         378         394         393
         4         378         379         395         394
         4         379         380         396         395
         4         380         381         397         396
         4         381         382         398         397
         4         382         383         399         398
         4         384         385         401         400
         4         385         386         402         401
         4         386         387         403         402
         4         387         388         404         403
         4         388         389         405         404
         4         389         390         406         405
         4         390         391         407         406
         4         391         392         408         407
         4         392         393         409         408
         4         393         394         410         409
         4         394         395         411         410
         4         395         396         412         411
         4         396         397         413         412
         4         397         398         414         413
         4         398         399         415         414
         4         400         401         417         416
         4         401         402         418         417
         4         402         403         419         418
         4         403         404         420         419
         4         404         405         421         420
         4         405         406         422         421
         4         406         407         423         422
         4         407         408         424         423
         4         408         409         425         424
         4         409         410         426         425
         4         410         411         427         426
         4         411         412         428         427
         4         412         413         429         428
         4         413         414         430         429
         4         414         415         431         430
         4         416         417         433         432
         4         417         418         434         433
         4         418         419         435         434
         4         419         420         436         435
         4         420         421         437         436
         4         421         422         438         437
         4         422         423         439         438
         4         423         424         440         439
         4         424         425         441         440
         4         425         426         442         441
         4         426         427         443         442
         4         427         428         444         443
         4         428         429         445         444
         4         429         430         446         445
         4         430         431         447         446
         4         432         433         449         448
         4         433         434         450         449
         4         434         435         451         450
         4         435         436         452         451
         4         436         437         453         452
         4         437         438         454         453
         4         438         439         455         454
         4         439         440         456         455
         4         440         441         457         456
         4         441         442         458         457
         4         442         443         459         458
         4         443         444         460         459
         4         444         445         461         460
         4         445         446         462         461
         4         446         447         463         462
         4         448         449         465         464
         4         449         450         466         465
         4         450         451         467         466
         4         451         452         468         467
         4         452         453         469         468
         4         453         454         470         469
         4         454         455         471         470
         4         455         456         472         471
         4         456         457         473         472
         4         457         458         474         473
         4         458         459         475         474
         4         459         460         476         475
         4         460         461         477         476
         4         461         462         478         477
         4         462         463         479         478
         4         464         465         481         480
         4         465         466         482         481
         4         466         467         483         482
         4         467         468         484         483
         4         468         469         485         484
         4         469         470         486         485
         4         470         471         487         486
         4         471         472         488         487
         4         472         473         489         488
         4         473         474         490         489
         4         474         475         491         490
         4         475         476         492         491
         4         476         477         493         492
         4         477         478         494         493
         4         478         479         495         494
CELL_TYPES        450
9
9
9
9
9
9
9
9
9
9
9
9
9
9
9
9
9
9
9
9
9
9
9
9
9
9
9
9
9
9
9
9
9
9
9
9
9
9
9
9
9
9
9
9
9
9
9
9
9
9
9
9
9
9
9
9
9
9
9
9
9
9
9
9
9
9
9
9
9
9
9
9
9
9
9
9
9
9
9
9
9
9
9
9
9
9
9
9
9
9
9
9
9
9
9
9
9
9
9
9
9
9
9
9
9
9
9
9
9
9
9
9
9
9
9
9
9
9
9
9
9
9
9
9
9
9
9
9
9
9
9
9
9
9
9
9
9
9
9
9
9
9
9
9
9
9
9
9
9
9
9
9
9
9
9
9
9
9
9
9
9
9
9
9
9
9
9
9
9
9
9
9
9
9
9
9
9
9
9
9
9
9
9
9
9
9
9
9
9
9
9
9
9
9
9
9
9
9
9
9
9
9
9
9
9
9
9
9
9
9
9
9
9
9
9
9
9
9
9
9
9
9
9
9
9
9
9
9
9
9
9
9
9
9
9
9
9
9
9
9
9
9
9
9
9
9
9
9
9
9
9
9
9
9
9
9
9
9
9
9
9
9
9
9
9
9
9
9
9
9
9
9
9
9
9
9
9
9
9
9
9
9
9
9
9
9
9
9
9
9
9
9
9
9
9
9
9
9
9
9
9
9
9
9
9
9
9
9
9
9
9
9
9
9
9
9
9
9
9
9
9
9
9
9
9
9
9
9
9
9
9
9
9
9
9
9
9
9
9
9
9
9
9
9
9
9
9
9
9
9
9
9
9
9
9
9
9
9
9
9
9
9
9
9
9
9
9
9
9
9
9
9
9
9
9
9
9
9
9
9
9
9
9
9
9
9
9
9
9
9
9
9
9
9
9
9
9
9
9
9
9
9
9
9
9
9
9
9
9
9
9
9
9
9
9
9
9
9
9
9
9
9
9
9
9
9
9
9
9
9
9
9
9
9
9
9
9
9
9
9
9
9
9
9
9
9
9
9
9
9
POINT_DATA       496
SCALARS p double 
LOOKUP_TABLE default
   56436026.6583250     
   56455415.8980397     
   56509177.3803006     
   56591112.4550270     
   56695056.1738365     
   56815018.4524686     
   56945275.5976365     
   57080421.9415194     
   57215390.2395023     
   57345448.2822674     
   57466177.8334656     
   57573440.4923999     
   57663333.3438938     
   57732135.2246986     
   57776242.0213391     
   57792086.5170997     
   56431685.1955272     
   56451270.4439768     
   56505532.4570311     
   56588170.3287972     
   56692938.0063495     
   56813782.5434996     
   56944932.5919872     
   57080947.0176272     
   57216732.4192318     
   57347537.1104977     
   57468927.7796820     
   57576753.5312040     
   57667100.2827098     
   57736236.4692077     
   57780548.6047838     
   57796462.3687383     
   56418672.9990027     
   56438845.4468617     
   56494605.6500437     
   56579345.3229439     
   56686575.1351192     
   56810054.0560630     
   56943868.5843728     
   57082472.1755810     
   57220694.0077855     
   57353724.9678591     
   57477087.3797868     
   57586593.4901183     
   57678296.0161109     
   57748432.0746118     
   57793359.4509622     
   57809481.3268638     
   56397021.2701478     
   56418169.4255621     
   56476414.7321627     
   56564634.6470540     
   56675934.5698955     
   56803761.7305724     
   56941968.4661011     
   57084835.8916560     
   57227067.6894044     
   57363762.4199176     
   57490371.3750807     
   57602647.4942754     
   57696589.1954533     
   57768381.0483253     
   57814330.9363675     
   57830800.5955139     
   56366763.5666087     
   56389270.7938324     
   56450968.4124973     
   56544010.0998041     
   56660934.5352976     
   56794756.3747018     
   56939006.1152220     
   57087730.7814896     
   57235465.9374547     
   57377188.1265466     
   57508255.4252534     
   57624342.3160944     
   57721373.4788018     
   57795459.2747422     
   57842833.5451868     
   57859791.7195633     
   56327906.2491682     
   56352147.3007655     
   56418233.0964604     
   56517380.8934283     
   56641402.4675627     
   56782763.4532962     
   56934591.2691851     
   57090644.6759072     
   57245256.4148615     
   57393258.8687020     
   57529901.2313111     
   57650765.2254648     
   57751684.8934114     
   57828674.3122915     
   57877865.1234399     
   57895453.3493213     
   56280383.2296678     
   56306719.3768444     
   56378082.5047955     
   56484537.8116997     
   56617012.4884976     
   56767313.0933616     
   56928091.6475357     
   57092774.7618849     
   57255468.3022374     
   57410848.4702488     
   57554048.6794139     
   57680550.2006851     
   57786083.1728150     
   57866543.1158672     
   57917926.4045705     
   57936286.0578871     
   56223990.8894399     
   56252763.2643156     
   56330226.0619388     
   56445074.6712565     
   56587198.4181858     
   56747643.6904255     
   56918526.6641378     
   57092911.2992545     
   57264666.2379085     
   57428312.4572295     
   57578871.9739398     
   57711726.5501357     
   57822494.1521871     
   57906929.7610930     
   57960855.8537115     
   57980126.2369694     
   56158297.4789320     
   56189818.2570084     
   56274110.4272000     
   56398281.5510344     
   56551036.9335683     
   56722573.9196479     
   56904427.7765926     
   57089286.2376034     
   57270787.4799436     
   57443314.3313716     
   57601795.8575108     
   57741526.1975903     
   57858009.5562237     
   57946839.5198515     
   58003620.1541687     
   58023935.3692235     
   56082519.4340388     
   56117060.5058066     
   56208786.6942084     
   56343002.4483254     
   56507093.7433384     
   56690336.3195475     
   56883659.0164788     
   57079380.7085289     
   57270936.7173318     
   57452608.3152075     
   57619267.1425925     
   57766145.1280636     
   57888639.8385879     
   57982165.0051891     
   58042056.0421260     
   58063540.3556893     
   55995354.7431004     
   56033133.5508187     
   56132733.5128603     
   56277447.8017374     
   56453223.5251332     
   56648363.6330048     
   56853189.4479209     
   57059683.7950309     
   57261131.6255097     
   57451772.3337247     
   57626475.9036651     
   57780453.7924736     
   57909015.1596668     
   58007379.6048649     
   58070558.7250385     
   58093320.1073707     
   55894760.6310105     
   55935922.8785999     
   56043623.5499185     
   56198949.5482408     
   56386311.7228857     
   56593016.6373923     
   56808807.1122566     
   57025393.1056428     
   57235990.7305725     
   57434883.8083173     
   57617019.8010093     
   57777650.6480867     
   57912029.1548478     
   58015173.1011128     
   58081711.8452621     
   58105833.3411171     
   55777659.2129708     
   55822258.1892088     
   55938017.1122744     
   56103642.8676745     
   56301942.9547128     
   56519239.1175184     
   56744761.3053959     
   56970045.4108215     
   57188353.3557061     
   57394129.5243905     
   57582504.1267519     
   57748852.4908648     
   57888419.8891660     
   57996024.2813140     
   58065853.9306078     
   58091382.5105203     
   55639550.1733469     
   55687522.4523512     
   55810962.1646504     
   55986054.2709771     
   56193976.5089818     
   56420121.7353377     
   56653316.6446114     
   56885062.8190065     
   57108819.3009355     
   57319339.3608847     
   57512069.2799873     
   57682614.8400623     
   57826282.3593301     
   57937705.5356231     
   58010576.5692466     
   58037509.1155100     
   55474003.6304778     
   55525140.9141782     
   55655474.0562555     
   55838569.8927564     
   56054003.9220946     
   56286351.5887839     
   56524198.1275709     
   56759196.5499102     
   56985193.3738972     
   57197432.0011569     
   57391836.4869312     
   57564375.3865448     
   57710507.1307825     
   57824714.9647928     
   57900150.2152979     
   57928416.3287615     
   55271998.7346378     
   55325915.5579216     
   55461860.5992542     
   55650750.3491994     
   55870656.5832336     
   56105517.9480448     
   56343901.0651732     
   56577846.1692733     
   56801816.8661983     
   57011758.8412330     
   57204261.6736526     
   57375813.4241965     
   57522140.2100738     
   57637632.4185271     
   57714874.6124973     
   57744315.9931255     
   55021063.6431532     
   55077160.5451799     
   55216848.1498597     
   55408448.8072904     
   55628722.2832799     
   55861236.7110513     
   56094833.1887120     
   56322227.0705858     
   56538764.4937976     
   56741330.1342468     
   56927386.4449637     
   57094118.2279493     
   57237660.0383088     
   57352397.1448897     
   57430352.3133851     
   57460698.5798059     
   54704159.5441947     
   54761581.0877097     
   54902451.2887398     
   55092676.3556696     
   55308018.1673164     
   55532046.2660814     
   55754248.2717149     
   55968352.9849685     
   56170881.1675269     
   56359904.9157867     
   56533974.0528991     
   56691159.4354586     
   56828168.4608703     
   56939506.2708752     
   57016685.5909228     
   57047526.5732032     
   54298234.2807515     
   54355820.9531983     
   54494511.6186137     
   54678142.6478987     
   54881953.2578676     
   55090015.5795532     
   55292921.3441214     
   55485793.4900054     
   55666628.2811659     
   55834923.3763227     
   55990516.8822438     
   56132552.4096194     
   56258493.4531995     
   56363134.9400353     
   56437598.9880309     
   56468353.7672629     
   53772348.3447032     
   53828580.9180987     
   53960808.8628386     
   54131379.3541789     
   54315696.4149913     
   54498991.7340024     
   54673505.5107392     
   54836159.2949792     
   54986704.1561255     
   55126256.9283838     
   55256099.9491585     
   55376610.8163657     
   55486201.7865709     
   55580180.1908105     
   55649491.4592543     
   55679374.7596317     
   53085245.3963026     
   53138179.8813287     
   53258618.3250754     
   53408328.6221633     
   53563845.7421141     
   53712399.9920520     
   53848500.8369067     
   53971261.4476324     
   54082398.1364662     
   54184746.8553889     
   54281101.3460645     
   54373176.2450302     
   54460518.8015014     
   54539230.8619905     
   54600422.9570313     
   54628409.9716446     
   52182197.8073377     
   52229389.0882977     
   52331551.0327255     
   52451248.5632864     
   52567474.9334049     
   52670497.6771411     
   52757759.5266806     
   52830886.2880165     
   52893632.8978692     
   52950496.1298482     
   53005703.6731788     
   53062308.6628447     
   53121148.3916041     
   53179463.8469249     
   53229039.6526106     
   53253831.1348301     
   50990900.0784731     
   51029313.6140073     
   51105464.6046395     
   51184754.5545502     
   51250415.9166772     
   51296979.9787239     
   51325453.9319781     
   51340128.8100283     
   51346644.8846854     
   51350868.4931646     
   51358176.6705847     
   51372808.0843635     
   51396976.2902326     
   51429461.2121948     
   51463438.9854384     
   51483429.8058312     
   49416101.2446898     
   49442017.1698313     
   49483172.7408629     
   49510785.1349809     
   49514636.9457182     
   49494853.3592817     
   49456453.6175555     
   49406236.9710847     
   49351247.5888806     
   49298129.5548261     
   49252863.6632245     
   49220510.0511973     
   49204618.5704834     
   49205930.5337446     
   49219970.0171616     
   49233227.3053041     
   47332547.2753413     
   47341475.4079365     
   47337611.0977371     
   47302271.8995231     
   47234616.0479659     
   47141552.2801058     
   47032107.5047373     
   46914942.2561975     
   46797613.5413426     
   46686628.3816101     
   46587750.7102626     
   46506242.4555378     
   46446735.2129647     
   46412288.0308070     
   46401957.0473886     
   46406220.9457343     
   44575617.8458493     
   44562280.3461104     
   44503051.0608205     
   44395350.2280196     
   44250742.9232849     
   44083411.5034539     
   43905520.0753745     
   43726287.0964536     
   43552491.8788498     
   43389352.1533546     
   43241399.5310650     
   43113222.9411699     
   43009947.7998641     
   42937021.3067654     
   42898329.0136963     
   42891067.7567399     
   40928727.3807216     
   40887270.3402164     
   40763949.9783093     
   40580192.8900528     
   40362105.9808533     
   40129857.6941854     
   39896544.2164294     
   39669994.2948543     
   39454737.2842208     
   39253582.5332399     
   39068855.9114351     
   38903477.9327080     
   38762019.2185810     
   38651697.1269028     
   38582106.4296373     
   38560762.4917095     
   36105954.2917655     
   36030872.6761514     
   35841324.4212224     
   35591291.2776011     
   35319684.3373635     
   35048036.9436477     
   34786835.9423822     
   34540413.7880917     
   34309949.2211414     
   34095246.4494256     
   33895923.2729882     
   33712469.3463696     
   33547587.0873413     
   33408224.3033337     
   33309036.3262430     
   33271204.8699862     
   29726890.9521303     
   29616514.1713558     
   29378028.4785695     
   29100011.0621225     
   28821932.4072190     
   28558870.7348496     
   28315257.6934605     
   28090946.9625182     
   27883898.2117905     
   27691440.2998137     
   27510988.9198149     
   27340701.1160461     
   27180529.0493889     
   27034479.7963465     
   26915715.1470437     
   26860345.8944850     
   21277041.7644944     
   21146134.6589413     
   20931985.9519909     
   20715431.1440230     
   20515329.1474991     
   20335097.6089151     
   20173411.7335422     
   20027502.7829153     
   19894258.0946426     
   19770604.8386583     
   19653658.1316144     
   19540862.2631071     
   19430351.5429253     
   19322041.4344805     
   19220893.7679316     
   19149446.4000803     
   10000000.0000000     
   10000000.0000000     
   10000000.0000000     
   10000000.0000000     
   10000000.0000000     
   10000000.0000000     
   10000000.0000000     
   10000000.0000000     
   10000000.0000000     
   10000000.0000000     
   10000000.0000000     
   10000000.0000000     
   10000000.0000000     
  10000000.00000000     
   10000000.0000000     
   10000000.0000000     
VECTORS u double 
    0.00000E+00        -0.32598E-02         0.00000E+00
    0.00000E+00        -0.28786E-02         0.00000E+00
    0.00000E+00        -0.25085E-02         0.00000E+00
    0.00000E+00        -0.21557E-02         0.00000E+00
    0.00000E+00        -0.18250E-02         0.00000E+00
    0.00000E+00        -0.15200E-02         0.00000E+00
    0.00000E+00        -0.12433E-02         0.00000E+00
    0.00000E+00        -0.99616E-03         0.00000E+00
    0.00000E+00        -0.77920E-03         0.00000E+00
    0.00000E+00        -0.59213E-03         0.00000E+00
    0.00000E+00        -0.43395E-03         0.00000E+00
    0.00000E+00        -0.30305E-03         0.00000E+00
    0.00000E+00        -0.19719E-03         0.00000E+00
    0.00000E+00        -0.11362E-03         0.00000E+00
    0.00000E+00        -0.49111E-04         0.00000E+00
    0.00000E+00         0.00000E+00         0.00000E+00
    0.44365E-03        -0.32670E-02         0.00000E+00
    0.42553E-03        -0.28852E-02         0.00000E+00
    0.40135E-03        -0.25145E-02         0.00000E+00
    0.37249E-03        -0.21611E-02         0.00000E+00
    0.34023E-03        -0.18300E-02         0.00000E+00
    0.30570E-03        -0.15246E-02         0.00000E+00
    0.26990E-03        -0.12474E-02         0.00000E+00
    0.23368E-03        -0.99987E-03         0.00000E+00
    0.19779E-03        -0.78247E-03         0.00000E+00
    0.16288E-03        -0.59495E-03         0.00000E+00
    0.12949E-03        -0.43630E-03         0.00000E+00
    0.98111E-04        -0.30492E-03         0.00000E+00
    0.69162E-04        -0.19858E-03         0.00000E+00
    0.42992E-04        -0.11454E-03         0.00000E+00
    0.19878E-04        -0.49566E-04         0.00000E+00
    0.00000E+00         0.00000E+00         0.00000E+00
    0.89034E-03        -0.32892E-02         0.00000E+00
    0.85347E-03        -0.29053E-02         0.00000E+00
    0.80456E-03        -0.25328E-02         0.00000E+00
    0.74640E-03        -0.21779E-02         0.00000E+00
    0.68154E-03        -0.18454E-02         0.00000E+00
    0.61222E-03        -0.15386E-02         0.00000E+00
    0.54043E-03        -0.12602E-02         0.00000E+00
    0.46786E-03        -0.10113E-02         0.00000E+00
    0.39599E-03        -0.79258E-03         0.00000E+00
    0.32609E-03        -0.60365E-03         0.00000E+00
    0.25925E-03        -0.44356E-03         0.00000E+00
    0.19643E-03        -0.31069E-03         0.00000E+00
    0.13846E-03        -0.20287E-03         0.00000E+00
    0.86056E-04        -0.11737E-03         0.00000E+00
    0.39775E-04        -0.50967E-04         0.00000E+00
    0.00000E+00         0.00000E+00         0.00000E+00
    0.13431E-02        -0.33271E-02         0.00000E+00
    0.12862E-02        -0.29399E-02         0.00000E+00
    0.12115E-02        -0.25645E-02         0.00000E+00
    0.11231E-02        -0.22070E-02         0.00000E+00
    0.10250E-02        -0.18721E-02         0.00000E+00
    0.92035E-03        -0.15632E-02         0.00000E+00
    0.81220E-03        -0.12825E-02         0.00000E+00
    0.70304E-03        -0.10314E-02         0.00000E+00
    0.59501E-03        -0.81034E-03         0.00000E+00
    0.48999E-03        -0.61896E-03         0.00000E+00
    0.38958E-03        -0.45632E-03         0.00000E+00
    0.29520E-03        -0.32086E-03         0.00000E+00
    0.20808E-03        -0.21042E-03         0.00000E+00
    0.12930E-03        -0.12234E-03         0.00000E+00
    0.59727E-04        -0.53420E-04         0.00000E+00
    0.00000E+00         0.00000E+00         0.00000E+00
    0.18049E-02        -0.33827E-02         0.00000E+00
    0.17260E-02        -0.29909E-02         0.00000E+00
    0.16238E-02        -0.26114E-02         0.00000E+00
    0.15040E-02        -0.22503E-02         0.00000E+00
    0.13715E-02        -0.19120E-02         0.00000E+00
    0.12308E-02        -0.15999E-02         0.00000E+00
    0.10858E-02        -0.13161E-02         0.00000E+00
    0.93973E-03        -0.10617E-02         0.00000E+00
    0.79532E-03        -0.83714E-03         0.00000E+00
    0.65501E-03        -0.64210E-03         0.00000E+00
    0.52087E-03        -0.47563E-03         0.00000E+00
    0.39474E-03        -0.33622E-03         0.00000E+00
    0.27826E-03        -0.22182E-03         0.00000E+00
    0.17288E-03        -0.12983E-03         0.00000E+00
    0.79811E-04        -0.57106E-04         0.00000E+00
    0.00000E+00         0.00000E+00         0.00000E+00
    0.22785E-02        -0.34583E-02         0.00000E+00
    0.21750E-02        -0.30606E-02         0.00000E+00
    0.20432E-02        -0.26759E-02         0.00000E+00
    0.18901E-02        -0.23102E-02         0.00000E+00
    0.17220E-02        -0.19676E-02         0.00000E+00
    0.15444E-02        -0.16513E-02         0.00000E+00
    0.13619E-02        -0.13632E-02         0.00000E+00
    0.11785E-02        -0.11043E-02         0.00000E+00
    0.99744E-03        -0.87495E-03         0.00000E+00
    0.82165E-03        -0.67479E-03         0.00000E+00
    0.65360E-03        -0.50293E-03         0.00000E+00
    0.49551E-03        -0.35796E-03         0.00000E+00
    0.34939E-03        -0.23793E-03         0.00000E+00
    0.21706E-03        -0.14038E-03         0.00000E+00
    0.10015E-03        -0.62281E-04         0.00000E+00
    0.00000E+00         0.00000E+00         0.00000E+00
    0.27666E-02        -0.35572E-02         0.00000E+00
    0.26352E-02        -0.31524E-02         0.00000E+00
    0.24710E-02        -0.27614E-02         0.00000E+00
    0.22826E-02        -0.23900E-02         0.00000E+00
    0.20774E-02        -0.20421E-02         0.00000E+00
    0.18617E-02        -0.17205E-02         0.00000E+00
    0.16410E-02        -0.14269E-02         0.00000E+00
    0.14199E-02        -0.11621E-02         0.00000E+00
    0.12020E-02        -0.92634E-03         0.00000E+00
    0.99054E-03        -0.71929E-03         0.00000E+00
    0.78841E-03        -0.54012E-03         0.00000E+00
    0.59810E-03        -0.38756E-03         0.00000E+00
    0.42197E-03        -0.25985E-03         0.00000E+00
    0.26223E-03        -0.15471E-03         0.00000E+00
    0.12096E-03        -0.69276E-04         0.00000E+00
    0.00000E+00         0.00000E+00         0.00000E+00
    0.32716E-02        -0.36833E-02         0.00000E+00
    0.31083E-02        -0.32702E-02         0.00000E+00
    0.29085E-02        -0.28720E-02         0.00000E+00
    0.26822E-02        -0.24939E-02         0.00000E+00
    0.24380E-02        -0.21396E-02         0.00000E+00
    0.21832E-02        -0.18115E-02         0.00000E+00
    0.19237E-02        -0.15109E-02         0.00000E+00
    0.16644E-02        -0.12385E-02         0.00000E+00
    0.14095E-02        -0.99447E-03         0.00000E+00
    0.11624E-02        -0.77838E-03         0.00000E+00
    0.92611E-03        -0.58955E-03         0.00000E+00
    0.70331E-03        -0.42690E-03         0.00000E+00
    0.49671E-03        -0.28895E-03         0.00000E+00
    0.30893E-03        -0.17370E-03         0.00000E+00
    0.14254E-03        -0.78508E-04         0.00000E+00
    0.00000E+00         0.00000E+00         0.00000E+00
    0.37955E-02        -0.38415E-02         0.00000E+00
    0.35955E-02        -0.34190E-02         0.00000E+00
    0.33564E-02        -0.30125E-02         0.00000E+00
    0.30895E-02        -0.26267E-02         0.00000E+00
    0.28044E-02        -0.22649E-02         0.00000E+00
    0.25092E-02        -0.19289E-02         0.00000E+00
    0.22103E-02        -0.16197E-02         0.00000E+00
    0.19128E-02        -0.13378E-02         0.00000E+00
    0.16210E-02        -0.10832E-02         0.00000E+00
    0.13383E-02        -0.85540E-03         0.00000E+00
    0.10677E-02        -0.65402E-03         0.00000E+00
    0.81217E-03        -0.47824E-03         0.00000E+00
    0.57456E-03        -0.32691E-03         0.00000E+00
    0.35789E-03        -0.19841E-03         0.00000E+00
    0.16530E-03        -0.90478E-04         0.00000E+00
    0.00000E+00         0.00000E+00         0.00000E+00
    0.43400E-02        -0.40375E-02         0.00000E+00
    0.40978E-02        -0.36046E-02         0.00000E+00
    0.38151E-02        -0.31888E-02         0.00000E+00
    0.35045E-02        -0.27943E-02         0.00000E+00
    0.31766E-02        -0.24237E-02         0.00000E+00
    0.28400E-02        -0.20783E-02         0.00000E+00
    0.25013E-02        -0.17587E-02         0.00000E+00
    0.21656E-02        -0.14649E-02         0.00000E+00
    0.18371E-02        -0.11968E-02         0.00000E+00
    0.15191E-02        -0.95425E-03         0.00000E+00
    0.12144E-02        -0.73684E-03         0.00000E+00
    0.92595E-03        -0.54419E-03         0.00000E+00
    0.65671E-03        -0.37564E-03         0.00000E+00
    0.41007E-03        -0.23008E-03         0.00000E+00
    0.18979E-03        -0.10577E-03         0.00000E+00
    0.00000E+00         0.00000E+00         0.00000E+00
    0.49061E-02        -0.42777E-02         0.00000E+00
    0.46154E-02        -0.38334E-02         0.00000E+00
    0.42843E-02        -0.34075E-02         0.00000E+00
    0.39269E-02        -0.30033E-02         0.00000E+00
    0.35543E-02        -0.26225E-02         0.00000E+00
    0.31753E-02        -0.22660E-02         0.00000E+00
    0.27967E-02        -0.19337E-02         0.00000E+00
    0.24233E-02        -0.16253E-02         0.00000E+00
    0.20589E-02        -0.13405E-02         0.00000E+00
    0.17062E-02        -0.10794E-02         0.00000E+00
    0.13677E-02        -0.84176E-03         0.00000E+00
    0.10462E-02        -0.62777E-03         0.00000E+00
    0.74464E-03        -0.43737E-03         0.00000E+00
    0.46666E-03        -0.27016E-03         0.00000E+00
    0.21673E-03        -0.12508E-03         0.00000E+00
    0.00000E+00         0.00000E+00         0.00000E+00
    0.54939E-02        -0.45698E-02         0.00000E+00
    0.51478E-02        -0.41133E-02         0.00000E+00
    0.47634E-02        -0.36762E-02         0.00000E+00
    0.43557E-02        -0.32611E-02         0.00000E+00
    0.39366E-02        -0.28688E-02         0.00000E+00
    0.35148E-02        -0.24991E-02         0.00000E+00
    0.30967E-02        -0.21515E-02         0.00000E+00
    0.26865E-02        -0.18252E-02         0.00000E+00
    0.22872E-02        -0.15200E-02         0.00000E+00
    0.19009E-02        -0.12358E-02         0.00000E+00
    0.15294E-02        -0.97298E-03         0.00000E+00
    0.11748E-02        -0.73235E-03         0.00000E+00
    0.84011E-03        -0.51461E-03         0.00000E+00
    0.52912E-03        -0.32026E-03         0.00000E+00
    0.24697E-03        -0.14915E-03         0.00000E+00
    0.00000E+00         0.00000E+00         0.00000E+00
    0.61030E-02        -0.49223E-02         0.00000E+00
    0.56936E-02        -0.44525E-02         0.00000E+00
    0.52504E-02        -0.40034E-02         0.00000E+00
    0.47892E-02        -0.35762E-02         0.00000E+00
    0.43220E-02        -0.31707E-02         0.00000E+00
    0.38574E-02        -0.27855E-02         0.00000E+00
    0.34007E-02        -0.24195E-02         0.00000E+00
    0.29554E-02        -0.20716E-02         0.00000E+00
    0.25230E-02        -0.17413E-02         0.00000E+00
    0.21047E-02        -0.14288E-02         0.00000E+00
    0.17012E-02        -0.11351E-02         0.00000E+00
    0.13138E-02        -0.86162E-03         0.00000E+00
    0.94520E-03        -0.61009E-03         0.00000E+00
    0.59918E-03        -0.38216E-03         0.00000E+00
    0.28156E-03        -0.17886E-03         0.00000E+00
    0.00000E+00         0.00000E+00         0.00000E+00
    0.67312E-02        -0.53445E-02         0.00000E+00
    0.62502E-02        -0.48606E-02         0.00000E+00
    0.57425E-02        -0.43984E-02         0.00000E+00
    0.52247E-02        -0.39578E-02         0.00000E+00
    0.47085E-02        -0.35370E-02         0.00000E+00
    0.42016E-02        -0.31336E-02         0.00000E+00
    0.37082E-02        -0.27457E-02         0.00000E+00
    0.32300E-02        -0.23717E-02         0.00000E+00
    0.27672E-02        -0.20111E-02         0.00000E+00
    0.23191E-02        -0.16643E-02         0.00000E+00
    0.18852E-02        -0.13330E-02         0.00000E+00
    0.14656E-02        -0.10195E-02         0.00000E+00
    0.10622E-02        -0.72680E-03         0.00000E+00
    0.67882E-03        -0.45783E-03         0.00000E+00
    0.32174E-03        -0.21513E-03         0.00000E+00
    0.00000E+00         0.00000E+00         0.00000E+00
    0.73751E-02        -0.58468E-02         0.00000E+00
    0.68135E-02        -0.53477E-02         0.00000E+00
    0.62356E-02        -0.48713E-02         0.00000E+00
    0.56584E-02        -0.44156E-02         0.00000E+00
    0.50928E-02        -0.39771E-02         0.00000E+00
    0.45451E-02        -0.35524E-02         0.00000E+00
    0.40177E-02        -0.31384E-02         0.00000E+00
    0.35101E-02        -0.27332E-02         0.00000E+00
    0.30203E-02        -0.23362E-02         0.00000E+00
    0.25456E-02        -0.19483E-02         0.00000E+00
    0.20835E-02        -0.15718E-02         0.00000E+00
    0.16326E-02        -0.12102E-02         0.00000E+00
    0.11937E-02        -0.86783E-03         0.00000E+00
    0.77024E-03        -0.54930E-03         0.00000E+00
    0.36887E-03        -0.25897E-03         0.00000E+00
    0.00000E+00         0.00000E+00         0.00000E+00
    0.80295E-02        -0.64404E-02         0.00000E+00
    0.73776E-02        -0.59249E-02         0.00000E+00
    0.67241E-02        -0.54329E-02         0.00000E+00
    0.60853E-02        -0.49600E-02         0.00000E+00
    0.54708E-02        -0.45010E-02         0.00000E+00
    0.48849E-02        -0.40509E-02         0.00000E+00
    0.43273E-02        -0.36059E-02         0.00000E+00
    0.37948E-02        -0.31636E-02         0.00000E+00
    0.32826E-02        -0.27234E-02         0.00000E+00
    0.27853E-02        -0.22867E-02         0.00000E+00
    0.22979E-02        -0.18566E-02         0.00000E+00
    0.18172E-02        -0.14379E-02         0.00000E+00
    0.13423E-02        -0.10364E-02         0.00000E+00
    0.87576E-03        -0.65872E-03         0.00000E+00
    0.42447E-03        -0.31143E-03         0.00000E+00
    0.00000E+00         0.00000E+00         0.00000E+00
    0.86867E-02        -0.71374E-02         0.00000E+00
    0.79348E-02        -0.66040E-02         0.00000E+00
    0.72003E-02        -0.60943E-02         0.00000E+00
    0.64985E-02        -0.56015E-02         0.00000E+00
    0.58369E-02        -0.51184E-02         0.00000E+00
    0.52165E-02        -0.46383E-02         0.00000E+00
    0.46340E-02        -0.41565E-02         0.00000E+00
    0.40825E-02        -0.36703E-02         0.00000E+00
    0.35536E-02        -0.31792E-02         0.00000E+00
    0.30388E-02        -0.26851E-02         0.00000E+00
    0.25301E-02        -0.21921E-02         0.00000E+00
    0.20215E-02        -0.17064E-02         0.00000E+00
    0.15103E-02        -0.12355E-02         0.00000E+00
    0.99772E-03        -0.78820E-03         0.00000E+00
    0.49011E-03        -0.37360E-03         0.00000E+00
    0.00000E+00         0.00000E+00         0.00000E+00
    0.93363E-02        -0.79504E-02         0.00000E+00
    0.84743E-02        -0.73968E-02         0.00000E+00
    0.76543E-02        -0.68668E-02         0.00000E+00
    0.68894E-02        -0.63507E-02         0.00000E+00
    0.61838E-02        -0.58387E-02         0.00000E+00
    0.55345E-02        -0.53229E-02         0.00000E+00
    0.49337E-02        -0.47975E-02         0.00000E+00
    0.43704E-02        -0.42596E-02         0.00000E+00
    0.38319E-02        -0.37090E-02         0.00000E+00
    0.33058E-02        -0.31483E-02         0.00000E+00
    0.27806E-02        -0.25826E-02         0.00000E+00
    0.22472E-02        -0.20193E-02         0.00000E+00
    0.17000E-02        -0.14680E-02         0.00000E+00
    0.11382E-02        -0.93976E-03         0.00000E+00
    0.56729E-03        -0.44653E-03         0.00000E+00
    0.00000E+00         0.00000E+00         0.00000E+00
    0.99644E-02        -0.88925E-02         0.00000E+00
    0.89827E-02        -0.83157E-02         0.00000E+00
    0.80736E-02        -0.77617E-02         0.00000E+00
    0.72471E-02        -0.72174E-02         0.00000E+00
    0.65025E-02        -0.66706E-02         0.00000E+00
    0.58315E-02        -0.61118E-02         0.00000E+00
    0.52210E-02        -0.55348E-02         0.00000E+00
    0.46545E-02        -0.49363E-02         0.00000E+00
    0.41147E-02        -0.43169E-02         0.00000E+00
    0.35847E-02        -0.36797E-02         0.00000E+00
    0.30489E-02        -0.30309E-02         0.00000E+00
    0.24945E-02        -0.23793E-02         0.00000E+00
    0.19123E-02        -0.17363E-02         0.00000E+00
    0.12988E-02        -0.11152E-02         0.00000E+00
    0.65732E-03        -0.53124E-03         0.00000E+00
    0.00000E+00         0.00000E+00         0.00000E+00
    0.10553E-01        -0.99770E-02         0.00000E+00
    0.94425E-02        -0.93725E-02         0.00000E+00
    0.84427E-02        -0.87892E-02         0.00000E+00
    0.75581E-02        -0.82102E-02         0.00000E+00
    0.67818E-02        -0.76208E-02         0.00000E+00
    0.60985E-02        -0.70101E-02         0.00000E+00
    0.54882E-02        -0.63717E-02         0.00000E+00
    0.49286E-02        -0.57028E-02         0.00000E+00
    0.43971E-02        -0.50044E-02         0.00000E+00
    0.38717E-02        -0.42806E-02         0.00000E+00
    0.33325E-02        -0.35385E-02         0.00000E+00
    0.27620E-02        -0.27879E-02         0.00000E+00
    0.21472E-02        -0.20418E-02         0.00000E+00
    0.14802E-02        -0.13159E-02         0.00000E+00
    0.76104E-03        -0.62864E-03         0.00000E+00
    0.00000E+00         0.00000E+00         0.00000E+00
    0.11079E-01        -0.11217E-01         0.00000E+00
    0.98320E-02        -0.10578E-01         0.00000E+00
    0.87421E-02        -0.99583E-02         0.00000E+00
    0.78061E-02        -0.93356E-02         0.00000E+00
    0.70080E-02        -0.86931E-02         0.00000E+00
    0.63238E-02        -0.80194E-02         0.00000E+00
    0.57256E-02        -0.73082E-02         0.00000E+00
    0.51843E-02        -0.65577E-02         0.00000E+00
    0.46715E-02        -0.57698E-02         0.00000E+00
    0.41602E-02        -0.49494E-02         0.00000E+00
    0.36256E-02        -0.41042E-02         0.00000E+00
    0.30456E-02        -0.32448E-02         0.00000E+00
    0.24018E-02        -0.23851E-02         0.00000E+00
    0.16811E-02        -0.15428E-02         0.00000E+00
    0.87848E-03        -0.73947E-03         0.00000E+00
    0.00000E+00         0.00000E+00         0.00000E+00
    0.11512E-01        -0.12624E-01         0.00000E+00
    0.10124E-01        -0.11942E-01         0.00000E+00
    0.89483E-02        -0.11275E-01         0.00000E+00
    0.79712E-02        -0.10596E-01         0.00000E+00
    0.71646E-02        -0.98873E-02         0.00000E+00
    0.64935E-02        -0.91365E-02         0.00000E+00
    0.59205E-02        -0.83390E-02         0.00000E+00
    0.54095E-02        -0.74947E-02         0.00000E+00
    0.49263E-02        -0.66067E-02         0.00000E+00
    0.44390E-02        -0.56804E-02         0.00000E+00
    0.39183E-02        -0.47237E-02         0.00000E+00
    0.33368E-02        -0.37472E-02         0.00000E+00
    0.26701E-02        -0.27650E-02         0.00000E+00
    0.18982E-02        -0.17959E-02         0.00000E+00
    0.10084E-02        -0.86428E-03         0.00000E+00
    0.00000E+00         0.00000E+00         0.00000E+00
    0.11816E-01        -0.14208E-01         0.00000E+00
    0.10285E-01        -0.13471E-01         0.00000E+00
    0.90329E-02        -0.12742E-01         0.00000E+00
    0.80302E-02        -0.11990E-01         0.00000E+00
    0.72321E-02        -0.11197E-01         0.00000E+00
    0.65900E-02        -0.10352E-01         0.00000E+00
    0.60564E-02        -0.94523E-02         0.00000E+00
    0.55877E-02        -0.85011E-02         0.00000E+00
    0.51448E-02        -0.75025E-02         0.00000E+00
    0.46916E-02        -0.64626E-02         0.00000E+00
    0.41947E-02        -0.53884E-02         0.00000E+00
    0.36215E-02        -0.42894E-02         0.00000E+00
    0.29409E-02        -0.31786E-02         0.00000E+00
    0.21240E-02        -0.20745E-02         0.00000E+00
    0.11476E-02        -0.10033E-02         0.00000E+00
    0.00000E+00         0.00000E+00         0.00000E+00
    0.11942E-01        -0.15976E-01         0.00000E+00
    0.10273E-01        -0.15166E-01         0.00000E+00
    0.89622E-02        -0.14355E-01         0.00000E+00
    0.79556E-02        -0.13508E-01         0.00000E+00
    0.71872E-02        -0.12606E-01         0.00000E+00
    0.65919E-02        -0.11646E-01         0.00000E+00
    0.61116E-02        -0.10627E-01         0.00000E+00
    0.56964E-02        -0.95557E-02         0.00000E+00
    0.53032E-02        -0.84377E-02         0.00000E+00
    0.48935E-02        -0.72788E-02         0.00000E+00
    0.44307E-02        -0.60846E-02         0.00000E+00
    0.38777E-02        -0.48618E-02         0.00000E+00
    0.31960E-02        -0.36202E-02         0.00000E+00
    0.23459E-02        -0.23764E-02         0.00000E+00
    0.12900E-02        -0.11566E-02         0.00000E+00
    0.00000E+00         0.00000E+00         0.00000E+00
    0.11830E-01        -0.17928E-01         0.00000E+00
    0.10038E-01        -0.17021E-01         0.00000E+00
    0.86966E-02        -0.16099E-01         0.00000E+00
    0.77160E-02        -0.15126E-01         0.00000E+00
    0.70024E-02        -0.14089E-01         0.00000E+00
    0.64724E-02        -0.12988E-01         0.00000E+00
    0.60579E-02        -0.11831E-01         0.00000E+00
    0.57047E-02        -0.10628E-01         0.00000E+00
    0.53684E-02        -0.93841E-02         0.00000E+00
    0.50099E-02        -0.81049E-02         0.00000E+00
    0.45914E-02        -0.67928E-02         0.00000E+00
    0.40726E-02        -0.54501E-02         0.00000E+00
    0.34075E-02        -0.40814E-02         0.00000E+00
    0.25438E-02        -0.26980E-02         0.00000E+00
    0.14253E-02        -0.13236E-02         0.00000E+00
    0.00000E+00         0.00000E+00         0.00000E+00
    0.11403E-01        -0.20053E-01         0.00000E+00
    0.95200E-02        -0.19016E-01         0.00000E+00
    0.81907E-02        -0.17945E-01         0.00000E+00
    0.72754E-02        -0.16808E-01         0.00000E+00
    0.66447E-02        -0.15599E-01         0.00000E+00
    0.61970E-02        -0.14332E-01         0.00000E+00
    0.58573E-02        -0.13021E-01         0.00000E+00
    0.55709E-02        -0.11676E-01         0.00000E+00
    0.52952E-02        -0.10305E-01         0.00000E+00
    0.49933E-02        -0.89087E-02         0.00000E+00
    0.46286E-02        -0.74867E-02         0.00000E+00
    0.41595E-02        -0.60349E-02         0.00000E+00
    0.35342E-02        -0.45498E-02         0.00000E+00
    0.26870E-02        -0.30339E-02         0.00000E+00
    0.15375E-02        -0.15035E-02         0.00000E+00
    0.00000E+00         0.00000E+00         0.00000E+00
    0.10563E-01        -0.22324E-01         0.00000E+00
    0.86461E-02        -0.21111E-01         0.00000E+00
    0.73939E-02        -0.19840E-01         0.00000E+00
    0.65924E-02        -0.18489E-01         0.00000E+00
    0.60726E-02        -0.17073E-01         0.00000E+00
    0.57193E-02        -0.15616E-01         0.00000E+00
    0.54579E-02        -0.14138E-01         0.00000E+00
    0.52381E-02        -0.12649E-01         0.00000E+00
    0.50229E-02        -0.11155E-01         0.00000E+00
    0.47803E-02        -0.96517E-02         0.00000E+00
    0.44774E-02        -0.81337E-02         0.00000E+00
    0.40746E-02        -0.65901E-02         0.00000E+00
    0.35178E-02        -0.50078E-02         0.00000E+00
    0.27296E-02        -0.33756E-02         0.00000E+00
    0.16014E-02        -0.16952E-02         0.00000E+00
    0.00000E+00         0.00000E+00         0.00000E+00
    0.91816E-02        -0.24678E-01         0.00000E+00
    0.73343E-02        -0.23227E-01         0.00000E+00
    0.62518E-02        -0.21689E-01         0.00000E+00
    0.56177E-02        -0.20071E-01         0.00000E+00
    0.52296E-02        -0.18416E-01         0.00000E+00
    0.49745E-02        -0.16757E-01         0.00000E+00
    0.47881E-02        -0.15113E-01         0.00000E+00
    0.46303E-02        -0.13490E-01         0.00000E+00
    0.44722E-02        -0.11884E-01         0.00000E+00
    0.42889E-02        -0.10290E-01         0.00000E+00
    0.40540E-02        -0.86958E-02         0.00000E+00
    0.37334E-02        -0.70833E-02         0.00000E+00
    0.32771E-02        -0.54303E-02         0.00000E+00
    0.26033E-02        -0.37088E-02         0.00000E+00
    0.15788E-02        -0.18964E-02         0.00000E+00
    0.00000E+00         0.00000E+00         0.00000E+00
    0.70941E-02        -0.26992E-01         0.00000E+00
    0.54999E-02        -0.25219E-01         0.00000E+00
    0.47071E-02        -0.23335E-01         0.00000E+00
    0.42830E-02        -0.21410E-01         0.00000E+00
    0.40320E-02        -0.19511E-01         0.00000E+00
    0.38691E-02        -0.17665E-01         0.00000E+00
    0.37495E-02        -0.15875E-01         0.00000E+00
    0.36465E-02        -0.14138E-01         0.00000E+00
    0.35411E-02        -0.12445E-01         0.00000E+00
    0.34165E-02        -0.10782E-01         0.00000E+00
    0.32543E-02        -0.91327E-02         0.00000E+00
    0.30297E-02        -0.74760E-02         0.00000E+00
    0.27040E-02        -0.57823E-02         0.00000E+00
    0.22087E-02        -0.40092E-02         0.00000E+00
    0.14024E-02        -0.20946E-02         0.00000E+00
    0.00000E+00         0.00000E+00         0.00000E+00
    0.40924E-02        -0.29013E-01         0.00000E+00
    0.30768E-02        -0.26807E-01         0.00000E+00
    0.26821E-02        -0.24524E-01         0.00000E+00
    0.24738E-02        -0.22323E-01         0.00000E+00
    0.23510E-02        -0.20233E-01         0.00000E+00
    0.22703E-02        -0.18249E-01         0.00000E+00
    0.22100E-02        -0.16359E-01         0.00000E+00
    0.21571E-02        -0.14546E-01         0.00000E+00
    0.21023E-02        -0.12796E-01         0.00000E+00
    0.20372E-02        -0.11090E-01         0.00000E+00
    0.19525E-02        -0.94088E-02         0.00000E+00
    0.18352E-02        -0.77294E-02         0.00000E+00
    0.16642E-02        -0.60196E-02         0.00000E+00
    0.14000E-02        -0.42314E-02         0.00000E+00
    0.95597E-03        -0.22791E-02         0.00000E+00
    0.00000E+00         0.00000E+00         0.00000E+00
    0.00000E+00        -0.30104E-01         0.00000E+00
    0.00000E+00        -0.27460E-01         0.00000E+00
    0.00000E+00        -0.24963E-01         0.00000E+00
    0.00000E+00        -0.22646E-01         0.00000E+00
    0.00000E+00        -0.20483E-01         0.00000E+00
    0.00000E+00        -0.18449E-01         0.00000E+00
    0.00000E+00        -0.16522E-01         0.00000E+00
    0.00000E+00        -0.14683E-01         0.00000E+00
    0.00000E+00        -0.12913E-01         0.00000E+00
    0.00000E+00        -0.11193E-01         0.00000E+00
    0.00000E+00        -0.95015E-02         0.00000E+00
    0.00000E+00        -0.78154E-02         0.00000E+00
    0.00000E+00        -0.61023E-02         0.00000E+00
    0.00000E+00        -0.43139E-02         0.00000E+00
    0.00000E+00        -0.23651E-02         0.00000E+00
    0.00000E+00         0.00000E+00         0.00000E+00
CELL_DATA        450
VECTORS vDarcy double 
    0.30312E-10         0.13920E-09         0.00000E+00
    0.27824E-10         0.38581E-09         0.00000E+00
    0.23526E-10         0.58778E-09         0.00000E+00
    0.18073E-10         0.74541E-09         0.00000E+00
    0.11979E-10         0.86004E-09         0.00000E+00
    0.56390E-11         0.93361E-09         0.00000E+00
   -0.65025E-12         0.96843E-09         0.00000E+00
   -0.66688E-11         0.96698E-09         0.00000E+00
   -0.12254E-10         0.93165E-09         0.00000E+00
   -0.17281E-10         0.86471E-09         0.00000E+00
   -0.21653E-10         0.76816E-09         0.00000E+00
   -0.25285E-10         0.64370E-09         0.00000E+00
   -0.28100E-10         0.49262E-09         0.00000E+00
   -0.30027E-10         0.31577E-09         0.00000E+00
   -0.31008E-10         0.11342E-09         0.00000E+00
    0.90851E-10         0.14200E-09         0.00000E+00
    0.83402E-10         0.39295E-09         0.00000E+00
    0.70544E-10         0.59779E-09         0.00000E+00
    0.54244E-10         0.75715E-09         0.00000E+00
    0.36041E-10         0.87260E-09         0.00000E+00
    0.17116E-10         0.94631E-09         0.00000E+00
   -0.16470E-11         0.98078E-09         0.00000E+00
   -0.19595E-10         0.97860E-09         0.00000E+00
   -0.36248E-10         0.94226E-09         0.00000E+00
   -0.51240E-10         0.87411E-09         0.00000E+00
   -0.64283E-10         0.77617E-09         0.00000E+00
   -0.75126E-10         0.65016E-09         0.00000E+00
   -0.83539E-10         0.49739E-09         0.00000E+00
   -0.89306E-10         0.31870E-09         0.00000E+00
   -0.92246E-10         0.11441E-09         0.00000E+00
    0.15118E-09         0.14758E-09         0.00000E+00
    0.13882E-09         0.40718E-09         0.00000E+00
    0.11751E-09         0.61773E-09         0.00000E+00
    0.90542E-10         0.78048E-09         0.00000E+00
    0.60476E-10         0.89754E-09         0.00000E+00
    0.29259E-10         0.97151E-09         0.00000E+00
   -0.16557E-11         0.10053E-08         0.00000E+00
   -0.31205E-10         0.10016E-08         0.00000E+00
   -0.58611E-10         0.96330E-09         0.00000E+00
   -0.83290E-10         0.89274E-09         0.00000E+00
   -0.10478E-09         0.79207E-09         0.00000E+00
   -0.12267E-09         0.66300E-09         0.00000E+00
   -0.13658E-09         0.50687E-09         0.00000E+00
   -0.14614E-09         0.32455E-09         0.00000E+00
   -0.15103E-09         0.11639E-09         0.00000E+00
    0.21128E-09         0.15592E-09         0.00000E+00
    0.19410E-09         0.42838E-09         0.00000E+00
    0.16454E-09         0.64738E-09         0.00000E+00
    0.12723E-09         0.81511E-09         0.00000E+00
    0.85735E-10         0.93447E-09         0.00000E+00
    0.42742E-10         0.10088E-08         0.00000E+00
    0.24093E-12         0.10414E-08         0.00000E+00
   -0.40332E-10         0.10356E-08         0.00000E+00
   -0.77942E-10         0.99434E-09         0.00000E+00
   -0.11182E-09         0.92026E-09         0.00000E+00
   -0.14135E-09         0.81557E-09         0.00000E+00
   -0.16599E-09         0.68203E-09         0.00000E+00
   -0.18522E-09         0.52098E-09         0.00000E+00
   -0.19850E-09         0.33329E-09         0.00000E+00
   -0.20533E-09         0.11938E-09         0.00000E+00
    0.27137E-09         0.16697E-09         0.00000E+00
    0.24951E-09         0.45639E-09         0.00000E+00
    0.21202E-09         0.68641E-09         0.00000E+00
    0.16487E-09         0.86054E-09         0.00000E+00
    0.11259E-09         0.98281E-09         0.00000E+00
    0.58600E-10         0.10574E-08         0.00000E+00
    0.53605E-11         0.10885E-08         0.00000E+00
   -0.45373E-10         0.10798E-08         0.00000E+00
   -0.92360E-10         0.10347E-08         0.00000E+00
   -0.13470E-09         0.95609E-09         0.00000E+00
   -0.17167E-09         0.84624E-09         0.00000E+00
   -0.20262E-09         0.70695E-09         0.00000E+00
   -0.22687E-09         0.53954E-09         0.00000E+00
   -0.24373E-09         0.34486E-09         0.00000E+00
   -0.25247E-09         0.12337E-09         0.00000E+00
    0.33199E-09         0.18064E-09         0.00000E+00
    0.30565E-09         0.49091E-09         0.00000E+00
    0.26070E-09         0.73432E-09         0.00000E+00
    0.20441E-09         0.91608E-09         0.00000E+00
    0.14229E-09         0.10417E-08         0.00000E+00
    0.78393E-10         0.11165E-08         0.00000E+00
    0.15605E-10         0.11455E-08         0.00000E+00
   -0.44078E-10         0.11332E-08         0.00000E+00
   -0.99290E-10         0.10835E-08         0.00000E+00
   -0.14906E-09         0.99942E-09         0.00000E+00
   -0.19261E-09         0.88343E-09         0.00000E+00
   -0.22922E-09         0.73731E-09         0.00000E+00
   -0.25809E-09         0.56230E-09         0.00000E+00
   -0.27831E-09         0.35918E-09         0.00000E+00
   -0.28889E-09         0.12838E-09         0.00000E+00
    0.39413E-09         0.19683E-09         0.00000E+00
    0.36363E-09         0.53155E-09         0.00000E+00
    0.31187E-09         0.79040E-09         0.00000E+00
    0.24742E-09         0.98073E-09         0.00000E+00
    0.17673E-09         0.11098E-08         0.00000E+00
    0.10441E-09         0.11845E-08         0.00000E+00
    0.33673E-10         0.12110E-08         0.00000E+00
   -0.33337E-10         0.11944E-08         0.00000E+00
   -0.95219E-10         0.11394E-08         0.00000E+00
   -0.15102E-09         0.10491E-08         0.00000E+00
   -0.19999E-09         0.92624E-09         0.00000E+00
   -0.24137E-09         0.77247E-09         0.00000E+00
   -0.27427E-09         0.58889E-09         0.00000E+00
   -0.29754E-09         0.37609E-09         0.00000E+00
   -0.30988E-09         0.13439E-09         0.00000E+00
    0.45946E-09         0.21535E-09         0.00000E+00
    0.42524E-09         0.57773E-09         0.00000E+00
    0.36755E-09         0.85367E-09         0.00000E+00
    0.29627E-09         0.10532E-08         0.00000E+00
    0.21869E-09         0.11857E-08         0.00000E+00
    0.13989E-09         0.12598E-08         0.00000E+00
    0.63299E-10         0.12830E-08         0.00000E+00
   -0.89148E-11         0.12616E-08         0.00000E+00
   -0.75438E-10         0.12006E-08         0.00000E+00
   -0.13545E-09         0.11037E-08         0.00000E+00
   -0.18829E-09         0.97348E-09         0.00000E+00
   -0.23326E-09         0.81158E-09         0.00000E+00
   -0.26936E-09         0.61878E-09         0.00000E+00
   -0.29525E-09         0.39536E-09         0.00000E+00
   -0.30917E-09         0.14137E-09         0.00000E+00
    0.53053E-09         0.23595E-09         0.00000E+00
    0.49318E-09         0.62867E-09         0.00000E+00
    0.43074E-09         0.92285E-09         0.00000E+00
    0.35437E-09         0.11316E-08         0.00000E+00
    0.27208E-09         0.12671E-08         0.00000E+00
    0.18931E-09         0.13399E-08         0.00000E+00
    0.10955E-09         0.13592E-08         0.00000E+00
    0.34843E-10         0.13323E-08         0.00000E+00
   -0.33725E-10         0.12650E-08         0.00000E+00
   -0.95587E-10         0.11612E-08         0.00000E+00
   -0.15032E-09         0.10236E-08         0.00000E+00
   -0.19731E-09         0.85345E-09         0.00000E+00
   -0.23554E-09         0.65123E-09         0.00000E+00
   -0.26342E-09         0.41666E-09         0.00000E+00
   -0.27870E-09         0.14927E-09         0.00000E+00
    0.61109E-09         0.25831E-09         0.00000E+00
    0.57139E-09         0.68335E-09         0.00000E+00
    0.50576E-09         0.99622E-09         0.00000E+00
    0.42653E-09         0.12138E-08         0.00000E+00
    0.34230E-09         0.13514E-08         0.00000E+00
    0.25872E-09         0.14219E-08         0.00000E+00
    0.17916E-09         0.14365E-08         0.00000E+00
    0.10536E-09         0.14035E-08         0.00000E+00
    0.38002E-10         0.13296E-08         0.00000E+00
   -0.22759E-10         0.12191E-08         0.00000E+00
   -0.76844E-10         0.10744E-08         0.00000E+00
   -0.12386E-09         0.89657E-09         0.00000E+00
   -0.16281E-09         0.68527E-09         0.00000E+00
   -0.19183E-09         0.43950E-09         0.00000E+00
   -0.20813E-09         0.15801E-09         0.00000E+00
    0.70651E-09         0.28196E-09         0.00000E+00
    0.66547E-09         0.74040E-09         0.00000E+00
    0.59862E-09         0.10716E-08         0.00000E+00
    0.51933E-09         0.12969E-08         0.00000E+00
    0.43664E-09         0.14352E-08         0.00000E+00
    0.35617E-09         0.15022E-08         0.00000E+00
    0.28097E-09         0.15110E-08         0.00000E+00
    0.21225E-09         0.14715E-08         0.00000E+00
    0.15010E-09         0.13911E-08         0.00000E+00
    0.94082E-10         0.12744E-08         0.00000E+00
    0.43780E-10         0.11235E-08         0.00000E+00
   -0.75298E-12         0.93900E-09         0.00000E+00
   -0.38595E-10         0.71961E-09         0.00000E+00
   -0.67660E-10         0.46324E-09         0.00000E+00
   -0.84514E-10         0.16742E-09         0.00000E+00
    0.82424E-09         0.30632E-09         0.00000E+00
    0.78316E-09         0.79812E-09         0.00000E+00
    0.71757E-09         0.11463E-08         0.00000E+00
    0.64170E-09         0.13774E-08         0.00000E+00
    0.56480E-09         0.15143E-08         0.00000E+00
    0.49221E-09         0.15761E-08         0.00000E+00
    0.42639E-09         0.15780E-08         0.00000E+00
    0.36778E-09         0.15317E-08         0.00000E+00
    0.31566E-09         0.14452E-08         0.00000E+00
    0.26880E-09         0.13232E-08         0.00000E+00
    0.22610E-09         0.11677E-08         0.00000E+00
    0.18715E-09         0.97829E-09         0.00000E+00
    0.15269E-09         0.75260E-09         0.00000E+00
    0.12501E-09         0.48698E-09         0.00000E+00
    0.10823E-09         0.17730E-09         0.00000E+00
    0.97454E-09         0.33064E-09         0.00000E+00
    0.93502E-09         0.85433E-09         0.00000E+00
    0.87375E-09         0.12169E-08         0.00000E+00
    0.80555E-09         0.14508E-08         0.00000E+00
    0.73957E-09         0.15837E-08         0.00000E+00
    0.68055E-09         0.16382E-08         0.00000E+00
    0.63006E-09         0.16322E-08         0.00000E+00
    0.58752E-09         0.15787E-08         0.00000E+00
    0.55111E-09         0.14866E-08         0.00000E+00
    0.51861E-09         0.13610E-08         0.00000E+00
    0.48807E-09         0.12031E-08         0.00000E+00
    0.45843E-09         0.10114E-08         0.00000E+00
    0.43015E-09         0.78214E-09         0.00000E+00
    0.40565E-09         0.50958E-09         0.00000E+00
    0.38977E-09         0.18733E-09         0.00000E+00
    0.11713E-08         0.35400E-09         0.00000E+00
    0.11353E-08         0.90638E-09         0.00000E+00
    0.10821E-08         0.12793E-08         0.00000E+00
    0.10266E-08         0.15120E-08         0.00000E+00
    0.97761E-09         0.16374E-08         0.00000E+00
    0.93883E-09         0.16822E-08         0.00000E+00
    0.91059E-09         0.16668E-08         0.00000E+00
    0.89096E-09         0.16061E-08         0.00000E+00
    0.87681E-09         0.15097E-08         0.00000E+00
    0.86469E-09         0.13825E-08         0.00000E+00
    0.85158E-09         0.12251E-08         0.00000E+00
    0.83565E-09         0.10349E-08         0.00000E+00
    0.81690E-09         0.80570E-09         0.00000E+00
    0.79779E-09         0.52958E-09         0.00000E+00
    0.78386E-09         0.19710E-09         0.00000E+00
    0.14331E-08         0.37522E-09         0.00000E+00
    0.14030E-08         0.95103E-09         0.00000E+00
    0.13623E-08         0.13285E-08         0.00000E+00
    0.13255E-08         0.15547E-08         0.00000E+00
    0.13006E-08         0.16685E-08         0.00000E+00
    0.12896E-08         0.17007E-08         0.00000E+00
    0.12915E-08         0.16746E-08         0.00000E+00
    0.13024E-08         0.16068E-08         0.00000E+00
    0.13179E-08         0.15076E-08         0.00000E+00
    0.13328E-08         0.13816E-08         0.00000E+00
    0.13431E-08         0.12287E-08         0.00000E+00
    0.13459E-08         0.10443E-08         0.00000E+00
    0.13406E-08         0.82021E-09         0.00000E+00
    0.13296E-08         0.54517E-09         0.00000E+00
    0.13189E-08         0.20605E-09         0.00000E+00
    0.17847E-08         0.39293E-09         0.00000E+00
    0.17635E-08         0.98442E-09         0.00000E+00
    0.17404E-08         0.13589E-08         0.00000E+00
    0.17293E-08         0.15720E-08         0.00000E+00
    0.17363E-08         0.16690E-08         0.00000E+00
    0.17618E-08         0.16854E-08         0.00000E+00
    0.18022E-08         0.16474E-08         0.00000E+00
    0.18521E-08         0.15730E-08         0.00000E+00
    0.19050E-08         0.14730E-08         0.00000E+00
    0.19543E-08         0.13518E-08         0.00000E+00
    0.19945E-08         0.12079E-08         0.00000E+00
    0.20216E-08         0.10350E-08         0.00000E+00
    0.20342E-08         0.82207E-09         0.00000E+00
    0.20344E-08         0.55414E-09         0.00000E+00
    0.20286E-08         0.21347E-09         0.00000E+00
    0.22590E-08         0.40544E-09         0.00000E+00
    0.22499E-08         0.10020E-08         0.00000E+00
    0.22505E-08         0.13636E-08         0.00000E+00
    0.22729E-08         0.15556E-08         0.00000E+00
    0.23207E-08         0.16303E-08         0.00000E+00
    0.23917E-08         0.16276E-08         0.00000E+00
    0.24798E-08         0.15765E-08         0.00000E+00
    0.25772E-08         0.14964E-08         0.00000E+00
    0.26755E-08         0.13982E-08         0.00000E+00
    0.27667E-08         0.12859E-08         0.00000E+00
    0.28435E-08         0.11566E-08         0.00000E+00
    0.29009E-08         0.10017E-08         0.00000E+00
    0.29363E-08         0.80720E-09         0.00000E+00
    0.29512E-08         0.55389E-09         0.00000E+00
    0.29521E-08         0.21846E-09         0.00000E+00
    0.28989E-08         0.41074E-09         0.00000E+00
    0.29059E-08         0.99837E-09         0.00000E+00
    0.29371E-08         0.13350E-08         0.00000E+00
    0.30017E-08         0.14967E-08         0.00000E+00
    0.30998E-08         0.15429E-08         0.00000E+00
    0.32256E-08         0.15179E-08         0.00000E+00
    0.33702E-08         0.14532E-08         0.00000E+00
    0.35235E-08         0.13688E-08         0.00000E+00
    0.36749E-08         0.12758E-08         0.00000E+00
    0.38148E-08         0.11770E-08         0.00000E+00
    0.39348E-08         0.10683E-08         0.00000E+00
    0.40284E-08         0.93882E-09         0.00000E+00
    0.40917E-08         0.77111E-09         0.00000E+00
    0.41252E-08         0.54140E-09         0.00000E+00
    0.41351E-08         0.21990E-09         0.00000E+00
    0.37610E-08         0.40648E-09         0.00000E+00
    0.37886E-08         0.96744E-09         0.00000E+00
    0.38581E-08         0.12648E-08         0.00000E+00
    0.39742E-08         0.13859E-08         0.00000E+00
    0.41321E-08         0.13973E-08         0.00000E+00
    0.43218E-08         0.13475E-08         0.00000E+00
    0.45310E-08         0.12694E-08         0.00000E+00
    0.47469E-08         0.11831E-08         0.00000E+00
    0.49576E-08         0.10991E-08         0.00000E+00
    0.51521E-08         0.10191E-08         0.00000E+00
    0.53208E-08         0.93734E-09         0.00000E+00
    0.54560E-08         0.84088E-09         0.00000E+00
    0.55523E-08         0.70908E-09         0.00000E+00
    0.56087E-08         0.51327E-09         0.00000E+00
    0.56300E-08         0.21647E-09         0.00000E+00
    0.49190E-08         0.38983E-09         0.00000E+00
    0.49725E-08         0.90219E-09         0.00000E+00
    0.50888E-08         0.11436E-08         0.00000E+00
    0.52659E-08         0.12133E-08         0.00000E+00
    0.54925E-08         0.11848E-08         0.00000E+00
    0.57536E-08         0.11089E-08         0.00000E+00
    0.60331E-08         0.10189E-08         0.00000E+00
    0.63161E-08         0.93421E-09         0.00000E+00
    0.65895E-08         0.86358E-09         0.00000E+00
    0.68418E-08         0.80751E-09         0.00000E+00
    0.70628E-08         0.75891E-09         0.00000E+00
    0.72437E-08         0.70302E-09         0.00000E+00
    0.73774E-08         0.61647E-09         0.00000E+00
    0.74607E-08         0.46586E-09         0.00000E+00
    0.74962E-08         0.20657E-09         0.00000E+00
    0.64693E-08         0.35750E-09         0.00000E+00
    0.65545E-08         0.79474E-09         0.00000E+00
    0.67265E-08         0.96180E-09         0.00000E+00
    0.69736E-08         0.97010E-09         0.00000E+00
    0.72762E-08         0.89808E-09         0.00000E+00
    0.76130E-08         0.79735E-09         0.00000E+00
    0.79644E-08         0.69926E-09         0.00000E+00
    0.83143E-08         0.62071E-09         0.00000E+00
    0.86493E-08         0.56833E-09         0.00000E+00
    0.89585E-08         0.54102E-09         0.00000E+00
    0.92319E-08         0.53073E-09         0.00000E+00
    0.94601E-08         0.52180E-09         0.00000E+00
    0.96345E-08         0.48912E-09         0.00000E+00
    0.97485E-08         0.39537E-09         0.00000E+00
    0.98010E-08         0.18838E-09         0.00000E+00
    0.85373E-08         0.30561E-09         0.00000E+00
    0.86608E-08         0.63653E-09         0.00000E+00
    0.88973E-08         0.71029E-09         0.00000E+00
    0.92217E-08         0.64923E-09         0.00000E+00
    0.96035E-08         0.53392E-09         0.00000E+00
    0.10015E-07         0.41309E-09         0.00000E+00
    0.10433E-07         0.31339E-09         0.00000E+00
    0.10842E-07         0.24721E-09         0.00000E+00
    0.11231E-07         0.21803E-09         0.00000E+00
    0.11590E-07         0.22313E-09         0.00000E+00
    0.11911E-07         0.25426E-09         0.00000E+00
    0.12184E-07         0.29627E-09         0.00000E+00
    0.12400E-07         0.32408E-09         0.00000E+00
    0.12547E-07         0.29820E-09         0.00000E+00
    0.12620E-07         0.15982E-09         0.00000E+00
    0.11287E-07         0.22961E-09         0.00000E+00
    0.11455E-07         0.41867E-09         0.00000E+00
    0.11764E-07         0.38152E-09         0.00000E+00
    0.12169E-07         0.24808E-09         0.00000E+00
    0.12626E-07         0.95572E-10         0.00000E+00
    0.13101E-07        -0.35422E-10         0.00000E+00
    0.13571E-07        -0.12684E-09         0.00000E+00
    0.14022E-07        -0.17299E-09         0.00000E+00
    0.14447E-07        -0.17449E-09         0.00000E+00
    0.14839E-07        -0.13546E-09         0.00000E+00
    0.15194E-07        -0.63246E-10         0.00000E+00
    0.15505E-07         0.29537E-10         0.00000E+00
    0.15759E-07         0.12061E-09         0.00000E+00
    0.15941E-07         0.17135E-09         0.00000E+00
    0.16035E-07         0.11864E-09         0.00000E+00
    0.14930E-07         0.12434E-09         0.00000E+00
    0.15151E-07         0.13306E-09         0.00000E+00
    0.15535E-07        -0.27569E-10         0.00000E+00
    0.16015E-07        -0.22765E-09         0.00000E+00
    0.16531E-07        -0.40263E-09         0.00000E+00
    0.17047E-07        -0.52750E-09         0.00000E+00
    0.17539E-07        -0.59722E-09         0.00000E+00
    0.18001E-07        -0.61484E-09         0.00000E+00
    0.18430E-07        -0.58554E-09         0.00000E+00
    0.18828E-07        -0.51433E-09         0.00000E+00
    0.19195E-07        -0.40628E-09         0.00000E+00
    0.19526E-07        -0.26904E-09         0.00000E+00
    0.19809E-07        -0.11823E-09         0.00000E+00
    0.20023E-07         0.13232E-10         0.00000E+00
    0.20141E-07         0.62515E-10         0.00000E+00
    0.19748E-07        -0.15729E-10         0.00000E+00
    0.20024E-07        -0.22505E-09         0.00000E+00
    0.20479E-07        -0.51021E-09         0.00000E+00
    0.21012E-07        -0.75713E-09         0.00000E+00
    0.21552E-07        -0.92883E-09         0.00000E+00
    0.22061E-07        -0.10250E-08         0.00000E+00
    0.22528E-07        -0.10573E-08         0.00000E+00
    0.22951E-07        -0.10385E-08         0.00000E+00
    0.23339E-07        -0.97790E-09         0.00000E+00
    0.23701E-07        -0.88055E-09         0.00000E+00
    0.24043E-07        -0.74805E-09         0.00000E+00
    0.24366E-07        -0.58073E-09         0.00000E+00
    0.24659E-07        -0.38306E-09         0.00000E+00
    0.24897E-07        -0.17489E-09         0.00000E+00
    0.25039E-07        -0.10693E-10         0.00000E+00
    0.26107E-07        -0.19537E-09         0.00000E+00
    0.26435E-07        -0.65088E-09         0.00000E+00
    0.26935E-07        -0.10392E-08         0.00000E+00
    0.27470E-07        -0.12933E-08         0.00000E+00
    0.27964E-07        -0.14248E-08         0.00000E+00
    0.28395E-07        -0.14664E-08         0.00000E+00
    0.28762E-07        -0.14471E-08         0.00000E+00
    0.29080E-07        -0.13875E-08         0.00000E+00
    0.29364E-07        -0.12992E-08         0.00000E+00
    0.29632E-07        -0.11865E-08         0.00000E+00
    0.29897E-07        -0.10470E-08         0.00000E+00
    0.30167E-07        -0.87291E-09         0.00000E+00
    0.30437E-07        -0.65362E-09         0.00000E+00
    0.30680E-07        -0.38623E-09         0.00000E+00
    0.30841E-07        -0.10203E-09         0.00000E+00
    0.34492E-07        -0.41529E-09         0.00000E+00
    0.34849E-07        -0.11150E-08         0.00000E+00
    0.35324E-07        -0.15460E-08         0.00000E+00
    0.35754E-07        -0.17454E-08         0.00000E+00
    0.36088E-07        -0.17961E-08         0.00000E+00
    0.36330E-07        -0.17628E-08         0.00000E+00
    0.36503E-07        -0.16861E-08         0.00000E+00
    0.36630E-07        -0.15891E-08         0.00000E+00
    0.36734E-07        -0.14827E-08         0.00000E+00
    0.36836E-07        -0.13693E-08         0.00000E+00
    0.36954E-07        -0.12438E-08         0.00000E+00
    0.37104E-07        -0.10924E-08         0.00000E+00
    0.37292E-07        -0.89036E-09         0.00000E+00
    0.37503E-07        -0.60188E-09         0.00000E+00
    0.37667E-07        -0.21103E-09         0.00000E+00
    0.45556E-07        -0.66040E-09         0.00000E+00
    0.45863E-07        -0.15244E-08         0.00000E+00
    0.46144E-07        -0.18809E-08         0.00000E+00
    0.46273E-07        -0.19582E-08         0.00000E+00
    0.46271E-07        -0.19051E-08         0.00000E+00
    0.46182E-07        -0.17988E-08         0.00000E+00
    0.46044E-07        -0.16775E-08         0.00000E+00
    0.45885E-07        -0.15592E-08         0.00000E+00
    0.45725E-07        -0.14511E-08         0.00000E+00
    0.45582E-07        -0.13536E-08         0.00000E+00
    0.45470E-07        -0.12609E-08         0.00000E+00
    0.45409E-07        -0.11587E-08         0.00000E+00
    0.45419E-07        -0.10175E-08         0.00000E+00
    0.45516E-07        -0.77702E-09         0.00000E+00
    0.45651E-07        -0.33229E-09         0.00000E+00
    0.60195E-07        -0.85839E-09         0.00000E+00
    0.60201E-07        -0.16108E-08         0.00000E+00
    0.59912E-07        -0.17605E-08         0.00000E+00
    0.59428E-07        -0.17025E-08         0.00000E+00
    0.58864E-07        -0.15786E-08         0.00000E+00
    0.58284E-07        -0.14434E-08         0.00000E+00
    0.57719E-07        -0.13186E-08         0.00000E+00
    0.57182E-07        -0.12121E-08         0.00000E+00
    0.56678E-07        -0.11261E-08         0.00000E+00
    0.56211E-07        -0.10595E-08         0.00000E+00
    0.55784E-07        -0.10086E-08         0.00000E+00
    0.55407E-07        -0.96448E-09         0.00000E+00
    0.55100E-07        -0.90640E-09         0.00000E+00
    0.54910E-07        -0.78374E-09         0.00000E+00
    0.54911E-07        -0.45202E-09         0.00000E+00
    0.79686E-07        -0.46521E-09         0.00000E+00
    0.78508E-07        -0.76150E-09         0.00000E+00
    0.77004E-07        -0.77033E-09         0.00000E+00
    0.75540E-07        -0.71198E-09         0.00000E+00
    0.74201E-07        -0.64139E-09         0.00000E+00
    0.72994E-07        -0.57548E-09         0.00000E+00
    0.71908E-07        -0.51938E-09         0.00000E+00
    0.70921E-07        -0.47435E-09         0.00000E+00
    0.70013E-07        -0.44024E-09         0.00000E+00
    0.69162E-07        -0.41640E-09         0.00000E+00
    0.68350E-07        -0.40165E-09         0.00000E+00
    0.67561E-07        -0.39356E-09         0.00000E+00
    0.66790E-07        -0.38576E-09         0.00000E+00
    0.66054E-07        -0.36031E-09         0.00000E+00
    0.65457E-07        -0.25458E-09         0.00000E+00
POINT_DATA        496
VECTORS vDarcyNodal double 
    0.31012E-10         0.13850E-09         0.00000E+00
    0.29612E-10         0.26126E-09         0.00000E+00
    0.26036E-10         0.48465E-09         0.00000E+00
    0.21016E-10         0.66387E-09         0.00000E+00
    0.15130E-10         0.79968E-09         0.00000E+00
    0.88280E-11         0.89365E-09         0.00000E+00
    0.24501E-11         0.94788E-09         0.00000E+00
   -0.37505E-11         0.96470E-09         0.00000E+00
   -0.95870E-11         0.94652E-09         0.00000E+00
   -0.14920E-10         0.89566E-09         0.00000E+00
   -0.19642E-10         0.81425E-09         0.00000E+00
   -0.23664E-10         0.70412E-09         0.00000E+00
   -0.26906E-10         0.56676E-09         0.00000E+00
   -0.29294E-10         0.40324E-09         0.00000E+00
   -0.30760E-10         0.21411E-09         0.00000E+00
   -0.31255E-10         0.11317E-09         0.00000E+00
    0.61980E-10         0.13990E-09         0.00000E+00
    0.59183E-10         0.26375E-09         0.00000E+00
    0.52044E-10         0.48894E-09         0.00000E+00
    0.42027E-10         0.66932E-09         0.00000E+00
    0.30290E-10         0.80577E-09         0.00000E+00
    0.17730E-10         0.89999E-09         0.00000E+00
    0.50251E-11         0.95416E-09         0.00000E+00
   -0.73223E-11         0.97071E-09         0.00000E+00
   -0.18942E-10         0.95210E-09         0.00000E+00
   -0.29559E-10         0.90069E-09         0.00000E+00
   -0.38962E-10         0.81862E-09         0.00000E+00
   -0.46974E-10         0.70775E-09         0.00000E+00
   -0.53437E-10         0.56957E-09         0.00000E+00
   -0.58202E-10         0.40516E-09         0.00000E+00
   -0.61132E-10         0.21509E-09         0.00000E+00
   -0.62122E-10         0.11367E-09         0.00000E+00
    0.12381E-09         0.14410E-09         0.00000E+00
    0.11822E-09         0.27120E-09         0.00000E+00
    0.10400E-09         0.50180E-09         0.00000E+00
    0.84058E-10         0.68562E-09         0.00000E+00
    0.60728E-10         0.82397E-09         0.00000E+00
    0.35789E-10         0.91892E-09         0.00000E+00
    0.10586E-10         0.97293E-09         0.00000E+00
   -0.13889E-10         0.98866E-09         0.00000E+00
   -0.36912E-10         0.96876E-09         0.00000E+00
   -0.57947E-10         0.91568E-09         0.00000E+00
   -0.76583E-10         0.83166E-09         0.00000E+00
   -0.92477E-10         0.71859E-09         0.00000E+00
   -0.10532E-09         0.57798E-09         0.00000E+00
   -0.11480E-09         0.41093E-09         0.00000E+00
   -0.12065E-09         0.21803E-09         0.00000E+00
   -0.12263E-09         0.11515E-09         0.00000E+00
    0.18540E-09         0.15107E-09         0.00000E+00
    0.17706E-09         0.28356E-09         0.00000E+00
    0.15585E-09         0.52311E-09         0.00000E+00
    0.12620E-09         0.71259E-09         0.00000E+00
    0.91575E-10         0.85404E-09         0.00000E+00
    0.54635E-10         0.95013E-09         0.00000E+00
    0.17366E-10         0.10038E-08         0.00000E+00
   -0.18781E-10         0.10182E-08         0.00000E+00
   -0.52757E-10         0.99616E-09         0.00000E+00
   -0.83796E-10         0.94036E-09         0.00000E+00
   -0.11131E-09         0.85315E-09         0.00000E+00
   -0.13481E-09         0.73648E-09         0.00000E+00
   -0.15384E-09         0.59189E-09         0.00000E+00
   -0.16795E-09         0.42049E-09         0.00000E+00
   -0.17669E-09         0.22292E-09         0.00000E+00
   -0.17967E-09         0.11764E-09         0.00000E+00
    0.24685E-09         0.16077E-09         0.00000E+00
    0.23580E-09         0.30074E-09         0.00000E+00
    0.20780E-09         0.55266E-09         0.00000E+00
    0.16877E-09         0.74990E-09         0.00000E+00
    0.12333E-09         0.89554E-09         0.00000E+00
    0.74995E-10         0.99312E-09         0.00000E+00
    0.26347E-10         0.10463E-08         0.00000E+00
   -0.20746E-10         0.10588E-08         0.00000E+00
   -0.64959E-10         0.10338E-08         0.00000E+00
   -0.10534E-09         0.97424E-09         0.00000E+00
   -0.14118E-09         0.88268E-09         0.00000E+00
   -0.17185E-09         0.76112E-09         0.00000E+00
   -0.19677E-09         0.61112E-09         0.00000E+00
   -0.21533E-09         0.43377E-09         0.00000E+00
   -0.22690E-09         0.22975E-09         0.00000E+00
   -0.23089E-09         0.12113E-09         0.00000E+00
    0.30852E-09         0.17316E-09         0.00000E+00
    0.29484E-09         0.32261E-09         0.00000E+00
    0.26032E-09         0.59014E-09         0.00000E+00
    0.21241E-09         0.79706E-09         0.00000E+00
    0.15687E-09         0.94781E-09         0.00000E+00
    0.98013E-10         0.10471E-08         0.00000E+00
    0.38980E-10         0.10996E-08         0.00000E+00
   -0.18014E-10         0.11095E-08         0.00000E+00
   -0.71436E-10         0.10808E-08         0.00000E+00
   -0.12021E-09         0.10166E-08         0.00000E+00
   -0.16354E-09         0.91965E-09         0.00000E+00
   -0.20074E-09         0.79206E-09         0.00000E+00
   -0.23110E-09         0.63537E-09         0.00000E+00
   -0.25386E-09         0.45063E-09         0.00000E+00
   -0.26818E-09         0.23849E-09         0.00000E+00
   -0.27318E-09         0.12562E-09         0.00000E+00
    0.37115E-09         0.18813E-09         0.00000E+00
    0.35496E-09         0.34894E-09         0.00000E+00
    0.31432E-09         0.63509E-09         0.00000E+00
    0.25824E-09         0.85335E-09         0.00000E+00
    0.19359E-09         0.10099E-08         0.00000E+00
    0.12543E-09         0.11110E-08         0.00000E+00
    0.57374E-10         0.11624E-08         0.00000E+00
   -0.80950E-11         0.11692E-08         0.00000E+00
   -0.69320E-10         0.11360E-08         0.00000E+00
   -0.12519E-09         0.10663E-08         0.00000E+00
   -0.17489E-09         0.96320E-09         0.00000E+00
   -0.21771E-09         0.82867E-09         0.00000E+00
   -0.25288E-09         0.66424E-09         0.00000E+00
   -0.27947E-09         0.47085E-09         0.00000E+00
   -0.29638E-09         0.24907E-09         0.00000E+00
   -0.30239E-09         0.13113E-09         0.00000E+00
    0.43605E-09         0.20553E-09         0.00000E+00
    0.41753E-09         0.37943E-09         0.00000E+00
    0.37135E-09         0.68686E-09         0.00000E+00
    0.30807E-09         0.91779E-09         0.00000E+00
    0.23563E-09         0.10806E-08         0.00000E+00
    0.15978E-09         0.11833E-08         0.00000E+00
    0.84514E-10         0.12331E-08         0.00000E+00
    0.12459E-10         0.12362E-08         0.00000E+00
   -0.54710E-10         0.11978E-08         0.00000E+00
   -0.11595E-09         0.11221E-08         0.00000E+00
   -0.17052E-09         0.10122E-08         0.00000E+00
   -0.21776E-09         0.87005E-09         0.00000E+00
   -0.25687E-09         0.69713E-09         0.00000E+00
   -0.28676E-09         0.49413E-09         0.00000E+00
   -0.30603E-09         0.26140E-09         0.00000E+00
   -0.31302E-09         0.13764E-09         0.00000E+00
    0.50529E-09         0.22517E-09         0.00000E+00
    0.48468E-09         0.41364E-09         0.00000E+00
    0.43373E-09         0.74455E-09         0.00000E+00
    0.36455E-09         0.98905E-09         0.00000E+00
    0.28609E-09         0.11582E-08         0.00000E+00
    0.20467E-09         0.12621E-08         0.00000E+00
    0.12453E-09         0.13097E-08         0.00000E+00
    0.48323E-10         0.13084E-08         0.00000E+00
   -0.22394E-10         0.12644E-08         0.00000E+00
   -0.86768E-10         0.11821E-08         0.00000E+00
   -0.14426E-09         0.10650E-08         0.00000E+00
   -0.19434E-09         0.91501E-09         0.00000E+00
   -0.23622E-09         0.73323E-09         0.00000E+00
   -0.26868E-09         0.52001E-09         0.00000E+00
   -0.28998E-09         0.27533E-09         0.00000E+00
   -0.29789E-09         0.14510E-09         0.00000E+00
    0.58199E-09         0.24674E-09         0.00000E+00
    0.55963E-09         0.45098E-09         0.00000E+00
    0.50494E-09         0.80697E-09         0.00000E+00
    0.43156E-09         0.10654E-08         0.00000E+00
    0.34934E-09         0.12405E-08         0.00000E+00
    0.26504E-09         0.13449E-08         0.00000E+00
    0.18299E-09         0.13894E-08         0.00000E+00
    0.10572E-09         0.13831E-08         0.00000E+00
    0.34484E-10         0.13329E-08         0.00000E+00
   -0.30206E-10         0.12440E-08         0.00000E+00
   -0.88139E-10         0.11197E-08         0.00000E+00
   -0.13902E-09         0.96199E-09         0.00000E+00
   -0.18215E-09         0.77145E-09         0.00000E+00
   -0.21620E-09         0.54788E-09         0.00000E+00
   -0.23905E-09         0.29061E-09         0.00000E+00
   -0.24778E-09         0.15345E-09         0.00000E+00
    0.67063E-09         0.26987E-09         0.00000E+00
    0.64697E-09         0.49067E-09         0.00000E+00
    0.58990E-09         0.87259E-09         0.00000E+00
    0.51449E-09         0.11446E-08         0.00000E+00
    0.43137E-09         0.13247E-08         0.00000E+00
    0.34757E-09         0.14284E-08         0.00000E+00
    0.26732E-09         0.14690E-08         0.00000E+00
    0.19281E-09         0.14569E-08         0.00000E+00
    0.12480E-09         0.14003E-08         0.00000E+00
    0.63298E-10         0.13047E-08         0.00000E+00
    0.80254E-11         0.11738E-08         0.00000E+00
   -0.41089E-10         0.10090E-08         0.00000E+00
   -0.83528E-10         0.81039E-09         0.00000E+00
   -0.11788E-09         0.57690E-09         0.00000E+00
   -0.14162E-09         0.30690E-09         0.00000E+00
   -0.15103E-09         0.16257E-09         0.00000E+00
    0.77756E-09         0.29404E-09         0.00000E+00
    0.75318E-09         0.53169E-09         0.00000E+00
    0.69545E-09         0.93942E-09         0.00000E+00
    0.62075E-09         0.12239E-08         0.00000E+00
    0.54029E-09         0.14074E-08         0.00000E+00
    0.46115E-09         0.15089E-08         0.00000E+00
    0.38723E-09         0.15442E-08         0.00000E+00
    0.32012E-09         0.15256E-08         0.00000E+00
    0.25991E-09         0.14624E-08         0.00000E+00
    0.20585E-09         0.13607E-08         0.00000E+00
    0.15703E-09         0.12241E-08         0.00000E+00
    0.11285E-09         0.10535E-08         0.00000E+00
    0.73547E-10         0.84822E-09         0.00000E+00
    0.40550E-10         0.60595E-09         0.00000E+00
    0.16800E-10         0.32375E-09         0.00000E+00
    0.69182E-11         0.17228E-09         0.00000E+00
    0.91155E-09         0.31859E-09         0.00000E+00
    0.88721E-09         0.57275E-09         0.00000E+00
    0.83097E-09         0.10050E-08         0.00000E+00
    0.76035E-09         0.12998E-08         0.00000E+00
    0.68691E-09         0.14843E-08         0.00000E+00
    0.61747E-09         0.15815E-08         0.00000E+00
    0.55530E-09         0.16100E-08         0.00000E+00
    0.50115E-09         0.15842E-08         0.00000E+00
    0.45415E-09         0.15145E-08         0.00000E+00
    0.41263E-09         0.14076E-08         0.00000E+00
    0.37479E-09         0.12668E-08         0.00000E+00
    0.33938E-09         0.10924E-08         0.00000E+00
    0.30620E-09         0.88266E-09         0.00000E+00
    0.27664E-09         0.63362E-09         0.00000E+00
    0.25402E-09         0.34052E-09         0.00000E+00
    0.24398E-09         0.18232E-09         0.00000E+00
    0.10846E-08         0.34269E-09         0.00000E+00
    0.10612E-08         0.61222E-09         0.00000E+00
    0.10091E-08         0.10662E-08         0.00000E+00
    0.94669E-09         0.13679E-08         0.00000E+00
    0.88548E-09         0.15502E-08         0.00000E+00
    0.83170E-09         0.16404E-08         0.00000E+00
    0.78768E-09         0.16604E-08         0.00000E+00
    0.75297E-09         0.16267E-08         0.00000E+00
    0.72551E-09         0.15509E-08         0.00000E+00
    0.70242E-09         0.14400E-08         0.00000E+00
    0.68088E-09         0.12973E-08         0.00000E+00
    0.65876E-09         0.11221E-08         0.00000E+00
    0.63532E-09         0.91092E-09         0.00000E+00
    0.61173E-09         0.65810E-09         0.00000E+00
    0.59170E-09         0.35639E-09         0.00000E+00
    0.58193E-09         0.19234E-09         0.00000E+00
    0.13128E-08         0.36530E-09         0.00000E+00
    0.12915E-08         0.64814E-09         0.00000E+00
    0.12468E-08         0.11194E-08         0.00000E+00
    0.11975E-08         0.14233E-08         0.00000E+00
    0.11547E-08         0.15992E-08         0.00000E+00
    0.11235E-08         0.16792E-08         0.00000E+00
    0.11050E-08         0.16886E-08         0.00000E+00
    0.10971E-08         0.16462E-08         0.00000E+00
    0.10963E-08         0.15650E-08         0.00000E+00
    0.10984E-08         0.14521E-08         0.00000E+00
    0.10992E-08         0.13103E-08         0.00000E+00
    0.10956E-08         0.11379E-08         0.00000E+00
    0.10860E-08         0.92964E-09         0.00000E+00
    0.10715E-08         0.67718E-09         0.00000E+00
    0.10559E-08         0.37029E-09         0.00000E+00
    0.10469E-08         0.20186E-09         0.00000E+00
    0.16178E-08         0.38515E-09         0.00000E+00
    0.16000E-08         0.67810E-09         0.00000E+00
    0.15665E-08         0.11601E-08         0.00000E+00
    0.15361E-08         0.14599E-08         0.00000E+00
    0.15188E-08         0.16241E-08         0.00000E+00
    0.15181E-08         0.16900E-08         0.00000E+00
    0.15333E-08         0.16867E-08         0.00000E+00
    0.15604E-08         0.16352E-08         0.00000E+00
    0.15942E-08         0.15495E-08         0.00000E+00
    0.16287E-08         0.14371E-08         0.00000E+00
    0.16585E-08         0.13000E-08         0.00000E+00
    0.16792E-08         0.11351E-08         0.00000E+00
    0.16884E-08         0.93489E-09         0.00000E+00
    0.16865E-08         0.68819E-09         0.00000E+00
    0.16775E-08         0.38093E-09         0.00000E+00
    0.16700E-08         0.21025E-09         0.00000E+00
    0.20281E-08         0.40071E-09         0.00000E+00
    0.20155E-08         0.69924E-09         0.00000E+00
    0.19978E-08         0.11831E-08         0.00000E+00
    0.19930E-08         0.14709E-08         0.00000E+00
    0.20092E-08         0.16169E-08         0.00000E+00
    0.20478E-08         0.16645E-08         0.00000E+00
    0.21056E-08         0.16461E-08         0.00000E+00
    0.21764E-08         0.15852E-08         0.00000E+00
    0.22529E-08         0.14965E-08         0.00000E+00
    0.23276E-08         0.13877E-08         0.00000E+00
    0.23934E-08         0.12597E-08         0.00000E+00
    0.24446E-08         0.11079E-08         0.00000E+00
    0.24779E-08         0.92221E-09         0.00000E+00
    0.24927E-08         0.68801E-09         0.00000E+00
    0.24928E-08         0.38669E-09         0.00000E+00
    0.24878E-08         0.21670E-09         0.00000E+00
    0.25816E-08         0.41016E-09         0.00000E+00
    0.25762E-08         0.70817E-09         0.00000E+00
    0.25796E-08         0.11824E-08         0.00000E+00
    0.26079E-08         0.14483E-08         0.00000E+00
    0.26666E-08         0.15689E-08         0.00000E+00
    0.27539E-08         0.15934E-08         0.00000E+00
    0.28634E-08         0.15579E-08         0.00000E+00
    0.29866E-08         0.14877E-08         0.00000E+00
    0.31140E-08         0.13981E-08         0.00000E+00
    0.32364E-08         0.12964E-08         0.00000E+00
    0.33451E-08         0.11827E-08         0.00000E+00
    0.34332E-08         0.10504E-08         0.00000E+00
    0.34960E-08         0.88670E-09         0.00000E+00
    0.35320E-08         0.67307E-09         0.00000E+00
    0.35444E-08         0.38566E-09         0.00000E+00
    0.35429E-08         0.22022E-09         0.00000E+00
    0.33278E-08         0.41132E-09         0.00000E+00
    0.33319E-08         0.70094E-09         0.00000E+00
    0.33626E-08         0.11510E-08         0.00000E+00
    0.34326E-08         0.13835E-08         0.00000E+00
    0.35433E-08         0.14707E-08         0.00000E+00
    0.36886E-08         0.14674E-08         0.00000E+00
    0.38588E-08         0.14131E-08         0.00000E+00
    0.40424E-08         0.13343E-08         0.00000E+00
    0.42280E-08         0.12465E-08         0.00000E+00
    0.44045E-08         0.11564E-08         0.00000E+00
    0.45624E-08         0.10626E-08         0.00000E+00
    0.46933E-08         0.95675E-09         0.00000E+00
    0.47911E-08         0.82323E-09         0.00000E+00
    0.48530E-08         0.63943E-09         0.00000E+00
    0.48809E-08         0.37564E-09         0.00000E+00
    0.48843E-08         0.21959E-09         0.00000E+00
    0.43317E-08         0.40162E-09         0.00000E+00
    0.43481E-08         0.67297E-09         0.00000E+00
    0.44130E-08         0.10812E-08         0.00000E+00
    0.45339E-08         0.12671E-08         0.00000E+00
    0.47062E-08         0.13125E-08         0.00000E+00
    0.49185E-08         0.12775E-08         0.00000E+00
    0.51569E-08         0.12038E-08         0.00000E+00
    0.54071E-08         0.11182E-08         0.00000E+00
    0.56559E-08         0.10357E-08         0.00000E+00
    0.58913E-08         0.96177E-09         0.00000E+00
    0.61027E-08         0.89378E-09         0.00000E+00
    0.62810E-08         0.82147E-09         0.00000E+00
    0.64187E-08         0.72673E-09         0.00000E+00
    0.65111E-08         0.58293E-09         0.00000E+00
    0.65583E-08         0.35411E-09         0.00000E+00
    0.65681E-08         0.21335E-09         0.00000E+00
    0.56780E-08         0.37803E-09         0.00000E+00
    0.57100E-08         0.61904E-09         0.00000E+00
    0.58170E-08         0.96453E-09         0.00000E+00
    0.59983E-08         0.10897E-08         0.00000E+00
    0.62412E-08         0.10856E-08         0.00000E+00
    0.65276E-08         0.10162E-08         0.00000E+00
    0.68390E-08         0.92411E-09         0.00000E+00
    0.71585E-08         0.83498E-09         0.00000E+00
    0.74719E-08         0.76211E-09         0.00000E+00
    0.77670E-08         0.70933E-09         0.00000E+00
    0.80333E-08         0.67265E-09         0.00000E+00
    0.82614E-08         0.64047E-09         0.00000E+00
    0.84424E-08         0.59276E-09         0.00000E+00
    0.85695E-08         0.49940E-09         0.00000E+00
    0.86397E-08         0.31833E-09         0.00000E+00
    0.86577E-08         0.19979E-09         0.00000E+00
    0.74773E-08         0.33697E-09         0.00000E+00
    0.75289E-08         0.53320E-09         0.00000E+00
    0.76865E-08         0.79201E-09         0.00000E+00
    0.79375E-08         0.84218E-09         0.00000E+00
    0.82580E-08         0.78263E-09         0.00000E+00
    0.86218E-08         0.67923E-09         0.00000E+00
    0.90059E-08         0.57251E-09         0.00000E+00
    0.93916E-08         0.48499E-09         0.00000E+00
    0.97650E-08         0.42694E-09         0.00000E+00
    0.10115E-07         0.40003E-09         0.00000E+00
    0.10433E-07         0.39910E-09         0.00000E+00
    0.10709E-07         0.41207E-09         0.00000E+00
    0.10935E-07         0.41816E-09         0.00000E+00
    0.11099E-07         0.38509E-09         0.00000E+00
    0.11196E-07         0.26543E-09         0.00000E+00
    0.11225E-07         0.17697E-09         0.00000E+00
    0.98739E-08         0.27425E-09         0.00000E+00
    0.99495E-08         0.40894E-09         0.00000E+00
    0.10167E-07         0.55481E-09         0.00000E+00
    0.10495E-07         0.51735E-09         0.00000E+00
    0.10896E-07         0.40054E-09         0.00000E+00
    0.11334E-07         0.26781E-09         0.00000E+00
    0.11782E-07         0.15400E-09         0.00000E+00
    0.12222E-07         0.75630E-10         0.00000E+00
    0.12643E-07         0.38330E-10         0.00000E+00
    0.13035E-07         0.41157E-10         0.00000E+00
    0.13394E-07         0.78302E-10         0.00000E+00
    0.13711E-07         0.13847E-09         0.00000E+00
    0.13978E-07         0.20219E-09         0.00000E+00
    0.14181E-07         0.23720E-09         0.00000E+00
    0.14307E-07         0.19260E-09         0.00000E+00
    0.14348E-07         0.14268E-09         0.00000E+00
    0.13056E-07         0.18498E-09         0.00000E+00
    0.13161E-07         0.23936E-09         0.00000E+00
    0.13445E-07         0.24540E-09         0.00000E+00
    0.13854E-07         0.11228E-09         0.00000E+00
    0.14330E-07        -0.56850E-10         0.00000E+00
    0.14828E-07        -0.20762E-09         0.00000E+00
    0.15320E-07        -0.31621E-09         0.00000E+00
    0.15791E-07        -0.37541E-09         0.00000E+00
    0.16233E-07        -0.38577E-09         0.00000E+00
    0.16644E-07        -0.35108E-09         0.00000E+00
    0.17023E-07        -0.27698E-09         0.00000E+00
    0.17366E-07        -0.17216E-09         0.00000E+00
    0.17664E-07        -0.52026E-10         0.00000E+00
    0.17903E-07         0.54779E-10         0.00000E+00
    0.18061E-07         0.97403E-10         0.00000E+00
    0.18116E-07         0.94610E-10         0.00000E+00
    0.17269E-07         0.63707E-10         0.00000E+00
    0.17409E-07         0.18067E-10         0.00000E+00
    0.17766E-07        -0.13986E-09         0.00000E+00
    0.18249E-07        -0.36743E-09         0.00000E+00
    0.18778E-07        -0.57336E-09         0.00000E+00
    0.19305E-07        -0.72245E-09         0.00000E+00
    0.19803E-07        -0.80845E-09         0.00000E+00
    0.20264E-07        -0.83659E-09         0.00000E+00
    0.20688E-07        -0.81455E-09         0.00000E+00
    0.21081E-07        -0.74874E-09         0.00000E+00
    0.21448E-07        -0.64358E-09         0.00000E+00
    0.21790E-07        -0.50312E-09         0.00000E+00
    0.22102E-07        -0.33522E-09         0.00000E+00
    0.22366E-07        -0.15976E-09         0.00000E+00
    0.22554E-07        -0.21647E-10         0.00000E+00
    0.22627E-07         0.30425E-10         0.00000E+00
    0.22838E-07        -0.95133E-10         0.00000E+00
    0.23017E-07        -0.25879E-09         0.00000E+00
    0.23443E-07        -0.59532E-09         0.00000E+00
    0.23972E-07        -0.89981E-09         0.00000E+00
    0.24509E-07        -0.11125E-08         0.00000E+00
    0.25007E-07        -0.12312E-08         0.00000E+00
    0.25449E-07        -0.12737E-08         0.00000E+00
    0.25840E-07        -0.12592E-08         0.00000E+00
    0.26191E-07        -0.12018E-08         0.00000E+00
    0.26513E-07        -0.11096E-08         0.00000E+00
    0.26820E-07        -0.98496E-09         0.00000E+00
    0.27120E-07        -0.82561E-09         0.00000E+00
    0.27412E-07        -0.62854E-09         0.00000E+00
    0.27683E-07        -0.39817E-09         0.00000E+00
    0.27894E-07        -0.16392E-09         0.00000E+00
    0.27985E-07        -0.51804E-10         0.00000E+00
    0.30189E-07        -0.29555E-09         0.00000E+00
    0.30410E-07        -0.58736E-09         0.00000E+00
    0.30875E-07        -0.10946E-08         0.00000E+00
    0.31384E-07        -0.14325E-08         0.00000E+00
    0.31839E-07        -0.16055E-08         0.00000E+00
    0.32213E-07        -0.16599E-08         0.00000E+00
    0.32512E-07        -0.16396E-08         0.00000E+00
    0.32753E-07        -0.15753E-08         0.00000E+00
    0.32957E-07        -0.14848E-08         0.00000E+00
    0.33142E-07        -0.13760E-08         0.00000E+00
    0.33326E-07        -0.12485E-08         0.00000E+00
    0.33525E-07        -0.10942E-08         0.00000E+00
    0.33746E-07        -0.89793E-09         0.00000E+00
    0.33983E-07        -0.64164E-09         0.00000E+00
    0.34199E-07        -0.32431E-09         0.00000E+00
    0.34309E-07        -0.15224E-09         0.00000E+00
    0.39901E-07        -0.53492E-09         0.00000E+00
    0.40149E-07        -0.94273E-09         0.00000E+00
    0.40564E-07        -0.15661E-08         0.00000E+00
    0.40904E-07        -0.18587E-08         0.00000E+00
    0.41122E-07        -0.19359E-08         0.00000E+00
    0.41236E-07        -0.18990E-08         0.00000E+00
    0.41276E-07        -0.18092E-08         0.00000E+00
    0.41271E-07        -0.16998E-08         0.00000E+00
    0.41244E-07        -0.15868E-08         0.00000E+00
    0.41215E-07        -0.14759E-08         0.00000E+00
    0.41202E-07        -0.13646E-08         0.00000E+00
    0.41222E-07        -0.12419E-08         0.00000E+00
    0.41291E-07        -0.10847E-08         0.00000E+00
    0.41421E-07        -0.85055E-09         0.00000E+00
    0.41598E-07        -0.48856E-09         0.00000E+00
    0.41720E-07        -0.26979E-09         0.00000E+00
    0.52776E-07        -0.78572E-09         0.00000E+00
    0.52982E-07        -0.12419E-08         0.00000E+00
    0.53082E-07        -0.18390E-08         0.00000E+00
    0.52973E-07        -0.19803E-08         0.00000E+00
    0.52727E-07        -0.19274E-08         0.00000E+00
    0.52408E-07        -0.18048E-08         0.00000E+00
    0.52058E-07        -0.16670E-08         0.00000E+00
    0.51705E-07        -0.15368E-08         0.00000E+00
    0.51362E-07        -0.14235E-08         0.00000E+00
    0.51041E-07        -0.13288E-08         0.00000E+00
    0.50751E-07        -0.12499E-08         0.00000E+00
    0.50503E-07        -0.11777E-08         0.00000E+00
    0.50313E-07        -0.10914E-08         0.00000E+00
    0.50207E-07        -0.94388E-09         0.00000E+00
    0.50219E-07        -0.62072E-09         0.00000E+00
    0.50341E-07        -0.39476E-09         0.00000E+00
    0.70137E-07        -0.93092E-09         0.00000E+00
    0.69762E-07        -0.12273E-08         0.00000E+00
    0.68942E-07        -0.15324E-08         0.00000E+00
    0.67971E-07        -0.14828E-08         0.00000E+00
    0.66995E-07        -0.13538E-08         0.00000E+00
    0.66069E-07        -0.12172E-08         0.00000E+00
    0.65209E-07        -0.10952E-08         0.00000E+00
    0.64417E-07        -0.99402E-09         0.00000E+00
    0.63685E-07        -0.91485E-09         0.00000E+00
    0.63005E-07        -0.85688E-09         0.00000E+00
    0.62368E-07        -0.81828E-09         0.00000E+00
    0.61766E-07        -0.79542E-09         0.00000E+00
    0.61202E-07        -0.77952E-09         0.00000E+00
    0.60689E-07        -0.74626E-09         0.00000E+00
    0.60276E-07        -0.61502E-09         0.00000E+00
    0.60085E-07        -0.50924E-09         0.00000E+00
    0.80151E-07         0.00000E+00         0.00000E+00
    0.79245E-07         0.00000E+00         0.00000E+00
    0.77760E-07        -0.21948E-21         0.00000E+00
    0.76243E-07         0.52970E-25         0.00000E+00
    0.74835E-07         0.21539E-21         0.00000E+00
    0.73565E-07         0.00000E+00         0.00000E+00
    0.72423E-07         0.00000E+00         0.00000E+00
    0.71392E-07        -0.20307E-21         0.00000E+00
    0.70450E-07        -0.19893E-21         0.00000E+00
    0.69575E-07         0.19896E-21         0.00000E+00
    0.68748E-07         0.19896E-21         0.00000E+00
    0.67951E-07        -0.19485E-21         0.00000E+00
    0.67171E-07        -0.41241E-23         0.00000E+00
    0.66409E-07         0.19073E-21         0.00000E+00
    0.65703E-07         0.82939E-23         0.00000E+00
    0.65202E-07         0.00000E+00         0.00000E+00
CELL_DATA        450
TENSORS stressef double 
    0.44097E+07         0.10430E+05         0.00000E+00
    0.10430E+05        -0.35473E+07         0.00000E+00
    0.00000E+00         0.00000E+00         0.17249E+06
 
    0.41709E+07         0.28300E+05         0.00000E+00
    0.28300E+05        -0.34716E+07         0.00000E+00
    0.00000E+00         0.00000E+00         0.13986E+06
 
    0.38824E+07         0.42397E+05         0.00000E+00
    0.42397E+05        -0.33326E+07         0.00000E+00
    0.00000E+00         0.00000E+00         0.10995E+06
 
    0.35572E+07         0.53097E+05         0.00000E+00
    0.53097E+05        -0.31438E+07         0.00000E+00
    0.00000E+00         0.00000E+00         0.82682E+05
 
    0.32068E+07         0.60833E+05         0.00000E+00
    0.60833E+05        -0.29175E+07         0.00000E+00
    0.00000E+00         0.00000E+00         0.57851E+05
 
    0.28413E+07         0.66042E+05         0.00000E+00
    0.66042E+05        -0.26652E+07         0.00000E+00
    0.00000E+00         0.00000E+00         0.35214E+05
 
    0.24694E+07         0.69126E+05         0.00000E+00
    0.69126E+05        -0.23971E+07         0.00000E+00
    0.00000E+00         0.00000E+00         0.14476E+05
 
    0.20988E+07         0.70434E+05         0.00000E+00
    0.70434E+05        -0.21222E+07         0.00000E+00
    0.00000E+00         0.00000E+00        -0.46884E+04
 
    0.17357E+07         0.70248E+05         0.00000E+00
    0.70248E+05        -0.18488E+07         0.00000E+00
    0.00000E+00         0.00000E+00        -0.22630E+05
 
    0.13856E+07         0.68782E+05         0.00000E+00
    0.68782E+05        -0.15842E+07         0.00000E+00
    0.00000E+00         0.00000E+00        -0.39723E+05
 
    0.10532E+07         0.66196E+05         0.00000E+00
    0.66196E+05        -0.13350E+07         0.00000E+00
    0.00000E+00         0.00000E+00        -0.56370E+05
 
    0.74245E+06         0.62614E+05         0.00000E+00
    0.62614E+05        -0.11075E+07         0.00000E+00
    0.00000E+00         0.00000E+00        -0.73006E+05
 
    0.45663E+06         0.58161E+05         0.00000E+00
    0.58161E+05        -0.90721E+06         0.00000E+00
    0.00000E+00         0.00000E+00        -0.90115E+05
 
    0.19824E+06         0.52994E+05         0.00000E+00
    0.52994E+05        -0.73947E+06         0.00000E+00
    0.00000E+00         0.00000E+00        -0.10825E+06
 
   -0.31143E+05         0.47343E+05         0.00000E+00
    0.47343E+05        -0.60909E+06         0.00000E+00
    0.00000E+00         0.00000E+00        -0.12805E+06
 
    0.44409E+07         0.31175E+05         0.00000E+00
    0.31175E+05        -0.35558E+07         0.00000E+00
    0.00000E+00         0.00000E+00         0.17701E+06
 
    0.41949E+07         0.84534E+05         0.00000E+00
    0.84534E+05        -0.34800E+07         0.00000E+00
    0.00000E+00         0.00000E+00         0.14298E+06
 
    0.39004E+07         0.12657E+06         0.00000E+00
    0.12657E+06        -0.33408E+07         0.00000E+00
    0.00000E+00         0.00000E+00         0.11192E+06
 
    0.35704E+07         0.15844E+06         0.00000E+00
    0.15844E+06        -0.31519E+07         0.00000E+00
    0.00000E+00         0.00000E+00         0.83690E+05
 
    0.32162E+07         0.18146E+06         0.00000E+00
    0.18146E+06        -0.29259E+07         0.00000E+00
    0.00000E+00         0.00000E+00         0.58065E+05
 
    0.28479E+07         0.19696E+06         0.00000E+00
    0.19696E+06        -0.26740E+07         0.00000E+00
    0.00000E+00         0.00000E+00         0.34769E+05
 
    0.24739E+07         0.20617E+06         0.00000E+00
    0.20617E+06        -0.24065E+07         0.00000E+00
    0.00000E+00         0.00000E+00         0.13485E+05
 
    0.21017E+07         0.21012E+06         0.00000E+00
    0.21012E+06        -0.21324E+07         0.00000E+00
    0.00000E+00         0.00000E+00        -0.61340E+04
 
    0.17374E+07         0.20966E+06         0.00000E+00
    0.20966E+06        -0.18597E+07         0.00000E+00
    0.00000E+00         0.00000E+00        -0.24455E+05
 
    0.13864E+07         0.20542E+06         0.00000E+00
    0.20542E+06        -0.15957E+07         0.00000E+00
    0.00000E+00         0.00000E+00        -0.41867E+05
 
    0.10531E+07         0.19785E+06         0.00000E+00
    0.19785E+06        -0.13470E+07         0.00000E+00
    0.00000E+00         0.00000E+00        -0.58780E+05
 
    0.74150E+06         0.18733E+06         0.00000E+00
    0.18733E+06        -0.11197E+07         0.00000E+00
    0.00000E+00         0.00000E+00        -0.75635E+05
 
    0.45486E+06         0.17417E+06         0.00000E+00
    0.17417E+06        -0.91944E+06         0.00000E+00
    0.00000E+00         0.00000E+00        -0.92916E+05
 
    0.19576E+06         0.15884E+06         0.00000E+00
    0.15884E+06        -0.75162E+06         0.00000E+00
    0.00000E+00         0.00000E+00        -0.11117E+06
 
   -0.34036E+05         0.14199E+06         0.00000E+00
    0.14199E+06        -0.62113E+06         0.00000E+00
    0.00000E+00         0.00000E+00        -0.13103E+06
 
    0.45027E+07         0.51571E+05         0.00000E+00
    0.51571E+05        -0.35730E+07         0.00000E+00
    0.00000E+00         0.00000E+00         0.18595E+06
 
    0.42423E+07         0.13965E+06         0.00000E+00
    0.13965E+06        -0.34967E+07         0.00000E+00
    0.00000E+00         0.00000E+00         0.14912E+06
 
    0.39359E+07         0.20883E+06         0.00000E+00
    0.20883E+06        -0.33572E+07         0.00000E+00
    0.00000E+00         0.00000E+00         0.11574E+06
 
    0.35963E+07         0.26117E+06         0.00000E+00
    0.26117E+06        -0.31684E+07         0.00000E+00
    0.00000E+00         0.00000E+00         0.85581E+05
 
    0.32347E+07         0.29892E+06         0.00000E+00
    0.29892E+06        -0.29429E+07         0.00000E+00
    0.00000E+00         0.00000E+00         0.58362E+05
 
    0.28608E+07         0.32435E+06         0.00000E+00
    0.32435E+06        -0.26920E+07         0.00000E+00
    0.00000E+00         0.00000E+00         0.33747E+05
 
    0.24827E+07         0.33954E+06         0.00000E+00
    0.33954E+06        -0.24259E+07         0.00000E+00
    0.00000E+00         0.00000E+00         0.11369E+05
 
    0.21075E+07         0.34622E+06         0.00000E+00
    0.34622E+06        -0.21533E+07         0.00000E+00
    0.00000E+00         0.00000E+00        -0.91601E+04
 
    0.17410E+07         0.34577E+06         0.00000E+00
    0.34577E+06        -0.18822E+07         0.00000E+00
    0.00000E+00         0.00000E+00        -0.28243E+05
 
    0.13881E+07         0.33923E+06         0.00000E+00
    0.33923E+06        -0.16196E+07         0.00000E+00
    0.00000E+00         0.00000E+00        -0.46295E+05
 
    0.10531E+07         0.32729E+06         0.00000E+00
    0.32729E+06        -0.13719E+07         0.00000E+00
    0.00000E+00         0.00000E+00        -0.63746E+05
 
    0.73983E+06         0.31048E+06         0.00000E+00
    0.31048E+06        -0.11451E+07         0.00000E+00
    0.00000E+00         0.00000E+00        -0.81047E+05
 
    0.45149E+06         0.28927E+06         0.00000E+00
    0.28927E+06        -0.94492E+06         0.00000E+00
    0.00000E+00         0.00000E+00        -0.98686E+05
 
    0.19086E+06         0.26429E+06         0.00000E+00
    0.26429E+06        -0.77686E+06         0.00000E+00
    0.00000E+00         0.00000E+00        -0.11720E+06
 
   -0.39935E+05         0.23656E+06         0.00000E+00
    0.23656E+06        -0.64609E+06         0.00000E+00
    0.00000E+00         0.00000E+00        -0.13721E+06
 
    0.45943E+07         0.71356E+05         0.00000E+00
    0.71356E+05        -0.35987E+07         0.00000E+00
    0.00000E+00         0.00000E+00         0.19912E+06
 
    0.43122E+07         0.19281E+06         0.00000E+00
    0.19281E+06        -0.35219E+07         0.00000E+00
    0.00000E+00         0.00000E+00         0.15806E+06
 
    0.39879E+07         0.28781E+06         0.00000E+00
    0.28781E+06        -0.33821E+07         0.00000E+00
    0.00000E+00         0.00000E+00         0.12116E+06
 
    0.36340E+07         0.35940E+06         0.00000E+00
    0.35940E+06        -0.31935E+07         0.00000E+00
    0.00000E+00         0.00000E+00         0.88099E+05
 
    0.32615E+07         0.41094E+06         0.00000E+00
    0.41094E+06        -0.29691E+07         0.00000E+00
    0.00000E+00         0.00000E+00         0.58479E+05
 
    0.28795E+07         0.44569E+06         0.00000E+00
    0.44569E+06        -0.27201E+07         0.00000E+00
    0.00000E+00         0.00000E+00         0.31880E+05
 
    0.24957E+07         0.46661E+06         0.00000E+00
    0.46661E+06        -0.24564E+07         0.00000E+00
    0.00000E+00         0.00000E+00         0.78573E+04
 
    0.21163E+07         0.47617E+06         0.00000E+00
    0.47617E+06        -0.21865E+07         0.00000E+00
    0.00000E+00         0.00000E+00        -0.14042E+05
 
    0.17467E+07         0.47627E+06         0.00000E+00
    0.47627E+06        -0.19181E+07         0.00000E+00
    0.00000E+00         0.00000E+00        -0.34272E+05
 
    0.13912E+07         0.46824E+06         0.00000E+00
    0.46824E+06        -0.16577E+07         0.00000E+00
    0.00000E+00         0.00000E+00        -0.53292E+05
 
    0.10538E+07         0.45297E+06         0.00000E+00
    0.45297E+06        -0.14116E+07         0.00000E+00
    0.00000E+00         0.00000E+00        -0.71563E+05
 
    0.73789E+06         0.43102E+06         0.00000E+00
    0.43102E+06        -0.11857E+07         0.00000E+00
    0.00000E+00         0.00000E+00        -0.89554E+05
 
    0.44685E+06         0.40286E+06         0.00000E+00
    0.40286E+06        -0.98564E+06         0.00000E+00
    0.00000E+00         0.00000E+00        -0.10776E+06
 
    0.18366E+06         0.36918E+06         0.00000E+00
    0.36918E+06        -0.81716E+06         0.00000E+00
    0.00000E+00         0.00000E+00        -0.12670E+06
 
   -0.49066E+05         0.33114E+06         0.00000E+00
    0.33114E+06        -0.68579E+06         0.00000E+00
    0.00000E+00         0.00000E+00        -0.14697E+06
 
    0.47141E+07         0.90225E+05         0.00000E+00
    0.90225E+05        -0.36330E+07         0.00000E+00
    0.00000E+00         0.00000E+00         0.21622E+06
 
    0.44029E+07         0.24309E+06         0.00000E+00
    0.24309E+06        -0.35557E+07         0.00000E+00
    0.00000E+00         0.00000E+00         0.16944E+06
 
    0.40548E+07         0.36194E+06         0.00000E+00
    0.36194E+06        -0.34158E+07         0.00000E+00
    0.00000E+00         0.00000E+00         0.12781E+06
 
    0.36822E+07         0.45105E+06         0.00000E+00
    0.45105E+06        -0.32280E+07         0.00000E+00
    0.00000E+00         0.00000E+00         0.90837E+05
 
    0.32956E+07         0.51501E+06         0.00000E+00
    0.51501E+06        -0.30056E+07         0.00000E+00
    0.00000E+00         0.00000E+00         0.58000E+05
 
    0.29033E+07         0.55821E+06         0.00000E+00
    0.55821E+06        -0.27596E+07         0.00000E+00
    0.00000E+00         0.00000E+00         0.28746E+05
 
    0.25123E+07         0.58455E+06         0.00000E+00
    0.58455E+06        -0.24997E+07         0.00000E+00
    0.00000E+00         0.00000E+00         0.25260E+04
 
    0.21280E+07         0.59723E+06         0.00000E+00
    0.59723E+06        -0.22340E+07         0.00000E+00
    0.00000E+00         0.00000E+00        -0.21203E+05
 
    0.17547E+07         0.59863E+06         0.00000E+00
    0.59863E+06        -0.19696E+07         0.00000E+00
    0.00000E+00         0.00000E+00        -0.42972E+05
 
    0.13962E+07         0.59034E+06         0.00000E+00
    0.59034E+06        -0.17126E+07         0.00000E+00
    0.00000E+00         0.00000E+00        -0.63297E+05
 
    0.10556E+07         0.57327E+06         0.00000E+00
    0.57327E+06        -0.14690E+07         0.00000E+00
    0.00000E+00         0.00000E+00        -0.82683E+05
 
    0.73633E+06         0.54787E+06         0.00000E+00
    0.54787E+06        -0.12445E+07         0.00000E+00
    0.00000E+00         0.00000E+00        -0.10163E+06
 
    0.44147E+06         0.51444E+06         0.00000E+00
    0.51444E+06        -0.10447E+07         0.00000E+00
    0.00000E+00         0.00000E+00        -0.12064E+06
 
    0.17434E+06         0.47346E+06         0.00000E+00
    0.47346E+06        -0.87547E+06         0.00000E+00
    0.00000E+00         0.00000E+00        -0.14023E+06
 
   -0.61770E+05         0.42605E+06         0.00000E+00
    0.42605E+06        -0.74296E+06         0.00000E+00
    0.00000E+00         0.00000E+00        -0.16095E+06
 
    0.48597E+07         0.10782E+06         0.00000E+00
    0.10782E+06        -0.36758E+07         0.00000E+00
    0.00000E+00         0.00000E+00         0.23677E+06
 
    0.45119E+07         0.28939E+06         0.00000E+00
    0.28939E+06        -0.35983E+07         0.00000E+00
    0.00000E+00         0.00000E+00         0.18272E+06
 
    0.41342E+07         0.42943E+06         0.00000E+00
    0.42943E+06        -0.34587E+07         0.00000E+00
    0.00000E+00         0.00000E+00         0.13511E+06
 
    0.37387E+07         0.53374E+06         0.00000E+00
    0.53374E+06        -0.32727E+07         0.00000E+00
    0.00000E+00         0.00000E+00         0.93216E+05
 
    0.33352E+07         0.60831E+06         0.00000E+00
    0.60831E+06        -0.30535E+07         0.00000E+00
    0.00000E+00         0.00000E+00         0.56335E+05
 
    0.29311E+07         0.65881E+06         0.00000E+00
    0.65881E+06        -0.28123E+07         0.00000E+00
    0.00000E+00         0.00000E+00         0.23754E+05
 
    0.25321E+07         0.69017E+06         0.00000E+00
    0.69017E+06        -0.25582E+07         0.00000E+00
    0.00000E+00         0.00000E+00        -0.52156E+04
 
    0.21425E+07         0.70632E+06         0.00000E+00
    0.70632E+06        -0.22986E+07         0.00000E+00
    0.00000E+00         0.00000E+00        -0.31235E+05
 
    0.17654E+07         0.71008E+06         0.00000E+00
    0.71008E+06        -0.20401E+07         0.00000E+00
    0.00000E+00         0.00000E+00        -0.54934E+05
 
    0.14036E+07         0.70319E+06         0.00000E+00
    0.70319E+06        -0.17882E+07         0.00000E+00
    0.00000E+00         0.00000E+00        -0.76909E+05
 
    0.10596E+07         0.68643E+06         0.00000E+00
    0.68643E+06        -0.15482E+07         0.00000E+00
    0.00000E+00         0.00000E+00        -0.97725E+05
 
    0.73603E+06         0.65994E+06         0.00000E+00
    0.65994E+06        -0.13256E+07         0.00000E+00
    0.00000E+00         0.00000E+00        -0.11792E+06
 
    0.43600E+06         0.62355E+06         0.00000E+00
    0.62355E+06        -0.11261E+07         0.00000E+00
    0.00000E+00         0.00000E+00        -0.13802E+06
 
    0.16311E+06         0.57730E+06         0.00000E+00
    0.57730E+06        -0.95576E+06         0.00000E+00
    0.00000E+00         0.00000E+00        -0.15853E+06
 
   -0.78516E+05         0.52192E+06         0.00000E+00
    0.52192E+06        -0.82130E+06         0.00000E+00
    0.00000E+00         0.00000E+00        -0.17996E+06
 
    0.50280E+07         0.12370E+06         0.00000E+00
    0.12370E+06        -0.37275E+07         0.00000E+00
    0.00000E+00         0.00000E+00         0.26010E+06
 
    0.46359E+07         0.33040E+06         0.00000E+00
    0.33040E+06        -0.36500E+07         0.00000E+00
    0.00000E+00         0.00000E+00         0.19719E+06
 
    0.42230E+07         0.48820E+06         0.00000E+00
    0.48820E+06        -0.35116E+07         0.00000E+00
    0.00000E+00         0.00000E+00         0.14230E+06
 
    0.38009E+07         0.60470E+06         0.00000E+00
    0.60470E+06        -0.33287E+07         0.00000E+00
    0.00000E+00         0.00000E+00         0.94447E+05
 
    0.33783E+07         0.68760E+06         0.00000E+00
    0.68760E+06        -0.31148E+07         0.00000E+00
    0.00000E+00         0.00000E+00         0.52691E+05
 
    0.29613E+07         0.74398E+06         0.00000E+00
    0.74398E+06        -0.28807E+07         0.00000E+00
    0.00000E+00         0.00000E+00         0.16114E+05
 
    0.25541E+07         0.77989E+06         0.00000E+00
    0.77989E+06        -0.26348E+07         0.00000E+00
    0.00000E+00         0.00000E+00        -0.16151E+05
 
    0.21594E+07         0.80001E+06         0.00000E+00
    0.80001E+06        -0.23840E+07         0.00000E+00
    0.00000E+00         0.00000E+00        -0.44916E+05
 
    0.17791E+07         0.80754E+06         0.00000E+00
    0.80754E+06        -0.21338E+07         0.00000E+00
    0.00000E+00         0.00000E+00        -0.70935E+05
 
    0.14143E+07         0.80423E+06         0.00000E+00
    0.80423E+06        -0.18889E+07         0.00000E+00
    0.00000E+00         0.00000E+00        -0.94911E+05
 
    0.10667E+07         0.79056E+06         0.00000E+00
    0.79056E+06        -0.16541E+07         0.00000E+00
    0.00000E+00         0.00000E+00        -0.11749E+06
 
    0.73803E+06         0.76607E+06         0.00000E+00
    0.76607E+06        -0.14344E+07         0.00000E+00
    0.00000E+00         0.00000E+00        -0.13926E+06
 
    0.43126E+06         0.72986E+06         0.00000E+00
    0.72986E+06        -0.12352E+07         0.00000E+00
    0.00000E+00         0.00000E+00        -0.16079E+06
 
    0.15027E+06         0.68111E+06         0.00000E+00
    0.68111E+06        -0.10631E+07         0.00000E+00
    0.00000E+00         0.00000E+00        -0.18257E+06
 
   -0.99901E+05         0.61979E+06         0.00000E+00
    0.61979E+06        -0.92554E+06         0.00000E+00
    0.00000E+00         0.00000E+00        -0.20509E+06
 
    0.52147E+07         0.13734E+06         0.00000E+00
    0.13734E+06        -0.37884E+07         0.00000E+00
    0.00000E+00         0.00000E+00         0.28526E+06
 
    0.47705E+07         0.36460E+06         0.00000E+00
    0.36460E+06        -0.37114E+07         0.00000E+00
    0.00000E+00         0.00000E+00         0.21183E+06
 
    0.43171E+07         0.53582E+06         0.00000E+00
    0.53582E+06        -0.35754E+07         0.00000E+00
    0.00000E+00         0.00000E+00         0.14834E+06
 
    0.38651E+07         0.66080E+06         0.00000E+00
    0.66080E+06        -0.33977E+07         0.00000E+00
    0.00000E+00         0.00000E+00         0.93488E+05
 
    0.34218E+07         0.74919E+06         0.00000E+00
    0.74919E+06        -0.31916E+07         0.00000E+00
    0.00000E+00         0.00000E+00         0.46030E+05
 
    0.29916E+07         0.80973E+06         0.00000E+00
    0.80973E+06        -0.29676E+07         0.00000E+00
    0.00000E+00         0.00000E+00         0.47988E+04
 
    0.25769E+07         0.84967E+06         0.00000E+00
    0.84967E+06        -0.27334E+07         0.00000E+00
    0.00000E+00         0.00000E+00        -0.31291E+05
 
    0.21784E+07         0.87445E+06         0.00000E+00
    0.87445E+06        -0.24946E+07         0.00000E+00
    0.00000E+00         0.00000E+00        -0.63238E+05
 
    0.17959E+07         0.88757E+06         0.00000E+00
    0.88757E+06        -0.22557E+07         0.00000E+00
    0.00000E+00         0.00000E+00        -0.91959E+05
 
    0.14291E+07         0.89064E+06         0.00000E+00
    0.89064E+06        -0.20205E+07         0.00000E+00
    0.00000E+00         0.00000E+00        -0.11829E+06
 
    0.10780E+07         0.88361E+06         0.00000E+00
    0.88361E+06        -0.17928E+07         0.00000E+00
    0.00000E+00         0.00000E+00        -0.14297E+06
 
    0.74351E+06         0.86512E+06         0.00000E+00
    0.86512E+06        -0.15769E+07         0.00000E+00
    0.00000E+00         0.00000E+00        -0.16668E+06
 
    0.42819E+06         0.83315E+06         0.00000E+00
    0.83315E+06        -0.13783E+07         0.00000E+00
    0.00000E+00         0.00000E+00        -0.19003E+06
 
    0.13613E+06         0.78559E+06         0.00000E+00
    0.78559E+06        -0.12037E+07         0.00000E+00
    0.00000E+00         0.00000E+00        -0.21352E+06
 
   -0.12666E+06         0.72119E+06         0.00000E+00
    0.72119E+06        -0.10614E+07         0.00000E+00
    0.00000E+00         0.00000E+00        -0.23762E+06
 
    0.54140E+07         0.14813E+06         0.00000E+00
    0.14813E+06        -0.38591E+07         0.00000E+00
    0.00000E+00         0.00000E+00         0.31098E+06
 
    0.49100E+07         0.39019E+06         0.00000E+00
    0.39019E+06        -0.37835E+07         0.00000E+00
    0.00000E+00         0.00000E+00         0.22530E+06
 
    0.44111E+07         0.56946E+06         0.00000E+00
    0.56946E+06        -0.36517E+07         0.00000E+00
    0.00000E+00         0.00000E+00         0.15188E+06
 
    0.39266E+07         0.69839E+06         0.00000E+00
    0.69839E+06        -0.34817E+07         0.00000E+00
    0.00000E+00         0.00000E+00         0.88980E+05
 
    0.34619E+07         0.78890E+06         0.00000E+00
    0.78890E+06        -0.32869E+07         0.00000E+00
    0.00000E+00         0.00000E+00         0.35014E+05
 
    0.30194E+07         0.85157E+06         0.00000E+00
    0.85157E+06        -0.30769E+07         0.00000E+00
    0.00000E+00         0.00000E+00        -0.11499E+05
 
    0.25988E+07         0.89497E+06         0.00000E+00
    0.89497E+06        -0.28584E+07         0.00000E+00
    0.00000E+00         0.00000E+00        -0.51909E+05
 
    0.21985E+07         0.92532E+06         0.00000E+00
    0.92532E+06        -0.26358E+07         0.00000E+00
    0.00000E+00         0.00000E+00        -0.87448E+05
 
    0.18159E+07         0.94633E+06         0.00000E+00
    0.94633E+06        -0.24121E+07         0.00000E+00
    0.00000E+00         0.00000E+00        -0.11923E+06
 
    0.14485E+07         0.95929E+06         0.00000E+00
    0.95929E+06        -0.21898E+07         0.00000E+00
    0.00000E+00         0.00000E+00        -0.14824E+06
 
    0.10946E+07         0.96333E+06         0.00000E+00
    0.96333E+06        -0.19715E+07         0.00000E+00
    0.00000E+00         0.00000E+00        -0.17539E+06
 
    0.75374E+06         0.95590E+06         0.00000E+00
    0.95590E+06        -0.17609E+07         0.00000E+00
    0.00000E+00         0.00000E+00        -0.20143E+06
 
    0.42780E+06         0.93335E+06         0.00000E+00
    0.93335E+06        -0.15630E+07         0.00000E+00
    0.00000E+00         0.00000E+00        -0.22705E+06
 
    0.12098E+06         0.89185E+06         0.00000E+00
    0.89185E+06        -0.13850E+07         0.00000E+00
    0.00000E+00         0.00000E+00        -0.25280E+06
 
   -0.15970E+06         0.82826E+06         0.00000E+00
    0.82826E+06        -0.12358E+07         0.00000E+00
    0.00000E+00         0.00000E+00        -0.27911E+06
 
    0.56184E+07         0.15533E+06         0.00000E+00
    0.15533E+06        -0.39408E+07         0.00000E+00
    0.00000E+00         0.00000E+00         0.33552E+06
 
    0.50470E+07         0.40510E+06         0.00000E+00
    0.40510E+06        -0.38677E+07         0.00000E+00
    0.00000E+00         0.00000E+00         0.23585E+06
 
    0.44981E+07         0.58592E+06         0.00000E+00
    0.58592E+06        -0.37424E+07         0.00000E+00
    0.00000E+00         0.00000E+00         0.15114E+06
 
    0.39794E+07         0.71335E+06         0.00000E+00
    0.71335E+06        -0.35835E+07         0.00000E+00
    0.00000E+00         0.00000E+00         0.79184E+05
 
    0.34938E+07         0.80198E+06         0.00000E+00
    0.80198E+06        -0.34040E+07         0.00000E+00
    0.00000E+00         0.00000E+00         0.17943E+05
 
    0.30408E+07         0.86446E+06         0.00000E+00
    0.86446E+06        -0.32129E+07         0.00000E+00
    0.00000E+00         0.00000E+00        -0.34427E+05
 
    0.26172E+07         0.91077E+06         0.00000E+00
    0.91077E+06        -0.30152E+07         0.00000E+00
    0.00000E+00         0.00000E+00        -0.79601E+05
 
    0.22184E+07         0.94788E+06         0.00000E+00
    0.94788E+06        -0.28138E+07         0.00000E+00
    0.00000E+00         0.00000E+00        -0.11909E+06
 
    0.18388E+07         0.97963E+06         0.00000E+00
    0.97963E+06        -0.26100E+07         0.00000E+00
    0.00000E+00         0.00000E+00        -0.15424E+06
 
    0.14732E+07         0.10068E+07         0.00000E+00
    0.10068E+07        -0.24044E+07         0.00000E+00
    0.00000E+00         0.00000E+00        -0.18626E+06
 
    0.11175E+07         0.10274E+07         0.00000E+00
    0.10274E+07        -0.21986E+07         0.00000E+00
    0.00000E+00         0.00000E+00        -0.21620E+06
 
    0.76995E+06         0.10372E+07         0.00000E+00
    0.10372E+07        -0.19949E+07         0.00000E+00
    0.00000E+00         0.00000E+00        -0.24500E+06
 
    0.43111E+06         0.10306E+07         0.00000E+00
    0.10306E+07        -0.17981E+07         0.00000E+00
    0.00000E+00         0.00000E+00        -0.27340E+06
 
    0.10513E+06         0.10014E+07         0.00000E+00
    0.10014E+07        -0.16153E+07         0.00000E+00
    0.00000E+00         0.00000E+00        -0.30204E+06
 
   -0.20007E+06         0.94385E+06         0.00000E+00
    0.94385E+06        -0.14568E+07         0.00000E+00
    0.00000E+00         0.00000E+00        -0.33137E+06
 
    0.58181E+07         0.15810E+06         0.00000E+00
    0.15810E+06        -0.40352E+07         0.00000E+00
    0.00000E+00         0.00000E+00         0.35659E+06
 
    0.51720E+07         0.40694E+06         0.00000E+00
    0.40694E+06        -0.39661E+07         0.00000E+00
    0.00000E+00         0.00000E+00         0.24117E+06
 
    0.45695E+07         0.58152E+06         0.00000E+00
    0.58152E+06        -0.38502E+07         0.00000E+00
    0.00000E+00         0.00000E+00         0.14386E+06
 
    0.40159E+07         0.70106E+06         0.00000E+00
    0.70106E+06        -0.37065E+07         0.00000E+00
    0.00000E+00         0.00000E+00         0.61879E+05
 
    0.35110E+07         0.78321E+06         0.00000E+00
    0.78321E+06        -0.35476E+07         0.00000E+00
    0.00000E+00         0.00000E+00        -0.73292E+04
 
    0.30509E+07         0.84287E+06         0.00000E+00
    0.84287E+06        -0.33811E+07         0.00000E+00
    0.00000E+00         0.00000E+00        -0.66049E+05
 
    0.26287E+07         0.89155E+06         0.00000E+00
    0.89155E+06        -0.32104E+07         0.00000E+00
    0.00000E+00         0.00000E+00        -0.11634E+06
 
    0.22359E+07         0.93696E+06         0.00000E+00
    0.93696E+06        -0.30361E+07         0.00000E+00
    0.00000E+00         0.00000E+00        -0.16005E+06
 
    0.18634E+07         0.98291E+06         0.00000E+00
    0.98291E+06        -0.28575E+07         0.00000E+00
    0.00000E+00         0.00000E+00        -0.19882E+06
 
    0.15030E+07         0.10294E+07         0.00000E+00
    0.10294E+07        -0.26734E+07         0.00000E+00
    0.00000E+00         0.00000E+00        -0.23410E+06
 
    0.11476E+07         0.10731E+07         0.00000E+00
    0.10731E+07        -0.24835E+07         0.00000E+00
    0.00000E+00         0.00000E+00        -0.26717E+06
 
    0.79321E+06         0.11078E+07         0.00000E+00
    0.11078E+07        -0.22888E+07         0.00000E+00
    0.00000E+00         0.00000E+00        -0.29913E+06
 
    0.43905E+06         0.11252E+07         0.00000E+00
    0.11252E+07        -0.20935E+07         0.00000E+00
    0.00000E+00         0.00000E+00        -0.33089E+06
 
    0.88758E+05         0.11162E+07         0.00000E+00
    0.11162E+07        -0.19046E+07         0.00000E+00
    0.00000E+00         0.00000E+00        -0.36317E+06
 
   -0.24905E+06         0.10716E+07         0.00000E+00
    0.10716E+07        -0.17333E+07         0.00000E+00
    0.00000E+00         0.00000E+00        -0.39648E+06
 
    0.60009E+07         0.15549E+06         0.00000E+00
    0.15549E+06        -0.41449E+07         0.00000E+00
    0.00000E+00         0.00000E+00         0.37120E+06
 
    0.52732E+07         0.39303E+06         0.00000E+00
    0.39303E+06        -0.40817E+07         0.00000E+00
    0.00000E+00         0.00000E+00         0.23828E+06
 
    0.46144E+07         0.55219E+06         0.00000E+00
    0.55219E+06        -0.39788E+07         0.00000E+00
    0.00000E+00         0.00000E+00         0.12714E+06
 
    0.40266E+07         0.65645E+06         0.00000E+00
    0.65645E+06        -0.38553E+07         0.00000E+00
    0.00000E+00         0.00000E+00         0.34257E+05
 
    0.35057E+07         0.72686E+06         0.00000E+00
    0.72686E+06        -0.37232E+07         0.00000E+00
    0.00000E+00         0.00000E+00        -0.43492E+05
 
    0.30435E+07         0.78084E+06         0.00000E+00
    0.78084E+06        -0.35881E+07         0.00000E+00
    0.00000E+00         0.00000E+00        -0.10893E+06
 
    0.26285E+07         0.83146E+06         0.00000E+00
    0.83146E+06        -0.34513E+07         0.00000E+00
    0.00000E+00         0.00000E+00        -0.16457E+06
 
    0.22478E+07         0.88710E+06         0.00000E+00
    0.88710E+06        -0.33110E+07         0.00000E+00
    0.00000E+00         0.00000E+00        -0.21265E+06
 
    0.18881E+07         0.95139E+06         0.00000E+00
    0.95139E+06        -0.31640E+07         0.00000E+00
    0.00000E+00         0.00000E+00        -0.25517E+06
 
    0.15373E+07         0.10234E+07         0.00000E+00
    0.10234E+07        -0.30067E+07         0.00000E+00
    0.00000E+00         0.00000E+00        -0.29388E+06
 
    0.11849E+07         0.10980E+07         0.00000E+00
    0.10980E+07        -0.28367E+07         0.00000E+00
    0.00000E+00         0.00000E+00        -0.33034E+06
 
    0.82417E+06         0.11666E+07         0.00000E+00
    0.11666E+07        -0.26535E+07         0.00000E+00
    0.00000E+00         0.00000E+00        -0.36587E+06
 
    0.45225E+06         0.12178E+07         0.00000E+00
    0.12178E+07        -0.24602E+07         0.00000E+00
    0.00000E+00         0.00000E+00        -0.40159E+06
 
    0.71844E+05         0.12386E+07         0.00000E+00
    0.12386E+07        -0.22636E+07         0.00000E+00
    0.00000E+00         0.00000E+00        -0.43836E+06
 
   -0.30814E+06         0.12159E+07         0.00000E+00
    0.12159E+07        -0.20758E+07         0.00000E+00
    0.00000E+00         0.00000E+00        -0.47679E+06
 
    0.61512E+07         0.14640E+06         0.00000E+00
    0.14640E+06        -0.42740E+07         0.00000E+00
    0.00000E+00         0.00000E+00         0.37545E+06
 
    0.53358E+07         0.36039E+06         0.00000E+00
    0.36039E+06        -0.42189E+07         0.00000E+00
    0.00000E+00         0.00000E+00         0.22338E+06
 
    0.46195E+07         0.49348E+06         0.00000E+00
    0.49348E+06        -0.41332E+07         0.00000E+00
    0.00000E+00         0.00000E+00         0.97268E+05
 
    0.39999E+07         0.57403E+06         0.00000E+00
    0.57403E+06        -0.40359E+07         0.00000E+00
    0.00000E+00         0.00000E+00        -0.72121E+04
 
    0.34681E+07         0.62688E+06         0.00000E+00
    0.62688E+06        -0.39376E+07         0.00000E+00
    0.00000E+00         0.00000E+00        -0.93904E+05
 
    0.30105E+07         0.67213E+06         0.00000E+00
    0.67213E+06        -0.38417E+07         0.00000E+00
    0.00000E+00         0.00000E+00        -0.16624E+06
 
    0.26104E+07         0.72443E+06         0.00000E+00
    0.72443E+06        -0.37467E+07         0.00000E+00
    0.00000E+00         0.00000E+00        -0.22727E+06
 
    0.22496E+07         0.79270E+06         0.00000E+00
    0.79270E+06        -0.36481E+07         0.00000E+00
    0.00000E+00         0.00000E+00        -0.27970E+06
 
    0.19099E+07         0.88021E+06         0.00000E+00
    0.88021E+06        -0.35396E+07         0.00000E+00
    0.00000E+00         0.00000E+00        -0.32595E+06
 
    0.15744E+07         0.98480E+06         0.00000E+00
    0.98480E+06        -0.34151E+07         0.00000E+00
    0.00000E+00         0.00000E+00        -0.36814E+06
 
    0.12288E+07         0.10994E+07         0.00000E+00
    0.10994E+07        -0.32696E+07         0.00000E+00
    0.00000E+00         0.00000E+00        -0.40816E+06
 
    0.86281E+06         0.12125E+07         0.00000E+00
    0.12125E+07        -0.31009E+07         0.00000E+00
    0.00000E+00         0.00000E+00        -0.44761E+06
 
    0.47088E+06         0.13091E+07         0.00000E+00
    0.13091E+07        -0.29103E+07         0.00000E+00
    0.00000E+00         0.00000E+00        -0.48788E+06
 
    0.54035E+05         0.13717E+07         0.00000E+00
    0.13717E+07        -0.27043E+07         0.00000E+00
    0.00000E+00         0.00000E+00        -0.53006E+06
 
   -0.37909E+06         0.13821E+07         0.00000E+00
    0.13821E+07        -0.24956E+07         0.00000E+00
    0.00000E+00         0.00000E+00        -0.57494E+06
 
    0.62496E+07         0.12964E+06         0.00000E+00
    0.12964E+06        -0.44279E+07         0.00000E+00
    0.00000E+00         0.00000E+00         0.36434E+06
 
    0.53417E+07         0.30576E+06         0.00000E+00
    0.30576E+06        -0.43836E+07         0.00000E+00
    0.00000E+00         0.00000E+00         0.19162E+06
 
    0.45682E+07         0.40058E+06         0.00000E+00
    0.40058E+06        -0.43202E+07         0.00000E+00
    0.00000E+00         0.00000E+00         0.49604E+05
 
    0.39212E+07         0.44801E+06         0.00000E+00
    0.44801E+06        -0.42560E+07         0.00000E+00
    0.00000E+00         0.00000E+00        -0.66956E+05
 
    0.33858E+07         0.47703E+06         0.00000E+00
    0.47703E+06        -0.41995E+07         0.00000E+00
    0.00000E+00         0.00000E+00        -0.16274E+06
 
    0.29419E+07         0.51049E+06         0.00000E+00
    0.51049E+06        -0.41513E+07         0.00000E+00
    0.00000E+00         0.00000E+00        -0.24189E+06
 
    0.25663E+07         0.56449E+06         0.00000E+00
    0.56449E+06        -0.41068E+07         0.00000E+00
    0.00000E+00         0.00000E+00        -0.30810E+06
 
    0.22349E+07         0.64833E+06         0.00000E+00
    0.64833E+06        -0.40580E+07         0.00000E+00
    0.00000E+00         0.00000E+00        -0.36463E+06
 
    0.19238E+07         0.76468E+06         0.00000E+00
    0.76468E+06        -0.39956E+07         0.00000E+00
    0.00000E+00         0.00000E+00        -0.41436E+06
 
    0.16109E+07         0.90994E+06         0.00000E+00
    0.90994E+06        -0.39103E+07         0.00000E+00
    0.00000E+00         0.00000E+00        -0.45989E+06
 
    0.12772E+07         0.10747E+07         0.00000E+00
    0.10747E+07        -0.37945E+07         0.00000E+00
    0.00000E+00         0.00000E+00        -0.50346E+06
 
    0.90793E+06         0.12445E+07         0.00000E+00
    0.12445E+07        -0.36434E+07         0.00000E+00
    0.00000E+00         0.00000E+00        -0.54708E+06
 
    0.49421E+06         0.14000E+07         0.00000E+00
    0.14000E+07        -0.34565E+07         0.00000E+00
    0.00000E+00         0.00000E+00        -0.59247E+06
 
    0.34412E+05         0.15189E+07         0.00000E+00
    0.15189E+07        -0.32395E+07         0.00000E+00
    0.00000E+00         0.00000E+00        -0.64103E+06
 
   -0.46404E+06         0.15765E+07         0.00000E+00
    0.15765E+07        -0.30050E+07         0.00000E+00
    0.00000E+00         0.00000E+00        -0.69381E+06
 
    0.62720E+07         0.10389E+06         0.00000E+00
    0.10389E+06        -0.46146E+07         0.00000E+00
    0.00000E+00         0.00000E+00         0.33148E+06
 
    0.52684E+07         0.22561E+06         0.00000E+00
    0.22561E+06        -0.45843E+07         0.00000E+00
    0.00000E+00         0.00000E+00         0.13683E+06
 
    0.44404E+07         0.26845E+06         0.00000E+00
    0.26845E+06        -0.45489E+07         0.00000E+00
    0.00000E+00         0.00000E+00        -0.21712E+05
 
    0.37731E+07         0.27251E+06         0.00000E+00
    0.27251E+06        -0.45256E+07         0.00000E+00
    0.00000E+00         0.00000E+00        -0.15050E+06
 
    0.32438E+07         0.27117E+06         0.00000E+00
    0.27117E+06        -0.45197E+07         0.00000E+00
    0.00000E+00         0.00000E+00        -0.25517E+06
 
    0.28248E+07         0.28995E+06         0.00000E+00
    0.28995E+06        -0.45284E+07         0.00000E+00
    0.00000E+00         0.00000E+00        -0.34072E+06
 
    0.24856E+07         0.34617E+06         0.00000E+00
    0.34617E+06        -0.45433E+07         0.00000E+00
    0.00000E+00         0.00000E+00        -0.41155E+06
 
    0.21950E+07         0.44915E+06         0.00000E+00
    0.44915E+06        -0.45529E+07         0.00000E+00
    0.00000E+00         0.00000E+00        -0.47157E+06
 
    0.19229E+07         0.60067E+06         0.00000E+00
    0.60067E+06        -0.45442E+07         0.00000E+00
    0.00000E+00         0.00000E+00        -0.52426E+06
 
    0.16413E+07         0.79550E+06         0.00000E+00
    0.79550E+06        -0.45047E+07         0.00000E+00
    0.00000E+00         0.00000E+00        -0.57269E+06
 
    0.13258E+07         0.10218E+07         0.00000E+00
    0.10218E+07        -0.44238E+07         0.00000E+00
    0.00000E+00         0.00000E+00        -0.61961E+06
 
    0.95656E+06         0.12618E+07         0.00000E+00
    0.12618E+07        -0.42939E+07         0.00000E+00
    0.00000E+00         0.00000E+00        -0.66747E+06
 
    0.52017E+06         0.14918E+07         0.00000E+00
    0.14918E+07        -0.41123E+07         0.00000E+00
    0.00000E+00         0.00000E+00        -0.71842E+06
 
    0.11191E+05         0.16838E+07         0.00000E+00
    0.16838E+07        -0.38827E+07         0.00000E+00
    0.00000E+00         0.00000E+00        -0.77429E+06
 
   -0.56550E+06         0.18059E+07         0.00000E+00
    0.18059E+07        -0.36173E+07         0.00000E+00
    0.00000E+00         0.00000E+00        -0.83655E+06
 
    0.61886E+07         0.67715E+05         0.00000E+00
    0.67715E+05        -0.48449E+07         0.00000E+00
    0.00000E+00         0.00000E+00         0.26874E+06
 
    0.50885E+07         0.11621E+06         0.00000E+00
    0.11621E+06        -0.48323E+07         0.00000E+00
    0.00000E+00         0.00000E+00         0.51248E+05
 
    0.42116E+07         0.91927E+05         0.00000E+00
    0.91927E+05        -0.48317E+07         0.00000E+00
    0.00000E+00         0.00000E+00        -0.12402E+06
 
    0.35341E+07         0.41794E+05         0.00000E+00
    0.41794E+05        -0.48576E+07         0.00000E+00
    0.00000E+00         0.00000E+00        -0.26471E+06
 
    0.30237E+07         0.36608E+04         0.00000E+00
    0.36608E+04        -0.49117E+07         0.00000E+00
    0.00000E+00         0.00000E+00        -0.37759E+06
 
    0.26436E+07         0.54069E+04         0.00000E+00
    0.54069E+04        -0.49866E+07         0.00000E+00
    0.00000E+00         0.00000E+00        -0.46861E+06
 
    0.23546E+07         0.65055E+05         0.00000E+00
    0.65055E+05        -0.50698E+07         0.00000E+00
    0.00000E+00         0.00000E+00        -0.54305E+06
 
    0.21179E+07         0.19146E+06         0.00000E+00
    0.19146E+06        -0.51457E+07         0.00000E+00
    0.00000E+00         0.00000E+00        -0.60556E+06
 
    0.18967E+07         0.38514E+06         0.00000E+00
    0.38514E+06        -0.51980E+07         0.00000E+00
    0.00000E+00         0.00000E+00        -0.66025E+06
 
    0.16566E+07         0.63906E+06         0.00000E+00
    0.63906E+06        -0.52107E+07         0.00000E+00
    0.00000E+00         0.00000E+00        -0.71081E+06
 
    0.13673E+07         0.93899E+06         0.00000E+00
    0.93899E+06        -0.51700E+07         0.00000E+00
    0.00000E+00         0.00000E+00        -0.76054E+06
 
    0.10031E+07         0.12638E+07         0.00000E+00
    0.12638E+07        -0.50653E+07         0.00000E+00
    0.00000E+00         0.00000E+00        -0.81244E+06
 
    0.54469E+06         0.15856E+07         0.00000E+00
    0.15856E+07        -0.48907E+07         0.00000E+00
    0.00000E+00         0.00000E+00        -0.86920E+06
 
   -0.18709E+05         0.18702E+07         0.00000E+00
    0.18702E+07        -0.46474E+07         0.00000E+00
    0.00000E+00         0.00000E+00        -0.93322E+06
 
   -0.68656E+06         0.20778E+07         0.00000E+00
    0.20778E+07        -0.43461E+07         0.00000E+00
    0.00000E+00         0.00000E+00        -0.10065E+07
 
    0.59628E+07         0.19543E+05         0.00000E+00
    0.19543E+05        -0.51337E+07         0.00000E+00
    0.00000E+00         0.00000E+00         0.16582E+06
 
    0.47688E+07        -0.26383E+05         0.00000E+00
   -0.26383E+05        -0.51432E+07         0.00000E+00
    0.00000E+00         0.00000E+00        -0.74894E+05
 
    0.38525E+07        -0.13413E+06         0.00000E+00
   -0.13413E+06        -0.51849E+07         0.00000E+00
    0.00000E+00         0.00000E+00        -0.26649E+06
 
    0.31787E+07        -0.24941E+06         0.00000E+00
   -0.24941E+06        -0.52692E+07         0.00000E+00
    0.00000E+00         0.00000E+00        -0.41811E+06
 
    0.27034E+07        -0.33010E+06         0.00000E+00
   -0.33010E+06        -0.53927E+07         0.00000E+00
    0.00000E+00         0.00000E+00        -0.53785E+06
 
    0.23786E+07        -0.34669E+06         0.00000E+00
   -0.34669E+06        -0.55427E+07         0.00000E+00
    0.00000E+00         0.00000E+00        -0.63282E+06
 
    0.21557E+07        -0.28134E+06         0.00000E+00
   -0.28134E+06        -0.57020E+07         0.00000E+00
    0.00000E+00         0.00000E+00        -0.70925E+06
 
    0.19877E+07        -0.12644E+06         0.00000E+00
   -0.12644E+06        -0.58510E+07         0.00000E+00
    0.00000E+00         0.00000E+00        -0.77266E+06
 
    0.18306E+07         0.11685E+06         0.00000E+00
    0.11685E+06        -0.59701E+07         0.00000E+00
    0.00000E+00         0.00000E+00        -0.82790E+06
 
    0.16438E+07         0.43956E+06         0.00000E+00
    0.43956E+06        -0.60404E+07         0.00000E+00
    0.00000E+00         0.00000E+00        -0.87933E+06
 
    0.13904E+07         0.82536E+06         0.00000E+00
    0.82536E+06        -0.60449E+07         0.00000E+00
    0.00000E+00         0.00000E+00        -0.93090E+06
 
    0.10382E+07         0.12503E+07         0.00000E+00
    0.12503E+07        -0.59694E+07         0.00000E+00
    0.00000E+00         0.00000E+00        -0.98624E+06
 
    0.56069E+06         0.16826E+07         0.00000E+00
    0.16826E+07        -0.58044E+07         0.00000E+00
    0.00000E+00         0.00000E+00        -0.10487E+07
 
   -0.60272E+05         0.20817E+07         0.00000E+00
    0.20817E+07        -0.55472E+07         0.00000E+00
    0.00000E+00         0.00000E+00        -0.11215E+07
 
   -0.83103E+06         0.23996E+07         0.00000E+00
    0.23996E+07        -0.52054E+07         0.00000E+00
    0.00000E+00         0.00000E+00        -0.12073E+07
 
    0.55499E+07        -0.42355E+05         0.00000E+00
   -0.42355E+05        -0.55015E+07         0.00000E+00
    0.00000E+00         0.00000E+00         0.96861E+04
 
    0.42687E+07        -0.20627E+06         0.00000E+00
   -0.20627E+06        -0.55381E+07         0.00000E+00
    0.00000E+00         0.00000E+00        -0.25388E+06
 
    0.33276E+07        -0.41461E+06         0.00000E+00
   -0.41461E+06        -0.56303E+07         0.00000E+00
    0.00000E+00         0.00000E+00        -0.46054E+06
 
    0.26763E+07        -0.60536E+06         0.00000E+00
   -0.60536E+06        -0.57825E+07         0.00000E+00
    0.00000E+00         0.00000E+00        -0.62123E+06
 
    0.22561E+07        -0.73288E+06         0.00000E+00
   -0.73288E+06        -0.59842E+07         0.00000E+00
    0.00000E+00         0.00000E+00        -0.74562E+06
 
    0.20060E+07        -0.76734E+06         0.00000E+00
   -0.76734E+06        -0.62167E+07         0.00000E+00
    0.00000E+00         0.00000E+00        -0.84214E+06
 
    0.18668E+07        -0.69251E+06         0.00000E+00
   -0.69251E+06        -0.64577E+07         0.00000E+00
    0.00000E+00         0.00000E+00        -0.91818E+06
 
    0.17832E+07        -0.50317E+06         0.00000E+00
   -0.50317E+06        -0.66842E+07         0.00000E+00
    0.00000E+00         0.00000E+00        -0.98021E+06
 
    0.17043E+07        -0.20274E+06         0.00000E+00
   -0.20274E+06        -0.68737E+07         0.00000E+00
    0.00000E+00         0.00000E+00        -0.10339E+07
 
    0.15835E+07         0.19802E+06         0.00000E+00
    0.19802E+06        -0.70051E+07         0.00000E+00
    0.00000E+00         0.00000E+00        -0.10843E+07
 
    0.13777E+07         0.68126E+06         0.00000E+00
    0.68126E+06        -0.70586E+07         0.00000E+00
    0.00000E+00         0.00000E+00        -0.11362E+07
 
    0.10472E+07         0.12213E+07         0.00000E+00
    0.12213E+07        -0.70164E+07         0.00000E+00
    0.00000E+00         0.00000E+00        -0.11938E+07
 
    0.55691E+06         0.17832E+07         0.00000E+00
    0.17832E+07        -0.68643E+07         0.00000E+00
    0.00000E+00         0.00000E+00        -0.12615E+07
 
   -0.12120E+06         0.23213E+07         0.00000E+00
    0.23213E+07        -0.65944E+07         0.00000E+00
    0.00000E+00         0.00000E+00        -0.13431E+07
 
   -0.10037E+07         0.27785E+07         0.00000E+00
    0.27785E+07        -0.62092E+07         0.00000E+00
    0.00000E+00         0.00000E+00        -0.14426E+07
 
    0.48947E+07        -0.11992E+06         0.00000E+00
   -0.11992E+06        -0.59754E+07         0.00000E+00
    0.00000E+00         0.00000E+00        -0.21614E+06
 
    0.35396E+07        -0.42770E+06         0.00000E+00
   -0.42770E+06        -0.60450E+07         0.00000E+00
    0.00000E+00         0.00000E+00        -0.50109E+06
 
    0.25950E+07        -0.75386E+06         0.00000E+00
   -0.75386E+06        -0.61968E+07         0.00000E+00
    0.00000E+00         0.00000E+00        -0.72035E+06
 
    0.19909E+07        -0.10287E+07         0.00000E+00
   -0.10287E+07        -0.64261E+07         0.00000E+00
    0.00000E+00         0.00000E+00        -0.88703E+06
 
    0.16502E+07        -0.12046E+07         0.00000E+00
   -0.12046E+07        -0.67135E+07         0.00000E+00
    0.00000E+00         0.00000E+00        -0.10127E+07
 
    0.14966E+07        -0.12536E+07         0.00000E+00
   -0.12536E+07        -0.70330E+07         0.00000E+00
    0.00000E+00         0.00000E+00        -0.11073E+07
 
    0.14597E+07        -0.11635E+07         0.00000E+00
   -0.11635E+07        -0.73576E+07         0.00000E+00
    0.00000E+00         0.00000E+00        -0.11796E+07
 
    0.14762E+07        -0.93295E+06         0.00000E+00
   -0.93295E+06        -0.76615E+07         0.00000E+00
    0.00000E+00         0.00000E+00        -0.12370E+07
 
    0.14897E+07        -0.56823E+06         0.00000E+00
   -0.56823E+06        -0.79210E+07         0.00000E+00
    0.00000E+00         0.00000E+00        -0.12863E+07
 
    0.14484E+07        -0.81637E+05         0.00000E+00
   -0.81637E+05        -0.81139E+07         0.00000E+00
    0.00000E+00         0.00000E+00        -0.13331E+07
 
    0.13037E+07         0.50866E+06         0.00000E+00
    0.50866E+06        -0.82185E+07         0.00000E+00
    0.00000E+00         0.00000E+00        -0.13830E+07
 
    0.10080E+07         0.11769E+07         0.00000E+00
    0.11769E+07        -0.82134E+07         0.00000E+00
    0.00000E+00         0.00000E+00        -0.14411E+07
 
    0.51613E+06         0.18872E+07         0.00000E+00
    0.18872E+07        -0.80789E+07         0.00000E+00
    0.00000E+00         0.00000E+00        -0.15126E+07
 
   -0.21302E+06         0.25899E+07         0.00000E+00
    0.25899E+07        -0.77999E+07         0.00000E+00
    0.00000E+00         0.00000E+00        -0.16026E+07
 
   -0.12106E+07         0.32198E+07         0.00000E+00
    0.32198E+07        -0.73707E+07         0.00000E+00
    0.00000E+00         0.00000E+00        -0.17163E+07
 
    0.39294E+07        -0.21540E+06         0.00000E+00
   -0.21540E+06        -0.65920E+07         0.00000E+00
    0.00000E+00         0.00000E+00        -0.53251E+06
 
    0.25223E+07        -0.69508E+06         0.00000E+00
   -0.69508E+06        -0.67014E+07         0.00000E+00
    0.00000E+00         0.00000E+00        -0.83582E+06
 
    0.16048E+07        -0.11552E+07         0.00000E+00
   -0.11552E+07        -0.69224E+07         0.00000E+00
    0.00000E+00         0.00000E+00        -0.10635E+07
 
    0.10803E+07        -0.15193E+07         0.00000E+00
   -0.15193E+07        -0.72371E+07         0.00000E+00
    0.00000E+00         0.00000E+00        -0.12314E+07
 
    0.84821E+06        -0.17407E+07         0.00000E+00
   -0.17407E+07        -0.76145E+07         0.00000E+00
    0.00000E+00         0.00000E+00        -0.13533E+07
 
    0.81504E+06        -0.17971E+07         0.00000E+00
   -0.17971E+07        -0.80206E+07         0.00000E+00
    0.00000E+00         0.00000E+00        -0.14411E+07
 
    0.89886E+06        -0.16832E+07         0.00000E+00
   -0.16832E+07        -0.84244E+07         0.00000E+00
    0.00000E+00         0.00000E+00        -0.15051E+07
 
    0.10301E+07        -0.14038E+07         0.00000E+00
   -0.14038E+07        -0.87993E+07         0.00000E+00
    0.00000E+00         0.00000E+00        -0.15538E+07
 
    0.11487E+07        -0.96897E+06         0.00000E+00
   -0.96897E+06        -0.91226E+07         0.00000E+00
    0.00000E+00         0.00000E+00        -0.15948E+07
 
    0.12004E+07        -0.39164E+06         0.00000E+00
   -0.39164E+06        -0.93728E+07         0.00000E+00
    0.00000E+00         0.00000E+00        -0.16345E+07
 
    0.11321E+07         0.31156E+06         0.00000E+00
    0.31156E+06        -0.95279E+07         0.00000E+00
    0.00000E+00         0.00000E+00        -0.16792E+07
 
    0.88873E+06         0.11177E+07         0.00000E+00
    0.11177E+07        -0.95633E+07         0.00000E+00
    0.00000E+00         0.00000E+00        -0.17349E+07
 
    0.41302E+06         0.19927E+07         0.00000E+00
    0.19927E+07        -0.94529E+07         0.00000E+00
    0.00000E+00         0.00000E+00        -0.18080E+07
 
   -0.35263E+06         0.28862E+07         0.00000E+00
    0.28862E+07        -0.91716E+07         0.00000E+00
    0.00000E+00         0.00000E+00        -0.19048E+07
 
   -0.14598E+07         0.37261E+07         0.00000E+00
    0.37261E+07        -0.87019E+07         0.00000E+00
    0.00000E+00         0.00000E+00        -0.20323E+07
 
    0.25704E+07        -0.33150E+06         0.00000E+00
   -0.33150E+06        -0.73997E+07         0.00000E+00
    0.00000E+00         0.00000E+00        -0.96586E+06
 
    0.11461E+07        -0.10129E+07         0.00000E+00
   -0.10129E+07        -0.75570E+07         0.00000E+00
    0.00000E+00         0.00000E+00        -0.12822E+07
 
    0.29870E+06        -0.16203E+07         0.00000E+00
   -0.16203E+07        -0.78568E+07         0.00000E+00
    0.00000E+00         0.00000E+00        -0.15116E+07
 
   -0.10473E+06        -0.20729E+07         0.00000E+00
   -0.20729E+07        -0.82628E+07         0.00000E+00
    0.00000E+00         0.00000E+00        -0.16735E+07
 
   -0.19385E+06        -0.23301E+07         0.00000E+00
   -0.23301E+07        -0.87291E+07         0.00000E+00
    0.00000E+00         0.00000E+00        -0.17846E+07
 
   -0.81829E+05        -0.23810E+07         0.00000E+00
   -0.23810E+07        -0.92137E+07         0.00000E+00
    0.00000E+00         0.00000E+00        -0.18591E+07
 
    0.13929E+06        -0.22318E+07         0.00000E+00
   -0.22318E+07        -0.96833E+07         0.00000E+00
    0.00000E+00         0.00000E+00        -0.19088E+07
 
    0.39660E+06        -0.18959E+07         0.00000E+00
   -0.18959E+07        -0.10114E+08         0.00000E+00
    0.00000E+00         0.00000E+00        -0.19434E+07
 
    0.63048E+06        -0.13875E+07         0.00000E+00
   -0.13875E+07        -0.10486E+08         0.00000E+00
    0.00000E+00         0.00000E+00        -0.19711E+07
 
    0.78729E+06        -0.71933E+06         0.00000E+00
   -0.71933E+06        -0.10783E+08         0.00000E+00
    0.00000E+00         0.00000E+00        -0.19992E+07
 
    0.81221E+06         0.96447E+05         0.00000E+00
    0.96447E+05        -0.10985E+08         0.00000E+00
    0.00000E+00         0.00000E+00        -0.20345E+07
 
    0.64376E+06         0.10436E+07         0.00000E+00
    0.10436E+07        -0.11063E+08         0.00000E+00
    0.00000E+00         0.00000E+00        -0.20839E+07
 
    0.21112E+06         0.20951E+07         0.00000E+00
    0.20951E+07        -0.10985E+08         0.00000E+00
    0.00000E+00         0.00000E+00        -0.21549E+07
 
   -0.56425E+06         0.32040E+07         0.00000E+00
    0.32040E+07        -0.10714E+08         0.00000E+00
    0.00000E+00         0.00000E+00        -0.22556E+07
 
   -0.17617E+07         0.42950E+07         0.00000E+00
    0.42950E+07        -0.10213E+08         0.00000E+00
    0.00000E+00         0.00000E+00        -0.23950E+07
 
    0.71384E+06        -0.47159E+06         0.00000E+00
   -0.47159E+06        -0.84628E+07         0.00000E+00
    0.00000E+00         0.00000E+00        -0.15498E+07
 
   -0.67405E+06        -0.13855E+07         0.00000E+00
   -0.13855E+07        -0.86771E+07         0.00000E+00
    0.00000E+00         0.00000E+00        -0.18702E+07
 
   -0.13912E+07        -0.21478E+07         0.00000E+00
   -0.21478E+07        -0.90648E+07         0.00000E+00
    0.00000E+00         0.00000E+00        -0.20912E+07
 
   -0.16203E+07        -0.26787E+07         0.00000E+00
   -0.26787E+07        -0.95629E+07         0.00000E+00
    0.00000E+00         0.00000E+00        -0.22366E+07
 
   -0.15277E+07        -0.29527E+07         0.00000E+00
   -0.29527E+07        -0.10108E+08         0.00000E+00
    0.00000E+00         0.00000E+00        -0.23271E+07
 
   -0.12466E+07        -0.29781E+07         0.00000E+00
   -0.29781E+07        -0.10651E+08         0.00000E+00
    0.00000E+00         0.00000E+00        -0.23795E+07
 
   -0.87620E+06        -0.27786E+07         0.00000E+00
   -0.27786E+07        -0.11160E+08         0.00000E+00
    0.00000E+00         0.00000E+00        -0.24073E+07
 
   -0.48716E+06        -0.23790E+07         0.00000E+00
   -0.23790E+07        -0.11618E+08         0.00000E+00
    0.00000E+00         0.00000E+00        -0.24211E+07
 
   -0.13310E+06        -0.17981E+07         0.00000E+00
   -0.17981E+07        -0.12015E+08         0.00000E+00
    0.00000E+00         0.00000E+00        -0.24297E+07
 
    0.13831E+06        -0.10462E+07         0.00000E+00
   -0.10462E+07        -0.12341E+08         0.00000E+00
    0.00000E+00         0.00000E+00        -0.24405E+07
 
    0.27462E+06        -0.12734E+06         0.00000E+00
   -0.12734E+06        -0.12579E+08         0.00000E+00
    0.00000E+00         0.00000E+00        -0.24608E+07
 
    0.20988E+06         0.95456E+06         0.00000E+00
    0.95456E+06        -0.12702E+08         0.00000E+00
    0.00000E+00         0.00000E+00        -0.24984E+07
 
   -0.14096E+06         0.21860E+07         0.00000E+00
    0.21860E+07        -0.12669E+08         0.00000E+00
    0.00000E+00         0.00000E+00        -0.25619E+07
 
   -0.88221E+06         0.35308E+07         0.00000E+00
    0.35308E+07        -0.12425E+08         0.00000E+00
    0.00000E+00         0.00000E+00        -0.26615E+07
 
   -0.21302E+07         0.49162E+07         0.00000E+00
    0.49162E+07        -0.11913E+08         0.00000E+00
    0.00000E+00         0.00000E+00        -0.28087E+07
 
   -0.17694E+07        -0.63997E+06         0.00000E+00
   -0.63997E+06        -0.98660E+07         0.00000E+00
    0.00000E+00         0.00000E+00        -0.23271E+07
 
   -0.30392E+07        -0.18166E+07         0.00000E+00
   -0.18166E+07        -0.10147E+08         0.00000E+00
    0.00000E+00         0.00000E+00        -0.26373E+07
 
   -0.35423E+07        -0.27310E+07         0.00000E+00
   -0.27310E+07        -0.10629E+08         0.00000E+00
    0.00000E+00         0.00000E+00        -0.28342E+07
 
   -0.35307E+07        -0.33156E+07         0.00000E+00
   -0.33156E+07        -0.11210E+08         0.00000E+00
    0.00000E+00         0.00000E+00        -0.29482E+07
 
   -0.32143E+07        -0.35742E+07         0.00000E+00
   -0.35742E+07        -0.11809E+08         0.00000E+00
    0.00000E+00         0.00000E+00        -0.30047E+07
 
   -0.27450E+07        -0.35464E+07         0.00000E+00
   -0.35464E+07        -0.12374E+08         0.00000E+00
    0.00000E+00         0.00000E+00        -0.30237E+07
 
   -0.22212E+07        -0.32794E+07         0.00000E+00
   -0.32794E+07        -0.12880E+08         0.00000E+00
    0.00000E+00         0.00000E+00        -0.30202E+07
 
   -0.17035E+07        -0.28119E+07         0.00000E+00
   -0.28119E+07        -0.13323E+08         0.00000E+00
    0.00000E+00         0.00000E+00        -0.30054E+07
 
   -0.12316E+07        -0.21661E+07         0.00000E+00
   -0.21661E+07        -0.13707E+08         0.00000E+00
    0.00000E+00         0.00000E+00        -0.29878E+07
 
   -0.84037E+06        -0.13474E+07         0.00000E+00
   -0.13474E+07        -0.14033E+08         0.00000E+00
    0.00000E+00         0.00000E+00        -0.29747E+07
 
   -0.57420E+06        -0.34734E+06         0.00000E+00
   -0.34734E+06        -0.14292E+08         0.00000E+00
    0.00000E+00         0.00000E+00        -0.29733E+07
 
   -0.49945E+06         0.84904E+06         0.00000E+00
    0.84904E+06        -0.14460E+08         0.00000E+00
    0.00000E+00         0.00000E+00        -0.29918E+07
 
   -0.71467E+06         0.22511E+07         0.00000E+00
    0.22511E+07        -0.14486E+08         0.00000E+00
    0.00000E+00         0.00000E+00        -0.30402E+07
 
   -0.13547E+07         0.38444E+07         0.00000E+00
    0.38444E+07        -0.14299E+08         0.00000E+00
    0.00000E+00         0.00000E+00        -0.31308E+07
 
   -0.25843E+07         0.55680E+07         0.00000E+00
    0.55680E+07        -0.13808E+08         0.00000E+00
    0.00000E+00         0.00000E+00        -0.32785E+07
 
   -0.50408E+07        -0.84216E+06         0.00000E+00
   -0.84216E+06        -0.11721E+08         0.00000E+00
    0.00000E+00         0.00000E+00        -0.33523E+07
 
   -0.60677E+07        -0.23076E+07         0.00000E+00
   -0.23076E+07        -0.12079E+08         0.00000E+00
    0.00000E+00         0.00000E+00        -0.36294E+07
 
   -0.62414E+07        -0.33529E+07         0.00000E+00
   -0.33529E+07        -0.12652E+08         0.00000E+00
    0.00000E+00         0.00000E+00        -0.37786E+07
 
   -0.59087E+07        -0.39458E+07         0.00000E+00
   -0.39458E+07        -0.13290E+08         0.00000E+00
    0.00000E+00         0.00000E+00        -0.38398E+07
 
   -0.53280E+07        -0.41418E+07         0.00000E+00
   -0.41418E+07        -0.13895E+08         0.00000E+00
    0.00000E+00         0.00000E+00        -0.38446E+07
 
   -0.46606E+07        -0.40262E+07         0.00000E+00
   -0.40262E+07        -0.14420E+08         0.00000E+00
    0.00000E+00         0.00000E+00        -0.38161E+07
 
   -0.39917E+07        -0.36756E+07         0.00000E+00
   -0.36756E+07        -0.14861E+08         0.00000E+00
    0.00000E+00         0.00000E+00        -0.37705E+07
 
   -0.33597E+07        -0.31416E+07         0.00000E+00
   -0.31416E+07        -0.15231E+08         0.00000E+00
    0.00000E+00         0.00000E+00        -0.37182E+07
 
   -0.27813E+07        -0.24477E+07         0.00000E+00
   -0.24477E+07        -0.15553E+08         0.00000E+00
    0.00000E+00         0.00000E+00        -0.36668E+07
 
   -0.22710E+07        -0.15914E+07         0.00000E+00
   -0.15914E+07        -0.15840E+08         0.00000E+00
    0.00000E+00         0.00000E+00        -0.36223E+07
 
   -0.18576E+07        -0.54769E+06         0.00000E+00
   -0.54769E+06        -0.16098E+08         0.00000E+00
    0.00000E+00         0.00000E+00        -0.35911E+07
 
   -0.16007E+07         0.72451E+06         0.00000E+00
    0.72451E+06        -0.16306E+08         0.00000E+00
    0.00000E+00         0.00000E+00        -0.35814E+07
 
   -0.16083E+07         0.22692E+07         0.00000E+00
    0.22692E+07        -0.16412E+08         0.00000E+00
    0.00000E+00         0.00000E+00        -0.36041E+07
 
   -0.20492E+07         0.41090E+07         0.00000E+00
    0.41090E+07        -0.16321E+08         0.00000E+00
    0.00000E+00         0.00000E+00        -0.36740E+07
 
   -0.31503E+07         0.62115E+07         0.00000E+00
    0.62115E+07        -0.15901E+08         0.00000E+00
    0.00000E+00         0.00000E+00        -0.38103E+07
 
   -0.93015E+07        -0.10850E+07         0.00000E+00
   -0.10850E+07        -0.14173E+08         0.00000E+00
    0.00000E+00         0.00000E+00        -0.46948E+07
 
   -0.98946E+07        -0.28531E+07         0.00000E+00
   -0.28531E+07        -0.14615E+08         0.00000E+00
    0.00000E+00         0.00000E+00        -0.49019E+07
 
   -0.95823E+07        -0.39776E+07         0.00000E+00
   -0.39776E+07        -0.15258E+08         0.00000E+00
    0.00000E+00         0.00000E+00        -0.49680E+07
 
   -0.88383E+07        -0.45045E+07         0.00000E+00
   -0.45045E+07        -0.15894E+08         0.00000E+00
    0.00000E+00         0.00000E+00        -0.49465E+07
 
   -0.79633E+07        -0.45763E+07         0.00000E+00
   -0.45763E+07        -0.16420E+08         0.00000E+00
    0.00000E+00         0.00000E+00        -0.48767E+07
 
   -0.71054E+07        -0.43381E+07         0.00000E+00
   -0.43381E+07        -0.16816E+08         0.00000E+00
    0.00000E+00         0.00000E+00        -0.47843E+07
 
   -0.63153E+07        -0.38952E+07         0.00000E+00
   -0.38952E+07        -0.17108E+08         0.00000E+00
    0.00000E+00         0.00000E+00        -0.46846E+07
 
   -0.55953E+07        -0.33071E+07         0.00000E+00
   -0.33071E+07        -0.17334E+08         0.00000E+00
    0.00000E+00         0.00000E+00        -0.45859E+07
 
   -0.49308E+07        -0.25937E+07         0.00000E+00
   -0.25937E+07        -0.17534E+08         0.00000E+00
    0.00000E+00         0.00000E+00        -0.44930E+07
 
   -0.43090E+07        -0.17419E+07         0.00000E+00
   -0.17419E+07        -0.17738E+08         0.00000E+00
    0.00000E+00         0.00000E+00        -0.44094E+07
 
   -0.37344E+07        -0.70849E+06         0.00000E+00
   -0.70849E+06        -0.17963E+08         0.00000E+00
    0.00000E+00         0.00000E+00        -0.43394E+07
 
   -0.32483E+07         0.57819E+06         0.00000E+00
    0.57819E+06        -0.18202E+08         0.00000E+00
    0.00000E+00         0.00000E+00        -0.42900E+07
 
   -0.29568E+07         0.22100E+07         0.00000E+00
    0.22100E+07        -0.18407E+08         0.00000E+00
    0.00000E+00         0.00000E+00        -0.42728E+07
 
   -0.30606E+07         0.42710E+07         0.00000E+00
    0.42710E+07        -0.18466E+08         0.00000E+00
    0.00000E+00         0.00000E+00        -0.43053E+07
 
   -0.38650E+07         0.67834E+07         0.00000E+00
    0.67834E+07        -0.18194E+08         0.00000E+00
    0.00000E+00         0.00000E+00        -0.44118E+07
 
   -0.14800E+08        -0.13761E+07         0.00000E+00
   -0.13761E+07        -0.17414E+08         0.00000E+00
    0.00000E+00         0.00000E+00        -0.64427E+07
 
   -0.14665E+08        -0.34311E+07         0.00000E+00
   -0.34311E+07        -0.17933E+08         0.00000E+00
    0.00000E+00         0.00000E+00        -0.65196E+07
 
   -0.13663E+08        -0.45310E+07         0.00000E+00
   -0.45310E+07        -0.18582E+08         0.00000E+00
    0.00000E+00         0.00000E+00        -0.64490E+07
 
   -0.12423E+08        -0.48847E+07         0.00000E+00
   -0.48847E+07        -0.19098E+08         0.00000E+00
    0.00000E+00         0.00000E+00        -0.63041E+07
 
   -0.11250E+08        -0.47667E+07         0.00000E+00
   -0.47667E+07        -0.19412E+08         0.00000E+00
    0.00000E+00         0.00000E+00        -0.61323E+07
 
   -0.10234E+08        -0.43853E+07         0.00000E+00
   -0.43853E+07        -0.19559E+08         0.00000E+00
    0.00000E+00         0.00000E+00        -0.59586E+07
 
   -0.93627E+07        -0.38607E+07         0.00000E+00
   -0.38607E+07        -0.19605E+08         0.00000E+00
    0.00000E+00         0.00000E+00        -0.57935E+07
 
   -0.85895E+07        -0.32474E+07         0.00000E+00
   -0.32474E+07        -0.19612E+08         0.00000E+00
    0.00000E+00         0.00000E+00        -0.56403E+07
 
   -0.78647E+07        -0.25554E+07         0.00000E+00
   -0.25554E+07        -0.19631E+08         0.00000E+00
    0.00000E+00         0.00000E+00        -0.54991E+07
 
   -0.71449E+07        -0.17608E+07         0.00000E+00
   -0.17608E+07        -0.19701E+08         0.00000E+00
    0.00000E+00         0.00000E+00        -0.53693E+07
 
   -0.64024E+07        -0.80517E+06         0.00000E+00
   -0.80517E+06        -0.19854E+08         0.00000E+00
    0.00000E+00         0.00000E+00        -0.52513E+07
 
   -0.56436E+07         0.41152E+06         0.00000E+00
    0.41152E+06        -0.20103E+08         0.00000E+00
    0.00000E+00         0.00000E+00        -0.51493E+07
 
   -0.49457E+07         0.20369E+07         0.00000E+00
    0.20369E+07        -0.20420E+08         0.00000E+00
    0.00000E+00         0.00000E+00        -0.50732E+07
 
   -0.45250E+07         0.42517E+07         0.00000E+00
    0.42517E+07        -0.20697E+08         0.00000E+00
    0.00000E+00         0.00000E+00        -0.50444E+07
 
   -0.47824E+07         0.71839E+07         0.00000E+00
    0.71839E+07        -0.20687E+08         0.00000E+00
    0.00000E+00         0.00000E+00        -0.50940E+07
 
   -0.21835E+08        -0.17211E+07         0.00000E+00
   -0.17211E+07        -0.21693E+08         0.00000E+00
    0.00000E+00         0.00000E+00        -0.87056E+07
 
   -0.20514E+08        -0.39747E+07         0.00000E+00
   -0.39747E+07        -0.22243E+08         0.00000E+00
    0.00000E+00         0.00000E+00        -0.85513E+07
 
   -0.18584E+08        -0.48650E+07         0.00000E+00
   -0.48650E+07        -0.22738E+08         0.00000E+00
    0.00000E+00         0.00000E+00        -0.82644E+07
 
   -0.16806E+08        -0.49178E+07         0.00000E+00
   -0.49178E+07        -0.22919E+08         0.00000E+00
    0.00000E+00         0.00000E+00        -0.79450E+07
 
   -0.15383E+08        -0.45735E+07         0.00000E+00
   -0.45735E+07        -0.22830E+08         0.00000E+00
    0.00000E+00         0.00000E+00        -0.76426E+07
 
   -0.14268E+08        -0.40693E+07         0.00000E+00
   -0.40693E+07        -0.22593E+08         0.00000E+00
    0.00000E+00         0.00000E+00        -0.73723E+07
 
   -0.13362E+08        -0.35061E+07         0.00000E+00
   -0.35061E+07        -0.22305E+08         0.00000E+00
    0.00000E+00         0.00000E+00        -0.71333E+07
 
   -0.12568E+08        -0.29169E+07         0.00000E+00
   -0.29169E+07        -0.22032E+08         0.00000E+00
    0.00000E+00         0.00000E+00        -0.69199E+07
 
   -0.11806E+08        -0.22975E+07         0.00000E+00
   -0.22975E+07        -0.21823E+08         0.00000E+00
    0.00000E+00         0.00000E+00        -0.67257E+07
 
   -0.11004E+08        -0.16160E+07         0.00000E+00
   -0.16160E+07        -0.21718E+08         0.00000E+00
    0.00000E+00         0.00000E+00        -0.65444E+07
 
   -0.10098E+08        -0.80877E+06         0.00000E+00
   -0.80877E+06        -0.21757E+08         0.00000E+00
    0.00000E+00         0.00000E+00        -0.63709E+07
 
   -0.90391E+07         0.23752E+06         0.00000E+00
    0.23752E+06        -0.21975E+08         0.00000E+00
    0.00000E+00         0.00000E+00        -0.62029E+07
 
   -0.78352E+07         0.17211E+07         0.00000E+00
    0.17211E+07        -0.22395E+08         0.00000E+00
    0.00000E+00         0.00000E+00        -0.60461E+07
 
   -0.66439E+07         0.39446E+07         0.00000E+00
    0.39446E+07        -0.22946E+08         0.00000E+00
    0.00000E+00         0.00000E+00        -0.59179E+07
 
   -0.60203E+07         0.72331E+07         0.00000E+00
    0.72331E+07        -0.23355E+08         0.00000E+00
    0.00000E+00         0.00000E+00        -0.59103E+07
 
   -0.30731E+08        -0.21090E+07         0.00000E+00
   -0.21090E+07        -0.27326E+08         0.00000E+00
    0.00000E+00         0.00000E+00        -0.11611E+08
 
   -0.27526E+08        -0.42974E+07         0.00000E+00
   -0.42974E+07        -0.27737E+08         0.00000E+00
    0.00000E+00         0.00000E+00        -0.11053E+08
 
   -0.24474E+08        -0.46952E+07         0.00000E+00
   -0.46952E+07        -0.27709E+08         0.00000E+00
    0.00000E+00         0.00000E+00        -0.10436E+08
 
   -0.22235E+08        -0.43753E+07         0.00000E+00
   -0.43753E+07        -0.27214E+08         0.00000E+00
    0.00000E+00         0.00000E+00        -0.98900E+07
 
   -0.20666E+08        -0.38631E+07         0.00000E+00
   -0.38631E+07        -0.26525E+08         0.00000E+00
    0.00000E+00         0.00000E+00        -0.94382E+07
 
   -0.19516E+08        -0.33235E+07         0.00000E+00
   -0.33235E+07        -0.25802E+08         0.00000E+00
    0.00000E+00         0.00000E+00        -0.90637E+07
 
   -0.18606E+08        -0.28033E+07         0.00000E+00
   -0.28033E+07        -0.25130E+08         0.00000E+00
    0.00000E+00         0.00000E+00        -0.87473E+07
 
   -0.17807E+08        -0.23057E+07         0.00000E+00
   -0.23057E+07        -0.24553E+08         0.00000E+00
    0.00000E+00         0.00000E+00        -0.84720E+07
 
   -0.17016E+08        -0.18139E+07         0.00000E+00
   -0.18139E+07        -0.24101E+08         0.00000E+00
    0.00000E+00         0.00000E+00        -0.82233E+07
 
   -0.16140E+08        -0.12950E+07         0.00000E+00
   -0.12950E+07        -0.23802E+08         0.00000E+00
    0.00000E+00         0.00000E+00        -0.79885E+07
 
   -0.15085E+08        -0.69356E+06         0.00000E+00
   -0.69356E+06        -0.23693E+08         0.00000E+00
    0.00000E+00         0.00000E+00        -0.77555E+07
 
   -0.13737E+08         0.91148E+05         0.00000E+00
    0.91148E+05        -0.23828E+08         0.00000E+00
    0.00000E+00         0.00000E+00        -0.75130E+07
 
   -0.11969E+08         0.12595E+07         0.00000E+00
    0.12595E+07        -0.24288E+08         0.00000E+00
    0.00000E+00         0.00000E+00        -0.72514E+07
 
   -0.97683E+07         0.32474E+07         0.00000E+00
    0.32474E+07        -0.25154E+08         0.00000E+00
    0.00000E+00         0.00000E+00        -0.69844E+07
 
   -0.77256E+07         0.67196E+07         0.00000E+00
    0.67196E+07        -0.26156E+08         0.00000E+00
    0.00000E+00         0.00000E+00        -0.68687E+07
 
   -0.41727E+08        -0.24330E+07         0.00000E+00
   -0.24330E+07        -0.34675E+08         0.00000E+00
    0.00000E+00         0.00000E+00        -0.15280E+08
 
   -0.35685E+08        -0.38724E+07         0.00000E+00
   -0.38724E+07        -0.34319E+08         0.00000E+00
    0.00000E+00         0.00000E+00        -0.14001E+08
 
   -0.31627E+08        -0.35815E+07         0.00000E+00
   -0.35815E+07        -0.33050E+08         0.00000E+00
    0.00000E+00         0.00000E+00        -0.12935E+08
 
   -0.29167E+08        -0.30733E+07         0.00000E+00
   -0.30733E+07        -0.31595E+08         0.00000E+00
    0.00000E+00         0.00000E+00        -0.12152E+08
 
   -0.27543E+08        -0.25897E+07         0.00000E+00
   -0.25897E+07        -0.30226E+08         0.00000E+00
    0.00000E+00         0.00000E+00        -0.11554E+08
 
   -0.26379E+08        -0.21649E+07         0.00000E+00
   -0.21649E+07        -0.29019E+08         0.00000E+00
    0.00000E+00         0.00000E+00        -0.11080E+08
 
   -0.25456E+08        -0.17933E+07         0.00000E+00
   -0.17933E+07        -0.27992E+08         0.00000E+00
    0.00000E+00         0.00000E+00        -0.10690E+08
 
   -0.24631E+08        -0.14593E+07         0.00000E+00
   -0.14593E+07        -0.27145E+08         0.00000E+00
    0.00000E+00         0.00000E+00        -0.10355E+08
 
   -0.23792E+08        -0.11436E+07         0.00000E+00
   -0.11436E+07        -0.26479E+08         0.00000E+00
    0.00000E+00         0.00000E+00        -0.10054E+08
 
   -0.22838E+08        -0.82187E+06         0.00000E+00
   -0.82187E+06        -0.26002E+08         0.00000E+00
    0.00000E+00         0.00000E+00        -0.97680E+07
 
   -0.21647E+08        -0.45735E+06         0.00000E+00
   -0.45735E+06        -0.25742E+08         0.00000E+00
    0.00000E+00         0.00000E+00        -0.94777E+07
 
   -0.20054E+08         0.14925E+05         0.00000E+00
    0.14925E+05        -0.25753E+08         0.00000E+00
    0.00000E+00         0.00000E+00        -0.91615E+07
 
   -0.17802E+08         0.73149E+06         0.00000E+00
    0.73149E+06        -0.26152E+08         0.00000E+00
    0.00000E+00         0.00000E+00        -0.87910E+07
 
   -0.14442E+08         0.20562E+07         0.00000E+00
    0.20562E+07        -0.27174E+08         0.00000E+00
    0.00000E+00         0.00000E+00        -0.83232E+07
 
   -0.10013E+08         0.52962E+07         0.00000E+00
    0.52962E+07        -0.29151E+08         0.00000E+00
    0.00000E+00         0.00000E+00        -0.78373E+07
 
   -0.54481E+08        -0.17770E+07         0.00000E+00
   -0.17770E+07        -0.43179E+08         0.00000E+00
    0.00000E+00         0.00000E+00        -0.19534E+08
 
   -0.45200E+08        -0.17002E+07         0.00000E+00
   -0.17002E+07        -0.40429E+08         0.00000E+00
    0.00000E+00         0.00000E+00        -0.17126E+08
 
   -0.40854E+08        -0.13511E+07         0.00000E+00
   -0.13511E+07        -0.37742E+08         0.00000E+00
    0.00000E+00         0.00000E+00        -0.15719E+08
 
   -0.38273E+08        -0.10978E+07         0.00000E+00
   -0.10978E+07        -0.35487E+08         0.00000E+00
    0.00000E+00         0.00000E+00        -0.14752E+08
 
   -0.36567E+08        -0.89791E+06         0.00000E+00
   -0.89791E+06        -0.33625E+08         0.00000E+00
    0.00000E+00         0.00000E+00        -0.14038E+08
 
   -0.35324E+08        -0.73718E+06         0.00000E+00
   -0.73718E+06        -0.32090E+08         0.00000E+00
    0.00000E+00         0.00000E+00        -0.13483E+08
 
   -0.34319E+08        -0.60320E+06         0.00000E+00
   -0.60320E+06        -0.30829E+08         0.00000E+00
    0.00000E+00         0.00000E+00        -0.13030E+08
 
   -0.33407E+08        -0.48649E+06         0.00000E+00
   -0.48649E+06        -0.29806E+08         0.00000E+00
    0.00000E+00         0.00000E+00        -0.12643E+08
 
   -0.32475E+08        -0.37861E+06         0.00000E+00
   -0.37861E+06        -0.28999E+08         0.00000E+00
    0.00000E+00         0.00000E+00        -0.12295E+08
 
   -0.31413E+08        -0.27046E+06         0.00000E+00
   -0.27046E+06        -0.28403E+08         0.00000E+00
    0.00000E+00         0.00000E+00        -0.11963E+08
 
   -0.30090E+08        -0.14951E+06         0.00000E+00
   -0.14951E+06        -0.28032E+08         0.00000E+00
    0.00000E+00         0.00000E+00        -0.11624E+08
 
   -0.28308E+08         0.54869E+04         0.00000E+00
    0.54869E+04        -0.27935E+08         0.00000E+00
    0.00000E+00         0.00000E+00        -0.11249E+08
 
   -0.25729E+08         0.24108E+06         0.00000E+00
    0.24108E+06        -0.28227E+08         0.00000E+00
    0.00000E+00         0.00000E+00        -0.10791E+08
 
   -0.21653E+08         0.67175E+06         0.00000E+00
    0.67175E+06        -0.29186E+08         0.00000E+00
    0.00000E+00         0.00000E+00        -0.10168E+08
 
   -0.13761E+08         0.21207E+07         0.00000E+00
    0.21207E+07        -0.31741E+08         0.00000E+00
    0.00000E+00         0.00000E+00        -0.91003E+07
 
TENSORS stresstot double 
   -0.52034E+08         0.10430E+05         0.00000E+00
    0.10430E+05        -0.59991E+08         0.00000E+00
    0.00000E+00         0.00000E+00        -0.56271E+08
 
   -0.52309E+08         0.28300E+05         0.00000E+00
    0.28300E+05        -0.59952E+08         0.00000E+00
    0.00000E+00         0.00000E+00        -0.56340E+08
 
   -0.52666E+08         0.42397E+05         0.00000E+00
    0.42397E+05        -0.59881E+08         0.00000E+00
    0.00000E+00         0.00000E+00        -0.56439E+08
 
   -0.53085E+08         0.53097E+05         0.00000E+00
    0.53097E+05        -0.59786E+08         0.00000E+00
    0.00000E+00         0.00000E+00        -0.56559E+08
 
   -0.53547E+08         0.60833E+05         0.00000E+00
    0.60833E+05        -0.59672E+08         0.00000E+00
    0.00000E+00         0.00000E+00        -0.56696E+08
 
   -0.54038E+08         0.66042E+05         0.00000E+00
    0.66042E+05        -0.59545E+08         0.00000E+00
    0.00000E+00         0.00000E+00        -0.56845E+08
 
   -0.54543E+08         0.69126E+05         0.00000E+00
    0.69126E+05        -0.59410E+08         0.00000E+00
    0.00000E+00         0.00000E+00        -0.56998E+08
 
   -0.55050E+08         0.70434E+05         0.00000E+00
    0.70434E+05        -0.59271E+08         0.00000E+00
    0.00000E+00         0.00000E+00        -0.57153E+08
 
   -0.55546E+08         0.70248E+05         0.00000E+00
    0.70248E+05        -0.59130E+08         0.00000E+00
    0.00000E+00         0.00000E+00        -0.57304E+08
 
   -0.56021E+08         0.68782E+05         0.00000E+00
    0.68782E+05        -0.58991E+08         0.00000E+00
    0.00000E+00         0.00000E+00        -0.57447E+08
 
   -0.56468E+08         0.66196E+05         0.00000E+00
    0.66196E+05        -0.58856E+08         0.00000E+00
    0.00000E+00         0.00000E+00        -0.57578E+08
 
   -0.56878E+08         0.62614E+05         0.00000E+00
    0.62614E+05        -0.58728E+08         0.00000E+00
    0.00000E+00         0.00000E+00        -0.57693E+08
 
   -0.57243E+08         0.58161E+05         0.00000E+00
    0.58161E+05        -0.58607E+08         0.00000E+00
    0.00000E+00         0.00000E+00        -0.57790E+08
 
   -0.57558E+08         0.52994E+05         0.00000E+00
    0.52994E+05        -0.58496E+08         0.00000E+00
    0.00000E+00         0.00000E+00        -0.57865E+08
 
   -0.57817E+08         0.47343E+05         0.00000E+00
    0.47343E+05        -0.58395E+08         0.00000E+00
    0.00000E+00         0.00000E+00        -0.57914E+08
 
   -0.51994E+08         0.31175E+05         0.00000E+00
    0.31175E+05        -0.59991E+08         0.00000E+00
    0.00000E+00         0.00000E+00        -0.56258E+08
 
   -0.52278E+08         0.84534E+05         0.00000E+00
    0.84534E+05        -0.59953E+08         0.00000E+00
    0.00000E+00         0.00000E+00        -0.56330E+08
 
   -0.52641E+08         0.12657E+06         0.00000E+00
    0.12657E+06        -0.59883E+08         0.00000E+00
    0.00000E+00         0.00000E+00        -0.56430E+08
 
   -0.53066E+08         0.15844E+06         0.00000E+00
    0.15844E+06        -0.59789E+08         0.00000E+00
    0.00000E+00         0.00000E+00        -0.56553E+08
 
   -0.53535E+08         0.18146E+06         0.00000E+00
    0.18146E+06        -0.59677E+08         0.00000E+00
    0.00000E+00         0.00000E+00        -0.56693E+08
 
   -0.54030E+08         0.19696E+06         0.00000E+00
    0.19696E+06        -0.59552E+08         0.00000E+00
    0.00000E+00         0.00000E+00        -0.56843E+08
 
   -0.54539E+08         0.20617E+06         0.00000E+00
    0.20617E+06        -0.59420E+08         0.00000E+00
    0.00000E+00         0.00000E+00        -0.57000E+08
 
   -0.55049E+08         0.21012E+06         0.00000E+00
    0.21012E+06        -0.59283E+08         0.00000E+00
    0.00000E+00         0.00000E+00        -0.57156E+08
 
   -0.55547E+08         0.20966E+06         0.00000E+00
    0.20966E+06        -0.59144E+08         0.00000E+00
    0.00000E+00         0.00000E+00        -0.57309E+08
 
   -0.56025E+08         0.20542E+06         0.00000E+00
    0.20542E+06        -0.59008E+08         0.00000E+00
    0.00000E+00         0.00000E+00        -0.57454E+08
 
   -0.56474E+08         0.19785E+06         0.00000E+00
    0.19785E+06        -0.58874E+08         0.00000E+00
    0.00000E+00         0.00000E+00        -0.57586E+08
 
   -0.56886E+08         0.18733E+06         0.00000E+00
    0.18733E+06        -0.58747E+08         0.00000E+00
    0.00000E+00         0.00000E+00        -0.57703E+08
 
   -0.57253E+08         0.17417E+06         0.00000E+00
    0.17417E+06        -0.58627E+08         0.00000E+00
    0.00000E+00         0.00000E+00        -0.57800E+08
 
   -0.57569E+08         0.15884E+06         0.00000E+00
    0.15884E+06        -0.58516E+08         0.00000E+00
    0.00000E+00         0.00000E+00        -0.57876E+08
 
   -0.57829E+08         0.14199E+06         0.00000E+00
    0.14199E+06        -0.58416E+08         0.00000E+00
    0.00000E+00         0.00000E+00        -0.57926E+08
 
   -0.51915E+08         0.51571E+05         0.00000E+00
    0.51571E+05        -0.59991E+08         0.00000E+00
    0.00000E+00         0.00000E+00        -0.56232E+08
 
   -0.52215E+08         0.13965E+06         0.00000E+00
    0.13965E+06        -0.59954E+08         0.00000E+00
    0.00000E+00         0.00000E+00        -0.56308E+08
 
   -0.52593E+08         0.20883E+06         0.00000E+00
    0.20883E+06        -0.59886E+08         0.00000E+00
    0.00000E+00         0.00000E+00        -0.56413E+08
 
   -0.53030E+08         0.26117E+06         0.00000E+00
    0.26117E+06        -0.59795E+08         0.00000E+00
    0.00000E+00         0.00000E+00        -0.56541E+08
 
   -0.53509E+08         0.29892E+06         0.00000E+00
    0.29892E+06        -0.59687E+08         0.00000E+00
    0.00000E+00         0.00000E+00        -0.56686E+08
 
   -0.54014E+08         0.32435E+06         0.00000E+00
    0.32435E+06        -0.59567E+08         0.00000E+00
    0.00000E+00         0.00000E+00        -0.56841E+08
 
   -0.54531E+08         0.33954E+06         0.00000E+00
    0.33954E+06        -0.59439E+08         0.00000E+00
    0.00000E+00         0.00000E+00        -0.57002E+08
 
   -0.55046E+08         0.34622E+06         0.00000E+00
    0.34622E+06        -0.59307E+08         0.00000E+00
    0.00000E+00         0.00000E+00        -0.57163E+08
 
   -0.55550E+08         0.34577E+06         0.00000E+00
    0.34577E+06        -0.59174E+08         0.00000E+00
    0.00000E+00         0.00000E+00        -0.57320E+08
 
   -0.56033E+08         0.33923E+06         0.00000E+00
    0.33923E+06        -0.59041E+08         0.00000E+00
    0.00000E+00         0.00000E+00        -0.57468E+08
 
   -0.56486E+08         0.32729E+06         0.00000E+00
    0.32729E+06        -0.58911E+08         0.00000E+00
    0.00000E+00         0.00000E+00        -0.57603E+08
 
   -0.56901E+08         0.31048E+06         0.00000E+00
    0.31048E+06        -0.58786E+08         0.00000E+00
    0.00000E+00         0.00000E+00        -0.57722E+08
 
   -0.57271E+08         0.28927E+06         0.00000E+00
    0.28927E+06        -0.58668E+08         0.00000E+00
    0.00000E+00         0.00000E+00        -0.57822E+08
 
   -0.57590E+08         0.26429E+06         0.00000E+00
    0.26429E+06        -0.58558E+08         0.00000E+00
    0.00000E+00         0.00000E+00        -0.57898E+08
 
   -0.57852E+08         0.23656E+06         0.00000E+00
    0.23656E+06        -0.58458E+08         0.00000E+00
    0.00000E+00         0.00000E+00        -0.57949E+08
 
   -0.51798E+08         0.71356E+05         0.00000E+00
    0.71356E+05        -0.59992E+08         0.00000E+00
    0.00000E+00         0.00000E+00        -0.56194E+08
 
   -0.52121E+08         0.19281E+06         0.00000E+00
    0.19281E+06        -0.59956E+08         0.00000E+00
    0.00000E+00         0.00000E+00        -0.56276E+08
 
   -0.52521E+08         0.28781E+06         0.00000E+00
    0.28781E+06        -0.59891E+08         0.00000E+00
    0.00000E+00         0.00000E+00        -0.56388E+08
 
   -0.52977E+08         0.35940E+06         0.00000E+00
    0.35940E+06        -0.59805E+08         0.00000E+00
    0.00000E+00         0.00000E+00        -0.56523E+08
 
   -0.53472E+08         0.41094E+06         0.00000E+00
    0.41094E+06        -0.59703E+08         0.00000E+00
    0.00000E+00         0.00000E+00        -0.56675E+08
 
   -0.53990E+08         0.44569E+06         0.00000E+00
    0.44569E+06        -0.59590E+08         0.00000E+00
    0.00000E+00         0.00000E+00        -0.56838E+08
 
   -0.54518E+08         0.46661E+06         0.00000E+00
    0.46661E+06        -0.59470E+08         0.00000E+00
    0.00000E+00         0.00000E+00        -0.57006E+08
 
   -0.55042E+08         0.47617E+06         0.00000E+00
    0.47617E+06        -0.59345E+08         0.00000E+00
    0.00000E+00         0.00000E+00        -0.57173E+08
 
   -0.55554E+08         0.47627E+06         0.00000E+00
    0.47627E+06        -0.59219E+08         0.00000E+00
    0.00000E+00         0.00000E+00        -0.57335E+08
 
   -0.56044E+08         0.46824E+06         0.00000E+00
    0.46824E+06        -0.59093E+08         0.00000E+00
    0.00000E+00         0.00000E+00        -0.57488E+08
 
   -0.56503E+08         0.45297E+06         0.00000E+00
    0.45297E+06        -0.58968E+08         0.00000E+00
    0.00000E+00         0.00000E+00        -0.57628E+08
 
   -0.56923E+08         0.43102E+06         0.00000E+00
    0.43102E+06        -0.58847E+08         0.00000E+00
    0.00000E+00         0.00000E+00        -0.57751E+08
 
   -0.57299E+08         0.40286E+06         0.00000E+00
    0.40286E+06        -0.58731E+08         0.00000E+00
    0.00000E+00         0.00000E+00        -0.57853E+08
 
   -0.57622E+08         0.36918E+06         0.00000E+00
    0.36918E+06        -0.58622E+08         0.00000E+00
    0.00000E+00         0.00000E+00        -0.57932E+08
 
   -0.57886E+08         0.33114E+06         0.00000E+00
    0.33114E+06        -0.58523E+08         0.00000E+00
    0.00000E+00         0.00000E+00        -0.57984E+08
 
   -0.51645E+08         0.90225E+05         0.00000E+00
    0.90225E+05        -0.59992E+08         0.00000E+00
    0.00000E+00         0.00000E+00        -0.56143E+08
 
   -0.52000E+08         0.24309E+06         0.00000E+00
    0.24309E+06        -0.59958E+08         0.00000E+00
    0.00000E+00         0.00000E+00        -0.56233E+08
 
   -0.52428E+08         0.36194E+06         0.00000E+00
    0.36194E+06        -0.59898E+08         0.00000E+00
    0.00000E+00         0.00000E+00        -0.56355E+08
 
   -0.52909E+08         0.45105E+06         0.00000E+00
    0.45105E+06        -0.59819E+08         0.00000E+00
    0.00000E+00         0.00000E+00        -0.56500E+08
 
   -0.53424E+08         0.51501E+06         0.00000E+00
    0.51501E+06        -0.59726E+08         0.00000E+00
    0.00000E+00         0.00000E+00        -0.56662E+08
 
   -0.53959E+08         0.55821E+06         0.00000E+00
    0.55821E+06        -0.59622E+08         0.00000E+00
    0.00000E+00         0.00000E+00        -0.56834E+08
 
   -0.54501E+08         0.58455E+06         0.00000E+00
    0.58455E+06        -0.59513E+08         0.00000E+00
    0.00000E+00         0.00000E+00        -0.57010E+08
 
   -0.55037E+08         0.59723E+06         0.00000E+00
    0.59723E+06        -0.59399E+08         0.00000E+00
    0.00000E+00         0.00000E+00        -0.57186E+08
 
   -0.55558E+08         0.59863E+06         0.00000E+00
    0.59863E+06        -0.59282E+08         0.00000E+00
    0.00000E+00         0.00000E+00        -0.57356E+08
 
   -0.56056E+08         0.59034E+06         0.00000E+00
    0.59034E+06        -0.59165E+08         0.00000E+00
    0.00000E+00         0.00000E+00        -0.57515E+08
 
   -0.56523E+08         0.57327E+06         0.00000E+00
    0.57327E+06        -0.59047E+08         0.00000E+00
    0.00000E+00         0.00000E+00        -0.57661E+08
 
   -0.56951E+08         0.54787E+06         0.00000E+00
    0.54787E+06        -0.58932E+08         0.00000E+00
    0.00000E+00         0.00000E+00        -0.57789E+08
 
   -0.57333E+08         0.51444E+06         0.00000E+00
    0.51444E+06        -0.58819E+08         0.00000E+00
    0.00000E+00         0.00000E+00        -0.57895E+08
 
   -0.57662E+08         0.47346E+06         0.00000E+00
    0.47346E+06        -0.58712E+08         0.00000E+00
    0.00000E+00         0.00000E+00        -0.57976E+08
 
   -0.57931E+08         0.42605E+06         0.00000E+00
    0.42605E+06        -0.58612E+08         0.00000E+00
    0.00000E+00         0.00000E+00        -0.58030E+08
 
   -0.51457E+08         0.10782E+06         0.00000E+00
    0.10782E+06        -0.59993E+08         0.00000E+00
    0.00000E+00         0.00000E+00        -0.56080E+08
 
   -0.51852E+08         0.28939E+06         0.00000E+00
    0.28939E+06        -0.59962E+08         0.00000E+00
    0.00000E+00         0.00000E+00        -0.56181E+08
 
   -0.52315E+08         0.42943E+06         0.00000E+00
    0.42943E+06        -0.59908E+08         0.00000E+00
    0.00000E+00         0.00000E+00        -0.56314E+08
 
   -0.52826E+08         0.53374E+06         0.00000E+00
    0.53374E+06        -0.59838E+08         0.00000E+00
    0.00000E+00         0.00000E+00        -0.56472E+08
 
   -0.53367E+08         0.60831E+06         0.00000E+00
    0.60831E+06        -0.59756E+08         0.00000E+00
    0.00000E+00         0.00000E+00        -0.56646E+08
 
   -0.53922E+08         0.65881E+06         0.00000E+00
    0.65881E+06        -0.59666E+08         0.00000E+00
    0.00000E+00         0.00000E+00        -0.56829E+08
 
   -0.54479E+08         0.69017E+06         0.00000E+00
    0.69017E+06        -0.59570E+08         0.00000E+00
    0.00000E+00         0.00000E+00        -0.57017E+08
 
   -0.55029E+08         0.70632E+06         0.00000E+00
    0.70632E+06        -0.59470E+08         0.00000E+00
    0.00000E+00         0.00000E+00        -0.57202E+08
 
   -0.55561E+08         0.71008E+06         0.00000E+00
    0.71008E+06        -0.59366E+08         0.00000E+00
    0.00000E+00         0.00000E+00        -0.57381E+08
 
   -0.56068E+08         0.70319E+06         0.00000E+00
    0.70319E+06        -0.59260E+08         0.00000E+00
    0.00000E+00         0.00000E+00        -0.57549E+08
 
   -0.56544E+08         0.68643E+06         0.00000E+00
    0.68643E+06        -0.59152E+08         0.00000E+00
    0.00000E+00         0.00000E+00        -0.57702E+08
 
   -0.56981E+08         0.65994E+06         0.00000E+00
    0.65994E+06        -0.59043E+08         0.00000E+00
    0.00000E+00         0.00000E+00        -0.57835E+08
 
   -0.57372E+08         0.62355E+06         0.00000E+00
    0.62355E+06        -0.58934E+08         0.00000E+00
    0.00000E+00         0.00000E+00        -0.57946E+08
 
   -0.57710E+08         0.57730E+06         0.00000E+00
    0.57730E+06        -0.58829E+08         0.00000E+00
    0.00000E+00         0.00000E+00        -0.58031E+08
 
   -0.57985E+08         0.52192E+06         0.00000E+00
    0.52192E+06        -0.58728E+08         0.00000E+00
    0.00000E+00         0.00000E+00        -0.58087E+08
 
   -0.51238E+08         0.12370E+06         0.00000E+00
    0.12370E+06        -0.59993E+08         0.00000E+00
    0.00000E+00         0.00000E+00        -0.56006E+08
 
   -0.51681E+08         0.33040E+06         0.00000E+00
    0.33040E+06        -0.59967E+08         0.00000E+00
    0.00000E+00         0.00000E+00        -0.56120E+08
 
   -0.52186E+08         0.48820E+06         0.00000E+00
    0.48820E+06        -0.59921E+08         0.00000E+00
    0.00000E+00         0.00000E+00        -0.56267E+08
 
   -0.52733E+08         0.60470E+06         0.00000E+00
    0.60470E+06        -0.59862E+08         0.00000E+00
    0.00000E+00         0.00000E+00        -0.56439E+08
 
   -0.53302E+08         0.68760E+06         0.00000E+00
    0.68760E+06        -0.59795E+08         0.00000E+00
    0.00000E+00         0.00000E+00        -0.56627E+08
 
   -0.53879E+08         0.74398E+06         0.00000E+00
    0.74398E+06        -0.59721E+08         0.00000E+00
    0.00000E+00         0.00000E+00        -0.56824E+08
 
   -0.54454E+08         0.77989E+06         0.00000E+00
    0.77989E+06        -0.59643E+08         0.00000E+00
    0.00000E+00         0.00000E+00        -0.57024E+08
 
   -0.55017E+08         0.80001E+06         0.00000E+00
    0.80001E+06        -0.59560E+08         0.00000E+00
    0.00000E+00         0.00000E+00        -0.57221E+08
 
   -0.55561E+08         0.80754E+06         0.00000E+00
    0.80754E+06        -0.59474E+08         0.00000E+00
    0.00000E+00         0.00000E+00        -0.57411E+08
 
   -0.56079E+08         0.80423E+06         0.00000E+00
    0.80423E+06        -0.59382E+08         0.00000E+00
    0.00000E+00         0.00000E+00        -0.57588E+08
 
   -0.56565E+08         0.79056E+06         0.00000E+00
    0.79056E+06        -0.59285E+08         0.00000E+00
    0.00000E+00         0.00000E+00        -0.57749E+08
 
   -0.57012E+08         0.76607E+06         0.00000E+00
    0.76607E+06        -0.59185E+08         0.00000E+00
    0.00000E+00         0.00000E+00        -0.57889E+08
 
   -0.57414E+08         0.72986E+06         0.00000E+00
    0.72986E+06        -0.59081E+08         0.00000E+00
    0.00000E+00         0.00000E+00        -0.58006E+08
 
   -0.57763E+08         0.68111E+06         0.00000E+00
    0.68111E+06        -0.58976E+08         0.00000E+00
    0.00000E+00         0.00000E+00        -0.58096E+08
 
   -0.58049E+08         0.61979E+06         0.00000E+00
    0.61979E+06        -0.58874E+08         0.00000E+00
    0.00000E+00         0.00000E+00        -0.58154E+08
 
   -0.50992E+08         0.13734E+06         0.00000E+00
    0.13734E+06        -0.59995E+08         0.00000E+00
    0.00000E+00         0.00000E+00        -0.55921E+08
 
   -0.51491E+08         0.36460E+06         0.00000E+00
    0.36460E+06        -0.59973E+08         0.00000E+00
    0.00000E+00         0.00000E+00        -0.56050E+08
 
   -0.52045E+08         0.53582E+06         0.00000E+00
    0.53582E+06        -0.59937E+08         0.00000E+00
    0.00000E+00         0.00000E+00        -0.56214E+08
 
   -0.52630E+08         0.66080E+06         0.00000E+00
    0.66080E+06        -0.59893E+08         0.00000E+00
    0.00000E+00         0.00000E+00        -0.56402E+08
 
   -0.53230E+08         0.74919E+06         0.00000E+00
    0.74919E+06        -0.59844E+08         0.00000E+00
    0.00000E+00         0.00000E+00        -0.56606E+08
 
   -0.53832E+08         0.80973E+06         0.00000E+00
    0.80973E+06        -0.59791E+08         0.00000E+00
    0.00000E+00         0.00000E+00        -0.56818E+08
 
   -0.54424E+08         0.84967E+06         0.00000E+00
    0.84967E+06        -0.59735E+08         0.00000E+00
    0.00000E+00         0.00000E+00        -0.57033E+08
 
   -0.55001E+08         0.87445E+06         0.00000E+00
    0.87445E+06        -0.59674E+08         0.00000E+00
    0.00000E+00         0.00000E+00        -0.57243E+08
 
   -0.55556E+08         0.88757E+06         0.00000E+00
    0.88757E+06        -0.59607E+08         0.00000E+00
    0.00000E+00         0.00000E+00        -0.57444E+08
 
   -0.56084E+08         0.89064E+06         0.00000E+00
    0.89064E+06        -0.59534E+08         0.00000E+00
    0.00000E+00         0.00000E+00        -0.57631E+08
 
   -0.56581E+08         0.88361E+06         0.00000E+00
    0.88361E+06        -0.59451E+08         0.00000E+00
    0.00000E+00         0.00000E+00        -0.57801E+08
 
   -0.57040E+08         0.86512E+06         0.00000E+00
    0.86512E+06        -0.59360E+08         0.00000E+00
    0.00000E+00         0.00000E+00        -0.57950E+08
 
   -0.57455E+08         0.83315E+06         0.00000E+00
    0.83315E+06        -0.59262E+08         0.00000E+00
    0.00000E+00         0.00000E+00        -0.58074E+08
 
   -0.57818E+08         0.78559E+06         0.00000E+00
    0.78559E+06        -0.59158E+08         0.00000E+00
    0.00000E+00         0.00000E+00        -0.58168E+08
 
   -0.58119E+08         0.72119E+06         0.00000E+00
    0.72119E+06        -0.59054E+08         0.00000E+00
    0.00000E+00         0.00000E+00        -0.58230E+08
 
   -0.50723E+08         0.14813E+06         0.00000E+00
    0.14813E+06        -0.59996E+08         0.00000E+00
    0.00000E+00         0.00000E+00        -0.55826E+08
 
   -0.51287E+08         0.39019E+06         0.00000E+00
    0.39019E+06        -0.59981E+08         0.00000E+00
    0.00000E+00         0.00000E+00        -0.55972E+08
 
   -0.51895E+08         0.56946E+06         0.00000E+00
    0.56946E+06        -0.59958E+08         0.00000E+00
    0.00000E+00         0.00000E+00        -0.56154E+08
 
   -0.52523E+08         0.69839E+06         0.00000E+00
    0.69839E+06        -0.59932E+08         0.00000E+00
    0.00000E+00         0.00000E+00        -0.56361E+08
 
   -0.53156E+08         0.78890E+06         0.00000E+00
    0.78890E+06        -0.59905E+08         0.00000E+00
    0.00000E+00         0.00000E+00        -0.56583E+08
 
   -0.53781E+08         0.85157E+06         0.00000E+00
    0.85157E+06        -0.59877E+08         0.00000E+00
    0.00000E+00         0.00000E+00        -0.56812E+08
 
   -0.54390E+08         0.89497E+06         0.00000E+00
    0.89497E+06        -0.59848E+08         0.00000E+00
    0.00000E+00         0.00000E+00        -0.57041E+08
 
   -0.54979E+08         0.92532E+06         0.00000E+00
    0.92532E+06        -0.59813E+08         0.00000E+00
    0.00000E+00         0.00000E+00        -0.57265E+08
 
   -0.55543E+08         0.94633E+06         0.00000E+00
    0.94633E+06        -0.59771E+08         0.00000E+00
    0.00000E+00         0.00000E+00        -0.57479E+08
 
   -0.56081E+08         0.95929E+06         0.00000E+00
    0.95929E+06        -0.59719E+08         0.00000E+00
    0.00000E+00         0.00000E+00        -0.57677E+08
 
   -0.56588E+08         0.96333E+06         0.00000E+00
    0.96333E+06        -0.59654E+08         0.00000E+00
    0.00000E+00         0.00000E+00        -0.57858E+08
 
   -0.57060E+08         0.95590E+06         0.00000E+00
    0.95590E+06        -0.59574E+08         0.00000E+00
    0.00000E+00         0.00000E+00        -0.58015E+08
 
   -0.57491E+08         0.93335E+06         0.00000E+00
    0.93335E+06        -0.59482E+08         0.00000E+00
    0.00000E+00         0.00000E+00        -0.58146E+08
 
   -0.57873E+08         0.89185E+06         0.00000E+00
    0.89185E+06        -0.59379E+08         0.00000E+00
    0.00000E+00         0.00000E+00        -0.58246E+08
 
   -0.58193E+08         0.82826E+06         0.00000E+00
    0.82826E+06        -0.59269E+08         0.00000E+00
    0.00000E+00         0.00000E+00        -0.58312E+08
 
   -0.50439E+08         0.15533E+06         0.00000E+00
    0.15533E+06        -0.59998E+08         0.00000E+00
    0.00000E+00         0.00000E+00        -0.55722E+08
 
   -0.51076E+08         0.40510E+06         0.00000E+00
    0.40510E+06        -0.59991E+08         0.00000E+00
    0.00000E+00         0.00000E+00        -0.55887E+08
 
   -0.51742E+08         0.58592E+06         0.00000E+00
    0.58592E+06        -0.59983E+08         0.00000E+00
    0.00000E+00         0.00000E+00        -0.56089E+08
 
   -0.52416E+08         0.71335E+06         0.00000E+00
    0.71335E+06        -0.59979E+08         0.00000E+00
    0.00000E+00         0.00000E+00        -0.56316E+08
 
   -0.53081E+08         0.80198E+06         0.00000E+00
    0.80198E+06        -0.59979E+08         0.00000E+00
    0.00000E+00         0.00000E+00        -0.56557E+08
 
   -0.53728E+08         0.86446E+06         0.00000E+00
    0.86446E+06        -0.59982E+08         0.00000E+00
    0.00000E+00         0.00000E+00        -0.56803E+08
 
   -0.54352E+08         0.91077E+06         0.00000E+00
    0.91077E+06        -0.59984E+08         0.00000E+00
    0.00000E+00         0.00000E+00        -0.57049E+08
 
   -0.54949E+08         0.94788E+06         0.00000E+00
    0.94788E+06        -0.59982E+08         0.00000E+00
    0.00000E+00         0.00000E+00        -0.57287E+08
 
   -0.55520E+08         0.97963E+06         0.00000E+00
    0.97963E+06        -0.59969E+08         0.00000E+00
    0.00000E+00         0.00000E+00        -0.57513E+08
 
   -0.56064E+08         0.10068E+07         0.00000E+00
    0.10068E+07        -0.59942E+08         0.00000E+00
    0.00000E+00         0.00000E+00        -0.57724E+08
 
   -0.56581E+08         0.10274E+07         0.00000E+00
    0.10274E+07        -0.59897E+08         0.00000E+00
    0.00000E+00         0.00000E+00        -0.57914E+08
 
   -0.57066E+08         0.10372E+07         0.00000E+00
    0.10372E+07        -0.59831E+08         0.00000E+00
    0.00000E+00         0.00000E+00        -0.58081E+08
 
   -0.57516E+08         0.10306E+07         0.00000E+00
    0.10306E+07        -0.59745E+08         0.00000E+00
    0.00000E+00         0.00000E+00        -0.58220E+08
 
   -0.57920E+08         0.10014E+07         0.00000E+00
    0.10014E+07        -0.59641E+08         0.00000E+00
    0.00000E+00         0.00000E+00        -0.58328E+08
 
   -0.58267E+08         0.94385E+06         0.00000E+00
    0.94385E+06        -0.59524E+08         0.00000E+00
    0.00000E+00         0.00000E+00        -0.58399E+08
 
   -0.50147E+08         0.15810E+06         0.00000E+00
    0.15810E+06        -0.60000E+08         0.00000E+00
    0.00000E+00         0.00000E+00        -0.55608E+08
 
   -0.50864E+08         0.40694E+06         0.00000E+00
    0.40694E+06        -0.60002E+08         0.00000E+00
    0.00000E+00         0.00000E+00        -0.55795E+08
 
   -0.51594E+08         0.58152E+06         0.00000E+00
    0.58152E+06        -0.60013E+08         0.00000E+00
    0.00000E+00         0.00000E+00        -0.56019E+08
 
   -0.52313E+08         0.70106E+06         0.00000E+00
    0.70106E+06        -0.60035E+08         0.00000E+00
    0.00000E+00         0.00000E+00        -0.56267E+08
 
   -0.53009E+08         0.78321E+06         0.00000E+00
    0.78321E+06        -0.60068E+08         0.00000E+00
    0.00000E+00         0.00000E+00        -0.56528E+08
 
   -0.53675E+08         0.84287E+06         0.00000E+00
    0.84287E+06        -0.60107E+08         0.00000E+00
    0.00000E+00         0.00000E+00        -0.56792E+08
 
   -0.54308E+08         0.89155E+06         0.00000E+00
    0.89155E+06        -0.60147E+08         0.00000E+00
    0.00000E+00         0.00000E+00        -0.57053E+08
 
   -0.54910E+08         0.93696E+06         0.00000E+00
    0.93696E+06        -0.60182E+08         0.00000E+00
    0.00000E+00         0.00000E+00        -0.57306E+08
 
   -0.55483E+08         0.98291E+06         0.00000E+00
    0.98291E+06        -0.60203E+08         0.00000E+00
    0.00000E+00         0.00000E+00        -0.57545E+08
 
   -0.56030E+08         0.10294E+07         0.00000E+00
    0.10294E+07        -0.60206E+08         0.00000E+00
    0.00000E+00         0.00000E+00        -0.57767E+08
 
   -0.56553E+08         0.10731E+07         0.00000E+00
    0.10731E+07        -0.60184E+08         0.00000E+00
    0.00000E+00         0.00000E+00        -0.57968E+08
 
   -0.57052E+08         0.11078E+07         0.00000E+00
    0.11078E+07        -0.60134E+08         0.00000E+00
    0.00000E+00         0.00000E+00        -0.58144E+08
 
   -0.57522E+08         0.11252E+07         0.00000E+00
    0.11252E+07        -0.60054E+08         0.00000E+00
    0.00000E+00         0.00000E+00        -0.58292E+08
 
   -0.57955E+08         0.11162E+07         0.00000E+00
    0.11162E+07        -0.59948E+08         0.00000E+00
    0.00000E+00         0.00000E+00        -0.58407E+08
 
   -0.58337E+08         0.10716E+07         0.00000E+00
    0.10716E+07        -0.59821E+08         0.00000E+00
    0.00000E+00         0.00000E+00        -0.58484E+08
 
   -0.49857E+08         0.15549E+06         0.00000E+00
    0.15549E+06        -0.60003E+08         0.00000E+00
    0.00000E+00         0.00000E+00        -0.55486E+08
 
   -0.50662E+08         0.39303E+06         0.00000E+00
    0.39303E+06        -0.60017E+08         0.00000E+00
    0.00000E+00         0.00000E+00        -0.55697E+08
 
   -0.51457E+08         0.55219E+06         0.00000E+00
    0.55219E+06        -0.60050E+08         0.00000E+00
    0.00000E+00         0.00000E+00        -0.55944E+08
 
   -0.52221E+08         0.65645E+06         0.00000E+00
    0.65645E+06        -0.60103E+08         0.00000E+00
    0.00000E+00         0.00000E+00        -0.56213E+08
 
   -0.52944E+08         0.72686E+06         0.00000E+00
    0.72686E+06        -0.60173E+08         0.00000E+00
    0.00000E+00         0.00000E+00        -0.56494E+08
 
   -0.53623E+08         0.78084E+06         0.00000E+00
    0.78084E+06        -0.60255E+08         0.00000E+00
    0.00000E+00         0.00000E+00        -0.56775E+08
 
   -0.54259E+08         0.83146E+06         0.00000E+00
    0.83146E+06        -0.60339E+08         0.00000E+00
    0.00000E+00         0.00000E+00        -0.57052E+08
 
   -0.54857E+08         0.88710E+06         0.00000E+00
    0.88710E+06        -0.60416E+08         0.00000E+00
    0.00000E+00         0.00000E+00        -0.57318E+08
 
   -0.55425E+08         0.95139E+06         0.00000E+00
    0.95139E+06        -0.60477E+08         0.00000E+00
    0.00000E+00         0.00000E+00        -0.57569E+08
 
   -0.55970E+08         0.10234E+07         0.00000E+00
    0.10234E+07        -0.60514E+08         0.00000E+00
    0.00000E+00         0.00000E+00        -0.57801E+08
 
   -0.56497E+08         0.10980E+07         0.00000E+00
    0.10980E+07        -0.60518E+08         0.00000E+00
    0.00000E+00         0.00000E+00        -0.58012E+08
 
   -0.57008E+08         0.11666E+07         0.00000E+00
    0.11666E+07        -0.60485E+08         0.00000E+00
    0.00000E+00         0.00000E+00        -0.58198E+08
 
   -0.57501E+08         0.12178E+07         0.00000E+00
    0.12178E+07        -0.60413E+08         0.00000E+00
    0.00000E+00         0.00000E+00        -0.58354E+08
 
   -0.57968E+08         0.12386E+07         0.00000E+00
    0.12386E+07        -0.60303E+08         0.00000E+00
    0.00000E+00         0.00000E+00        -0.58478E+08
 
   -0.58394E+08         0.12159E+07         0.00000E+00
    0.12159E+07        -0.60162E+08         0.00000E+00
    0.00000E+00         0.00000E+00        -0.58563E+08
 
   -0.49581E+08         0.14640E+06         0.00000E+00
    0.14640E+06        -0.60006E+08         0.00000E+00
    0.00000E+00         0.00000E+00        -0.55356E+08
 
   -0.50479E+08         0.36039E+06         0.00000E+00
    0.36039E+06        -0.60034E+08         0.00000E+00
    0.00000E+00         0.00000E+00        -0.55591E+08
 
   -0.51340E+08         0.49348E+06         0.00000E+00
    0.49348E+06        -0.60093E+08         0.00000E+00
    0.00000E+00         0.00000E+00        -0.55862E+08
 
   -0.52147E+08         0.57403E+06         0.00000E+00
    0.57403E+06        -0.60182E+08         0.00000E+00
    0.00000E+00         0.00000E+00        -0.56154E+08
 
   -0.52891E+08         0.62688E+06         0.00000E+00
    0.62688E+06        -0.60296E+08         0.00000E+00
    0.00000E+00         0.00000E+00        -0.56453E+08
 
   -0.53574E+08         0.67213E+06         0.00000E+00
    0.67213E+06        -0.60426E+08         0.00000E+00
    0.00000E+00         0.00000E+00        -0.56751E+08
 
   -0.54203E+08         0.72443E+06         0.00000E+00
    0.72443E+06        -0.60560E+08         0.00000E+00
    0.00000E+00         0.00000E+00        -0.57041E+08
 
   -0.54789E+08         0.79270E+06         0.00000E+00
    0.79270E+06        -0.60686E+08         0.00000E+00
    0.00000E+00         0.00000E+00        -0.57318E+08
 
   -0.55343E+08         0.88021E+06         0.00000E+00
    0.88021E+06        -0.60792E+08         0.00000E+00
    0.00000E+00         0.00000E+00        -0.57579E+08
 
   -0.55878E+08         0.98480E+06         0.00000E+00
    0.98480E+06        -0.60867E+08         0.00000E+00
    0.00000E+00         0.00000E+00        -0.57820E+08
 
   -0.56403E+08         0.10994E+07         0.00000E+00
    0.10994E+07        -0.60901E+08         0.00000E+00
    0.00000E+00         0.00000E+00        -0.58040E+08
 
   -0.56924E+08         0.12125E+07         0.00000E+00
    0.12125E+07        -0.60887E+08         0.00000E+00
    0.00000E+00         0.00000E+00        -0.58234E+08
 
   -0.57441E+08         0.13091E+07         0.00000E+00
    0.13091E+07        -0.60822E+08         0.00000E+00
    0.00000E+00         0.00000E+00        -0.58400E+08
 
   -0.57949E+08         0.13717E+07         0.00000E+00
    0.13717E+07        -0.60707E+08         0.00000E+00
    0.00000E+00         0.00000E+00        -0.58533E+08
 
   -0.58430E+08         0.13821E+07         0.00000E+00
    0.13821E+07        -0.60547E+08         0.00000E+00
    0.00000E+00         0.00000E+00        -0.58626E+08
 
   -0.49332E+08         0.12964E+06         0.00000E+00
    0.12964E+06        -0.60009E+08         0.00000E+00
    0.00000E+00         0.00000E+00        -0.55217E+08
 
   -0.50328E+08         0.30576E+06         0.00000E+00
    0.30576E+06        -0.60053E+08         0.00000E+00
    0.00000E+00         0.00000E+00        -0.55478E+08
 
   -0.51255E+08         0.40058E+06         0.00000E+00
    0.40058E+06        -0.60143E+08         0.00000E+00
    0.00000E+00         0.00000E+00        -0.55773E+08
 
   -0.52097E+08         0.44801E+06         0.00000E+00
    0.44801E+06        -0.60274E+08         0.00000E+00
    0.00000E+00         0.00000E+00        -0.56085E+08
 
   -0.52853E+08         0.47703E+06         0.00000E+00
    0.47703E+06        -0.60438E+08         0.00000E+00
    0.00000E+00         0.00000E+00        -0.56401E+08
 
   -0.53529E+08         0.51049E+06         0.00000E+00
    0.51049E+06        -0.60622E+08         0.00000E+00
    0.00000E+00         0.00000E+00        -0.56713E+08
 
   -0.54139E+08         0.56449E+06         0.00000E+00
    0.56449E+06        -0.60812E+08         0.00000E+00
    0.00000E+00         0.00000E+00        -0.57014E+08
 
   -0.54700E+08         0.64833E+06         0.00000E+00
    0.64833E+06        -0.60993E+08         0.00000E+00
    0.00000E+00         0.00000E+00        -0.57299E+08
 
   -0.55229E+08         0.76468E+06         0.00000E+00
    0.76468E+06        -0.61148E+08         0.00000E+00
    0.00000E+00         0.00000E+00        -0.57567E+08
 
   -0.55744E+08         0.90994E+06         0.00000E+00
    0.90994E+06        -0.61266E+08         0.00000E+00
    0.00000E+00         0.00000E+00        -0.57815E+08
 
   -0.56261E+08         0.10747E+07         0.00000E+00
    0.10747E+07        -0.61332E+08         0.00000E+00
    0.00000E+00         0.00000E+00        -0.58041E+08
 
   -0.56788E+08         0.12445E+07         0.00000E+00
    0.12445E+07        -0.61339E+08         0.00000E+00
    0.00000E+00         0.00000E+00        -0.58243E+08
 
   -0.57331E+08         0.14000E+07         0.00000E+00
    0.14000E+07        -0.61281E+08         0.00000E+00
    0.00000E+00         0.00000E+00        -0.58417E+08
 
   -0.57884E+08         0.15189E+07         0.00000E+00
    0.15189E+07        -0.61158E+08         0.00000E+00
    0.00000E+00         0.00000E+00        -0.58559E+08
 
   -0.58433E+08         0.15765E+07         0.00000E+00
    0.15765E+07        -0.60974E+08         0.00000E+00
    0.00000E+00         0.00000E+00        -0.58663E+08
 
   -0.49127E+08         0.10389E+06         0.00000E+00
    0.10389E+06        -0.60014E+08         0.00000E+00
    0.00000E+00         0.00000E+00        -0.55068E+08
 
   -0.50224E+08         0.22561E+06         0.00000E+00
    0.22561E+06        -0.60076E+08         0.00000E+00
    0.00000E+00         0.00000E+00        -0.55355E+08
 
   -0.51211E+08         0.26845E+06         0.00000E+00
    0.26845E+06        -0.60201E+08         0.00000E+00
    0.00000E+00         0.00000E+00        -0.55673E+08
 
   -0.52080E+08         0.27251E+06         0.00000E+00
    0.27251E+06        -0.60379E+08         0.00000E+00
    0.00000E+00         0.00000E+00        -0.56004E+08
 
   -0.52835E+08         0.27117E+06         0.00000E+00
    0.27117E+06        -0.60599E+08         0.00000E+00
    0.00000E+00         0.00000E+00        -0.56334E+08
 
   -0.53490E+08         0.28995E+06         0.00000E+00
    0.28995E+06        -0.60843E+08         0.00000E+00
    0.00000E+00         0.00000E+00        -0.56656E+08
 
   -0.54066E+08         0.34617E+06         0.00000E+00
    0.34617E+06        -0.61095E+08         0.00000E+00
    0.00000E+00         0.00000E+00        -0.56963E+08
 
   -0.54586E+08         0.44915E+06         0.00000E+00
    0.44915E+06        -0.61334E+08         0.00000E+00
    0.00000E+00         0.00000E+00        -0.57253E+08
 
   -0.55076E+08         0.60067E+06         0.00000E+00
    0.60067E+06        -0.61543E+08         0.00000E+00
    0.00000E+00         0.00000E+00        -0.57523E+08
 
   -0.55560E+08         0.79550E+06         0.00000E+00
    0.79550E+06        -0.61706E+08         0.00000E+00
    0.00000E+00         0.00000E+00        -0.57774E+08
 
   -0.56058E+08         0.10218E+07         0.00000E+00
    0.10218E+07        -0.61808E+08         0.00000E+00
    0.00000E+00         0.00000E+00        -0.58004E+08
 
   -0.56587E+08         0.12618E+07         0.00000E+00
    0.12618E+07        -0.61837E+08         0.00000E+00
    0.00000E+00         0.00000E+00        -0.58211E+08
 
   -0.57154E+08         0.14918E+07         0.00000E+00
    0.14918E+07        -0.61786E+08         0.00000E+00
    0.00000E+00         0.00000E+00        -0.58392E+08
 
   -0.57758E+08         0.16838E+07         0.00000E+00
    0.16838E+07        -0.61652E+08         0.00000E+00
    0.00000E+00         0.00000E+00        -0.58544E+08
 
   -0.58387E+08         0.18059E+07         0.00000E+00
    0.18059E+07        -0.61439E+08         0.00000E+00
    0.00000E+00         0.00000E+00        -0.58658E+08
 
   -0.48985E+08         0.67715E+05         0.00000E+00
    0.67715E+05        -0.60019E+08         0.00000E+00
    0.00000E+00         0.00000E+00        -0.54905E+08
 
   -0.50182E+08         0.11621E+06         0.00000E+00
    0.11621E+06        -0.60103E+08         0.00000E+00
    0.00000E+00         0.00000E+00        -0.55219E+08
 
   -0.51223E+08         0.91927E+05         0.00000E+00
    0.91927E+05        -0.60266E+08         0.00000E+00
    0.00000E+00         0.00000E+00        -0.55558E+08
 
   -0.52106E+08         0.41794E+05         0.00000E+00
    0.41794E+05        -0.60497E+08         0.00000E+00
    0.00000E+00         0.00000E+00        -0.55904E+08
 
   -0.52843E+08         0.36608E+04         0.00000E+00
    0.36608E+04        -0.60778E+08         0.00000E+00
    0.00000E+00         0.00000E+00        -0.56244E+08
 
   -0.53458E+08         0.54069E+04         0.00000E+00
    0.54069E+04        -0.61088E+08         0.00000E+00
    0.00000E+00         0.00000E+00        -0.56570E+08
 
   -0.53980E+08         0.65055E+05         0.00000E+00
    0.65055E+05        -0.61405E+08         0.00000E+00
    0.00000E+00         0.00000E+00        -0.56878E+08
 
   -0.54442E+08         0.19146E+06         0.00000E+00
    0.19146E+06        -0.61706E+08         0.00000E+00
    0.00000E+00         0.00000E+00        -0.57166E+08
 
   -0.54877E+08         0.38514E+06         0.00000E+00
    0.38514E+06        -0.61971E+08         0.00000E+00
    0.00000E+00         0.00000E+00        -0.57434E+08
 
   -0.55315E+08         0.63906E+06         0.00000E+00
    0.63906E+06        -0.62182E+08         0.00000E+00
    0.00000E+00         0.00000E+00        -0.57682E+08
 
   -0.55783E+08         0.93899E+06         0.00000E+00
    0.93899E+06        -0.62320E+08         0.00000E+00
    0.00000E+00         0.00000E+00        -0.57911E+08
 
   -0.56304E+08         0.12638E+07         0.00000E+00
    0.12638E+07        -0.62373E+08         0.00000E+00
    0.00000E+00         0.00000E+00        -0.58120E+08
 
   -0.56893E+08         0.15856E+07         0.00000E+00
    0.15856E+07        -0.62328E+08         0.00000E+00
    0.00000E+00         0.00000E+00        -0.58307E+08
 
   -0.57553E+08         0.18702E+07         0.00000E+00
    0.18702E+07        -0.62181E+08         0.00000E+00
    0.00000E+00         0.00000E+00        -0.58467E+08
 
   -0.58274E+08         0.20778E+07         0.00000E+00
    0.20778E+07        -0.61934E+08         0.00000E+00
    0.00000E+00         0.00000E+00        -0.58594E+08
 
   -0.48928E+08         0.19543E+05         0.00000E+00
    0.19543E+05        -0.60025E+08         0.00000E+00
    0.00000E+00         0.00000E+00        -0.54725E+08
 
   -0.50221E+08        -0.26383E+05         0.00000E+00
   -0.26383E+05        -0.60133E+08         0.00000E+00
    0.00000E+00         0.00000E+00        -0.55064E+08
 
   -0.51303E+08        -0.13413E+06         0.00000E+00
   -0.13413E+06        -0.60340E+08         0.00000E+00
    0.00000E+00         0.00000E+00        -0.55422E+08
 
   -0.52181E+08        -0.24941E+06         0.00000E+00
   -0.24941E+06        -0.60629E+08         0.00000E+00
    0.00000E+00         0.00000E+00        -0.55778E+08
 
   -0.52879E+08        -0.33010E+06         0.00000E+00
   -0.33010E+06        -0.60975E+08         0.00000E+00
    0.00000E+00         0.00000E+00        -0.56120E+08
 
   -0.53432E+08        -0.34669E+06         0.00000E+00
   -0.34669E+06        -0.61353E+08         0.00000E+00
    0.00000E+00         0.00000E+00        -0.56443E+08
 
   -0.53879E+08        -0.28134E+06         0.00000E+00
   -0.28134E+06        -0.61737E+08         0.00000E+00
    0.00000E+00         0.00000E+00        -0.56744E+08
 
   -0.54262E+08        -0.12644E+06         0.00000E+00
   -0.12644E+06        -0.62101E+08         0.00000E+00
    0.00000E+00         0.00000E+00        -0.57023E+08
 
   -0.54622E+08         0.11685E+06         0.00000E+00
    0.11685E+06        -0.62423E+08         0.00000E+00
    0.00000E+00         0.00000E+00        -0.57281E+08
 
   -0.54997E+08         0.43956E+06         0.00000E+00
    0.43956E+06        -0.62681E+08         0.00000E+00
    0.00000E+00         0.00000E+00        -0.57520E+08
 
   -0.55421E+08         0.82536E+06         0.00000E+00
    0.82536E+06        -0.62857E+08         0.00000E+00
    0.00000E+00         0.00000E+00        -0.57743E+08
 
   -0.55925E+08         0.12503E+07         0.00000E+00
    0.12503E+07        -0.62932E+08         0.00000E+00
    0.00000E+00         0.00000E+00        -0.57949E+08
 
   -0.56529E+08         0.16826E+07         0.00000E+00
    0.16826E+07        -0.62894E+08         0.00000E+00
    0.00000E+00         0.00000E+00        -0.58138E+08
 
   -0.57245E+08         0.20817E+07         0.00000E+00
    0.20817E+07        -0.62732E+08         0.00000E+00
    0.00000E+00         0.00000E+00        -0.58306E+08
 
   -0.58070E+08         0.23996E+07         0.00000E+00
    0.23996E+07        -0.62444E+08         0.00000E+00
    0.00000E+00         0.00000E+00        -0.58446E+08
 
   -0.48980E+08        -0.42355E+05         0.00000E+00
   -0.42355E+05        -0.60031E+08         0.00000E+00
    0.00000E+00         0.00000E+00        -0.54520E+08
 
   -0.50360E+08        -0.20627E+06         0.00000E+00
   -0.20627E+06        -0.60167E+08         0.00000E+00
    0.00000E+00         0.00000E+00        -0.54882E+08
 
   -0.51464E+08        -0.41461E+06         0.00000E+00
   -0.41461E+06        -0.60422E+08         0.00000E+00
    0.00000E+00         0.00000E+00        -0.55252E+08
 
   -0.52314E+08        -0.60536E+06         0.00000E+00
   -0.60536E+06        -0.60773E+08         0.00000E+00
    0.00000E+00         0.00000E+00        -0.55611E+08
 
   -0.52947E+08        -0.73288E+06         0.00000E+00
   -0.73288E+06        -0.61187E+08         0.00000E+00
    0.00000E+00         0.00000E+00        -0.55949E+08
 
   -0.53411E+08        -0.76734E+06         0.00000E+00
   -0.76734E+06        -0.61634E+08         0.00000E+00
    0.00000E+00         0.00000E+00        -0.56259E+08
 
   -0.53759E+08        -0.69251E+06         0.00000E+00
   -0.69251E+06        -0.62083E+08         0.00000E+00
    0.00000E+00         0.00000E+00        -0.56544E+08
 
   -0.54040E+08        -0.50317E+06         0.00000E+00
   -0.50317E+06        -0.62507E+08         0.00000E+00
    0.00000E+00         0.00000E+00        -0.56803E+08
 
   -0.54304E+08        -0.20274E+06         0.00000E+00
   -0.20274E+06        -0.62882E+08         0.00000E+00
    0.00000E+00         0.00000E+00        -0.57042E+08
 
   -0.54596E+08         0.19802E+06         0.00000E+00
    0.19802E+06        -0.63185E+08         0.00000E+00
    0.00000E+00         0.00000E+00        -0.57264E+08
 
   -0.54959E+08         0.68126E+06         0.00000E+00
    0.68126E+06        -0.63396E+08         0.00000E+00
    0.00000E+00         0.00000E+00        -0.57473E+08
 
   -0.55430E+08         0.12213E+07         0.00000E+00
    0.12213E+07        -0.63494E+08         0.00000E+00
    0.00000E+00         0.00000E+00        -0.57671E+08
 
   -0.56040E+08         0.17832E+07         0.00000E+00
    0.17832E+07        -0.63462E+08         0.00000E+00
    0.00000E+00         0.00000E+00        -0.57859E+08
 
   -0.56810E+08         0.23213E+07         0.00000E+00
    0.23213E+07        -0.63284E+08         0.00000E+00
    0.00000E+00         0.00000E+00        -0.58032E+08
 
   -0.57746E+08         0.27785E+07         0.00000E+00
    0.27785E+07        -0.62952E+08         0.00000E+00
    0.00000E+00         0.00000E+00        -0.58185E+08
 
   -0.49169E+08        -0.11992E+06         0.00000E+00
   -0.11992E+06        -0.60039E+08         0.00000E+00
    0.00000E+00         0.00000E+00        -0.54280E+08
 
   -0.50620E+08        -0.42770E+06         0.00000E+00
   -0.42770E+06        -0.60205E+08         0.00000E+00
    0.00000E+00         0.00000E+00        -0.54661E+08
 
   -0.51721E+08        -0.75386E+06         0.00000E+00
   -0.75386E+06        -0.60513E+08         0.00000E+00
    0.00000E+00         0.00000E+00        -0.55037E+08
 
   -0.52511E+08        -0.10287E+07         0.00000E+00
   -0.10287E+07        -0.60928E+08         0.00000E+00
    0.00000E+00         0.00000E+00        -0.55389E+08
 
   -0.53046E+08        -0.12046E+07         0.00000E+00
   -0.12046E+07        -0.61410E+08         0.00000E+00
    0.00000E+00         0.00000E+00        -0.55709E+08
 
   -0.53392E+08        -0.12536E+07         0.00000E+00
   -0.12536E+07        -0.61922E+08         0.00000E+00
    0.00000E+00         0.00000E+00        -0.55996E+08
 
   -0.53612E+08        -0.11635E+07         0.00000E+00
   -0.11635E+07        -0.62430E+08         0.00000E+00
    0.00000E+00         0.00000E+00        -0.56252E+08
 
   -0.53768E+08        -0.93295E+06         0.00000E+00
   -0.93295E+06        -0.62905E+08         0.00000E+00
    0.00000E+00         0.00000E+00        -0.56481E+08
 
   -0.53914E+08        -0.56823E+06         0.00000E+00
   -0.56823E+06        -0.63325E+08         0.00000E+00
    0.00000E+00         0.00000E+00        -0.56690E+08
 
   -0.54104E+08        -0.81637E+05         0.00000E+00
   -0.81637E+05        -0.63666E+08         0.00000E+00
    0.00000E+00         0.00000E+00        -0.56885E+08
 
   -0.54385E+08         0.50866E+06         0.00000E+00
    0.50866E+06        -0.63907E+08         0.00000E+00
    0.00000E+00         0.00000E+00        -0.57072E+08
 
   -0.54805E+08         0.11769E+07         0.00000E+00
    0.11769E+07        -0.64027E+08         0.00000E+00
    0.00000E+00         0.00000E+00        -0.57255E+08
 
   -0.55406E+08         0.18872E+07         0.00000E+00
    0.18872E+07        -0.64001E+08         0.00000E+00
    0.00000E+00         0.00000E+00        -0.57435E+08
 
   -0.56221E+08         0.25899E+07         0.00000E+00
    0.25899E+07        -0.63807E+08         0.00000E+00
    0.00000E+00         0.00000E+00        -0.57610E+08
 
   -0.57269E+08         0.32198E+07         0.00000E+00
    0.32198E+07        -0.63429E+08         0.00000E+00
    0.00000E+00         0.00000E+00        -0.57775E+08
 
   -0.49527E+08        -0.21540E+06         0.00000E+00
   -0.21540E+06        -0.60048E+08         0.00000E+00
    0.00000E+00         0.00000E+00        -0.53989E+08
 
   -0.51024E+08        -0.69508E+06         0.00000E+00
   -0.69508E+06        -0.60248E+08         0.00000E+00
    0.00000E+00         0.00000E+00        -0.54382E+08
 
   -0.52085E+08        -0.11552E+07         0.00000E+00
   -0.11552E+07        -0.60612E+08         0.00000E+00
    0.00000E+00         0.00000E+00        -0.54753E+08
 
   -0.52775E+08        -0.15193E+07         0.00000E+00
   -0.15193E+07        -0.61092E+08         0.00000E+00
    0.00000E+00         0.00000E+00        -0.55086E+08
 
   -0.53175E+08        -0.17407E+07         0.00000E+00
   -0.17407E+07        -0.61637E+08         0.00000E+00
    0.00000E+00         0.00000E+00        -0.55376E+08
 
   -0.53368E+08        -0.17971E+07         0.00000E+00
   -0.17971E+07        -0.62204E+08         0.00000E+00
    0.00000E+00         0.00000E+00        -0.55624E+08
 
   -0.53434E+08        -0.16832E+07         0.00000E+00
   -0.16832E+07        -0.62757E+08         0.00000E+00
    0.00000E+00         0.00000E+00        -0.55837E+08
 
   -0.53439E+08        -0.14038E+07         0.00000E+00
   -0.14038E+07        -0.63268E+08         0.00000E+00
    0.00000E+00         0.00000E+00        -0.56023E+08
 
   -0.53446E+08        -0.96897E+06         0.00000E+00
   -0.96897E+06        -0.63718E+08         0.00000E+00
    0.00000E+00         0.00000E+00        -0.56190E+08
 
   -0.53512E+08        -0.39164E+06         0.00000E+00
   -0.39164E+06        -0.64085E+08         0.00000E+00
    0.00000E+00         0.00000E+00        -0.56347E+08
 
   -0.53690E+08         0.31156E+06         0.00000E+00
    0.31156E+06        -0.64350E+08         0.00000E+00
    0.00000E+00         0.00000E+00        -0.56501E+08
 
   -0.54035E+08         0.11177E+07         0.00000E+00
    0.11177E+07        -0.64487E+08         0.00000E+00
    0.00000E+00         0.00000E+00        -0.56659E+08
 
   -0.54604E+08         0.19927E+07         0.00000E+00
    0.19927E+07        -0.64469E+08         0.00000E+00
    0.00000E+00         0.00000E+00        -0.56825E+08
 
   -0.55445E+08         0.28862E+07         0.00000E+00
    0.28862E+07        -0.64264E+08         0.00000E+00
    0.00000E+00         0.00000E+00        -0.56997E+08
 
   -0.56599E+08         0.37261E+07         0.00000E+00
    0.37261E+07        -0.63841E+08         0.00000E+00
    0.00000E+00         0.00000E+00        -0.57172E+08
 
   -0.50088E+08        -0.33150E+06         0.00000E+00
   -0.33150E+06        -0.60058E+08         0.00000E+00
    0.00000E+00         0.00000E+00        -0.53625E+08
 
   -0.51593E+08        -0.10129E+07         0.00000E+00
   -0.10129E+07        -0.60296E+08         0.00000E+00
    0.00000E+00         0.00000E+00        -0.54022E+08
 
   -0.52564E+08        -0.16203E+07         0.00000E+00
   -0.16203E+07        -0.60719E+08         0.00000E+00
    0.00000E+00         0.00000E+00        -0.54374E+08
 
   -0.53102E+08        -0.20729E+07         0.00000E+00
   -0.20729E+07        -0.61261E+08         0.00000E+00
    0.00000E+00         0.00000E+00        -0.54671E+08
 
   -0.53322E+08        -0.23301E+07         0.00000E+00
   -0.23301E+07        -0.61858E+08         0.00000E+00
    0.00000E+00         0.00000E+00        -0.54913E+08
 
   -0.53329E+08        -0.23810E+07         0.00000E+00
   -0.23810E+07        -0.62461E+08         0.00000E+00
    0.00000E+00         0.00000E+00        -0.55106E+08
 
   -0.53213E+08        -0.22318E+07         0.00000E+00
   -0.22318E+07        -0.63035E+08         0.00000E+00
    0.00000E+00         0.00000E+00        -0.55261E+08
 
   -0.53048E+08        -0.18959E+07         0.00000E+00
   -0.18959E+07        -0.63558E+08         0.00000E+00
    0.00000E+00         0.00000E+00        -0.55388E+08
 
   -0.52897E+08        -0.13875E+07         0.00000E+00
   -0.13875E+07        -0.64014E+08         0.00000E+00
    0.00000E+00         0.00000E+00        -0.55499E+08
 
   -0.52818E+08        -0.71933E+06         0.00000E+00
   -0.71933E+06        -0.64389E+08         0.00000E+00
    0.00000E+00         0.00000E+00        -0.55605E+08
 
   -0.52868E+08         0.96447E+05         0.00000E+00
    0.96447E+05        -0.64665E+08         0.00000E+00
    0.00000E+00         0.00000E+00        -0.55715E+08
 
   -0.53111E+08         0.10436E+07         0.00000E+00
    0.10436E+07        -0.64817E+08         0.00000E+00
    0.00000E+00         0.00000E+00        -0.55838E+08
 
   -0.53614E+08         0.20951E+07         0.00000E+00
    0.20951E+07        -0.64810E+08         0.00000E+00
    0.00000E+00         0.00000E+00        -0.55980E+08
 
   -0.54451E+08         0.32040E+07         0.00000E+00
    0.32040E+07        -0.64601E+08         0.00000E+00
    0.00000E+00         0.00000E+00        -0.56143E+08
 
   -0.55690E+08         0.42950E+07         0.00000E+00
    0.42950E+07        -0.64141E+08         0.00000E+00
    0.00000E+00         0.00000E+00        -0.56323E+08
 
   -0.50894E+08        -0.47159E+06         0.00000E+00
   -0.47159E+06        -0.60071E+08         0.00000E+00
    0.00000E+00         0.00000E+00        -0.53158E+08
 
   -0.52348E+08        -0.13855E+07         0.00000E+00
   -0.13855E+07        -0.60351E+08         0.00000E+00
    0.00000E+00         0.00000E+00        -0.53544E+08
 
   -0.53159E+08        -0.21478E+07         0.00000E+00
   -0.21478E+07        -0.60833E+08         0.00000E+00
    0.00000E+00         0.00000E+00        -0.53859E+08
 
   -0.53484E+08        -0.26787E+07         0.00000E+00
   -0.26787E+07        -0.61426E+08         0.00000E+00
    0.00000E+00         0.00000E+00        -0.54100E+08
 
   -0.53474E+08        -0.29527E+07         0.00000E+00
   -0.29527E+07        -0.62054E+08         0.00000E+00
    0.00000E+00         0.00000E+00        -0.54273E+08
 
   -0.53259E+08        -0.29781E+07         0.00000E+00
   -0.29781E+07        -0.62664E+08         0.00000E+00
    0.00000E+00         0.00000E+00        -0.54392E+08
 
   -0.52940E+08        -0.27786E+07         0.00000E+00
   -0.27786E+07        -0.63224E+08         0.00000E+00
    0.00000E+00         0.00000E+00        -0.54471E+08
 
   -0.52590E+08        -0.23790E+07         0.00000E+00
   -0.23790E+07        -0.63721E+08         0.00000E+00
    0.00000E+00         0.00000E+00        -0.54524E+08
 
   -0.52269E+08        -0.17981E+07         0.00000E+00
   -0.17981E+07        -0.64151E+08         0.00000E+00
    0.00000E+00         0.00000E+00        -0.54565E+08
 
   -0.52028E+08        -0.10462E+07         0.00000E+00
   -0.10462E+07        -0.64507E+08         0.00000E+00
    0.00000E+00         0.00000E+00        -0.54607E+08
 
   -0.51925E+08        -0.12734E+06         0.00000E+00
   -0.12734E+06        -0.64779E+08         0.00000E+00
    0.00000E+00         0.00000E+00        -0.54661E+08
 
   -0.52028E+08         0.95456E+06         0.00000E+00
    0.95456E+06        -0.64940E+08         0.00000E+00
    0.00000E+00         0.00000E+00        -0.54737E+08
 
   -0.52423E+08         0.21860E+07         0.00000E+00
    0.21860E+07        -0.64950E+08         0.00000E+00
    0.00000E+00         0.00000E+00        -0.54844E+08
 
   -0.53208E+08         0.35308E+07         0.00000E+00
    0.35308E+07        -0.64751E+08         0.00000E+00
    0.00000E+00         0.00000E+00        -0.54987E+08
 
   -0.54488E+08         0.49162E+07         0.00000E+00
    0.49162E+07        -0.64271E+08         0.00000E+00
    0.00000E+00         0.00000E+00        -0.55166E+08
 
   -0.51989E+08        -0.63997E+06         0.00000E+00
   -0.63997E+06        -0.60086E+08         0.00000E+00
    0.00000E+00         0.00000E+00        -0.52547E+08
 
   -0.53304E+08        -0.18166E+07         0.00000E+00
   -0.18166E+07        -0.60412E+08         0.00000E+00
    0.00000E+00         0.00000E+00        -0.52902E+08
 
   -0.53863E+08        -0.27310E+07         0.00000E+00
   -0.27310E+07        -0.60950E+08         0.00000E+00
    0.00000E+00         0.00000E+00        -0.53155E+08
 
   -0.53896E+08        -0.33156E+07         0.00000E+00
   -0.33156E+07        -0.61575E+08         0.00000E+00
    0.00000E+00         0.00000E+00        -0.53313E+08
 
   -0.53604E+08        -0.35742E+07         0.00000E+00
   -0.35742E+07        -0.62198E+08         0.00000E+00
    0.00000E+00         0.00000E+00        -0.53394E+08
 
   -0.53138E+08        -0.35464E+07         0.00000E+00
   -0.35464E+07        -0.62767E+08         0.00000E+00
    0.00000E+00         0.00000E+00        -0.53417E+08
 
   -0.52603E+08        -0.32794E+07         0.00000E+00
   -0.32794E+07        -0.63262E+08         0.00000E+00
    0.00000E+00         0.00000E+00        -0.53402E+08
 
   -0.52065E+08        -0.28119E+07         0.00000E+00
   -0.28119E+07        -0.63684E+08         0.00000E+00
    0.00000E+00         0.00000E+00        -0.53366E+08
 
   -0.51568E+08        -0.21661E+07         0.00000E+00
   -0.21661E+07        -0.64044E+08         0.00000E+00
    0.00000E+00         0.00000E+00        -0.53324E+08
 
   -0.51155E+08        -0.13474E+07         0.00000E+00
   -0.13474E+07        -0.64348E+08         0.00000E+00
    0.00000E+00         0.00000E+00        -0.53290E+08
 
   -0.50875E+08        -0.34734E+06         0.00000E+00
   -0.34734E+06        -0.64593E+08         0.00000E+00
    0.00000E+00         0.00000E+00        -0.53274E+08
 
   -0.50798E+08         0.84904E+06         0.00000E+00
    0.84904E+06        -0.64758E+08         0.00000E+00
    0.00000E+00         0.00000E+00        -0.53291E+08
 
   -0.51024E+08         0.22511E+07         0.00000E+00
    0.22511E+07        -0.64796E+08         0.00000E+00
    0.00000E+00         0.00000E+00        -0.53349E+08
 
   -0.51684E+08         0.38444E+07         0.00000E+00
    0.38444E+07        -0.64629E+08         0.00000E+00
    0.00000E+00         0.00000E+00        -0.53460E+08
 
   -0.52934E+08         0.55680E+07         0.00000E+00
    0.55680E+07        -0.64158E+08         0.00000E+00
    0.00000E+00         0.00000E+00        -0.53628E+08
 
   -0.53424E+08        -0.84216E+06         0.00000E+00
   -0.84216E+06        -0.60104E+08         0.00000E+00
    0.00000E+00         0.00000E+00        -0.51735E+08
 
   -0.54469E+08        -0.23076E+07         0.00000E+00
   -0.23076E+07        -0.60480E+08         0.00000E+00
    0.00000E+00         0.00000E+00        -0.52030E+08
 
   -0.54650E+08        -0.33529E+07         0.00000E+00
   -0.33529E+07        -0.61060E+08         0.00000E+00
    0.00000E+00         0.00000E+00        -0.52187E+08
 
   -0.54299E+08        -0.39458E+07         0.00000E+00
   -0.39458E+07        -0.61681E+08         0.00000E+00
    0.00000E+00         0.00000E+00        -0.52230E+08
 
   -0.53674E+08        -0.41418E+07         0.00000E+00
   -0.41418E+07        -0.62241E+08         0.00000E+00
    0.00000E+00         0.00000E+00        -0.52191E+08
 
   -0.52942E+08        -0.40262E+07         0.00000E+00
   -0.40262E+07        -0.62701E+08         0.00000E+00
    0.00000E+00         0.00000E+00        -0.52097E+08
 
   -0.52194E+08        -0.36756E+07         0.00000E+00
   -0.36756E+07        -0.63063E+08         0.00000E+00
    0.00000E+00         0.00000E+00        -0.51973E+08
 
   -0.51477E+08        -0.31416E+07         0.00000E+00
   -0.31416E+07        -0.63349E+08         0.00000E+00
    0.00000E+00         0.00000E+00        -0.51836E+08
 
   -0.50815E+08        -0.24477E+07         0.00000E+00
   -0.24477E+07        -0.63586E+08         0.00000E+00
    0.00000E+00         0.00000E+00        -0.51700E+08
 
   -0.50227E+08        -0.15914E+07         0.00000E+00
   -0.15914E+07        -0.63797E+08         0.00000E+00
    0.00000E+00         0.00000E+00        -0.51579E+08
 
   -0.49749E+08        -0.54769E+06         0.00000E+00
   -0.54769E+06        -0.63990E+08         0.00000E+00
    0.00000E+00         0.00000E+00        -0.51483E+08
 
   -0.49445E+08         0.72451E+06         0.00000E+00
    0.72451E+06        -0.64151E+08         0.00000E+00
    0.00000E+00         0.00000E+00        -0.51426E+08
 
   -0.49426E+08         0.22692E+07         0.00000E+00
    0.22692E+07        -0.64229E+08         0.00000E+00
    0.00000E+00         0.00000E+00        -0.51421E+08
 
   -0.49859E+08         0.41090E+07         0.00000E+00
    0.41090E+07        -0.64131E+08         0.00000E+00
    0.00000E+00         0.00000E+00        -0.51484E+08
 
   -0.50966E+08         0.62115E+07         0.00000E+00
    0.62115E+07        -0.63716E+08         0.00000E+00
    0.00000E+00         0.00000E+00        -0.51626E+08
 
   -0.55254E+08        -0.10850E+07         0.00000E+00
   -0.10850E+07        -0.60126E+08         0.00000E+00
    0.00000E+00         0.00000E+00        -0.50648E+08
 
   -0.55831E+08        -0.28531E+07         0.00000E+00
   -0.28531E+07        -0.60551E+08         0.00000E+00
    0.00000E+00         0.00000E+00        -0.50838E+08
 
   -0.55467E+08        -0.39776E+07         0.00000E+00
   -0.39776E+07        -0.61142E+08         0.00000E+00
    0.00000E+00         0.00000E+00        -0.50853E+08
 
   -0.54634E+08        -0.45045E+07         0.00000E+00
   -0.45045E+07        -0.61690E+08         0.00000E+00
    0.00000E+00         0.00000E+00        -0.50742E+08
 
   -0.53641E+08        -0.45763E+07         0.00000E+00
   -0.45763E+07        -0.62098E+08         0.00000E+00
    0.00000E+00         0.00000E+00        -0.50554E+08
 
   -0.52646E+08        -0.43381E+07         0.00000E+00
   -0.43381E+07        -0.62357E+08         0.00000E+00
    0.00000E+00         0.00000E+00        -0.50325E+08
 
   -0.51710E+08        -0.38952E+07         0.00000E+00
   -0.38952E+07        -0.62503E+08         0.00000E+00
    0.00000E+00         0.00000E+00        -0.50079E+08
 
   -0.50843E+08        -0.33071E+07         0.00000E+00
   -0.33071E+07        -0.62582E+08         0.00000E+00
    0.00000E+00         0.00000E+00        -0.49834E+08
 
   -0.50037E+08        -0.25937E+07         0.00000E+00
   -0.25937E+07        -0.62641E+08         0.00000E+00
    0.00000E+00         0.00000E+00        -0.49600E+08
 
   -0.49285E+08        -0.17419E+07         0.00000E+00
   -0.17419E+07        -0.62714E+08         0.00000E+00
    0.00000E+00         0.00000E+00        -0.49386E+08
 
   -0.48597E+08        -0.70849E+06         0.00000E+00
   -0.70849E+06        -0.62825E+08         0.00000E+00
    0.00000E+00         0.00000E+00        -0.49202E+08
 
   -0.48017E+08         0.57819E+06         0.00000E+00
    0.57819E+06        -0.62971E+08         0.00000E+00
    0.00000E+00         0.00000E+00        -0.49059E+08
 
   -0.47658E+08         0.22100E+07         0.00000E+00
    0.22100E+07        -0.63109E+08         0.00000E+00
    0.00000E+00         0.00000E+00        -0.48974E+08
 
   -0.47723E+08         0.42710E+07         0.00000E+00
    0.42710E+07        -0.63129E+08         0.00000E+00
    0.00000E+00         0.00000E+00        -0.48968E+08
 
   -0.48514E+08         0.67834E+07         0.00000E+00
    0.67834E+07        -0.62843E+08         0.00000E+00
    0.00000E+00         0.00000E+00        -0.49061E+08
 
   -0.57539E+08        -0.13761E+07         0.00000E+00
   -0.13761E+07        -0.60152E+08         0.00000E+00
    0.00000E+00         0.00000E+00        -0.49181E+08
 
   -0.57344E+08        -0.34311E+07         0.00000E+00
   -0.34311E+07        -0.60612E+08         0.00000E+00
    0.00000E+00         0.00000E+00        -0.49199E+08
 
   -0.56224E+08        -0.45310E+07         0.00000E+00
   -0.45310E+07        -0.61142E+08         0.00000E+00
    0.00000E+00         0.00000E+00        -0.49010E+08
 
   -0.54820E+08        -0.48847E+07         0.00000E+00
   -0.48847E+07        -0.61495E+08         0.00000E+00
    0.00000E+00         0.00000E+00        -0.48701E+08
 
   -0.53457E+08        -0.47667E+07         0.00000E+00
   -0.47667E+07        -0.61618E+08         0.00000E+00
    0.00000E+00         0.00000E+00        -0.48339E+08
 
   -0.52238E+08        -0.43853E+07         0.00000E+00
   -0.43853E+07        -0.61562E+08         0.00000E+00
    0.00000E+00         0.00000E+00        -0.47962E+08
 
   -0.51162E+08        -0.38607E+07         0.00000E+00
   -0.38607E+07        -0.61405E+08         0.00000E+00
    0.00000E+00         0.00000E+00        -0.47593E+08
 
   -0.50190E+08        -0.32474E+07         0.00000E+00
   -0.32474E+07        -0.61213E+08         0.00000E+00
    0.00000E+00         0.00000E+00        -0.47241E+08
 
   -0.49277E+08        -0.25554E+07         0.00000E+00
   -0.25554E+07        -0.61043E+08         0.00000E+00
    0.00000E+00         0.00000E+00        -0.46912E+08
 
   -0.48383E+08        -0.17608E+07         0.00000E+00
   -0.17608E+07        -0.60940E+08         0.00000E+00
    0.00000E+00         0.00000E+00        -0.46608E+08
 
   -0.47484E+08        -0.80517E+06         0.00000E+00
   -0.80517E+06        -0.60936E+08         0.00000E+00
    0.00000E+00         0.00000E+00        -0.46333E+08
 
   -0.46591E+08         0.41152E+06         0.00000E+00
    0.41152E+06        -0.61050E+08         0.00000E+00
    0.00000E+00         0.00000E+00        -0.46096E+08
 
   -0.45786E+08         0.20369E+07         0.00000E+00
    0.20369E+07        -0.61260E+08         0.00000E+00
    0.00000E+00         0.00000E+00        -0.45913E+08
 
   -0.45292E+08         0.42517E+07         0.00000E+00
    0.42517E+07        -0.61464E+08         0.00000E+00
    0.00000E+00         0.00000E+00        -0.45812E+08
 
   -0.45515E+08         0.71839E+07         0.00000E+00
    0.71839E+07        -0.61421E+08         0.00000E+00
    0.00000E+00         0.00000E+00        -0.45827E+08
 
   -0.60323E+08        -0.17211E+07         0.00000E+00
   -0.17211E+07        -0.60181E+08         0.00000E+00
    0.00000E+00         0.00000E+00        -0.47194E+08
 
   -0.58895E+08        -0.39747E+07         0.00000E+00
   -0.39747E+07        -0.60624E+08         0.00000E+00
    0.00000E+00         0.00000E+00        -0.46932E+08
 
   -0.56778E+08        -0.48650E+07         0.00000E+00
   -0.48650E+07        -0.60932E+08         0.00000E+00
    0.00000E+00         0.00000E+00        -0.46459E+08
 
   -0.54770E+08        -0.49178E+07         0.00000E+00
   -0.49178E+07        -0.60882E+08         0.00000E+00
    0.00000E+00         0.00000E+00        -0.45908E+08
 
   -0.53098E+08        -0.45735E+07         0.00000E+00
   -0.45735E+07        -0.60545E+08         0.00000E+00
    0.00000E+00         0.00000E+00        -0.45358E+08
 
   -0.51734E+08        -0.40693E+07         0.00000E+00
   -0.40693E+07        -0.60059E+08         0.00000E+00
    0.00000E+00         0.00000E+00        -0.44838E+08
 
   -0.50585E+08        -0.35061E+07         0.00000E+00
   -0.35061E+07        -0.59528E+08         0.00000E+00
    0.00000E+00         0.00000E+00        -0.44357E+08
 
   -0.49562E+08        -0.29169E+07         0.00000E+00
   -0.29169E+07        -0.59025E+08         0.00000E+00
    0.00000E+00         0.00000E+00        -0.43914E+08
 
   -0.48584E+08        -0.22975E+07         0.00000E+00
   -0.22975E+07        -0.58601E+08         0.00000E+00
    0.00000E+00         0.00000E+00        -0.43504E+08
 
   -0.47582E+08        -0.16160E+07         0.00000E+00
   -0.16160E+07        -0.58297E+08         0.00000E+00
    0.00000E+00         0.00000E+00        -0.43123E+08
 
   -0.46493E+08        -0.80877E+06         0.00000E+00
   -0.80877E+06        -0.58152E+08         0.00000E+00
    0.00000E+00         0.00000E+00        -0.42766E+08
 
   -0.45271E+08         0.23752E+06         0.00000E+00
    0.23752E+06        -0.58207E+08         0.00000E+00
    0.00000E+00         0.00000E+00        -0.42434E+08
 
   -0.43928E+08         0.17211E+07         0.00000E+00
    0.17211E+07        -0.58488E+08         0.00000E+00
    0.00000E+00         0.00000E+00        -0.42138E+08
 
   -0.42632E+08         0.39446E+07         0.00000E+00
    0.39446E+07        -0.58933E+08         0.00000E+00
    0.00000E+00         0.00000E+00        -0.41906E+08
 
   -0.41951E+08         0.72331E+07         0.00000E+00
    0.72331E+07        -0.59286E+08         0.00000E+00
    0.00000E+00         0.00000E+00        -0.41841E+08
 
   -0.63601E+08        -0.21090E+07         0.00000E+00
   -0.21090E+07        -0.60196E+08         0.00000E+00
    0.00000E+00         0.00000E+00        -0.44482E+08
 
   -0.60243E+08        -0.42974E+07         0.00000E+00
   -0.42974E+07        -0.60454E+08         0.00000E+00
    0.00000E+00         0.00000E+00        -0.43769E+08
 
   -0.56951E+08        -0.46952E+07         0.00000E+00
   -0.46952E+07        -0.60186E+08         0.00000E+00
    0.00000E+00         0.00000E+00        -0.42914E+08
 
   -0.54444E+08        -0.43753E+07         0.00000E+00
   -0.43753E+07        -0.59423E+08         0.00000E+00
    0.00000E+00         0.00000E+00        -0.42098E+08
 
   -0.52603E+08        -0.38631E+07         0.00000E+00
   -0.38631E+07        -0.58462E+08         0.00000E+00
    0.00000E+00         0.00000E+00        -0.41375E+08
 
   -0.51193E+08        -0.33235E+07         0.00000E+00
   -0.33235E+07        -0.57480E+08         0.00000E+00
    0.00000E+00         0.00000E+00        -0.40741E+08
 
   -0.50040E+08        -0.28033E+07         0.00000E+00
   -0.28033E+07        -0.56563E+08         0.00000E+00
    0.00000E+00         0.00000E+00        -0.40181E+08
 
   -0.49013E+08        -0.23057E+07         0.00000E+00
   -0.23057E+07        -0.55759E+08         0.00000E+00
    0.00000E+00         0.00000E+00        -0.39678E+08
 
   -0.48011E+08        -0.18139E+07         0.00000E+00
   -0.18139E+07        -0.55096E+08         0.00000E+00
    0.00000E+00         0.00000E+00        -0.39218E+08
 
   -0.46939E+08        -0.12950E+07         0.00000E+00
   -0.12950E+07        -0.54600E+08         0.00000E+00
    0.00000E+00         0.00000E+00        -0.38787E+08
 
   -0.45700E+08        -0.69356E+06         0.00000E+00
   -0.69356E+06        -0.54308E+08         0.00000E+00
    0.00000E+00         0.00000E+00        -0.38371E+08
 
   -0.44182E+08         0.91148E+05         0.00000E+00
    0.91148E+05        -0.54273E+08         0.00000E+00
    0.00000E+00         0.00000E+00        -0.37958E+08
 
   -0.42261E+08         0.12595E+07         0.00000E+00
    0.12595E+07        -0.54581E+08         0.00000E+00
    0.00000E+00         0.00000E+00        -0.37544E+08
 
   -0.39935E+08         0.32474E+07         0.00000E+00
    0.32474E+07        -0.55320E+08         0.00000E+00
    0.00000E+00         0.00000E+00        -0.37151E+08
 
   -0.37815E+08         0.67196E+07         0.00000E+00
    0.67196E+07        -0.56245E+08         0.00000E+00
    0.00000E+00         0.00000E+00        -0.36958E+08
 
   -0.67168E+08        -0.24330E+07         0.00000E+00
   -0.24330E+07        -0.60117E+08         0.00000E+00
    0.00000E+00         0.00000E+00        -0.40722E+08
 
   -0.60953E+08        -0.38724E+07         0.00000E+00
   -0.38724E+07        -0.59587E+08         0.00000E+00
    0.00000E+00         0.00000E+00        -0.39269E+08
 
   -0.56658E+08        -0.35815E+07         0.00000E+00
   -0.35815E+07        -0.58081E+08         0.00000E+00
    0.00000E+00         0.00000E+00        -0.37967E+08
 
   -0.53955E+08        -0.30733E+07         0.00000E+00
   -0.30733E+07        -0.56383E+08         0.00000E+00
    0.00000E+00         0.00000E+00        -0.36941E+08
 
   -0.52101E+08        -0.25897E+07         0.00000E+00
   -0.25897E+07        -0.54784E+08         0.00000E+00
    0.00000E+00         0.00000E+00        -0.36112E+08
 
   -0.50725E+08        -0.21649E+07         0.00000E+00
   -0.21649E+07        -0.53365E+08         0.00000E+00
    0.00000E+00         0.00000E+00        -0.35425E+08
 
   -0.49608E+08        -0.17933E+07         0.00000E+00
   -0.17933E+07        -0.52144E+08         0.00000E+00
    0.00000E+00         0.00000E+00        -0.34841E+08
 
   -0.48605E+08        -0.14593E+07         0.00000E+00
   -0.14593E+07        -0.51119E+08         0.00000E+00
    0.00000E+00         0.00000E+00        -0.34329E+08
 
   -0.47602E+08        -0.11436E+07         0.00000E+00
   -0.11436E+07        -0.50289E+08         0.00000E+00
    0.00000E+00         0.00000E+00        -0.33864E+08
 
   -0.46494E+08        -0.82187E+06         0.00000E+00
   -0.82187E+06        -0.49659E+08         0.00000E+00
    0.00000E+00         0.00000E+00        -0.33425E+08
 
   -0.45159E+08        -0.45735E+06         0.00000E+00
   -0.45735E+06        -0.49253E+08         0.00000E+00
    0.00000E+00         0.00000E+00        -0.32989E+08
 
   -0.43427E+08         0.14925E+05         0.00000E+00
    0.14925E+05        -0.49126E+08         0.00000E+00
    0.00000E+00         0.00000E+00        -0.32535E+08
 
   -0.41044E+08         0.73149E+06         0.00000E+00
    0.73149E+06        -0.49394E+08         0.00000E+00
    0.00000E+00         0.00000E+00        -0.32033E+08
 
   -0.37565E+08         0.20562E+07         0.00000E+00
    0.20562E+07        -0.50297E+08         0.00000E+00
    0.00000E+00         0.00000E+00        -0.31446E+08
 
   -0.33050E+08         0.52962E+07         0.00000E+00
    0.52962E+07        -0.52188E+08         0.00000E+00
    0.00000E+00         0.00000E+00        -0.30874E+08
 
   -0.70086E+08        -0.17770E+07         0.00000E+00
   -0.17770E+07        -0.58785E+08         0.00000E+00
    0.00000E+00         0.00000E+00        -0.35140E+08
 
   -0.60720E+08        -0.17002E+07         0.00000E+00
   -0.17002E+07        -0.55949E+08         0.00000E+00
    0.00000E+00         0.00000E+00        -0.32645E+08
 
   -0.56266E+08        -0.13511E+07         0.00000E+00
   -0.13511E+07        -0.53154E+08         0.00000E+00
    0.00000E+00         0.00000E+00        -0.31131E+08
 
   -0.53580E+08        -0.10978E+07         0.00000E+00
   -0.10978E+07        -0.50795E+08         0.00000E+00
    0.00000E+00         0.00000E+00        -0.30060E+08
 
   -0.51779E+08        -0.89791E+06         0.00000E+00
   -0.89791E+06        -0.48837E+08         0.00000E+00
    0.00000E+00         0.00000E+00        -0.29251E+08
 
   -0.50451E+08        -0.73718E+06         0.00000E+00
   -0.73718E+06        -0.47217E+08         0.00000E+00
    0.00000E+00         0.00000E+00        -0.28610E+08
 
   -0.49369E+08        -0.60320E+06         0.00000E+00
   -0.60320E+06        -0.45879E+08         0.00000E+00
    0.00000E+00         0.00000E+00        -0.28080E+08
 
   -0.48387E+08        -0.48649E+06         0.00000E+00
   -0.48649E+06        -0.44787E+08         0.00000E+00
    0.00000E+00         0.00000E+00        -0.27623E+08
 
   -0.47391E+08        -0.37861E+06         0.00000E+00
   -0.37861E+06        -0.43915E+08         0.00000E+00
    0.00000E+00         0.00000E+00        -0.27211E+08
 
   -0.46269E+08        -0.27046E+06         0.00000E+00
   -0.27046E+06        -0.43259E+08         0.00000E+00
    0.00000E+00         0.00000E+00        -0.26819E+08
 
   -0.44888E+08        -0.14951E+06         0.00000E+00
   -0.14951E+06        -0.42830E+08         0.00000E+00
    0.00000E+00         0.00000E+00        -0.26423E+08
 
   -0.43051E+08         0.54869E+04         0.00000E+00
    0.54869E+04        -0.42678E+08         0.00000E+00
    0.00000E+00         0.00000E+00        -0.25991E+08
 
   -0.40417E+08         0.24108E+06         0.00000E+00
    0.24108E+06        -0.42915E+08         0.00000E+00
    0.00000E+00         0.00000E+00        -0.25479E+08
 
   -0.36289E+08         0.67175E+06         0.00000E+00
    0.67175E+06        -0.43821E+08         0.00000E+00
    0.00000E+00         0.00000E+00        -0.24804E+08
 
   -0.28353E+08         0.21207E+07         0.00000E+00
    0.21207E+07        -0.46333E+08         0.00000E+00
    0.00000E+00         0.00000E+00        -0.23693E+08
 
SCALARS stressS double 
LOOKUP_TABLE default
  -56098613.7625985     
  -56200632.7899646     
  -56328588.4775375     
  -56476455.5639224     
  -56638496.0489789     
  -56809324.5258424     
  -56983942.5869277     
  -57157749.6131478     
  -57326536.6483447     
  -57486469.3520566     
  -57634065.1951138     
  -57766169.0859862     
  -57879930.4529417     
  -57972783.4094338     
  -58042429.9399035     
  -56081103.5781049     
  -56186599.2840545     
  -56318069.0774513     
  -56469377.7099882     
  -56634708.2362997     
  -56808621.6576913     
  -56986085.5812072     
  -57162479.3728350     
  -57333582.6620317     
  -57495553.3405223     
  -57644900.3727954     
  -57778455.7703018     
  -57893348.9367612     
  -57986985.2177933     
  -58057028.8233937     
  -56046283.0074058     
  -56158760.8960639     
  -56297270.9450881     
  -56455460.2947450     
  -56627357.0735782     
  -56807418.4615211     
  -56990547.6732999     
  -57172087.6740889     
  -57347798.7893696     
  -57513826.6458312     
  -57666666.0608164     
  -57803125.5553966     
  -57920296.0598839     
  -58015526.0564160     
  -58086403.7939696     
  -55994562.4392190     
  -56117582.7378655     
  -56266679.9754897     
  -56435180.8917861     
  -56616888.7398964     
  -56806113.4699132     
  -56997670.7455099     
  -57186858.0913764     
  -57369415.7768673     
  -57541479.2988405     
  -57699529.5160487     
  -57840345.5808889     
  -57960964.7699103     
  -58058652.0731974     
  -58130880.8877644     
  -55926584.0126909     
  -56063781.6853369     
  -56227035.9296658     
  -56409257.8247244     
  -56603965.1037676     
  -56805287.5514132     
  -57007941.2209812     
  -57207180.3938008     
  -57398735.4525647     
  -57578744.0716239     
  -57743682.3254773     
  -57890301.4594773     
  -58015575.1126510     
  -58116660.6667412     
  -58190877.0281277     
  -55843252.2678232     
  -55998348.1356462     
  -56179344.1683531     
  -56378651.0785476     
  -56589453.3246448     
  -56805682.0050359     
  -57021956.7232073     
  -57233506.0941771     
  -57436075.7352886     
  -57625831.7715595     
  -57799267.0874930     
  -57953116.7617288     
  -58084288.2913100     
  -58189811.2781696     
  -58266810.1045526     
  -55745772.9000943     
  -55922572.7871379     
  -56124888.9432912     
  -56344561.0356323     
  -56574409.3905168     
  -56808166.6474175     
  -57040378.8147773     
  -57266286.2630189     
  -57481694.2520987     
  -57682841.7019544     
  -57866276.1011309     
  -58028741.7228442     
  -58167087.6531408     
  -58278201.4573650     
  -58358973.4897337     
  -55635697.6461711     
  -55838076.3807518     
  -56065246.0790270     
  -56308422.7606964     
  -56560053.2206043     
  -56813695.4491146     
  -57063869.3194868     
  -57305889.0637198     
  -57535687.9507874     
  -57749644.5537801     
  -57944419.1230514     
  -58116807.9232413     
  -58263622.9389991     
  -58381604.0291564     
  -58467370.2544832     
  -55514972.6476474     
  -55746839.6432814     
  -56002292.1407347     
  -56271892.7824188     
  -56547732.1639515     
  -56823246.4843380     
  -57093006.9743228     
  -57352493.7624675     
  -57597865.4512449     
  -57825734.3951668     
  -58032956.6651662     
  -58216445.0687780     
  -58373013.4064363     
  -58499260.3011601     
  -58591501.2468607     
  -55385986.8628077     
  -55651229.8566271     
  -55938206.2974755     
  -56236824.3687663     
  -56538868.7442297     
  -56837741.9995748     
  -57128180.2731938     
  -57405957.1951954     
  -57667588.2367418     
  -57910045.8963438     
  -58130494.8460271     
  -58326055.5361033     
  -58493604.8901141     
  -58629623.5311779     
  -58730100.2198849     
  -55251616.2344663     
  -55554019.5214347     
  -55875459.9991157     
  -56205226.0857306     
  -56534887.2441031     
  -56857943.1911527     
  -57169451.2813275     
  -57465647.7919192     
  -57743576.1359081     
  -58000732.4944605     
  -58234737.5333660     
  -58443042.1332646     
  -58622675.5858003     
  -58770046.4000890     
  -58880808.4014872     
  -55115258.4080765     
  -55458391.4602562     
  -55816788.2032122     
  -56179196.8384694     
  -56537112.0451469     
  -56884312.6738581     
  -57216383.8112580     
  -57530241.2030439     
  -57823671.8754182     
  -58094900.9014614     
  -58342191.5022595     
  -58563484.6656906     
  -58756085.4646226     
  -58916406.1481750     
  -59039780.4211385     
  -54980851.8879231     
  -55367923.3702585     
  -55765134.0787468     
  -56160828.4212216     
  -56546628.3208948     
  -56916835.4182378     
  -57267827.5015414     
  -57597470.2519943     
  -57904558.7741863     
  -58188297.2400047     
  -58447820.6924091     
  -58681761.5447447     
  -58887864.9195904     
  -59062661.5130884     
  -59201213.5133871     
  -54852872.7084869     
  -55286543.2059145     
  -55723556.6508041     
  -56152063.5336941     
  -56564092.3835611     
  -56954785.8309850     
  -57321646.8034093     
  -57663820.2297588     
  -57981424.8825853     
  -58274940.2323916     
  -58544646.5305449     
  -58790114.0361519     
  -59009739.7544733     
  -59200336.9049669     
  -59356792.6496984     
  -54736301.0956460     
  -55218444.6854519     
  -55695087.3550324     
  -56154492.7584857     
  -56589474.1964947     
  -56996424.2109775     
  -57374380.3476702     
  -57724158.2906582     
  -58047566.0335494     
  -58346697.3806284     
  -58623292.9014254     
  -58878153.0948831     
  -59110592.2576146     
  -59317931.6920026     
  -59495046.0239360     
  -54636550.3148016     
  -55167949.3503070     
  -55682516.3022237     
  -56169067.3458206     
  -56621707.5127956     
  -57038599.4074794     
  -57420811.2225745     
  -57771282.7205259     
  -58093919.3859305     
  -58392801.1434527     
  -58671476.9993889     
  -58932312.4374826     
  -59175862.2581412     
  -59400256.4513520     
  -59600608.5291423     
  -54559350.0177359     
  -55139297.3412047     
  -55688081.1248703     
  -56195694.5662594     
  -56658212.6396191     
  -57076225.2748682     
  -57453421.8335417     
  -57795373.9527421     
  -58108518.1981679     
  -58399304.0270535     
  -58673451.3862544     
  -58935257.0425173     
  -59186898.2355104     
  -59427704.0444147     
  -59653395.9691929     
  -54510576.8090046     
  -55136342.1965918     
  -55713018.7392558     
  -56232666.8890941     
  -56694241.2842084     
  -57101585.3298068     
  -57461697.6804849     
  -57783324.3187413     
  -58075858.0157554     
  -58348474.7122937     
  -58609408.6932985     
  -58865264.2695985     
  -59120277.3552311     
  -59375471.9436840     
  -59627700.2125284     
  -54496024.9581750     
  -55162113.2740478     
  -55756920.0372664     
  -56275852.1928767     
  -56721969.9309206     
  -57103401.5145334     
  -57431232.1358740     
  -57717917.8111196     
  -57976164.6977152     
  -58218142.5132041     
  -58454869.3007344     
  -58695606.0532927     
  -58947125.4937239     
  -59212763.9676381     
  -59491225.6990235     
  -54521108.8276123     
  -55218188.5742277     
  -55816793.9064201     
  -56317534.6584678     
  -56729234.4809380     
  -57065577.8300640     
  -57342569.2137512     
  -57576825.3701513     
  -57784556.6489269     
  -57981005.4981083     
  -58180084.9396811     
  -58393976.1996337     
  -58632484.9021827     
  -58902015.1845964     
  -59204100.8400157     
  -54590482.5581682     
  -55303782.5926787     
  -55885690.2606693     
  -56344737.0528866     
  -56697750.4095395     
  -56965497.3436338     
  -57169704.9459055     
  -57331377.2521205     
  -57470098.6773098     
  -57603929.3693330     
  -57749508.4413419     
  -57922027.9828982     
  -58134799.7089846     
  -58398204.3331617     
  -58717913.8560124     
  -54707545.0550901     
  -55414382.0947325     
  -55950633.8424294     
  -56336762.2964590     
  -56600595.4347005     
  -56771714.3682858     
  -56878155.2805191     
  -56945075.9191884     
  -56994754.4071607     
  -57047279.9583252     
  -57121401.9098643     
  -57235115.7876490     
  -57405620.7192460     
  -57648346.1342870     
  -57974841.5202815     
  -54873755.0287163     
  -55539623.0487518     
  -55989446.8628897     
  -56261545.8054920     
  -56398645.2238806     
  -56440853.8739290     
  -56422502.3570332     
  -56371826.6662929     
  -56312259.2399255     
  -56264347.6080740     
  -56247681.7584771     
  -56282371.6867578     
  -56389676.8040066     
  -56591297.7061831     
  -56906962.7685750     
  -55087576.1997318     
  -55659819.4692316     
  -55965717.5172735     
  -56070182.3261272     
  -56035561.5830027     
  -55913541.3817124     
  -55743379.3869749     
  -55553900.6871782     
  -55366942.9528653     
  -55200933.6501601     
  -55074115.0767238     
  -55007300.5332954     
  -55025530.8279120     
  -55158081.8670175     
  -55435890.0151344     
  -55342631.9044921     
  -55739931.0815467     
  -55820560.2841186     
  -55688651.2481472     
  -55430903.3454614     
  -55109327.3156878     
  -54763999.1751441     
  -54419711.0752069     
  -54092524.0869030     
  -53795082.7221944     
  -53541048.9248854     
  -53349114.5989901     
  -53247130.4146256     
  -53273098.4092112     
  -53472924.2125550     
  -55623936.2035058     
  -55718331.5095362     
  -55458558.3927963     
  -55005366.1444080     
  -54471209.8473815     
  -53921011.8005947     
  -53386653.3355253     
  -52881568.8471175     
  -52410780.7042163     
  -51976838.6401843     
  -51584413.9140928     
  -51245774.9065935     
  -50986576.8473938     
  -50856121.5750213     
  -50921008.7948751     
  -55899365.0168120     
  -55483550.1612702     
  -54722933.9700299     
  -53853254.6353329     
  -53000112.8595080     
  -52209953.3664961     
  -51489958.6268981     
  -50833637.7874897     
  -50229867.8997497     
  -49667212.2155381     
  -49136930.9165416     
  -48637101.9160255     
  -48184614.7956320     
  -47823547.8496081     
  -47692645.8516811     
  -56092974.0364747     
  -54821919.8226025     
  -53350537.9013163     
  -51988142.3101080     
  -50813565.9829320     
  -49804612.8655257     
  -48927889.6247339     
  -48150233.1944063     
  -47441765.0976160     
  -46775405.6868231     
  -46126023.5004272     
  -45471271.3762550     
  -44795411.5218393     
  -44135628.0828817     
  -43672624.3117705     
  -56002450.5350946     
  -53269617.2584026     
  -50901956.5230008     
  -49093143.2390211     
  -47665358.8336962     
  -46505043.3831606     
  -45531044.0823849     
  -44684329.1057778     
  -43918373.9589750     
  -43192619.6793744     
  -42467009.0678011     
  -41696026.6502838     
  -40823838.6584844     
  -39769599.9000439     
  -38703748.2821241     
  -54670272.5511853     
  -49771369.4096085     
  -46850315.6662924     
  -44811673.6859539     
  -43289278.7041989     
  -42092502.9066923     
  -41109409.6745352     
  -40265660.3321261     
  -39505845.2567281     
  -38782455.3780780     
  -38047112.0030192     
  -37240118.0731909     
  -36270636.4542912     
  -34971295.8268610     
  -32793145.6026512     
SCALARS 2waySource double 
LOOKUP_TABLE default
 -7.546620550170227E-004
 -7.374214239223037E-004
 -7.146907968264129E-004
 -6.876579553378591E-004
 -6.574629852718074E-004
 -6.251814931508568E-004
 -5.918147321005709E-004
 -5.582852019825853E-004
 -5.254363863229980E-004
 -4.940354067019320E-004
 -4.647775157683898E-004
 -4.382915165519532E-004
 -4.151453936065765E-004
 -3.958516780513762E-004
 -3.808723532414429E-004
 -7.581696055209295E-004
 -7.402754224543665E-004
 -7.168536105233861E-004
 -6.891197414754127E-004
 -6.582357051813828E-004
 -6.252937752326140E-004
 -5.913076086504840E-004
 -5.572087131203883E-004
 -5.238470157918986E-004
 -4.919942875239966E-004
 -4.623493179975502E-004
 -4.355439042141215E-004
 -4.121489129094814E-004
 -3.926799135159743E-004
 -3.776021618120794E-004
 -7.651553688652920E-004
 -7.459314761127918E-004
 -7.211298458548339E-004
 -6.920180210954114E-004
 -6.597971587835460E-004
 -6.255880616470415E-004
 -5.904241956684865E-004
 -5.552501607108219E-004
 -5.209241884613486E-004
 -4.882233652502359E-004
 -4.578504205675727E-004
 -4.304410892440707E-004
 -4.065712515014967E-004
 -3.867632874373098E-004
 -3.714913602995163E-004
 -7.755448936857820E-004
 -7.543013721996973E-004
 -7.274239031838964E-004
 -6.962555184886572E-004
 -6.620531571224486E-004
 -6.259768668251222E-004
 -5.890860610393623E-004
 -5.523412003873231E-004
 -5.166093827758517E-004
 -4.826724547308888E-004
 -4.512364022898138E-004
 -4.229409465859689E-004
 -3.983684618675605E-004
 -3.780515587352927E-004
 -3.624789422624235E-004
 -7.892209609367704E-004
 -7.652487716973458E-004
 -7.355904291892106E-004
 -7.016868239025106E-004
 -6.648656299087798E-004
 -6.263350071170641E-004
 -5.871844348045959E-004
 -5.483909169982629E-004
 -5.108289250214374E-004
 -4.752825775776853E-004
 -4.424587081363718E-004
 -4.129996360172093E-004
 -3.874946448860139E-004
 -3.664893860982753E-004
 -3.504926738666768E-004
 -8.060177782168539E-004
 -7.785850685313225E-004
 -7.454321033654301E-004
 -7.081182996892584E-004
 -6.680547761775441E-004
 -6.265040553706052E-004
 -5.845869644731972E-004
 -5.432948185006860E-004
 -5.035051044496191E-004
 -4.659990288785078E-004
 -4.314794468645847E-004
 -4.005878582078214E-004
 -3.739193377168978E-004
 -3.520344642829926E-004
 -3.354675373540270E-004
 -8.257135680809674E-004
 -7.940642273503017E-004
 -7.566970714987862E-004
 -7.153083637415139E-004
 -6.714023613728316E-004
 -6.262987272780548E-004
 -5.811471829408699E-004
 -5.369473010368574E-004
 -4.945714811767509E-004
 -4.547893087364892E-004
 -4.182916638841322E-004
 -3.857131211460196E-004
 -3.576513547482514E-004
 -3.346824419150436E-004
 -3.173711436469471E-004
 -8.480219542309603E-004
 -8.113770219612919E-004
 -7.690764720449458E-004
 -7.229686239702134E-004
 -6.746566631727453E-004
 -6.255157277619320E-004
 -5.767172387820968E-004
 -5.292581524584351E-004
 -4.839929705374365E-004
 -4.416665224095087E-004
 -4.029457224742298E-004
 -3.684486935971644E-004
 -3.387698191545995E-004
 -3.144994366322555E-004
 -2.962370219145317E-004
 -8.725826850932557E-004
 -8.301452334413306E-004
 -7.822026452392530E-004
 -7.307664909244790E-004
 -6.775397297677507E-004
 -6.239457506721183E-004
 -5.711646013281731E-004
 -5.201738163004529E-004
 -4.717914310009477E-004
 -4.267189849564530E-004
 -3.855825512144860E-004
 -3.489700472339397E-004
 -3.174632581037876E-004
 -2.916631209155719E-004
 -2.722068843199978E-004
 -8.989523896864857E-004
 -8.499165255919208E-004
 -7.956487860996660E-004
 -7.383300826048500E-004
 -6.797578131357447E-004
 -6.213895269966237E-004
 -5.643936469609183E-004
 -5.097043141983411E-004
 -4.580776342331076E-004
 -4.101468921901933E-004
 -3.664746208450651E-004
 -3.275996845762693E-004
 -2.940777352574816E-004
 -2.665134748318427E-004
 -2.455831261955096E-004
 -9.265962327247804E-004
 -8.701608986161727E-004
 -8.089310111073318E-004
 -7.452564720915350E-004
 -6.810160957732110E-004
 -6.176790756437442E-004
 -5.563732754858333E-004
 -4.979569334645026E-004
 -4.430906597653624E-004
 -3.923070362723493E-004
 -3.460755897926941E-004
 -3.048613006638568E-004
 -2.691750414007030E-004
 -2.396143706407599E-004
 -2.168929374581346E-004
 -9.548815164505297E-004
 -8.902698327228051E-004
 -8.215140694651962E-004
 -7.511246399232236E-004
 -6.810391729106334E-004
 -6.127056572059573E-004
 -5.471720218110784E-004
 -4.851780447332011E-004
 -4.272459390686276E-004
 -3.737666466855139E-004
 -3.250795899633792E-004
 -2.815442107972713E-004
 -2.436019315632964E-004
 -2.118271409278138E-004
 -1.869654437160827E-004
 -9.830744509748070E-004
 -9.095594768055983E-004
 -8.328222684789374E-004
 -7.555149195948361E-004
 -6.795992312860237E-004
 -6.064564114371371E-004
 -5.370025559615539E-004
 -4.718047457686760E-004
 -4.111933821451481E-004
 -3.553675177224140E-004
 -3.044910922843535E-004
 -2.587788643021133E-004
 -2.185712485189313E-004
 -1.843971480092967E-004
 -1.570232278757874E-004
 -1.010341460014281E-003
 -9.272795241723474E-004
 -8.422576415783736E-004
 -7.580373317054358E-004
 -6.765545548630587E-004
 -5.990623433387506E-004
 -5.262780575037273E-004
 -4.585284631173687E-004
 -3.958872616994124E-004
 -3.383016283671369E-004
 -2.857061643954991E-004
 -2.381240129112816E-004
 -1.957554589918719E-004
 -1.590540660916587E-004
 -1.287893545466769E-004
 -1.035756473046708E-003
 -9.426297716586714E-004
 -8.492280411712843E-004
 -7.583720972787586E-004
 -6.719020039233253E-004
 -5.908613142376782E-004
 -5.156837833700289E-004
 -4.463732220544086E-004
 -3.826698095536143E-004
 -3.241994450397059E-004
 -2.706056660189324E-004
 -2.216656544485817E-004
 -1.773925859560450E-004
 -1.381260424664265E-004
 -1.046105647133929E-004
 -1.058315638705145E-003
 -9.547868326835481E-004
 -8.531888168152605E-004
 -7.563269786506443E-004
 -6.658486369662067E-004
 -5.824811432706765E-004
 -5.062683195073878E-004
 -4.367920588809350E-004
 -3.733707892199603E-004
 -3.152319781441664E-004
 -2.616604549627560E-004
 -2.121271510200190E-004
 -1.664036668248714E-004
 -1.246670382671710E-004
 -8.759654722675137E-005
 -1.076960736708069E-003
 -9.629441772499003E-004
 -8.537032694406780E-004
 -7.519182034666232E-004
 -6.589099515507663E-004
 -5.749500434545703E-004
 -4.995606374422696E-004
 -4.317860293757087E-004
 -3.704256105689532E-004
 -3.142273618965277E-004
 -2.620479024227253E-004
 -2.129888257281459E-004
 -1.665196050916384E-004
 -1.225953690535584E-004
 -8.177403684344806E-005
 -1.090612239088185E-003
 -9.663698191211229E-004
 -8.505295535390334E-004
 -7.454850534320059E-004
 -6.520457313781775E-004
 -5.698446922900294E-004
 -4.977212935195584E-004
 -4.340514531385035E-004
 -3.770147509754081E-004
 -3.248021103609763E-004
 -2.757778040292268E-004
 -2.286137481503783E-004
 -1.824135007753858E-004
 -1.368396707674515E-004
 -9.225284570671535E-005
 -1.098212492770407E-003
 -9.644879860252677E-004
 -8.437458370583969E-004
 -7.378535190945451E-004
 -6.468498328131532E-004
 -5.694906301440992E-004
 -5.037389937685970E-004
 -4.471623104152980E-004
 -3.972271345773504E-004
 -3.515060557109397E-004
 -3.078239397772549E-004
 -2.643741818534196E-004
 -2.198321254261900E-004
 -1.734861101240869E-004
 -1.253987301923628E-004
 -1.098778987242613E-003
 -9.569948158475634E-004
 -8.339325934129011E-004
 -7.305730238108413E-004
 -6.458183449221012E-004
 -5.772357686196387E-004
 -5.216872132653299E-004
 -4.757957292943642E-004
 -4.362493055416730E-004
 -3.999779763525823E-004
 -3.642548650016067E-004
 -3.267701390279227E-004
 -2.857170376260157E-004
 -2.399175460787525E-004
 -1.890051766119901E-004
 -1.091467471289927E-003
 -9.440251466009375E-004
 -8.224432408878677E-004
 -7.262642792765389E-004
 -6.527326778397182E-004
 -5.978257653958161E-004
 -5.570590443210238E-004
 -5.260084799533843E-004
 -5.005800430792508E-004
 -4.771056824055705E-004
 -4.523538042464480E-004
 -4.235275703803898E-004
 -3.883017999060421E-004
 -3.449314098725561E-004
 -2.924527050693487E-004
 -1.075645587655981E-003
 -9.264011163385744E-004
 -8.118165227851018E-004
 -7.291395554645740E-004
 -6.732117713691123E-004
 -6.379192269549258E-004
 -6.172002980620410E-004
 -6.055697275495477E-004
 -5.982656298452212E-004
 -5.911794687931727E-004
 -5.807128311461529E-004
 -5.636588910184696E-004
 -5.371667354896163E-004
 -4.988180083861369E-004
 -4.468399460087961E-004
 -1.050981304268928E-003
 -9.060208836969249E-004
 -8.064252844863698E-004
 -7.457954217131330E-004
 -7.155115899485391E-004
 -7.067878653567727E-004
 -7.118569365231550E-004
 -7.243475381425049E-004
 -7.391432214332175E-004
 -7.520219936114331E-004
 -7.592810303833644E-004
 -7.574633601376609E-004
 -7.432262543680982E-004
 -7.133739027811482E-004
 -6.650647300621594E-004
 -1.017561154336031E-003
 -8.865040333412426E-004
 -8.135373909997303E-004
 -7.864424973124551E-004
 -7.916769963313285E-004
 -8.172413076976622E-004
 -8.538342208577477E-004
 -8.947302409042402E-004
 -9.350713687977492E-004
 -9.710701181651459E-004
 -9.993439057651382E-004
 -1.016438540600367E-003
 -1.018615858124164E-003
 -1.001814475093539E-003
 -9.618217526833721E-004
 -9.760777237079401E-004
 -8.743481724305875E-004
 -8.451305886539562E-004
 -8.668408892204376E-004
 -9.191602652077482E-004
 -9.867689319680113E-004
 -1.059715841122836E-003
 -1.132038417629306E-003
 -1.200122472459415E-003
 -1.261395672591007E-003
 -1.313388899030334E-003
 -1.353084297254359E-003
 -1.376439092979010E-003
 -1.378520106904074E-003
 -1.353461771240761E-003
 -9.282191909010056E-004
 -8.811901488224181E-004
 -9.211784320777003E-004
 -1.011341942698856E-003
 -1.122927632947631E-003
 -1.238742615409461E-003
 -1.350489946628400E-003
 -1.454861975421851E-003
 -1.550739701858435E-003
 -1.637673797281811E-003
 -1.714886227193279E-003
 -1.780386288672549E-003
 -1.830441938946802E-003
 -1.858681762030811E-003
 -1.857376836560351E-003
 -8.775679539722970E-004
 -9.289103917658117E-004
 -1.075887550749627E-003
 -1.257419547855616E-003
 -1.437645441250112E-003
 -1.603140772628061E-003
 -1.751846164217453E-003
 -1.885265549907043E-003
 -2.005923397550887E-003
 -2.116258797027779E-003
 -2.217973812911629E-003
 -2.311258937818944E-003
 -2.393182239071615E-003
 -2.458194988092128E-003
 -2.489421444749311E-003
 -8.335087168558175E-004
 -1.062418518082602E-003
 -1.369981557897122E-003
 -1.660856527882926E-003
 -1.907831443207127E-003
 -2.116134090378813E-003
 -2.293909481266920E-003
 -2.448885970311107E-003
 -2.587620234377086E-003
 -2.715655817466370E-003
 -2.837677426961833E-003
 -2.957253449031160E-003
 -3.075603888461446E-003
 -3.185096836439432E-003
 -3.269501283070439E-003
 -8.251036876107802E-004
 -1.392297158373219E-003
 -1.909350054134300E-003
 -2.291126725742715E-003
 -2.584591997587167E-003
 -2.818036847942483E-003
 -3.010503024349246E-003
 -3.175079504061229E-003
 -3.321527699657728E-003
 -3.457842437476545E-003
 -3.591343833775382E-003
 -3.729527043355896E-003
 -3.880361097430515E-003
 -4.050624834817790E-003
 -4.209028889047358E-003
 -1.079755793625024E-003
 -2.191807843662943E-003
 -2.805874168112506E-003
 -3.217980300346260E-003
 -3.518513843017731E-003
 -3.750626606026334E-003
 -3.938461320493910E-003
 -4.097403731507455E-003
 -4.238446927860426E-003
 -4.370548668414875E-003
 -4.502271210827528E-003
 -4.643441600827651E-003
 -4.807613886764997E-003
 -5.017496760393896E-003
 -5.308657308856364E-003
SCALARS poroP double 
LOOKUP_TABLE default
  0.000000000000000E+000
  0.000000000000000E+000
  0.000000000000000E+000
  0.000000000000000E+000
  0.000000000000000E+000
  0.000000000000000E+000
  0.000000000000000E+000
  0.000000000000000E+000
  0.000000000000000E+000
  0.000000000000000E+000
  0.000000000000000E+000
  0.000000000000000E+000
  0.000000000000000E+000
  0.000000000000000E+000
  0.000000000000000E+000
  0.000000000000000E+000
  0.000000000000000E+000
  0.000000000000000E+000
  0.000000000000000E+000
  0.000000000000000E+000
  0.000000000000000E+000
  0.000000000000000E+000
  0.000000000000000E+000
  0.000000000000000E+000
  0.000000000000000E+000
  0.000000000000000E+000
  0.000000000000000E+000
  0.000000000000000E+000
  0.000000000000000E+000
  0.000000000000000E+000
  0.000000000000000E+000
  0.000000000000000E+000
  0.000000000000000E+000
  0.000000000000000E+000
  0.000000000000000E+000
  0.000000000000000E+000
  0.000000000000000E+000
  0.000000000000000E+000
  0.000000000000000E+000
  0.000000000000000E+000
  0.000000000000000E+000
  0.000000000000000E+000
  0.000000000000000E+000
  0.000000000000000E+000
  0.000000000000000E+000
  0.000000000000000E+000
  0.000000000000000E+000
  0.000000000000000E+000
  0.000000000000000E+000
  0.000000000000000E+000
  0.000000000000000E+000
  0.000000000000000E+000
  0.000000000000000E+000
  0.000000000000000E+000
  0.000000000000000E+000
  0.000000000000000E+000
  0.000000000000000E+000
  0.000000000000000E+000
  0.000000000000000E+000
  0.000000000000000E+000
  0.000000000000000E+000
  0.000000000000000E+000
  0.000000000000000E+000
  0.000000000000000E+000
  0.000000000000000E+000
  0.000000000000000E+000
  0.000000000000000E+000
  0.000000000000000E+000
  0.000000000000000E+000
  0.000000000000000E+000
  0.000000000000000E+000
  0.000000000000000E+000
  0.000000000000000E+000
  0.000000000000000E+000
  0.000000000000000E+000
  0.000000000000000E+000
  0.000000000000000E+000
  0.000000000000000E+000
  0.000000000000000E+000
  0.000000000000000E+000
  0.000000000000000E+000
  0.000000000000000E+000
  0.000000000000000E+000
  0.000000000000000E+000
  0.000000000000000E+000
  0.000000000000000E+000
  0.000000000000000E+000
  0.000000000000000E+000
  0.000000000000000E+000
  0.000000000000000E+000
  0.000000000000000E+000
  0.000000000000000E+000
  0.000000000000000E+000
  0.000000000000000E+000
  0.000000000000000E+000
  0.000000000000000E+000
  0.000000000000000E+000
  0.000000000000000E+000
  0.000000000000000E+000
  0.000000000000000E+000
  0.000000000000000E+000
  0.000000000000000E+000
  0.000000000000000E+000
  0.000000000000000E+000
  0.000000000000000E+000
  0.000000000000000E+000
  0.000000000000000E+000
  0.000000000000000E+000
  0.000000000000000E+000
  0.000000000000000E+000
  0.000000000000000E+000
  0.000000000000000E+000
  0.000000000000000E+000
  0.000000000000000E+000
  0.000000000000000E+000
  0.000000000000000E+000
  0.000000000000000E+000
  0.000000000000000E+000
  0.000000000000000E+000
  0.000000000000000E+000
  0.000000000000000E+000
  0.000000000000000E+000
  0.000000000000000E+000
  0.000000000000000E+000
  0.000000000000000E+000
  0.000000000000000E+000
  0.000000000000000E+000
  0.000000000000000E+000
  0.000000000000000E+000
  0.000000000000000E+000
  0.000000000000000E+000
  0.000000000000000E+000
  0.000000000000000E+000
  0.000000000000000E+000
  0.000000000000000E+000
  0.000000000000000E+000
  0.000000000000000E+000
  0.000000000000000E+000
  0.000000000000000E+000
  0.000000000000000E+000
  0.000000000000000E+000
  0.000000000000000E+000
  0.000000000000000E+000
  0.000000000000000E+000
  0.000000000000000E+000
  0.000000000000000E+000
  0.000000000000000E+000
  0.000000000000000E+000
  0.000000000000000E+000
  0.000000000000000E+000
  0.000000000000000E+000
  0.000000000000000E+000
  0.000000000000000E+000
  0.000000000000000E+000
  0.000000000000000E+000
  0.000000000000000E+000
  0.000000000000000E+000
  0.000000000000000E+000
  0.000000000000000E+000
  0.000000000000000E+000
  0.000000000000000E+000
  0.000000000000000E+000
  0.000000000000000E+000
  0.000000000000000E+000
  0.000000000000000E+000
  0.000000000000000E+000
  0.000000000000000E+000
  0.000000000000000E+000
  0.000000000000000E+000
  0.000000000000000E+000
  0.000000000000000E+000
  0.000000000000000E+000
  0.000000000000000E+000
  0.000000000000000E+000
  0.000000000000000E+000
  0.000000000000000E+000
  0.000000000000000E+000
  0.000000000000000E+000
  0.000000000000000E+000
  0.000000000000000E+000
  0.000000000000000E+000
  0.000000000000000E+000
  0.000000000000000E+000
  0.000000000000000E+000
  0.000000000000000E+000
  0.000000000000000E+000
  0.000000000000000E+000
  0.000000000000000E+000
  0.000000000000000E+000
  0.000000000000000E+000
  0.000000000000000E+000
  0.000000000000000E+000
  0.000000000000000E+000
  0.000000000000000E+000
  0.000000000000000E+000
  0.000000000000000E+000
  0.000000000000000E+000
  0.000000000000000E+000
  0.000000000000000E+000
  0.000000000000000E+000
  0.000000000000000E+000
  0.000000000000000E+000
  0.000000000000000E+000
  0.000000000000000E+000
  0.000000000000000E+000
  0.000000000000000E+000
  0.000000000000000E+000
  0.000000000000000E+000
  0.000000000000000E+000
  0.000000000000000E+000
  0.000000000000000E+000
  0.000000000000000E+000
  0.000000000000000E+000
  0.000000000000000E+000
  0.000000000000000E+000
  0.000000000000000E+000
  0.000000000000000E+000
  0.000000000000000E+000
  0.000000000000000E+000
  0.000000000000000E+000
  0.000000000000000E+000
  0.000000000000000E+000
  0.000000000000000E+000
  0.000000000000000E+000
  0.000000000000000E+000
  0.000000000000000E+000
  0.000000000000000E+000
  0.000000000000000E+000
  0.000000000000000E+000
  0.000000000000000E+000
  0.000000000000000E+000
  0.000000000000000E+000
  0.000000000000000E+000
  0.000000000000000E+000
  0.000000000000000E+000
  0.000000000000000E+000
  0.000000000000000E+000
  0.000000000000000E+000
  0.000000000000000E+000
  0.000000000000000E+000
  0.000000000000000E+000
  0.000000000000000E+000
  0.000000000000000E+000
  0.000000000000000E+000
  0.000000000000000E+000
  0.000000000000000E+000
  0.000000000000000E+000
  0.000000000000000E+000
  0.000000000000000E+000
  0.000000000000000E+000
  0.000000000000000E+000
  0.000000000000000E+000
  0.000000000000000E+000
  0.000000000000000E+000
  0.000000000000000E+000
  0.000000000000000E+000
  0.000000000000000E+000
  0.000000000000000E+000
  0.000000000000000E+000
  0.000000000000000E+000
  0.000000000000000E+000
  0.000000000000000E+000
  0.000000000000000E+000
  0.000000000000000E+000
  0.000000000000000E+000
  0.000000000000000E+000
  0.000000000000000E+000
  0.000000000000000E+000
  0.000000000000000E+000
  0.000000000000000E+000
  0.000000000000000E+000
  0.000000000000000E+000
  0.000000000000000E+000
  0.000000000000000E+000
  0.000000000000000E+000
  0.000000000000000E+000
  0.000000000000000E+000
  0.000000000000000E+000
  0.000000000000000E+000
  0.000000000000000E+000
  0.000000000000000E+000
  0.000000000000000E+000
  0.000000000000000E+000
  0.000000000000000E+000
  0.000000000000000E+000
  0.000000000000000E+000
  0.000000000000000E+000
  0.000000000000000E+000
  0.000000000000000E+000
  0.000000000000000E+000
  0.000000000000000E+000
  0.000000000000000E+000
  0.000000000000000E+000
  0.000000000000000E+000
  0.000000000000000E+000
  0.000000000000000E+000
  0.000000000000000E+000
  0.000000000000000E+000
  0.000000000000000E+000
  0.000000000000000E+000
  0.000000000000000E+000
  0.000000000000000E+000
  0.000000000000000E+000
  0.000000000000000E+000
  0.000000000000000E+000
  0.000000000000000E+000
  0.000000000000000E+000
  0.000000000000000E+000
  0.000000000000000E+000
  0.000000000000000E+000
  0.000000000000000E+000
  0.000000000000000E+000
  0.000000000000000E+000
  0.000000000000000E+000
  0.000000000000000E+000
  0.000000000000000E+000
  0.000000000000000E+000
  0.000000000000000E+000
  0.000000000000000E+000
  0.000000000000000E+000
  0.000000000000000E+000
  0.000000000000000E+000
  0.000000000000000E+000
  0.000000000000000E+000
  0.000000000000000E+000
  0.000000000000000E+000
  0.000000000000000E+000
  0.000000000000000E+000
  0.000000000000000E+000
  0.000000000000000E+000
  0.000000000000000E+000
  0.000000000000000E+000
  0.000000000000000E+000
  0.000000000000000E+000
  0.000000000000000E+000
  0.000000000000000E+000
  0.000000000000000E+000
  0.000000000000000E+000
  0.000000000000000E+000
  0.000000000000000E+000
  0.000000000000000E+000
  0.000000000000000E+000
  0.000000000000000E+000
  0.000000000000000E+000
  0.000000000000000E+000
  0.000000000000000E+000
  0.000000000000000E+000
  0.000000000000000E+000
  0.000000000000000E+000
  0.000000000000000E+000
  0.000000000000000E+000
  0.000000000000000E+000
  0.000000000000000E+000
  0.000000000000000E+000
  0.000000000000000E+000
  0.000000000000000E+000
  0.000000000000000E+000
  0.000000000000000E+000
  0.000000000000000E+000
  0.000000000000000E+000
  0.000000000000000E+000
  0.000000000000000E+000
  0.000000000000000E+000
  0.000000000000000E+000
  0.000000000000000E+000
  0.000000000000000E+000
  0.000000000000000E+000
  0.000000000000000E+000
  0.000000000000000E+000
  0.000000000000000E+000
  0.000000000000000E+000
  0.000000000000000E+000
  0.000000000000000E+000
  0.000000000000000E+000
  0.000000000000000E+000
  0.000000000000000E+000
  0.000000000000000E+000
  0.000000000000000E+000
  0.000000000000000E+000
  0.000000000000000E+000
  0.000000000000000E+000
  0.000000000000000E+000
  0.000000000000000E+000
  0.000000000000000E+000
  0.000000000000000E+000
  0.000000000000000E+000
  0.000000000000000E+000
  0.000000000000000E+000
  0.000000000000000E+000
  0.000000000000000E+000
  0.000000000000000E+000
  0.000000000000000E+000
  0.000000000000000E+000
  0.000000000000000E+000
  0.000000000000000E+000
  0.000000000000000E+000
  0.000000000000000E+000
  0.000000000000000E+000
  0.000000000000000E+000
  0.000000000000000E+000
  0.000000000000000E+000
  0.000000000000000E+000
  0.000000000000000E+000
  0.000000000000000E+000
  1.220328001839519E-007
  0.000000000000000E+000
  0.000000000000000E+000
  0.000000000000000E+000
  0.000000000000000E+000
  0.000000000000000E+000
  0.000000000000000E+000
  0.000000000000000E+000
  0.000000000000000E+000
  0.000000000000000E+000
  0.000000000000000E+000
  0.000000000000000E+000
  0.000000000000000E+000
  0.000000000000000E+000
  0.000000000000000E+000
  3.035141036509436E-007
  0.000000000000000E+000
  0.000000000000000E+000
  0.000000000000000E+000
  0.000000000000000E+000
  0.000000000000000E+000
  0.000000000000000E+000
  0.000000000000000E+000
  0.000000000000000E+000
  0.000000000000000E+000
  0.000000000000000E+000
  0.000000000000000E+000
  0.000000000000000E+000
  0.000000000000000E+000
  0.000000000000000E+000
  1.350861169932913E-008
  3.991557844373531E-009
  0.000000000000000E+000
  0.000000000000000E+000
  0.000000000000000E+000
  0.000000000000000E+000
  0.000000000000000E+000
  0.000000000000000E+000
  0.000000000000000E+000
  0.000000000000000E+000
  0.000000000000000E+000
  0.000000000000000E+000
  0.000000000000000E+000
  0.000000000000000E+000
  0.000000000000000E+000
  0.000000000000000E+000
SCALARS elementIsPlast double 
LOOKUP_TABLE default
  0.000000000000000E+000
  0.000000000000000E+000
  0.000000000000000E+000
  0.000000000000000E+000
  0.000000000000000E+000
  0.000000000000000E+000
  0.000000000000000E+000
  0.000000000000000E+000
  0.000000000000000E+000
  0.000000000000000E+000
  0.000000000000000E+000
  0.000000000000000E+000
  0.000000000000000E+000
  0.000000000000000E+000
  0.000000000000000E+000
  0.000000000000000E+000
  0.000000000000000E+000
  0.000000000000000E+000
  0.000000000000000E+000
  0.000000000000000E+000
  0.000000000000000E+000
  0.000000000000000E+000
  0.000000000000000E+000
  0.000000000000000E+000
  0.000000000000000E+000
  0.000000000000000E+000
  0.000000000000000E+000
  0.000000000000000E+000
  0.000000000000000E+000
  0.000000000000000E+000
  0.000000000000000E+000
  0.000000000000000E+000
  0.000000000000000E+000
  0.000000000000000E+000
  0.000000000000000E+000
  0.000000000000000E+000
  0.000000000000000E+000
  0.000000000000000E+000
  0.000000000000000E+000
  0.000000000000000E+000
  0.000000000000000E+000
  0.000000000000000E+000
  0.000000000000000E+000
  0.000000000000000E+000
  0.000000000000000E+000
  0.000000000000000E+000
  0.000000000000000E+000
  0.000000000000000E+000
  0.000000000000000E+000
  0.000000000000000E+000
  0.000000000000000E+000
  0.000000000000000E+000
  0.000000000000000E+000
  0.000000000000000E+000
  0.000000000000000E+000
  0.000000000000000E+000
  0.000000000000000E+000
  0.000000000000000E+000
  0.000000000000000E+000
  0.000000000000000E+000
  0.000000000000000E+000
  0.000000000000000E+000
  0.000000000000000E+000
  0.000000000000000E+000
  0.000000000000000E+000
  0.000000000000000E+000
  0.000000000000000E+000
  0.000000000000000E+000
  0.000000000000000E+000
  0.000000000000000E+000
  0.000000000000000E+000
  0.000000000000000E+000
  0.000000000000000E+000
  0.000000000000000E+000
  0.000000000000000E+000
  0.000000000000000E+000
  0.000000000000000E+000
  0.000000000000000E+000
  0.000000000000000E+000
  0.000000000000000E+000
  0.000000000000000E+000
  0.000000000000000E+000
  0.000000000000000E+000
  0.000000000000000E+000
  0.000000000000000E+000
  0.000000000000000E+000
  0.000000000000000E+000
  0.000000000000000E+000
  0.000000000000000E+000
  0.000000000000000E+000
  0.000000000000000E+000
  0.000000000000000E+000
  0.000000000000000E+000
  0.000000000000000E+000
  0.000000000000000E+000
  0.000000000000000E+000
  0.000000000000000E+000
  0.000000000000000E+000
  0.000000000000000E+000
  0.000000000000000E+000
  0.000000000000000E+000
  0.000000000000000E+000
  0.000000000000000E+000
  0.000000000000000E+000
  0.000000000000000E+000
  0.000000000000000E+000
  0.000000000000000E+000
  0.000000000000000E+000
  0.000000000000000E+000
  0.000000000000000E+000
  0.000000000000000E+000
  0.000000000000000E+000
  0.000000000000000E+000
  0.000000000000000E+000
  0.000000000000000E+000
  0.000000000000000E+000
  0.000000000000000E+000
  0.000000000000000E+000
  0.000000000000000E+000
  0.000000000000000E+000
  0.000000000000000E+000
  0.000000000000000E+000
  0.000000000000000E+000
  0.000000000000000E+000
  0.000000000000000E+000
  0.000000000000000E+000
  0.000000000000000E+000
  0.000000000000000E+000
  0.000000000000000E+000
  0.000000000000000E+000
  0.000000000000000E+000
  0.000000000000000E+000
  0.000000000000000E+000
  0.000000000000000E+000
  0.000000000000000E+000
  0.000000000000000E+000
  0.000000000000000E+000
  0.000000000000000E+000
  0.000000000000000E+000
  0.000000000000000E+000
  0.000000000000000E+000
  0.000000000000000E+000
  0.000000000000000E+000
  0.000000000000000E+000
  0.000000000000000E+000
  0.000000000000000E+000
  0.000000000000000E+000
  0.000000000000000E+000
  0.000000000000000E+000
  0.000000000000000E+000
  0.000000000000000E+000
  0.000000000000000E+000
  0.000000000000000E+000
  0.000000000000000E+000
  0.000000000000000E+000
  0.000000000000000E+000
  0.000000000000000E+000
  0.000000000000000E+000
  0.000000000000000E+000
  0.000000000000000E+000
  0.000000000000000E+000
  0.000000000000000E+000
  0.000000000000000E+000
  0.000000000000000E+000
  0.000000000000000E+000
  0.000000000000000E+000
  0.000000000000000E+000
  0.000000000000000E+000
  0.000000000000000E+000
  0.000000000000000E+000
  0.000000000000000E+000
  0.000000000000000E+000
  0.000000000000000E+000
  0.000000000000000E+000
  0.000000000000000E+000
  0.000000000000000E+000
  0.000000000000000E+000
  0.000000000000000E+000
  0.000000000000000E+000
  0.000000000000000E+000
  0.000000000000000E+000
  0.000000000000000E+000
  0.000000000000000E+000
  0.000000000000000E+000
  0.000000000000000E+000
  0.000000000000000E+000
  0.000000000000000E+000
  0.000000000000000E+000
  0.000000000000000E+000
  0.000000000000000E+000
  0.000000000000000E+000
  0.000000000000000E+000
  0.000000000000000E+000
  0.000000000000000E+000
  0.000000000000000E+000
  0.000000000000000E+000
  0.000000000000000E+000
  0.000000000000000E+000
  0.000000000000000E+000
  0.000000000000000E+000
  0.000000000000000E+000
  0.000000000000000E+000
  0.000000000000000E+000
  0.000000000000000E+000
  0.000000000000000E+000
  0.000000000000000E+000
  0.000000000000000E+000
  0.000000000000000E+000
  0.000000000000000E+000
  0.000000000000000E+000
  0.000000000000000E+000
  0.000000000000000E+000
  0.000000000000000E+000
  0.000000000000000E+000
  0.000000000000000E+000
  0.000000000000000E+000
  0.000000000000000E+000
  0.000000000000000E+000
  0.000000000000000E+000
  0.000000000000000E+000
  0.000000000000000E+000
  0.000000000000000E+000
  0.000000000000000E+000
  0.000000000000000E+000
  0.000000000000000E+000
  0.000000000000000E+000
  0.000000000000000E+000
  0.000000000000000E+000
  0.000000000000000E+000
  0.000000000000000E+000
  0.000000000000000E+000
  0.000000000000000E+000
  0.000000000000000E+000
  0.000000000000000E+000
  0.000000000000000E+000
  0.000000000000000E+000
  0.000000000000000E+000
  0.000000000000000E+000
  0.000000000000000E+000
  0.000000000000000E+000
  0.000000000000000E+000
  0.000000000000000E+000
  0.000000000000000E+000
  0.000000000000000E+000
  0.000000000000000E+000
  0.000000000000000E+000
  0.000000000000000E+000
  0.000000000000000E+000
  0.000000000000000E+000
  0.000000000000000E+000
  0.000000000000000E+000
  0.000000000000000E+000
  0.000000000000000E+000
  0.000000000000000E+000
  0.000000000000000E+000
  0.000000000000000E+000
  0.000000000000000E+000
  0.000000000000000E+000
  0.000000000000000E+000
  0.000000000000000E+000
  0.000000000000000E+000
  0.000000000000000E+000
  0.000000000000000E+000
  0.000000000000000E+000
  0.000000000000000E+000
  0.000000000000000E+000
  0.000000000000000E+000
  0.000000000000000E+000
  0.000000000000000E+000
  0.000000000000000E+000
  0.000000000000000E+000
  0.000000000000000E+000
  0.000000000000000E+000
  0.000000000000000E+000
  0.000000000000000E+000
  0.000000000000000E+000
  0.000000000000000E+000
  0.000000000000000E+000
  0.000000000000000E+000
  0.000000000000000E+000
  0.000000000000000E+000
  0.000000000000000E+000
  0.000000000000000E+000
  0.000000000000000E+000
  0.000000000000000E+000
  0.000000000000000E+000
  0.000000000000000E+000
  0.000000000000000E+000
  0.000000000000000E+000
  0.000000000000000E+000
  0.000000000000000E+000
  0.000000000000000E+000
  0.000000000000000E+000
  0.000000000000000E+000
  0.000000000000000E+000
  0.000000000000000E+000
  0.000000000000000E+000
  0.000000000000000E+000
  0.000000000000000E+000
  0.000000000000000E+000
  0.000000000000000E+000
  0.000000000000000E+000
  0.000000000000000E+000
  0.000000000000000E+000
  0.000000000000000E+000
  0.000000000000000E+000
  0.000000000000000E+000
  0.000000000000000E+000
  0.000000000000000E+000
  0.000000000000000E+000
  0.000000000000000E+000
  0.000000000000000E+000
  0.000000000000000E+000
  0.000000000000000E+000
  0.000000000000000E+000
  0.000000000000000E+000
  0.000000000000000E+000
  0.000000000000000E+000
  0.000000000000000E+000
  0.000000000000000E+000
  0.000000000000000E+000
  0.000000000000000E+000
  0.000000000000000E+000
  0.000000000000000E+000
  0.000000000000000E+000
  0.000000000000000E+000
  0.000000000000000E+000
  0.000000000000000E+000
  0.000000000000000E+000
  0.000000000000000E+000
  0.000000000000000E+000
  0.000000000000000E+000
  0.000000000000000E+000
  0.000000000000000E+000
  0.000000000000000E+000
  0.000000000000000E+000
  0.000000000000000E+000
  0.000000000000000E+000
  0.000000000000000E+000
  0.000000000000000E+000
  0.000000000000000E+000
  0.000000000000000E+000
  0.000000000000000E+000
  0.000000000000000E+000
  0.000000000000000E+000
  0.000000000000000E+000
  0.000000000000000E+000
  0.000000000000000E+000
  0.000000000000000E+000
  0.000000000000000E+000
  0.000000000000000E+000
  0.000000000000000E+000
  0.000000000000000E+000
  0.000000000000000E+000
  0.000000000000000E+000
  0.000000000000000E+000
  0.000000000000000E+000
  0.000000000000000E+000
  0.000000000000000E+000
  0.000000000000000E+000
  0.000000000000000E+000
  0.000000000000000E+000
  0.000000000000000E+000
  0.000000000000000E+000
  0.000000000000000E+000
  0.000000000000000E+000
  0.000000000000000E+000
  0.000000000000000E+000
  0.000000000000000E+000
  0.000000000000000E+000
  0.000000000000000E+000
  0.000000000000000E+000
  0.000000000000000E+000
  0.000000000000000E+000
  0.000000000000000E+000
  0.000000000000000E+000
  0.000000000000000E+000
  0.000000000000000E+000
  0.000000000000000E+000
  0.000000000000000E+000
  0.000000000000000E+000
  0.000000000000000E+000
  0.000000000000000E+000
  0.000000000000000E+000
  0.000000000000000E+000
  0.000000000000000E+000
  0.000000000000000E+000
  0.000000000000000E+000
  0.000000000000000E+000
  0.000000000000000E+000
  0.000000000000000E+000
  0.000000000000000E+000
  0.000000000000000E+000
  0.000000000000000E+000
  0.000000000000000E+000
  0.000000000000000E+000
  0.000000000000000E+000
  0.000000000000000E+000
  0.000000000000000E+000
  0.000000000000000E+000
  0.000000000000000E+000
  0.000000000000000E+000
  0.000000000000000E+000
  0.000000000000000E+000
   1.00000000000000     
  0.000000000000000E+000
  0.000000000000000E+000
  0.000000000000000E+000
  0.000000000000000E+000
  0.000000000000000E+000
  0.000000000000000E+000
  0.000000000000000E+000
  0.000000000000000E+000
  0.000000000000000E+000
  0.000000000000000E+000
  0.000000000000000E+000
  0.000000000000000E+000
  0.000000000000000E+000
  0.000000000000000E+000
   1.00000000000000     
  0.000000000000000E+000
  0.000000000000000E+000
  0.000000000000000E+000
  0.000000000000000E+000
  0.000000000000000E+000
  0.000000000000000E+000
  0.000000000000000E+000
  0.000000000000000E+000
  0.000000000000000E+000
  0.000000000000000E+000
  0.000000000000000E+000
  0.000000000000000E+000
  0.000000000000000E+000
  0.000000000000000E+000
   1.00000000000000     
   1.00000000000000     
  0.000000000000000E+000
  0.000000000000000E+000
  0.000000000000000E+000
  0.000000000000000E+000
  0.000000000000000E+000
  0.000000000000000E+000
  0.000000000000000E+000
  0.000000000000000E+000
  0.000000000000000E+000
  0.000000000000000E+000
  0.000000000000000E+000
  0.000000000000000E+000
  0.000000000000000E+000
  0.000000000000000E+000
SCALARS poroL double 
LOOKUP_TABLE default
  0.156002653736818     
  0.156002151663499     
  0.156001691612906     
  0.156001272028285     
  0.156000890021116     
  0.156000541752081     
  0.156000222705387     
  0.155999927871472     
  0.155999651848958     
  0.155999388872303     
  0.155999132767031     
  0.155998876829435     
  0.155998613622132     
  0.155998334670543     
  0.155998030037985     
  0.156002723191871     
  0.156002199724734     
  0.156001721879710     
  0.156001287534525     
  0.156000893301530     
  0.156000534906048     
  0.156000207457778     
  0.155999905631017     
  0.155999623765110     
  0.155999355892069     
  0.155999095693634     
  0.155998836385075     
  0.155998570517492     
  0.155998289684093     
  0.155997984108573     
  0.156002860725215     
  0.156002294214751     
  0.156001780608792     
  0.156001316631723     
  0.156000897879226     
  0.156000519190367     
  0.156000174912355     
  0.155999859075131     
  0.155999565488322     
  0.155999287768383     
  0.155999019299031     
  0.155998753123028     
  0.155998481757875     
  0.155998196921701     
  0.155997889148334     
  0.156003063414037     
  0.156002431716178     
  0.156001864053826     
  0.156001355365933     
  0.156000899677406     
  0.156000490459244     
  0.156000120881293     
  0.155999783976797     
  0.155999472732819     
  0.155999180115676     
  0.155998899035666     
  0.155998622250310     
  0.155998342199842     
  0.155998050762523     
  0.155997738910088     
  0.156003326445884     
  0.156002606717043     
  0.156001966247661     
  0.156001397493648     
  0.156000892300800     
  0.156000442244244     
  0.156000038861457     
  0.155999673800451     
  0.155999338899110     
  0.155999026206472     
  0.155998727951723     
  0.155998436461684     
  0.155998144022132     
  0.155997842672286     
  0.155997523914663     
  0.156003642590548     
  0.156002811134108     
  0.156002078572371     
  0.156001434094898     
  0.156000866688854     
  0.156000365445083     
  0.155999919760503     
  0.155999519461112     
  0.155999154863682     
  0.155998816788776     
  0.155998496532667     
  0.155998185800857     
  0.155997876600633     
  0.155997561084314     
  0.155997231327917     
  0.156004001471461     
  0.156003033653960     
  0.156002189163993     
  0.156001453037014     
  0.156000810634862     
  0.156000247900973     
  0.155999751517526     
  0.155999308991441     
  0.155998908689345     
  0.155998539836102     
  0.155998192486538     
  0.155997857475355     
  0.155997526345364     
  0.155997191248665     
  0.155996844808835     
  0.156004388614048     
  0.156003258870168     
  0.156002282131529     
  0.156001438270252     
  0.156000708153999     
  0.156000073827412     
  0.155999518605192     
  0.155999027105769     
  0.155998585247506     
  0.155998180223856     
  0.155997800469398     
  0.155997435624545     
  0.155997076502372     
  0.155996715056100     
  0.155996344339608     
  0.156004784240548     
  0.156003466187137     
  0.156002336562611     
  0.156001368929897     
  0.156000538677424     
  0.155999823098259     
  0.155999201395850     
  0.155998654646334     
  0.155998165740459     
  0.155997719323204     
  0.155997301745510     
  0.155996901039318     
  0.155996506923643     
  0.155996110845224     
  0.155995706051796     
  0.156005161770736     
  0.156003628451610     
  0.156002325279360     
  0.156001218211622     
  0.156000276042777     
  0.155999470346959     
  0.155998775368991     
  0.155998167892434     
  0.155997627107778     
  0.155997134500211     
  0.155996673774197     
  0.155996230830335     
  0.155995793807784     
  0.155995353202409     
  0.155994902066059     
  0.156005485974742     
  0.156003710260397     
  0.156002213296954     
  0.156000951977414     
  0.155999887243350     
  0.155998983853973     
  0.155998210131414     
  0.155997537707864     
  0.155996941296066     
  0.155996398503594     
  0.155995889711561     
  0.155995398038888     
  0.155994909412841     
  0.155994412764761     
  0.155993900366179     
  0.156005710706307     
  0.156003665876710     
  0.156001955923587     
  0.156000527037961     
  0.155999330888946     
  0.155998324179764     
  0.155997468214787     
  0.155996728495751     
  0.155996074365226     
  0.155995478718567     
  0.155994917809726     
  0.155994371179847     
  0.155993821739554     
  0.155993256035703     
  0.155992664730660     
  0.156005776120147     
  0.156003436666226     
  0.156001496423270     
  0.155999889044072     
  0.155998555321217     
  0.155997442494481     
  0.155996503608026     
  0.155995696922843     
  0.155994985397010     
  0.155994336256408     
  0.155993720688400     
  0.155993113698847     
  0.155992494177667     
  0.155991845219739     
  0.155991154746293     
  0.156005605242955     
  0.156002947936084     
  0.156000763141887     
  0.155998969904731     
  0.155997496315810     
  0.155996278547639     
  0.155995259974860     
  0.155994390367548     
  0.155993625162513     
  0.155992924838845     
  0.155992254442060     
  0.155991583314562     
  0.155990885098024     
  0.155990138076279     
  0.155989325926212     
  0.156005099720105     
  0.156002105023819     
  0.155999665972072     
  0.155997684634064     
  0.155996074294723     
  0.155994758215165     
  0.155993668501002     
  0.155992745038070     
  0.155991934494131     
  0.155991189422078     
  0.155990467529549     
  0.155989731199562     
  0.155988947357103     
  0.155988087779698     
  0.155987129948181     
  0.156004134494657     
  0.156000788437406     
  0.155998092005186     
  0.155995927516615     
  0.155994190968220     
  0.155992790560160     
  0.155991645312699     
  0.155990683699457     
  0.155989842293830     
  0.155989064485616     
  0.155988299368795     
  0.155987500927213     
  0.155986627655345     
  0.155985642751315     
  0.155984515014197     
  0.156002551086056     
  0.155998847791744     
  0.155995900192504     
  0.155993567475670     
  0.155991725332441     
  0.155990264352573     
  0.155989088411888     
  0.155988112942127     
  0.155987263092151     
  0.155986471883538     
  0.155985678524262     
  0.155984827073063     
  0.155983865651871     
  0.155982746394505     
  0.155981426306116     
  0.156000149016596     
  0.155996094223388     
  0.155992914821065     
  0.155990442543985     
  0.155988528977181     
  0.155987044019504     
  0.155985874087248     
  0.155984919920478     
  0.155984094049380     
  0.155983318116112     
  0.155982520323090     
  0.155981633301309     
  0.155980592680200     
  0.155979336611568     
  0.155977806469364     
  0.155996674778200     
  0.155992290902416     
  0.155988917619874     
  0.155986353390199     
  0.155984420725505     
  0.155982965054058     
  0.155981852790570     
  0.155980968488419     
  0.155980211257598     
  0.155979490821314     
  0.155978723659335     
  0.155977829681255     
  0.155976729823838     
  0.155975344903284     
  0.155973595992650     
  0.155991807536981     
  0.155987141218635     
  0.155983638383728     
  0.155981055983653     
  0.155979180761460     
  0.155977829012987     
  0.155976844519683     
  0.155976094656836     
  0.155975465152847     
  0.155974854198243     
  0.155974166631919     
  0.155973308851636     
  0.155972184984677     
  0.155970694739867     
  0.155968733261130     
  0.155985140542193     
  0.155980274246071     
  0.155976744202886     
  0.155974253749326     
  0.155972544647513     
  0.155971398401266     
  0.155970633823684     
  0.155970101288003     
  0.155969674767904     
  0.155969242943321     
  0.155968700492619     
  0.155967940461864     
  0.155966848390512     
  0.155965298730742     
  0.155963153939023     
  0.155976156962246     
  0.155971227288386     
  0.155967827852664     
  0.155965590086119     
  0.155964198051475     
  0.155963391987772     
  0.155962964629682     
  0.155962751902315     
  0.155962620432263     
  0.155962454086795     
  0.155962141133561     
  0.155961563035151     
  0.155960585705508     
  0.155959053883000     
  0.155956789179803     
  0.155964198676908     
  0.155959425915258     
  0.155956396903045     
  0.155954643094865     
  0.155953773664048     
  0.155953481394984     
  0.155953535122889     
  0.155953763368441     
  0.155954034333773     
  0.155954235861441     
  0.155954256983530     
  0.155953971973556     
  0.155953227460367     
  0.155951833865238     
  0.155949561951999     
  0.155948426608267     
  0.155944163458730     
  0.155941867251546     
  0.155940926116776     
  0.155940852715964     
  0.155941290002375     
  0.155941992736157     
  0.155942796995402     
  0.155943588167798     
  0.155944272380210     
  0.155944751743410     
  0.155944901738763     
  0.155944552786608     
  0.155943476573387     
  0.155941380413952     
  0.155927771910110     
  0.155924585949205     
  0.155923569313749     
  0.155923900723281     
  0.155924974441102     
  0.155926394773271     
  0.155927928577370     
  0.155929447097062     
  0.155930876903091     
  0.155932163076707     
  0.155933239269112     
  0.155933999403872     
  0.155934264366715     
  0.155933763849542     
  0.155932126688295     
  0.155900881059806     
  0.155899698510937     
  0.155900785212665     
  0.155903013322009     
  0.155905656305216     
  0.155908329396706     
  0.155910868716040     
  0.155913225452242     
  0.155915398155832     
  0.155917395837631     
  0.155919210193577     
  0.155920779938973     
  0.155921950727043     
  0.155922393591494     
  0.155921631212524     
  0.155866068008888     
  0.155868440801482     
  0.155872855812860     
  0.155877769722970     
  0.155882421602919     
  0.155886579733328     
  0.155890257603335     
  0.155893539506612     
  0.155896527007479     
  0.155899316844817     
  0.155901986543841     
  0.155904571434463     
  0.155906982824142     
  0.155908955524592     
  0.155909646122629     
  0.155821362184511     
  0.155829959731648     
  0.155839439430066     
  0.155847846826623     
  0.155854796654791     
  0.155860558749716     
  0.155865426722861     
  0.155869662068088     
  0.155873487449599     
  0.155877099954221     
  0.155880684593564     
  0.155884415771335     
  0.155888440719517     
  0.155892547967772     
  0.155895814677547     
  0.155764916883474     
  0.155784604219668     
  0.155800995443355     
  0.155813038713086     
  0.155822249604930     
  0.155829543200458     
  0.155835544120852     
  0.155840690941594     
  0.155845320587710     
  0.155849723487447     
  0.155854188796460     
  0.155859054494943     
  0.155864753936902     
  0.155871951404895     
  0.155879496985691     
  0.155699508003517     
  0.155736524313409     
  0.155758165681598     
  0.155773046279899     
  0.155784025599884     
  0.155792574034069     
  0.155799544761189     
  0.155805498306825     
  0.155810849003666     
  0.155815950848958     
  0.155821165523813     
  0.155826943733679     
  0.155833980475308     
  0.155843572599798     
  0.155859995687995     
