# vtk DataFile Version 3.0
vtk output
ASCII
DATASET UNSTRUCTURED_GRID
POINTS       496 double 
  0.00000000E+00  3.00000000E+02  0.00000000E+00
  0.00000000E+00  2.80000000E+02  0.00000000E+00
  0.00000000E+00  2.60000000E+02  0.00000000E+00
  0.00000000E+00  2.40000000E+02  0.00000000E+00
  0.00000000E+00  2.20000000E+02  0.00000000E+00
  0.00000000E+00  2.00000000E+02  0.00000000E+00
  0.00000000E+00  1.80000000E+02  0.00000000E+00
  0.00000000E+00  1.60000000E+02  0.00000000E+00
  0.00000000E+00  1.40000000E+02  0.00000000E+00
  0.00000000E+00  1.20000000E+02  0.00000000E+00
  0.00000000E+00  1.00000000E+02  0.00000000E+00
  0.00000000E+00  8.00000000E+01  0.00000000E+00
  0.00000000E+00  6.00000000E+01  0.00000000E+00
  0.00000000E+00  4.00000000E+01  0.00000000E+00
  0.00000000E+00  2.00000000E+01  0.00000000E+00
  0.00000000E+00  4.99600361E-14  0.00000000E+00
  2.00000000E+01  3.00000000E+02  0.00000000E+00
  2.00000000E+01  2.80000000E+02  0.00000000E+00
  2.00000000E+01  2.60000000E+02  0.00000000E+00
  2.00000000E+01  2.40000000E+02  0.00000000E+00
  2.00000000E+01  2.20000000E+02  0.00000000E+00
  2.00000000E+01  2.00000000E+02  0.00000000E+00
  2.00000000E+01  1.80000000E+02  0.00000000E+00
  2.00000000E+01  1.60000000E+02  0.00000000E+00
  2.00000000E+01  1.40000000E+02  0.00000000E+00
  2.00000000E+01  1.20000000E+02  0.00000000E+00
  2.00000000E+01  1.00000000E+02  0.00000000E+00
  2.00000000E+01  8.00000000E+01  0.00000000E+00
  2.00000000E+01  6.00000000E+01  0.00000000E+00
  2.00000000E+01  4.00000000E+01  0.00000000E+00
  2.00000000E+01  2.00000000E+01  0.00000000E+00
  2.00000000E+01  4.99600361E-14  0.00000000E+00
  4.00000000E+01  3.00000000E+02  0.00000000E+00
  4.00000000E+01  2.80000000E+02  0.00000000E+00
  4.00000000E+01  2.60000000E+02  0.00000000E+00
  4.00000000E+01  2.40000000E+02  0.00000000E+00
  4.00000000E+01  2.20000000E+02  0.00000000E+00
  4.00000000E+01  2.00000000E+02  0.00000000E+00
  4.00000000E+01  1.80000000E+02  0.00000000E+00
  4.00000000E+01  1.60000000E+02  0.00000000E+00
  4.00000000E+01  1.40000000E+02  0.00000000E+00
  4.00000000E+01  1.20000000E+02  0.00000000E+00
  4.00000000E+01  1.00000000E+02  0.00000000E+00
  4.00000000E+01  8.00000000E+01  0.00000000E+00
  4.00000000E+01  6.00000000E+01  0.00000000E+00
  4.00000000E+01  4.00000000E+01  0.00000000E+00
  4.00000000E+01  2.00000000E+01  0.00000000E+00
  4.00000000E+01  4.99600361E-14  0.00000000E+00
  6.00000000E+01  3.00000000E+02  0.00000000E+00
  6.00000000E+01  2.80000000E+02  0.00000000E+00
  6.00000000E+01  2.60000000E+02  0.00000000E+00
  6.00000000E+01  2.40000000E+02  0.00000000E+00
  6.00000000E+01  2.20000000E+02  0.00000000E+00
  6.00000000E+01  2.00000000E+02  0.00000000E+00
  6.00000000E+01  1.80000000E+02  0.00000000E+00
  6.00000000E+01  1.60000000E+02  0.00000000E+00
  6.00000000E+01  1.40000000E+02  0.00000000E+00
  6.00000000E+01  1.20000000E+02  0.00000000E+00
  6.00000000E+01  1.00000000E+02  0.00000000E+00
  6.00000000E+01  8.00000000E+01  0.00000000E+00
  6.00000000E+01  6.00000000E+01  0.00000000E+00
  6.00000000E+01  4.00000000E+01  0.00000000E+00
  6.00000000E+01  2.00000000E+01  0.00000000E+00
  6.00000000E+01  4.99600361E-14  0.00000000E+00
  8.00000000E+01  3.00000000E+02  0.00000000E+00
  8.00000000E+01  2.80000000E+02  0.00000000E+00
  8.00000000E+01  2.60000000E+02  0.00000000E+00
  8.00000000E+01  2.40000000E+02  0.00000000E+00
  8.00000000E+01  2.20000000E+02  0.00000000E+00
  8.00000000E+01  2.00000000E+02  0.00000000E+00
  8.00000000E+01  1.80000000E+02  0.00000000E+00
  8.00000000E+01  1.60000000E+02  0.00000000E+00
  8.00000000E+01  1.40000000E+02  0.00000000E+00
  8.00000000E+01  1.20000000E+02  0.00000000E+00
  8.00000000E+01  1.00000000E+02  0.00000000E+00
  8.00000000E+01  8.00000000E+01  0.00000000E+00
  8.00000000E+01  6.00000000E+01  0.00000000E+00
  8.00000000E+01  4.00000000E+01  0.00000000E+00
  8.00000000E+01  2.00000000E+01  0.00000000E+00
  8.00000000E+01  4.99600361E-14  0.00000000E+00
  1.00000000E+02  3.00000000E+02  0.00000000E+00
  1.00000000E+02  2.80000000E+02  0.00000000E+00
  1.00000000E+02  2.60000000E+02  0.00000000E+00
  1.00000000E+02  2.40000000E+02  0.00000000E+00
  1.00000000E+02  2.20000000E+02  0.00000000E+00
  1.00000000E+02  2.00000000E+02  0.00000000E+00
  1.00000000E+02  1.80000000E+02  0.00000000E+00
  1.00000000E+02  1.60000000E+02  0.00000000E+00
  1.00000000E+02  1.40000000E+02  0.00000000E+00
  1.00000000E+02  1.20000000E+02  0.00000000E+00
  1.00000000E+02  1.00000000E+02  0.00000000E+00
  1.00000000E+02  8.00000000E+01  0.00000000E+00
  1.00000000E+02  6.00000000E+01  0.00000000E+00
  1.00000000E+02  4.00000000E+01  0.00000000E+00
  1.00000000E+02  2.00000000E+01  0.00000000E+00
  1.00000000E+02  4.99600361E-14  0.00000000E+00
  1.20000000E+02  3.00000000E+02  0.00000000E+00
  1.20000000E+02  2.80000000E+02  0.00000000E+00
  1.20000000E+02  2.60000000E+02  0.00000000E+00
  1.20000000E+02  2.40000000E+02  0.00000000E+00
  1.20000000E+02  2.20000000E+02  0.00000000E+00
  1.20000000E+02  2.00000000E+02  0.00000000E+00
  1.20000000E+02  1.80000000E+02  0.00000000E+00
  1.20000000E+02  1.60000000E+02  0.00000000E+00
  1.20000000E+02  1.40000000E+02  0.00000000E+00
  1.20000000E+02  1.20000000E+02  0.00000000E+00
  1.20000000E+02  1.00000000E+02  0.00000000E+00
  1.20000000E+02  8.00000000E+01  0.00000000E+00
  1.20000000E+02  6.00000000E+01  0.00000000E+00
  1.20000000E+02  4.00000000E+01  0.00000000E+00
  1.20000000E+02  2.00000000E+01  0.00000000E+00
  1.20000000E+02  4.99600361E-14  0.00000000E+00
  1.40000000E+02  3.00000000E+02  0.00000000E+00
  1.40000000E+02  2.80000000E+02  0.00000000E+00
  1.40000000E+02  2.60000000E+02  0.00000000E+00
  1.40000000E+02  2.40000000E+02  0.00000000E+00
  1.40000000E+02  2.20000000E+02  0.00000000E+00
  1.40000000E+02  2.00000000E+02  0.00000000E+00
  1.40000000E+02  1.80000000E+02  0.00000000E+00
  1.40000000E+02  1.60000000E+02  0.00000000E+00
  1.40000000E+02  1.40000000E+02  0.00000000E+00
  1.40000000E+02  1.20000000E+02  0.00000000E+00
  1.40000000E+02  1.00000000E+02  0.00000000E+00
  1.40000000E+02  8.00000000E+01  0.00000000E+00
  1.40000000E+02  6.00000000E+01  0.00000000E+00
  1.40000000E+02  4.00000000E+01  0.00000000E+00
  1.40000000E+02  2.00000000E+01  0.00000000E+00
  1.40000000E+02  4.99600361E-14  0.00000000E+00
  1.60000000E+02  3.00000000E+02  0.00000000E+00
  1.60000000E+02  2.80000000E+02  0.00000000E+00
  1.60000000E+02  2.60000000E+02  0.00000000E+00
  1.60000000E+02  2.40000000E+02  0.00000000E+00
  1.60000000E+02  2.20000000E+02  0.00000000E+00
  1.60000000E+02  2.00000000E+02  0.00000000E+00
  1.60000000E+02  1.80000000E+02  0.00000000E+00
  1.60000000E+02  1.60000000E+02  0.00000000E+00
  1.60000000E+02  1.40000000E+02  0.00000000E+00
  1.60000000E+02  1.20000000E+02  0.00000000E+00
  1.60000000E+02  1.00000000E+02  0.00000000E+00
  1.60000000E+02  8.00000000E+01  0.00000000E+00
  1.60000000E+02  6.00000000E+01  0.00000000E+00
  1.60000000E+02  4.00000000E+01  0.00000000E+00
  1.60000000E+02  2.00000000E+01  0.00000000E+00
  1.60000000E+02  4.99600361E-14  0.00000000E+00
  1.80000000E+02  3.00000000E+02  0.00000000E+00
  1.80000000E+02  2.80000000E+02  0.00000000E+00
  1.80000000E+02  2.60000000E+02  0.00000000E+00
  1.80000000E+02  2.40000000E+02  0.00000000E+00
  1.80000000E+02  2.20000000E+02  0.00000000E+00
  1.80000000E+02  2.00000000E+02  0.00000000E+00
  1.80000000E+02  1.80000000E+02  0.00000000E+00
  1.80000000E+02  1.60000000E+02  0.00000000E+00
  1.80000000E+02  1.40000000E+02  0.00000000E+00
  1.80000000E+02  1.20000000E+02  0.00000000E+00
  1.80000000E+02  1.00000000E+02  0.00000000E+00
  1.80000000E+02  8.00000000E+01  0.00000000E+00
  1.80000000E+02  6.00000000E+01  0.00000000E+00
  1.80000000E+02  4.00000000E+01  0.00000000E+00
  1.80000000E+02  2.00000000E+01  0.00000000E+00
  1.80000000E+02  4.99600361E-14  0.00000000E+00
  2.00000000E+02  3.00000000E+02  0.00000000E+00
  2.00000000E+02  2.80000000E+02  0.00000000E+00
  2.00000000E+02  2.60000000E+02  0.00000000E+00
  2.00000000E+02  2.40000000E+02  0.00000000E+00
  2.00000000E+02  2.20000000E+02  0.00000000E+00
  2.00000000E+02  2.00000000E+02  0.00000000E+00
  2.00000000E+02  1.80000000E+02  0.00000000E+00
  2.00000000E+02  1.60000000E+02  0.00000000E+00
  2.00000000E+02  1.40000000E+02  0.00000000E+00
  2.00000000E+02  1.20000000E+02  0.00000000E+00
  2.00000000E+02  1.00000000E+02  0.00000000E+00
  2.00000000E+02  8.00000000E+01  0.00000000E+00
  2.00000000E+02  6.00000000E+01  0.00000000E+00
  2.00000000E+02  4.00000000E+01  0.00000000E+00
  2.00000000E+02  2.00000000E+01  0.00000000E+00
  2.00000000E+02  4.99600361E-14  0.00000000E+00
  2.20000000E+02  3.00000000E+02  0.00000000E+00
  2.20000000E+02  2.80000000E+02  0.00000000E+00
  2.20000000E+02  2.60000000E+02  0.00000000E+00
  2.20000000E+02  2.40000000E+02  0.00000000E+00
  2.20000000E+02  2.20000000E+02  0.00000000E+00
  2.20000000E+02  2.00000000E+02  0.00000000E+00
  2.20000000E+02  1.80000000E+02  0.00000000E+00
  2.20000000E+02  1.60000000E+02  0.00000000E+00
  2.20000000E+02  1.40000000E+02  0.00000000E+00
  2.20000000E+02  1.20000000E+02  0.00000000E+00
  2.20000000E+02  1.00000000E+02  0.00000000E+00
  2.20000000E+02  8.00000000E+01  0.00000000E+00
  2.20000000E+02  6.00000000E+01  0.00000000E+00
  2.20000000E+02  4.00000000E+01  0.00000000E+00
  2.20000000E+02  2.00000000E+01  0.00000000E+00
  2.20000000E+02  4.99600361E-14  0.00000000E+00
  2.40000000E+02  3.00000000E+02  0.00000000E+00
  2.40000000E+02  2.80000000E+02  0.00000000E+00
  2.40000000E+02  2.60000000E+02  0.00000000E+00
  2.40000000E+02  2.40000000E+02  0.00000000E+00
  2.40000000E+02  2.20000000E+02  0.00000000E+00
  2.40000000E+02  2.00000000E+02  0.00000000E+00
  2.40000000E+02  1.80000000E+02  0.00000000E+00
  2.40000000E+02  1.60000000E+02  0.00000000E+00
  2.40000000E+02  1.40000000E+02  0.00000000E+00
  2.40000000E+02  1.20000000E+02  0.00000000E+00
  2.40000000E+02  1.00000000E+02  0.00000000E+00
  2.40000000E+02  8.00000000E+01  0.00000000E+00
  2.40000000E+02  6.00000000E+01  0.00000000E+00
  2.40000000E+02  4.00000000E+01  0.00000000E+00
  2.40000000E+02  2.00000000E+01  0.00000000E+00
  2.40000000E+02  4.99600361E-14  0.00000000E+00
  2.60000000E+02  3.00000000E+02  0.00000000E+00
  2.60000000E+02  2.80000000E+02  0.00000000E+00
  2.60000000E+02  2.60000000E+02  0.00000000E+00
  2.60000000E+02  2.40000000E+02  0.00000000E+00
  2.60000000E+02  2.20000000E+02  0.00000000E+00
  2.60000000E+02  2.00000000E+02  0.00000000E+00
  2.60000000E+02  1.80000000E+02  0.00000000E+00
  2.60000000E+02  1.60000000E+02  0.00000000E+00
  2.60000000E+02  1.40000000E+02  0.00000000E+00
  2.60000000E+02  1.20000000E+02  0.00000000E+00
  2.60000000E+02  1.00000000E+02  0.00000000E+00
  2.60000000E+02  8.00000000E+01  0.00000000E+00
  2.60000000E+02  6.00000000E+01  0.00000000E+00
  2.60000000E+02  4.00000000E+01  0.00000000E+00
  2.60000000E+02  2.00000000E+01  0.00000000E+00
  2.60000000E+02  4.99600361E-14  0.00000000E+00
  2.80000000E+02  3.00000000E+02  0.00000000E+00
  2.80000000E+02  2.80000000E+02  0.00000000E+00
  2.80000000E+02  2.60000000E+02  0.00000000E+00
  2.80000000E+02  2.40000000E+02  0.00000000E+00
  2.80000000E+02  2.20000000E+02  0.00000000E+00
  2.80000000E+02  2.00000000E+02  0.00000000E+00
  2.80000000E+02  1.80000000E+02  0.00000000E+00
  2.80000000E+02  1.60000000E+02  0.00000000E+00
  2.80000000E+02  1.40000000E+02  0.00000000E+00
  2.80000000E+02  1.20000000E+02  0.00000000E+00
  2.80000000E+02  1.00000000E+02  0.00000000E+00
  2.80000000E+02  8.00000000E+01  0.00000000E+00
  2.80000000E+02  6.00000000E+01  0.00000000E+00
  2.80000000E+02  4.00000000E+01  0.00000000E+00
  2.80000000E+02  2.00000000E+01  0.00000000E+00
  2.80000000E+02  4.99600361E-14  0.00000000E+00
  3.00000000E+02  3.00000000E+02  0.00000000E+00
  3.00000000E+02  2.80000000E+02  0.00000000E+00
  3.00000000E+02  2.60000000E+02  0.00000000E+00
  3.00000000E+02  2.40000000E+02  0.00000000E+00
  3.00000000E+02  2.20000000E+02  0.00000000E+00
  3.00000000E+02  2.00000000E+02  0.00000000E+00
  3.00000000E+02  1.80000000E+02  0.00000000E+00
  3.00000000E+02  1.60000000E+02  0.00000000E+00
  3.00000000E+02  1.40000000E+02  0.00000000E+00
  3.00000000E+02  1.20000000E+02  0.00000000E+00
  3.00000000E+02  1.00000000E+02  0.00000000E+00
  3.00000000E+02  8.00000000E+01  0.00000000E+00
  3.00000000E+02  6.00000000E+01  0.00000000E+00
  3.00000000E+02  4.00000000E+01  0.00000000E+00
  3.00000000E+02  2.00000000E+01  0.00000000E+00
  3.00000000E+02  4.99600361E-14  0.00000000E+00
  3.20000000E+02  3.00000000E+02  0.00000000E+00
  3.20000000E+02  2.80000000E+02  0.00000000E+00
  3.20000000E+02  2.60000000E+02  0.00000000E+00
  3.20000000E+02  2.40000000E+02  0.00000000E+00
  3.20000000E+02  2.20000000E+02  0.00000000E+00
  3.20000000E+02  2.00000000E+02  0.00000000E+00
  3.20000000E+02  1.80000000E+02  0.00000000E+00
  3.20000000E+02  1.60000000E+02  0.00000000E+00
  3.20000000E+02  1.40000000E+02  0.00000000E+00
  3.20000000E+02  1.20000000E+02  0.00000000E+00
  3.20000000E+02  1.00000000E+02  0.00000000E+00
  3.20000000E+02  8.00000000E+01  0.00000000E+00
  3.20000000E+02  6.00000000E+01  0.00000000E+00
  3.20000000E+02  4.00000000E+01  0.00000000E+00
  3.20000000E+02  2.00000000E+01  0.00000000E+00
  3.20000000E+02  4.99600361E-14  0.00000000E+00
  3.40000000E+02  3.00000000E+02  0.00000000E+00
  3.40000000E+02  2.80000000E+02  0.00000000E+00
  3.40000000E+02  2.60000000E+02  0.00000000E+00
  3.40000000E+02  2.40000000E+02  0.00000000E+00
  3.40000000E+02  2.20000000E+02  0.00000000E+00
  3.40000000E+02  2.00000000E+02  0.00000000E+00
  3.40000000E+02  1.80000000E+02  0.00000000E+00
  3.40000000E+02  1.60000000E+02  0.00000000E+00
  3.40000000E+02  1.40000000E+02  0.00000000E+00
  3.40000000E+02  1.20000000E+02  0.00000000E+00
  3.40000000E+02  1.00000000E+02  0.00000000E+00
  3.40000000E+02  8.00000000E+01  0.00000000E+00
  3.40000000E+02  6.00000000E+01  0.00000000E+00
  3.40000000E+02  4.00000000E+01  0.00000000E+00
  3.40000000E+02  2.00000000E+01  0.00000000E+00
  3.40000000E+02  4.99600361E-14  0.00000000E+00
  3.60000000E+02  3.00000000E+02  0.00000000E+00
  3.60000000E+02  2.80000000E+02  0.00000000E+00
  3.60000000E+02  2.60000000E+02  0.00000000E+00
  3.60000000E+02  2.40000000E+02  0.00000000E+00
  3.60000000E+02  2.20000000E+02  0.00000000E+00
  3.60000000E+02  2.00000000E+02  0.00000000E+00
  3.60000000E+02  1.80000000E+02  0.00000000E+00
  3.60000000E+02  1.60000000E+02  0.00000000E+00
  3.60000000E+02  1.40000000E+02  0.00000000E+00
  3.60000000E+02  1.20000000E+02  0.00000000E+00
  3.60000000E+02  1.00000000E+02  0.00000000E+00
  3.60000000E+02  8.00000000E+01  0.00000000E+00
  3.60000000E+02  6.00000000E+01  0.00000000E+00
  3.60000000E+02  4.00000000E+01  0.00000000E+00
  3.60000000E+02  2.00000000E+01  0.00000000E+00
  3.60000000E+02  4.99600361E-14  0.00000000E+00
  3.80000000E+02  3.00000000E+02  0.00000000E+00
  3.80000000E+02  2.80000000E+02  0.00000000E+00
  3.80000000E+02  2.60000000E+02  0.00000000E+00
  3.80000000E+02  2.40000000E+02  0.00000000E+00
  3.80000000E+02  2.20000000E+02  0.00000000E+00
  3.80000000E+02  2.00000000E+02  0.00000000E+00
  3.80000000E+02  1.80000000E+02  0.00000000E+00
  3.80000000E+02  1.60000000E+02  0.00000000E+00
  3.80000000E+02  1.40000000E+02  0.00000000E+00
  3.80000000E+02  1.20000000E+02  0.00000000E+00
  3.80000000E+02  1.00000000E+02  0.00000000E+00
  3.80000000E+02  8.00000000E+01  0.00000000E+00
  3.80000000E+02  6.00000000E+01  0.00000000E+00
  3.80000000E+02  4.00000000E+01  0.00000000E+00
  3.80000000E+02  2.00000000E+01  0.00000000E+00
  3.80000000E+02  4.99600361E-14  0.00000000E+00
  4.00000000E+02  3.00000000E+02  0.00000000E+00
  4.00000000E+02  2.80000000E+02  0.00000000E+00
  4.00000000E+02  2.60000000E+02  0.00000000E+00
  4.00000000E+02  2.40000000E+02  0.00000000E+00
  4.00000000E+02  2.20000000E+02  0.00000000E+00
  4.00000000E+02  2.00000000E+02  0.00000000E+00
  4.00000000E+02  1.80000000E+02  0.00000000E+00
  4.00000000E+02  1.60000000E+02  0.00000000E+00
  4.00000000E+02  1.40000000E+02  0.00000000E+00
  4.00000000E+02  1.20000000E+02  0.00000000E+00
  4.00000000E+02  1.00000000E+02  0.00000000E+00
  4.00000000E+02  8.00000000E+01  0.00000000E+00
  4.00000000E+02  6.00000000E+01  0.00000000E+00
  4.00000000E+02  4.00000000E+01  0.00000000E+00
  4.00000000E+02  2.00000000E+01  0.00000000E+00
  4.00000000E+02  4.99600361E-14  0.00000000E+00
  4.20000000E+02  3.00000000E+02  0.00000000E+00
  4.20000000E+02  2.80000000E+02  0.00000000E+00
  4.20000000E+02  2.60000000E+02  0.00000000E+00
  4.20000000E+02  2.40000000E+02  0.00000000E+00
  4.20000000E+02  2.20000000E+02  0.00000000E+00
  4.20000000E+02  2.00000000E+02  0.00000000E+00
  4.20000000E+02  1.80000000E+02  0.00000000E+00
  4.20000000E+02  1.60000000E+02  0.00000000E+00
  4.20000000E+02  1.40000000E+02  0.00000000E+00
  4.20000000E+02  1.20000000E+02  0.00000000E+00
  4.20000000E+02  1.00000000E+02  0.00000000E+00
  4.20000000E+02  8.00000000E+01  0.00000000E+00
  4.20000000E+02  6.00000000E+01  0.00000000E+00
  4.20000000E+02  4.00000000E+01  0.00000000E+00
  4.20000000E+02  2.00000000E+01  0.00000000E+00
  4.20000000E+02  4.99600361E-14  0.00000000E+00
  4.40000000E+02  3.00000000E+02  0.00000000E+00
  4.40000000E+02  2.80000000E+02  0.00000000E+00
  4.40000000E+02  2.60000000E+02  0.00000000E+00
  4.40000000E+02  2.40000000E+02  0.00000000E+00
  4.40000000E+02  2.20000000E+02  0.00000000E+00
  4.40000000E+02  2.00000000E+02  0.00000000E+00
  4.40000000E+02  1.80000000E+02  0.00000000E+00
  4.40000000E+02  1.60000000E+02  0.00000000E+00
  4.40000000E+02  1.40000000E+02  0.00000000E+00
  4.40000000E+02  1.20000000E+02  0.00000000E+00
  4.40000000E+02  1.00000000E+02  0.00000000E+00
  4.40000000E+02  8.00000000E+01  0.00000000E+00
  4.40000000E+02  6.00000000E+01  0.00000000E+00
  4.40000000E+02  4.00000000E+01  0.00000000E+00
  4.40000000E+02  2.00000000E+01  0.00000000E+00
  4.40000000E+02  4.99600361E-14  0.00000000E+00
  4.60000000E+02  3.00000000E+02  0.00000000E+00
  4.60000000E+02  2.80000000E+02  0.00000000E+00
  4.60000000E+02  2.60000000E+02  0.00000000E+00
  4.60000000E+02  2.40000000E+02  0.00000000E+00
  4.60000000E+02  2.20000000E+02  0.00000000E+00
  4.60000000E+02  2.00000000E+02  0.00000000E+00
  4.60000000E+02  1.80000000E+02  0.00000000E+00
  4.60000000E+02  1.60000000E+02  0.00000000E+00
  4.60000000E+02  1.40000000E+02  0.00000000E+00
  4.60000000E+02  1.20000000E+02  0.00000000E+00
  4.60000000E+02  1.00000000E+02  0.00000000E+00
  4.60000000E+02  8.00000000E+01  0.00000000E+00
  4.60000000E+02  6.00000000E+01  0.00000000E+00
  4.60000000E+02  4.00000000E+01  0.00000000E+00
  4.60000000E+02  2.00000000E+01  0.00000000E+00
  4.60000000E+02  4.99600361E-14  0.00000000E+00
  4.80000000E+02  3.00000000E+02  0.00000000E+00
  4.80000000E+02  2.80000000E+02  0.00000000E+00
  4.80000000E+02  2.60000000E+02  0.00000000E+00
  4.80000000E+02  2.40000000E+02  0.00000000E+00
  4.80000000E+02  2.20000000E+02  0.00000000E+00
  4.80000000E+02  2.00000000E+02  0.00000000E+00
  4.80000000E+02  1.80000000E+02  0.00000000E+00
  4.80000000E+02  1.60000000E+02  0.00000000E+00
  4.80000000E+02  1.40000000E+02  0.00000000E+00
  4.80000000E+02  1.20000000E+02  0.00000000E+00
  4.80000000E+02  1.00000000E+02  0.00000000E+00
  4.80000000E+02  8.00000000E+01  0.00000000E+00
  4.80000000E+02  6.00000000E+01  0.00000000E+00
  4.80000000E+02  4.00000000E+01  0.00000000E+00
  4.80000000E+02  2.00000000E+01  0.00000000E+00
  4.80000000E+02  4.99600361E-14  0.00000000E+00
  5.00000000E+02  3.00000000E+02  0.00000000E+00
  5.00000000E+02  2.80000000E+02  0.00000000E+00
  5.00000000E+02  2.60000000E+02  0.00000000E+00
  5.00000000E+02  2.40000000E+02  0.00000000E+00
  5.00000000E+02  2.20000000E+02  0.00000000E+00
  5.00000000E+02  2.00000000E+02  0.00000000E+00
  5.00000000E+02  1.80000000E+02  0.00000000E+00
  5.00000000E+02  1.60000000E+02  0.00000000E+00
  5.00000000E+02  1.40000000E+02  0.00000000E+00
  5.00000000E+02  1.20000000E+02  0.00000000E+00
  5.00000000E+02  1.00000000E+02  0.00000000E+00
  5.00000000E+02  8.00000000E+01  0.00000000E+00
  5.00000000E+02  6.00000000E+01  0.00000000E+00
  5.00000000E+02  4.00000000E+01  0.00000000E+00
  5.00000000E+02  2.00000000E+01  0.00000000E+00
  5.00000000E+02  4.99600361E-14  0.00000000E+00
  5.20000000E+02  3.00000000E+02  0.00000000E+00
  5.20000000E+02  2.80000000E+02  0.00000000E+00
  5.20000000E+02  2.60000000E+02  0.00000000E+00
  5.20000000E+02  2.40000000E+02  0.00000000E+00
  5.20000000E+02  2.20000000E+02  0.00000000E+00
  5.20000000E+02  2.00000000E+02  0.00000000E+00
  5.20000000E+02  1.80000000E+02  0.00000000E+00
  5.20000000E+02  1.60000000E+02  0.00000000E+00
  5.20000000E+02  1.40000000E+02  0.00000000E+00
  5.20000000E+02  1.20000000E+02  0.00000000E+00
  5.20000000E+02  1.00000000E+02  0.00000000E+00
  5.20000000E+02  8.00000000E+01  0.00000000E+00
  5.20000000E+02  6.00000000E+01  0.00000000E+00
  5.20000000E+02  4.00000000E+01  0.00000000E+00
  5.20000000E+02  2.00000000E+01  0.00000000E+00
  5.20000000E+02  4.99600361E-14  0.00000000E+00
  5.40000000E+02  3.00000000E+02  0.00000000E+00
  5.40000000E+02  2.80000000E+02  0.00000000E+00
  5.40000000E+02  2.60000000E+02  0.00000000E+00
  5.40000000E+02  2.40000000E+02  0.00000000E+00
  5.40000000E+02  2.20000000E+02  0.00000000E+00
  5.40000000E+02  2.00000000E+02  0.00000000E+00
  5.40000000E+02  1.80000000E+02  0.00000000E+00
  5.40000000E+02  1.60000000E+02  0.00000000E+00
  5.40000000E+02  1.40000000E+02  0.00000000E+00
  5.40000000E+02  1.20000000E+02  0.00000000E+00
  5.40000000E+02  1.00000000E+02  0.00000000E+00
  5.40000000E+02  8.00000000E+01  0.00000000E+00
  5.40000000E+02  6.00000000E+01  0.00000000E+00
  5.40000000E+02  4.00000000E+01  0.00000000E+00
  5.40000000E+02  2.00000000E+01  0.00000000E+00
  5.40000000E+02  4.99600361E-14  0.00000000E+00
  5.60000000E+02  3.00000000E+02  0.00000000E+00
  5.60000000E+02  2.80000000E+02  0.00000000E+00
  5.60000000E+02  2.60000000E+02  0.00000000E+00
  5.60000000E+02  2.40000000E+02  0.00000000E+00
  5.60000000E+02  2.20000000E+02  0.00000000E+00
  5.60000000E+02  2.00000000E+02  0.00000000E+00
  5.60000000E+02  1.80000000E+02  0.00000000E+00
  5.60000000E+02  1.60000000E+02  0.00000000E+00
  5.60000000E+02  1.40000000E+02  0.00000000E+00
  5.60000000E+02  1.20000000E+02  0.00000000E+00
  5.60000000E+02  1.00000000E+02  0.00000000E+00
  5.60000000E+02  8.00000000E+01  0.00000000E+00
  5.60000000E+02  6.00000000E+01  0.00000000E+00
  5.60000000E+02  4.00000000E+01  0.00000000E+00
  5.60000000E+02  2.00000000E+01  0.00000000E+00
  5.60000000E+02  4.99600361E-14  0.00000000E+00
  5.80000000E+02  3.00000000E+02  0.00000000E+00
  5.80000000E+02  2.80000000E+02  0.00000000E+00
  5.80000000E+02  2.60000000E+02  0.00000000E+00
  5.80000000E+02  2.40000000E+02  0.00000000E+00
  5.80000000E+02  2.20000000E+02  0.00000000E+00
  5.80000000E+02  2.00000000E+02  0.00000000E+00
  5.80000000E+02  1.80000000E+02  0.00000000E+00
  5.80000000E+02  1.60000000E+02  0.00000000E+00
  5.80000000E+02  1.40000000E+02  0.00000000E+00
  5.80000000E+02  1.20000000E+02  0.00000000E+00
  5.80000000E+02  1.00000000E+02  0.00000000E+00
  5.80000000E+02  8.00000000E+01  0.00000000E+00
  5.80000000E+02  6.00000000E+01  0.00000000E+00
  5.80000000E+02  4.00000000E+01  0.00000000E+00
  5.80000000E+02  2.00000000E+01  0.00000000E+00
  5.80000000E+02  4.99600361E-14  0.00000000E+00
  6.00000000E+02  3.00000000E+02  0.00000000E+00
  6.00000000E+02  2.80000000E+02  0.00000000E+00
  6.00000000E+02  2.60000000E+02  0.00000000E+00
  6.00000000E+02  2.40000000E+02  0.00000000E+00
  6.00000000E+02  2.20000000E+02  0.00000000E+00
  6.00000000E+02  2.00000000E+02  0.00000000E+00
  6.00000000E+02  1.80000000E+02  0.00000000E+00
  6.00000000E+02  1.60000000E+02  0.00000000E+00
  6.00000000E+02  1.40000000E+02  0.00000000E+00
  6.00000000E+02  1.20000000E+02  0.00000000E+00
  6.00000000E+02  1.00000000E+02  0.00000000E+00
  6.00000000E+02  8.00000000E+01  0.00000000E+00
  6.00000000E+02  6.00000000E+01  0.00000000E+00
  6.00000000E+02  4.00000000E+01  0.00000000E+00
  6.00000000E+02  2.00000000E+01  0.00000000E+00
  6.00000000E+02  4.99600361E-14  0.00000000E+00
CELLS       450      2250
         4           0           1          17          16
         4           1           2          18          17
         4           2           3          19          18
         4           3           4          20          19
         4           4           5          21          20
         4           5           6          22          21
         4           6           7          23          22
         4           7           8          24          23
         4           8           9          25          24
         4           9          10          26          25
         4          10          11          27          26
         4          11          12          28          27
         4          12          13          29          28
         4          13          14          30          29
         4          14          15          31          30
         4          16          17          33          32
         4          17          18          34          33
         4          18          19          35          34
         4          19          20          36          35
         4          20          21          37          36
         4          21          22          38          37
         4          22          23          39          38
         4          23          24          40          39
         4          24          25          41          40
         4          25          26          42          41
         4          26          27          43          42
         4          27          28          44          43
         4          28          29          45          44
         4          29          30          46          45
         4          30          31          47          46
         4          32          33          49          48
         4          33          34          50          49
         4          34          35          51          50
         4          35          36          52          51
         4          36          37          53          52
         4          37          38          54          53
         4          38          39          55          54
         4          39          40          56          55
         4          40          41          57          56
         4          41          42          58          57
         4          42          43          59          58
         4          43          44          60          59
         4          44          45          61          60
         4          45          46          62          61
         4          46          47          63          62
         4          48          49          65          64
         4          49          50          66          65
         4          50          51          67          66
         4          51          52          68          67
         4          52          53          69          68
         4          53          54          70          69
         4          54          55          71          70
         4          55          56          72          71
         4          56          57          73          72
         4          57          58          74          73
         4          58          59          75          74
         4          59          60          76          75
         4          60          61          77          76
         4          61          62          78          77
         4          62          63          79          78
         4          64          65          81          80
         4          65          66          82          81
         4          66          67          83          82
         4          67          68          84          83
         4          68          69          85          84
         4          69          70          86          85
         4          70          71          87          86
         4          71          72          88          87
         4          72          73          89          88
         4          73          74          90          89
         4          74          75          91          90
         4          75          76          92          91
         4          76          77          93          92
         4          77          78          94          93
         4          78          79          95          94
         4          80          81          97          96
         4          81          82          98          97
         4          82          83          99          98
         4          83          84         100          99
         4          84          85         101         100
         4          85          86         102         101
         4          86          87         103         102
         4          87          88         104         103
         4          88          89         105         104
         4          89          90         106         105
         4          90          91         107         106
         4          91          92         108         107
         4          92          93         109         108
         4          93          94         110         109
         4          94          95         111         110
         4          96          97         113         112
         4          97          98         114         113
         4          98          99         115         114
         4          99         100         116         115
         4         100         101         117         116
         4         101         102         118         117
         4         102         103         119         118
         4         103         104         120         119
         4         104         105         121         120
         4         105         106         122         121
         4         106         107         123         122
         4         107         108         124         123
         4         108         109         125         124
         4         109         110         126         125
         4         110         111         127         126
         4         112         113         129         128
         4         113         114         130         129
         4         114         115         131         130
         4         115         116         132         131
         4         116         117         133         132
         4         117         118         134         133
         4         118         119         135         134
         4         119         120         136         135
         4         120         121         137         136
         4         121         122         138         137
         4         122         123         139         138
         4         123         124         140         139
         4         124         125         141         140
         4         125         126         142         141
         4         126         127         143         142
         4         128         129         145         144
         4         129         130         146         145
         4         130         131         147         146
         4         131         132         148         147
         4         132         133         149         148
         4         133         134         150         149
         4         134         135         151         150
         4         135         136         152         151
         4         136         137         153         152
         4         137         138         154         153
         4         138         139         155         154
         4         139         140         156         155
         4         140         141         157         156
         4         141         142         158         157
         4         142         143         159         158
         4         144         145         161         160
         4         145         146         162         161
         4         146         147         163         162
         4         147         148         164         163
         4         148         149         165         164
         4         149         150         166         165
         4         150         151         167         166
         4         151         152         168         167
         4         152         153         169         168
         4         153         154         170         169
         4         154         155         171         170
         4         155         156         172         171
         4         156         157         173         172
         4         157         158         174         173
         4         158         159         175         174
         4         160         161         177         176
         4         161         162         178         177
         4         162         163         179         178
         4         163         164         180         179
         4         164         165         181         180
         4         165         166         182         181
         4         166         167         183         182
         4         167         168         184         183
         4         168         169         185         184
         4         169         170         186         185
         4         170         171         187         186
         4         171         172         188         187
         4         172         173         189         188
         4         173         174         190         189
         4         174         175         191         190
         4         176         177         193         192
         4         177         178         194         193
         4         178         179         195         194
         4         179         180         196         195
         4         180         181         197         196
         4         181         182         198         197
         4         182         183         199         198
         4         183         184         200         199
         4         184         185         201         200
         4         185         186         202         201
         4         186         187         203         202
         4         187         188         204         203
         4         188         189         205         204
         4         189         190         206         205
         4         190         191         207         206
         4         192         193         209         208
         4         193         194         210         209
         4         194         195         211         210
         4         195         196         212         211
         4         196         197         213         212
         4         197         198         214         213
         4         198         199         215         214
         4         199         200         216         215
         4         200         201         217         216
         4         201         202         218         217
         4         202         203         219         218
         4         203         204         220         219
         4         204         205         221         220
         4         205         206         222         221
         4         206         207         223         222
         4         208         209         225         224
         4         209         210         226         225
         4         210         211         227         226
         4         211         212         228         227
         4         212         213         229         228
         4         213         214         230         229
         4         214         215         231         230
         4         215         216         232         231
         4         216         217         233         232
         4         217         218         234         233
         4         218         219         235         234
         4         219         220         236         235
         4         220         221         237         236
         4         221         222         238         237
         4         222         223         239         238
         4         224         225         241         240
         4         225         226         242         241
         4         226         227         243         242
         4         227         228         244         243
         4         228         229         245         244
         4         229         230         246         245
         4         230         231         247         246
         4         231         232         248         247
         4         232         233         249         248
         4         233         234         250         249
         4         234         235         251         250
         4         235         236         252         251
         4         236         237         253         252
         4         237         238         254         253
         4         238         239         255         254
         4         240         241         257         256
         4         241         242         258         257
         4         242         243         259         258
         4         243         244         260         259
         4         244         245         261         260
         4         245         246         262         261
         4         246         247         263         262
         4         247         248         264         263
         4         248         249         265         264
         4         249         250         266         265
         4         250         251         267         266
         4         251         252         268         267
         4         252         253         269         268
         4         253         254         270         269
         4         254         255         271         270
         4         256         257         273         272
         4         257         258         274         273
         4         258         259         275         274
         4         259         260         276         275
         4         260         261         277         276
         4         261         262         278         277
         4         262         263         279         278
         4         263         264         280         279
         4         264         265         281         280
         4         265         266         282         281
         4         266         267         283         282
         4         267         268         284         283
         4         268         269         285         284
         4         269         270         286         285
         4         270         271         287         286
         4         272         273         289         288
         4         273         274         290         289
         4         274         275         291         290
         4         275         276         292         291
         4         276         277         293         292
         4         277         278         294         293
         4         278         279         295         294
         4         279         280         296         295
         4         280         281         297         296
         4         281         282         298         297
         4         282         283         299         298
         4         283         284         300         299
         4         284         285         301         300
         4         285         286         302         301
         4         286         287         303         302
         4         288         289         305         304
         4         289         290         306         305
         4         290         291         307         306
         4         291         292         308         307
         4         292         293         309         308
         4         293         294         310         309
         4         294         295         311         310
         4         295         296         312         311
         4         296         297         313         312
         4         297         298         314         313
         4         298         299         315         314
         4         299         300         316         315
         4         300         301         317         316
         4         301         302         318         317
         4         302         303         319         318
         4         304         305         321         320
         4         305         306         322         321
         4         306         307         323         322
         4         307         308         324         323
         4         308         309         325         324
         4         309         310         326         325
         4         310         311         327         326
         4         311         312         328         327
         4         312         313         329         328
         4         313         314         330         329
         4         314         315         331         330
         4         315         316         332         331
         4         316         317         333         332
         4         317         318         334         333
         4         318         319         335         334
         4         320         321         337         336
         4         321         322         338         337
         4         322         323         339         338
         4         323         324         340         339
         4         324         325         341         340
         4         325         326         342         341
         4         326         327         343         342
         4         327         328         344         343
         4         328         329         345         344
         4         329         330         346         345
         4         330         331         347         346
         4         331         332         348         347
         4         332         333         349         348
         4         333         334         350         349
         4         334         335         351         350
         4         336         337         353         352
         4         337         338         354         353
         4         338         339         355         354
         4         339         340         356         355
         4         340         341         357         356
         4         341         342         358         357
         4         342         343         359         358
         4         343         344         360         359
         4         344         345         361         360
         4         345         346         362         361
         4         346         347         363         362
         4         347         348         364         363
         4         348         349         365         364
         4         349         350         366         365
         4         350         351         367         366
         4         352         353         369         368
         4         353         354         370         369
         4         354         355         371         370
         4         355         356         372         371
         4         356         357         373         372
         4         357         358         374         373
         4         358         359         375         374
         4         359         360         376         375
         4         360         361         377         376
         4         361         362         378         377
         4         362         363         379         378
         4         363         364         380         379
         4         364         365         381         380
         4         365         366         382         381
         4         366         367         383         382
         4         368         369         385         384
         4         369         370         386         385
         4         370         371         387         386
         4         371         372         388         387
         4         372         373         389         388
         4         373         374         390         389
         4         374         375         391         390
         4         375         376         392         391
         4         376         377         393         392
         4         377         378         394         393
         4         378         379         395         394
         4         379         380         396         395
         4         380         381         397         396
         4         381         382         398         397
         4         382         383         399         398
         4         384         385         401         400
         4         385         386         402         401
         4         386         387         403         402
         4         387         388         404         403
         4         388         389         405         404
         4         389         390         406         405
         4         390         391         407         406
         4         391         392         408         407
         4         392         393         409         408
         4         393         394         410         409
         4         394         395         411         410
         4         395         396         412         411
         4         396         397         413         412
         4         397         398         414         413
         4         398         399         415         414
         4         400         401         417         416
         4         401         402         418         417
         4         402         403         419         418
         4         403         404         420         419
         4         404         405         421         420
         4         405         406         422         421
         4         406         407         423         422
         4         407         408         424         423
         4         408         409         425         424
         4         409         410         426         425
         4         410         411         427         426
         4         411         412         428         427
         4         412         413         429         428
         4         413         414         430         429
         4         414         415         431         430
         4         416         417         433         432
         4         417         418         434         433
         4         418         419         435         434
         4         419         420         436         435
         4         420         421         437         436
         4         421         422         438         437
         4         422         423         439         438
         4         423         424         440         439
         4         424         425         441         440
         4         425         426         442         441
         4         426         427         443         442
         4         427         428         444         443
         4         428         429         445         444
         4         429         430         446         445
         4         430         431         447         446
         4         432         433         449         448
         4         433         434         450         449
         4         434         435         451         450
         4         435         436         452         451
         4         436         437         453         452
         4         437         438         454         453
         4         438         439         455         454
         4         439         440         456         455
         4         440         441         457         456
         4         441         442         458         457
         4         442         443         459         458
         4         443         444         460         459
         4         444         445         461         460
         4         445         446         462         461
         4         446         447         463         462
         4         448         449         465         464
         4         449         450         466         465
         4         450         451         467         466
         4         451         452         468         467
         4         452         453         469         468
         4         453         454         470         469
         4         454         455         471         470
         4         455         456         472         471
         4         456         457         473         472
         4         457         458         474         473
         4         458         459         475         474
         4         459         460         476         475
         4         460         461         477         476
         4         461         462         478         477
         4         462         463         479         478
         4         464         465         481         480
         4         465         466         482         481
         4         466         467         483         482
         4         467         468         484         483
         4         468         469         485         484
         4         469         470         486         485
         4         470         471         487         486
         4         471         472         488         487
         4         472         473         489         488
         4         473         474         490         489
         4         474         475         491         490
         4         475         476         492         491
         4         476         477         493         492
         4         477         478         494         493
         4         478         479         495         494
CELL_TYPES        450
9
9
9
9
9
9
9
9
9
9
9
9
9
9
9
9
9
9
9
9
9
9
9
9
9
9
9
9
9
9
9
9
9
9
9
9
9
9
9
9
9
9
9
9
9
9
9
9
9
9
9
9
9
9
9
9
9
9
9
9
9
9
9
9
9
9
9
9
9
9
9
9
9
9
9
9
9
9
9
9
9
9
9
9
9
9
9
9
9
9
9
9
9
9
9
9
9
9
9
9
9
9
9
9
9
9
9
9
9
9
9
9
9
9
9
9
9
9
9
9
9
9
9
9
9
9
9
9
9
9
9
9
9
9
9
9
9
9
9
9
9
9
9
9
9
9
9
9
9
9
9
9
9
9
9
9
9
9
9
9
9
9
9
9
9
9
9
9
9
9
9
9
9
9
9
9
9
9
9
9
9
9
9
9
9
9
9
9
9
9
9
9
9
9
9
9
9
9
9
9
9
9
9
9
9
9
9
9
9
9
9
9
9
9
9
9
9
9
9
9
9
9
9
9
9
9
9
9
9
9
9
9
9
9
9
9
9
9
9
9
9
9
9
9
9
9
9
9
9
9
9
9
9
9
9
9
9
9
9
9
9
9
9
9
9
9
9
9
9
9
9
9
9
9
9
9
9
9
9
9
9
9
9
9
9
9
9
9
9
9
9
9
9
9
9
9
9
9
9
9
9
9
9
9
9
9
9
9
9
9
9
9
9
9
9
9
9
9
9
9
9
9
9
9
9
9
9
9
9
9
9
9
9
9
9
9
9
9
9
9
9
9
9
9
9
9
9
9
9
9
9
9
9
9
9
9
9
9
9
9
9
9
9
9
9
9
9
9
9
9
9
9
9
9
9
9
9
9
9
9
9
9
9
9
9
9
9
9
9
9
9
9
9
9
9
9
9
9
9
9
9
9
9
9
9
9
9
9
9
9
9
9
9
9
9
9
9
9
9
9
9
9
9
9
9
9
9
9
9
9
9
9
9
9
9
9
9
9
9
9
9
9
9
9
9
9
9
9
9
9
POINT_DATA       496
SCALARS p double 
LOOKUP_TABLE default
   24468920.5547565     
   24467713.5084101     
   24464571.5614144     
   24459948.5849881     
   24454262.7742418     
   24447894.0211575     
   24441183.2725260     
   24434433.7984517     
   24427913.0637649     
   24421854.2093641     
   24416456.0468784     
   24411881.1720983     
   24408252.4434325     
   24405648.5816132     
   24404099.5772115     
   24403582.3961379     
   24448470.1403596     
   24447265.2521519     
   24444128.5640844     
   24439512.8123114     
   24433835.1059607     
   24427474.4113959     
   24420771.0615035     
   24414028.0453578     
   24407512.7722825     
   24401458.4346762     
   24396063.8984894     
   24391491.7731620     
   24387864.9168640     
   24385262.0958754     
   24383713.4586986     
   24383196.3099355     
   24387181.4186213     
   24385983.0586979     
   24382862.2988999     
   24378268.4582376     
   24372615.3900454     
   24366279.3117736     
   24359598.7484871     
   24352875.8268511     
   24346377.7467560     
   24340337.7869221     
   24334954.9052797     
   24330391.7024547     
   24326771.0047404     
   24324171.6989292     
   24322624.3999409     
   24322107.4236174     
   24285241.8197780     
   24284054.5171874     
   24280960.8125450     
   24276404.2947842     
   24270793.3833548     
   24264499.8273358     
   24257859.2192190     
   24251172.1854443     
   24244705.4291104     
   24238692.1453787     
   24233331.2256359     
   24228785.0988841     
   24225176.4411401     
   24222584.2817876     
   24221039.9946539     
   24220523.5586946     
   24142963.2773979     
   24141791.8265818     
   24138737.0711376     
   24134234.5075968     
   24128684.9712153     
   24122454.1743764     
   24115873.6823551     
   24109241.9030417     
   24102824.5054642     
   24096854.1124300     
   24091529.1087320     
   24087011.3804182     
   24083423.2033413     
   24080843.6985441     
   24079305.2404466     
   24078790.0835353     
   23960781.5553511     
   23959631.1200036     
   23956628.2985316     
   23952198.0442940     
   23946731.5983141     
   23940587.1688481     
   23934091.1968427     
   23927538.9736259     
   23921194.2252149     
   23915288.1363784     
   23910017.8167400     
   23905543.9931400     
   23901988.1302887     
   23899429.2970206     
   23897901.0190826     
   23897388.3765613     
   23739255.2886821     
   23738131.5255604     
   23735195.0315879     
   23730857.7541321     
   23725499.4650252     
   23719469.4495211     
   23713087.8809148     
   23706645.6704458     
   23700403.2577830     
   23694589.1292484     
   23689398.0116459     
   23684988.5961512     
   23681480.9460748     
   23678953.7923557     
   23677441.8929574     
   23676933.6151176     
   23479064.7741643     
   23477973.9292094     
   23475119.8987977     
   23470899.2225917     
   23465678.3814252     
   23459796.3970343     
   23453565.6960155     
   23447271.0872269     
   23441167.9747677     
   23435480.4856111     
   23430399.5183721     
   23426080.5872799     
   23422641.5689734     
   23420160.4506821     
   23418673.1962870     
   23418171.8203456     
   23181010.4266385     
   23179959.4572660     
   23177206.1462868     
   23173129.2616232     
   23168080.3482155     
   23162386.5529995     
   23156350.5995967     
   23150249.0459890     
   23144330.0757861     
   23138811.4130153     
   23133878.3639297     
   23129681.8841519     
   23126336.6985602     
   23123919.5119273     
   23122467.3580823     
   23121976.1501816     
   22846010.9630843     
   22845007.6095067     
   22842375.7486286     
   22838474.1294942     
   22833637.5836484     
   22828179.3512205     
   22822390.0198007     
   22816535.2660529     
   22810853.4458861     
   22805553.4832924     
   22800813.0523208     
   22796776.9443060     
   22793555.5998783     
   22791223.7850427     
   22789819.3775349     
   22789342.3386805     
   22475101.0959766     
   22474154.0664968     
   22471667.2440003     
   22467977.1462069     
   22463399.8855794     
   22458232.2052456     
   22452749.5936313     
   22447203.7557890     
   22441820.2188475     
   22436796.3886646     
   22432300.0045831     
   22428467.9041272     
   22425404.9944281     
   22423183.3444467     
   22421841.3938178     
   22421383.2291608     
   22069429.0105142     
   22068547.9589735     
   22066232.8425183     
   22062795.6850559     
   22058531.3219258     
   22053716.8345434     
   22048609.1376064     
   22043442.4178204     
   22038426.0107447     
   22033742.7870422     
   22029548.0553308     
   22025968.7779155     
   22023102.9855616     
   22021019.2721383     
   22019756.3049170     
   22019322.3101479     
   21630252.9016884     
   21629448.5666250     
   21627335.0376787     
   21624197.4447878     
   21620306.1686301     
   21615914.8655621     
   21611257.8498200     
   21606547.8304196     
   21601974.2458840     
   21597702.2196468     
   21593871.9932911     
   21590598.6572424     
   21587972.0053605     
   21586056.3724627     
   21584890.3401450     
   21584486.3068466     
   21158936.9312672     
   21158221.2543999     
   21156342.4975754     
   21153556.1562881     
   21150104.2880081     
   21146212.7436119     
   21142088.7359005     
   21137919.1454494     
   21133869.5884403     
   21130084.0816718     
   21126685.1069933     
   21123773.8982152     
   21121430.6986026     
   21119714.8599653     
   21118664.6347726     
   21118296.6733160     
   20656946.8684991     
   20656333.0539535     
   20654725.5385967     
   20652346.7518439     
   20649405.8604688     
   20646095.9634649     
   20642592.2464997     
   20639051.1767528     
   20635610.4769946     
   20632389.6444253     
   20629490.7608908     
   20626999.2995561     
   20624984.7730273     
   20623500.9715413     
   20622585.7096548     
   20622260.0607101     
   20125845.8214539     
   20125348.3126474     
   20124051.4518408     
   20122140.2049754     
   20119785.6264343     
   20117142.6484025     
   20114349.2427083     
   20111526.7253643     
   20108780.8322826     
   20106203.2159671     
   20103873.0254201     
   20101858.2912339     
   20100216.8344713     
   20098996.5434896     
   20098234.9010516     
   20097957.6963792     
   19567290.1813777     
   19566924.3990968     
   19565979.7044186     
   19564598.1283667     
   19562906.7906926     
   19561016.7423314     
   19559023.4299409     
   19557008.2905541     
   19555041.0844720     
   19553182.4779457     
   19551486.4539959     
   19550002.2106834     
   19548775.2736745     
   19547847.6278914     
   19547256.7796080     
   19547033.7021177     
   18983025.6156779     
   18982807.5086026     
   18982257.2697079     
   18981467.4652241     
   18980514.9619269     
   18979461.0934155     
   18978353.5280593     
   18977229.3126748     
   18976118.5510949     
   18975048.1406845     
   18974045.0655578     
   18973138.7753794     
   18972362.3442812     
   18971752.2579445     
   18971346.7302467     
   18971182.6764864     
   18374883.5725325     
   18374829.0176888     
   18374714.5268149     
   18374575.6778036     
   18374432.4334976     
   18374290.6520538     
   18374145.3362194     
   18373985.1201398     
   18373797.3223967     
   18373572.9066907     
   18373310.6333409     
   18373019.8498769     
   18372721.5595759     
   18372447.6063678     
   18372238.0250505     
   18372136.7498234     
   17744778.7711842     
   17744902.7877969     
   17745262.0148774     
   17745826.6579778     
   17746552.9831747     
   17747385.9820127     
   17748263.8273692     
   17749123.6095896     
   17749907.7026818     
   17750569.8891030     
   17751080.3187388     
   17751428.5972902     
   17751624.5839702     
   17751696.8008480     
   17751688.5876281     
   17751652.2603606     
   17094707.6657071     
   17095023.4287631     
   17095888.1386804     
   17097197.5107368     
   17098837.3882289     
   17100687.2373928     
   17102625.4167739     
   17104535.8372201     
   17106315.3064376     
   17107880.5610776     
   17109173.8655848     
   17110166.2379340     
   17110857.8455274     
   17111275.5292252     
   17111467.6254247     
   17111496.4417559     
   16426747.9134972     
   16427265.6194625     
   16428657.9264552     
   16430736.2950311     
   16433309.7295919     
   16436188.6547552     
   16439190.4790301     
   16442146.5709721     
   16444909.9131450     
   16447362.3838191     
   16449420.5141234     
   16451038.6836908     
   16452209.1470121     
   16452958.7332213     
   16453342.4621866     
   16453434.3550203     
   15743059.1569482     
   15743784.7145369     
   15745712.9392467     
   15748560.6831750     
   15752054.2908184     
   15755933.3590640     
   15759955.9150338     
   15763904.7712343     
   15767594.2415159     
   15770876.3754390     
   15773645.9317543     
   15775843.3077019     
   15777454.5287206     
   15778507.7008467     
   15779065.8162234     
   15779216.1802463     
   15045885.5451984     
   15046818.9596545     
   15049272.4290354     
   15052857.2915614     
   15057212.5456001     
   15062007.8326908     
   15066947.3012964     
   15071773.8295492     
   15076272.7554509     
   15080274.9489456     
   15083659.5275359     
   15086356.1274099     
   15088345.6421048     
   15089657.6793394     
   15090363.6662713     
   15090565.2657488     
   14337560.5124807     
   14338693.7515079     
   14341635.8011558     
   14345881.1794076     
   14350979.1417409     
   14356534.7463870     
   14362209.5741642     
   14367721.1434627     
   14372840.6952102     
   14377390.5146803     
   14381242.6158019     
   14384319.7473989     
   14386597.7578342     
   14388106.1954633     
   14388923.6236924     
   14389166.5018885     
   13620515.0689912     
   13621828.9257448     
   13625186.3931638     
   13629954.2757754     
   13635594.8013152     
   13641661.9522230     
   13647794.5701830     
   13653706.1756225     
   13659173.3467757     
   13664025.4596454     
   13668138.2302647     
   13671432.5929720     
   13673878.7115964     
   13675502.0063255     
   13676384.5288206     
   13676656.3643765     
   12897292.0368945     
   12898750.8094574     
   12902396.3462889     
   12907460.2227602     
   12913332.5396235     
   12919544.4867842     
   12925743.3121235     
   12931665.7381405     
   12937115.0613025     
   12941943.9596369     
   12946043.7296796     
   12949340.4212783     
   12951799.0927003     
   12953435.0201513     
   12954326.0448129     
   12954612.1049701     
   12170571.1677675     
   12172112.3044195     
   12175830.6509604     
   12180829.7238049     
   12186471.3054845     
   12192315.9545140     
   12198061.0667644     
   12203495.1624873     
   12208466.8897002     
   12212865.1987528     
   12216607.2450413     
   12219632.6373428     
   12221905.2527658     
   12223427.0796288     
   12224259.4860195     
   12224544.0864522     
   11443218.0833434     
   11444726.5983485     
   11448142.4611293     
   11452502.8555441     
   11457249.1313303     
   11462046.2992795     
   11466684.2217602     
   11471024.4081994     
   11474971.3876855     
   11478456.4379847     
   11481427.9502589     
   11483846.0528113     
   11485681.7251425     
   11486924.9403442     
   11487619.5655691     
   11487886.6803004     
   10718387.2981063     
   10719627.9585292     
   10722020.3285014     
   10724845.3701190     
   10727788.8205821     
   10730685.8542486     
   10733439.7250761     
   10735989.3326447     
   10738293.7377909     
   10740323.8810993     
   10742057.7930460     
   10743477.6867744     
   10744568.7167325     
   10745321.0446343     
   10745745.3684275     
   10746005.3606025     
   10000000.0000000     
   10000000.0000000     
   10000000.0000000     
   10000000.0000000     
   10000000.0000000     
   10000000.0000000     
   10000000.0000000     
   10000000.0000000     
   10000000.0000000     
   10000000.0000000     
   10000000.0000000     
   10000000.0000000     
   10000000.0000000     
  10000000.00000000     
   10000000.0000000     
   10000000.0000000     
VECTORS u double 
    0.00000E+00        -0.44898E-01         0.00000E+00
    0.00000E+00        -0.41659E-01         0.00000E+00
    0.00000E+00        -0.38450E-01         0.00000E+00
    0.00000E+00        -0.35274E-01         0.00000E+00
    0.00000E+00        -0.32136E-01         0.00000E+00
    0.00000E+00        -0.29035E-01         0.00000E+00
    0.00000E+00        -0.25974E-01         0.00000E+00
    0.00000E+00        -0.22953E-01         0.00000E+00
    0.00000E+00        -0.19970E-01         0.00000E+00
    0.00000E+00        -0.17025E-01         0.00000E+00
    0.00000E+00        -0.14114E-01         0.00000E+00
    0.00000E+00        -0.11236E-01         0.00000E+00
    0.00000E+00        -0.83874E-02         0.00000E+00
    0.00000E+00        -0.55670E-02         0.00000E+00
    0.00000E+00        -0.27720E-02         0.00000E+00
    0.00000E+00         0.00000E+00         0.00000E+00
    0.67094E-03        -0.44923E-01         0.00000E+00
    0.61994E-03        -0.41683E-01         0.00000E+00
    0.56612E-03        -0.38473E-01         0.00000E+00
    0.51028E-03        -0.35297E-01         0.00000E+00
    0.45342E-03        -0.32158E-01         0.00000E+00
    0.39668E-03        -0.29056E-01         0.00000E+00
    0.34125E-03        -0.25994E-01         0.00000E+00
    0.28808E-03        -0.22972E-01         0.00000E+00
    0.23797E-03        -0.19987E-01         0.00000E+00
    0.19144E-03        -0.17040E-01         0.00000E+00
    0.14885E-03        -0.14127E-01         0.00000E+00
    0.11042E-03        -0.11246E-01         0.00000E+00
    0.76267E-04        -0.83953E-02         0.00000E+00
    0.46459E-04        -0.55723E-02         0.00000E+00
    0.21033E-04        -0.27747E-02         0.00000E+00
    0.00000E+00         0.00000E+00         0.00000E+00
    0.13368E-02        -0.44997E-01         0.00000E+00
    0.12350E-02        -0.41755E-01         0.00000E+00
    0.11276E-02        -0.38544E-01         0.00000E+00
    0.10162E-02        -0.35366E-01         0.00000E+00
    0.90287E-03        -0.32224E-01         0.00000E+00
    0.78985E-03        -0.29120E-01         0.00000E+00
    0.67954E-03        -0.26055E-01         0.00000E+00
    0.57380E-03        -0.23028E-01         0.00000E+00
    0.47417E-03        -0.20038E-01         0.00000E+00
    0.38166E-03        -0.17085E-01         0.00000E+00
    0.29694E-03        -0.14165E-01         0.00000E+00
    0.22043E-03        -0.11277E-01         0.00000E+00
    0.15237E-03        -0.84191E-02         0.00000E+00
    0.92902E-04        -0.55883E-02         0.00000E+00
    0.42096E-04        -0.27827E-02         0.00000E+00
    0.00000E+00         0.00000E+00         0.00000E+00
    0.19922E-02        -0.45120E-01         0.00000E+00
    0.18403E-02        -0.41876E-01         0.00000E+00
    0.16799E-02        -0.38661E-01         0.00000E+00
    0.15134E-02        -0.35480E-01         0.00000E+00
    0.13443E-02        -0.32335E-01         0.00000E+00
    0.11760E-02        -0.29226E-01         0.00000E+00
    0.10120E-02        -0.26155E-01         0.00000E+00
    0.85492E-03        -0.23121E-01         0.00000E+00
    0.70695E-03        -0.20123E-01         0.00000E+00
    0.56952E-03        -0.17159E-01         0.00000E+00
    0.44355E-03        -0.14229E-01         0.00000E+00
    0.32964E-03        -0.11329E-01         0.00000E+00
    0.22815E-03        -0.84585E-02         0.00000E+00
    0.13930E-03        -0.56148E-02         0.00000E+00
    0.63214E-04        -0.27959E-02         0.00000E+00
    0.00000E+00         0.00000E+00         0.00000E+00
    0.26317E-02        -0.45290E-01         0.00000E+00
    0.24304E-02        -0.42043E-01         0.00000E+00
    0.22178E-02        -0.38826E-01         0.00000E+00
    0.19974E-02        -0.35640E-01         0.00000E+00
    0.17738E-02        -0.32490E-01         0.00000E+00
    0.15519E-02        -0.29374E-01         0.00000E+00
    0.13359E-02        -0.26295E-01         0.00000E+00
    0.11293E-02        -0.23251E-01         0.00000E+00
    0.93479E-03        -0.20240E-01         0.00000E+00
    0.75398E-03        -0.17263E-01         0.00000E+00
    0.58802E-03        -0.14317E-01         0.00000E+00
    0.43769E-03        -0.11401E-01         0.00000E+00
    0.30346E-03        -0.85132E-02         0.00000E+00
    0.18562E-03        -0.56515E-02         0.00000E+00
    0.84409E-04        -0.28144E-02         0.00000E+00
    0.00000E+00         0.00000E+00         0.00000E+00
    0.32496E-02        -0.45509E-01         0.00000E+00
    0.29998E-02        -0.42258E-01         0.00000E+00
    0.27361E-02        -0.39036E-01         0.00000E+00
    0.24633E-02        -0.35846E-01         0.00000E+00
    0.21874E-02        -0.32689E-01         0.00000E+00
    0.19142E-02        -0.29565E-01         0.00000E+00
    0.16487E-02        -0.26474E-01         0.00000E+00
    0.13952E-02        -0.23416E-01         0.00000E+00
    0.11564E-02        -0.20391E-01         0.00000E+00
    0.93412E-03        -0.17396E-01         0.00000E+00
    0.72978E-03        -0.14430E-01         0.00000E+00
    0.54425E-03        -0.11493E-01         0.00000E+00
    0.37812E-03        -0.85828E-02         0.00000E+00
    0.23182E-03        -0.56983E-02         0.00000E+00
    0.10569E-03        -0.28378E-02         0.00000E+00
    0.00000E+00         0.00000E+00         0.00000E+00
    0.38398E-02        -0.45773E-01         0.00000E+00
    0.35426E-02        -0.42519E-01         0.00000E+00
    0.32294E-02        -0.39293E-01         0.00000E+00
    0.29065E-02        -0.36097E-01         0.00000E+00
    0.25812E-02        -0.32931E-01         0.00000E+00
    0.22599E-02        -0.29796E-01         0.00000E+00
    0.19484E-02        -0.26692E-01         0.00000E+00
    0.16509E-02        -0.23618E-01         0.00000E+00
    0.13705E-02        -0.20572E-01         0.00000E+00
    0.11091E-02        -0.17555E-01         0.00000E+00
    0.86830E-03        -0.14566E-01         0.00000E+00
    0.64901E-03        -0.11604E-01         0.00000E+00
    0.45201E-03        -0.86668E-02         0.00000E+00
    0.27788E-03        -0.57547E-02         0.00000E+00
    0.12707E-03        -0.28662E-02         0.00000E+00
    0.00000E+00         0.00000E+00         0.00000E+00
    0.43959E-02        -0.46083E-01         0.00000E+00
    0.40528E-02        -0.42826E-01         0.00000E+00
    0.36924E-02        -0.39595E-01         0.00000E+00
    0.33227E-02        -0.36391E-01         0.00000E+00
    0.29516E-02        -0.33216E-01         0.00000E+00
    0.25865E-02        -0.30068E-01         0.00000E+00
    0.22329E-02        -0.26947E-01         0.00000E+00
    0.18951E-02        -0.23853E-01         0.00000E+00
    0.15762E-02        -0.20785E-01         0.00000E+00
    0.12783E-02        -0.17742E-01         0.00000E+00
    0.10031E-02        -0.14725E-01         0.00000E+00
    0.75169E-03        -0.11733E-01         0.00000E+00
    0.52500E-03        -0.87647E-02         0.00000E+00
    0.32375E-03        -0.58204E-02         0.00000E+00
    0.14856E-03        -0.28992E-02         0.00000E+00
    0.00000E+00         0.00000E+00         0.00000E+00
    0.49116E-02        -0.46438E-01         0.00000E+00
    0.45244E-02        -0.43176E-01         0.00000E+00
    0.41200E-02        -0.39940E-01         0.00000E+00
    0.37075E-02        -0.36729E-01         0.00000E+00
    0.32958E-02        -0.33542E-01         0.00000E+00
    0.28915E-02        -0.30378E-01         0.00000E+00
    0.25003E-02        -0.27238E-01         0.00000E+00
    0.21262E-02        -0.24120E-01         0.00000E+00
    0.17724E-02        -0.21026E-01         0.00000E+00
    0.14410E-02        -0.17954E-01         0.00000E+00
    0.11338E-02        -0.14905E-01         0.00000E+00
    0.85208E-03        -0.11879E-01         0.00000E+00
    0.59700E-03        -0.88757E-02         0.00000E+00
    0.36943E-03        -0.58951E-02         0.00000E+00
    0.17018E-03        -0.29366E-02         0.00000E+00
    0.00000E+00         0.00000E+00         0.00000E+00
    0.53811E-02        -0.46834E-01         0.00000E+00
    0.49522E-02        -0.43569E-01         0.00000E+00
    0.45077E-02        -0.40327E-01         0.00000E+00
    0.40579E-02        -0.37106E-01         0.00000E+00
    0.36108E-02        -0.33905E-01         0.00000E+00
    0.31728E-02        -0.30724E-01         0.00000E+00
    0.27489E-02        -0.27562E-01         0.00000E+00
    0.23430E-02        -0.24418E-01         0.00000E+00
    0.19580E-02        -0.21294E-01         0.00000E+00
    0.15964E-02        -0.18190E-01         0.00000E+00
    0.12598E-02        -0.15106E-01         0.00000E+00
    0.94995E-03        -0.12042E-01         0.00000E+00
    0.66795E-03        -0.89994E-02         0.00000E+00
    0.41495E-03        -0.59781E-02         0.00000E+00
    0.19198E-03        -0.29783E-02         0.00000E+00
    0.00000E+00         0.00000E+00         0.00000E+00
    0.57987E-02        -0.47272E-01         0.00000E+00
    0.53315E-02        -0.44003E-01         0.00000E+00
    0.48523E-02        -0.40753E-01         0.00000E+00
    0.43709E-02        -0.37521E-01         0.00000E+00
    0.38943E-02        -0.34304E-01         0.00000E+00
    0.34281E-02        -0.31103E-01         0.00000E+00
    0.29767E-02        -0.27917E-01         0.00000E+00
    0.25437E-02        -0.24745E-01         0.00000E+00
    0.21320E-02        -0.21589E-01         0.00000E+00
    0.17437E-02        -0.18448E-01         0.00000E+00
    0.13809E-02        -0.15325E-01         0.00000E+00
    0.10451E-02        -0.12221E-01         0.00000E+00
    0.73783E-03        -0.91349E-02         0.00000E+00
    0.46036E-03        -0.60691E-02         0.00000E+00
    0.21401E-03        -0.30240E-02         0.00000E+00
    0.00000E+00         0.00000E+00         0.00000E+00
    0.61603E-02        -0.47748E-01         0.00000E+00
    0.56593E-02        -0.44473E-01         0.00000E+00
    0.51511E-02        -0.41214E-01         0.00000E+00
    0.46440E-02        -0.37969E-01         0.00000E+00
    0.41438E-02        -0.34735E-01         0.00000E+00
    0.36551E-02        -0.31513E-01         0.00000E+00
    0.31818E-02        -0.28300E-01         0.00000E+00
    0.27269E-02        -0.25098E-01         0.00000E+00
    0.22930E-02        -0.21907E-01         0.00000E+00
    0.18823E-02        -0.18728E-01         0.00000E+00
    0.14965E-02        -0.15563E-01         0.00000E+00
    0.11374E-02        -0.12414E-01         0.00000E+00
    0.80666E-03        -0.92814E-02         0.00000E+00
    0.50578E-03        -0.61675E-02         0.00000E+00
    0.23638E-03        -0.30733E-02         0.00000E+00
    0.00000E+00         0.00000E+00         0.00000E+00
    0.64634E-02        -0.48259E-01         0.00000E+00
    0.59335E-02        -0.44976E-01         0.00000E+00
    0.54017E-02        -0.41707E-01         0.00000E+00
    0.48746E-02        -0.38447E-01         0.00000E+00
    0.43566E-02        -0.35195E-01         0.00000E+00
    0.38514E-02        -0.31949E-01         0.00000E+00
    0.33620E-02        -0.28708E-01         0.00000E+00
    0.28907E-02        -0.25474E-01         0.00000E+00
    0.24398E-02        -0.22246E-01         0.00000E+00
    0.20111E-02        -0.19026E-01         0.00000E+00
    0.16061E-02        -0.15817E-01         0.00000E+00
    0.12267E-02        -0.12620E-01         0.00000E+00
    0.87446E-03        -0.94381E-02         0.00000E+00
    0.55133E-03        -0.62727E-02         0.00000E+00
    0.25921E-03        -0.31261E-02         0.00000E+00
    0.00000E+00         0.00000E+00         0.00000E+00
    0.67067E-02        -0.48800E-01         0.00000E+00
    0.61523E-02        -0.45508E-01         0.00000E+00
    0.56020E-02        -0.42226E-01         0.00000E+00
    0.50604E-02        -0.38951E-01         0.00000E+00
    0.45304E-02        -0.35679E-01         0.00000E+00
    0.40147E-02        -0.32408E-01         0.00000E+00
    0.35151E-02        -0.29139E-01         0.00000E+00
    0.30334E-02        -0.25870E-01         0.00000E+00
    0.25710E-02        -0.22604E-01         0.00000E+00
    0.21291E-02        -0.19341E-01         0.00000E+00
    0.17091E-02        -0.16086E-01         0.00000E+00
    0.13126E-02        -0.12839E-01         0.00000E+00
    0.94127E-03        -0.96041E-02         0.00000E+00
    0.59721E-03        -0.63842E-02         0.00000E+00
    0.28267E-03        -0.31820E-02         0.00000E+00
    0.00000E+00         0.00000E+00         0.00000E+00
    0.68882E-02        -0.49367E-01         0.00000E+00
    0.63139E-02        -0.46065E-01         0.00000E+00
    0.57500E-02        -0.42770E-01         0.00000E+00
    0.51991E-02        -0.39477E-01         0.00000E+00
    0.46629E-02        -0.36184E-01         0.00000E+00
    0.41426E-02        -0.32887E-01         0.00000E+00
    0.36391E-02        -0.29587E-01         0.00000E+00
    0.31530E-02        -0.26283E-01         0.00000E+00
    0.26848E-02        -0.22977E-01         0.00000E+00
    0.22351E-02        -0.19671E-01         0.00000E+00
    0.18047E-02        -0.16366E-01         0.00000E+00
    0.13949E-02        -0.13068E-01         0.00000E+00
    0.10071E-02        -0.97780E-02         0.00000E+00
    0.64355E-03        -0.65011E-02         0.00000E+00
    0.30692E-03        -0.32406E-02         0.00000E+00
    0.00000E+00         0.00000E+00         0.00000E+00
    0.70061E-02        -0.49956E-01         0.00000E+00
    0.64165E-02        -0.46642E-01         0.00000E+00
    0.58437E-02        -0.43331E-01         0.00000E+00
    0.52888E-02        -0.40020E-01         0.00000E+00
    0.47520E-02        -0.36704E-01         0.00000E+00
    0.42331E-02        -0.33381E-01         0.00000E+00
    0.37317E-02        -0.30049E-01         0.00000E+00
    0.32474E-02        -0.26710E-01         0.00000E+00
    0.27795E-02        -0.23363E-01         0.00000E+00
    0.23278E-02        -0.20011E-01         0.00000E+00
    0.18920E-02        -0.16657E-01         0.00000E+00
    0.14729E-02        -0.13305E-01         0.00000E+00
    0.10717E-02        -0.99586E-02         0.00000E+00
    0.69048E-03        -0.66226E-02         0.00000E+00
    0.33214E-03        -0.33016E-02         0.00000E+00
    0.00000E+00         0.00000E+00         0.00000E+00
    0.70580E-02        -0.50561E-01         0.00000E+00
    0.64582E-02        -0.47234E-01         0.00000E+00
    0.58817E-02        -0.43907E-01         0.00000E+00
    0.53279E-02        -0.40575E-01         0.00000E+00
    0.47958E-02        -0.37235E-01         0.00000E+00
    0.42840E-02        -0.33884E-01         0.00000E+00
    0.37908E-02        -0.30521E-01         0.00000E+00
    0.33145E-02        -0.27145E-01         0.00000E+00
    0.28533E-02        -0.23757E-01         0.00000E+00
    0.24054E-02        -0.20359E-01         0.00000E+00
    0.19698E-02        -0.16955E-01         0.00000E+00
    0.15460E-02        -0.13549E-01         0.00000E+00
    0.11348E-02        -0.10144E-01         0.00000E+00
    0.73798E-03        -0.67476E-02         0.00000E+00
    0.35843E-03        -0.33643E-02         0.00000E+00
    0.00000E+00         0.00000E+00         0.00000E+00
    0.70423E-02        -0.51178E-01         0.00000E+00
    0.64375E-02        -0.47836E-01         0.00000E+00
    0.58622E-02        -0.44491E-01         0.00000E+00
    0.53146E-02        -0.41137E-01         0.00000E+00
    0.47925E-02        -0.37772E-01         0.00000E+00
    0.42933E-02        -0.34393E-01         0.00000E+00
    0.38142E-02        -0.30997E-01         0.00000E+00
    0.33521E-02        -0.27584E-01         0.00000E+00
    0.29037E-02        -0.24155E-01         0.00000E+00
    0.24659E-02        -0.20712E-01         0.00000E+00
    0.20362E-02        -0.17257E-01         0.00000E+00
    0.16129E-02        -0.13796E-01         0.00000E+00
    0.11957E-02        -0.10333E-01         0.00000E+00
    0.78577E-03        -0.68752E-02         0.00000E+00
    0.38583E-03        -0.34285E-02         0.00000E+00
    0.00000E+00         0.00000E+00         0.00000E+00
    0.69569E-02        -0.51801E-01         0.00000E+00
    0.63526E-02        -0.48442E-01         0.00000E+00
    0.57837E-02        -0.45077E-01         0.00000E+00
    0.52475E-02        -0.41701E-01         0.00000E+00
    0.47405E-02        -0.38310E-01         0.00000E+00
    0.42594E-02        -0.34901E-01         0.00000E+00
    0.38000E-02        -0.31471E-01         0.00000E+00
    0.33579E-02        -0.28022E-01         0.00000E+00
    0.29285E-02        -0.24552E-01         0.00000E+00
    0.25070E-02        -0.21064E-01         0.00000E+00
    0.20892E-02        -0.17560E-01         0.00000E+00
    0.16719E-02        -0.14045E-01         0.00000E+00
    0.12533E-02        -0.10524E-01         0.00000E+00
    0.83328E-03        -0.70042E-02         0.00000E+00
    0.41418E-03        -0.34935E-02         0.00000E+00
    0.00000E+00         0.00000E+00         0.00000E+00
    0.68000E-02        -0.52424E-01         0.00000E+00
    0.62017E-02        -0.49048E-01         0.00000E+00
    0.56446E-02        -0.45662E-01         0.00000E+00
    0.51249E-02        -0.42261E-01         0.00000E+00
    0.46383E-02        -0.38842E-01         0.00000E+00
    0.41804E-02        -0.35403E-01         0.00000E+00
    0.37461E-02        -0.31940E-01         0.00000E+00
    0.33297E-02        -0.28454E-01         0.00000E+00
    0.29250E-02        -0.24944E-01         0.00000E+00
    0.25258E-02        -0.21412E-01         0.00000E+00
    0.21261E-02        -0.17860E-01         0.00000E+00
    0.17206E-02        -0.14292E-01         0.00000E+00
    0.13057E-02        -0.10714E-01         0.00000E+00
    0.87956E-03        -0.71337E-02         0.00000E+00
    0.44316E-03        -0.35588E-02         0.00000E+00
    0.00000E+00         0.00000E+00         0.00000E+00
    0.65697E-02        -0.53041E-01         0.00000E+00
    0.59833E-02        -0.49646E-01         0.00000E+00
    0.54435E-02        -0.46237E-01         0.00000E+00
    0.49456E-02        -0.42811E-01         0.00000E+00
    0.44846E-02        -0.39364E-01         0.00000E+00
    0.40550E-02        -0.35893E-01         0.00000E+00
    0.36507E-02        -0.32396E-01         0.00000E+00
    0.32649E-02        -0.28873E-01         0.00000E+00
    0.28903E-02        -0.25324E-01         0.00000E+00
    0.25189E-02        -0.21750E-01         0.00000E+00
    0.21431E-02        -0.18153E-01         0.00000E+00
    0.17557E-02        -0.14535E-01         0.00000E+00
    0.13504E-02        -0.10902E-01         0.00000E+00
    0.92313E-03        -0.72623E-02         0.00000E+00
    0.47227E-03        -0.36242E-02         0.00000E+00
    0.00000E+00         0.00000E+00         0.00000E+00
    0.62646E-02        -0.53646E-01         0.00000E+00
    0.56961E-02        -0.50230E-01         0.00000E+00
    0.51793E-02        -0.46798E-01         0.00000E+00
    0.47086E-02        -0.43345E-01         0.00000E+00
    0.42782E-02        -0.39868E-01         0.00000E+00
    0.38817E-02        -0.36365E-01         0.00000E+00
    0.35120E-02        -0.32834E-01         0.00000E+00
    0.31614E-02        -0.29276E-01         0.00000E+00
    0.28212E-02        -0.25689E-01         0.00000E+00
    0.24825E-02        -0.22074E-01         0.00000E+00
    0.21362E-02        -0.18434E-01         0.00000E+00
    0.17729E-02        -0.14770E-01         0.00000E+00
    0.13841E-02        -0.11086E-01         0.00000E+00
    0.96182E-03        -0.73889E-02         0.00000E+00
    0.50080E-03        -0.36889E-02         0.00000E+00
    0.00000E+00         0.00000E+00         0.00000E+00
    0.58833E-02        -0.54233E-01         0.00000E+00
    0.53391E-02        -0.50795E-01         0.00000E+00
    0.48512E-02        -0.47337E-01         0.00000E+00
    0.44133E-02        -0.43856E-01         0.00000E+00
    0.40185E-02        -0.40348E-01         0.00000E+00
    0.36596E-02        -0.36812E-01         0.00000E+00
    0.33284E-02        -0.33247E-01         0.00000E+00
    0.30165E-02        -0.29654E-01         0.00000E+00
    0.27143E-02        -0.26031E-01         0.00000E+00
    0.24122E-02        -0.22379E-01         0.00000E+00
    0.20999E-02        -0.18700E-01         0.00000E+00
    0.17669E-02        -0.14993E-01         0.00000E+00
    0.14017E-02        -0.11262E-01         0.00000E+00
    0.99240E-03        -0.75120E-02         0.00000E+00
    0.52763E-03        -0.37525E-02         0.00000E+00
    0.00000E+00         0.00000E+00         0.00000E+00
    0.54248E-02        -0.54795E-01         0.00000E+00
    0.49115E-02        -0.51334E-01         0.00000E+00
    0.44589E-02        -0.47849E-01         0.00000E+00
    0.40594E-02        -0.44337E-01         0.00000E+00
    0.37051E-02        -0.40797E-01         0.00000E+00
    0.33877E-02        -0.37228E-01         0.00000E+00
    0.30984E-02        -0.33629E-01         0.00000E+00
    0.28277E-02        -0.30001E-01         0.00000E+00
    0.25659E-02        -0.26345E-01         0.00000E+00
    0.23031E-02        -0.22659E-01         0.00000E+00
    0.20286E-02        -0.18945E-01         0.00000E+00
    0.17310E-02        -0.15201E-01         0.00000E+00
    0.13969E-02        -0.11428E-01         0.00000E+00
    0.10101E-02        -0.76298E-02         0.00000E+00
    0.55088E-03        -0.38142E-02         0.00000E+00
    0.00000E+00         0.00000E+00         0.00000E+00
    0.48882E-02        -0.55324E-01         0.00000E+00
    0.44132E-02        -0.51838E-01         0.00000E+00
    0.40025E-02        -0.48325E-01         0.00000E+00
    0.36472E-02        -0.44782E-01         0.00000E+00
    0.33380E-02        -0.41208E-01         0.00000E+00
    0.30656E-02        -0.37605E-01         0.00000E+00
    0.28202E-02        -0.33973E-01         0.00000E+00
    0.25921E-02        -0.30313E-01         0.00000E+00
    0.23719E-02        -0.26625E-01         0.00000E+00
    0.21499E-02        -0.22909E-01         0.00000E+00
    0.19157E-02        -0.19164E-01         0.00000E+00
    0.16578E-02        -0.15388E-01         0.00000E+00
    0.13618E-02        -0.11580E-01         0.00000E+00
    0.10079E-02        -0.77403E-02         0.00000E+00
    0.56700E-03        -0.38738E-02         0.00000E+00
    0.00000E+00         0.00000E+00         0.00000E+00
    0.42730E-02        -0.55814E-01         0.00000E+00
    0.38442E-02        -0.52302E-01         0.00000E+00
    0.34827E-02        -0.48758E-01         0.00000E+00
    0.31775E-02        -0.45182E-01         0.00000E+00
    0.29177E-02        -0.41574E-01         0.00000E+00
    0.26926E-02        -0.37937E-01         0.00000E+00
    0.24921E-02        -0.34272E-01         0.00000E+00
    0.23068E-02        -0.30582E-01         0.00000E+00
    0.21280E-02        -0.26867E-01         0.00000E+00
    0.19470E-02        -0.23125E-01         0.00000E+00
    0.17545E-02        -0.19355E-01         0.00000E+00
    0.15394E-02        -0.15553E-01         0.00000E+00
    0.12873E-02        -0.11716E-01         0.00000E+00
    0.97651E-03        -0.78409E-02         0.00000E+00
    0.57004E-03        -0.39294E-02         0.00000E+00
    0.00000E+00         0.00000E+00         0.00000E+00
    0.35785E-02        -0.56254E-01         0.00000E+00
    0.32052E-02        -0.52715E-01         0.00000E+00
    0.29008E-02        -0.49139E-01         0.00000E+00
    0.26517E-02        -0.45529E-01         0.00000E+00
    0.24447E-02        -0.41886E-01         0.00000E+00
    0.22680E-02        -0.38216E-01         0.00000E+00
    0.21119E-02        -0.34522E-01         0.00000E+00
    0.19682E-02        -0.30805E-01         0.00000E+00
    0.18294E-02        -0.27066E-01         0.00000E+00
    0.16886E-02        -0.23302E-01         0.00000E+00
    0.15380E-02        -0.19512E-01         0.00000E+00
    0.13676E-02        -0.15691E-01         0.00000E+00
    0.11640E-02        -0.11832E-01         0.00000E+00
    0.90532E-03        -0.79304E-02         0.00000E+00
    0.54995E-03        -0.39820E-02         0.00000E+00
    0.00000E+00         0.00000E+00         0.00000E+00
    0.28042E-02        -0.56636E-01         0.00000E+00
    0.24974E-02        -0.53068E-01         0.00000E+00
    0.22591E-02        -0.49459E-01         0.00000E+00
    0.20715E-02        -0.45813E-01         0.00000E+00
    0.19190E-02        -0.42137E-01         0.00000E+00
    0.17901E-02        -0.38437E-01         0.00000E+00
    0.16767E-02        -0.34717E-01         0.00000E+00
    0.15724E-02        -0.30978E-01         0.00000E+00
    0.14718E-02        -0.27219E-01         0.00000E+00
    0.13694E-02        -0.23439E-01         0.00000E+00
    0.12595E-02        -0.19634E-01         0.00000E+00
    0.11343E-02        -0.15799E-01         0.00000E+00
    0.98226E-03        -0.11927E-01         0.00000E+00
    0.78312E-03        -0.80079E-02         0.00000E+00
    0.49599E-03        -0.40316E-02         0.00000E+00
    0.00000E+00         0.00000E+00         0.00000E+00
    0.19494E-02        -0.56946E-01         0.00000E+00
    0.17236E-02        -0.53348E-01         0.00000E+00
    0.15610E-02        -0.49704E-01         0.00000E+00
    0.14379E-02        -0.46024E-01         0.00000E+00
    0.13391E-02        -0.42320E-01         0.00000E+00
    0.12559E-02        -0.38596E-01         0.00000E+00
    0.11828E-02        -0.34856E-01         0.00000E+00
    0.11155E-02        -0.31099E-01         0.00000E+00
    0.10504E-02        -0.27326E-01         0.00000E+00
    0.98429E-03        -0.23533E-01         0.00000E+00
    0.91318E-03        -0.19719E-01         0.00000E+00
    0.83201E-03        -0.15876E-01         0.00000E+00
    0.73256E-03        -0.11998E-01         0.00000E+00
    0.59923E-03        -0.80715E-02         0.00000E+00
    0.39575E-03        -0.40778E-02         0.00000E+00
    0.00000E+00         0.00000E+00         0.00000E+00
    0.10137E-02        -0.57166E-01         0.00000E+00
    0.88894E-03        -0.53536E-01         0.00000E+00
    0.80915E-03        -0.49859E-01         0.00000E+00
    0.74939E-03        -0.46154E-01         0.00000E+00
    0.70144E-03        -0.42430E-01         0.00000E+00
    0.66105E-03        -0.38690E-01         0.00000E+00
    0.62552E-03        -0.34937E-01         0.00000E+00
    0.59280E-03        -0.31170E-01         0.00000E+00
    0.56119E-03        -0.27388E-01         0.00000E+00
    0.52903E-03        -0.23588E-01         0.00000E+00
    0.49448E-03        -0.19768E-01         0.00000E+00
    0.45508E-03        -0.15922E-01         0.00000E+00
    0.40673E-03        -0.12042E-01         0.00000E+00
    0.34126E-03        -0.81161E-02         0.00000E+00
    0.23725E-03        -0.41198E-02         0.00000E+00
    0.00000E+00         0.00000E+00         0.00000E+00
    0.00000E+00        -0.57263E-01         0.00000E+00
    0.00000E+00        -0.53605E-01         0.00000E+00
    0.00000E+00        -0.49912E-01         0.00000E+00
    0.00000E+00        -0.46197E-01         0.00000E+00
    0.00000E+00        -0.42466E-01         0.00000E+00
    0.00000E+00        -0.38721E-01         0.00000E+00
    0.00000E+00        -0.34964E-01         0.00000E+00
    0.00000E+00        -0.31193E-01         0.00000E+00
    0.00000E+00        -0.27407E-01         0.00000E+00
    0.00000E+00        -0.23606E-01         0.00000E+00
    0.00000E+00        -0.19783E-01         0.00000E+00
    0.00000E+00        -0.15936E-01         0.00000E+00
    0.00000E+00        -0.12057E-01         0.00000E+00
    0.00000E+00        -0.81330E-02         0.00000E+00
    0.00000E+00        -0.41411E-02         0.00000E+00
    0.00000E+00         0.00000E+00         0.00000E+00
CELL_DATA        450
VECTORS vDarcy double 
    0.14575E-09        -0.85956E-11         0.00000E+00
    0.14573E-09        -0.22375E-10         0.00000E+00
    0.14568E-09        -0.32924E-10         0.00000E+00
    0.14562E-09        -0.40495E-10         0.00000E+00
    0.14556E-09        -0.45362E-10         0.00000E+00
    0.14550E-09        -0.47801E-10         0.00000E+00
    0.14545E-09        -0.48080E-10         0.00000E+00
    0.14541E-09        -0.46453E-10         0.00000E+00
    0.14537E-09        -0.43164E-10         0.00000E+00
    0.14534E-09        -0.38458E-10         0.00000E+00
    0.14532E-09        -0.32594E-10         0.00000E+00
    0.14530E-09        -0.25854E-10         0.00000E+00
    0.14529E-09        -0.18553E-10         0.00000E+00
    0.14528E-09        -0.11038E-10         0.00000E+00
    0.14528E-09        -0.36856E-11         0.00000E+00
    0.43681E-09        -0.85646E-11         0.00000E+00
    0.43673E-09        -0.22300E-10         0.00000E+00
    0.43658E-09        -0.32820E-10         0.00000E+00
    0.43641E-09        -0.40378E-10         0.00000E+00
    0.43623E-09        -0.45245E-10         0.00000E+00
    0.43605E-09        -0.47693E-10         0.00000E+00
    0.43590E-09        -0.47985E-10         0.00000E+00
    0.43576E-09        -0.46372E-10         0.00000E+00
    0.43564E-09        -0.43096E-10         0.00000E+00
    0.43555E-09        -0.38404E-10         0.00000E+00
    0.43547E-09        -0.32552E-10         0.00000E+00
    0.43541E-09        -0.25825E-10         0.00000E+00
    0.43538E-09        -0.18537E-10         0.00000E+00
    0.43536E-09        -0.11032E-10         0.00000E+00
    0.43535E-09        -0.36849E-11         0.00000E+00
    0.72653E-09        -0.85019E-11         0.00000E+00
    0.72638E-09        -0.22146E-10         0.00000E+00
    0.72614E-09        -0.32608E-10         0.00000E+00
    0.72585E-09        -0.40140E-10         0.00000E+00
    0.72553E-09        -0.45006E-10         0.00000E+00
    0.72523E-09        -0.47469E-10         0.00000E+00
    0.72495E-09        -0.47785E-10         0.00000E+00
    0.72470E-09        -0.46199E-10         0.00000E+00
    0.72449E-09        -0.42950E-10         0.00000E+00
    0.72431E-09        -0.38283E-10         0.00000E+00
    0.72417E-09        -0.32459E-10         0.00000E+00
    0.72406E-09        -0.25760E-10         0.00000E+00
    0.72399E-09        -0.18499E-10         0.00000E+00
    0.72395E-09        -0.11016E-10         0.00000E+00
    0.72394E-09        -0.36823E-11         0.00000E+00
    0.10140E-08        -0.84058E-11         0.00000E+00
    0.10138E-08        -0.21911E-10         0.00000E+00
    0.10135E-08        -0.32283E-10         0.00000E+00
    0.10130E-08        -0.39770E-10         0.00000E+00
    0.10126E-08        -0.44630E-10         0.00000E+00
    0.10121E-08        -0.47112E-10         0.00000E+00
    0.10117E-08        -0.47460E-10         0.00000E+00
    0.10113E-08        -0.45910E-10         0.00000E+00
    0.10110E-08        -0.42701E-10         0.00000E+00
    0.10107E-08        -0.38077E-10         0.00000E+00
    0.10104E-08        -0.32297E-10         0.00000E+00
    0.10103E-08        -0.25644E-10         0.00000E+00
    0.10101E-08        -0.18428E-10         0.00000E+00
    0.10101E-08        -0.10984E-10         0.00000E+00
    0.10101E-08        -0.36758E-11         0.00000E+00
    0.12984E-08        -0.82743E-11         0.00000E+00
    0.12981E-08        -0.21586E-10         0.00000E+00
    0.12976E-08        -0.31832E-10         0.00000E+00
    0.12971E-08        -0.39255E-10         0.00000E+00
    0.12964E-08        -0.44098E-10         0.00000E+00
    0.12958E-08        -0.46596E-10         0.00000E+00
    0.12952E-08        -0.46979E-10         0.00000E+00
    0.12947E-08        -0.45475E-10         0.00000E+00
    0.12942E-08        -0.42319E-10         0.00000E+00
    0.12937E-08        -0.37753E-10         0.00000E+00
    0.12934E-08        -0.32038E-10         0.00000E+00
    0.12931E-08        -0.25455E-10         0.00000E+00
    0.12929E-08        -0.18309E-10         0.00000E+00
    0.12928E-08        -0.10927E-10         0.00000E+00
    0.12927E-08        -0.36622E-11         0.00000E+00
    0.15787E-08        -0.81042E-11         0.00000E+00
    0.15784E-08        -0.21165E-10         0.00000E+00
    0.15778E-08        -0.31242E-10         0.00000E+00
    0.15770E-08        -0.38572E-10         0.00000E+00
    0.15762E-08        -0.43381E-10         0.00000E+00
    0.15754E-08        -0.45886E-10         0.00000E+00
    0.15746E-08        -0.46302E-10         0.00000E+00
    0.15738E-08        -0.44850E-10         0.00000E+00
    0.15731E-08        -0.41761E-10         0.00000E+00
    0.15725E-08        -0.37275E-10         0.00000E+00
    0.15720E-08        -0.31652E-10         0.00000E+00
    0.15715E-08        -0.25168E-10         0.00000E+00
    0.15713E-08        -0.18122E-10         0.00000E+00
    0.15711E-08        -0.10832E-10         0.00000E+00
    0.15710E-08        -0.36376E-11         0.00000E+00
    0.18542E-08        -0.78916E-11         0.00000E+00
    0.18538E-08        -0.20634E-10         0.00000E+00
    0.18530E-08        -0.30495E-10         0.00000E+00
    0.18521E-08        -0.37696E-10         0.00000E+00
    0.18511E-08        -0.42445E-10         0.00000E+00
    0.18500E-08        -0.44940E-10         0.00000E+00
    0.18489E-08        -0.45383E-10         0.00000E+00
    0.18479E-08        -0.43988E-10         0.00000E+00
    0.18469E-08        -0.40981E-10         0.00000E+00
    0.18460E-08        -0.36600E-10         0.00000E+00
    0.18453E-08        -0.31099E-10         0.00000E+00
    0.18447E-08        -0.24751E-10         0.00000E+00
    0.18443E-08        -0.17844E-10         0.00000E+00
    0.18441E-08        -0.10686E-10         0.00000E+00
    0.18439E-08        -0.35974E-11         0.00000E+00
    0.21240E-08        -0.76319E-11         0.00000E+00
    0.21234E-08        -0.19980E-10         0.00000E+00
    0.21225E-08        -0.29566E-10         0.00000E+00
    0.21214E-08        -0.36593E-10         0.00000E+00
    0.21201E-08        -0.41246E-10         0.00000E+00
    0.21187E-08        -0.43707E-10         0.00000E+00
    0.21173E-08        -0.44168E-10         0.00000E+00
    0.21159E-08        -0.42834E-10         0.00000E+00
    0.21146E-08        -0.39927E-10         0.00000E+00
    0.21135E-08        -0.35679E-10         0.00000E+00
    0.21125E-08        -0.30340E-10         0.00000E+00
    0.21117E-08        -0.24171E-10         0.00000E+00
    0.21112E-08        -0.17452E-10         0.00000E+00
    0.21108E-08        -0.10473E-10         0.00000E+00
    0.21106E-08        -0.35364E-11         0.00000E+00
    0.23871E-08        -0.73198E-11         0.00000E+00
    0.23865E-08        -0.19188E-10         0.00000E+00
    0.23854E-08        -0.28428E-10         0.00000E+00
    0.23840E-08        -0.35222E-10         0.00000E+00
    0.23824E-08        -0.39734E-10         0.00000E+00
    0.23806E-08        -0.42133E-10         0.00000E+00
    0.23789E-08        -0.42599E-10         0.00000E+00
    0.23771E-08        -0.41332E-10         0.00000E+00
    0.23755E-08        -0.38545E-10         0.00000E+00
    0.23740E-08        -0.34465E-10         0.00000E+00
    0.23727E-08        -0.29331E-10         0.00000E+00
    0.23717E-08        -0.23395E-10         0.00000E+00
    0.23709E-08        -0.16920E-10         0.00000E+00
    0.23705E-08        -0.10177E-10         0.00000E+00
    0.23702E-08        -0.34496E-11         0.00000E+00
    0.26429E-08        -0.69492E-11         0.00000E+00
    0.26421E-08        -0.18238E-10         0.00000E+00
    0.26408E-08        -0.27048E-10         0.00000E+00
    0.26391E-08        -0.33540E-10         0.00000E+00
    0.26371E-08        -0.37858E-10         0.00000E+00
    0.26350E-08        -0.40160E-10         0.00000E+00
    0.26328E-08        -0.40618E-10         0.00000E+00
    0.26306E-08        -0.39423E-10         0.00000E+00
    0.26285E-08        -0.36781E-10         0.00000E+00
    0.26267E-08        -0.32908E-10         0.00000E+00
    0.26251E-08        -0.28032E-10         0.00000E+00
    0.26237E-08        -0.22389E-10         0.00000E+00
    0.26228E-08        -0.16222E-10         0.00000E+00
    0.26222E-08        -0.97843E-11         0.00000E+00
    0.26219E-08        -0.33318E-11         0.00000E+00
    0.28904E-08        -0.65131E-11         0.00000E+00
    0.28895E-08        -0.17108E-10         0.00000E+00
    0.28880E-08        -0.25393E-10         0.00000E+00
    0.28860E-08        -0.31500E-10         0.00000E+00
    0.28836E-08        -0.35563E-10         0.00000E+00
    0.28810E-08        -0.37729E-10         0.00000E+00
    0.28782E-08        -0.38165E-10         0.00000E+00
    0.28756E-08        -0.37051E-10         0.00000E+00
    0.28730E-08        -0.34582E-10         0.00000E+00
    0.28707E-08        -0.30962E-10         0.00000E+00
    0.28687E-08        -0.26403E-10         0.00000E+00
    0.28671E-08        -0.21121E-10         0.00000E+00
    0.28659E-08        -0.15338E-10         0.00000E+00
    0.28651E-08        -0.92800E-11         0.00000E+00
    0.28648E-08        -0.31783E-11         0.00000E+00
    0.31290E-08        -0.60044E-11         0.00000E+00
    0.31279E-08        -0.15777E-10         0.00000E+00
    0.31261E-08        -0.23423E-10         0.00000E+00
    0.31237E-08        -0.29055E-10         0.00000E+00
    0.31209E-08        -0.32796E-10         0.00000E+00
    0.31177E-08        -0.34787E-10         0.00000E+00
    0.31145E-08        -0.35185E-10         0.00000E+00
    0.31112E-08        -0.34164E-10         0.00000E+00
    0.31082E-08        -0.31902E-10         0.00000E+00
    0.31054E-08        -0.28588E-10         0.00000E+00
    0.31030E-08        -0.24412E-10         0.00000E+00
    0.31010E-08        -0.19566E-10         0.00000E+00
    0.30996E-08        -0.14247E-10         0.00000E+00
    0.30986E-08        -0.86529E-11         0.00000E+00
    0.30982E-08        -0.29853E-11         0.00000E+00
    0.33577E-08        -0.54149E-11         0.00000E+00
    0.33566E-08        -0.14222E-10         0.00000E+00
    0.33545E-08        -0.21103E-10         0.00000E+00
    0.33516E-08        -0.26159E-10         0.00000E+00
    0.33482E-08        -0.29506E-10         0.00000E+00
    0.33446E-08        -0.31281E-10         0.00000E+00
    0.33407E-08        -0.31632E-10         0.00000E+00
    0.33369E-08        -0.30718E-10         0.00000E+00
    0.33333E-08        -0.28703E-10         0.00000E+00
    0.33300E-08        -0.25752E-10         0.00000E+00
    0.33272E-08        -0.22031E-10         0.00000E+00
    0.33248E-08        -0.17704E-10         0.00000E+00
    0.33231E-08        -0.12936E-10         0.00000E+00
    0.33220E-08        -0.78947E-11         0.00000E+00
    0.33214E-08        -0.27500E-11         0.00000E+00
    0.35760E-08        -0.47359E-11         0.00000E+00
    0.35747E-08        -0.12419E-10         0.00000E+00
    0.35722E-08        -0.18399E-10         0.00000E+00
    0.35690E-08        -0.22772E-10         0.00000E+00
    0.35650E-08        -0.25653E-10         0.00000E+00
    0.35607E-08        -0.27171E-10         0.00000E+00
    0.35563E-08        -0.27466E-10         0.00000E+00
    0.35519E-08        -0.26681E-10         0.00000E+00
    0.35477E-08        -0.24957E-10         0.00000E+00
    0.35439E-08        -0.22433E-10         0.00000E+00
    0.35406E-08        -0.19245E-10         0.00000E+00
    0.35379E-08        -0.15522E-10         0.00000E+00
    0.35359E-08        -0.11397E-10         0.00000E+00
    0.35346E-08        -0.70011E-11         0.00000E+00
    0.35339E-08        -0.24706E-11         0.00000E+00
    0.37832E-08        -0.39585E-11         0.00000E+00
    0.37816E-08        -0.10345E-10         0.00000E+00
    0.37788E-08        -0.15281E-10         0.00000E+00
    0.37751E-08        -0.18862E-10         0.00000E+00
    0.37706E-08        -0.21204E-10         0.00000E+00
    0.37657E-08        -0.22430E-10         0.00000E+00
    0.37606E-08        -0.22667E-10         0.00000E+00
    0.37555E-08        -0.22036E-10         0.00000E+00
    0.37507E-08        -0.20654E-10         0.00000E+00
    0.37464E-08        -0.18625E-10         0.00000E+00
    0.37427E-08        -0.16051E-10         0.00000E+00
    0.37396E-08        -0.13022E-10         0.00000E+00
    0.37374E-08        -0.96316E-11         0.00000E+00
    0.37359E-08        -0.59729E-11         0.00000E+00
    0.37351E-08        -0.21473E-11         0.00000E+00
    0.39784E-08        -0.30749E-11         0.00000E+00
    0.39767E-08        -0.79839E-11         0.00000E+00
    0.39736E-08        -0.11728E-10         0.00000E+00
    0.39693E-08        -0.14411E-10         0.00000E+00
    0.39642E-08        -0.16145E-10         0.00000E+00
    0.39587E-08        -0.17049E-10         0.00000E+00
    0.39530E-08        -0.17230E-10         0.00000E+00
    0.39473E-08        -0.16787E-10         0.00000E+00
    0.39420E-08        -0.15801E-10         0.00000E+00
    0.39371E-08        -0.14340E-10         0.00000E+00
    0.39330E-08        -0.12462E-10         0.00000E+00
    0.39296E-08        -0.10216E-10         0.00000E+00
    0.39271E-08        -0.76503E-11         0.00000E+00
    0.39254E-08        -0.48171E-11         0.00000E+00
    0.39246E-08        -0.17818E-11         0.00000E+00
    0.41613E-08        -0.20796E-11         0.00000E+00
    0.41593E-08        -0.53243E-11         0.00000E+00
    0.41558E-08        -0.77335E-11         0.00000E+00
    0.41510E-08        -0.94161E-11         0.00000E+00
    0.41454E-08        -0.10485E-10         0.00000E+00
    0.41393E-08        -0.11044E-10         0.00000E+00
    0.41330E-08        -0.11181E-10         0.00000E+00
    0.41267E-08        -0.10962E-10         0.00000E+00
    0.41209E-08        -0.10432E-10         0.00000E+00
    0.41156E-08        -0.96129E-11         0.00000E+00
    0.41111E-08        -0.85139E-11         0.00000E+00
    0.41074E-08        -0.71350E-11         0.00000E+00
    0.41047E-08        -0.54766E-11         0.00000E+00
    0.41028E-08        -0.35486E-11         0.00000E+00
    0.41020E-08        -0.13788E-11         0.00000E+00
    0.43310E-08        -0.97103E-12         0.00000E+00
    0.43288E-08        -0.23673E-11         0.00000E+00
    0.43250E-08        -0.33072E-11         0.00000E+00
    0.43198E-08        -0.39023E-11         0.00000E+00
    0.43136E-08        -0.42581E-11         0.00000E+00
    0.43070E-08        -0.44619E-11         0.00000E+00
    0.43001E-08        -0.45743E-11         0.00000E+00
    0.42934E-08        -0.46246E-11         0.00000E+00
    0.42871E-08        -0.46113E-11         0.00000E+00
    0.42815E-08        -0.45063E-11         0.00000E+00
    0.42766E-08        -0.42632E-11         0.00000E+00
    0.42727E-08        -0.38274E-11         0.00000E+00
    0.42698E-08        -0.31483E-11         0.00000E+00
    0.42679E-08        -0.21906E-11         0.00000E+00
    0.42670E-08        -0.94491E-12         0.00000E+00
    0.44870E-08         0.24736E-12         0.00000E+00
    0.44847E-08         0.87152E-12         0.00000E+00
    0.44805E-08         0.15163E-11         0.00000E+00
    0.44749E-08         0.20764E-11         0.00000E+00
    0.44684E-08         0.24615E-11         0.00000E+00
    0.44613E-08         0.26086E-11         0.00000E+00
    0.44540E-08         0.24912E-11         0.00000E+00
    0.44469E-08         0.21235E-11         0.00000E+00
    0.44403E-08         0.15590E-11         0.00000E+00
    0.44344E-08         0.88372E-12         0.00000E+00
    0.44294E-08         0.20475E-12         0.00000E+00
    0.44254E-08        -0.36432E-12         0.00000E+00
    0.44224E-08        -0.71841E-12         0.00000E+00
    0.44204E-08        -0.77559E-12         0.00000E+00
    0.44194E-08        -0.49001E-12         0.00000E+00
    0.46289E-08         0.15660E-11         0.00000E+00
    0.46264E-08         0.43582E-11         0.00000E+00
    0.46220E-08         0.66730E-11         0.00000E+00
    0.46161E-08         0.84256E-11         0.00000E+00
    0.46092E-08         0.95532E-11         0.00000E+00
    0.46018E-08         0.10027E-10         0.00000E+00
    0.45943E-08         0.98643E-11         0.00000E+00
    0.45871E-08         0.91286E-11         0.00000E+00
    0.45803E-08         0.79317E-11         0.00000E+00
    0.45743E-08         0.64230E-11         0.00000E+00
    0.45693E-08         0.47740E-11         0.00000E+00
    0.45652E-08         0.31607E-11         0.00000E+00
    0.45622E-08         0.17445E-11         0.00000E+00
    0.45603E-08         0.65479E-12         0.00000E+00
    0.45593E-08        -0.26746E-13         0.00000E+00
    0.47559E-08         0.29676E-11         0.00000E+00
    0.47533E-08         0.80362E-11         0.00000E+00
    0.47487E-08         0.12062E-10         0.00000E+00
    0.47427E-08         0.15002E-10         0.00000E+00
    0.47357E-08         0.16837E-10         0.00000E+00
    0.47283E-08         0.17590E-10         0.00000E+00
    0.47208E-08         0.17328E-10         0.00000E+00
    0.47136E-08         0.16175E-10         0.00000E+00
    0.47070E-08         0.14306E-10         0.00000E+00
    0.47011E-08         0.11933E-10         0.00000E+00
    0.46962E-08         0.92954E-11         0.00000E+00
    0.46923E-08         0.66303E-11         0.00000E+00
    0.46894E-08         0.41563E-11         0.00000E+00
    0.46875E-08         0.20504E-11         0.00000E+00
    0.46866E-08         0.42981E-12         0.00000E+00
    0.48675E-08         0.44263E-11         0.00000E+00
    0.48649E-08         0.11822E-10         0.00000E+00
    0.48602E-08         0.17538E-10         0.00000E+00
    0.48543E-08         0.21601E-10         0.00000E+00
    0.48475E-08         0.24061E-10         0.00000E+00
    0.48403E-08         0.25010E-10         0.00000E+00
    0.48332E-08         0.24584E-10         0.00000E+00
    0.48264E-08         0.22975E-10         0.00000E+00
    0.48202E-08         0.20418E-10         0.00000E+00
    0.48147E-08         0.17189E-10         0.00000E+00
    0.48102E-08         0.13585E-10         0.00000E+00
    0.48065E-08         0.99043E-11         0.00000E+00
    0.48039E-08         0.64188E-11         0.00000E+00
    0.48022E-08         0.33535E-11         0.00000E+00
    0.48013E-08         0.86256E-12         0.00000E+00
    0.49631E-08         0.59059E-11         0.00000E+00
    0.49605E-08         0.15599E-10         0.00000E+00
    0.49561E-08         0.22900E-10         0.00000E+00
    0.49504E-08         0.27943E-10         0.00000E+00
    0.49442E-08         0.30882E-10         0.00000E+00
    0.49377E-08         0.31906E-10         0.00000E+00
    0.49313E-08         0.31242E-10         0.00000E+00
    0.49254E-08         0.29152E-10         0.00000E+00
    0.49200E-08         0.25934E-10         0.00000E+00
    0.49153E-08         0.21910E-10         0.00000E+00
    0.49113E-08         0.17424E-10         0.00000E+00
    0.49082E-08         0.12820E-10         0.00000E+00
    0.49060E-08         0.84209E-11         0.00000E+00
    0.49046E-08         0.45006E-11         0.00000E+00
    0.49038E-08         0.12531E-11         0.00000E+00
    0.50421E-08         0.73566E-11         0.00000E+00
    0.50397E-08         0.19207E-10         0.00000E+00
    0.50357E-08         0.27874E-10         0.00000E+00
    0.50308E-08         0.33652E-10         0.00000E+00
    0.50255E-08         0.36848E-10         0.00000E+00
    0.50202E-08         0.37786E-10         0.00000E+00
    0.50152E-08         0.36803E-10         0.00000E+00
    0.50106E-08         0.34242E-10         0.00000E+00
    0.50065E-08         0.30445E-10         0.00000E+00
    0.50030E-08         0.25763E-10         0.00000E+00
    0.50000E-08         0.20555E-10         0.00000E+00
    0.49976E-08         0.15193E-10         0.00000E+00
    0.49959E-08         0.10041E-10         0.00000E+00
    0.49948E-08         0.54236E-11         0.00000E+00
    0.49943E-08         0.15824E-11         0.00000E+00
    0.51038E-08         0.87102E-11         0.00000E+00
    0.51018E-08         0.22423E-10         0.00000E+00
    0.50985E-08         0.32083E-10         0.00000E+00
    0.50948E-08         0.38224E-10         0.00000E+00
    0.50911E-08         0.41372E-10         0.00000E+00
    0.50878E-08         0.42030E-10         0.00000E+00
    0.50848E-08         0.40663E-10         0.00000E+00
    0.50822E-08         0.37686E-10         0.00000E+00
    0.50799E-08         0.33469E-10         0.00000E+00
    0.50780E-08         0.28354E-10         0.00000E+00
    0.50763E-08         0.22682E-10         0.00000E+00
    0.50750E-08         0.16817E-10         0.00000E+00
    0.50740E-08         0.11149E-10         0.00000E+00
    0.50734E-08         0.60517E-11         0.00000E+00
    0.50731E-08         0.18324E-11         0.00000E+00
    0.51475E-08         0.98680E-11         0.00000E+00
    0.51461E-08         0.24925E-10         0.00000E+00
    0.51441E-08         0.34993E-10         0.00000E+00
    0.51423E-08         0.40978E-10         0.00000E+00
    0.51411E-08         0.43706E-10         0.00000E+00
    0.51404E-08         0.43893E-10         0.00000E+00
    0.51402E-08         0.42123E-10         0.00000E+00
    0.51403E-08         0.38857E-10         0.00000E+00
    0.51405E-08         0.34460E-10         0.00000E+00
    0.51407E-08         0.29233E-10         0.00000E+00
    0.51408E-08         0.23462E-10         0.00000E+00
    0.51408E-08         0.17459E-10         0.00000E+00
    0.51407E-08         0.11602E-10         0.00000E+00
    0.51407E-08         0.63133E-11         0.00000E+00
    0.51407E-08         0.19860E-11         0.00000E+00
    0.51722E-08         0.10676E-10         0.00000E+00
    0.51718E-08         0.26207E-10         0.00000E+00
    0.51719E-08         0.35814E-10         0.00000E+00
    0.51730E-08         0.40978E-10         0.00000E+00
    0.51753E-08         0.42911E-10         0.00000E+00
    0.51783E-08         0.42511E-10         0.00000E+00
    0.51817E-08         0.40420E-10         0.00000E+00
    0.51852E-08         0.37091E-10         0.00000E+00
    0.51885E-08         0.32843E-10         0.00000E+00
    0.51914E-08         0.27912E-10         0.00000E+00
    0.51937E-08         0.22503E-10         0.00000E+00
    0.51954E-08         0.16841E-10         0.00000E+00
    0.51965E-08         0.11240E-10         0.00000E+00
    0.51971E-08         0.61346E-11         0.00000E+00
    0.51974E-08         0.20313E-11         0.00000E+00
    0.51767E-08         0.10852E-10         0.00000E+00
    0.51780E-08         0.25388E-10         0.00000E+00
    0.51815E-08         0.33307E-10         0.00000E+00
    0.51871E-08         0.36968E-10         0.00000E+00
    0.51941E-08         0.37873E-10         0.00000E+00
    0.52019E-08         0.36953E-10         0.00000E+00
    0.52098E-08         0.34787E-10         0.00000E+00
    0.52174E-08         0.31742E-10         0.00000E+00
    0.52244E-08         0.28058E-10         0.00000E+00
    0.52305E-08         0.23894E-10         0.00000E+00
    0.52354E-08         0.19374E-10         0.00000E+00
    0.52392E-08         0.14622E-10         0.00000E+00
    0.52418E-08         0.98415E-11         0.00000E+00
    0.52433E-08         0.54351E-11         0.00000E+00
    0.52440E-08         0.19637E-11         0.00000E+00
    0.51591E-08         0.97821E-11         0.00000E+00
    0.51639E-08         0.20668E-10         0.00000E+00
    0.51732E-08         0.25569E-10         0.00000E+00
    0.51852E-08         0.27364E-10         0.00000E+00
    0.51985E-08         0.27381E-10         0.00000E+00
    0.52121E-08         0.26305E-10         0.00000E+00
    0.52253E-08         0.24519E-10         0.00000E+00
    0.52376E-08         0.22248E-10         0.00000E+00
    0.52487E-08         0.19628E-10         0.00000E+00
    0.52583E-08         0.16746E-10         0.00000E+00
    0.52663E-08         0.13659E-10         0.00000E+00
    0.52726E-08         0.10416E-10         0.00000E+00
    0.52770E-08         0.71022E-11         0.00000E+00
    0.52798E-08         0.39824E-11         0.00000E+00
    0.52809E-08         0.18760E-11         0.00000E+00
    0.51163E-08         0.44141E-11         0.00000E+00
    0.51295E-08         0.85122E-11         0.00000E+00
    0.51483E-08         0.10052E-10         0.00000E+00
    0.51689E-08         0.10474E-10         0.00000E+00
    0.51898E-08         0.10309E-10         0.00000E+00
    0.52101E-08         0.97996E-11         0.00000E+00
    0.52290E-08         0.90729E-11         0.00000E+00
    0.52464E-08         0.82004E-11         0.00000E+00
    0.52619E-08         0.72245E-11         0.00000E+00
    0.52753E-08         0.61704E-11         0.00000E+00
    0.52866E-08         0.50530E-11         0.00000E+00
    0.52956E-08         0.38827E-11         0.00000E+00
    0.53022E-08         0.26774E-11         0.00000E+00
    0.53064E-08         0.15101E-11         0.00000E+00
    0.53090E-08         0.92529E-12         0.00000E+00
POINT_DATA        496
VECTORS vDarcyNodal double 
    0.14576E-09        -0.86033E-11         0.00000E+00
    0.14575E-09        -0.15499E-10         0.00000E+00
    0.14571E-09        -0.27672E-10         0.00000E+00
    0.14565E-09        -0.36737E-10         0.00000E+00
    0.14559E-09        -0.42957E-10         0.00000E+00
    0.14553E-09        -0.46609E-10         0.00000E+00
    0.14548E-09        -0.47965E-10         0.00000E+00
    0.14543E-09        -0.47288E-10         0.00000E+00
    0.14539E-09        -0.44826E-10         0.00000E+00
    0.14536E-09        -0.40826E-10         0.00000E+00
    0.14533E-09        -0.35537E-10         0.00000E+00
    0.14531E-09        -0.29232E-10         0.00000E+00
    0.14529E-09        -0.22209E-10         0.00000E+00
    0.14529E-09        -0.14798E-10         0.00000E+00
    0.14528E-09        -0.73624E-11         0.00000E+00
    0.14528E-09        -0.36857E-11         0.00000E+00
    0.29130E-09        -0.85879E-11         0.00000E+00
    0.29127E-09        -0.15472E-10         0.00000E+00
    0.29119E-09        -0.27627E-10         0.00000E+00
    0.29108E-09        -0.36682E-10         0.00000E+00
    0.29096E-09        -0.42900E-10         0.00000E+00
    0.29084E-09        -0.46554E-10         0.00000E+00
    0.29072E-09        -0.47916E-10         0.00000E+00
    0.29063E-09        -0.47245E-10         0.00000E+00
    0.29054E-09        -0.44790E-10         0.00000E+00
    0.29047E-09        -0.40796E-10         0.00000E+00
    0.29042E-09        -0.35515E-10         0.00000E+00
    0.29037E-09        -0.29216E-10         0.00000E+00
    0.29034E-09        -0.22198E-10         0.00000E+00
    0.29033E-09        -0.14793E-10         0.00000E+00
    0.29032E-09        -0.73610E-11         0.00000E+00
    0.29032E-09        -0.36855E-11         0.00000E+00
    0.58170E-09        -0.85413E-11         0.00000E+00
    0.58164E-09        -0.15392E-10         0.00000E+00
    0.58147E-09        -0.27492E-10         0.00000E+00
    0.58125E-09        -0.36516E-10         0.00000E+00
    0.58101E-09        -0.42724E-10         0.00000E+00
    0.58076E-09        -0.46385E-10         0.00000E+00
    0.58053E-09        -0.47763E-10         0.00000E+00
    0.58032E-09        -0.47112E-10         0.00000E+00
    0.58014E-09        -0.44678E-10         0.00000E+00
    0.57999E-09        -0.40703E-10         0.00000E+00
    0.57987E-09        -0.35441E-10         0.00000E+00
    0.57977E-09        -0.29162E-10         0.00000E+00
    0.57970E-09        -0.22164E-10         0.00000E+00
    0.57966E-09        -0.14775E-10         0.00000E+00
    0.57965E-09        -0.73556E-11         0.00000E+00
    0.57964E-09        -0.36842E-11         0.00000E+00
    0.87032E-09        -0.84624E-11         0.00000E+00
    0.87022E-09        -0.15256E-10         0.00000E+00
    0.86997E-09        -0.27262E-10         0.00000E+00
    0.86963E-09        -0.36232E-10         0.00000E+00
    0.86925E-09        -0.42422E-10         0.00000E+00
    0.86886E-09        -0.46090E-10         0.00000E+00
    0.86849E-09        -0.47492E-10         0.00000E+00
    0.86816E-09        -0.46872E-10         0.00000E+00
    0.86786E-09        -0.44471E-10         0.00000E+00
    0.86760E-09        -0.40530E-10         0.00000E+00
    0.86739E-09        -0.35302E-10         0.00000E+00
    0.86722E-09        -0.29058E-10         0.00000E+00
    0.86710E-09        -0.22095E-10         0.00000E+00
    0.86703E-09        -0.14739E-10         0.00000E+00
    0.86700E-09        -0.73428E-11         0.00000E+00
    0.86699E-09        -0.36804E-11         0.00000E+00
    0.11563E-08        -0.83493E-11         0.00000E+00
    0.11561E-08        -0.15061E-10         0.00000E+00
    0.11558E-08        -0.26931E-10         0.00000E+00
    0.11553E-08        -0.35821E-10         0.00000E+00
    0.11548E-08        -0.41979E-10         0.00000E+00
    0.11542E-08        -0.45652E-10         0.00000E+00
    0.11537E-08        -0.47080E-10         0.00000E+00
    0.11532E-08        -0.46498E-10         0.00000E+00
    0.11528E-08        -0.44141E-10         0.00000E+00
    0.11524E-08        -0.40248E-10         0.00000E+00
    0.11520E-08        -0.35072E-10         0.00000E+00
    0.11518E-08        -0.28883E-10         0.00000E+00
    0.11516E-08        -0.21977E-10         0.00000E+00
    0.11515E-08        -0.14673E-10         0.00000E+00
    0.11514E-08        -0.73174E-11         0.00000E+00
    0.11514E-08        -0.36712E-11         0.00000E+00
    0.14386E-08        -0.81993E-11         0.00000E+00
    0.14385E-08        -0.14800E-10         0.00000E+00
    0.14380E-08        -0.26488E-10         0.00000E+00
    0.14374E-08        -0.35266E-10         0.00000E+00
    0.14367E-08        -0.41374E-10         0.00000E+00
    0.14360E-08        -0.45042E-10         0.00000E+00
    0.14352E-08        -0.46494E-10         0.00000E+00
    0.14345E-08        -0.45955E-10         0.00000E+00
    0.14339E-08        -0.43652E-10         0.00000E+00
    0.14333E-08        -0.39824E-10         0.00000E+00
    0.14329E-08        -0.34720E-10         0.00000E+00
    0.14325E-08        -0.28611E-10         0.00000E+00
    0.14322E-08        -0.21787E-10         0.00000E+00
    0.14320E-08        -0.14563E-10         0.00000E+00
    0.14319E-08        -0.72720E-11         0.00000E+00
    0.14319E-08        -0.36532E-11         0.00000E+00
    0.17166E-08        -0.80090E-11         0.00000E+00
    0.17164E-08        -0.14468E-10         0.00000E+00
    0.17158E-08        -0.25919E-10         0.00000E+00
    0.17150E-08        -0.34548E-10         0.00000E+00
    0.17141E-08        -0.40580E-10         0.00000E+00
    0.17132E-08        -0.44225E-10         0.00000E+00
    0.17122E-08        -0.45694E-10         0.00000E+00
    0.17113E-08        -0.45197E-10         0.00000E+00
    0.17104E-08        -0.42959E-10         0.00000E+00
    0.17096E-08        -0.39213E-10         0.00000E+00
    0.17089E-08        -0.34207E-10         0.00000E+00
    0.17083E-08        -0.28209E-10         0.00000E+00
    0.17079E-08        -0.21502E-10         0.00000E+00
    0.17076E-08        -0.14391E-10         0.00000E+00
    0.17075E-08        -0.71979E-11         0.00000E+00
    0.17075E-08        -0.36220E-11         0.00000E+00
    0.19892E-08        -0.77741E-11         0.00000E+00
    0.19889E-08        -0.14057E-10         0.00000E+00
    0.19883E-08        -0.25209E-10         0.00000E+00
    0.19873E-08        -0.33642E-10         0.00000E+00
    0.19862E-08        -0.39561E-10         0.00000E+00
    0.19850E-08        -0.43159E-10         0.00000E+00
    0.19837E-08        -0.44629E-10         0.00000E+00
    0.19825E-08        -0.44174E-10         0.00000E+00
    0.19813E-08        -0.42010E-10         0.00000E+00
    0.19802E-08        -0.38368E-10         0.00000E+00
    0.19793E-08        -0.33492E-10         0.00000E+00
    0.19785E-08        -0.27641E-10         0.00000E+00
    0.19779E-08        -0.21093E-10         0.00000E+00
    0.19775E-08        -0.14139E-10         0.00000E+00
    0.19773E-08        -0.70853E-11         0.00000E+00
    0.19773E-08        -0.35727E-11         0.00000E+00
    0.22557E-08        -0.74897E-11         0.00000E+00
    0.22554E-08        -0.13555E-10         0.00000E+00
    0.22546E-08        -0.24337E-10         0.00000E+00
    0.22534E-08        -0.32516E-10         0.00000E+00
    0.22520E-08        -0.38277E-10         0.00000E+00
    0.22505E-08        -0.41793E-10         0.00000E+00
    0.22489E-08        -0.43246E-10         0.00000E+00
    0.22473E-08        -0.42828E-10         0.00000E+00
    0.22458E-08        -0.40751E-10         0.00000E+00
    0.22444E-08        -0.37238E-10         0.00000E+00
    0.22431E-08        -0.32527E-10         0.00000E+00
    0.22421E-08        -0.26870E-10         0.00000E+00
    0.22413E-08        -0.20530E-10         0.00000E+00
    0.22408E-08        -0.13786E-10         0.00000E+00
    0.22405E-08        -0.69238E-11         0.00000E+00
    0.22404E-08        -0.35002E-11         0.00000E+00
    0.25152E-08        -0.71500E-11         0.00000E+00
    0.25148E-08        -0.12952E-10         0.00000E+00
    0.25138E-08        -0.23279E-10         0.00000E+00
    0.25124E-08        -0.31134E-10         0.00000E+00
    0.25107E-08        -0.36679E-10         0.00000E+00
    0.25088E-08        -0.40074E-10         0.00000E+00
    0.25068E-08        -0.41486E-10         0.00000E+00
    0.25048E-08        -0.41103E-10         0.00000E+00
    0.25029E-08        -0.39126E-10         0.00000E+00
    0.25011E-08        -0.35772E-10         0.00000E+00
    0.24995E-08        -0.31269E-10         0.00000E+00
    0.24982E-08        -0.25856E-10         0.00000E+00
    0.24972E-08        -0.19784E-10         0.00000E+00
    0.24965E-08        -0.13311E-10         0.00000E+00
    0.24961E-08        -0.67030E-11         0.00000E+00
    0.24960E-08        -0.33991E-11         0.00000E+00
    0.27669E-08        -0.67483E-11         0.00000E+00
    0.27664E-08        -0.12234E-10         0.00000E+00
    0.27653E-08        -0.22007E-10         0.00000E+00
    0.27636E-08        -0.29455E-10         0.00000E+00
    0.27615E-08        -0.34719E-10         0.00000E+00
    0.27592E-08        -0.37944E-10         0.00000E+00
    0.27567E-08        -0.39291E-10         0.00000E+00
    0.27543E-08        -0.38938E-10         0.00000E+00
    0.27519E-08        -0.37078E-10         0.00000E+00
    0.27497E-08        -0.33917E-10         0.00000E+00
    0.27477E-08        -0.29671E-10         0.00000E+00
    0.27461E-08        -0.24564E-10         0.00000E+00
    0.27448E-08        -0.18827E-10         0.00000E+00
    0.27439E-08        -0.12696E-10         0.00000E+00
    0.27434E-08        -0.64130E-11         0.00000E+00
    0.27432E-08        -0.32645E-11         0.00000E+00
    0.30100E-08        -0.62779E-11         0.00000E+00
    0.30094E-08        -0.11387E-10         0.00000E+00
    0.30081E-08        -0.20493E-10         0.00000E+00
    0.30061E-08        -0.27438E-10         0.00000E+00
    0.30036E-08        -0.32344E-10         0.00000E+00
    0.30008E-08        -0.35349E-10         0.00000E+00
    0.29979E-08        -0.36603E-10         0.00000E+00
    0.29949E-08        -0.36278E-10         0.00000E+00
    0.29920E-08        -0.34555E-10         0.00000E+00
    0.29893E-08        -0.31628E-10         0.00000E+00
    0.29869E-08        -0.27695E-10         0.00000E+00
    0.29849E-08        -0.22960E-10         0.00000E+00
    0.29833E-08        -0.17632E-10         0.00000E+00
    0.29822E-08        -0.11922E-10         0.00000E+00
    0.29816E-08        -0.60453E-11         0.00000E+00
    0.29814E-08        -0.30921E-11         0.00000E+00
    0.32436E-08        -0.57309E-11         0.00000E+00
    0.32430E-08        -0.10395E-10         0.00000E+00
    0.32415E-08        -0.18707E-10         0.00000E+00
    0.32391E-08        -0.25040E-10         0.00000E+00
    0.32362E-08        -0.29506E-10         0.00000E+00
    0.32329E-08        -0.32234E-10         0.00000E+00
    0.32294E-08        -0.33369E-10         0.00000E+00
    0.32258E-08        -0.33072E-10         0.00000E+00
    0.32223E-08        -0.31511E-10         0.00000E+00
    0.32191E-08        -0.28863E-10         0.00000E+00
    0.32163E-08        -0.25305E-10         0.00000E+00
    0.32139E-08        -0.21017E-10         0.00000E+00
    0.32120E-08        -0.16181E-10         0.00000E+00
    0.32107E-08        -0.10978E-10         0.00000E+00
    0.32099E-08        -0.55930E-11         0.00000E+00
    0.32097E-08        -0.28785E-11         0.00000E+00
    0.34672E-08        -0.50990E-11         0.00000E+00
    0.34665E-08        -0.92422E-11         0.00000E+00
    0.34647E-08        -0.16618E-10         0.00000E+00
    0.34620E-08        -0.22222E-10         0.00000E+00
    0.34586E-08        -0.26159E-10         0.00000E+00
    0.34547E-08        -0.28553E-10         0.00000E+00
    0.34506E-08        -0.29544E-10         0.00000E+00
    0.34464E-08        -0.29278E-10         0.00000E+00
    0.34424E-08        -0.27910E-10         0.00000E+00
    0.34386E-08        -0.25592E-10         0.00000E+00
    0.34353E-08        -0.22478E-10         0.00000E+00
    0.34325E-08        -0.18717E-10         0.00000E+00
    0.34303E-08        -0.14459E-10         0.00000E+00
    0.34287E-08        -0.98530E-11         0.00000E+00
    0.34278E-08        -0.50517E-11         0.00000E+00
    0.34275E-08        -0.26214E-11         0.00000E+00
    0.36800E-08        -0.43730E-11         0.00000E+00
    0.36792E-08        -0.79126E-11         0.00000E+00
    0.36771E-08        -0.14200E-10         0.00000E+00
    0.36740E-08        -0.18949E-10         0.00000E+00
    0.36700E-08        -0.22266E-10         0.00000E+00
    0.36656E-08        -0.24270E-10         0.00000E+00
    0.36608E-08        -0.25094E-10         0.00000E+00
    0.36560E-08        -0.24869E-10         0.00000E+00
    0.36514E-08        -0.23728E-10         0.00000E+00
    0.36470E-08        -0.21798E-10         0.00000E+00
    0.36432E-08        -0.19200E-10         0.00000E+00
    0.36400E-08        -0.16050E-10         0.00000E+00
    0.36375E-08        -0.12461E-10         0.00000E+00
    0.36357E-08        -0.85453E-11         0.00000E+00
    0.36347E-08        -0.44200E-11         0.00000E+00
    0.36344E-08        -0.23199E-11         0.00000E+00
    0.38812E-08        -0.35442E-11         0.00000E+00
    0.38804E-08        -0.63913E-11         0.00000E+00
    0.38780E-08        -0.11427E-10         0.00000E+00
    0.38744E-08        -0.15194E-10         0.00000E+00
    0.38699E-08        -0.17801E-10         0.00000E+00
    0.38649E-08        -0.19364E-10         0.00000E+00
    0.38595E-08        -0.20003E-10         0.00000E+00
    0.38540E-08        -0.19834E-10         0.00000E+00
    0.38488E-08        -0.18961E-10         0.00000E+00
    0.38439E-08        -0.17481E-10         0.00000E+00
    0.38396E-08        -0.15476E-10         0.00000E+00
    0.38360E-08        -0.13023E-10         0.00000E+00
    0.38332E-08        -0.10193E-10         0.00000E+00
    0.38312E-08        -0.70592E-11         0.00000E+00
    0.38301E-08        -0.37001E-11         0.00000E+00
    0.38297E-08        -0.19747E-11         0.00000E+00
    0.40703E-08        -0.26056E-11         0.00000E+00
    0.40693E-08        -0.46675E-11         0.00000E+00
    0.40667E-08        -0.82854E-11         0.00000E+00
    0.40627E-08        -0.10945E-10         0.00000E+00
    0.40577E-08        -0.12756E-10         0.00000E+00
    0.40520E-08        -0.13831E-10         0.00000E+00
    0.40460E-08        -0.14277E-10         0.00000E+00
    0.40399E-08        -0.14184E-10         0.00000E+00
    0.40341E-08        -0.13626E-10         0.00000E+00
    0.40287E-08        -0.12660E-10         0.00000E+00
    0.40240E-08        -0.11327E-10         0.00000E+00
    0.40200E-08        -0.96562E-11         0.00000E+00
    0.40170E-08        -0.76738E-11         0.00000E+00
    0.40148E-08        -0.54082E-11         0.00000E+00
    0.40135E-08        -0.28989E-11         0.00000E+00
    0.40131E-08        -0.15890E-11         0.00000E+00
    0.42467E-08        -0.15535E-11         0.00000E+00
    0.42456E-08        -0.27364E-11         0.00000E+00
    0.42426E-08        -0.47725E-11         0.00000E+00
    0.42382E-08        -0.62051E-11         0.00000E+00
    0.42327E-08        -0.71455E-11         0.00000E+00
    0.42264E-08        -0.76978E-11         0.00000E+00
    0.42198E-08        -0.79483E-11         0.00000E+00
    0.42132E-08        -0.79597E-11         0.00000E+00
    0.42069E-08        -0.77681E-11         0.00000E+00
    0.42011E-08        -0.73846E-11         0.00000E+00
    0.41960E-08        -0.68001E-11         0.00000E+00
    0.41917E-08        -0.59929E-11         0.00000E+00
    0.41884E-08        -0.49380E-11         0.00000E+00
    0.41861E-08        -0.36170E-11         0.00000E+00
    0.41847E-08        -0.20285E-11         0.00000E+00
    0.41842E-08        -0.11685E-11         0.00000E+00
    0.44096E-08        -0.38856E-12         0.00000E+00
    0.44084E-08        -0.60200E-12         0.00000E+00
    0.44052E-08        -0.90219E-12         0.00000E+00
    0.44003E-08        -0.10046E-11         0.00000E+00
    0.43944E-08        -0.10150E-11         0.00000E+00
    0.43877E-08        -0.10224E-11         0.00000E+00
    0.43806E-08        -0.10881E-11         0.00000E+00
    0.43735E-08        -0.12394E-11         0.00000E+00
    0.43668E-08        -0.14680E-11         0.00000E+00
    0.43606E-08        -0.17332E-11         0.00000E+00
    0.43553E-08        -0.19696E-11         0.00000E+00
    0.43508E-08        -0.20978E-11         0.00000E+00
    0.43473E-08        -0.20379E-11         0.00000E+00
    0.43449E-08        -0.17220E-11         0.00000E+00
    0.43434E-08        -0.11070E-11         0.00000E+00
    0.43430E-08        -0.72132E-12         0.00000E+00
    0.45586E-08         0.88323E-12         0.00000E+00
    0.45573E-08         0.17208E-11         0.00000E+00
    0.45538E-08         0.32898E-11         0.00000E+00
    0.45487E-08         0.45971E-11         0.00000E+00
    0.45423E-08         0.55527E-11         0.00000E+00
    0.45353E-08         0.60923E-11         0.00000E+00
    0.45279E-08         0.61877E-11         0.00000E+00
    0.45205E-08         0.58538E-11         0.00000E+00
    0.45135E-08         0.51502E-11         0.00000E+00
    0.45071E-08         0.41757E-11         0.00000E+00
    0.45016E-08         0.30579E-11         0.00000E+00
    0.44971E-08         0.19381E-11         0.00000E+00
    0.44935E-08         0.95508E-12         0.00000E+00
    0.44911E-08         0.22792E-12         0.00000E+00
    0.44896E-08        -0.15861E-12         0.00000E+00
    0.44891E-08        -0.25872E-12         0.00000E+00
    0.46931E-08         0.22487E-11         0.00000E+00
    0.46917E-08         0.42033E-11         0.00000E+00
    0.46880E-08         0.77412E-11         0.00000E+00
    0.46826E-08         0.10501E-10         0.00000E+00
    0.46761E-08         0.12426E-10         0.00000E+00
    0.46688E-08         0.13488E-10         0.00000E+00
    0.46613E-08         0.13704E-10         0.00000E+00
    0.46538E-08         0.13139E-10         0.00000E+00
    0.46468E-08         0.11910E-10         0.00000E+00
    0.46405E-08         0.10179E-10         0.00000E+00
    0.46350E-08         0.81389E-11         0.00000E+00
    0.46305E-08         0.59964E-11         0.00000E+00
    0.46270E-08         0.39500E-11         0.00000E+00
    0.46246E-08         0.21713E-11         0.00000E+00
    0.46232E-08         0.78663E-12         0.00000E+00
    0.46227E-08         0.20522E-12         0.00000E+00
    0.48124E-08         0.36865E-11         0.00000E+00
    0.48110E-08         0.68004E-11         0.00000E+00
    0.48072E-08         0.12357E-10         0.00000E+00
    0.48017E-08         0.16562E-10         0.00000E+00
    0.47952E-08         0.19413E-10         0.00000E+00
    0.47880E-08         0.20938E-10         0.00000E+00
    0.47806E-08         0.21213E-10         0.00000E+00
    0.47734E-08         0.20364E-10         0.00000E+00
    0.47666E-08         0.18571E-10         0.00000E+00
    0.47605E-08         0.16060E-10         0.00000E+00
    0.47553E-08         0.13090E-10         0.00000E+00
    0.47510E-08         0.99293E-11         0.00000E+00
    0.47478E-08         0.68366E-11         0.00000E+00
    0.47455E-08         0.40353E-11         0.00000E+00
    0.47442E-08         0.16935E-11         0.00000E+00
    0.47437E-08         0.65439E-12         0.00000E+00
    0.49160E-08         0.51661E-11         0.00000E+00
    0.49146E-08         0.94478E-11         0.00000E+00
    0.49108E-08         0.17003E-10         0.00000E+00
    0.49055E-08         0.22576E-10         0.00000E+00
    0.48992E-08         0.26248E-10         0.00000E+00
    0.48924E-08         0.28132E-10         0.00000E+00
    0.48856E-08         0.28380E-10         0.00000E+00
    0.48790E-08         0.27195E-10         0.00000E+00
    0.48728E-08         0.24821E-10         0.00000E+00
    0.48673E-08         0.21546E-10         0.00000E+00
    0.48627E-08         0.17684E-10         0.00000E+00
    0.48588E-08         0.13560E-10         0.00000E+00
    0.48559E-08         0.94864E-11         0.00000E+00
    0.48539E-08         0.57369E-11         0.00000E+00
    0.48528E-08         0.25225E-11         0.00000E+00
    0.48524E-08         0.10707E-11         0.00000E+00
    0.50033E-08         0.66456E-11         0.00000E+00
    0.50019E-08         0.12057E-10         0.00000E+00
    0.49983E-08         0.21496E-10         0.00000E+00
    0.49934E-08         0.28266E-10         0.00000E+00
    0.49878E-08         0.32576E-10         0.00000E+00
    0.49819E-08         0.34656E-10         0.00000E+00
    0.49760E-08         0.34767E-10         0.00000E+00
    0.49705E-08         0.33199E-10         0.00000E+00
    0.49655E-08         0.30265E-10         0.00000E+00
    0.49610E-08         0.26298E-10         0.00000E+00
    0.49572E-08         0.21650E-10         0.00000E+00
    0.49541E-08         0.16684E-10         0.00000E+00
    0.49518E-08         0.11754E-10         0.00000E+00
    0.49502E-08         0.71846E-11         0.00000E+00
    0.49492E-08         0.32312E-11         0.00000E+00
    0.49489E-08         0.14355E-11         0.00000E+00
    0.50737E-08         0.80676E-11         0.00000E+00
    0.50723E-08         0.14506E-10         0.00000E+00
    0.50692E-08         0.25584E-10         0.00000E+00
    0.50650E-08         0.33259E-10         0.00000E+00
    0.50605E-08         0.37924E-10         0.00000E+00
    0.50561E-08         0.39978E-10         0.00000E+00
    0.50519E-08         0.39821E-10         0.00000E+00
    0.50481E-08         0.37845E-10         0.00000E+00
    0.50447E-08         0.34422E-10         0.00000E+00
    0.50417E-08         0.29910E-10         0.00000E+00
    0.50392E-08         0.24668E-10         0.00000E+00
    0.50371E-08         0.19064E-10         0.00000E+00
    0.50355E-08         0.13480E-10         0.00000E+00
    0.50344E-08         0.82802E-11         0.00000E+00
    0.50338E-08         0.37747E-11         0.00000E+00
    0.50336E-08         0.17293E-11         0.00000E+00
    0.51263E-08         0.93527E-11         0.00000E+00
    0.51251E-08         0.16627E-10         0.00000E+00
    0.51227E-08         0.28921E-10         0.00000E+00
    0.51199E-08         0.37048E-10         0.00000E+00
    0.51172E-08         0.41673E-10         0.00000E+00
    0.51150E-08         0.43425E-10         0.00000E+00
    0.51132E-08         0.42872E-10         0.00000E+00
    0.51118E-08         0.40504E-10         0.00000E+00
    0.51107E-08         0.36733E-10         0.00000E+00
    0.51098E-08         0.31912E-10         0.00000E+00
    0.51089E-08         0.26367E-10         0.00000E+00
    0.51082E-08         0.20435E-10         0.00000E+00
    0.51076E-08         0.14486E-10         0.00000E+00
    0.51072E-08         0.89202E-11         0.00000E+00
    0.51069E-08         0.41093E-11         0.00000E+00
    0.51068E-08         0.19354E-11         0.00000E+00
    0.51603E-08         0.10383E-10         0.00000E+00
    0.51595E-08         0.18166E-10         0.00000E+00
    0.51583E-08         0.30997E-10         0.00000E+00
    0.51576E-08         0.38923E-10         0.00000E+00
    0.51577E-08         0.43010E-10         0.00000E+00
    0.51586E-08         0.44173E-10         0.00000E+00
    0.51601E-08         0.43143E-10         0.00000E+00
    0.51618E-08         0.40476E-10         0.00000E+00
    0.51637E-08         0.36585E-10         0.00000E+00
    0.51654E-08         0.31781E-10         0.00000E+00
    0.51667E-08         0.26328E-10         0.00000E+00
    0.51677E-08         0.20486E-10         0.00000E+00
    0.51684E-08         0.14575E-10         0.00000E+00
    0.51688E-08         0.89949E-11         0.00000E+00
    0.51690E-08         0.41900E-11         0.00000E+00
    0.51690E-08         0.20366E-11         0.00000E+00
    0.51745E-08         0.10969E-10         0.00000E+00
    0.51744E-08         0.18717E-10         0.00000E+00
    0.51754E-08         0.31023E-10         0.00000E+00
    0.51780E-08         0.37869E-10         0.00000E+00
    0.51821E-08         0.40879E-10         0.00000E+00
    0.51873E-08         0.41248E-10         0.00000E+00
    0.51929E-08         0.39788E-10         0.00000E+00
    0.51986E-08         0.37036E-10         0.00000E+00
    0.52040E-08         0.33350E-10         0.00000E+00
    0.52089E-08         0.28973E-10         0.00000E+00
    0.52130E-08         0.24087E-10         0.00000E+00
    0.52161E-08         0.18857E-10         0.00000E+00
    0.52184E-08         0.13506E-10         0.00000E+00
    0.52199E-08         0.83796E-11         0.00000E+00
    0.52206E-08         0.39759E-11         0.00000E+00
    0.52207E-08         0.20260E-11         0.00000E+00
    0.51674E-08         0.10736E-10         0.00000E+00
    0.51685E-08         0.17523E-10         0.00000E+00
    0.51734E-08         0.27672E-10         0.00000E+00
    0.51813E-08         0.32407E-10         0.00000E+00
    0.51910E-08         0.33962E-10         0.00000E+00
    0.52016E-08         0.33577E-10         0.00000E+00
    0.52124E-08         0.31952E-10         0.00000E+00
    0.52227E-08         0.29493E-10         0.00000E+00
    0.52323E-08         0.26450E-10         0.00000E+00
    0.52408E-08         0.22979E-10         0.00000E+00
    0.52480E-08         0.19182E-10         0.00000E+00
    0.52537E-08         0.15139E-10         0.00000E+00
    0.52580E-08         0.10958E-10         0.00000E+00
    0.52608E-08         0.68970E-11         0.00000E+00
    0.52623E-08         0.34230E-11         0.00000E+00
    0.52625E-08         0.19014E-11         0.00000E+00
    0.51350E-08         0.88286E-11         0.00000E+00
    0.51405E-08         0.12927E-10         0.00000E+00
    0.51529E-08         0.18565E-10         0.00000E+00
    0.51686E-08         0.20526E-10         0.00000E+00
    0.51856E-08         0.20783E-10         0.00000E+00
    0.52028E-08         0.20109E-10         0.00000E+00
    0.52194E-08         0.18873E-10         0.00000E+00
    0.52349E-08         0.17274E-10         0.00000E+00
    0.52490E-08         0.15425E-10         0.00000E+00
    0.52615E-08         0.13395E-10         0.00000E+00
    0.52721E-08         0.11224E-10         0.00000E+00
    0.52808E-08         0.89360E-11         0.00000E+00
    0.52874E-08         0.65603E-11         0.00000E+00
    0.52918E-08         0.41876E-11         0.00000E+00
    0.52944E-08         0.24355E-11         0.00000E+00
    0.52954E-08         0.18506E-11         0.00000E+00
    0.51119E-08         0.00000E+00         0.00000E+00
    0.51209E-08         0.00000E+00         0.00000E+00
    0.51381E-08        -0.12427E-22         0.00000E+00
    0.51584E-08         0.37027E-27         0.00000E+00
    0.51795E-08         0.16570E-22         0.00000E+00
    0.52002E-08         0.00000E+00         0.00000E+00
    0.52199E-08         0.00000E+00         0.00000E+00
    0.52381E-08        -0.12428E-22         0.00000E+00
    0.52546E-08        -0.12428E-22         0.00000E+00
    0.52691E-08         0.12429E-22         0.00000E+00
    0.52815E-08         0.16571E-22         0.00000E+00
    0.52917E-08        -0.16572E-22         0.00000E+00
    0.52995E-08        -0.41428E-23         0.00000E+00
    0.53049E-08         0.16572E-22         0.00000E+00
    0.53080E-08         0.82860E-23         0.00000E+00
    0.53099E-08         0.00000E+00         0.00000E+00
CELL_DATA        450
TENSORS stressef double 
   -0.95726E+07         0.24975E+04         0.00000E+00
    0.24975E+04        -0.35537E+08         0.00000E+00
    0.00000E+00         0.00000E+00        -0.11745E+08
 
   -0.95004E+07         0.77080E+04         0.00000E+00
    0.77080E+04        -0.35529E+08         0.00000E+00
    0.00000E+00         0.00000E+00        -0.11823E+08
 
   -0.94444E+07         0.12829E+05         0.00000E+00
    0.12829E+05        -0.35513E+08         0.00000E+00
    0.00000E+00         0.00000E+00        -0.11869E+08
 
   -0.94106E+07         0.17472E+05         0.00000E+00
    0.17472E+05        -0.35488E+08         0.00000E+00
    0.00000E+00         0.00000E+00        -0.11874E+08
 
   -0.94054E+07         0.21204E+05         0.00000E+00
    0.21204E+05        -0.35456E+08         0.00000E+00
    0.00000E+00         0.00000E+00        -0.11833E+08
 
   -0.94306E+07         0.23810E+05         0.00000E+00
    0.23810E+05        -0.35418E+08         0.00000E+00
    0.00000E+00         0.00000E+00        -0.11746E+08
 
   -0.94847E+07         0.25626E+05         0.00000E+00
    0.25626E+05        -0.35376E+08         0.00000E+00
    0.00000E+00         0.00000E+00        -0.11617E+08
 
   -0.95620E+07         0.26915E+05         0.00000E+00
    0.26915E+05        -0.35330E+08         0.00000E+00
    0.00000E+00         0.00000E+00        -0.11459E+08
 
   -0.96548E+07         0.28057E+05         0.00000E+00
    0.28057E+05        -0.35282E+08         0.00000E+00
    0.00000E+00         0.00000E+00        -0.11280E+08
 
   -0.97545E+07         0.29362E+05         0.00000E+00
    0.29362E+05        -0.35231E+08         0.00000E+00
    0.00000E+00         0.00000E+00        -0.11094E+08
 
   -0.98534E+07         0.31003E+05         0.00000E+00
    0.31003E+05        -0.35176E+08         0.00000E+00
    0.00000E+00         0.00000E+00        -0.10907E+08
 
   -0.99457E+07         0.33011E+05         0.00000E+00
    0.33011E+05        -0.35117E+08         0.00000E+00
    0.00000E+00         0.00000E+00        -0.10724E+08
 
   -0.10027E+08         0.35334E+05         0.00000E+00
    0.35334E+05        -0.35052E+08         0.00000E+00
    0.00000E+00         0.00000E+00        -0.10550E+08
 
   -0.10093E+08         0.37873E+05         0.00000E+00
    0.37873E+05        -0.34981E+08         0.00000E+00
    0.00000E+00         0.00000E+00        -0.10386E+08
 
   -0.10141E+08         0.40482E+05         0.00000E+00
    0.40482E+05        -0.34904E+08         0.00000E+00
    0.00000E+00         0.00000E+00        -0.10234E+08
 
   -0.96031E+07         0.74788E+04         0.00000E+00
    0.74788E+04        -0.35578E+08         0.00000E+00
    0.00000E+00         0.00000E+00        -0.11767E+08
 
   -0.95309E+07         0.23082E+05         0.00000E+00
    0.23082E+05        -0.35570E+08         0.00000E+00
    0.00000E+00         0.00000E+00        -0.11845E+08
 
   -0.94753E+07         0.38331E+05         0.00000E+00
    0.38331E+05        -0.35554E+08         0.00000E+00
    0.00000E+00         0.00000E+00        -0.11891E+08
 
   -0.94429E+07         0.52052E+05         0.00000E+00
    0.52052E+05        -0.35529E+08         0.00000E+00
    0.00000E+00         0.00000E+00        -0.11896E+08
 
   -0.94399E+07         0.62974E+05         0.00000E+00
    0.62974E+05        -0.35498E+08         0.00000E+00
    0.00000E+00         0.00000E+00        -0.11853E+08
 
   -0.94670E+07         0.70602E+05         0.00000E+00
    0.70602E+05        -0.35462E+08         0.00000E+00
    0.00000E+00         0.00000E+00        -0.11766E+08
 
   -0.95225E+07         0.75977E+05         0.00000E+00
    0.75977E+05        -0.35421E+08         0.00000E+00
    0.00000E+00         0.00000E+00        -0.11639E+08
 
   -0.96004E+07         0.79876E+05         0.00000E+00
    0.79876E+05        -0.35378E+08         0.00000E+00
    0.00000E+00         0.00000E+00        -0.11482E+08
 
   -0.96932E+07         0.83423E+05         0.00000E+00
    0.83423E+05        -0.35331E+08         0.00000E+00
    0.00000E+00         0.00000E+00        -0.11306E+08
 
   -0.97923E+07         0.87499E+05         0.00000E+00
    0.87499E+05        -0.35282E+08         0.00000E+00
    0.00000E+00         0.00000E+00        -0.11122E+08
 
   -0.98905E+07         0.92568E+05         0.00000E+00
    0.92568E+05        -0.35228E+08         0.00000E+00
    0.00000E+00         0.00000E+00        -0.10938E+08
 
   -0.99821E+07         0.98731E+05         0.00000E+00
    0.98731E+05        -0.35169E+08         0.00000E+00
    0.00000E+00         0.00000E+00        -0.10757E+08
 
   -0.10063E+08         0.10580E+06         0.00000E+00
    0.10580E+06        -0.35104E+08         0.00000E+00
    0.00000E+00         0.00000E+00        -0.10584E+08
 
   -0.10129E+08         0.11349E+06         0.00000E+00
    0.11349E+06        -0.35034E+08         0.00000E+00
    0.00000E+00         0.00000E+00        -0.10421E+08
 
   -0.10177E+08         0.12138E+06         0.00000E+00
    0.12138E+06        -0.34957E+08         0.00000E+00
    0.00000E+00         0.00000E+00        -0.10270E+08
 
   -0.96642E+07         0.12427E+05         0.00000E+00
    0.12427E+05        -0.35659E+08         0.00000E+00
    0.00000E+00         0.00000E+00        -0.11812E+08
 
   -0.95917E+07         0.38270E+05         0.00000E+00
    0.38270E+05        -0.35652E+08         0.00000E+00
    0.00000E+00         0.00000E+00        -0.11890E+08
 
   -0.95374E+07         0.63351E+05         0.00000E+00
    0.63351E+05        -0.35636E+08         0.00000E+00
    0.00000E+00         0.00000E+00        -0.11935E+08
 
   -0.95080E+07         0.85474E+05         0.00000E+00
    0.85474E+05        -0.35613E+08         0.00000E+00
    0.00000E+00         0.00000E+00        -0.11938E+08
 
   -0.95094E+07         0.10277E+06         0.00000E+00
    0.10277E+06        -0.35584E+08         0.00000E+00
    0.00000E+00         0.00000E+00        -0.11893E+08
 
   -0.95400E+07         0.11497E+06         0.00000E+00
    0.11497E+06        -0.35550E+08         0.00000E+00
    0.00000E+00         0.00000E+00        -0.11806E+08
 
   -0.95980E+07         0.12368E+06         0.00000E+00
    0.12368E+06        -0.35513E+08         0.00000E+00
    0.00000E+00         0.00000E+00        -0.11682E+08
 
   -0.96770E+07         0.13030E+06         0.00000E+00
    0.13030E+06        -0.35473E+08         0.00000E+00
    0.00000E+00         0.00000E+00        -0.11529E+08
 
   -0.97696E+07         0.13663E+06         0.00000E+00
    0.13663E+06        -0.35430E+08         0.00000E+00
    0.00000E+00         0.00000E+00        -0.11358E+08
 
   -0.98675E+07         0.14393E+06         0.00000E+00
    0.14393E+06        -0.35382E+08         0.00000E+00
    0.00000E+00         0.00000E+00        -0.11179E+08
 
   -0.99643E+07         0.15286E+06         0.00000E+00
    0.15286E+06        -0.35330E+08         0.00000E+00
    0.00000E+00         0.00000E+00        -0.10999E+08
 
   -0.10055E+08         0.16353E+06         0.00000E+00
    0.16353E+06        -0.35273E+08         0.00000E+00
    0.00000E+00         0.00000E+00        -0.10823E+08
 
   -0.10134E+08         0.17567E+06         0.00000E+00
    0.17567E+06        -0.35209E+08         0.00000E+00
    0.00000E+00         0.00000E+00        -0.10652E+08
 
   -0.10199E+08         0.18872E+06         0.00000E+00
    0.18872E+06        -0.35139E+08         0.00000E+00
    0.00000E+00         0.00000E+00        -0.10491E+08
 
   -0.10248E+08         0.20207E+06         0.00000E+00
    0.20207E+06        -0.35063E+08         0.00000E+00
    0.00000E+00         0.00000E+00        -0.10340E+08
 
   -0.97558E+07         0.17347E+05         0.00000E+00
    0.17347E+05        -0.35781E+08         0.00000E+00
    0.00000E+00         0.00000E+00        -0.11878E+08
 
   -0.96830E+07         0.53098E+05         0.00000E+00
    0.53098E+05        -0.35774E+08         0.00000E+00
    0.00000E+00         0.00000E+00        -0.11957E+08
 
   -0.96309E+07         0.87343E+05         0.00000E+00
    0.87343E+05        -0.35759E+08         0.00000E+00
    0.00000E+00         0.00000E+00        -0.12000E+08
 
   -0.96069E+07         0.11678E+06         0.00000E+00
    0.11678E+06        -0.35738E+08         0.00000E+00
    0.00000E+00         0.00000E+00        -0.12000E+08
 
   -0.96140E+07         0.13921E+06         0.00000E+00
    0.13921E+06        -0.35712E+08         0.00000E+00
    0.00000E+00         0.00000E+00        -0.11954E+08
 
   -0.96498E+07         0.15535E+06         0.00000E+00
    0.15535E+06        -0.35683E+08         0.00000E+00
    0.00000E+00         0.00000E+00        -0.11867E+08
 
   -0.97110E+07         0.16714E+06         0.00000E+00
    0.16714E+06        -0.35651E+08         0.00000E+00
    0.00000E+00         0.00000E+00        -0.11746E+08
 
   -0.97912E+07         0.17678E+06         0.00000E+00
    0.17678E+06        -0.35616E+08         0.00000E+00
    0.00000E+00         0.00000E+00        -0.11600E+08
 
   -0.98831E+07         0.18647E+06         0.00000E+00
    0.18647E+06        -0.35576E+08         0.00000E+00
    0.00000E+00         0.00000E+00        -0.11436E+08
 
   -0.99794E+07         0.19770E+06         0.00000E+00
    0.19770E+06        -0.35532E+08         0.00000E+00
    0.00000E+00         0.00000E+00        -0.11265E+08
 
   -0.10074E+08         0.21112E+06         0.00000E+00
    0.21112E+06        -0.35483E+08         0.00000E+00
    0.00000E+00         0.00000E+00        -0.11091E+08
 
   -0.10162E+08         0.22685E+06         0.00000E+00
    0.22685E+06        -0.35427E+08         0.00000E+00
    0.00000E+00         0.00000E+00        -0.10920E+08
 
   -0.10240E+08         0.24447E+06         0.00000E+00
    0.24447E+06        -0.35365E+08         0.00000E+00
    0.00000E+00         0.00000E+00        -0.10754E+08
 
   -0.10305E+08         0.26328E+06         0.00000E+00
    0.26328E+06        -0.35297E+08         0.00000E+00
    0.00000E+00         0.00000E+00        -0.10595E+08
 
   -0.10354E+08         0.28236E+06         0.00000E+00
    0.28236E+06        -0.35221E+08         0.00000E+00
    0.00000E+00         0.00000E+00        -0.10446E+08
 
   -0.98775E+07         0.22157E+05         0.00000E+00
    0.22157E+05        -0.35943E+08         0.00000E+00
    0.00000E+00         0.00000E+00        -0.11966E+08
 
   -0.98049E+07         0.67349E+05         0.00000E+00
    0.67349E+05        -0.35936E+08         0.00000E+00
    0.00000E+00         0.00000E+00        -0.12045E+08
 
   -0.97567E+07         0.10956E+06         0.00000E+00
    0.10956E+06        -0.35923E+08         0.00000E+00
    0.00000E+00         0.00000E+00        -0.12086E+08
 
   -0.97404E+07         0.14468E+06         0.00000E+00
    0.14468E+06        -0.35905E+08         0.00000E+00
    0.00000E+00         0.00000E+00        -0.12081E+08
 
   -0.97547E+07         0.17097E+06         0.00000E+00
    0.17097E+06        -0.35884E+08         0.00000E+00
    0.00000E+00         0.00000E+00        -0.12033E+08
 
   -0.97966E+07         0.19032E+06         0.00000E+00
    0.19032E+06        -0.35861E+08         0.00000E+00
    0.00000E+00         0.00000E+00        -0.11948E+08
 
   -0.98609E+07         0.20504E+06         0.00000E+00
    0.20504E+06        -0.35835E+08         0.00000E+00
    0.00000E+00         0.00000E+00        -0.11833E+08
 
   -0.99419E+07         0.21822E+06         0.00000E+00
    0.21822E+06        -0.35805E+08         0.00000E+00
    0.00000E+00         0.00000E+00        -0.11695E+08
 
   -0.10033E+08         0.23202E+06         0.00000E+00
    0.23202E+06        -0.35771E+08         0.00000E+00
    0.00000E+00         0.00000E+00        -0.11541E+08
 
   -0.10127E+08         0.24799E+06         0.00000E+00
    0.24799E+06        -0.35731E+08         0.00000E+00
    0.00000E+00         0.00000E+00        -0.11379E+08
 
   -0.10219E+08         0.26670E+06         0.00000E+00
    0.26670E+06        -0.35685E+08         0.00000E+00
    0.00000E+00         0.00000E+00        -0.11214E+08
 
   -0.10305E+08         0.28815E+06         0.00000E+00
    0.28815E+06        -0.35632E+08         0.00000E+00
    0.00000E+00         0.00000E+00        -0.11049E+08
 
   -0.10381E+08         0.31178E+06         0.00000E+00
    0.31178E+06        -0.35572E+08         0.00000E+00
    0.00000E+00         0.00000E+00        -0.10888E+08
 
   -0.10445E+08         0.33678E+06         0.00000E+00
    0.33678E+06        -0.35504E+08         0.00000E+00
    0.00000E+00         0.00000E+00        -0.10733E+08
 
   -0.10493E+08         0.36208E+06         0.00000E+00
    0.36208E+06        -0.35429E+08         0.00000E+00
    0.00000E+00         0.00000E+00        -0.10586E+08
 
   -0.10029E+08         0.26804E+05         0.00000E+00
    0.26804E+05        -0.36145E+08         0.00000E+00
    0.00000E+00         0.00000E+00        -0.12075E+08
 
   -0.99578E+07         0.80472E+05         0.00000E+00
    0.80472E+05        -0.36139E+08         0.00000E+00
    0.00000E+00         0.00000E+00        -0.12154E+08
 
   -0.99166E+07         0.12903E+06         0.00000E+00
    0.12903E+06        -0.36128E+08         0.00000E+00
    0.00000E+00         0.00000E+00        -0.12190E+08
 
   -0.99089E+07         0.16777E+06         0.00000E+00
    0.16777E+06        -0.36115E+08         0.00000E+00
    0.00000E+00         0.00000E+00        -0.12181E+08
 
   -0.99322E+07         0.19678E+06         0.00000E+00
    0.19678E+06        -0.36100E+08         0.00000E+00
    0.00000E+00         0.00000E+00        -0.12132E+08
 
   -0.99803E+07         0.21858E+06         0.00000E+00
    0.21858E+06        -0.36083E+08         0.00000E+00
    0.00000E+00         0.00000E+00        -0.12050E+08
 
   -0.10047E+08         0.23655E+06         0.00000E+00
    0.23655E+06        -0.36064E+08         0.00000E+00
    0.00000E+00         0.00000E+00        -0.11942E+08
 
   -0.10128E+08         0.25386E+06         0.00000E+00
    0.25386E+06        -0.36040E+08         0.00000E+00
    0.00000E+00         0.00000E+00        -0.11814E+08
 
   -0.10217E+08         0.27260E+06         0.00000E+00
    0.27260E+06        -0.36011E+08         0.00000E+00
    0.00000E+00         0.00000E+00        -0.11672E+08
 
   -0.10308E+08         0.29417E+06         0.00000E+00
    0.29417E+06        -0.35976E+08         0.00000E+00
    0.00000E+00         0.00000E+00        -0.11520E+08
 
   -0.10397E+08         0.31898E+06         0.00000E+00
    0.31898E+06        -0.35934E+08         0.00000E+00
    0.00000E+00         0.00000E+00        -0.11365E+08
 
   -0.10480E+08         0.34686E+06         0.00000E+00
    0.34686E+06        -0.35884E+08         0.00000E+00
    0.00000E+00         0.00000E+00        -0.11209E+08
 
   -0.10554E+08         0.37718E+06         0.00000E+00
    0.37718E+06        -0.35827E+08         0.00000E+00
    0.00000E+00         0.00000E+00        -0.11054E+08
 
   -0.10617E+08         0.40890E+06         0.00000E+00
    0.40890E+06        -0.35761E+08         0.00000E+00
    0.00000E+00         0.00000E+00        -0.10903E+08
 
   -0.10666E+08         0.44101E+06         0.00000E+00
    0.44101E+06        -0.35687E+08         0.00000E+00
    0.00000E+00         0.00000E+00        -0.10758E+08
 
   -0.10211E+08         0.31056E+05         0.00000E+00
    0.31056E+05        -0.36386E+08         0.00000E+00
    0.00000E+00         0.00000E+00        -0.12205E+08
 
   -0.10143E+08         0.91868E+05         0.00000E+00
    0.91868E+05        -0.36381E+08         0.00000E+00
    0.00000E+00         0.00000E+00        -0.12282E+08
 
   -0.10111E+08         0.14429E+06         0.00000E+00
    0.14429E+06        -0.36374E+08         0.00000E+00
    0.00000E+00         0.00000E+00        -0.12312E+08
 
   -0.10114E+08         0.18482E+06         0.00000E+00
    0.18482E+06        -0.36366E+08         0.00000E+00
    0.00000E+00         0.00000E+00        -0.12298E+08
 
   -0.10147E+08         0.21526E+06         0.00000E+00
    0.21526E+06        -0.36359E+08         0.00000E+00
    0.00000E+00         0.00000E+00        -0.12248E+08
 
   -0.10200E+08         0.23950E+06         0.00000E+00
    0.23950E+06        -0.36350E+08         0.00000E+00
    0.00000E+00         0.00000E+00        -0.12172E+08
 
   -0.10268E+08         0.26121E+06         0.00000E+00
    0.26121E+06        -0.36337E+08         0.00000E+00
    0.00000E+00         0.00000E+00        -0.12074E+08
 
   -0.10348E+08         0.28328E+06         0.00000E+00
    0.28328E+06        -0.36320E+08         0.00000E+00
    0.00000E+00         0.00000E+00        -0.11958E+08
 
   -0.10434E+08         0.30773E+06         0.00000E+00
    0.30773E+06        -0.36297E+08         0.00000E+00
    0.00000E+00         0.00000E+00        -0.11828E+08
 
   -0.10522E+08         0.33570E+06         0.00000E+00
    0.33570E+06        -0.36267E+08         0.00000E+00
    0.00000E+00         0.00000E+00        -0.11689E+08
 
   -0.10607E+08         0.36742E+06         0.00000E+00
    0.36742E+06        -0.36229E+08         0.00000E+00
    0.00000E+00         0.00000E+00        -0.11545E+08
 
   -0.10687E+08         0.40252E+06         0.00000E+00
    0.40252E+06        -0.36183E+08         0.00000E+00
    0.00000E+00         0.00000E+00        -0.11398E+08
 
   -0.10759E+08         0.44018E+06         0.00000E+00
    0.44018E+06        -0.36129E+08         0.00000E+00
    0.00000E+00         0.00000E+00        -0.11251E+08
 
   -0.10821E+08         0.47944E+06         0.00000E+00
    0.47944E+06        -0.36065E+08         0.00000E+00
    0.00000E+00         0.00000E+00        -0.11105E+08
 
   -0.10871E+08         0.51870E+06         0.00000E+00
    0.51870E+06        -0.35993E+08         0.00000E+00
    0.00000E+00         0.00000E+00        -0.10963E+08
 
   -0.10424E+08         0.34649E+05         0.00000E+00
    0.34649E+05        -0.36666E+08         0.00000E+00
    0.00000E+00         0.00000E+00        -0.12355E+08
 
   -0.10362E+08         0.10044E+06         0.00000E+00
    0.10044E+06        -0.36663E+08         0.00000E+00
    0.00000E+00         0.00000E+00        -0.12426E+08
 
   -0.10342E+08         0.15400E+06         0.00000E+00
    0.15400E+06        -0.36661E+08         0.00000E+00
    0.00000E+00         0.00000E+00        -0.12448E+08
 
   -0.10358E+08         0.19438E+06         0.00000E+00
    0.19438E+06        -0.36660E+08         0.00000E+00
    0.00000E+00         0.00000E+00        -0.12429E+08
 
   -0.10398E+08         0.22582E+06         0.00000E+00
    0.22582E+06        -0.36660E+08         0.00000E+00
    0.00000E+00         0.00000E+00        -0.12383E+08
 
   -0.10454E+08         0.25284E+06         0.00000E+00
    0.25284E+06        -0.36658E+08         0.00000E+00
    0.00000E+00         0.00000E+00        -0.12314E+08
 
   -0.10523E+08         0.27871E+06         0.00000E+00
    0.27871E+06        -0.36653E+08         0.00000E+00
    0.00000E+00         0.00000E+00        -0.12227E+08
 
   -0.10601E+08         0.30616E+06         0.00000E+00
    0.30616E+06        -0.36643E+08         0.00000E+00
    0.00000E+00         0.00000E+00        -0.12124E+08
 
   -0.10683E+08         0.33701E+06         0.00000E+00
    0.33701E+06        -0.36626E+08         0.00000E+00
    0.00000E+00         0.00000E+00        -0.12009E+08
 
   -0.10766E+08         0.37212E+06         0.00000E+00
    0.37212E+06        -0.36602E+08         0.00000E+00
    0.00000E+00         0.00000E+00        -0.11884E+08
 
   -0.10848E+08         0.41149E+06         0.00000E+00
    0.41149E+06        -0.36569E+08         0.00000E+00
    0.00000E+00         0.00000E+00        -0.11753E+08
 
   -0.10925E+08         0.45461E+06         0.00000E+00
    0.45461E+06        -0.36527E+08         0.00000E+00
    0.00000E+00         0.00000E+00        -0.11616E+08
 
   -0.10995E+08         0.50052E+06         0.00000E+00
    0.50052E+06        -0.36475E+08         0.00000E+00
    0.00000E+00         0.00000E+00        -0.11477E+08
 
   -0.11056E+08         0.54778E+06         0.00000E+00
    0.54778E+06        -0.36414E+08         0.00000E+00
    0.00000E+00         0.00000E+00        -0.11337E+08
 
   -0.11106E+08         0.59521E+06         0.00000E+00
    0.59521E+06        -0.36344E+08         0.00000E+00
    0.00000E+00         0.00000E+00        -0.11197E+08
 
   -0.10668E+08         0.37280E+05         0.00000E+00
    0.37280E+05        -0.36983E+08         0.00000E+00
    0.00000E+00         0.00000E+00        -0.12521E+08
 
   -0.10616E+08         0.10475E+06         0.00000E+00
    0.10475E+06        -0.36984E+08         0.00000E+00
    0.00000E+00         0.00000E+00        -0.12585E+08
 
   -0.10612E+08         0.15658E+06         0.00000E+00
    0.15658E+06        -0.36988E+08         0.00000E+00
    0.00000E+00         0.00000E+00        -0.12597E+08
 
   -0.10639E+08         0.19591E+06         0.00000E+00
    0.19591E+06        -0.36994E+08         0.00000E+00
    0.00000E+00         0.00000E+00        -0.12576E+08
 
   -0.10684E+08         0.22854E+06         0.00000E+00
    0.22854E+06        -0.37002E+08         0.00000E+00
    0.00000E+00         0.00000E+00        -0.12534E+08
 
   -0.10742E+08         0.25849E+06         0.00000E+00
    0.25849E+06        -0.37007E+08         0.00000E+00
    0.00000E+00         0.00000E+00        -0.12475E+08
 
   -0.10810E+08         0.28887E+06         0.00000E+00
    0.28887E+06        -0.37010E+08         0.00000E+00
    0.00000E+00         0.00000E+00        -0.12401E+08
 
   -0.10884E+08         0.32221E+06         0.00000E+00
    0.32221E+06        -0.37006E+08         0.00000E+00
    0.00000E+00         0.00000E+00        -0.12313E+08
 
   -0.10962E+08         0.36004E+06         0.00000E+00
    0.36004E+06        -0.36996E+08         0.00000E+00
    0.00000E+00         0.00000E+00        -0.12214E+08
 
   -0.11040E+08         0.40294E+06         0.00000E+00
    0.40294E+06        -0.36978E+08         0.00000E+00
    0.00000E+00         0.00000E+00        -0.12104E+08
 
   -0.11117E+08         0.45078E+06         0.00000E+00
    0.45078E+06        -0.36950E+08         0.00000E+00
    0.00000E+00         0.00000E+00        -0.11986E+08
 
   -0.11190E+08         0.50273E+06         0.00000E+00
    0.50273E+06        -0.36913E+08         0.00000E+00
    0.00000E+00         0.00000E+00        -0.11861E+08
 
   -0.11258E+08         0.55758E+06         0.00000E+00
    0.55758E+06        -0.36865E+08         0.00000E+00
    0.00000E+00         0.00000E+00        -0.11731E+08
 
   -0.11319E+08         0.61393E+06         0.00000E+00
    0.61393E+06        -0.36807E+08         0.00000E+00
    0.00000E+00         0.00000E+00        -0.11597E+08
 
   -0.11370E+08         0.66991E+06         0.00000E+00
    0.66991E+06        -0.36738E+08         0.00000E+00
    0.00000E+00         0.00000E+00        -0.11461E+08
 
   -0.10945E+08         0.38169E+05         0.00000E+00
    0.38169E+05        -0.37338E+08         0.00000E+00
    0.00000E+00         0.00000E+00        -0.12704E+08
 
   -0.10910E+08         0.10327E+06         0.00000E+00
    0.10327E+06        -0.37343E+08         0.00000E+00
    0.00000E+00         0.00000E+00        -0.12752E+08
 
   -0.10921E+08         0.15146E+06         0.00000E+00
    0.15146E+06        -0.37353E+08         0.00000E+00
    0.00000E+00         0.00000E+00        -0.12755E+08
 
   -0.10956E+08         0.18974E+06         0.00000E+00
    0.18974E+06        -0.37367E+08         0.00000E+00
    0.00000E+00         0.00000E+00        -0.12735E+08
 
   -0.11005E+08         0.22343E+06         0.00000E+00
    0.22343E+06        -0.37382E+08         0.00000E+00
    0.00000E+00         0.00000E+00        -0.12700E+08
 
   -0.11063E+08         0.25638E+06         0.00000E+00
    0.25638E+06        -0.37395E+08         0.00000E+00
    0.00000E+00         0.00000E+00        -0.12653E+08
 
   -0.11127E+08         0.29153E+06         0.00000E+00
    0.29153E+06        -0.37404E+08         0.00000E+00
    0.00000E+00         0.00000E+00        -0.12594E+08
 
   -0.11197E+08         0.33110E+06         0.00000E+00
    0.33110E+06        -0.37408E+08         0.00000E+00
    0.00000E+00         0.00000E+00        -0.12523E+08
 
   -0.11269E+08         0.37639E+06         0.00000E+00
    0.37639E+06        -0.37405E+08         0.00000E+00
    0.00000E+00         0.00000E+00        -0.12441E+08
 
   -0.11342E+08         0.42777E+06         0.00000E+00
    0.42777E+06        -0.37393E+08         0.00000E+00
    0.00000E+00         0.00000E+00        -0.12348E+08
 
   -0.11413E+08         0.48476E+06         0.00000E+00
    0.48476E+06        -0.37371E+08         0.00000E+00
    0.00000E+00         0.00000E+00        -0.12244E+08
 
   -0.11483E+08         0.54642E+06         0.00000E+00
    0.54642E+06        -0.37338E+08         0.00000E+00
    0.00000E+00         0.00000E+00        -0.12132E+08
 
   -0.11548E+08         0.61119E+06         0.00000E+00
    0.61119E+06        -0.37295E+08         0.00000E+00
    0.00000E+00         0.00000E+00        -0.12011E+08
 
   -0.11608E+08         0.67733E+06         0.00000E+00
    0.67733E+06        -0.37240E+08         0.00000E+00
    0.00000E+00         0.00000E+00        -0.11884E+08
 
   -0.11660E+08         0.74272E+06         0.00000E+00
    0.74272E+06        -0.37174E+08         0.00000E+00
    0.00000E+00         0.00000E+00        -0.11752E+08
 
   -0.11258E+08         0.36184E+05         0.00000E+00
    0.36184E+05        -0.37729E+08         0.00000E+00
    0.00000E+00         0.00000E+00        -0.12894E+08
 
   -0.11245E+08         0.95437E+05         0.00000E+00
    0.95437E+05        -0.37738E+08         0.00000E+00
    0.00000E+00         0.00000E+00        -0.12923E+08
 
   -0.11268E+08         0.13924E+06         0.00000E+00
    0.13924E+06        -0.37754E+08         0.00000E+00
    0.00000E+00         0.00000E+00        -0.12920E+08
 
   -0.11309E+08         0.17591E+06         0.00000E+00
    0.17591E+06        -0.37775E+08         0.00000E+00
    0.00000E+00         0.00000E+00        -0.12904E+08
 
   -0.11358E+08         0.21050E+06         0.00000E+00
    0.21050E+06        -0.37797E+08         0.00000E+00
    0.00000E+00         0.00000E+00        -0.12879E+08
 
   -0.11414E+08         0.24641E+06         0.00000E+00
    0.24641E+06        -0.37817E+08         0.00000E+00
    0.00000E+00         0.00000E+00        -0.12846E+08
 
   -0.11474E+08         0.28641E+06         0.00000E+00
    0.28641E+06        -0.37835E+08         0.00000E+00
    0.00000E+00         0.00000E+00        -0.12804E+08
 
   -0.11538E+08         0.33250E+06         0.00000E+00
    0.33250E+06        -0.37846E+08         0.00000E+00
    0.00000E+00         0.00000E+00        -0.12751E+08
 
   -0.11603E+08         0.38568E+06         0.00000E+00
    0.38568E+06        -0.37850E+08         0.00000E+00
    0.00000E+00         0.00000E+00        -0.12688E+08
 
   -0.11669E+08         0.44609E+06         0.00000E+00
    0.44609E+06        -0.37844E+08         0.00000E+00
    0.00000E+00         0.00000E+00        -0.12613E+08
 
   -0.11735E+08         0.51312E+06         0.00000E+00
    0.51312E+06        -0.37828E+08         0.00000E+00
    0.00000E+00         0.00000E+00        -0.12526E+08
 
   -0.11800E+08         0.58526E+06         0.00000E+00
    0.58526E+06        -0.37801E+08         0.00000E+00
    0.00000E+00         0.00000E+00        -0.12427E+08
 
   -0.11863E+08         0.66090E+06         0.00000E+00
    0.66090E+06        -0.37762E+08         0.00000E+00
    0.00000E+00         0.00000E+00        -0.12317E+08
 
   -0.11922E+08         0.73766E+06         0.00000E+00
    0.73766E+06        -0.37710E+08         0.00000E+00
    0.00000E+00         0.00000E+00        -0.12196E+08
 
   -0.11976E+08         0.81346E+06         0.00000E+00
    0.81346E+06        -0.37647E+08         0.00000E+00
    0.00000E+00         0.00000E+00        -0.12068E+08
 
   -0.11613E+08         0.30903E+05         0.00000E+00
    0.30903E+05        -0.38153E+08         0.00000E+00
    0.00000E+00         0.00000E+00        -0.13086E+08
 
   -0.11620E+08         0.81516E+05         0.00000E+00
    0.81516E+05        -0.38167E+08         0.00000E+00
    0.00000E+00         0.00000E+00        -0.13097E+08
 
   -0.11653E+08         0.12026E+06         0.00000E+00
    0.12026E+06        -0.38189E+08         0.00000E+00
    0.00000E+00         0.00000E+00        -0.13092E+08
 
   -0.11696E+08         0.15477E+06         0.00000E+00
    0.15477E+06        -0.38216E+08         0.00000E+00
    0.00000E+00         0.00000E+00        -0.13082E+08
 
   -0.11744E+08         0.18967E+06         0.00000E+00
    0.18967E+06        -0.38245E+08         0.00000E+00
    0.00000E+00         0.00000E+00        -0.13069E+08
 
   -0.11796E+08         0.22839E+06         0.00000E+00
    0.22839E+06        -0.38273E+08         0.00000E+00
    0.00000E+00         0.00000E+00        -0.13052E+08
 
   -0.11849E+08         0.27331E+06         0.00000E+00
    0.27331E+06        -0.38298E+08         0.00000E+00
    0.00000E+00         0.00000E+00        -0.13029E+08
 
   -0.11905E+08         0.32612E+06         0.00000E+00
    0.32612E+06        -0.38317E+08         0.00000E+00
    0.00000E+00         0.00000E+00        -0.12996E+08
 
   -0.11961E+08         0.38761E+06         0.00000E+00
    0.38761E+06        -0.38328E+08         0.00000E+00
    0.00000E+00         0.00000E+00        -0.12953E+08
 
   -0.12020E+08         0.45762E+06         0.00000E+00
    0.45762E+06        -0.38329E+08         0.00000E+00
    0.00000E+00         0.00000E+00        -0.12898E+08
 
   -0.12079E+08         0.53527E+06         0.00000E+00
    0.53527E+06        -0.38319E+08         0.00000E+00
    0.00000E+00         0.00000E+00        -0.12828E+08
 
   -0.12139E+08         0.61889E+06         0.00000E+00
    0.61889E+06        -0.38298E+08         0.00000E+00
    0.00000E+00         0.00000E+00        -0.12744E+08
 
   -0.12200E+08         0.70622E+06         0.00000E+00
    0.70622E+06        -0.38264E+08         0.00000E+00
    0.00000E+00         0.00000E+00        -0.12645E+08
 
   -0.12259E+08         0.79467E+06         0.00000E+00
    0.79467E+06        -0.38216E+08         0.00000E+00
    0.00000E+00         0.00000E+00        -0.12533E+08
 
   -0.12316E+08         0.88150E+06         0.00000E+00
    0.88150E+06        -0.38156E+08         0.00000E+00
    0.00000E+00         0.00000E+00        -0.12408E+08
 
   -0.12014E+08         0.22875E+05         0.00000E+00
    0.22875E+05        -0.38610E+08         0.00000E+00
    0.00000E+00         0.00000E+00        -0.13272E+08
 
   -0.12036E+08         0.62484E+05         0.00000E+00
    0.62484E+05        -0.38626E+08         0.00000E+00
    0.00000E+00         0.00000E+00        -0.13270E+08
 
   -0.12074E+08         0.94725E+05         0.00000E+00
    0.94725E+05        -0.38654E+08         0.00000E+00
    0.00000E+00         0.00000E+00        -0.13267E+08
 
   -0.12116E+08         0.12618E+06         0.00000E+00
    0.12618E+06        -0.38687E+08         0.00000E+00
    0.00000E+00         0.00000E+00        -0.13267E+08
 
   -0.12161E+08         0.16104E+06         0.00000E+00
    0.16104E+06        -0.38724E+08         0.00000E+00
    0.00000E+00         0.00000E+00        -0.13269E+08
 
   -0.12206E+08         0.20231E+06         0.00000E+00
    0.20231E+06        -0.38759E+08         0.00000E+00
    0.00000E+00         0.00000E+00        -0.13270E+08
 
   -0.12251E+08         0.25216E+06         0.00000E+00
    0.25216E+06        -0.38791E+08         0.00000E+00
    0.00000E+00         0.00000E+00        -0.13267E+08
 
   -0.12296E+08         0.31188E+06         0.00000E+00
    0.31188E+06        -0.38817E+08         0.00000E+00
    0.00000E+00         0.00000E+00        -0.13256E+08
 
   -0.12343E+08         0.38194E+06         0.00000E+00
    0.38194E+06        -0.38835E+08         0.00000E+00
    0.00000E+00         0.00000E+00        -0.13235E+08
 
   -0.12392E+08         0.46208E+06         0.00000E+00
    0.46208E+06        -0.38844E+08         0.00000E+00
    0.00000E+00         0.00000E+00        -0.13200E+08
 
   -0.12444E+08         0.55092E+06         0.00000E+00
    0.55092E+06        -0.38841E+08         0.00000E+00
    0.00000E+00         0.00000E+00        -0.13149E+08
 
   -0.12499E+08         0.64670E+06         0.00000E+00
    0.64670E+06        -0.38825E+08         0.00000E+00
    0.00000E+00         0.00000E+00        -0.13081E+08
 
   -0.12556E+08         0.74663E+06         0.00000E+00
    0.74663E+06        -0.38797E+08         0.00000E+00
    0.00000E+00         0.00000E+00        -0.12994E+08
 
   -0.12616E+08         0.84771E+06         0.00000E+00
    0.84771E+06        -0.38754E+08         0.00000E+00
    0.00000E+00         0.00000E+00        -0.12890E+08
 
   -0.12676E+08         0.94645E+06         0.00000E+00
    0.94645E+06        -0.38698E+08         0.00000E+00
    0.00000E+00         0.00000E+00        -0.12771E+08
 
   -0.12462E+08         0.13198E+05         0.00000E+00
    0.13198E+05        -0.39097E+08         0.00000E+00
    0.00000E+00         0.00000E+00        -0.13451E+08
 
   -0.12493E+08         0.39103E+05         0.00000E+00
    0.39103E+05        -0.39116E+08         0.00000E+00
    0.00000E+00         0.00000E+00        -0.13444E+08
 
   -0.12531E+08         0.63080E+05         0.00000E+00
    0.63080E+05        -0.39148E+08         0.00000E+00
    0.00000E+00         0.00000E+00        -0.13446E+08
 
   -0.12570E+08         0.90463E+05         0.00000E+00
    0.90463E+05        -0.39188E+08         0.00000E+00
    0.00000E+00         0.00000E+00        -0.13459E+08
 
   -0.12608E+08         0.12479E+06         0.00000E+00
    0.12479E+06        -0.39230E+08         0.00000E+00
    0.00000E+00         0.00000E+00        -0.13477E+08
 
   -0.12643E+08         0.16845E+06         0.00000E+00
    0.16845E+06        -0.39272E+08         0.00000E+00
    0.00000E+00         0.00000E+00        -0.13498E+08
 
   -0.12677E+08         0.22313E+06         0.00000E+00
    0.22313E+06        -0.39311E+08         0.00000E+00
    0.00000E+00         0.00000E+00        -0.13517E+08
 
   -0.12711E+08         0.28981E+06         0.00000E+00
    0.28981E+06        -0.39345E+08         0.00000E+00
    0.00000E+00         0.00000E+00        -0.13528E+08
 
   -0.12747E+08         0.36871E+06         0.00000E+00
    0.36871E+06        -0.39370E+08         0.00000E+00
    0.00000E+00         0.00000E+00        -0.13530E+08
 
   -0.12785E+08         0.45910E+06         0.00000E+00
    0.45910E+06        -0.39385E+08         0.00000E+00
    0.00000E+00         0.00000E+00        -0.13517E+08
 
   -0.12828E+08         0.55973E+06         0.00000E+00
    0.55973E+06        -0.39389E+08         0.00000E+00
    0.00000E+00         0.00000E+00        -0.13486E+08
 
   -0.12876E+08         0.66819E+06         0.00000E+00
    0.66819E+06        -0.39380E+08         0.00000E+00
    0.00000E+00         0.00000E+00        -0.13435E+08
 
   -0.12931E+08         0.78150E+06         0.00000E+00
    0.78150E+06        -0.39357E+08         0.00000E+00
    0.00000E+00         0.00000E+00        -0.13362E+08
 
   -0.12991E+08         0.89600E+06         0.00000E+00
    0.89600E+06        -0.39320E+08         0.00000E+00
    0.00000E+00         0.00000E+00        -0.13267E+08
 
   -0.13055E+08         0.10075E+07         0.00000E+00
    0.10075E+07        -0.39268E+08         0.00000E+00
    0.00000E+00         0.00000E+00        -0.13152E+08
 
   -0.12959E+08         0.24709E+04         0.00000E+00
    0.24709E+04        -0.39614E+08         0.00000E+00
    0.00000E+00         0.00000E+00        -0.13623E+08
 
   -0.12992E+08         0.12346E+05         0.00000E+00
    0.12346E+05        -0.39635E+08         0.00000E+00
    0.00000E+00         0.00000E+00        -0.13616E+08
 
   -0.13026E+08         0.26251E+05         0.00000E+00
    0.26251E+05        -0.39670E+08         0.00000E+00
    0.00000E+00         0.00000E+00        -0.13628E+08
 
   -0.13056E+08         0.48558E+05         0.00000E+00
    0.48558E+05        -0.39714E+08         0.00000E+00
    0.00000E+00         0.00000E+00        -0.13655E+08
 
   -0.13083E+08         0.81670E+05         0.00000E+00
    0.81670E+05        -0.39762E+08         0.00000E+00
    0.00000E+00         0.00000E+00        -0.13692E+08
 
   -0.13107E+08         0.12733E+06         0.00000E+00
    0.12733E+06        -0.39810E+08         0.00000E+00
    0.00000E+00         0.00000E+00        -0.13734E+08
 
   -0.13127E+08         0.18665E+06         0.00000E+00
    0.18665E+06        -0.39856E+08         0.00000E+00
    0.00000E+00         0.00000E+00        -0.13775E+08
 
   -0.13148E+08         0.26020E+06         0.00000E+00
    0.26020E+06        -0.39895E+08         0.00000E+00
    0.00000E+00         0.00000E+00        -0.13810E+08
 
   -0.13169E+08         0.34784E+06         0.00000E+00
    0.34784E+06        -0.39927E+08         0.00000E+00
    0.00000E+00         0.00000E+00        -0.13835E+08
 
   -0.13196E+08         0.44877E+06         0.00000E+00
    0.44877E+06        -0.39949E+08         0.00000E+00
    0.00000E+00         0.00000E+00        -0.13845E+08
 
   -0.13228E+08         0.56128E+06         0.00000E+00
    0.56128E+06        -0.39960E+08         0.00000E+00
    0.00000E+00         0.00000E+00        -0.13835E+08
 
   -0.13269E+08         0.68283E+06         0.00000E+00
    0.68283E+06        -0.39958E+08         0.00000E+00
    0.00000E+00         0.00000E+00        -0.13802E+08
 
   -0.13320E+08         0.81002E+06         0.00000E+00
    0.81002E+06        -0.39942E+08         0.00000E+00
    0.00000E+00         0.00000E+00        -0.13744E+08
 
   -0.13381E+08         0.93867E+06         0.00000E+00
    0.93867E+06        -0.39911E+08         0.00000E+00
    0.00000E+00         0.00000E+00        -0.13660E+08
 
   -0.13451E+08         0.10637E+07         0.00000E+00
    0.10637E+07        -0.39865E+08         0.00000E+00
    0.00000E+00         0.00000E+00        -0.13551E+08
 
   -0.13504E+08        -0.90401E+04         0.00000E+00
   -0.90401E+04        -0.40159E+08         0.00000E+00
    0.00000E+00         0.00000E+00        -0.13787E+08
 
   -0.13532E+08        -0.16810E+05         0.00000E+00
   -0.16810E+05        -0.40181E+08         0.00000E+00
    0.00000E+00         0.00000E+00        -0.13787E+08
 
   -0.13556E+08        -0.14222E+05         0.00000E+00
   -0.14222E+05        -0.40218E+08         0.00000E+00
    0.00000E+00         0.00000E+00        -0.13812E+08
 
   -0.13574E+08         0.17574E+04         0.00000E+00
    0.17574E+04        -0.40265E+08         0.00000E+00
    0.00000E+00         0.00000E+00        -0.13856E+08
 
   -0.13587E+08         0.32828E+05         0.00000E+00
    0.32828E+05        -0.40317E+08         0.00000E+00
    0.00000E+00         0.00000E+00        -0.13913E+08
 
   -0.13595E+08         0.79814E+05         0.00000E+00
    0.79814E+05        -0.40370E+08         0.00000E+00
    0.00000E+00         0.00000E+00        -0.13976E+08
 
   -0.13599E+08         0.14338E+06         0.00000E+00
    0.14338E+06        -0.40421E+08         0.00000E+00
    0.00000E+00         0.00000E+00        -0.14040E+08
 
   -0.13604E+08         0.22350E+06         0.00000E+00
    0.22350E+06        -0.40466E+08         0.00000E+00
    0.00000E+00         0.00000E+00        -0.14099E+08
 
   -0.13610E+08         0.31973E+06         0.00000E+00
    0.31973E+06        -0.40504E+08         0.00000E+00
    0.00000E+00         0.00000E+00        -0.14148E+08
 
   -0.13623E+08         0.43101E+06         0.00000E+00
    0.43101E+06        -0.40533E+08         0.00000E+00
    0.00000E+00         0.00000E+00        -0.14181E+08
 
   -0.13644E+08         0.55540E+06         0.00000E+00
    0.55540E+06        -0.40550E+08         0.00000E+00
    0.00000E+00         0.00000E+00        -0.14193E+08
 
   -0.13677E+08         0.69011E+06         0.00000E+00
    0.69011E+06        -0.40555E+08         0.00000E+00
    0.00000E+00         0.00000E+00        -0.14180E+08
 
   -0.13723E+08         0.83141E+06         0.00000E+00
    0.83141E+06        -0.40546E+08         0.00000E+00
    0.00000E+00         0.00000E+00        -0.14139E+08
 
   -0.13785E+08         0.97464E+06         0.00000E+00
    0.97464E+06        -0.40522E+08         0.00000E+00
    0.00000E+00         0.00000E+00        -0.14067E+08
 
   -0.13861E+08         0.11148E+07         0.00000E+00
    0.11148E+07        -0.40483E+08         0.00000E+00
    0.00000E+00         0.00000E+00        -0.13963E+08
 
   -0.14098E+08        -0.21036E+05         0.00000E+00
   -0.21036E+05        -0.40731E+08         0.00000E+00
    0.00000E+00         0.00000E+00        -0.13944E+08
 
   -0.14114E+08        -0.47275E+05         0.00000E+00
   -0.47275E+05        -0.40753E+08         0.00000E+00
    0.00000E+00         0.00000E+00        -0.13957E+08
 
   -0.14123E+08        -0.56990E+05         0.00000E+00
   -0.56990E+05        -0.40791E+08         0.00000E+00
    0.00000E+00         0.00000E+00        -0.13998E+08
 
   -0.14123E+08        -0.48347E+05         0.00000E+00
   -0.48347E+05        -0.40839E+08         0.00000E+00
    0.00000E+00         0.00000E+00        -0.14061E+08
 
   -0.14118E+08        -0.20352E+05         0.00000E+00
   -0.20352E+05        -0.40894E+08         0.00000E+00
    0.00000E+00         0.00000E+00        -0.14138E+08
 
   -0.14107E+08         0.27233E+05         0.00000E+00
    0.27233E+05        -0.40950E+08         0.00000E+00
    0.00000E+00         0.00000E+00        -0.14223E+08
 
   -0.14093E+08         0.94399E+05         0.00000E+00
    0.94399E+05        -0.41004E+08         0.00000E+00
    0.00000E+00         0.00000E+00        -0.14310E+08
 
   -0.14078E+08         0.18052E+06         0.00000E+00
    0.18052E+06        -0.41054E+08         0.00000E+00
    0.00000E+00         0.00000E+00        -0.14392E+08
 
   -0.14068E+08         0.28495E+06         0.00000E+00
    0.28495E+06        -0.41096E+08         0.00000E+00
    0.00000E+00         0.00000E+00        -0.14465E+08
 
   -0.14064E+08         0.40614E+06         0.00000E+00
    0.40614E+06        -0.41131E+08         0.00000E+00
    0.00000E+00         0.00000E+00        -0.14522E+08
 
   -0.14073E+08         0.54199E+06         0.00000E+00
    0.54199E+06        -0.41155E+08         0.00000E+00
    0.00000E+00         0.00000E+00        -0.14557E+08
 
   -0.14096E+08         0.68957E+06         0.00000E+00
    0.68957E+06        -0.41167E+08         0.00000E+00
    0.00000E+00         0.00000E+00        -0.14565E+08
 
   -0.14137E+08         0.84497E+06         0.00000E+00
    0.84497E+06        -0.41166E+08         0.00000E+00
    0.00000E+00         0.00000E+00        -0.14541E+08
 
   -0.14199E+08         0.10032E+07         0.00000E+00
    0.10032E+07        -0.41150E+08         0.00000E+00
    0.00000E+00         0.00000E+00        -0.14482E+08
 
   -0.14281E+08         0.11588E+07         0.00000E+00
    0.11588E+07        -0.41118E+08         0.00000E+00
    0.00000E+00         0.00000E+00        -0.14386E+08
 
   -0.14738E+08        -0.33051E+05         0.00000E+00
   -0.33051E+05        -0.41327E+08         0.00000E+00
    0.00000E+00         0.00000E+00        -0.14096E+08
 
   -0.14736E+08        -0.78105E+05         0.00000E+00
   -0.78105E+05        -0.41349E+08         0.00000E+00
    0.00000E+00         0.00000E+00        -0.14126E+08
 
   -0.14724E+08        -0.10088E+06         0.00000E+00
   -0.10088E+06        -0.41386E+08         0.00000E+00
    0.00000E+00         0.00000E+00        -0.14187E+08
 
   -0.14703E+08        -0.10028E+06         0.00000E+00
   -0.10028E+06        -0.41435E+08         0.00000E+00
    0.00000E+00         0.00000E+00        -0.14270E+08
 
   -0.14674E+08        -0.76135E+05         0.00000E+00
   -0.76135E+05        -0.41490E+08         0.00000E+00
    0.00000E+00         0.00000E+00        -0.14368E+08
 
   -0.14641E+08        -0.28683E+05         0.00000E+00
   -0.28683E+05        -0.41547E+08         0.00000E+00
    0.00000E+00         0.00000E+00        -0.14474E+08
 
   -0.14606E+08         0.41272E+05         0.00000E+00
    0.41272E+05        -0.41603E+08         0.00000E+00
    0.00000E+00         0.00000E+00        -0.14583E+08
 
   -0.14571E+08         0.13280E+06         0.00000E+00
    0.13280E+06        -0.41655E+08         0.00000E+00
    0.00000E+00         0.00000E+00        -0.14688E+08
 
   -0.14541E+08         0.24447E+06         0.00000E+00
    0.24447E+06        -0.41701E+08         0.00000E+00
    0.00000E+00         0.00000E+00        -0.14784E+08
 
   -0.14520E+08         0.37462E+06         0.00000E+00
    0.37462E+06        -0.41740E+08         0.00000E+00
    0.00000E+00         0.00000E+00        -0.14864E+08
 
   -0.14514E+08         0.52108E+06         0.00000E+00
    0.52108E+06        -0.41770E+08         0.00000E+00
    0.00000E+00         0.00000E+00        -0.14922E+08
 
   -0.14526E+08         0.68085E+06         0.00000E+00
    0.68085E+06        -0.41790E+08         0.00000E+00
    0.00000E+00         0.00000E+00        -0.14952E+08
 
   -0.14561E+08         0.85006E+06         0.00000E+00
    0.85006E+06        -0.41797E+08         0.00000E+00
    0.00000E+00         0.00000E+00        -0.14948E+08
 
   -0.14621E+08         0.10236E+07         0.00000E+00
    0.10236E+07        -0.41789E+08         0.00000E+00
    0.00000E+00         0.00000E+00        -0.14904E+08
 
   -0.14710E+08         0.11946E+07         0.00000E+00
    0.11946E+07        -0.41767E+08         0.00000E+00
    0.00000E+00         0.00000E+00        -0.14817E+08
 
   -0.15424E+08        -0.44770E+05         0.00000E+00
   -0.44770E+05        -0.41946E+08         0.00000E+00
    0.00000E+00         0.00000E+00        -0.14245E+08
 
   -0.15397E+08        -0.10865E+06         0.00000E+00
   -0.10865E+06        -0.41967E+08         0.00000E+00
    0.00000E+00         0.00000E+00        -0.14297E+08
 
   -0.15359E+08        -0.14459E+06         0.00000E+00
   -0.14459E+06        -0.42003E+08         0.00000E+00
    0.00000E+00         0.00000E+00        -0.14379E+08
 
   -0.15311E+08        -0.15247E+06         0.00000E+00
   -0.15247E+06        -0.42051E+08         0.00000E+00
    0.00000E+00         0.00000E+00        -0.14483E+08
 
   -0.15256E+08        -0.13259E+06         0.00000E+00
   -0.13259E+06        -0.42104E+08         0.00000E+00
    0.00000E+00         0.00000E+00        -0.14602E+08
 
   -0.15197E+08        -0.85858E+05         0.00000E+00
   -0.85858E+05        -0.42160E+08         0.00000E+00
    0.00000E+00         0.00000E+00        -0.14729E+08
 
   -0.15137E+08        -0.13770E+05         0.00000E+00
   -0.13770E+05        -0.42215E+08         0.00000E+00
    0.00000E+00         0.00000E+00        -0.14858E+08
 
   -0.15080E+08         0.82125E+05         0.00000E+00
    0.82125E+05        -0.42267E+08         0.00000E+00
    0.00000E+00         0.00000E+00        -0.14984E+08
 
   -0.15029E+08         0.19981E+06         0.00000E+00
    0.19981E+06        -0.42315E+08         0.00000E+00
    0.00000E+00         0.00000E+00        -0.15101E+08
 
   -0.14989E+08         0.33749E+06         0.00000E+00
    0.33749E+06        -0.42357E+08         0.00000E+00
    0.00000E+00         0.00000E+00        -0.15203E+08
 
   -0.14966E+08         0.49299E+06         0.00000E+00
    0.49299E+06        -0.42393E+08         0.00000E+00
    0.00000E+00         0.00000E+00        -0.15284E+08
 
   -0.14966E+08         0.66361E+06         0.00000E+00
    0.66361E+06        -0.42419E+08         0.00000E+00
    0.00000E+00         0.00000E+00        -0.15337E+08
 
   -0.14992E+08         0.84573E+06         0.00000E+00
    0.84573E+06        -0.42435E+08         0.00000E+00
    0.00000E+00         0.00000E+00        -0.15354E+08
 
   -0.15051E+08         0.10343E+07         0.00000E+00
    0.10343E+07        -0.42438E+08         0.00000E+00
    0.00000E+00         0.00000E+00        -0.15328E+08
 
   -0.15144E+08         0.12216E+07         0.00000E+00
    0.12216E+07        -0.42425E+08         0.00000E+00
    0.00000E+00         0.00000E+00        -0.15253E+08
 
   -0.16153E+08        -0.56083E+05         0.00000E+00
   -0.56083E+05        -0.42586E+08         0.00000E+00
    0.00000E+00         0.00000E+00        -0.14395E+08
 
   -0.16095E+08        -0.13819E+06         0.00000E+00
   -0.13819E+06        -0.42606E+08         0.00000E+00
    0.00000E+00         0.00000E+00        -0.14470E+08
 
   -0.16025E+08        -0.18708E+06         0.00000E+00
   -0.18708E+06        -0.42640E+08         0.00000E+00
    0.00000E+00         0.00000E+00        -0.14575E+08
 
   -0.15946E+08        -0.20320E+06         0.00000E+00
   -0.20320E+06        -0.42684E+08         0.00000E+00
    0.00000E+00         0.00000E+00        -0.14701E+08
 
   -0.15861E+08        -0.18760E+06         0.00000E+00
   -0.18760E+06        -0.42734E+08         0.00000E+00
    0.00000E+00         0.00000E+00        -0.14841E+08
 
   -0.15774E+08        -0.14189E+06         0.00000E+00
   -0.14189E+06        -0.42787E+08         0.00000E+00
    0.00000E+00         0.00000E+00        -0.14987E+08
 
   -0.15687E+08        -0.68280E+05         0.00000E+00
   -0.68280E+05        -0.42839E+08         0.00000E+00
    0.00000E+00         0.00000E+00        -0.15134E+08
 
   -0.15605E+08         0.30869E+05         0.00000E+00
    0.30869E+05        -0.42889E+08         0.00000E+00
    0.00000E+00         0.00000E+00        -0.15278E+08
 
   -0.15531E+08         0.15312E+06         0.00000E+00
    0.15312E+06        -0.42935E+08         0.00000E+00
    0.00000E+00         0.00000E+00        -0.15413E+08
 
   -0.15471E+08         0.29625E+06         0.00000E+00
    0.29625E+06        -0.42978E+08         0.00000E+00
    0.00000E+00         0.00000E+00        -0.15535E+08
 
   -0.15430E+08         0.45843E+06         0.00000E+00
    0.45843E+06        -0.43017E+08         0.00000E+00
    0.00000E+00         0.00000E+00        -0.15637E+08
 
   -0.15415E+08         0.63770E+06         0.00000E+00
    0.63770E+06        -0.43050E+08         0.00000E+00
    0.00000E+00         0.00000E+00        -0.15714E+08
 
   -0.15431E+08         0.83094E+06         0.00000E+00
    0.83094E+06        -0.43076E+08         0.00000E+00
    0.00000E+00         0.00000E+00        -0.15755E+08
 
   -0.15486E+08         0.10333E+07         0.00000E+00
    0.10333E+07        -0.43090E+08         0.00000E+00
    0.00000E+00         0.00000E+00        -0.15751E+08
 
   -0.15583E+08         0.12375E+07         0.00000E+00
    0.12375E+07        -0.43089E+08         0.00000E+00
    0.00000E+00         0.00000E+00        -0.15690E+08
 
   -0.16921E+08        -0.66875E+05         0.00000E+00
   -0.66875E+05        -0.43245E+08         0.00000E+00
    0.00000E+00         0.00000E+00        -0.14546E+08
 
   -0.16826E+08        -0.16628E+06         0.00000E+00
   -0.16628E+06        -0.43263E+08         0.00000E+00
    0.00000E+00         0.00000E+00        -0.14648E+08
 
   -0.16720E+08        -0.22715E+06         0.00000E+00
   -0.22715E+06        -0.43294E+08         0.00000E+00
    0.00000E+00         0.00000E+00        -0.14777E+08
 
   -0.16606E+08        -0.25077E+06         0.00000E+00
   -0.25077E+06        -0.43334E+08         0.00000E+00
    0.00000E+00         0.00000E+00        -0.14925E+08
 
   -0.16488E+08        -0.23895E+06         0.00000E+00
   -0.23895E+06        -0.43379E+08         0.00000E+00
    0.00000E+00         0.00000E+00        -0.15083E+08
 
   -0.16369E+08        -0.19415E+06         0.00000E+00
   -0.19415E+06        -0.43425E+08         0.00000E+00
    0.00000E+00         0.00000E+00        -0.15247E+08
 
   -0.16253E+08        -0.11946E+06         0.00000E+00
   -0.11946E+06        -0.43471E+08         0.00000E+00
    0.00000E+00         0.00000E+00        -0.15409E+08
 
   -0.16145E+08        -0.18141E+05         0.00000E+00
   -0.18141E+05        -0.43516E+08         0.00000E+00
    0.00000E+00         0.00000E+00        -0.15567E+08
 
   -0.16048E+08         0.10679E+06         0.00000E+00
    0.10679E+06        -0.43559E+08         0.00000E+00
    0.00000E+00         0.00000E+00        -0.15717E+08
 
   -0.15967E+08         0.25287E+06         0.00000E+00
    0.25287E+06        -0.43600E+08         0.00000E+00
    0.00000E+00         0.00000E+00        -0.15855E+08
 
   -0.15907E+08         0.41867E+06         0.00000E+00
    0.41867E+06        -0.43641E+08         0.00000E+00
    0.00000E+00         0.00000E+00        -0.15978E+08
 
   -0.15874E+08         0.60312E+06         0.00000E+00
    0.60312E+06        -0.43680E+08         0.00000E+00
    0.00000E+00         0.00000E+00        -0.16078E+08
 
   -0.15877E+08         0.80472E+06         0.00000E+00
    0.80472E+06        -0.43715E+08         0.00000E+00
    0.00000E+00         0.00000E+00        -0.16146E+08
 
   -0.15924E+08         0.10195E+07         0.00000E+00
    0.10195E+07        -0.43742E+08         0.00000E+00
    0.00000E+00         0.00000E+00        -0.16166E+08
 
   -0.16024E+08         0.12400E+07         0.00000E+00
    0.12400E+07        -0.43756E+08         0.00000E+00
    0.00000E+00         0.00000E+00        -0.16126E+08
 
   -0.17725E+08        -0.77072E+05         0.00000E+00
   -0.77072E+05        -0.43921E+08         0.00000E+00
    0.00000E+00         0.00000E+00        -0.14703E+08
 
   -0.17589E+08        -0.19244E+06         0.00000E+00
   -0.19244E+06        -0.43937E+08         0.00000E+00
    0.00000E+00         0.00000E+00        -0.14832E+08
 
   -0.17442E+08        -0.26381E+06         0.00000E+00
   -0.26381E+06        -0.43965E+08         0.00000E+00
    0.00000E+00         0.00000E+00        -0.14986E+08
 
   -0.17288E+08        -0.29341E+06         0.00000E+00
   -0.29341E+06        -0.43999E+08         0.00000E+00
    0.00000E+00         0.00000E+00        -0.15154E+08
 
   -0.17133E+08        -0.28416E+06         0.00000E+00
   -0.28416E+06        -0.44036E+08         0.00000E+00
    0.00000E+00         0.00000E+00        -0.15330E+08
 
   -0.16981E+08        -0.23974E+06         0.00000E+00
   -0.23974E+06        -0.44073E+08         0.00000E+00
    0.00000E+00         0.00000E+00        -0.15507E+08
 
   -0.16835E+08        -0.16426E+06         0.00000E+00
   -0.16426E+06        -0.44109E+08         0.00000E+00
    0.00000E+00         0.00000E+00        -0.15681E+08
 
   -0.16701E+08        -0.62015E+05         0.00000E+00
   -0.62015E+05        -0.44146E+08         0.00000E+00
    0.00000E+00         0.00000E+00        -0.15849E+08
 
   -0.16581E+08         0.63414E+05         0.00000E+00
    0.63414E+05        -0.44182E+08         0.00000E+00
    0.00000E+00         0.00000E+00        -0.16009E+08
 
   -0.16478E+08         0.20954E+06         0.00000E+00
    0.20954E+06        -0.44221E+08         0.00000E+00
    0.00000E+00         0.00000E+00        -0.16160E+08
 
   -0.16398E+08         0.37517E+06         0.00000E+00
    0.37517E+06        -0.44261E+08         0.00000E+00
    0.00000E+00         0.00000E+00        -0.16300E+08
 
   -0.16345E+08         0.56060E+06         0.00000E+00
    0.56060E+06        -0.44304E+08         0.00000E+00
    0.00000E+00         0.00000E+00        -0.16423E+08
 
   -0.16331E+08         0.76638E+06         0.00000E+00
    0.76638E+06        -0.44349E+08         0.00000E+00
    0.00000E+00         0.00000E+00        -0.16519E+08
 
   -0.16366E+08         0.99074E+06         0.00000E+00
    0.99074E+06        -0.44390E+08         0.00000E+00
    0.00000E+00         0.00000E+00        -0.16571E+08
 
   -0.16464E+08         0.12270E+07         0.00000E+00
    0.12270E+07        -0.44420E+08         0.00000E+00
    0.00000E+00         0.00000E+00        -0.16556E+08
 
   -0.18563E+08        -0.86711E+05         0.00000E+00
   -0.86711E+05        -0.44611E+08         0.00000E+00
    0.00000E+00         0.00000E+00        -0.14866E+08
 
   -0.18378E+08        -0.21628E+06         0.00000E+00
   -0.21628E+06        -0.44625E+08         0.00000E+00
    0.00000E+00         0.00000E+00        -0.15024E+08
 
   -0.18185E+08        -0.29588E+06         0.00000E+00
   -0.29588E+06        -0.44649E+08         0.00000E+00
    0.00000E+00         0.00000E+00        -0.15202E+08
 
   -0.17988E+08        -0.32912E+06         0.00000E+00
   -0.32912E+06        -0.44675E+08         0.00000E+00
    0.00000E+00         0.00000E+00        -0.15391E+08
 
   -0.17794E+08        -0.32048E+06         0.00000E+00
   -0.32048E+06        -0.44702E+08         0.00000E+00
    0.00000E+00         0.00000E+00        -0.15581E+08
 
   -0.17607E+08        -0.27539E+06         0.00000E+00
   -0.27539E+06        -0.44727E+08         0.00000E+00
    0.00000E+00         0.00000E+00        -0.15768E+08
 
   -0.17432E+08        -0.19951E+06         0.00000E+00
   -0.19951E+06        -0.44751E+08         0.00000E+00
    0.00000E+00         0.00000E+00        -0.15947E+08
 
   -0.17272E+08        -0.97967E+05         0.00000E+00
   -0.97967E+05        -0.44776E+08         0.00000E+00
    0.00000E+00         0.00000E+00        -0.16120E+08
 
   -0.17129E+08         0.25334E+05         0.00000E+00
    0.25334E+05        -0.44804E+08         0.00000E+00
    0.00000E+00         0.00000E+00        -0.16285E+08
 
   -0.17007E+08         0.16813E+06         0.00000E+00
    0.16813E+06        -0.44837E+08         0.00000E+00
    0.00000E+00         0.00000E+00        -0.16446E+08
 
   -0.16906E+08         0.32980E+06         0.00000E+00
    0.32980E+06        -0.44877E+08         0.00000E+00
    0.00000E+00         0.00000E+00        -0.16600E+08
 
   -0.16832E+08         0.51158E+06         0.00000E+00
    0.51158E+06        -0.44922E+08         0.00000E+00
    0.00000E+00         0.00000E+00        -0.16746E+08
 
   -0.16795E+08         0.71598E+06         0.00000E+00
    0.71598E+06        -0.44975E+08         0.00000E+00
    0.00000E+00         0.00000E+00        -0.16872E+08
 
   -0.16811E+08         0.94500E+06         0.00000E+00
    0.94500E+06        -0.45030E+08         0.00000E+00
    0.00000E+00         0.00000E+00        -0.16959E+08
 
   -0.16902E+08         0.11944E+07         0.00000E+00
    0.11944E+07        -0.45079E+08         0.00000E+00
    0.00000E+00         0.00000E+00        -0.16978E+08
 
   -0.19429E+08        -0.95771E+05         0.00000E+00
   -0.95771E+05        -0.45313E+08         0.00000E+00
    0.00000E+00         0.00000E+00        -0.15037E+08
 
   -0.19189E+08        -0.23739E+06         0.00000E+00
   -0.23739E+06        -0.45326E+08         0.00000E+00
    0.00000E+00         0.00000E+00        -0.15225E+08
 
   -0.18944E+08        -0.32213E+06         0.00000E+00
   -0.32213E+06        -0.45344E+08         0.00000E+00
    0.00000E+00         0.00000E+00        -0.15428E+08
 
   -0.18701E+08        -0.35551E+06         0.00000E+00
   -0.35551E+06        -0.45361E+08         0.00000E+00
    0.00000E+00         0.00000E+00        -0.15635E+08
 
   -0.18466E+08        -0.34469E+06         0.00000E+00
   -0.34469E+06        -0.45374E+08         0.00000E+00
    0.00000E+00         0.00000E+00        -0.15836E+08
 
   -0.18245E+08        -0.29763E+06         0.00000E+00
   -0.29763E+06        -0.45384E+08         0.00000E+00
    0.00000E+00         0.00000E+00        -0.16026E+08
 
   -0.18042E+08        -0.22189E+06         0.00000E+00
   -0.22189E+06        -0.45392E+08         0.00000E+00
    0.00000E+00         0.00000E+00        -0.16205E+08
 
   -0.17859E+08        -0.12337E+06         0.00000E+00
   -0.12337E+06        -0.45403E+08         0.00000E+00
    0.00000E+00         0.00000E+00        -0.16376E+08
 
   -0.17696E+08        -0.56243E+04         0.00000E+00
   -0.56243E+04        -0.45421E+08         0.00000E+00
    0.00000E+00         0.00000E+00        -0.16543E+08
 
   -0.17554E+08         0.12994E+06         0.00000E+00
    0.12994E+06        -0.45448E+08         0.00000E+00
    0.00000E+00         0.00000E+00        -0.16709E+08
 
   -0.17433E+08         0.28360E+06         0.00000E+00
    0.28360E+06        -0.45485E+08         0.00000E+00
    0.00000E+00         0.00000E+00        -0.16876E+08
 
   -0.17337E+08         0.45705E+06         0.00000E+00
    0.45705E+06        -0.45533E+08         0.00000E+00
    0.00000E+00         0.00000E+00        -0.17041E+08
 
   -0.17273E+08         0.65435E+06         0.00000E+00
    0.65435E+06        -0.45592E+08         0.00000E+00
    0.00000E+00         0.00000E+00        -0.17198E+08
 
   -0.17263E+08         0.88143E+06         0.00000E+00
    0.88143E+06        -0.45660E+08         0.00000E+00
    0.00000E+00         0.00000E+00        -0.17327E+08
 
   -0.17338E+08         0.11421E+07         0.00000E+00
    0.11421E+07        -0.45731E+08         0.00000E+00
    0.00000E+00         0.00000E+00        -0.17388E+08
 
   -0.20321E+08        -0.10435E+06         0.00000E+00
   -0.10435E+06        -0.46026E+08         0.00000E+00
    0.00000E+00         0.00000E+00        -0.15218E+08
 
   -0.20017E+08        -0.25518E+06         0.00000E+00
   -0.25518E+06        -0.46036E+08         0.00000E+00
    0.00000E+00         0.00000E+00        -0.15437E+08
 
   -0.19714E+08        -0.34054E+06         0.00000E+00
   -0.34054E+06        -0.46047E+08         0.00000E+00
    0.00000E+00         0.00000E+00        -0.15665E+08
 
   -0.19420E+08        -0.36936E+06         0.00000E+00
   -0.36936E+06        -0.46051E+08         0.00000E+00
    0.00000E+00         0.00000E+00        -0.15886E+08
 
   -0.19145E+08        -0.35295E+06         0.00000E+00
   -0.35295E+06        -0.46047E+08         0.00000E+00
    0.00000E+00         0.00000E+00        -0.16091E+08
 
   -0.18892E+08        -0.30285E+06         0.00000E+00
   -0.30285E+06        -0.46037E+08         0.00000E+00
    0.00000E+00         0.00000E+00        -0.16277E+08
 
   -0.18665E+08        -0.22852E+06         0.00000E+00
   -0.22852E+06        -0.46027E+08         0.00000E+00
    0.00000E+00         0.00000E+00        -0.16448E+08
 
   -0.18463E+08        -0.13601E+06         0.00000E+00
   -0.13601E+06        -0.46023E+08         0.00000E+00
    0.00000E+00         0.00000E+00        -0.16612E+08
 
   -0.18282E+08        -0.27953E+05         0.00000E+00
   -0.27953E+05        -0.46029E+08         0.00000E+00
    0.00000E+00         0.00000E+00        -0.16775E+08
 
   -0.18123E+08         0.95669E+05         0.00000E+00
    0.95669E+05        -0.46049E+08         0.00000E+00
    0.00000E+00         0.00000E+00        -0.16944E+08
 
   -0.17983E+08         0.23655E+06         0.00000E+00
    0.23655E+06        -0.46084E+08         0.00000E+00
    0.00000E+00         0.00000E+00        -0.17121E+08
 
   -0.17864E+08         0.39755E+06         0.00000E+00
    0.39755E+06        -0.46136E+08         0.00000E+00
    0.00000E+00         0.00000E+00        -0.17307E+08
 
   -0.17772E+08         0.58315E+06         0.00000E+00
    0.58315E+06        -0.46202E+08         0.00000E+00
    0.00000E+00         0.00000E+00        -0.17497E+08
 
   -0.17725E+08         0.80101E+06         0.00000E+00
    0.80101E+06        -0.46282E+08         0.00000E+00
    0.00000E+00         0.00000E+00        -0.17671E+08
 
   -0.17773E+08         0.10585E+07         0.00000E+00
    0.10585E+07        -0.46374E+08         0.00000E+00
    0.00000E+00         0.00000E+00        -0.17783E+08
 
   -0.21234E+08        -0.11255E+06         0.00000E+00
   -0.11255E+06        -0.46746E+08         0.00000E+00
    0.00000E+00         0.00000E+00        -0.15408E+08
 
   -0.20854E+08        -0.26839E+06         0.00000E+00
   -0.26839E+06        -0.46753E+08         0.00000E+00
    0.00000E+00         0.00000E+00        -0.15661E+08
 
   -0.20486E+08        -0.34772E+06         0.00000E+00
   -0.34772E+06        -0.46754E+08         0.00000E+00
    0.00000E+00         0.00000E+00        -0.15912E+08
 
   -0.20140E+08        -0.36591E+06         0.00000E+00
   -0.36591E+06        -0.46740E+08         0.00000E+00
    0.00000E+00         0.00000E+00        -0.16141E+08
 
   -0.19826E+08        -0.34084E+06         0.00000E+00
   -0.34084E+06        -0.46714E+08         0.00000E+00
    0.00000E+00         0.00000E+00        -0.16340E+08
 
   -0.19548E+08        -0.28798E+06         0.00000E+00
   -0.28798E+06        -0.46682E+08         0.00000E+00
    0.00000E+00         0.00000E+00        -0.16515E+08
 
   -0.19303E+08        -0.21755E+06         0.00000E+00
   -0.21755E+06        -0.46652E+08         0.00000E+00
    0.00000E+00         0.00000E+00        -0.16672E+08
 
   -0.19086E+08        -0.13459E+06         0.00000E+00
   -0.13459E+06        -0.46631E+08         0.00000E+00
    0.00000E+00         0.00000E+00        -0.16823E+08
 
   -0.18892E+08        -0.40445E+05         0.00000E+00
   -0.40445E+05        -0.46625E+08         0.00000E+00
    0.00000E+00         0.00000E+00        -0.16978E+08
 
   -0.18717E+08         0.66084E+05         0.00000E+00
    0.66084E+05        -0.46637E+08         0.00000E+00
    0.00000E+00         0.00000E+00        -0.17145E+08
 
   -0.18558E+08         0.18838E+06         0.00000E+00
    0.18838E+06        -0.46670E+08         0.00000E+00
    0.00000E+00         0.00000E+00        -0.17331E+08
 
   -0.18416E+08         0.33133E+06         0.00000E+00
    0.33133E+06        -0.46726E+08         0.00000E+00
    0.00000E+00         0.00000E+00        -0.17537E+08
 
   -0.18294E+08         0.50033E+06         0.00000E+00
    0.50033E+06        -0.46803E+08         0.00000E+00
    0.00000E+00         0.00000E+00        -0.17762E+08
 
   -0.18207E+08         0.70363E+06         0.00000E+00
    0.70363E+06        -0.46898E+08         0.00000E+00
    0.00000E+00         0.00000E+00        -0.17988E+08
 
   -0.18208E+08         0.95789E+06         0.00000E+00
    0.95789E+06        -0.47005E+08         0.00000E+00
    0.00000E+00         0.00000E+00        -0.18161E+08
 
   -0.22162E+08        -0.12034E+06         0.00000E+00
   -0.12034E+06        -0.47471E+08         0.00000E+00
    0.00000E+00         0.00000E+00        -0.15610E+08
 
   -0.21691E+08        -0.27399E+06         0.00000E+00
   -0.27399E+06        -0.47473E+08         0.00000E+00
    0.00000E+00         0.00000E+00        -0.15899E+08
 
   -0.21250E+08        -0.33720E+06         0.00000E+00
   -0.33720E+06        -0.47456E+08         0.00000E+00
    0.00000E+00         0.00000E+00        -0.16166E+08
 
   -0.20853E+08        -0.33825E+06         0.00000E+00
   -0.33825E+06        -0.47416E+08         0.00000E+00
    0.00000E+00         0.00000E+00        -0.16391E+08
 
   -0.20508E+08        -0.30398E+06         0.00000E+00
   -0.30398E+06        -0.47362E+08         0.00000E+00
    0.00000E+00         0.00000E+00        -0.16574E+08
 
   -0.20212E+08        -0.25153E+06         0.00000E+00
   -0.25153E+06        -0.47306E+08         0.00000E+00
    0.00000E+00         0.00000E+00        -0.16728E+08
 
   -0.19956E+08        -0.18894E+06         0.00000E+00
   -0.18894E+06        -0.47258E+08         0.00000E+00
    0.00000E+00         0.00000E+00        -0.16867E+08
 
   -0.19730E+08        -0.11917E+06         0.00000E+00
   -0.11917E+06        -0.47223E+08         0.00000E+00
    0.00000E+00         0.00000E+00        -0.17003E+08
 
   -0.19527E+08        -0.42540E+05         0.00000E+00
   -0.42540E+05        -0.47206E+08         0.00000E+00
    0.00000E+00         0.00000E+00        -0.17147E+08
 
   -0.19339E+08         0.42596E+05         0.00000E+00
    0.42596E+05        -0.47210E+08         0.00000E+00
    0.00000E+00         0.00000E+00        -0.17308E+08
 
   -0.19164E+08         0.14027E+06         0.00000E+00
    0.14027E+06        -0.47239E+08         0.00000E+00
    0.00000E+00         0.00000E+00        -0.17497E+08
 
   -0.18997E+08         0.25740E+06         0.00000E+00
    0.25740E+06        -0.47297E+08         0.00000E+00
    0.00000E+00         0.00000E+00        -0.17720E+08
 
   -0.18844E+08         0.40356E+06         0.00000E+00
    0.40356E+06        -0.47386E+08         0.00000E+00
    0.00000E+00         0.00000E+00        -0.17980E+08
 
   -0.18708E+08         0.58942E+06         0.00000E+00
    0.58942E+06        -0.47498E+08         0.00000E+00
    0.00000E+00         0.00000E+00        -0.18267E+08
 
   -0.18641E+08         0.83398E+06         0.00000E+00
    0.83398E+06        -0.47625E+08         0.00000E+00
    0.00000E+00         0.00000E+00        -0.18526E+08
 
   -0.23098E+08        -0.12715E+06         0.00000E+00
   -0.12715E+06        -0.48197E+08         0.00000E+00
    0.00000E+00         0.00000E+00        -0.15823E+08
 
   -0.22513E+08        -0.26391E+06         0.00000E+00
   -0.26391E+06        -0.48187E+08         0.00000E+00
    0.00000E+00         0.00000E+00        -0.16149E+08
 
   -0.21994E+08        -0.29693E+06         0.00000E+00
   -0.29693E+06        -0.48137E+08         0.00000E+00
    0.00000E+00         0.00000E+00        -0.16417E+08
 
   -0.21556E+08        -0.27842E+06         0.00000E+00
   -0.27842E+06        -0.48060E+08         0.00000E+00
    0.00000E+00         0.00000E+00        -0.16619E+08
 
   -0.21193E+08        -0.24045E+06         0.00000E+00
   -0.24045E+06        -0.47977E+08         0.00000E+00
    0.00000E+00         0.00000E+00        -0.16774E+08
 
   -0.20888E+08        -0.19469E+06         0.00000E+00
   -0.19469E+06        -0.47901E+08         0.00000E+00
    0.00000E+00         0.00000E+00        -0.16905E+08
 
   -0.20626E+08        -0.14481E+06         0.00000E+00
   -0.14481E+06        -0.47838E+08         0.00000E+00
    0.00000E+00         0.00000E+00        -0.17024E+08
 
   -0.20397E+08        -0.91780E+05         0.00000E+00
   -0.91780E+05        -0.47792E+08         0.00000E+00
    0.00000E+00         0.00000E+00        -0.17145E+08
 
   -0.20188E+08        -0.35253E+05         0.00000E+00
   -0.35253E+05        -0.47766E+08         0.00000E+00
    0.00000E+00         0.00000E+00        -0.17277E+08
 
   -0.19994E+08         0.26236E+05         0.00000E+00
    0.26236E+05        -0.47764E+08         0.00000E+00
    0.00000E+00         0.00000E+00        -0.17431E+08
 
   -0.19805E+08         0.95632E+05         0.00000E+00
    0.95632E+05        -0.47788E+08         0.00000E+00
    0.00000E+00         0.00000E+00        -0.17616E+08
 
   -0.19616E+08         0.17938E+06         0.00000E+00
    0.17938E+06        -0.47844E+08         0.00000E+00
    0.00000E+00         0.00000E+00        -0.17848E+08
 
   -0.19424E+08         0.29102E+06         0.00000E+00
    0.29102E+06        -0.47938E+08         0.00000E+00
    0.00000E+00         0.00000E+00        -0.18138E+08
 
   -0.19237E+08         0.45115E+06         0.00000E+00
    0.45115E+06        -0.48076E+08         0.00000E+00
    0.00000E+00         0.00000E+00        -0.18495E+08
 
   -0.19078E+08         0.67761E+06         0.00000E+00
    0.67761E+06        -0.48237E+08         0.00000E+00
    0.00000E+00         0.00000E+00        -0.18876E+08
 
   -0.24025E+08        -0.12845E+06         0.00000E+00
   -0.12845E+06        -0.48919E+08         0.00000E+00
    0.00000E+00         0.00000E+00        -0.16049E+08
 
   -0.23298E+08        -0.21670E+06         0.00000E+00
   -0.21670E+06        -0.48871E+08         0.00000E+00
    0.00000E+00         0.00000E+00        -0.16398E+08
 
   -0.22711E+08        -0.20996E+06         0.00000E+00
   -0.20996E+06        -0.48764E+08         0.00000E+00
    0.00000E+00         0.00000E+00        -0.16632E+08
 
   -0.22254E+08        -0.18383E+06         0.00000E+00
   -0.18383E+06        -0.48648E+08         0.00000E+00
    0.00000E+00         0.00000E+00        -0.16795E+08
 
   -0.21885E+08        -0.15354E+06         0.00000E+00
   -0.15354E+06        -0.48542E+08         0.00000E+00
    0.00000E+00         0.00000E+00        -0.16922E+08
 
   -0.21579E+08        -0.12203E+06         0.00000E+00
   -0.12203E+06        -0.48452E+08         0.00000E+00
    0.00000E+00         0.00000E+00        -0.17031E+08
 
   -0.21317E+08        -0.89733E+05         0.00000E+00
   -0.89733E+05        -0.48381E+08         0.00000E+00
    0.00000E+00         0.00000E+00        -0.17135E+08
 
   -0.21086E+08        -0.56405E+05         0.00000E+00
   -0.56405E+05        -0.48331E+08         0.00000E+00
    0.00000E+00         0.00000E+00        -0.17245E+08
 
   -0.20877E+08        -0.21611E+05         0.00000E+00
   -0.21611E+05        -0.48302E+08         0.00000E+00
    0.00000E+00         0.00000E+00        -0.17368E+08
 
   -0.20679E+08         0.15501E+05         0.00000E+00
    0.15501E+05        -0.48297E+08         0.00000E+00
    0.00000E+00         0.00000E+00        -0.17514E+08
 
   -0.20483E+08         0.56392E+05         0.00000E+00
    0.56392E+05        -0.48319E+08         0.00000E+00
    0.00000E+00         0.00000E+00        -0.17694E+08
 
   -0.20279E+08         0.10475E+06         0.00000E+00
    0.10475E+06        -0.48371E+08         0.00000E+00
    0.00000E+00         0.00000E+00        -0.17924E+08
 
   -0.20054E+08         0.16985E+06         0.00000E+00
    0.16985E+06        -0.48463E+08         0.00000E+00
    0.00000E+00         0.00000E+00        -0.18228E+08
 
   -0.19794E+08         0.27810E+06         0.00000E+00
    0.27810E+06        -0.48609E+08         0.00000E+00
    0.00000E+00         0.00000E+00        -0.18644E+08
 
   -0.19518E+08         0.48666E+06         0.00000E+00
    0.48666E+06        -0.48833E+08         0.00000E+00
    0.00000E+00         0.00000E+00        -0.19204E+08
 
   -0.24904E+08        -0.92458E+05         0.00000E+00
   -0.92458E+05        -0.49598E+08         0.00000E+00
    0.00000E+00         0.00000E+00        -0.16271E+08
 
   -0.24019E+08        -0.90781E+05         0.00000E+00
   -0.90781E+05        -0.49445E+08         0.00000E+00
    0.00000E+00         0.00000E+00        -0.16576E+08
 
   -0.23417E+08        -0.76442E+05         0.00000E+00
   -0.76442E+05        -0.49292E+08         0.00000E+00
    0.00000E+00         0.00000E+00        -0.16759E+08
 
   -0.22960E+08        -0.64255E+05         0.00000E+00
   -0.64255E+05        -0.49157E+08         0.00000E+00
    0.00000E+00         0.00000E+00        -0.16891E+08
 
   -0.22593E+08        -0.52668E+05         0.00000E+00
   -0.52668E+05        -0.49043E+08         0.00000E+00
    0.00000E+00         0.00000E+00        -0.16999E+08
 
   -0.22289E+08        -0.41417E+05         0.00000E+00
   -0.41417E+05        -0.48951E+08         0.00000E+00
    0.00000E+00         0.00000E+00        -0.17097E+08
 
   -0.22029E+08        -0.30197E+05         0.00000E+00
   -0.30197E+05        -0.48880E+08         0.00000E+00
    0.00000E+00         0.00000E+00        -0.17193E+08
 
   -0.21800E+08        -0.18806E+05         0.00000E+00
   -0.18806E+05        -0.48832E+08         0.00000E+00
    0.00000E+00         0.00000E+00        -0.17298E+08
 
   -0.21591E+08        -0.69943E+04         0.00000E+00
   -0.69943E+04        -0.48807E+08         0.00000E+00
    0.00000E+00         0.00000E+00        -0.17417E+08
 
   -0.21393E+08         0.54609E+04         0.00000E+00
    0.54609E+04        -0.48806E+08         0.00000E+00
    0.00000E+00         0.00000E+00        -0.17561E+08
 
   -0.21196E+08         0.18937E+05         0.00000E+00
    0.18937E+05        -0.48832E+08         0.00000E+00
    0.00000E+00         0.00000E+00        -0.17738E+08
 
   -0.20986E+08         0.34423E+05         0.00000E+00
    0.34423E+05        -0.48888E+08         0.00000E+00
    0.00000E+00         0.00000E+00        -0.17966E+08
 
   -0.20743E+08         0.54412E+05         0.00000E+00
    0.54412E+05        -0.48981E+08         0.00000E+00
    0.00000E+00         0.00000E+00        -0.18272E+08
 
   -0.20430E+08         0.89469E+05         0.00000E+00
    0.89469E+05        -0.49131E+08         0.00000E+00
    0.00000E+00         0.00000E+00        -0.18721E+08
 
   -0.19959E+08         0.19159E+06         0.00000E+00
    0.19159E+06        -0.49383E+08         0.00000E+00
    0.00000E+00         0.00000E+00        -0.19476E+08
 
TENSORS stresstot double 
   -0.34031E+08         0.24975E+04         0.00000E+00
    0.24975E+04        -0.59995E+08         0.00000E+00
    0.00000E+00         0.00000E+00        -0.36203E+08
 
   -0.33956E+08         0.77080E+04         0.00000E+00
    0.77080E+04        -0.59985E+08         0.00000E+00
    0.00000E+00         0.00000E+00        -0.36279E+08
 
   -0.33896E+08         0.12829E+05         0.00000E+00
    0.12829E+05        -0.59965E+08         0.00000E+00
    0.00000E+00         0.00000E+00        -0.36321E+08
 
   -0.33858E+08         0.17472E+05         0.00000E+00
    0.17472E+05        -0.59935E+08         0.00000E+00
    0.00000E+00         0.00000E+00        -0.36321E+08
 
   -0.33846E+08         0.21204E+05         0.00000E+00
    0.21204E+05        -0.59896E+08         0.00000E+00
    0.00000E+00         0.00000E+00        -0.36274E+08
 
   -0.33865E+08         0.23810E+05         0.00000E+00
    0.23810E+05        -0.59852E+08         0.00000E+00
    0.00000E+00         0.00000E+00        -0.36180E+08
 
   -0.33912E+08         0.25626E+05         0.00000E+00
    0.25626E+05        -0.59803E+08         0.00000E+00
    0.00000E+00         0.00000E+00        -0.36045E+08
 
   -0.33983E+08         0.26915E+05         0.00000E+00
    0.26915E+05        -0.59751E+08         0.00000E+00
    0.00000E+00         0.00000E+00        -0.35880E+08
 
   -0.34069E+08         0.28057E+05         0.00000E+00
    0.28057E+05        -0.59697E+08         0.00000E+00
    0.00000E+00         0.00000E+00        -0.35695E+08
 
   -0.34163E+08         0.29362E+05         0.00000E+00
    0.29362E+05        -0.59640E+08         0.00000E+00
    0.00000E+00         0.00000E+00        -0.35503E+08
 
   -0.34257E+08         0.31003E+05         0.00000E+00
    0.31003E+05        -0.59580E+08         0.00000E+00
    0.00000E+00         0.00000E+00        -0.35311E+08
 
   -0.34346E+08         0.33011E+05         0.00000E+00
    0.33011E+05        -0.59517E+08         0.00000E+00
    0.00000E+00         0.00000E+00        -0.35124E+08
 
   -0.34424E+08         0.35334E+05         0.00000E+00
    0.35334E+05        -0.59449E+08         0.00000E+00
    0.00000E+00         0.00000E+00        -0.34947E+08
 
   -0.34488E+08         0.37873E+05         0.00000E+00
    0.37873E+05        -0.59375E+08         0.00000E+00
    0.00000E+00         0.00000E+00        -0.34780E+08
 
   -0.34535E+08         0.40482E+05         0.00000E+00
    0.40482E+05        -0.59297E+08         0.00000E+00
    0.00000E+00         0.00000E+00        -0.34628E+08
 
   -0.34020E+08         0.74788E+04         0.00000E+00
    0.74788E+04        -0.59995E+08         0.00000E+00
    0.00000E+00         0.00000E+00        -0.36185E+08
 
   -0.33946E+08         0.23082E+05         0.00000E+00
    0.23082E+05        -0.59985E+08         0.00000E+00
    0.00000E+00         0.00000E+00        -0.36260E+08
 
   -0.33887E+08         0.38331E+05         0.00000E+00
    0.38331E+05        -0.59965E+08         0.00000E+00
    0.00000E+00         0.00000E+00        -0.36302E+08
 
   -0.33849E+08         0.52052E+05         0.00000E+00
    0.52052E+05        -0.59935E+08         0.00000E+00
    0.00000E+00         0.00000E+00        -0.36302E+08
 
   -0.33840E+08         0.62974E+05         0.00000E+00
    0.62974E+05        -0.59898E+08         0.00000E+00
    0.00000E+00         0.00000E+00        -0.36253E+08
 
   -0.33861E+08         0.70602E+05         0.00000E+00
    0.70602E+05        -0.59855E+08         0.00000E+00
    0.00000E+00         0.00000E+00        -0.36159E+08
 
   -0.33909E+08         0.75977E+05         0.00000E+00
    0.75977E+05        -0.59808E+08         0.00000E+00
    0.00000E+00         0.00000E+00        -0.36026E+08
 
   -0.33981E+08         0.79876E+05         0.00000E+00
    0.79876E+05        -0.59758E+08         0.00000E+00
    0.00000E+00         0.00000E+00        -0.35862E+08
 
   -0.34067E+08         0.83423E+05         0.00000E+00
    0.83423E+05        -0.59705E+08         0.00000E+00
    0.00000E+00         0.00000E+00        -0.35680E+08
 
   -0.34160E+08         0.87499E+05         0.00000E+00
    0.87499E+05        -0.59650E+08         0.00000E+00
    0.00000E+00         0.00000E+00        -0.35490E+08
 
   -0.34254E+08         0.92568E+05         0.00000E+00
    0.92568E+05        -0.59591E+08         0.00000E+00
    0.00000E+00         0.00000E+00        -0.35301E+08
 
   -0.34341E+08         0.98731E+05         0.00000E+00
    0.98731E+05        -0.59528E+08         0.00000E+00
    0.00000E+00         0.00000E+00        -0.35116E+08
 
   -0.34419E+08         0.10580E+06         0.00000E+00
    0.10580E+06        -0.59460E+08         0.00000E+00
    0.00000E+00         0.00000E+00        -0.34940E+08
 
   -0.34483E+08         0.11349E+06         0.00000E+00
    0.11349E+06        -0.59388E+08         0.00000E+00
    0.00000E+00         0.00000E+00        -0.34775E+08
 
   -0.34530E+08         0.12138E+06         0.00000E+00
    0.12138E+06        -0.59310E+08         0.00000E+00
    0.00000E+00         0.00000E+00        -0.34622E+08
 
   -0.34000E+08         0.12427E+05         0.00000E+00
    0.12427E+05        -0.59995E+08         0.00000E+00
    0.00000E+00         0.00000E+00        -0.36147E+08
 
   -0.33925E+08         0.38270E+05         0.00000E+00
    0.38270E+05        -0.59985E+08         0.00000E+00
    0.00000E+00         0.00000E+00        -0.36223E+08
 
   -0.33867E+08         0.63351E+05         0.00000E+00
    0.63351E+05        -0.59965E+08         0.00000E+00
    0.00000E+00         0.00000E+00        -0.36264E+08
 
   -0.33832E+08         0.85474E+05         0.00000E+00
    0.85474E+05        -0.59937E+08         0.00000E+00
    0.00000E+00         0.00000E+00        -0.36262E+08
 
   -0.33828E+08         0.10277E+06         0.00000E+00
    0.10277E+06        -0.59902E+08         0.00000E+00
    0.00000E+00         0.00000E+00        -0.36212E+08
 
   -0.33852E+08         0.11497E+06         0.00000E+00
    0.11497E+06        -0.59862E+08         0.00000E+00
    0.00000E+00         0.00000E+00        -0.36118E+08
 
   -0.33903E+08         0.12368E+06         0.00000E+00
    0.12368E+06        -0.59819E+08         0.00000E+00
    0.00000E+00         0.00000E+00        -0.35987E+08
 
   -0.33976E+08         0.13030E+06         0.00000E+00
    0.13030E+06        -0.59772E+08         0.00000E+00
    0.00000E+00         0.00000E+00        -0.35828E+08
 
   -0.34062E+08         0.13663E+06         0.00000E+00
    0.13663E+06        -0.59722E+08         0.00000E+00
    0.00000E+00         0.00000E+00        -0.35651E+08
 
   -0.34154E+08         0.14393E+06         0.00000E+00
    0.14393E+06        -0.59669E+08         0.00000E+00
    0.00000E+00         0.00000E+00        -0.35466E+08
 
   -0.34246E+08         0.15286E+06         0.00000E+00
    0.15286E+06        -0.59612E+08         0.00000E+00
    0.00000E+00         0.00000E+00        -0.35281E+08
 
   -0.34332E+08         0.16353E+06         0.00000E+00
    0.16353E+06        -0.59551E+08         0.00000E+00
    0.00000E+00         0.00000E+00        -0.35100E+08
 
   -0.34409E+08         0.17567E+06         0.00000E+00
    0.17567E+06        -0.59484E+08         0.00000E+00
    0.00000E+00         0.00000E+00        -0.34927E+08
 
   -0.34472E+08         0.18872E+06         0.00000E+00
    0.18872E+06        -0.59412E+08         0.00000E+00
    0.00000E+00         0.00000E+00        -0.34764E+08
 
   -0.34519E+08         0.20207E+06         0.00000E+00
    0.20207E+06        -0.59334E+08         0.00000E+00
    0.00000E+00         0.00000E+00        -0.34612E+08
 
   -0.33969E+08         0.17347E+05         0.00000E+00
    0.17347E+05        -0.59995E+08         0.00000E+00
    0.00000E+00         0.00000E+00        -0.36091E+08
 
   -0.33894E+08         0.53098E+05         0.00000E+00
    0.53098E+05        -0.59985E+08         0.00000E+00
    0.00000E+00         0.00000E+00        -0.36168E+08
 
   -0.33839E+08         0.87343E+05         0.00000E+00
    0.87343E+05        -0.59966E+08         0.00000E+00
    0.00000E+00         0.00000E+00        -0.36208E+08
 
   -0.33809E+08         0.11678E+06         0.00000E+00
    0.11678E+06        -0.59940E+08         0.00000E+00
    0.00000E+00         0.00000E+00        -0.36202E+08
 
   -0.33811E+08         0.13921E+06         0.00000E+00
    0.13921E+06        -0.59909E+08         0.00000E+00
    0.00000E+00         0.00000E+00        -0.36150E+08
 
   -0.33840E+08         0.15535E+06         0.00000E+00
    0.15535E+06        -0.59873E+08         0.00000E+00
    0.00000E+00         0.00000E+00        -0.36057E+08
 
   -0.33895E+08         0.16714E+06         0.00000E+00
    0.16714E+06        -0.59834E+08         0.00000E+00
    0.00000E+00         0.00000E+00        -0.35930E+08
 
   -0.33968E+08         0.17678E+06         0.00000E+00
    0.17678E+06        -0.59792E+08         0.00000E+00
    0.00000E+00         0.00000E+00        -0.35777E+08
 
   -0.34054E+08         0.18647E+06         0.00000E+00
    0.18647E+06        -0.59747E+08         0.00000E+00
    0.00000E+00         0.00000E+00        -0.35607E+08
 
   -0.34144E+08         0.19770E+06         0.00000E+00
    0.19770E+06        -0.59697E+08         0.00000E+00
    0.00000E+00         0.00000E+00        -0.35430E+08
 
   -0.34234E+08         0.21112E+06         0.00000E+00
    0.21112E+06        -0.59643E+08         0.00000E+00
    0.00000E+00         0.00000E+00        -0.35252E+08
 
   -0.34319E+08         0.22685E+06         0.00000E+00
    0.22685E+06        -0.59584E+08         0.00000E+00
    0.00000E+00         0.00000E+00        -0.35076E+08
 
   -0.34393E+08         0.24447E+06         0.00000E+00
    0.24447E+06        -0.59518E+08         0.00000E+00
    0.00000E+00         0.00000E+00        -0.34907E+08
 
   -0.34456E+08         0.26328E+06         0.00000E+00
    0.26328E+06        -0.59447E+08         0.00000E+00
    0.00000E+00         0.00000E+00        -0.34746E+08
 
   -0.34504E+08         0.28236E+06         0.00000E+00
    0.28236E+06        -0.59370E+08         0.00000E+00
    0.00000E+00         0.00000E+00        -0.34596E+08
 
   -0.33929E+08         0.22157E+05         0.00000E+00
    0.22157E+05        -0.59994E+08         0.00000E+00
    0.00000E+00         0.00000E+00        -0.36017E+08
 
   -0.33854E+08         0.67349E+05         0.00000E+00
    0.67349E+05        -0.59985E+08         0.00000E+00
    0.00000E+00         0.00000E+00        -0.36094E+08
 
   -0.33802E+08         0.10956E+06         0.00000E+00
    0.10956E+06        -0.59968E+08         0.00000E+00
    0.00000E+00         0.00000E+00        -0.36131E+08
 
   -0.33781E+08         0.14468E+06         0.00000E+00
    0.14468E+06        -0.59946E+08         0.00000E+00
    0.00000E+00         0.00000E+00        -0.36121E+08
 
   -0.33789E+08         0.17097E+06         0.00000E+00
    0.17097E+06        -0.59919E+08         0.00000E+00
    0.00000E+00         0.00000E+00        -0.36068E+08
 
   -0.33825E+08         0.19032E+06         0.00000E+00
    0.19032E+06        -0.59889E+08         0.00000E+00
    0.00000E+00         0.00000E+00        -0.35977E+08
 
   -0.33883E+08         0.20504E+06         0.00000E+00
    0.20504E+06        -0.59856E+08         0.00000E+00
    0.00000E+00         0.00000E+00        -0.35855E+08
 
   -0.33957E+08         0.21822E+06         0.00000E+00
    0.21822E+06        -0.59820E+08         0.00000E+00
    0.00000E+00         0.00000E+00        -0.35710E+08
 
   -0.34042E+08         0.23202E+06         0.00000E+00
    0.23202E+06        -0.59780E+08         0.00000E+00
    0.00000E+00         0.00000E+00        -0.35550E+08
 
   -0.34130E+08         0.24799E+06         0.00000E+00
    0.24799E+06        -0.59734E+08         0.00000E+00
    0.00000E+00         0.00000E+00        -0.35382E+08
 
   -0.34217E+08         0.26670E+06         0.00000E+00
    0.26670E+06        -0.59683E+08         0.00000E+00
    0.00000E+00         0.00000E+00        -0.35212E+08
 
   -0.34299E+08         0.28815E+06         0.00000E+00
    0.28815E+06        -0.59626E+08         0.00000E+00
    0.00000E+00         0.00000E+00        -0.35044E+08
 
   -0.34372E+08         0.31178E+06         0.00000E+00
    0.31178E+06        -0.59563E+08         0.00000E+00
    0.00000E+00         0.00000E+00        -0.34880E+08
 
   -0.34434E+08         0.33678E+06         0.00000E+00
    0.33678E+06        -0.59494E+08         0.00000E+00
    0.00000E+00         0.00000E+00        -0.34723E+08
 
   -0.34482E+08         0.36208E+06         0.00000E+00
    0.36208E+06        -0.59418E+08         0.00000E+00
    0.00000E+00         0.00000E+00        -0.34574E+08
 
   -0.33879E+08         0.26804E+05         0.00000E+00
    0.26804E+05        -0.59994E+08         0.00000E+00
    0.00000E+00         0.00000E+00        -0.35925E+08
 
   -0.33805E+08         0.80472E+05         0.00000E+00
    0.80472E+05        -0.59986E+08         0.00000E+00
    0.00000E+00         0.00000E+00        -0.36001E+08
 
   -0.33760E+08         0.12903E+06         0.00000E+00
    0.12903E+06        -0.59972E+08         0.00000E+00
    0.00000E+00         0.00000E+00        -0.36034E+08
 
   -0.33748E+08         0.16777E+06         0.00000E+00
    0.16777E+06        -0.59953E+08         0.00000E+00
    0.00000E+00         0.00000E+00        -0.36020E+08
 
   -0.33765E+08         0.19678E+06         0.00000E+00
    0.19678E+06        -0.59933E+08         0.00000E+00
    0.00000E+00         0.00000E+00        -0.35965E+08
 
   -0.33807E+08         0.21858E+06         0.00000E+00
    0.21858E+06        -0.59910E+08         0.00000E+00
    0.00000E+00         0.00000E+00        -0.35877E+08
 
   -0.33867E+08         0.23655E+06         0.00000E+00
    0.23655E+06        -0.59884E+08         0.00000E+00
    0.00000E+00         0.00000E+00        -0.35763E+08
 
   -0.33942E+08         0.25386E+06         0.00000E+00
    0.25386E+06        -0.59854E+08         0.00000E+00
    0.00000E+00         0.00000E+00        -0.35628E+08
 
   -0.34025E+08         0.27260E+06         0.00000E+00
    0.27260E+06        -0.59819E+08         0.00000E+00
    0.00000E+00         0.00000E+00        -0.35479E+08
 
   -0.34110E+08         0.29417E+06         0.00000E+00
    0.29417E+06        -0.59779E+08         0.00000E+00
    0.00000E+00         0.00000E+00        -0.35323E+08
 
   -0.34194E+08         0.31898E+06         0.00000E+00
    0.31898E+06        -0.59732E+08         0.00000E+00
    0.00000E+00         0.00000E+00        -0.35163E+08
 
   -0.34273E+08         0.34686E+06         0.00000E+00
    0.34686E+06        -0.59678E+08         0.00000E+00
    0.00000E+00         0.00000E+00        -0.35003E+08
 
   -0.34345E+08         0.37718E+06         0.00000E+00
    0.37718E+06        -0.59617E+08         0.00000E+00
    0.00000E+00         0.00000E+00        -0.34845E+08
 
   -0.34406E+08         0.40890E+06         0.00000E+00
    0.40890E+06        -0.59550E+08         0.00000E+00
    0.00000E+00         0.00000E+00        -0.34692E+08
 
   -0.34454E+08         0.44101E+06         0.00000E+00
    0.44101E+06        -0.59475E+08         0.00000E+00
    0.00000E+00         0.00000E+00        -0.34546E+08
 
   -0.33820E+08         0.31056E+05         0.00000E+00
    0.31056E+05        -0.59995E+08         0.00000E+00
    0.00000E+00         0.00000E+00        -0.35814E+08
 
   -0.33750E+08         0.91868E+05         0.00000E+00
    0.91868E+05        -0.59988E+08         0.00000E+00
    0.00000E+00         0.00000E+00        -0.35889E+08
 
   -0.33714E+08         0.14429E+06         0.00000E+00
    0.14429E+06        -0.59977E+08         0.00000E+00
    0.00000E+00         0.00000E+00        -0.35915E+08
 
   -0.33713E+08         0.18482E+06         0.00000E+00
    0.18482E+06        -0.59965E+08         0.00000E+00
    0.00000E+00         0.00000E+00        -0.35896E+08
 
   -0.33740E+08         0.21526E+06         0.00000E+00
    0.21526E+06        -0.59951E+08         0.00000E+00
    0.00000E+00         0.00000E+00        -0.35841E+08
 
   -0.33786E+08         0.23950E+06         0.00000E+00
    0.23950E+06        -0.59936E+08         0.00000E+00
    0.00000E+00         0.00000E+00        -0.35759E+08
 
   -0.33848E+08         0.26121E+06         0.00000E+00
    0.26121E+06        -0.59917E+08         0.00000E+00
    0.00000E+00         0.00000E+00        -0.35654E+08
 
   -0.33922E+08         0.28328E+06         0.00000E+00
    0.28328E+06        -0.59894E+08         0.00000E+00
    0.00000E+00         0.00000E+00        -0.35531E+08
 
   -0.34002E+08         0.30773E+06         0.00000E+00
    0.30773E+06        -0.59865E+08         0.00000E+00
    0.00000E+00         0.00000E+00        -0.35396E+08
 
   -0.34084E+08         0.33570E+06         0.00000E+00
    0.33570E+06        -0.59830E+08         0.00000E+00
    0.00000E+00         0.00000E+00        -0.35252E+08
 
   -0.34165E+08         0.36742E+06         0.00000E+00
    0.36742E+06        -0.59787E+08         0.00000E+00
    0.00000E+00         0.00000E+00        -0.35103E+08
 
   -0.34241E+08         0.40252E+06         0.00000E+00
    0.40252E+06        -0.59737E+08         0.00000E+00
    0.00000E+00         0.00000E+00        -0.34952E+08
 
   -0.34310E+08         0.44018E+06         0.00000E+00
    0.44018E+06        -0.59679E+08         0.00000E+00
    0.00000E+00         0.00000E+00        -0.34802E+08
 
   -0.34370E+08         0.47944E+06         0.00000E+00
    0.47944E+06        -0.59614E+08         0.00000E+00
    0.00000E+00         0.00000E+00        -0.34654E+08
 
   -0.34419E+08         0.51870E+06         0.00000E+00
    0.51870E+06        -0.59541E+08         0.00000E+00
    0.00000E+00         0.00000E+00        -0.34510E+08
 
   -0.33753E+08         0.34649E+05         0.00000E+00
    0.34649E+05        -0.59995E+08         0.00000E+00
    0.00000E+00         0.00000E+00        -0.35685E+08
 
   -0.33690E+08         0.10044E+06         0.00000E+00
    0.10044E+06        -0.59991E+08         0.00000E+00
    0.00000E+00         0.00000E+00        -0.35754E+08
 
   -0.33666E+08         0.15400E+06         0.00000E+00
    0.15400E+06        -0.59985E+08         0.00000E+00
    0.00000E+00         0.00000E+00        -0.35772E+08
 
   -0.33678E+08         0.19438E+06         0.00000E+00
    0.19438E+06        -0.59980E+08         0.00000E+00
    0.00000E+00         0.00000E+00        -0.35749E+08
 
   -0.33712E+08         0.22582E+06         0.00000E+00
    0.22582E+06        -0.59974E+08         0.00000E+00
    0.00000E+00         0.00000E+00        -0.35697E+08
 
   -0.33762E+08         0.25284E+06         0.00000E+00
    0.25284E+06        -0.59966E+08         0.00000E+00
    0.00000E+00         0.00000E+00        -0.35622E+08
 
   -0.33825E+08         0.27871E+06         0.00000E+00
    0.27871E+06        -0.59955E+08         0.00000E+00
    0.00000E+00         0.00000E+00        -0.35529E+08
 
   -0.33896E+08         0.30616E+06         0.00000E+00
    0.30616E+06        -0.59939E+08         0.00000E+00
    0.00000E+00         0.00000E+00        -0.35420E+08
 
   -0.33973E+08         0.33701E+06         0.00000E+00
    0.33701E+06        -0.59916E+08         0.00000E+00
    0.00000E+00         0.00000E+00        -0.35299E+08
 
   -0.34051E+08         0.37212E+06         0.00000E+00
    0.37212E+06        -0.59886E+08         0.00000E+00
    0.00000E+00         0.00000E+00        -0.35169E+08
 
   -0.34128E+08         0.41149E+06         0.00000E+00
    0.41149E+06        -0.59849E+08         0.00000E+00
    0.00000E+00         0.00000E+00        -0.35033E+08
 
   -0.34201E+08         0.45461E+06         0.00000E+00
    0.45461E+06        -0.59803E+08         0.00000E+00
    0.00000E+00         0.00000E+00        -0.34892E+08
 
   -0.34268E+08         0.50052E+06         0.00000E+00
    0.50052E+06        -0.59749E+08         0.00000E+00
    0.00000E+00         0.00000E+00        -0.34750E+08
 
   -0.34327E+08         0.54778E+06         0.00000E+00
    0.54778E+06        -0.59686E+08         0.00000E+00
    0.00000E+00         0.00000E+00        -0.34608E+08
 
   -0.34376E+08         0.59521E+06         0.00000E+00
    0.59521E+06        -0.59614E+08         0.00000E+00
    0.00000E+00         0.00000E+00        -0.34467E+08
 
   -0.33681E+08         0.37280E+05         0.00000E+00
    0.37280E+05        -0.59996E+08         0.00000E+00
    0.00000E+00         0.00000E+00        -0.35534E+08
 
   -0.33627E+08         0.10475E+06         0.00000E+00
    0.10475E+06        -0.59995E+08         0.00000E+00
    0.00000E+00         0.00000E+00        -0.35597E+08
 
   -0.33620E+08         0.15658E+06         0.00000E+00
    0.15658E+06        -0.59996E+08         0.00000E+00
    0.00000E+00         0.00000E+00        -0.35604E+08
 
   -0.33642E+08         0.19591E+06         0.00000E+00
    0.19591E+06        -0.59998E+08         0.00000E+00
    0.00000E+00         0.00000E+00        -0.35579E+08
 
   -0.33682E+08         0.22854E+06         0.00000E+00
    0.22854E+06        -0.60000E+08         0.00000E+00
    0.00000E+00         0.00000E+00        -0.35532E+08
 
   -0.33734E+08         0.25849E+06         0.00000E+00
    0.25849E+06        -0.60000E+08         0.00000E+00
    0.00000E+00         0.00000E+00        -0.35468E+08
 
   -0.33796E+08         0.28887E+06         0.00000E+00
    0.28887E+06        -0.59996E+08         0.00000E+00
    0.00000E+00         0.00000E+00        -0.35388E+08
 
   -0.33865E+08         0.32221E+06         0.00000E+00
    0.32221E+06        -0.59987E+08         0.00000E+00
    0.00000E+00         0.00000E+00        -0.35294E+08
 
   -0.33937E+08         0.36004E+06         0.00000E+00
    0.36004E+06        -0.59971E+08         0.00000E+00
    0.00000E+00         0.00000E+00        -0.35189E+08
 
   -0.34010E+08         0.40294E+06         0.00000E+00
    0.40294E+06        -0.59947E+08         0.00000E+00
    0.00000E+00         0.00000E+00        -0.35074E+08
 
   -0.34082E+08         0.45078E+06         0.00000E+00
    0.45078E+06        -0.59915E+08         0.00000E+00
    0.00000E+00         0.00000E+00        -0.34951E+08
 
   -0.34152E+08         0.50273E+06         0.00000E+00
    0.50273E+06        -0.59874E+08         0.00000E+00
    0.00000E+00         0.00000E+00        -0.34823E+08
 
   -0.34217E+08         0.55758E+06         0.00000E+00
    0.55758E+06        -0.59824E+08         0.00000E+00
    0.00000E+00         0.00000E+00        -0.34689E+08
 
   -0.34275E+08         0.61393E+06         0.00000E+00
    0.61393E+06        -0.59764E+08         0.00000E+00
    0.00000E+00         0.00000E+00        -0.34553E+08
 
   -0.34325E+08         0.66991E+06         0.00000E+00
    0.66991E+06        -0.59694E+08         0.00000E+00
    0.00000E+00         0.00000E+00        -0.34417E+08
 
   -0.33605E+08         0.38169E+05         0.00000E+00
    0.38169E+05        -0.59998E+08         0.00000E+00
    0.00000E+00         0.00000E+00        -0.35364E+08
 
   -0.33568E+08         0.10327E+06         0.00000E+00
    0.10327E+06        -0.60001E+08         0.00000E+00
    0.00000E+00         0.00000E+00        -0.35410E+08
 
   -0.33576E+08         0.15146E+06         0.00000E+00
    0.15146E+06        -0.60008E+08         0.00000E+00
    0.00000E+00         0.00000E+00        -0.35410E+08
 
   -0.33607E+08         0.18974E+06         0.00000E+00
    0.18974E+06        -0.60018E+08         0.00000E+00
    0.00000E+00         0.00000E+00        -0.35385E+08
 
   -0.33650E+08         0.22343E+06         0.00000E+00
    0.22343E+06        -0.60027E+08         0.00000E+00
    0.00000E+00         0.00000E+00        -0.35346E+08
 
   -0.33703E+08         0.25638E+06         0.00000E+00
    0.25638E+06        -0.60035E+08         0.00000E+00
    0.00000E+00         0.00000E+00        -0.35293E+08
 
   -0.33762E+08         0.29153E+06         0.00000E+00
    0.29153E+06        -0.60039E+08         0.00000E+00
    0.00000E+00         0.00000E+00        -0.35229E+08
 
   -0.33826E+08         0.33110E+06         0.00000E+00
    0.33110E+06        -0.60037E+08         0.00000E+00
    0.00000E+00         0.00000E+00        -0.35152E+08
 
   -0.33893E+08         0.37639E+06         0.00000E+00
    0.37639E+06        -0.60029E+08         0.00000E+00
    0.00000E+00         0.00000E+00        -0.35064E+08
 
   -0.33960E+08         0.42777E+06         0.00000E+00
    0.42777E+06        -0.60012E+08         0.00000E+00
    0.00000E+00         0.00000E+00        -0.34967E+08
 
   -0.34028E+08         0.48476E+06         0.00000E+00
    0.48476E+06        -0.59985E+08         0.00000E+00
    0.00000E+00         0.00000E+00        -0.34859E+08
 
   -0.34094E+08         0.54642E+06         0.00000E+00
    0.54642E+06        -0.59949E+08         0.00000E+00
    0.00000E+00         0.00000E+00        -0.34743E+08
 
   -0.34157E+08         0.61119E+06         0.00000E+00
    0.61119E+06        -0.59903E+08         0.00000E+00
    0.00000E+00         0.00000E+00        -0.34619E+08
 
   -0.34215E+08         0.67733E+06         0.00000E+00
    0.67733E+06        -0.59846E+08         0.00000E+00
    0.00000E+00         0.00000E+00        -0.34490E+08
 
   -0.34266E+08         0.74272E+06         0.00000E+00
    0.74272E+06        -0.59779E+08         0.00000E+00
    0.00000E+00         0.00000E+00        -0.34357E+08
 
   -0.33530E+08         0.36184E+05         0.00000E+00
    0.36184E+05        -0.60001E+08         0.00000E+00
    0.00000E+00         0.00000E+00        -0.35166E+08
 
   -0.33515E+08         0.95437E+05         0.00000E+00
    0.95437E+05        -0.60008E+08         0.00000E+00
    0.00000E+00         0.00000E+00        -0.35193E+08
 
   -0.33535E+08         0.13924E+06         0.00000E+00
    0.13924E+06        -0.60021E+08         0.00000E+00
    0.00000E+00         0.00000E+00        -0.35187E+08
 
   -0.33572E+08         0.17591E+06         0.00000E+00
    0.17591E+06        -0.60038E+08         0.00000E+00
    0.00000E+00         0.00000E+00        -0.35167E+08
 
   -0.33617E+08         0.21050E+06         0.00000E+00
    0.21050E+06        -0.60055E+08         0.00000E+00
    0.00000E+00         0.00000E+00        -0.35137E+08
 
   -0.33668E+08         0.24641E+06         0.00000E+00
    0.24641E+06        -0.60071E+08         0.00000E+00
    0.00000E+00         0.00000E+00        -0.35099E+08
 
   -0.33722E+08         0.28641E+06         0.00000E+00
    0.28641E+06        -0.60083E+08         0.00000E+00
    0.00000E+00         0.00000E+00        -0.35052E+08
 
   -0.33780E+08         0.33250E+06         0.00000E+00
    0.33250E+06        -0.60089E+08         0.00000E+00
    0.00000E+00         0.00000E+00        -0.34994E+08
 
   -0.33840E+08         0.38568E+06         0.00000E+00
    0.38568E+06        -0.60087E+08         0.00000E+00
    0.00000E+00         0.00000E+00        -0.34926E+08
 
   -0.33902E+08         0.44609E+06         0.00000E+00
    0.44609E+06        -0.60077E+08         0.00000E+00
    0.00000E+00         0.00000E+00        -0.34846E+08
 
   -0.33964E+08         0.51312E+06         0.00000E+00
    0.51312E+06        -0.60057E+08         0.00000E+00
    0.00000E+00         0.00000E+00        -0.34755E+08
 
   -0.34026E+08         0.58526E+06         0.00000E+00
    0.58526E+06        -0.60027E+08         0.00000E+00
    0.00000E+00         0.00000E+00        -0.34653E+08
 
   -0.34086E+08         0.66090E+06         0.00000E+00
    0.66090E+06        -0.59985E+08         0.00000E+00
    0.00000E+00         0.00000E+00        -0.34540E+08
 
   -0.34144E+08         0.73766E+06         0.00000E+00
    0.73766E+06        -0.59932E+08         0.00000E+00
    0.00000E+00         0.00000E+00        -0.34418E+08
 
   -0.34197E+08         0.81346E+06         0.00000E+00
    0.81346E+06        -0.59868E+08         0.00000E+00
    0.00000E+00         0.00000E+00        -0.34289E+08
 
   -0.33463E+08         0.30903E+05         0.00000E+00
    0.30903E+05        -0.60003E+08         0.00000E+00
    0.00000E+00         0.00000E+00        -0.34935E+08
 
   -0.33468E+08         0.81516E+05         0.00000E+00
    0.81516E+05        -0.60014E+08         0.00000E+00
    0.00000E+00         0.00000E+00        -0.34945E+08
 
   -0.33498E+08         0.12026E+06         0.00000E+00
    0.12026E+06        -0.60034E+08         0.00000E+00
    0.00000E+00         0.00000E+00        -0.34937E+08
 
   -0.33537E+08         0.15477E+06         0.00000E+00
    0.15477E+06        -0.60057E+08         0.00000E+00
    0.00000E+00         0.00000E+00        -0.34923E+08
 
   -0.33581E+08         0.18967E+06         0.00000E+00
    0.18967E+06        -0.60082E+08         0.00000E+00
    0.00000E+00         0.00000E+00        -0.34906E+08
 
   -0.33628E+08         0.22839E+06         0.00000E+00
    0.22839E+06        -0.60105E+08         0.00000E+00
    0.00000E+00         0.00000E+00        -0.34885E+08
 
   -0.33677E+08         0.27331E+06         0.00000E+00
    0.27331E+06        -0.60125E+08         0.00000E+00
    0.00000E+00         0.00000E+00        -0.34856E+08
 
   -0.33727E+08         0.32612E+06         0.00000E+00
    0.32612E+06        -0.60139E+08         0.00000E+00
    0.00000E+00         0.00000E+00        -0.34819E+08
 
   -0.33779E+08         0.38761E+06         0.00000E+00
    0.38761E+06        -0.60145E+08         0.00000E+00
    0.00000E+00         0.00000E+00        -0.34771E+08
 
   -0.33833E+08         0.45762E+06         0.00000E+00
    0.45762E+06        -0.60143E+08         0.00000E+00
    0.00000E+00         0.00000E+00        -0.34711E+08
 
   -0.33889E+08         0.53527E+06         0.00000E+00
    0.53527E+06        -0.60129E+08         0.00000E+00
    0.00000E+00         0.00000E+00        -0.34638E+08
 
   -0.33946E+08         0.61889E+06         0.00000E+00
    0.61889E+06        -0.60105E+08         0.00000E+00
    0.00000E+00         0.00000E+00        -0.34551E+08
 
   -0.34004E+08         0.70622E+06         0.00000E+00
    0.70622E+06        -0.60068E+08         0.00000E+00
    0.00000E+00         0.00000E+00        -0.34450E+08
 
   -0.34062E+08         0.79467E+06         0.00000E+00
    0.79467E+06        -0.60019E+08         0.00000E+00
    0.00000E+00         0.00000E+00        -0.34336E+08
 
   -0.34118E+08         0.88150E+06         0.00000E+00
    0.88150E+06        -0.59958E+08         0.00000E+00
    0.00000E+00         0.00000E+00        -0.34211E+08
 
   -0.33408E+08         0.22875E+05         0.00000E+00
    0.22875E+05        -0.60004E+08         0.00000E+00
    0.00000E+00         0.00000E+00        -0.34666E+08
 
   -0.33429E+08         0.62484E+05         0.00000E+00
    0.62484E+05        -0.60019E+08         0.00000E+00
    0.00000E+00         0.00000E+00        -0.34663E+08
 
   -0.33464E+08         0.94725E+05         0.00000E+00
    0.94725E+05        -0.60044E+08         0.00000E+00
    0.00000E+00         0.00000E+00        -0.34658E+08
 
   -0.33503E+08         0.12618E+06         0.00000E+00
    0.12618E+06        -0.60074E+08         0.00000E+00
    0.00000E+00         0.00000E+00        -0.34654E+08
 
   -0.33544E+08         0.16104E+06         0.00000E+00
    0.16104E+06        -0.60107E+08         0.00000E+00
    0.00000E+00         0.00000E+00        -0.34652E+08
 
   -0.33585E+08         0.20231E+06         0.00000E+00
    0.20231E+06        -0.60138E+08         0.00000E+00
    0.00000E+00         0.00000E+00        -0.34649E+08
 
   -0.33625E+08         0.25216E+06         0.00000E+00
    0.25216E+06        -0.60166E+08         0.00000E+00
    0.00000E+00         0.00000E+00        -0.34642E+08
 
   -0.33667E+08         0.31188E+06         0.00000E+00
    0.31188E+06        -0.60187E+08         0.00000E+00
    0.00000E+00         0.00000E+00        -0.34627E+08
 
   -0.33709E+08         0.38194E+06         0.00000E+00
    0.38194E+06        -0.60201E+08         0.00000E+00
    0.00000E+00         0.00000E+00        -0.34601E+08
 
   -0.33754E+08         0.46208E+06         0.00000E+00
    0.46208E+06        -0.60206E+08         0.00000E+00
    0.00000E+00         0.00000E+00        -0.34562E+08
 
   -0.33803E+08         0.55092E+06         0.00000E+00
    0.55092E+06        -0.60200E+08         0.00000E+00
    0.00000E+00         0.00000E+00        -0.34508E+08
 
   -0.33855E+08         0.64670E+06         0.00000E+00
    0.64670E+06        -0.60181E+08         0.00000E+00
    0.00000E+00         0.00000E+00        -0.34437E+08
 
   -0.33910E+08         0.74663E+06         0.00000E+00
    0.74663E+06        -0.60150E+08         0.00000E+00
    0.00000E+00         0.00000E+00        -0.34348E+08
 
   -0.33968E+08         0.84771E+06         0.00000E+00
    0.84771E+06        -0.60106E+08         0.00000E+00
    0.00000E+00         0.00000E+00        -0.34243E+08
 
   -0.34028E+08         0.94645E+06         0.00000E+00
    0.94645E+06        -0.60049E+08         0.00000E+00
    0.00000E+00         0.00000E+00        -0.34122E+08
 
   -0.33370E+08         0.13198E+05         0.00000E+00
    0.13198E+05        -0.60004E+08         0.00000E+00
    0.00000E+00         0.00000E+00        -0.34359E+08
 
   -0.33399E+08         0.39103E+05         0.00000E+00
    0.39103E+05        -0.60022E+08         0.00000E+00
    0.00000E+00         0.00000E+00        -0.34350E+08
 
   -0.33435E+08         0.63080E+05         0.00000E+00
    0.63080E+05        -0.60052E+08         0.00000E+00
    0.00000E+00         0.00000E+00        -0.34351E+08
 
   -0.33472E+08         0.90463E+05         0.00000E+00
    0.90463E+05        -0.60089E+08         0.00000E+00
    0.00000E+00         0.00000E+00        -0.34360E+08
 
   -0.33506E+08         0.12479E+06         0.00000E+00
    0.12479E+06        -0.60128E+08         0.00000E+00
    0.00000E+00         0.00000E+00        -0.34375E+08
 
   -0.33537E+08         0.16845E+06         0.00000E+00
    0.16845E+06        -0.60167E+08         0.00000E+00
    0.00000E+00         0.00000E+00        -0.34392E+08
 
   -0.33568E+08         0.22313E+06         0.00000E+00
    0.22313E+06        -0.60202E+08         0.00000E+00
    0.00000E+00         0.00000E+00        -0.34407E+08
 
   -0.33598E+08         0.28981E+06         0.00000E+00
    0.28981E+06        -0.60231E+08         0.00000E+00
    0.00000E+00         0.00000E+00        -0.34415E+08
 
   -0.33630E+08         0.36871E+06         0.00000E+00
    0.36871E+06        -0.60253E+08         0.00000E+00
    0.00000E+00         0.00000E+00        -0.34413E+08
 
   -0.33665E+08         0.45910E+06         0.00000E+00
    0.45910E+06        -0.60265E+08         0.00000E+00
    0.00000E+00         0.00000E+00        -0.34396E+08
 
   -0.33705E+08         0.55973E+06         0.00000E+00
    0.55973E+06        -0.60266E+08         0.00000E+00
    0.00000E+00         0.00000E+00        -0.34362E+08
 
   -0.33751E+08         0.66819E+06         0.00000E+00
    0.66819E+06        -0.60254E+08         0.00000E+00
    0.00000E+00         0.00000E+00        -0.34309E+08
 
   -0.33803E+08         0.78150E+06         0.00000E+00
    0.78150E+06        -0.60230E+08         0.00000E+00
    0.00000E+00         0.00000E+00        -0.34234E+08
 
   -0.33862E+08         0.89600E+06         0.00000E+00
    0.89600E+06        -0.60191E+08         0.00000E+00
    0.00000E+00         0.00000E+00        -0.34138E+08
 
   -0.33926E+08         0.10075E+07         0.00000E+00
    0.10075E+07        -0.60139E+08         0.00000E+00
    0.00000E+00         0.00000E+00        -0.34023E+08
 
   -0.33350E+08         0.24709E+04         0.00000E+00
    0.24709E+04        -0.60005E+08         0.00000E+00
    0.00000E+00         0.00000E+00        -0.34014E+08
 
   -0.33382E+08         0.12346E+05         0.00000E+00
    0.12346E+05        -0.60025E+08         0.00000E+00
    0.00000E+00         0.00000E+00        -0.34006E+08
 
   -0.33414E+08         0.26251E+05         0.00000E+00
    0.26251E+05        -0.60058E+08         0.00000E+00
    0.00000E+00         0.00000E+00        -0.34017E+08
 
   -0.33442E+08         0.48558E+05         0.00000E+00
    0.48558E+05        -0.60100E+08         0.00000E+00
    0.00000E+00         0.00000E+00        -0.34041E+08
 
   -0.33466E+08         0.81670E+05         0.00000E+00
    0.81670E+05        -0.60145E+08         0.00000E+00
    0.00000E+00         0.00000E+00        -0.34075E+08
 
   -0.33487E+08         0.12733E+06         0.00000E+00
    0.12733E+06        -0.60190E+08         0.00000E+00
    0.00000E+00         0.00000E+00        -0.34114E+08
 
   -0.33504E+08         0.18665E+06         0.00000E+00
    0.18665E+06        -0.60233E+08         0.00000E+00
    0.00000E+00         0.00000E+00        -0.34152E+08
 
   -0.33521E+08         0.26020E+06         0.00000E+00
    0.26020E+06        -0.60269E+08         0.00000E+00
    0.00000E+00         0.00000E+00        -0.34184E+08
 
   -0.33540E+08         0.34784E+06         0.00000E+00
    0.34784E+06        -0.60298E+08         0.00000E+00
    0.00000E+00         0.00000E+00        -0.34206E+08
 
   -0.33564E+08         0.44877E+06         0.00000E+00
    0.44877E+06        -0.60317E+08         0.00000E+00
    0.00000E+00         0.00000E+00        -0.34213E+08
 
   -0.33594E+08         0.56128E+06         0.00000E+00
    0.56128E+06        -0.60326E+08         0.00000E+00
    0.00000E+00         0.00000E+00        -0.34200E+08
 
   -0.33633E+08         0.68283E+06         0.00000E+00
    0.68283E+06        -0.60321E+08         0.00000E+00
    0.00000E+00         0.00000E+00        -0.34166E+08
 
   -0.33682E+08         0.81002E+06         0.00000E+00
    0.81002E+06        -0.60304E+08         0.00000E+00
    0.00000E+00         0.00000E+00        -0.34106E+08
 
   -0.33742E+08         0.93867E+06         0.00000E+00
    0.93867E+06        -0.60272E+08         0.00000E+00
    0.00000E+00         0.00000E+00        -0.34021E+08
 
   -0.33811E+08         0.10637E+07         0.00000E+00
    0.10637E+07        -0.60225E+08         0.00000E+00
    0.00000E+00         0.00000E+00        -0.33911E+08
 
   -0.33350E+08        -0.90401E+04         0.00000E+00
   -0.90401E+04        -0.60006E+08         0.00000E+00
    0.00000E+00         0.00000E+00        -0.33633E+08
 
   -0.33378E+08        -0.16810E+05         0.00000E+00
   -0.16810E+05        -0.60027E+08         0.00000E+00
    0.00000E+00         0.00000E+00        -0.33633E+08
 
   -0.33400E+08        -0.14222E+05         0.00000E+00
   -0.14222E+05        -0.60063E+08         0.00000E+00
    0.00000E+00         0.00000E+00        -0.33656E+08
 
   -0.33417E+08         0.17574E+04         0.00000E+00
    0.17574E+04        -0.60108E+08         0.00000E+00
    0.00000E+00         0.00000E+00        -0.33699E+08
 
   -0.33427E+08         0.32828E+05         0.00000E+00
    0.32828E+05        -0.60158E+08         0.00000E+00
    0.00000E+00         0.00000E+00        -0.33753E+08
 
   -0.33433E+08         0.79814E+05         0.00000E+00
    0.79814E+05        -0.60208E+08         0.00000E+00
    0.00000E+00         0.00000E+00        -0.33814E+08
 
   -0.33435E+08         0.14338E+06         0.00000E+00
    0.14338E+06        -0.60256E+08         0.00000E+00
    0.00000E+00         0.00000E+00        -0.33875E+08
 
   -0.33437E+08         0.22350E+06         0.00000E+00
    0.22350E+06        -0.60299E+08         0.00000E+00
    0.00000E+00         0.00000E+00        -0.33932E+08
 
   -0.33441E+08         0.31973E+06         0.00000E+00
    0.31973E+06        -0.60335E+08         0.00000E+00
    0.00000E+00         0.00000E+00        -0.33978E+08
 
   -0.33451E+08         0.43101E+06         0.00000E+00
    0.43101E+06        -0.60361E+08         0.00000E+00
    0.00000E+00         0.00000E+00        -0.34009E+08
 
   -0.33470E+08         0.55540E+06         0.00000E+00
    0.55540E+06        -0.60377E+08         0.00000E+00
    0.00000E+00         0.00000E+00        -0.34020E+08
 
   -0.33502E+08         0.69011E+06         0.00000E+00
    0.69011E+06        -0.60380E+08         0.00000E+00
    0.00000E+00         0.00000E+00        -0.34006E+08
 
   -0.33547E+08         0.83141E+06         0.00000E+00
    0.83141E+06        -0.60370E+08         0.00000E+00
    0.00000E+00         0.00000E+00        -0.33963E+08
 
   -0.33608E+08         0.97464E+06         0.00000E+00
    0.97464E+06        -0.60345E+08         0.00000E+00
    0.00000E+00         0.00000E+00        -0.33890E+08
 
   -0.33683E+08         0.11148E+07         0.00000E+00
    0.11148E+07        -0.60305E+08         0.00000E+00
    0.00000E+00         0.00000E+00        -0.33785E+08
 
   -0.33373E+08        -0.21036E+05         0.00000E+00
   -0.21036E+05        -0.60006E+08         0.00000E+00
    0.00000E+00         0.00000E+00        -0.33219E+08
 
   -0.33389E+08        -0.47275E+05         0.00000E+00
   -0.47275E+05        -0.60027E+08         0.00000E+00
    0.00000E+00         0.00000E+00        -0.33231E+08
 
   -0.33396E+08        -0.56990E+05         0.00000E+00
   -0.56990E+05        -0.60065E+08         0.00000E+00
    0.00000E+00         0.00000E+00        -0.33272E+08
 
   -0.33396E+08        -0.48347E+05         0.00000E+00
   -0.48347E+05        -0.60112E+08         0.00000E+00
    0.00000E+00         0.00000E+00        -0.33333E+08
 
   -0.33388E+08        -0.20352E+05         0.00000E+00
   -0.20352E+05        -0.60165E+08         0.00000E+00
    0.00000E+00         0.00000E+00        -0.33409E+08
 
   -0.33376E+08         0.27233E+05         0.00000E+00
    0.27233E+05        -0.60219E+08         0.00000E+00
    0.00000E+00         0.00000E+00        -0.33492E+08
 
   -0.33360E+08         0.94399E+05         0.00000E+00
    0.94399E+05        -0.60272E+08         0.00000E+00
    0.00000E+00         0.00000E+00        -0.33577E+08
 
   -0.33345E+08         0.18052E+06         0.00000E+00
    0.18052E+06        -0.60320E+08         0.00000E+00
    0.00000E+00         0.00000E+00        -0.33659E+08
 
   -0.33333E+08         0.28495E+06         0.00000E+00
    0.28495E+06        -0.60361E+08         0.00000E+00
    0.00000E+00         0.00000E+00        -0.33730E+08
 
   -0.33328E+08         0.40614E+06         0.00000E+00
    0.40614E+06        -0.60394E+08         0.00000E+00
    0.00000E+00         0.00000E+00        -0.33785E+08
 
   -0.33335E+08         0.54199E+06         0.00000E+00
    0.54199E+06        -0.60417E+08         0.00000E+00
    0.00000E+00         0.00000E+00        -0.33819E+08
 
   -0.33357E+08         0.68957E+06         0.00000E+00
    0.68957E+06        -0.60428E+08         0.00000E+00
    0.00000E+00         0.00000E+00        -0.33826E+08
 
   -0.33397E+08         0.84497E+06         0.00000E+00
    0.84497E+06        -0.60426E+08         0.00000E+00
    0.00000E+00         0.00000E+00        -0.33802E+08
 
   -0.33458E+08         0.10032E+07         0.00000E+00
    0.10032E+07        -0.60409E+08         0.00000E+00
    0.00000E+00         0.00000E+00        -0.33742E+08
 
   -0.33540E+08         0.11588E+07         0.00000E+00
    0.11588E+07        -0.60377E+08         0.00000E+00
    0.00000E+00         0.00000E+00        -0.33645E+08
 
   -0.33417E+08        -0.33051E+05         0.00000E+00
   -0.33051E+05        -0.60006E+08         0.00000E+00
    0.00000E+00         0.00000E+00        -0.32775E+08
 
   -0.33415E+08        -0.78105E+05         0.00000E+00
   -0.78105E+05        -0.60027E+08         0.00000E+00
    0.00000E+00         0.00000E+00        -0.32805E+08
 
   -0.33402E+08        -0.10088E+06         0.00000E+00
   -0.10088E+06        -0.60065E+08         0.00000E+00
    0.00000E+00         0.00000E+00        -0.32865E+08
 
   -0.33380E+08        -0.10028E+06         0.00000E+00
   -0.10028E+06        -0.60113E+08         0.00000E+00
    0.00000E+00         0.00000E+00        -0.32948E+08
 
   -0.33352E+08        -0.76135E+05         0.00000E+00
   -0.76135E+05        -0.60167E+08         0.00000E+00
    0.00000E+00         0.00000E+00        -0.33045E+08
 
   -0.33318E+08        -0.28683E+05         0.00000E+00
   -0.28683E+05        -0.60223E+08         0.00000E+00
    0.00000E+00         0.00000E+00        -0.33151E+08
 
   -0.33281E+08         0.41272E+05         0.00000E+00
    0.41272E+05        -0.60279E+08         0.00000E+00
    0.00000E+00         0.00000E+00        -0.33259E+08
 
   -0.33246E+08         0.13280E+06         0.00000E+00
    0.13280E+06        -0.60330E+08         0.00000E+00
    0.00000E+00         0.00000E+00        -0.33363E+08
 
   -0.33215E+08         0.24447E+06         0.00000E+00
    0.24447E+06        -0.60376E+08         0.00000E+00
    0.00000E+00         0.00000E+00        -0.33458E+08
 
   -0.33194E+08         0.37462E+06         0.00000E+00
    0.37462E+06        -0.60414E+08         0.00000E+00
    0.00000E+00         0.00000E+00        -0.33538E+08
 
   -0.33187E+08         0.52108E+06         0.00000E+00
    0.52108E+06        -0.60444E+08         0.00000E+00
    0.00000E+00         0.00000E+00        -0.33595E+08
 
   -0.33199E+08         0.68085E+06         0.00000E+00
    0.68085E+06        -0.60463E+08         0.00000E+00
    0.00000E+00         0.00000E+00        -0.33625E+08
 
   -0.33233E+08         0.85006E+06         0.00000E+00
    0.85006E+06        -0.60469E+08         0.00000E+00
    0.00000E+00         0.00000E+00        -0.33620E+08
 
   -0.33293E+08         0.10236E+07         0.00000E+00
    0.10236E+07        -0.60461E+08         0.00000E+00
    0.00000E+00         0.00000E+00        -0.33576E+08
 
   -0.33381E+08         0.11946E+07         0.00000E+00
    0.11946E+07        -0.60438E+08         0.00000E+00
    0.00000E+00         0.00000E+00        -0.33489E+08
 
   -0.33484E+08        -0.44770E+05         0.00000E+00
   -0.44770E+05        -0.60006E+08         0.00000E+00
    0.00000E+00         0.00000E+00        -0.32305E+08
 
   -0.33457E+08        -0.10865E+06         0.00000E+00
   -0.10865E+06        -0.60027E+08         0.00000E+00
    0.00000E+00         0.00000E+00        -0.32357E+08
 
   -0.33419E+08        -0.14459E+06         0.00000E+00
   -0.14459E+06        -0.60063E+08         0.00000E+00
    0.00000E+00         0.00000E+00        -0.32439E+08
 
   -0.33371E+08        -0.15247E+06         0.00000E+00
   -0.15247E+06        -0.60111E+08         0.00000E+00
    0.00000E+00         0.00000E+00        -0.32543E+08
 
   -0.33317E+08        -0.13259E+06         0.00000E+00
   -0.13259E+06        -0.60165E+08         0.00000E+00
    0.00000E+00         0.00000E+00        -0.32663E+08
 
   -0.33258E+08        -0.85858E+05         0.00000E+00
   -0.85858E+05        -0.60221E+08         0.00000E+00
    0.00000E+00         0.00000E+00        -0.32790E+08
 
   -0.33199E+08        -0.13770E+05         0.00000E+00
   -0.13770E+05        -0.60276E+08         0.00000E+00
    0.00000E+00         0.00000E+00        -0.32920E+08
 
   -0.33141E+08         0.82125E+05         0.00000E+00
    0.82125E+05        -0.60329E+08         0.00000E+00
    0.00000E+00         0.00000E+00        -0.33046E+08
 
   -0.33090E+08         0.19981E+06         0.00000E+00
    0.19981E+06        -0.60377E+08         0.00000E+00
    0.00000E+00         0.00000E+00        -0.33163E+08
 
   -0.33051E+08         0.33749E+06         0.00000E+00
    0.33749E+06        -0.60420E+08         0.00000E+00
    0.00000E+00         0.00000E+00        -0.33265E+08
 
   -0.33028E+08         0.49299E+06         0.00000E+00
    0.49299E+06        -0.60455E+08         0.00000E+00
    0.00000E+00         0.00000E+00        -0.33346E+08
 
   -0.33028E+08         0.66361E+06         0.00000E+00
    0.66361E+06        -0.60481E+08         0.00000E+00
    0.00000E+00         0.00000E+00        -0.33399E+08
 
   -0.33055E+08         0.84573E+06         0.00000E+00
    0.84573E+06        -0.60497E+08         0.00000E+00
    0.00000E+00         0.00000E+00        -0.33416E+08
 
   -0.33113E+08         0.10343E+07         0.00000E+00
    0.10343E+07        -0.60500E+08         0.00000E+00
    0.00000E+00         0.00000E+00        -0.33390E+08
 
   -0.33206E+08         0.12216E+07         0.00000E+00
    0.12216E+07        -0.60487E+08         0.00000E+00
    0.00000E+00         0.00000E+00        -0.33315E+08
 
   -0.33573E+08        -0.56083E+05         0.00000E+00
   -0.56083E+05        -0.60006E+08         0.00000E+00
    0.00000E+00         0.00000E+00        -0.31815E+08
 
   -0.33515E+08        -0.13819E+06         0.00000E+00
   -0.13819E+06        -0.60026E+08         0.00000E+00
    0.00000E+00         0.00000E+00        -0.31891E+08
 
   -0.33446E+08        -0.18708E+06         0.00000E+00
   -0.18708E+06        -0.60061E+08         0.00000E+00
    0.00000E+00         0.00000E+00        -0.31996E+08
 
   -0.33368E+08        -0.20320E+06         0.00000E+00
   -0.20320E+06        -0.60106E+08         0.00000E+00
    0.00000E+00         0.00000E+00        -0.32123E+08
 
   -0.33285E+08        -0.18760E+06         0.00000E+00
   -0.18760E+06        -0.60158E+08         0.00000E+00
    0.00000E+00         0.00000E+00        -0.32264E+08
 
   -0.33199E+08        -0.14189E+06         0.00000E+00
   -0.14189E+06        -0.60211E+08         0.00000E+00
    0.00000E+00         0.00000E+00        -0.32412E+08
 
   -0.33113E+08        -0.68280E+05         0.00000E+00
   -0.68280E+05        -0.60265E+08         0.00000E+00
    0.00000E+00         0.00000E+00        -0.32560E+08
 
   -0.33032E+08         0.30869E+05         0.00000E+00
    0.30869E+05        -0.60316E+08         0.00000E+00
    0.00000E+00         0.00000E+00        -0.32705E+08
 
   -0.32960E+08         0.15312E+06         0.00000E+00
    0.15312E+06        -0.60364E+08         0.00000E+00
    0.00000E+00         0.00000E+00        -0.32842E+08
 
   -0.32901E+08         0.29625E+06         0.00000E+00
    0.29625E+06        -0.60408E+08         0.00000E+00
    0.00000E+00         0.00000E+00        -0.32964E+08
 
   -0.32861E+08         0.45843E+06         0.00000E+00
    0.45843E+06        -0.60448E+08         0.00000E+00
    0.00000E+00         0.00000E+00        -0.33068E+08
 
   -0.32846E+08         0.63770E+06         0.00000E+00
    0.63770E+06        -0.60481E+08         0.00000E+00
    0.00000E+00         0.00000E+00        -0.33145E+08
 
   -0.32863E+08         0.83094E+06         0.00000E+00
    0.83094E+06        -0.60507E+08         0.00000E+00
    0.00000E+00         0.00000E+00        -0.33187E+08
 
   -0.32917E+08         0.10333E+07         0.00000E+00
    0.10333E+07        -0.60522E+08         0.00000E+00
    0.00000E+00         0.00000E+00        -0.33182E+08
 
   -0.33015E+08         0.12375E+07         0.00000E+00
    0.12375E+07        -0.60521E+08         0.00000E+00
    0.00000E+00         0.00000E+00        -0.33122E+08
 
   -0.33682E+08        -0.66875E+05         0.00000E+00
   -0.66875E+05        -0.60006E+08         0.00000E+00
    0.00000E+00         0.00000E+00        -0.31307E+08
 
   -0.33588E+08        -0.16628E+06         0.00000E+00
   -0.16628E+06        -0.60025E+08         0.00000E+00
    0.00000E+00         0.00000E+00        -0.31410E+08
 
   -0.33484E+08        -0.22715E+06         0.00000E+00
   -0.22715E+06        -0.60058E+08         0.00000E+00
    0.00000E+00         0.00000E+00        -0.31540E+08
 
   -0.33371E+08        -0.25077E+06         0.00000E+00
   -0.25077E+06        -0.60099E+08         0.00000E+00
    0.00000E+00         0.00000E+00        -0.31690E+08
 
   -0.33255E+08        -0.23895E+06         0.00000E+00
   -0.23895E+06        -0.60146E+08         0.00000E+00
    0.00000E+00         0.00000E+00        -0.31851E+08
 
   -0.33139E+08        -0.19415E+06         0.00000E+00
   -0.19415E+06        -0.60195E+08         0.00000E+00
    0.00000E+00         0.00000E+00        -0.32016E+08
 
   -0.33025E+08        -0.11946E+06         0.00000E+00
   -0.11946E+06        -0.60243E+08         0.00000E+00
    0.00000E+00         0.00000E+00        -0.32181E+08
 
   -0.32920E+08        -0.18141E+05         0.00000E+00
   -0.18141E+05        -0.60290E+08         0.00000E+00
    0.00000E+00         0.00000E+00        -0.32341E+08
 
   -0.32825E+08         0.10679E+06         0.00000E+00
    0.10679E+06        -0.60335E+08         0.00000E+00
    0.00000E+00         0.00000E+00        -0.32493E+08
 
   -0.32745E+08         0.25287E+06         0.00000E+00
    0.25287E+06        -0.60379E+08         0.00000E+00
    0.00000E+00         0.00000E+00        -0.32633E+08
 
   -0.32687E+08         0.41867E+06         0.00000E+00
    0.41867E+06        -0.60421E+08         0.00000E+00
    0.00000E+00         0.00000E+00        -0.32758E+08
 
   -0.32655E+08         0.60312E+06         0.00000E+00
    0.60312E+06        -0.60461E+08         0.00000E+00
    0.00000E+00         0.00000E+00        -0.32859E+08
 
   -0.32659E+08         0.80472E+06         0.00000E+00
    0.80472E+06        -0.60497E+08         0.00000E+00
    0.00000E+00         0.00000E+00        -0.32927E+08
 
   -0.32706E+08         0.10195E+07         0.00000E+00
    0.10195E+07        -0.60524E+08         0.00000E+00
    0.00000E+00         0.00000E+00        -0.32949E+08
 
   -0.32806E+08         0.12400E+07         0.00000E+00
    0.12400E+07        -0.60538E+08         0.00000E+00
    0.00000E+00         0.00000E+00        -0.32908E+08
 
   -0.33811E+08        -0.77072E+05         0.00000E+00
   -0.77072E+05        -0.60006E+08         0.00000E+00
    0.00000E+00         0.00000E+00        -0.30788E+08
 
   -0.33675E+08        -0.19244E+06         0.00000E+00
   -0.19244E+06        -0.60023E+08         0.00000E+00
    0.00000E+00         0.00000E+00        -0.30918E+08
 
   -0.33530E+08        -0.26381E+06         0.00000E+00
   -0.26381E+06        -0.60053E+08         0.00000E+00
    0.00000E+00         0.00000E+00        -0.31074E+08
 
   -0.33380E+08        -0.29341E+06         0.00000E+00
   -0.29341E+06        -0.60090E+08         0.00000E+00
    0.00000E+00         0.00000E+00        -0.31246E+08
 
   -0.33228E+08        -0.28416E+06         0.00000E+00
   -0.28416E+06        -0.60130E+08         0.00000E+00
    0.00000E+00         0.00000E+00        -0.31425E+08
 
   -0.33078E+08        -0.23974E+06         0.00000E+00
   -0.23974E+06        -0.60171E+08         0.00000E+00
    0.00000E+00         0.00000E+00        -0.31605E+08
 
   -0.32937E+08        -0.16426E+06         0.00000E+00
   -0.16426E+06        -0.60211E+08         0.00000E+00
    0.00000E+00         0.00000E+00        -0.31782E+08
 
   -0.32805E+08        -0.62015E+05         0.00000E+00
   -0.62015E+05        -0.60250E+08         0.00000E+00
    0.00000E+00         0.00000E+00        -0.31953E+08
 
   -0.32688E+08         0.63414E+05         0.00000E+00
    0.63414E+05        -0.60290E+08         0.00000E+00
    0.00000E+00         0.00000E+00        -0.32116E+08
 
   -0.32589E+08         0.20954E+06         0.00000E+00
    0.20954E+06        -0.60331E+08         0.00000E+00
    0.00000E+00         0.00000E+00        -0.32270E+08
 
   -0.32510E+08         0.37517E+06         0.00000E+00
    0.37517E+06        -0.60374E+08         0.00000E+00
    0.00000E+00         0.00000E+00        -0.32412E+08
 
   -0.32460E+08         0.56060E+06         0.00000E+00
    0.56060E+06        -0.60419E+08         0.00000E+00
    0.00000E+00         0.00000E+00        -0.32537E+08
 
   -0.32446E+08         0.76638E+06         0.00000E+00
    0.76638E+06        -0.60464E+08         0.00000E+00
    0.00000E+00         0.00000E+00        -0.32635E+08
 
   -0.32482E+08         0.99074E+06         0.00000E+00
    0.99074E+06        -0.60506E+08         0.00000E+00
    0.00000E+00         0.00000E+00        -0.32687E+08
 
   -0.32580E+08         0.12270E+07         0.00000E+00
    0.12270E+07        -0.60537E+08         0.00000E+00
    0.00000E+00         0.00000E+00        -0.32673E+08
 
   -0.33958E+08        -0.86711E+05         0.00000E+00
   -0.86711E+05        -0.60006E+08         0.00000E+00
    0.00000E+00         0.00000E+00        -0.30261E+08
 
   -0.33774E+08        -0.21628E+06         0.00000E+00
   -0.21628E+06        -0.60022E+08         0.00000E+00
    0.00000E+00         0.00000E+00        -0.30420E+08
 
   -0.33584E+08        -0.29588E+06         0.00000E+00
   -0.29588E+06        -0.60048E+08         0.00000E+00
    0.00000E+00         0.00000E+00        -0.30601E+08
 
   -0.33391E+08        -0.32912E+06         0.00000E+00
   -0.32912E+06        -0.60078E+08         0.00000E+00
    0.00000E+00         0.00000E+00        -0.30794E+08
 
   -0.33201E+08        -0.32048E+06         0.00000E+00
   -0.32048E+06        -0.60109E+08         0.00000E+00
    0.00000E+00         0.00000E+00        -0.30988E+08
 
   -0.33018E+08        -0.27539E+06         0.00000E+00
   -0.27539E+06        -0.60138E+08         0.00000E+00
    0.00000E+00         0.00000E+00        -0.31179E+08
 
   -0.32847E+08        -0.19951E+06         0.00000E+00
   -0.19951E+06        -0.60167E+08         0.00000E+00
    0.00000E+00         0.00000E+00        -0.31363E+08
 
   -0.32692E+08        -0.97967E+05         0.00000E+00
   -0.97967E+05        -0.60196E+08         0.00000E+00
    0.00000E+00         0.00000E+00        -0.31539E+08
 
   -0.32553E+08         0.25334E+05         0.00000E+00
    0.25334E+05        -0.60228E+08         0.00000E+00
    0.00000E+00         0.00000E+00        -0.31709E+08
 
   -0.32434E+08         0.16813E+06         0.00000E+00
    0.16813E+06        -0.60264E+08         0.00000E+00
    0.00000E+00         0.00000E+00        -0.31873E+08
 
   -0.32336E+08         0.32980E+06         0.00000E+00
    0.32980E+06        -0.60306E+08         0.00000E+00
    0.00000E+00         0.00000E+00        -0.32030E+08
 
   -0.32264E+08         0.51158E+06         0.00000E+00
    0.51158E+06        -0.60354E+08         0.00000E+00
    0.00000E+00         0.00000E+00        -0.32178E+08
 
   -0.32228E+08         0.71598E+06         0.00000E+00
    0.71598E+06        -0.60408E+08         0.00000E+00
    0.00000E+00         0.00000E+00        -0.32305E+08
 
   -0.32246E+08         0.94500E+06         0.00000E+00
    0.94500E+06        -0.60464E+08         0.00000E+00
    0.00000E+00         0.00000E+00        -0.32394E+08
 
   -0.32336E+08         0.11944E+07         0.00000E+00
    0.11944E+07        -0.60514E+08         0.00000E+00
    0.00000E+00         0.00000E+00        -0.32413E+08
 
   -0.34122E+08        -0.95771E+05         0.00000E+00
   -0.95771E+05        -0.60006E+08         0.00000E+00
    0.00000E+00         0.00000E+00        -0.29730E+08
 
   -0.33883E+08        -0.23739E+06         0.00000E+00
   -0.23739E+06        -0.60020E+08         0.00000E+00
    0.00000E+00         0.00000E+00        -0.29919E+08
 
   -0.33641E+08        -0.32213E+06         0.00000E+00
   -0.32213E+06        -0.60041E+08         0.00000E+00
    0.00000E+00         0.00000E+00        -0.30126E+08
 
   -0.33403E+08        -0.35551E+06         0.00000E+00
   -0.35551E+06        -0.60063E+08         0.00000E+00
    0.00000E+00         0.00000E+00        -0.30337E+08
 
   -0.33172E+08        -0.34469E+06         0.00000E+00
   -0.34469E+06        -0.60081E+08         0.00000E+00
    0.00000E+00         0.00000E+00        -0.30542E+08
 
   -0.32957E+08        -0.29763E+06         0.00000E+00
   -0.29763E+06        -0.60095E+08         0.00000E+00
    0.00000E+00         0.00000E+00        -0.30738E+08
 
   -0.32759E+08        -0.22189E+06         0.00000E+00
   -0.22189E+06        -0.60109E+08         0.00000E+00
    0.00000E+00         0.00000E+00        -0.30922E+08
 
   -0.32581E+08        -0.12337E+06         0.00000E+00
   -0.12337E+06        -0.60125E+08         0.00000E+00
    0.00000E+00         0.00000E+00        -0.31098E+08
 
   -0.32423E+08        -0.56243E+04         0.00000E+00
   -0.56243E+04        -0.60147E+08         0.00000E+00
    0.00000E+00         0.00000E+00        -0.31269E+08
 
   -0.32284E+08         0.12994E+06         0.00000E+00
    0.12994E+06        -0.60178E+08         0.00000E+00
    0.00000E+00         0.00000E+00        -0.31439E+08
 
   -0.32167E+08         0.28360E+06         0.00000E+00
    0.28360E+06        -0.60219E+08         0.00000E+00
    0.00000E+00         0.00000E+00        -0.31609E+08
 
   -0.32073E+08         0.45705E+06         0.00000E+00
    0.45705E+06        -0.60270E+08         0.00000E+00
    0.00000E+00         0.00000E+00        -0.31778E+08
 
   -0.32012E+08         0.65435E+06         0.00000E+00
    0.65435E+06        -0.60330E+08         0.00000E+00
    0.00000E+00         0.00000E+00        -0.31937E+08
 
   -0.32002E+08         0.88143E+06         0.00000E+00
    0.88143E+06        -0.60399E+08         0.00000E+00
    0.00000E+00         0.00000E+00        -0.32066E+08
 
   -0.32078E+08         0.11421E+07         0.00000E+00
    0.11421E+07        -0.60471E+08         0.00000E+00
    0.00000E+00         0.00000E+00        -0.32128E+08
 
   -0.34301E+08        -0.10435E+06         0.00000E+00
   -0.10435E+06        -0.60005E+08         0.00000E+00
    0.00000E+00         0.00000E+00        -0.29197E+08
 
   -0.33999E+08        -0.25518E+06         0.00000E+00
   -0.25518E+06        -0.60018E+08         0.00000E+00
    0.00000E+00         0.00000E+00        -0.29419E+08
 
   -0.33699E+08        -0.34054E+06         0.00000E+00
   -0.34054E+06        -0.60033E+08         0.00000E+00
    0.00000E+00         0.00000E+00        -0.29650E+08
 
   -0.33411E+08        -0.36936E+06         0.00000E+00
   -0.36936E+06        -0.60042E+08         0.00000E+00
    0.00000E+00         0.00000E+00        -0.29876E+08
 
   -0.33141E+08        -0.35295E+06         0.00000E+00
   -0.35295E+06        -0.60043E+08         0.00000E+00
    0.00000E+00         0.00000E+00        -0.30087E+08
 
   -0.32894E+08        -0.30285E+06         0.00000E+00
   -0.30285E+06        -0.60040E+08         0.00000E+00
    0.00000E+00         0.00000E+00        -0.30279E+08
 
   -0.32673E+08        -0.22852E+06         0.00000E+00
   -0.22852E+06        -0.60035E+08         0.00000E+00
    0.00000E+00         0.00000E+00        -0.30456E+08
 
   -0.32476E+08        -0.13601E+06         0.00000E+00
   -0.13601E+06        -0.60036E+08         0.00000E+00
    0.00000E+00         0.00000E+00        -0.30625E+08
 
   -0.32301E+08        -0.27953E+05         0.00000E+00
   -0.27953E+05        -0.60047E+08         0.00000E+00
    0.00000E+00         0.00000E+00        -0.30793E+08
 
   -0.32145E+08         0.95669E+05         0.00000E+00
    0.95669E+05        -0.60071E+08         0.00000E+00
    0.00000E+00         0.00000E+00        -0.30966E+08
 
   -0.32009E+08         0.23655E+06         0.00000E+00
    0.23655E+06        -0.60111E+08         0.00000E+00
    0.00000E+00         0.00000E+00        -0.31147E+08
 
   -0.31893E+08         0.39755E+06         0.00000E+00
    0.39755E+06        -0.60165E+08         0.00000E+00
    0.00000E+00         0.00000E+00        -0.31336E+08
 
   -0.31803E+08         0.58315E+06         0.00000E+00
    0.58315E+06        -0.60233E+08         0.00000E+00
    0.00000E+00         0.00000E+00        -0.31528E+08
 
   -0.31757E+08         0.80101E+06         0.00000E+00
    0.80101E+06        -0.60314E+08         0.00000E+00
    0.00000E+00         0.00000E+00        -0.31704E+08
 
   -0.31806E+08         0.10585E+07         0.00000E+00
    0.10585E+07        -0.60407E+08         0.00000E+00
    0.00000E+00         0.00000E+00        -0.31816E+08
 
   -0.34493E+08        -0.11255E+06         0.00000E+00
   -0.11255E+06        -0.60005E+08         0.00000E+00
    0.00000E+00         0.00000E+00        -0.28668E+08
 
   -0.34116E+08        -0.26839E+06         0.00000E+00
   -0.26839E+06        -0.60015E+08         0.00000E+00
    0.00000E+00         0.00000E+00        -0.28923E+08
 
   -0.33752E+08        -0.34772E+06         0.00000E+00
   -0.34772E+06        -0.60020E+08         0.00000E+00
    0.00000E+00         0.00000E+00        -0.29178E+08
 
   -0.33412E+08        -0.36591E+06         0.00000E+00
   -0.36591E+06        -0.60012E+08         0.00000E+00
    0.00000E+00         0.00000E+00        -0.29412E+08
 
   -0.33104E+08        -0.34084E+06         0.00000E+00
   -0.34084E+06        -0.59991E+08         0.00000E+00
    0.00000E+00         0.00000E+00        -0.29618E+08
 
   -0.32831E+08        -0.28798E+06         0.00000E+00
   -0.28798E+06        -0.59965E+08         0.00000E+00
    0.00000E+00         0.00000E+00        -0.29798E+08
 
   -0.32592E+08        -0.21755E+06         0.00000E+00
   -0.21755E+06        -0.59942E+08         0.00000E+00
    0.00000E+00         0.00000E+00        -0.29962E+08
 
   -0.32381E+08        -0.13459E+06         0.00000E+00
   -0.13459E+06        -0.59927E+08         0.00000E+00
    0.00000E+00         0.00000E+00        -0.30118E+08
 
   -0.32192E+08        -0.40445E+05         0.00000E+00
   -0.40445E+05        -0.59926E+08         0.00000E+00
    0.00000E+00         0.00000E+00        -0.30279E+08
 
   -0.32022E+08         0.66084E+05         0.00000E+00
    0.66084E+05        -0.59942E+08         0.00000E+00
    0.00000E+00         0.00000E+00        -0.30450E+08
 
   -0.31867E+08         0.18838E+06         0.00000E+00
    0.18838E+06        -0.59979E+08         0.00000E+00
    0.00000E+00         0.00000E+00        -0.30639E+08
 
   -0.31728E+08         0.33133E+06         0.00000E+00
    0.33133E+06        -0.60038E+08         0.00000E+00
    0.00000E+00         0.00000E+00        -0.30849E+08
 
   -0.31608E+08         0.50033E+06         0.00000E+00
    0.50033E+06        -0.60117E+08         0.00000E+00
    0.00000E+00         0.00000E+00        -0.31075E+08
 
   -0.31522E+08         0.70363E+06         0.00000E+00
    0.70363E+06        -0.60213E+08         0.00000E+00
    0.00000E+00         0.00000E+00        -0.31303E+08
 
   -0.31523E+08         0.95789E+06         0.00000E+00
    0.95789E+06        -0.60320E+08         0.00000E+00
    0.00000E+00         0.00000E+00        -0.31476E+08
 
   -0.34696E+08        -0.12034E+06         0.00000E+00
   -0.12034E+06        -0.60005E+08         0.00000E+00
    0.00000E+00         0.00000E+00        -0.28144E+08
 
   -0.34229E+08        -0.27399E+06         0.00000E+00
   -0.27399E+06        -0.60010E+08         0.00000E+00
    0.00000E+00         0.00000E+00        -0.28436E+08
 
   -0.33791E+08        -0.33720E+06         0.00000E+00
   -0.33720E+06        -0.59998E+08         0.00000E+00
    0.00000E+00         0.00000E+00        -0.28708E+08
 
   -0.33400E+08        -0.33825E+06         0.00000E+00
   -0.33825E+06        -0.59963E+08         0.00000E+00
    0.00000E+00         0.00000E+00        -0.28938E+08
 
   -0.33061E+08        -0.30398E+06         0.00000E+00
   -0.30398E+06        -0.59915E+08         0.00000E+00
    0.00000E+00         0.00000E+00        -0.29127E+08
 
   -0.32771E+08        -0.25153E+06         0.00000E+00
   -0.25153E+06        -0.59865E+08         0.00000E+00
    0.00000E+00         0.00000E+00        -0.29287E+08
 
   -0.32520E+08        -0.18894E+06         0.00000E+00
   -0.18894E+06        -0.59823E+08         0.00000E+00
    0.00000E+00         0.00000E+00        -0.29432E+08
 
   -0.32300E+08        -0.11917E+06         0.00000E+00
   -0.11917E+06        -0.59793E+08         0.00000E+00
    0.00000E+00         0.00000E+00        -0.29573E+08
 
   -0.32102E+08        -0.42540E+05         0.00000E+00
   -0.42540E+05        -0.59781E+08         0.00000E+00
    0.00000E+00         0.00000E+00        -0.29722E+08
 
   -0.31919E+08         0.42596E+05         0.00000E+00
    0.42596E+05        -0.59789E+08         0.00000E+00
    0.00000E+00         0.00000E+00        -0.29887E+08
 
   -0.31747E+08         0.14027E+06         0.00000E+00
    0.14027E+06        -0.59822E+08         0.00000E+00
    0.00000E+00         0.00000E+00        -0.30080E+08
 
   -0.31583E+08         0.25740E+06         0.00000E+00
    0.25740E+06        -0.59883E+08         0.00000E+00
    0.00000E+00         0.00000E+00        -0.30306E+08
 
   -0.31431E+08         0.40356E+06         0.00000E+00
    0.40356E+06        -0.59973E+08         0.00000E+00
    0.00000E+00         0.00000E+00        -0.30568E+08
 
   -0.31297E+08         0.58942E+06         0.00000E+00
    0.58942E+06        -0.60087E+08         0.00000E+00
    0.00000E+00         0.00000E+00        -0.30856E+08
 
   -0.31231E+08         0.83398E+06         0.00000E+00
    0.83398E+06        -0.60215E+08         0.00000E+00
    0.00000E+00         0.00000E+00        -0.31116E+08
 
   -0.34905E+08        -0.12715E+06         0.00000E+00
   -0.12715E+06        -0.60005E+08         0.00000E+00
    0.00000E+00         0.00000E+00        -0.27631E+08
 
   -0.34324E+08        -0.26391E+06         0.00000E+00
   -0.26391E+06        -0.59997E+08         0.00000E+00
    0.00000E+00         0.00000E+00        -0.27959E+08
 
   -0.33808E+08        -0.29693E+06         0.00000E+00
   -0.29693E+06        -0.59952E+08         0.00000E+00
    0.00000E+00         0.00000E+00        -0.28231E+08
 
   -0.33375E+08        -0.27842E+06         0.00000E+00
   -0.27842E+06        -0.59879E+08         0.00000E+00
    0.00000E+00         0.00000E+00        -0.28438E+08
 
   -0.33017E+08        -0.24045E+06         0.00000E+00
   -0.24045E+06        -0.59801E+08         0.00000E+00
    0.00000E+00         0.00000E+00        -0.28599E+08
 
   -0.32717E+08        -0.19469E+06         0.00000E+00
   -0.19469E+06        -0.59730E+08         0.00000E+00
    0.00000E+00         0.00000E+00        -0.28734E+08
 
   -0.32461E+08        -0.14481E+06         0.00000E+00
   -0.14481E+06        -0.59672E+08         0.00000E+00
    0.00000E+00         0.00000E+00        -0.28859E+08
 
   -0.32236E+08        -0.91780E+05         0.00000E+00
   -0.91780E+05        -0.59631E+08         0.00000E+00
    0.00000E+00         0.00000E+00        -0.28985E+08
 
   -0.32032E+08        -0.35253E+05         0.00000E+00
   -0.35253E+05        -0.59610E+08         0.00000E+00
    0.00000E+00         0.00000E+00        -0.29121E+08
 
   -0.31841E+08         0.26236E+05         0.00000E+00
    0.26236E+05        -0.59611E+08         0.00000E+00
    0.00000E+00         0.00000E+00        -0.29278E+08
 
   -0.31655E+08         0.95632E+05         0.00000E+00
    0.95632E+05        -0.59638E+08         0.00000E+00
    0.00000E+00         0.00000E+00        -0.29467E+08
 
   -0.31469E+08         0.17938E+06         0.00000E+00
    0.17938E+06        -0.59697E+08         0.00000E+00
    0.00000E+00         0.00000E+00        -0.29700E+08
 
   -0.31279E+08         0.29102E+06         0.00000E+00
    0.29102E+06        -0.59793E+08         0.00000E+00
    0.00000E+00         0.00000E+00        -0.29993E+08
 
   -0.31092E+08         0.45115E+06         0.00000E+00
    0.45115E+06        -0.59932E+08         0.00000E+00
    0.00000E+00         0.00000E+00        -0.30351E+08
 
   -0.30934E+08         0.67761E+06         0.00000E+00
    0.67761E+06        -0.60093E+08         0.00000E+00
    0.00000E+00         0.00000E+00        -0.30732E+08
 
   -0.35107E+08        -0.12845E+06         0.00000E+00
   -0.12845E+06        -0.60000E+08         0.00000E+00
    0.00000E+00         0.00000E+00        -0.27131E+08
 
   -0.34381E+08        -0.21670E+06         0.00000E+00
   -0.21670E+06        -0.59955E+08         0.00000E+00
    0.00000E+00         0.00000E+00        -0.27482E+08
 
   -0.33798E+08        -0.20996E+06         0.00000E+00
   -0.20996E+06        -0.59851E+08         0.00000E+00
    0.00000E+00         0.00000E+00        -0.27719E+08
 
   -0.33344E+08        -0.18383E+06         0.00000E+00
   -0.18383E+06        -0.59739E+08         0.00000E+00
    0.00000E+00         0.00000E+00        -0.27886E+08
 
   -0.32980E+08        -0.15354E+06         0.00000E+00
   -0.15354E+06        -0.59637E+08         0.00000E+00
    0.00000E+00         0.00000E+00        -0.28016E+08
 
   -0.32677E+08        -0.12203E+06         0.00000E+00
   -0.12203E+06        -0.59551E+08         0.00000E+00
    0.00000E+00         0.00000E+00        -0.28129E+08
 
   -0.32419E+08        -0.89733E+05         0.00000E+00
   -0.89733E+05        -0.59483E+08         0.00000E+00
    0.00000E+00         0.00000E+00        -0.28237E+08
 
   -0.32192E+08        -0.56405E+05         0.00000E+00
   -0.56405E+05        -0.59436E+08         0.00000E+00
    0.00000E+00         0.00000E+00        -0.28350E+08
 
   -0.31985E+08        -0.21611E+05         0.00000E+00
   -0.21611E+05        -0.59410E+08         0.00000E+00
    0.00000E+00         0.00000E+00        -0.28476E+08
 
   -0.31789E+08         0.15501E+05         0.00000E+00
    0.15501E+05        -0.59408E+08         0.00000E+00
    0.00000E+00         0.00000E+00        -0.28625E+08
 
   -0.31596E+08         0.56392E+05         0.00000E+00
    0.56392E+05        -0.59431E+08         0.00000E+00
    0.00000E+00         0.00000E+00        -0.28807E+08
 
   -0.31393E+08         0.10475E+06         0.00000E+00
    0.10475E+06        -0.59485E+08         0.00000E+00
    0.00000E+00         0.00000E+00        -0.29039E+08
 
   -0.31170E+08         0.16985E+06         0.00000E+00
    0.16985E+06        -0.59579E+08         0.00000E+00
    0.00000E+00         0.00000E+00        -0.29344E+08
 
   -0.30910E+08         0.27810E+06         0.00000E+00
    0.27810E+06        -0.59725E+08         0.00000E+00
    0.00000E+00         0.00000E+00        -0.29761E+08
 
   -0.30635E+08         0.48666E+06         0.00000E+00
    0.48666E+06        -0.59950E+08         0.00000E+00
    0.00000E+00         0.00000E+00        -0.30321E+08
 
   -0.35264E+08        -0.92458E+05         0.00000E+00
   -0.92458E+05        -0.59957E+08         0.00000E+00
    0.00000E+00         0.00000E+00        -0.26630E+08
 
   -0.34380E+08        -0.90781E+05         0.00000E+00
   -0.90781E+05        -0.59806E+08         0.00000E+00
    0.00000E+00         0.00000E+00        -0.26936E+08
 
   -0.33779E+08        -0.76442E+05         0.00000E+00
   -0.76442E+05        -0.59654E+08         0.00000E+00
    0.00000E+00         0.00000E+00        -0.27121E+08
 
   -0.33323E+08        -0.64255E+05         0.00000E+00
   -0.64255E+05        -0.59521E+08         0.00000E+00
    0.00000E+00         0.00000E+00        -0.27255E+08
 
   -0.32958E+08        -0.52668E+05         0.00000E+00
   -0.52668E+05        -0.59408E+08         0.00000E+00
    0.00000E+00         0.00000E+00        -0.27364E+08
 
   -0.32655E+08        -0.41417E+05         0.00000E+00
   -0.41417E+05        -0.59317E+08         0.00000E+00
    0.00000E+00         0.00000E+00        -0.27463E+08
 
   -0.32397E+08        -0.30197E+05         0.00000E+00
   -0.30197E+05        -0.59248E+08         0.00000E+00
    0.00000E+00         0.00000E+00        -0.27561E+08
 
   -0.32169E+08        -0.18806E+05         0.00000E+00
   -0.18806E+05        -0.59201E+08         0.00000E+00
    0.00000E+00         0.00000E+00        -0.27666E+08
 
   -0.31961E+08        -0.69943E+04         0.00000E+00
   -0.69943E+04        -0.59177E+08         0.00000E+00
    0.00000E+00         0.00000E+00        -0.27787E+08
 
   -0.31764E+08         0.54609E+04         0.00000E+00
    0.54609E+04        -0.59177E+08         0.00000E+00
    0.00000E+00         0.00000E+00        -0.27931E+08
 
   -0.31567E+08         0.18937E+05         0.00000E+00
    0.18937E+05        -0.59203E+08         0.00000E+00
    0.00000E+00         0.00000E+00        -0.28110E+08
 
   -0.31358E+08         0.34423E+05         0.00000E+00
    0.34423E+05        -0.59260E+08         0.00000E+00
    0.00000E+00         0.00000E+00        -0.28338E+08
 
   -0.31116E+08         0.54412E+05         0.00000E+00
    0.54412E+05        -0.59353E+08         0.00000E+00
    0.00000E+00         0.00000E+00        -0.28645E+08
 
   -0.30802E+08         0.89469E+05         0.00000E+00
    0.89469E+05        -0.59503E+08         0.00000E+00
    0.00000E+00         0.00000E+00        -0.29094E+08
 
   -0.30332E+08         0.19159E+06         0.00000E+00
    0.19159E+06        -0.59756E+08         0.00000E+00
    0.00000E+00         0.00000E+00        -0.29849E+08
 
SCALARS stressS double 
LOOKUP_TABLE default
  -43409629.7206901     
  -43406724.1774411     
  -43393978.0113165     
  -43371166.6012940     
  -43338906.8770362     
  -43298971.1751904     
  -43253504.4301521     
  -43204588.9764658     
  -43153824.6143211     
  -43102063.0185629     
  -43049385.0578230     
  -42995404.7408631     
  -42939540.6216348     
  -42881207.3552564     
  -42819925.7781275     
  -43399934.7388274     
  -43397095.0874204     
  -43384496.0705103     
  -43362038.8989473     
  -43330513.8791835     
  -43291749.4257284     
  -43247685.3522933     
  -43200258.2819850     
  -43150879.1716987     
  -43100266.6201093     
  -43048474.1066110     
  -42995145.9640990     
  -42939739.7786599     
  -42881712.2404175     
  -42820640.1180576     
  -43380618.5829468     
  -43377863.1187744     
  -43365633.8723441     
  -43344021.6645319     
  -43314061.1419538     
  -43277571.8587679     
  -43236257.8370206     
  -43191701.7334910     
  -43144958.1082797     
  -43096541.5359619     
  -43046462.3898034     
  -42994408.5593600     
  -42939915.8503890     
  -42882525.4644578     
  -42821894.5016861     
  -43351760.4772261     
  -43349177.8192013     
  -43337503.8954692     
  -43317278.2312405     
  -43289916.7206817     
  -43256903.2408155     
  -43219575.3044048     
  -43179047.1973213     
  -43135960.7931771     
  -43090615.8512947     
  -43042970.4256010     
  -42992766.7924956     
  -42939658.3739656     
  -42883293.9137689     
  -42823337.9992833     
  -43313478.0090431     
  -43311281.2441632     
  -43300628.1338576     
  -43282607.8524092     
  -43258682.4816049     
  -43230177.1963697     
  -43197928.9905415     
  -43162324.5194770     
  -43123685.7547510     
  -43082110.4853566     
  -43037514.5545497     
  -42989712.2540146     
  -42938456.2496838     
  -42883460.8445915     
  -42824478.3158131     
  -43266029.7490137     
  -43264283.0614894     
  -43255265.1186486     
  -43240339.7666696     
  -43220933.1341538     
  -43197955.1621048     
  -43171414.6114546     
  -43141346.2364229     
  -43107722.3723944     
  -43070486.8748464     
  -43029515.0079696     
  -42984634.3951020     
  -42935646.3018043     
  -42882367.2771053     
  -42824667.9424533     
  -43209521.2157949     
  -43208764.7908795     
  -43201958.1793440     
  -43191045.5804296     
  -43177293.4584806     
  -43160330.3304490     
  -43139943.1426134     
  -43115767.6939736     
  -43087587.2116269     
  -43055160.3299770     
  -43018278.0209782     
  -42976761.0834308     
  -42930484.6870257     
  -42879328.5094836     
  -42823194.6825719     
  -43144419.1739713     
  -43144673.6592197     
  -43141111.4176981     
  -43135470.8602754     
  -43127518.5823984     
  -43116962.6065779     
  -43103000.8621484     
  -43085037.0284434     
  -43062614.0536461     
  -43035367.8643394     
  -43003021.8455998     
  -42965368.1490966     
  -42922225.7301839     
  -42873546.0380208     
  -42819301.8706645     
  -43070553.0263571     
  -43072996.7884322     
  -43073440.5663471     
  -43072963.8800011     
  -43071315.9082030     
  -43067264.6097039     
  -43059907.7378014     
  -43048389.8960750     
  -43032060.7478735     
  -43010426.9587600     
  -42983065.8249951     
  -42949652.6814745     
  -42910045.7713359     
  -42864164.8626940     
  -42812149.7894502     
  -42988978.2833952     
  -42993251.3695390     
  -42998058.7345172     
  -43003405.9842903     
  -43007900.4907704     
  -43010474.3368999     
  -43009873.9162384     
  -43005056.9871100     
  -42995196.8981610     
  -42979525.0255219     
  -42957488.8157194     
  -42928735.6598450     
  -42893037.9048629     
  -42850362.2389849     
  -42800855.3582464     
  -42898949.0720446     
  -42905555.0126416     
  -42914743.0738640     
  -42925554.8078796     
  -42936458.9776152     
  -42945813.1228913     
  -42952182.7045137     
  -42954316.5042422     
  -42951089.0277472     
  -42941672.3137508     
  -42925368.9545097     
  -42901647.7871830     
  -42870235.1990716     
  -42831151.7414581     
  -42784503.6799941     
  -42800232.9659173     
  -42809104.8783607     
  -42822743.1586449     
  -42839189.5135766     
  -42856481.3827804     
  -42872691.9964219     
  -42886109.8292178     
  -42895196.5751520     
  -42898792.8049595     
  -42895850.1528024     
  -42885524.3650966     
  -42867238.5157825     
  -42840602.5219079     
  -42805507.9719902     
  -42762210.2856118     
  -42692763.8499275     
  -42703753.3156750     
  -42721843.9347079     
  -42744010.9032127     
  -42767659.2520699     
  -42790568.1854553     
  -42810809.7626307     
  -42826813.5743899     
  -42837180.6564924     
  -42840786.3954565     
  -42836739.3702080     
  -42824246.9270377     
  -42802858.4716792     
  -42772369.8952054     
  -42732995.8558620     
  -42577554.8253353     
  -42590640.8244063     
  -42612773.2973050     
  -42640162.5672811     
  -42669686.6177522     
  -42698816.7251348     
  -42725515.0663746     
  -42748064.1535629     
  -42765047.9004386     
  -42775243.2232509     
  -42777572.7361400     
  -42771260.1601084     
  -42755643.8737525     
  -42730427.2109725     
  -42695801.2530966     
  -42456218.6249156     
  -42470973.8316473     
  -42496277.8382606     
  -42527886.3984462     
  -42562337.4692124     
  -42596918.8335845     
  -42629432.5249222     
  -42658045.5444621     
  -42681263.1769766     
  -42697812.9352714     
  -42706625.9540427     
  -42706726.3186243     
  -42697425.1234660     
  -42678266.6595251     
  -42649120.4508611     
  -42329748.2385872     
  -42345675.8385738     
  -42373078.5673790     
  -42407624.5420927     
  -42445812.9176780     
  -42484730.4957121     
  -42522039.9439649     
  -42555890.6498387     
  -42584745.6002724     
  -42607290.3297086     
  -42622412.2675520     
  -42629141.7740953     
  -42626614.2958628     
  -42614201.2442957     
  -42591201.0977233     
  -42199148.7346415     
  -42215681.1824587     
  -42244151.7189299     
  -42280306.9504099     
  -42320716.7071535     
  -42362481.7172897     
  -42403223.3814156     
  -42441081.3368730     
  -42474558.2484489     
  -42502447.7191470     
  -42523605.6221634     
  -42537013.0767743     
  -42541635.0028981     
  -42536417.9835023     
  -42520629.5464818     
  -42065940.8453081     
  -42082323.8732591     
  -42110637.2144987     
  -42146948.1187662     
  -42187878.5004011     
  -42230651.0182202     
  -42273019.8517746     
  -42313203.4022669     
  -42349887.8109429     
  -42382062.2827200     
  -42408754.7003401     
  -42428784.8192992     
  -42440881.5438705     
  -42443585.3073018     
  -42436023.0239053     
  -41931680.2809007     
  -41946860.9050177     
  -41973748.8310394     
  -42008539.0030956     
  -42048082.6356488     
  -42089804.9784603     
  -42131618.0660510     
  -42172079.8366772     
  -42210189.3919644     
  -42245193.9184639     
  -42276409.8002380     
  -42302770.3305458     
  -42322712.5016971     
  -42334349.4253840     
  -42335904.8381625     
  -41797646.0348282     
  -41810490.3128561     
  -41834489.8875088     
  -41866016.3956587     
  -41902138.9414412     
  -41940487.4132114     
  -41979383.4767495     
  -42017740.3834425     
  -42055027.7186760     
  -42091032.4669853     
  -42125422.2512703     
  -42157450.5430090     
  -42185458.2009035     
  -42206948.0394538     
  -42219105.1747366     
  -41665001.7912141     
  -41674189.6712472     
  -41693799.1442590     
  -41720221.7142142     
  -41750666.9912699     
  -41783179.5634043     
  -41816553.7830410     
  -41850254.7445624     
  -41884366.1149654     
  -41919223.6831648     
  -41955099.0716642     
  -41991742.7996084     
  -42027619.1556803     
  -42059793.0334086     
  -42084160.7194950     
  -41534858.7529291     
  -41538897.7767912     
  -41552386.0293377     
  -41571695.6941572     
  -41594112.2782465     
  -41618096.2049303     
  -41643155.0429602     
  -41669624.0743545     
  -41698245.2719147     
  -41729950.9273053     
  -41765521.2948502     
  -41805191.2826129     
  -41848140.2619811     
  -41891436.7630846     
  -41929782.3652557     
  -41408131.8649733     
  -41405325.7689151     
  -41410894.3704908     
  -41420809.8943039     
  -41432510.9671504     
  -41445064.0630280     
  -41458955.6773592     
  -41475621.6537061     
  -41496749.7448778     
  -41523686.9770875     
  -41557410.5996801     
  -41598550.1869686     
  -41647147.5750587     
  -41701244.3213797     
  -41754401.0463376     
  -41285565.9318358     
  -41273949.6460983     
  -41269424.2321412     
  -41267292.7582940     
  -41265233.0489956     
  -41263277.5542834     
  -41263287.2544730     
  -41267914.8747557     
  -41279747.4435617     
  -41300699.0125763     
  -41331807.4819454     
  -41373562.6216756     
  -41426158.0246719     
  -41489187.1780689     
  -41558810.3364099     
  -41167903.7585759     
  -41145050.0137843     
  -41127506.3054716     
  -41109832.7782207     
  -41090421.8713073     
  -41070940.4209026     
  -41054875.4461599     
  -41045920.9443945     
  -41047172.1592702     
  -41061024.5621644     
  -41089002.0509146     
  -41131428.1219796     
  -41187997.1702407     
  -41258499.3282580     
  -41342821.6438868     
  -41055540.5453804     
  -41018163.8334825     
  -40983309.4026875     
  -40945192.5438047     
  -40904336.9627773     
  -40864962.3622779     
  -40831862.4046892     
  -40808820.9365432     
  -40798897.1098439     
  -40804675.4472463     
  -40828356.5478906     
  -40871373.6140632     
  -40933249.2353951     
  -41012788.3227362     
  -41106666.6870892     
  -40948782.0796050     
  -40891578.6971592     
  -40832241.1405379     
  -40766925.3976738     
  -40700916.2050475     
  -40640993.6990517     
  -40591609.6529146     
  -40555521.4984138     
  -40534794.2994361     
  -40531762.7015338     
  -40549286.9691853     
  -40590511.9813523     
  -40657631.0705463     
  -40746633.8161960     
  -40853706.2403551     
  -40847073.1623134     
  -40759836.8880177     
  -40663771.8465703     
  -40563998.8658963     
  -40472442.6606276     
  -40394088.4022394     
  -40330959.2035079     
  -40284070.5941932     
  -40254456.1587955     
  -40243419.0244699     
  -40253428.3496596     
  -40288631.1198704     
  -40354754.9288241     
  -40458173.7616522     
  -40586188.0075223     
  -40745943.6681018     
  -40605830.7501349     
  -40455779.9303859     
  -40323079.4220269     
  -40210924.8556458     
  -40119006.3786340     
  -40046423.7146687     
  -39992482.0540074     
  -39957051.5441283     
  -39940646.6206291     
  -39944721.3459501     
  -39972489.5748659     
  -40030853.5132470     
  -40132082.5418993     
  -40301832.8067168     
  -40617047.9567846     
  -40374000.6560734     
  -40184663.7603458     
  -40032669.8870503     
  -39909915.3018005     
  -39811648.0223550     
  -39735063.5720545     
  -39678593.2855541     
  -39641585.0249050     
  -39624021.9354600     
  -39626722.4255192     
  -39651845.8882484     
  -39704626.8936293     
  -39799962.6448401     
  -39978681.0184582     
SCALARS 2waySource double 
LOOKUP_TABLE default
 -3.895147194953088E-005
 -4.005802738095581E-005
 -4.107828267094533E-005
 -4.200311105986569E-005
 -4.282692865838672E-005
 -4.355203583825208E-005
 -4.418489515145204E-005
 -4.473361327443131E-005
 -4.520391899848608E-005
 -4.559723485929686E-005
 -4.590983748477859E-005
 -4.613461773294013E-005
 -4.626300461151691E-005
 -4.628653609135844E-005
 -4.619782553839133E-005
 -3.882906238822855E-005
 -3.993331146995514E-005
 -4.095177028362553E-005
 -4.187561027703406E-005
 -4.269992165758655E-005
 -4.342839856282263E-005
 -4.406685777578688E-005
 -4.462261327987908E-005
 -4.510031580696091E-005
 -4.550041430170544E-005
 -4.581874745966559E-005
 -4.604822278025543E-005
 -4.618047178974523E-005
 -4.620726980970107E-005
 -4.612156058596757E-005
 -3.863097958869486E-005
 -3.972819527597227E-005
 -4.074051488964861E-005
 -4.165973906442788E-005
 -4.248305883025529E-005
 -4.321550893177538E-005
 -4.386193141658446E-005
 -4.442810550710409E-005
 -4.491667615159247E-005
 -4.532663272223336E-005
 -4.565326028071365E-005
 -4.588953546776355E-005
 -4.602750836607047E-005
 -4.605945789804537E-005
 -4.597884755026860E-005
 -3.835897970985185E-005
 -3.944423731284249E-005
 -4.044594427294668E-005
 -4.135719099253334E-005
 -4.217887807444845E-005
 -4.291607738223722E-005
 -4.357278340529701E-005
 -4.415199012557334E-005
 -4.465387227595253E-005
 -4.507583763148811E-005
 -4.541258967833082E-005
 -4.565724769744730E-005
 -4.580246016955296E-005
 -4.584128440925922E-005
 -4.576763500562778E-005
 -3.801566111593238E-005
 -3.908385532051351E-005
 -4.007022873896219E-005
 -4.097122174317705E-005
 -4.179097191584130E-005
 -4.253402484572037E-005
 -4.320277299697739E-005
 -4.379641248411203E-005
 -4.431276897596009E-005
 -4.474774800502882E-005
 -4.509550856886512E-005
 -4.534947248750088E-005
 -4.550300901196055E-005
 -4.554989803173641E-005
 -4.548491501015926E-005
 -3.760451866646569E-005
 -3.865003552022622E-005
 -3.961684231266235E-005
 -4.050610735591519E-005
 -4.132400010562559E-005
 -4.207422486224526E-005
 -4.275533106269246E-005
 -4.336327682131259E-005
 -4.389383262751635E-005
 -4.434152960021236E-005
 -4.470021284831764E-005
 -4.496363104474571E-005
 -4.512585844053452E-005
 -4.518160077476286E-005
 -4.512659849542785E-005
 -3.712982533288163E-005
 -3.814687740556938E-005
 -3.909048075240084E-005
 -3.996713521724500E-005
 -4.078405569307562E-005
 -4.154132025108029E-005
 -4.223344164331534E-005
 -4.285404310374052E-005
 -4.339699103994312E-005
 -4.385579262531234E-005
 -4.422413106131900E-005
 -4.449617565580848E-005
 -4.466682340446611E-005
 -4.473181506817711E-005
 -4.468767261613080E-005
 -3.659671792881247E-005
 -3.757941093975415E-005
 -3.849701779257856E-005
 -3.936124593307367E-005
 -4.017697787705743E-005
 -4.093904975018027E-005
 -4.163932854497820E-005
 -4.226927851148853E-005
 -4.282125568157462E-005
 -4.328814722859066E-005
 -4.366372926210725E-005
 -4.394277244825734E-005
 -4.412094773221872E-005
 -4.419492429820029E-005
 -4.416219330742913E-005
 -3.601126776492189E-005
 -3.695377902669017E-005
 -3.784385662991755E-005
 -3.869574060794749E-005
 -3.950752296876219E-005
 -4.027055582722651E-005
 -4.097421151656045E-005
 -4.160844858891302E-005
 -4.216459002115541E-005
 -4.263531533637032E-005
 -4.301471585421488E-005
 -4.329813967896362E-005
 -4.348220152993997E-005
 -4.356435738019307E-005
 -4.354317925554885E-005
 -3.537994249438394E-005
 -3.627715717019876E-005
 -3.713981624568309E-005
 -3.797660246911503E-005
 -3.877981537652306E-005
 -3.953774038183637E-005
 -4.023813680359160E-005
 -4.086986266985438E-005
 -4.142385909665469E-005
 -4.189286960204921E-005
 -4.227146480878202E-005
 -4.255586377784121E-005
 -4.274346013823285E-005
 -4.283272941166757E-005
 -4.282268261990225E-005
 -3.470986351020904E-005
 -3.555905001799204E-005
 -3.639245336671099E-005
 -3.720884210919499E-005
 -3.799653606560751E-005
 -3.874133596142136E-005
 -3.942985784285372E-005
 -4.005063628132805E-005
 -4.059456788418550E-005
 -4.105499246661849E-005
 -4.142727637152215E-005
 -4.170842515996813E-005
 -4.189670137576845E-005
 -4.199133413656659E-005
 -4.199191289488933E-005
 -3.400901752072360E-005
 -3.480872754588098E-005
 -3.560796480178358E-005
 -3.639660894274770E-005
 -3.715937418638073E-005
 -3.788069258360525E-005
 -3.854677594107395E-005
 -3.914630072701685E-005
 -3.967091151313687E-005
 -4.011476089634444E-005
 -4.047416736199052E-005
 -4.074711103150659E-005
 -4.093273405708222E-005
 -4.103075308816753E-005
 -4.104126167851503E-005
 -3.328602332301184E-005
 -3.403403026619730E-005
 -3.479170823475991E-005
 -3.554250603935958E-005
 -3.626857643570399E-005
 -3.695376497180599E-005
 -3.758472966071557E-005
 -3.815117202978844E-005
 -3.864577717297997E-005
 -3.906389657010807E-005
 -3.940305932272672E-005
 -3.966221442240384E-005
 -3.984131737862130E-005
 -3.994060396174459E-005
 -3.996034994942229E-005
 -3.255024842417340E-005
 -3.324212282967464E-005
 -3.394817857846943E-005
 -3.464806439776525E-005
 -3.532288309999025E-005
 -3.595701378810772E-005
 -3.653836491881692E-005
 -3.705820488072176E-005
 -3.751083216921448E-005
 -3.789310812723889E-005
 -3.820376665861270E-005
 -3.844300664038829E-005
 -3.861146144100186E-005
 -3.870976336349972E-005
 -3.873816309510134E-005
 -3.181194038399962E-005
 -3.243942647443166E-005
 -3.308058578242891E-005
 -3.371348255411736E-005
 -3.431988472769990E-005
 -3.488580873309325E-005
 -3.540121843965217E-005
 -3.585945961642546E-005
 -3.625684446368188E-005
 -3.659202106239741E-005
 -3.686534155134789E-005
 -3.707802596985679E-005
 -3.723153587831367E-005
 -3.732674152653050E-005
 -3.736313179808553E-005
 -3.108123480845811E-005
 -3.163156343740953E-005
 -3.219109419645439E-005
 -3.273815968154716E-005
 -3.325662617329127E-005
 -3.373507645683048E-005
 -3.416620662723379E-005
 -3.454616358261664E-005
 -3.487375842510950E-005
 -3.514973453887184E-005
 -3.537617006210135E-005
 -3.555552932036614E-005
 -3.568979972991624E-005
 -3.577978325022916E-005
 -3.582397671488832E-005
 -3.036800548517312E-005
 -3.082384746375837E-005
 -3.128172365294649E-005
 -3.172158533658865E-005
 -3.213016135847708E-005
 -3.249956266715820E-005
 -3.282606000791014E-005
 -3.310924400934338E-005
 -3.335100735551373E-005
 -3.355481001575373E-005
 -3.372453751333297E-005
 -3.386379029796251E-005
 -3.397488654733252E-005
 -3.405792307535598E-005
 -3.411057275392701E-005
 -2.968237551788281E-005
 -3.002193697336867E-005
 -3.035483693399486E-005
 -3.066342820304690E-005
 -3.093780919565527E-005
 -3.117419783671945E-005
 -3.137338722174866E-005
 -3.153932811904982E-005
 -3.167791466144428E-005
 -3.179568711860274E-005
 -3.189875953436608E-005
 -3.199162335258166E-005
 -3.207639697011383E-005
 -3.215204958776490E-005
 -3.221449163540029E-005
 -2.903413348002164E-005
 -2.923130840568434E-005
 -2.941299174159700E-005
 -2.956377367123886E-005
 -2.967724355472818E-005
 -2.975427676876162E-005
 -2.980108620261042E-005
 -2.982734703788717E-005
 -2.984400550317322E-005
 -2.986150172216144E-005
 -2.988817526622027E-005
 -2.992918228377910E-005
 -2.998571133454736E-005
 -3.005485174661831E-005
 -3.012948287977792E-005
 -2.843181104112116E-005
 -2.845694679779499E-005
 -2.845856393498818E-005
 -2.842279190628972E-005
 -2.834648820316132E-005
 -2.823550364477361E-005
 -2.810268962636649E-005
 -2.796493828502636E-005
 -2.783994444756246E-005
 -2.774284771147819E-005
 -2.768421696759806E-005
 -2.766909200746170E-005
 -2.769684981847290E-005
 -2.776149497022098E-005
 -2.785226733238677E-005
 -2.788263968690789E-005
 -2.770289065021244E-005
 -2.749308925887359E-005
 -2.723993480965034E-005
 -2.694295062708368E-005
 -2.661347689062409E-005
 -2.627226549583442E-005
 -2.594539659315962E-005
 -2.565887738714668E-005
 -2.543349668499181E-005
 -2.528175864932909E-005
 -2.520759413665773E-005
 -2.520722541309234E-005
 -2.527064902967257E-005
 -2.538256781031560E-005
 -2.739275200293719E-005
 -2.697170247992215E-005
 -2.651605193769662E-005
 -2.601207666681769E-005
 -2.546163994569075E-005
 -2.488237233628952E-005
 -2.430447116984520E-005
 -2.376468085695064E-005
 -2.329834520199757E-005
 -2.293226054533675E-005
 -2.268070701430005E-005
 -2.254536542052147E-005
 -2.251825994155387E-005
 -2.258436485644856E-005
 -2.272337782563510E-005
 -2.696700733785339E-005
 -2.626351889548151E-005
 -2.552340574140089E-005
 -2.473111325852453E-005
 -2.389214394464782E-005
 -2.303275012384510E-005
 -2.219407397225757E-005
 -2.142302995304027E-005
 -2.076284504169388E-005
 -2.024549287424028E-005
 -1.988731557158423E-005
 -1.968832984101838E-005
 -1.963554277594641E-005
 -1.970831308865060E-005
 -1.988044772451057E-005
 -2.660891594009403E-005
 -2.557497299321261E-005
 -2.450416367815428E-005
 -2.337945526300451E-005
 -2.221448841978118E-005
 -2.104882821488841E-005
 -1.993533387734027E-005
 -1.892635396708079E-005
 -1.806642304798705E-005
 -1.738957360375095E-005
 -1.691598977705051E-005
 -1.664764879522513E-005
 -1.656845492720865E-005
 -1.665063379446366E-005
 -1.686331427824171E-005
 -2.632152727250169E-005
 -2.489698704733664E-005
 -2.343554867850669E-005
 -2.192390821790079E-005
 -2.039445455152971E-005
 -1.890697102357890E-005
 -1.752202628709850E-005
 -1.628596543021842E-005
 -1.523319330323827E-005
 -1.439318906863618E-005
 -1.379152401970722E-005
 -1.344052486112001E-005
 -1.332881182363510E-005
 -1.342364485634919E-005
 -1.368349904902328E-005
 -2.610647874910897E-005
 -2.420850558004629E-005
 -2.227254841454838E-005
 -2.030622090866174E-005
 -1.838127974317177E-005
 -1.657856604058554E-005
 -1.494901662358972E-005
 -1.351590167962012E-005
 -1.229284888161069E-005
 -1.129637943135356E-005
 -1.055278458452694E-005
 -1.009411480063753E-005
 -9.931835707544755E-006
 -1.003723442888230E-005
 -1.035548839556372E-005
 -2.596323531214480E-005
 -2.346243001611085E-005
 -2.092659262202557E-005
 -1.843344927726511E-005
 -1.611460664351090E-005
 -1.403858626177388E-005
 -1.221350262741464E-005
 -1.062832875499121E-005
 -9.271675090455878E-006
 -8.141785353736906E-006
 -7.255077322098826E-006
 -6.654341647257107E-006
 -6.400373847717809E-006
 -6.501678232142671E-006
 -6.896233494746684E-006
 -2.587992172647379E-005
 -2.254127925900514E-005
 -1.922572443155740E-005
 -1.618739854666708E-005
 -1.354686325495896E-005
 -1.127251588676665E-005
 -9.314366381765048E-006
 -7.628714157074212E-006
 -6.183813339064930E-006
 -4.960571333604871E-006
 -3.958111456252677E-006
 -3.205340245086733E-006
 -2.785179402917380E-006
 -2.836074420127104E-006
 -3.329384206976352E-006
 -2.578297332252185E-005
 -2.110486876524248E-005
 -1.690954453421441E-005
 -1.348890457830735E-005
 -1.065602055779032E-005
 -8.273464877747256E-006
 -6.247727741491663E-006
 -4.514371618130339E-006
 -3.029117678729451E-006
 -1.762457002097457E-006
 -6.992849411798307E-007
  1.553658521108936E-007
  7.532403589993876E-007
  9.292283184685665E-007
  2.941890060866656E-007
 -2.494860200485269E-005
 -1.842756080469053E-005
 -1.386225725387668E-005
 -1.031724420573985E-005
 -7.435253111633372E-006
 -5.033762866876151E-006
 -3.003383014527939E-006
 -1.273163095955074E-006
  2.043089642326070E-007
  1.461549575192261E-006
  2.518066153141031E-006
  3.379772264899767E-006
  4.030091342502883E-006
  4.384647471735045E-006
  4.039643160809058E-006
SCALARS poroP double 
LOOKUP_TABLE default
  1.605717216796028E-005
  1.496467974266923E-005
  1.383956101251821E-005
  1.270397836200157E-005
  1.158078506952848E-005
  1.048999007351769E-005
  9.447423256544923E-006
  8.464108010608398E-006
  7.548032147220500E-006
  6.703941049025206E-006
  5.934319259961917E-006
  5.239843696825824E-006
  4.620069208688755E-006
  4.073996066666899E-006
  3.600439491333596E-006
  1.599656905498068E-005
  1.490990752831427E-005
  1.379100987608108E-005
  1.266352942654573E-005
  1.155108016435061E-005
  1.047251614746122E-005
  9.443096718117255E-006
  8.472883254130880E-006
  7.568910343415976E-006
  6.735213790080790E-006
  5.973917721533629E-006
  5.285615340216549E-006
  4.669944167029324E-006
  4.126030267635485E-006
  3.652989343451787E-006
  1.587226114835376E-005
  1.479735775404244E-005
  1.369217218609236E-005
  1.258188089916185E-005
  1.149188274868067E-005
  1.043876103237159E-005
  9.435989640429461E-006
  8.491980339446154E-006
  7.611875928990877E-006
  6.798437771313473E-006
  6.053231399695478E-006
  5.376878614595772E-006
  4.769188374658434E-006
  4.229559792935731E-006
  3.757657134559720E-006
  1.567969011311230E-005
  1.462185740394207E-005
  1.353971653261577E-005
  1.245963169871710E-005
  1.140498883142213E-005
  1.039142247639219E-005
  9.429232292830015E-006
  8.524187263502277E-006
  7.678769718985154E-006
  6.894495695604725E-006
  6.172393299268101E-006
  5.513116743297027E-006
  4.916810750291923E-006
  4.383597782951572E-006
  3.913628334840732E-006
  1.541307975851098E-005
  1.437855624059366E-005
  1.332978357823559E-005
  1.229543748242611E-005
  1.129325677732425E-005
  1.033509196258524E-005
  9.427378715655103E-006
  8.572795214127722E-006
  7.771444992607643E-006
  7.023948196527462E-006
  6.330982361272437E-006
  5.693279696498568E-006
  5.111640341556725E-006
  4.586892435008843E-006
  4.119688364588731E-006
  1.506703464720914E-005
  1.406461781553603E-005
  1.306482273101506E-005
  1.209234929685199E-005
  1.116081246071015E-005
  1.027451593709656E-005
  9.434816834512251E-006
  8.640637558088492E-006
  7.891288935374927E-006
  7.186885647413817E-006
  6.528121881504049E-006
  5.916142277687497E-006
  5.352356439536254E-006
  4.837998124629243E-006
  4.374343804514605E-006
  1.463929841508375E-005
  1.368077039005041E-005
  1.274719464543578E-005
  1.185718436588207E-005
  1.101388339184752E-005
  1.021434759525108E-005
  9.453598140127608E-006
  8.728680627328534E-006
  8.038267317093510E-006
  7.382616645931407E-006
  6.762884340016466E-006
  6.180560857513624E-006
  5.637358999359061E-006
  5.135158203073544E-006
  4.675916328445751E-006
  1.413183058306790E-005
  1.323393960548090E-005
  1.238708774550104E-005
  1.159898528023798E-005
  1.085971095277226E-005
  1.015714786610867E-005
  9.483883615447324E-006
  8.835797808887075E-006
  8.211137137445739E-006
  7.610105139955581E-006
  7.034089152179663E-006
  6.484956525580864E-006
  5.964957437493514E-006
  5.476629339290801E-006
  5.022478766748714E-006
  1.355691850907225E-005
  1.273577392524673E-005
  1.199919603218273E-005
  1.132833892783418E-005
  1.070092061119222E-005
  1.010257921622776E-005
  9.523955962388049E-006
  8.959685350218844E-006
  8.407407109390774E-006
  7.866945254239555E-006
  7.339601317451260E-006
  6.827601067344144E-006
  6.333579129962141E-006
  5.860572015693484E-006
  5.412053015298333E-006
  1.292823152204934E-005
  1.221421429349961E-005
  1.159933922456085E-005
  1.104896099021956E-005
  1.053771558502650E-005
  1.004856839350893E-005
  9.570541599926838E-006
  9.096657487766934E-006
  8.623454634489522E-006
  8.150081323652665E-006
  7.677187008087101E-006
  7.206605264959668E-006
  6.741353212891693E-006
  6.285219427080843E-006
  5.842456067800920E-006
  1.227974809548322E-005
  1.168547361211398E-005
  1.119381172316102E-005
  1.076338428297603E-005
  1.036867360924991E-005
  9.991739875804249E-006
  9.619178851529851E-006
  9.242199782402893E-006
  8.855558380895030E-006
  8.456370388001577E-006
  8.043869794018796E-006
  7.619522160937462E-006
  7.186281222968231E-006
  6.748604016215077E-006
  6.311542834734096E-006
  1.163974106430422E-005
  1.116079161083723E-005
  1.078441503872198E-005
  1.047007563609611E-005
  1.019128899648602E-005
  9.928509276425565E-006
  9.666076298919965E-006
  9.392451623775758E-006
  9.099394363340109E-006
  8.781398088885389E-006
  8.436073858498173E-006
  8.063328971052057E-006
  7.665893455182775E-006
  7.248493025378025E-006
  6.817066357148361E-006
  1.102009712307456E-005
  1.064401322948338E-005
  1.037298658122884E-005
  1.016910752672090E-005
  1.000458741725175E-005
  9.856921978510802E-006
  9.708141846033043E-006
  9.542995411791933E-006
  9.349805004340524E-006
  9.120214112041540E-006
  8.848974266847628E-006
  8.534153539151494E-006
  8.177131324919252E-006
  7.782428641502546E-006
  7.356619573282545E-006
  1.041744720353827E-005
  1.013435600279622E-005
  9.961703763966203E-006
  9.863082344528391E-006
  9.809495868477048E-006
  9.776263911097514E-006
  9.742087233429154E-006
  9.688931282917437E-006
  9.601135232018260E-006
  9.466696815611341E-006
  9.276936235421442E-006
  9.026890995382736E-006
  8.715912562439342E-006
  8.347247847391561E-006
  7.927845144619445E-006
  9.824645490604130E-006
  9.632972512476194E-006
  9.554506734430127E-006
  9.555639136165002E-006
  9.607859712059744E-006
  9.685501055405248E-006
  9.765000755431102E-006
  9.825113357542809E-006
  9.846927774171242E-006
  9.813883996247516E-006
  9.712866719316186E-006
  9.535316698176956E-006
  9.277172228954007E-006
  8.939279227113030E-006
  8.527753726380520E-006
  9.241358286098720E-006
  9.141286412937224E-006
  9.153904096604853E-006
  9.249164684141464E-006
  9.400851880887766E-006
  9.583879824311442E-006
  9.773875421651358E-006
  9.946905582988856E-006
  1.008033914482684E-005
  1.015336153118967E-005
  1.014820760621750E-005
  1.005137603184947E-005
  9.854046224598236E-006
  9.553276113035417E-006
  9.152491838440797E-006
  8.668754129419702E-006
  8.658943519222046E-006
  8.759621603991491E-006
  8.944545368130052E-006
  9.189769197754849E-006
  9.471876213413901E-006
  9.766668340971642E-006
  1.004903218009633E-005
  1.029360757610913E-005
  1.047550693835433E-005
  1.057225855143715E-005
  1.056455928411732E-005
  1.043722072336342E-005
  1.018210278156873E-005
  9.798966609051661E-006
  8.105471023691152E-006
  8.184911226756460E-006
  8.371692976664345E-006
  8.642648897907175E-006
  8.976104804877723E-006
  9.350422798930183E-006
  9.742362830434977E-006
  1.012723971213926E-005
  1.047870222583795E-005
  1.076947092636103E-005
  1.097219395247276E-005
  1.106162068244376E-005
  1.101560507313699E-005
  1.081793387274099E-005
  1.046305934907341E-005
  7.551082250523022E-006
  7.719760135431325E-006
  7.991308958632787E-006
  8.345121911686691E-006
  8.761504443065781E-006
  9.220244721567383E-006
  9.700055675085224E-006
  1.017775556109893E-005
  1.062774325739051E-005
  1.102273324151677E-005
  1.133295764136552E-005
  1.152732697431144E-005
  1.157591054229224E-005
  1.145191675771887E-005
  1.113980338664642E-005
  7.007709347325608E-006
  7.265619740067190E-006
  7.620840567716117E-006
  8.054267261620432E-006
  8.547612939568804E-006
  9.082255302453995E-006
  9.638777834280909E-006
  1.019634057322520E-005
  1.073251409404952E-005
  1.122245155483345E-005
  1.163766596818569E-005
  1.194378150813526E-005
  1.210233720973956E-005
  1.207352444280106E-005
  1.182547109515046E-005
  6.478994724374068E-006
  6.826065703985566E-006
  7.263609633655786E-006
  7.773073932979386E-006
  8.336795156067783E-006
  8.937338271018140E-006
  9.557119100749986E-006
  1.017859507542052E-005
  1.078435948940811E-005
  1.135553166218220E-005
  1.186836623998762E-005
  1.228988459473646E-005
  1.257538367179185E-005
  1.266908064077519E-005
  1.251508191114155E-005
  5.969206666631926E-006
  6.405374857724836E-006
  6.923969137823348E-006
  7.505467804991554E-006
  8.131776123777528E-006
  8.786027755951294E-006
  9.452931792795104E-006
  1.011957943667344E-005
  1.077522917465246E-005
  1.140933152892281E-005
  1.200693667799373E-005
  1.254213471867118E-005
  1.296995219603430E-005
  1.321948718450007E-005
  1.320088225411229E-005
  5.482433303642245E-006
  6.008226072085273E-006
  6.606770947423591E-006
  7.255778586626782E-006
  7.935150312891753E-006
  8.628227201187930E-006
  9.323090440040670E-006
  1.001332122194442E-005
  1.069687304613854E-005
  1.137305099213482E-005
  1.203795225195000E-005
  1.267772001124373E-005
  1.325684551450355E-005
  1.369905711631693E-005
  1.387318634629433E-005
  5.022005128460601E-006
  5.639348037453463E-006
  6.317324216442597E-006
  7.028117023370286E-006
  7.748331324643349E-006
  8.461988484348898E-006
  9.162663634839978E-006
  9.853009926811084E-006
  1.054158063337004E-005
  1.123823060491732E-005
  1.195011027161981E-005
  1.267712522160285E-005
  1.340184798755057E-005
  1.406356502471708E-005
  1.450521166512165E-005
  4.590419080599928E-006
  5.303575362652178E-006
  6.060615923072779E-006
  6.824851808240223E-006
  7.569291402969745E-006
  8.281498547459965E-006
  8.964259455922402E-006
  9.631557400320654E-006
  1.030288729181687E-005
  1.099860788069325E-005
  1.173653301192104E-005
  1.252955784283844E-005
  1.338243563619797E-005
  1.427461727676074E-005
  1.507454570900766E-005
  4.189986541675534E-006
  5.006342702828834E-006
  5.840606310037030E-006
  6.643749298168382E-006
  7.388998899987393E-006
  8.074795216176599E-006
  8.717558365631387E-006
  9.342324902642266E-006
  9.977268635700889E-006
  1.065160320231915E-005
  1.139404799716055E-005
  1.223067442824604E-005
  1.318579963603269E-005
  1.428255695846761E-005
  1.549067762606114E-005
  3.823138276957295E-006
  4.754093955232861E-006
  5.656915126470099E-006
  6.471961097231135E-006
  7.186992062045172E-006
  7.822576350079577E-006
  8.409517985586463E-006
  8.979934877503097E-006
  9.566105281297518E-006
  1.020195519919649E-005
  1.092503174873990E-005
  1.177793073947652E-005
  1.280645034837617E-005
  1.407908067930493E-005
  1.572720334582796E-005
  3.494941412566630E-006
  4.552531771629899E-006
  5.494590554928187E-006
  6.276330849792254E-006
  6.929822853756939E-006
  7.500447151568116E-006
  8.026485656668200E-006
  8.540814045039194E-006
  9.074694127870160E-006
  9.662022593967800E-006
  1.034454337926348E-005
  1.117882018670375E-005
  1.224630956167974E-005
  1.366785831379526E-005
  1.575890070367031E-005
  3.214598881598279E-006
  4.390545977906070E-006
  5.297870641585905E-006
  5.999557734169188E-006
  6.578320979265642E-006
  7.085386477580730E-006
  7.556810543708259E-006
  8.022282302158252E-006
  8.509706856881034E-006
  9.049773602458061E-006
  9.682410817088609E-006
  1.046822513969336E-005
  1.151450776866289E-005
  1.303663355781909E-005
  1.559666852543649E-005
  2.976902923786341E-006
  4.158258441696053E-006
  4.959034386626767E-006
  5.581488490182056E-006
  6.101330762365838E-006
  6.561858005980729E-006
  6.994108023733087E-006
  7.424224073781554E-006
  7.877218186300383E-006
  8.380946434308721E-006
  8.971224298073966E-006
  9.704537582948994E-006
  1.068968876380077E-005
  1.219442253573857E-005
  1.528320438991291E-005
SCALARS elementIsPlast double 
LOOKUP_TABLE default
   1.00000000000000     
   1.00000000000000     
   1.00000000000000     
   1.00000000000000     
   1.00000000000000     
   1.00000000000000     
   1.00000000000000     
   1.00000000000000     
   1.00000000000000     
   1.00000000000000     
   1.00000000000000     
   1.00000000000000     
   1.00000000000000     
   1.00000000000000     
   1.00000000000000     
   1.00000000000000     
   1.00000000000000     
   1.00000000000000     
   1.00000000000000     
   1.00000000000000     
   1.00000000000000     
   1.00000000000000     
   1.00000000000000     
   1.00000000000000     
   1.00000000000000     
   1.00000000000000     
   1.00000000000000     
   1.00000000000000     
   1.00000000000000     
   1.00000000000000     
   1.00000000000000     
   1.00000000000000     
   1.00000000000000     
   1.00000000000000     
   1.00000000000000     
   1.00000000000000     
   1.00000000000000     
   1.00000000000000     
   1.00000000000000     
   1.00000000000000     
   1.00000000000000     
   1.00000000000000     
   1.00000000000000     
   1.00000000000000     
   1.00000000000000     
   1.00000000000000     
   1.00000000000000     
   1.00000000000000     
   1.00000000000000     
   1.00000000000000     
   1.00000000000000     
   1.00000000000000     
   1.00000000000000     
   1.00000000000000     
   1.00000000000000     
   1.00000000000000     
   1.00000000000000     
   1.00000000000000     
   1.00000000000000     
   1.00000000000000     
   1.00000000000000     
   1.00000000000000     
   1.00000000000000     
   1.00000000000000     
   1.00000000000000     
   1.00000000000000     
   1.00000000000000     
   1.00000000000000     
   1.00000000000000     
   1.00000000000000     
   1.00000000000000     
   1.00000000000000     
   1.00000000000000     
   1.00000000000000     
   1.00000000000000     
   1.00000000000000     
   1.00000000000000     
   1.00000000000000     
   1.00000000000000     
   1.00000000000000     
   1.00000000000000     
   1.00000000000000     
   1.00000000000000     
   1.00000000000000     
   1.00000000000000     
   1.00000000000000     
   1.00000000000000     
   1.00000000000000     
   1.00000000000000     
   1.00000000000000     
   1.00000000000000     
   1.00000000000000     
   1.00000000000000     
   1.00000000000000     
   1.00000000000000     
   1.00000000000000     
   1.00000000000000     
   1.00000000000000     
   1.00000000000000     
   1.00000000000000     
   1.00000000000000     
   1.00000000000000     
   1.00000000000000     
   1.00000000000000     
   1.00000000000000     
   1.00000000000000     
   1.00000000000000     
   1.00000000000000     
   1.00000000000000     
   1.00000000000000     
   1.00000000000000     
   1.00000000000000     
   1.00000000000000     
   1.00000000000000     
   1.00000000000000     
   1.00000000000000     
   1.00000000000000     
   1.00000000000000     
   1.00000000000000     
   1.00000000000000     
   1.00000000000000     
   1.00000000000000     
   1.00000000000000     
   1.00000000000000     
   1.00000000000000     
   1.00000000000000     
   1.00000000000000     
   1.00000000000000     
   1.00000000000000     
   1.00000000000000     
   1.00000000000000     
   1.00000000000000     
   1.00000000000000     
   1.00000000000000     
   1.00000000000000     
   1.00000000000000     
   1.00000000000000     
   1.00000000000000     
   1.00000000000000     
   1.00000000000000     
   1.00000000000000     
   1.00000000000000     
   1.00000000000000     
   1.00000000000000     
   1.00000000000000     
   1.00000000000000     
   1.00000000000000     
   1.00000000000000     
   1.00000000000000     
   1.00000000000000     
   1.00000000000000     
   1.00000000000000     
   1.00000000000000     
   1.00000000000000     
   1.00000000000000     
   1.00000000000000     
   1.00000000000000     
   1.00000000000000     
   1.00000000000000     
   1.00000000000000     
   1.00000000000000     
   1.00000000000000     
   1.00000000000000     
   1.00000000000000     
   1.00000000000000     
   1.00000000000000     
   1.00000000000000     
   1.00000000000000     
   1.00000000000000     
   1.00000000000000     
   1.00000000000000     
   1.00000000000000     
   1.00000000000000     
   1.00000000000000     
   1.00000000000000     
   1.00000000000000     
   1.00000000000000     
   1.00000000000000     
   1.00000000000000     
   1.00000000000000     
   1.00000000000000     
   1.00000000000000     
   1.00000000000000     
   1.00000000000000     
   1.00000000000000     
   1.00000000000000     
   1.00000000000000     
   1.00000000000000     
   1.00000000000000     
   1.00000000000000     
   1.00000000000000     
   1.00000000000000     
   1.00000000000000     
   1.00000000000000     
   1.00000000000000     
   1.00000000000000     
   1.00000000000000     
   1.00000000000000     
   1.00000000000000     
   1.00000000000000     
   1.00000000000000     
   1.00000000000000     
   1.00000000000000     
   1.00000000000000     
   1.00000000000000     
   1.00000000000000     
   1.00000000000000     
   1.00000000000000     
   1.00000000000000     
   1.00000000000000     
   1.00000000000000     
   1.00000000000000     
   1.00000000000000     
   1.00000000000000     
   1.00000000000000     
   1.00000000000000     
   1.00000000000000     
   1.00000000000000     
   1.00000000000000     
   1.00000000000000     
   1.00000000000000     
   1.00000000000000     
   1.00000000000000     
   1.00000000000000     
   1.00000000000000     
   1.00000000000000     
   1.00000000000000     
   1.00000000000000     
   1.00000000000000     
   1.00000000000000     
   1.00000000000000     
   1.00000000000000     
   1.00000000000000     
   1.00000000000000     
   1.00000000000000     
   1.00000000000000     
   1.00000000000000     
   1.00000000000000     
   1.00000000000000     
   1.00000000000000     
   1.00000000000000     
   1.00000000000000     
   1.00000000000000     
   1.00000000000000     
   1.00000000000000     
   1.00000000000000     
   1.00000000000000     
   1.00000000000000     
   1.00000000000000     
   1.00000000000000     
   1.00000000000000     
   1.00000000000000     
   1.00000000000000     
   1.00000000000000     
   1.00000000000000     
   1.00000000000000     
   1.00000000000000     
   1.00000000000000     
   1.00000000000000     
   1.00000000000000     
   1.00000000000000     
   1.00000000000000     
   1.00000000000000     
   1.00000000000000     
   1.00000000000000     
   1.00000000000000     
   1.00000000000000     
   1.00000000000000     
   1.00000000000000     
   1.00000000000000     
   1.00000000000000     
   1.00000000000000     
   1.00000000000000     
   1.00000000000000     
   1.00000000000000     
   1.00000000000000     
   1.00000000000000     
   1.00000000000000     
   1.00000000000000     
   1.00000000000000     
   1.00000000000000     
   1.00000000000000     
   1.00000000000000     
   1.00000000000000     
   1.00000000000000     
   1.00000000000000     
   1.00000000000000     
   1.00000000000000     
   1.00000000000000     
   1.00000000000000     
   1.00000000000000     
   1.00000000000000     
   1.00000000000000     
   1.00000000000000     
   1.00000000000000     
   1.00000000000000     
   1.00000000000000     
   1.00000000000000     
   1.00000000000000     
   1.00000000000000     
   1.00000000000000     
   1.00000000000000     
   1.00000000000000     
   1.00000000000000     
   1.00000000000000     
   1.00000000000000     
   1.00000000000000     
   1.00000000000000     
   1.00000000000000     
   1.00000000000000     
   1.00000000000000     
   1.00000000000000     
   1.00000000000000     
   1.00000000000000     
   1.00000000000000     
   1.00000000000000     
   1.00000000000000     
   1.00000000000000     
   1.00000000000000     
   1.00000000000000     
   1.00000000000000     
   1.00000000000000     
   1.00000000000000     
   1.00000000000000     
   1.00000000000000     
   1.00000000000000     
   1.00000000000000     
   1.00000000000000     
   1.00000000000000     
   1.00000000000000     
   1.00000000000000     
   1.00000000000000     
   1.00000000000000     
   1.00000000000000     
   1.00000000000000     
   1.00000000000000     
   1.00000000000000     
   1.00000000000000     
   1.00000000000000     
   1.00000000000000     
   1.00000000000000     
   1.00000000000000     
   1.00000000000000     
   1.00000000000000     
   1.00000000000000     
   1.00000000000000     
   1.00000000000000     
   1.00000000000000     
   1.00000000000000     
   1.00000000000000     
   1.00000000000000     
   1.00000000000000     
   1.00000000000000     
   1.00000000000000     
   1.00000000000000     
   1.00000000000000     
   1.00000000000000     
   1.00000000000000     
   1.00000000000000     
   1.00000000000000     
   1.00000000000000     
   1.00000000000000     
   1.00000000000000     
   1.00000000000000     
   1.00000000000000     
   1.00000000000000     
   1.00000000000000     
   1.00000000000000     
   1.00000000000000     
   1.00000000000000     
   1.00000000000000     
   1.00000000000000     
   1.00000000000000     
   1.00000000000000     
   1.00000000000000     
   1.00000000000000     
   1.00000000000000     
   1.00000000000000     
   1.00000000000000     
   1.00000000000000     
   1.00000000000000     
   1.00000000000000     
   1.00000000000000     
   1.00000000000000     
   1.00000000000000     
   1.00000000000000     
   1.00000000000000     
   1.00000000000000     
   1.00000000000000     
   1.00000000000000     
   1.00000000000000     
   1.00000000000000     
   1.00000000000000     
   1.00000000000000     
   1.00000000000000     
   1.00000000000000     
   1.00000000000000     
   1.00000000000000     
   1.00000000000000     
   1.00000000000000     
   1.00000000000000     
   1.00000000000000     
   1.00000000000000     
   1.00000000000000     
   1.00000000000000     
   1.00000000000000     
   1.00000000000000     
   1.00000000000000     
   1.00000000000000     
   1.00000000000000     
   1.00000000000000     
   1.00000000000000     
   1.00000000000000     
   1.00000000000000     
   1.00000000000000     
   1.00000000000000     
   1.00000000000000     
   1.00000000000000     
   1.00000000000000     
   1.00000000000000     
   1.00000000000000     
   1.00000000000000     
   1.00000000000000     
   1.00000000000000     
   1.00000000000000     
   1.00000000000000     
   1.00000000000000     
   1.00000000000000     
   1.00000000000000     
   1.00000000000000     
   1.00000000000000     
   1.00000000000000     
   1.00000000000000     
   1.00000000000000     
   1.00000000000000     
   1.00000000000000     
   1.00000000000000     
   1.00000000000000     
   1.00000000000000     
   1.00000000000000     
   1.00000000000000     
   1.00000000000000     
   1.00000000000000     
   1.00000000000000     
   1.00000000000000     
   1.00000000000000     
   1.00000000000000     
   1.00000000000000     
   1.00000000000000     
   1.00000000000000     
SCALARS poroL double 
LOOKUP_TABLE default
  0.155870276115577     
  0.155869189260851     
  0.155868132348469     
  0.155867132618501     
  0.155866211244309     
  0.155865377370969     
  0.155864632804905     
  0.155863974746038     
  0.155863400801422     
  0.155862910826655     
  0.155862508074374     
  0.155862197288585     
  0.155861983272192     
  0.155861869946629     
  0.155861859840702     
  0.155869975724660     
  0.155868894251421     
  0.155867842524975     
  0.155866848291293     
  0.155865932135361     
  0.155865101604283     
  0.155864359504935     
  0.155863703193376     
  0.155863130775832     
  0.155862642422530     
  0.155862241236670     
  0.155861931645226     
  0.155861718233786     
  0.155861604727752     
  0.155861593529959     
  0.155869372235153     
  0.155868301988931     
  0.155867261326754     
  0.155866278024877     
  0.155865372543027     
  0.155864550202709     
  0.155863813825471     
  0.155863161834674     
  0.155862593184919     
  0.155862108341462     
  0.155861710180194     
  0.155861402820941     
  0.155861190419192     
  0.155861076326173     
  0.155861062882846     
  0.155868462400752     
  0.155867408074617     
  0.155866386487887     
  0.155865423101376     
  0.155864533383973     
  0.155863724256976     
  0.155862998166471     
  0.155862354485790     
  0.155861792679372     
  0.155861313617209     
  0.155860920037744     
  0.155860615672424     
  0.155860404107152     
  0.155860288593091     
  0.155860271910797     
  0.155867242417726     
  0.155866208678048     
  0.155865213024705     
  0.155864278933082     
  0.155863415810597     
  0.155862627971649     
  0.155861917820627     
  0.155861287221232     
  0.155860735710301     
  0.155860264808260     
  0.155859877220978     
  0.155859576198333     
  0.155859365215977     
  0.155859247730659     
  0.155859226364242     
  0.155865708727904     
  0.155864703951911     
  0.155863745243219     
  0.155862849902749     
  0.155862023418509     
  0.155861265698721     
  0.155860580403904     
  0.155859968324445     
  0.155859430875972     
  0.155858970242560     
  0.155858589445700     
  0.155858292034749     
  0.155858081715975     
  0.155857961569073     
  0.155857933945985     
  0.155863863030443     
  0.155862894926586     
  0.155861986116164     
  0.155861143246869     
  0.155860362479275     
  0.155859646267022     
  0.155858993593840     
  0.155858406406039     
  0.155857886905780     
  0.155857438820155     
  0.155857066258628     
  0.155856773151944     
  0.155856562932095     
  0.155856438841461     
  0.155856403689010     
  0.155861709391913     
  0.155860794641134     
  0.155859948450935     
  0.155859168030997     
  0.155858447917395     
  0.155857780703288     
  0.155857167408577     
  0.155856610547944     
  0.155856113702012     
  0.155855681448070     
  0.155855318614097     
  0.155855029702954     
  0.155854819102263     
  0.155854690160810     
  0.155854645711540     
  0.155859268026876     
  0.155858413777402     
  0.155857648086456     
  0.155856946542395     
  0.155856291344079     
  0.155855679979379     
  0.155855112213617     
  0.155854591239676     
  0.155854121456006     
  0.155853708000019     
  0.155853356691596     
  0.155853073255685     
  0.155852862141649     
  0.155852727438519     
  0.155852671680067     
  0.155856552001910     
  0.155855791520429     
  0.155855115222552     
  0.155854491008697     
  0.155853906652244     
  0.155853355594975     
  0.155852838585774     
  0.155852358551215     
  0.155851920062219     
  0.155851529625221     
  0.155851193345936     
  0.155850916726041     
  0.155850705230337     
  0.155850563332783     
  0.155850494311657     
  0.155853609432410     
  0.155852951592961     
  0.155852366312920     
  0.155851822008912     
  0.155851307220411     
  0.155850818769259     
  0.155850356244403     
  0.155849922250525     
  0.155849521768562     
  0.155849159635735     
  0.155848841579263     
  0.155848574048148     
  0.155848362761608     
  0.155848212437381     
  0.155848127482293     
  0.155850479638322     
  0.155849920685635     
  0.155849418238838     
  0.155848949061340     
  0.155848503872957     
  0.155848079914472     
  0.155847676495374     
  0.155847295536632     
  0.155846939152139     
  0.155846611137404     
  0.155846316631596     
  0.155846060806592     
  0.155845850009893     
  0.155845690205336     
  0.155845585555049     
  0.155847185105304     
  0.155846713886486     
  0.155846284631576     
  0.155845884723767     
  0.155845508243297     
  0.155845151540158     
  0.155844813092829     
  0.155844491181013     
  0.155844186165600     
  0.155843899440689     
  0.155843633536142     
  0.155843393360369     
  0.155843184323728     
  0.155843012902923     
  0.155842884224442     
  0.155843725560293     
  0.155843332546478     
  0.155842973007139     
  0.155842641472320     
  0.155842334635070     
  0.155842048807736     
  0.155841779762309     
  0.155841523919309     
  0.155841277600982     
  0.155841039152010     
  0.155840808971084     
  0.155840588714128     
  0.155840383327578     
  0.155840198704255     
  0.155840040541426     
  0.155840093106177     
  0.155839780209109     
  0.155839493261723     
  0.155839232817694     
  0.155838998398600     
  0.155838786471761     
  0.155838591518624     
  0.155838407396114     
  0.155838227565201     
  0.155838046008815     
  0.155837858477413     
  0.155837664458859     
  0.155837465631130     
  0.155837266685934     
  0.155837074977889     
  0.155836292157825     
  0.155836063595093     
  0.155835854779520     
  0.155835670188880     
  0.155835511621375     
  0.155835377360748     
  0.155835261852177     
  0.155835156125455     
  0.155835050003009     
  0.155834933330482     
  0.155834797382435     
  0.155834636540481     
  0.155834449006025     
  0.155834236989334     
  0.155834009566239     
  0.155832329240218     
  0.155832188259196     
  0.155832062882550     
  0.155831960429108     
  0.155831884062966     
  0.155831833276068     
  0.155831802670332     
  0.155831781862740     
  0.155831757371538     
  0.155831713913211     
  0.155831638123969     
  0.155831518840624     
  0.155831349138978     
  0.155831129278669     
  0.155830864931422     
  0.155828205052434     
  0.155828156666669     
  0.155828122589287     
  0.155828110337481     
  0.155828124537765     
  0.155828165127678     
  0.155828226274157     
  0.155828297079515     
  0.155828361366989     
  0.155828399716341     
  0.155828392377650     
  0.155828323357705     
  0.155828180523521     
  0.155827959171162     
  0.155827660774899     
  0.155823921607300     
  0.155823974115380     
  0.155824040123484     
  0.155824128259873     
  0.155824242911189     
  0.155824383448344     
  0.155824544374193     
  0.155824713321731     
  0.155824872147590     
  0.155824999191076     
  0.155825069881100     
  0.155825061390952     
  0.155824955988511     
  0.155824741673139     
  0.155824416911599     
  0.155819486225721     
  0.155819648533430     
  0.155819825099745     
  0.155820024169103     
  0.155820249358757     
  0.155820499587631     
  0.155820767652419     
  0.155821040419270     
  0.155821298980603     
  0.155821519710721     
  0.155821676435227     
  0.155821740464379     
  0.155821686225587     
  0.155821493402107     
  0.155821152171511     
  0.155814909259075     
  0.155815191597297     
  0.155815489154430     
  0.155815809985600     
  0.155816156708704     
  0.155816525748914     
  0.155816907663662     
  0.155817287996325     
  0.155817647828152     
  0.155817965036647     
  0.155818213372037     
  0.155818361616740     
  0.155818376969503     
  0.155818226527211     
  0.155817886424231     
  0.155810202711268     
  0.155810616586574     
  0.155811047283997     
  0.155811501387463     
  0.155811979924049     
  0.155812476188502     
  0.155812977119417     
  0.155813465847128     
  0.155813924771148     
  0.155814335295944     
  0.155814675904482     
  0.155814918635751     
  0.155815024892700     
  0.155814946655762     
  0.155814635361778     
  0.155805380550451     
  0.155805939545239     
  0.155806516051449     
  0.155807116250190     
  0.155807737389081     
  0.155808367819809     
  0.155808989934878     
  0.155809584588497     
  0.155810135371780     
  0.155810630183445     
  0.155811056918590     
  0.155811396563969     
  0.155811613336381     
  0.155811646398611     
  0.155811414737775     
  0.155800457957131     
  0.155801179006416     
  0.155801917227625     
  0.155802677653802     
  0.155803451796845     
  0.155804220813941     
  0.155804961707540     
  0.155805654834782     
  0.155806287328980     
  0.155806853175906     
  0.155807350779676     
  0.155807775911352     
  0.155808109684865     
  0.155808294915895     
  0.155808204784188     
  0.155795450002204     
  0.155796355776933     
  0.155797277216745     
  0.155798215386972     
  0.155799152143627     
  0.155800059266162     
  0.155800910278069     
  0.155801688783522     
  0.155802388928406     
  0.155803011489749     
  0.155803561773363     
  0.155804049781539     
  0.155804482620233     
  0.155804841769279     
  0.155804997323484     
  0.155790375033964     
  0.155791497702589     
  0.155792632451747     
  0.155793769848653     
  0.155794875125686     
  0.155795911131509     
  0.155796854981784     
  0.155797700741394     
  0.155798451632843     
  0.155799115929337     
  0.155799704680271     
  0.155800232513586     
  0.155800727372500     
  0.155801221969091     
  0.155801712432039     
  0.155785253134431     
  0.155786644046498     
  0.155788036823553     
  0.155789395792253     
  0.155790663914112     
  0.155791806595627     
  0.155792818223116     
  0.155793708121143     
  0.155794491516650     
  0.155795183511597     
  0.155795799024358     
  0.155796356064352     
  0.155796883454508     
  0.155797480835229     
  0.155798309735578     
  0.155780114817383     
  0.155781863040354     
  0.155783575779603     
  0.155785162979989     
  0.155786561192177     
  0.155787774973946     
  0.155788825385744     
  0.155789736343798     
  0.155790530338895     
  0.155791230639390     
  0.155791859544315     
  0.155792441399395     
  0.155793013462028     
  0.155793647735285     
  0.155794758050296     
  0.155775026493624     
  0.155777296688951     
  0.155779383238514     
  0.155781134304829     
  0.155782605379985     
  0.155783848522220     
  0.155784905739061     
  0.155785811418168     
  0.155786594013142     
  0.155787279926641     
  0.155787897649469     
  0.155788482871067     
  0.155789089666180     
  0.155789839096541     
  0.155791096525733     
  0.155770226563365     
  0.155773284500101     
  0.155775551747189     
  0.155777354478187     
  0.155778829818200     
  0.155780057114717     
  0.155781088674888     
  0.155781962512397     
  0.155782708521108     
  0.155783354588612     
  0.155783930158486     
  0.155784475043065     
  0.155785057731431     
  0.155785831376062     
  0.155787546717188     
