# vtk DataFile Version 3.0
vtk output
ASCII
DATASET UNSTRUCTURED_GRID
POINTS       496 double 
  0.00000000E+00  3.00000000E+02  0.00000000E+00
  0.00000000E+00  2.80000000E+02  0.00000000E+00
  0.00000000E+00  2.60000000E+02  0.00000000E+00
  0.00000000E+00  2.40000000E+02  0.00000000E+00
  0.00000000E+00  2.20000000E+02  0.00000000E+00
  0.00000000E+00  2.00000000E+02  0.00000000E+00
  0.00000000E+00  1.80000000E+02  0.00000000E+00
  0.00000000E+00  1.60000000E+02  0.00000000E+00
  0.00000000E+00  1.40000000E+02  0.00000000E+00
  0.00000000E+00  1.20000000E+02  0.00000000E+00
  0.00000000E+00  1.00000000E+02  0.00000000E+00
  0.00000000E+00  8.00000000E+01  0.00000000E+00
  0.00000000E+00  6.00000000E+01  0.00000000E+00
  0.00000000E+00  4.00000000E+01  0.00000000E+00
  0.00000000E+00  2.00000000E+01  0.00000000E+00
  0.00000000E+00  4.99600361E-14  0.00000000E+00
  2.00000000E+01  3.00000000E+02  0.00000000E+00
  2.00000000E+01  2.80000000E+02  0.00000000E+00
  2.00000000E+01  2.60000000E+02  0.00000000E+00
  2.00000000E+01  2.40000000E+02  0.00000000E+00
  2.00000000E+01  2.20000000E+02  0.00000000E+00
  2.00000000E+01  2.00000000E+02  0.00000000E+00
  2.00000000E+01  1.80000000E+02  0.00000000E+00
  2.00000000E+01  1.60000000E+02  0.00000000E+00
  2.00000000E+01  1.40000000E+02  0.00000000E+00
  2.00000000E+01  1.20000000E+02  0.00000000E+00
  2.00000000E+01  1.00000000E+02  0.00000000E+00
  2.00000000E+01  8.00000000E+01  0.00000000E+00
  2.00000000E+01  6.00000000E+01  0.00000000E+00
  2.00000000E+01  4.00000000E+01  0.00000000E+00
  2.00000000E+01  2.00000000E+01  0.00000000E+00
  2.00000000E+01  4.99600361E-14  0.00000000E+00
  4.00000000E+01  3.00000000E+02  0.00000000E+00
  4.00000000E+01  2.80000000E+02  0.00000000E+00
  4.00000000E+01  2.60000000E+02  0.00000000E+00
  4.00000000E+01  2.40000000E+02  0.00000000E+00
  4.00000000E+01  2.20000000E+02  0.00000000E+00
  4.00000000E+01  2.00000000E+02  0.00000000E+00
  4.00000000E+01  1.80000000E+02  0.00000000E+00
  4.00000000E+01  1.60000000E+02  0.00000000E+00
  4.00000000E+01  1.40000000E+02  0.00000000E+00
  4.00000000E+01  1.20000000E+02  0.00000000E+00
  4.00000000E+01  1.00000000E+02  0.00000000E+00
  4.00000000E+01  8.00000000E+01  0.00000000E+00
  4.00000000E+01  6.00000000E+01  0.00000000E+00
  4.00000000E+01  4.00000000E+01  0.00000000E+00
  4.00000000E+01  2.00000000E+01  0.00000000E+00
  4.00000000E+01  4.99600361E-14  0.00000000E+00
  6.00000000E+01  3.00000000E+02  0.00000000E+00
  6.00000000E+01  2.80000000E+02  0.00000000E+00
  6.00000000E+01  2.60000000E+02  0.00000000E+00
  6.00000000E+01  2.40000000E+02  0.00000000E+00
  6.00000000E+01  2.20000000E+02  0.00000000E+00
  6.00000000E+01  2.00000000E+02  0.00000000E+00
  6.00000000E+01  1.80000000E+02  0.00000000E+00
  6.00000000E+01  1.60000000E+02  0.00000000E+00
  6.00000000E+01  1.40000000E+02  0.00000000E+00
  6.00000000E+01  1.20000000E+02  0.00000000E+00
  6.00000000E+01  1.00000000E+02  0.00000000E+00
  6.00000000E+01  8.00000000E+01  0.00000000E+00
  6.00000000E+01  6.00000000E+01  0.00000000E+00
  6.00000000E+01  4.00000000E+01  0.00000000E+00
  6.00000000E+01  2.00000000E+01  0.00000000E+00
  6.00000000E+01  4.99600361E-14  0.00000000E+00
  8.00000000E+01  3.00000000E+02  0.00000000E+00
  8.00000000E+01  2.80000000E+02  0.00000000E+00
  8.00000000E+01  2.60000000E+02  0.00000000E+00
  8.00000000E+01  2.40000000E+02  0.00000000E+00
  8.00000000E+01  2.20000000E+02  0.00000000E+00
  8.00000000E+01  2.00000000E+02  0.00000000E+00
  8.00000000E+01  1.80000000E+02  0.00000000E+00
  8.00000000E+01  1.60000000E+02  0.00000000E+00
  8.00000000E+01  1.40000000E+02  0.00000000E+00
  8.00000000E+01  1.20000000E+02  0.00000000E+00
  8.00000000E+01  1.00000000E+02  0.00000000E+00
  8.00000000E+01  8.00000000E+01  0.00000000E+00
  8.00000000E+01  6.00000000E+01  0.00000000E+00
  8.00000000E+01  4.00000000E+01  0.00000000E+00
  8.00000000E+01  2.00000000E+01  0.00000000E+00
  8.00000000E+01  4.99600361E-14  0.00000000E+00
  1.00000000E+02  3.00000000E+02  0.00000000E+00
  1.00000000E+02  2.80000000E+02  0.00000000E+00
  1.00000000E+02  2.60000000E+02  0.00000000E+00
  1.00000000E+02  2.40000000E+02  0.00000000E+00
  1.00000000E+02  2.20000000E+02  0.00000000E+00
  1.00000000E+02  2.00000000E+02  0.00000000E+00
  1.00000000E+02  1.80000000E+02  0.00000000E+00
  1.00000000E+02  1.60000000E+02  0.00000000E+00
  1.00000000E+02  1.40000000E+02  0.00000000E+00
  1.00000000E+02  1.20000000E+02  0.00000000E+00
  1.00000000E+02  1.00000000E+02  0.00000000E+00
  1.00000000E+02  8.00000000E+01  0.00000000E+00
  1.00000000E+02  6.00000000E+01  0.00000000E+00
  1.00000000E+02  4.00000000E+01  0.00000000E+00
  1.00000000E+02  2.00000000E+01  0.00000000E+00
  1.00000000E+02  4.99600361E-14  0.00000000E+00
  1.20000000E+02  3.00000000E+02  0.00000000E+00
  1.20000000E+02  2.80000000E+02  0.00000000E+00
  1.20000000E+02  2.60000000E+02  0.00000000E+00
  1.20000000E+02  2.40000000E+02  0.00000000E+00
  1.20000000E+02  2.20000000E+02  0.00000000E+00
  1.20000000E+02  2.00000000E+02  0.00000000E+00
  1.20000000E+02  1.80000000E+02  0.00000000E+00
  1.20000000E+02  1.60000000E+02  0.00000000E+00
  1.20000000E+02  1.40000000E+02  0.00000000E+00
  1.20000000E+02  1.20000000E+02  0.00000000E+00
  1.20000000E+02  1.00000000E+02  0.00000000E+00
  1.20000000E+02  8.00000000E+01  0.00000000E+00
  1.20000000E+02  6.00000000E+01  0.00000000E+00
  1.20000000E+02  4.00000000E+01  0.00000000E+00
  1.20000000E+02  2.00000000E+01  0.00000000E+00
  1.20000000E+02  4.99600361E-14  0.00000000E+00
  1.40000000E+02  3.00000000E+02  0.00000000E+00
  1.40000000E+02  2.80000000E+02  0.00000000E+00
  1.40000000E+02  2.60000000E+02  0.00000000E+00
  1.40000000E+02  2.40000000E+02  0.00000000E+00
  1.40000000E+02  2.20000000E+02  0.00000000E+00
  1.40000000E+02  2.00000000E+02  0.00000000E+00
  1.40000000E+02  1.80000000E+02  0.00000000E+00
  1.40000000E+02  1.60000000E+02  0.00000000E+00
  1.40000000E+02  1.40000000E+02  0.00000000E+00
  1.40000000E+02  1.20000000E+02  0.00000000E+00
  1.40000000E+02  1.00000000E+02  0.00000000E+00
  1.40000000E+02  8.00000000E+01  0.00000000E+00
  1.40000000E+02  6.00000000E+01  0.00000000E+00
  1.40000000E+02  4.00000000E+01  0.00000000E+00
  1.40000000E+02  2.00000000E+01  0.00000000E+00
  1.40000000E+02  4.99600361E-14  0.00000000E+00
  1.60000000E+02  3.00000000E+02  0.00000000E+00
  1.60000000E+02  2.80000000E+02  0.00000000E+00
  1.60000000E+02  2.60000000E+02  0.00000000E+00
  1.60000000E+02  2.40000000E+02  0.00000000E+00
  1.60000000E+02  2.20000000E+02  0.00000000E+00
  1.60000000E+02  2.00000000E+02  0.00000000E+00
  1.60000000E+02  1.80000000E+02  0.00000000E+00
  1.60000000E+02  1.60000000E+02  0.00000000E+00
  1.60000000E+02  1.40000000E+02  0.00000000E+00
  1.60000000E+02  1.20000000E+02  0.00000000E+00
  1.60000000E+02  1.00000000E+02  0.00000000E+00
  1.60000000E+02  8.00000000E+01  0.00000000E+00
  1.60000000E+02  6.00000000E+01  0.00000000E+00
  1.60000000E+02  4.00000000E+01  0.00000000E+00
  1.60000000E+02  2.00000000E+01  0.00000000E+00
  1.60000000E+02  4.99600361E-14  0.00000000E+00
  1.80000000E+02  3.00000000E+02  0.00000000E+00
  1.80000000E+02  2.80000000E+02  0.00000000E+00
  1.80000000E+02  2.60000000E+02  0.00000000E+00
  1.80000000E+02  2.40000000E+02  0.00000000E+00
  1.80000000E+02  2.20000000E+02  0.00000000E+00
  1.80000000E+02  2.00000000E+02  0.00000000E+00
  1.80000000E+02  1.80000000E+02  0.00000000E+00
  1.80000000E+02  1.60000000E+02  0.00000000E+00
  1.80000000E+02  1.40000000E+02  0.00000000E+00
  1.80000000E+02  1.20000000E+02  0.00000000E+00
  1.80000000E+02  1.00000000E+02  0.00000000E+00
  1.80000000E+02  8.00000000E+01  0.00000000E+00
  1.80000000E+02  6.00000000E+01  0.00000000E+00
  1.80000000E+02  4.00000000E+01  0.00000000E+00
  1.80000000E+02  2.00000000E+01  0.00000000E+00
  1.80000000E+02  4.99600361E-14  0.00000000E+00
  2.00000000E+02  3.00000000E+02  0.00000000E+00
  2.00000000E+02  2.80000000E+02  0.00000000E+00
  2.00000000E+02  2.60000000E+02  0.00000000E+00
  2.00000000E+02  2.40000000E+02  0.00000000E+00
  2.00000000E+02  2.20000000E+02  0.00000000E+00
  2.00000000E+02  2.00000000E+02  0.00000000E+00
  2.00000000E+02  1.80000000E+02  0.00000000E+00
  2.00000000E+02  1.60000000E+02  0.00000000E+00
  2.00000000E+02  1.40000000E+02  0.00000000E+00
  2.00000000E+02  1.20000000E+02  0.00000000E+00
  2.00000000E+02  1.00000000E+02  0.00000000E+00
  2.00000000E+02  8.00000000E+01  0.00000000E+00
  2.00000000E+02  6.00000000E+01  0.00000000E+00
  2.00000000E+02  4.00000000E+01  0.00000000E+00
  2.00000000E+02  2.00000000E+01  0.00000000E+00
  2.00000000E+02  4.99600361E-14  0.00000000E+00
  2.20000000E+02  3.00000000E+02  0.00000000E+00
  2.20000000E+02  2.80000000E+02  0.00000000E+00
  2.20000000E+02  2.60000000E+02  0.00000000E+00
  2.20000000E+02  2.40000000E+02  0.00000000E+00
  2.20000000E+02  2.20000000E+02  0.00000000E+00
  2.20000000E+02  2.00000000E+02  0.00000000E+00
  2.20000000E+02  1.80000000E+02  0.00000000E+00
  2.20000000E+02  1.60000000E+02  0.00000000E+00
  2.20000000E+02  1.40000000E+02  0.00000000E+00
  2.20000000E+02  1.20000000E+02  0.00000000E+00
  2.20000000E+02  1.00000000E+02  0.00000000E+00
  2.20000000E+02  8.00000000E+01  0.00000000E+00
  2.20000000E+02  6.00000000E+01  0.00000000E+00
  2.20000000E+02  4.00000000E+01  0.00000000E+00
  2.20000000E+02  2.00000000E+01  0.00000000E+00
  2.20000000E+02  4.99600361E-14  0.00000000E+00
  2.40000000E+02  3.00000000E+02  0.00000000E+00
  2.40000000E+02  2.80000000E+02  0.00000000E+00
  2.40000000E+02  2.60000000E+02  0.00000000E+00
  2.40000000E+02  2.40000000E+02  0.00000000E+00
  2.40000000E+02  2.20000000E+02  0.00000000E+00
  2.40000000E+02  2.00000000E+02  0.00000000E+00
  2.40000000E+02  1.80000000E+02  0.00000000E+00
  2.40000000E+02  1.60000000E+02  0.00000000E+00
  2.40000000E+02  1.40000000E+02  0.00000000E+00
  2.40000000E+02  1.20000000E+02  0.00000000E+00
  2.40000000E+02  1.00000000E+02  0.00000000E+00
  2.40000000E+02  8.00000000E+01  0.00000000E+00
  2.40000000E+02  6.00000000E+01  0.00000000E+00
  2.40000000E+02  4.00000000E+01  0.00000000E+00
  2.40000000E+02  2.00000000E+01  0.00000000E+00
  2.40000000E+02  4.99600361E-14  0.00000000E+00
  2.60000000E+02  3.00000000E+02  0.00000000E+00
  2.60000000E+02  2.80000000E+02  0.00000000E+00
  2.60000000E+02  2.60000000E+02  0.00000000E+00
  2.60000000E+02  2.40000000E+02  0.00000000E+00
  2.60000000E+02  2.20000000E+02  0.00000000E+00
  2.60000000E+02  2.00000000E+02  0.00000000E+00
  2.60000000E+02  1.80000000E+02  0.00000000E+00
  2.60000000E+02  1.60000000E+02  0.00000000E+00
  2.60000000E+02  1.40000000E+02  0.00000000E+00
  2.60000000E+02  1.20000000E+02  0.00000000E+00
  2.60000000E+02  1.00000000E+02  0.00000000E+00
  2.60000000E+02  8.00000000E+01  0.00000000E+00
  2.60000000E+02  6.00000000E+01  0.00000000E+00
  2.60000000E+02  4.00000000E+01  0.00000000E+00
  2.60000000E+02  2.00000000E+01  0.00000000E+00
  2.60000000E+02  4.99600361E-14  0.00000000E+00
  2.80000000E+02  3.00000000E+02  0.00000000E+00
  2.80000000E+02  2.80000000E+02  0.00000000E+00
  2.80000000E+02  2.60000000E+02  0.00000000E+00
  2.80000000E+02  2.40000000E+02  0.00000000E+00
  2.80000000E+02  2.20000000E+02  0.00000000E+00
  2.80000000E+02  2.00000000E+02  0.00000000E+00
  2.80000000E+02  1.80000000E+02  0.00000000E+00
  2.80000000E+02  1.60000000E+02  0.00000000E+00
  2.80000000E+02  1.40000000E+02  0.00000000E+00
  2.80000000E+02  1.20000000E+02  0.00000000E+00
  2.80000000E+02  1.00000000E+02  0.00000000E+00
  2.80000000E+02  8.00000000E+01  0.00000000E+00
  2.80000000E+02  6.00000000E+01  0.00000000E+00
  2.80000000E+02  4.00000000E+01  0.00000000E+00
  2.80000000E+02  2.00000000E+01  0.00000000E+00
  2.80000000E+02  4.99600361E-14  0.00000000E+00
  3.00000000E+02  3.00000000E+02  0.00000000E+00
  3.00000000E+02  2.80000000E+02  0.00000000E+00
  3.00000000E+02  2.60000000E+02  0.00000000E+00
  3.00000000E+02  2.40000000E+02  0.00000000E+00
  3.00000000E+02  2.20000000E+02  0.00000000E+00
  3.00000000E+02  2.00000000E+02  0.00000000E+00
  3.00000000E+02  1.80000000E+02  0.00000000E+00
  3.00000000E+02  1.60000000E+02  0.00000000E+00
  3.00000000E+02  1.40000000E+02  0.00000000E+00
  3.00000000E+02  1.20000000E+02  0.00000000E+00
  3.00000000E+02  1.00000000E+02  0.00000000E+00
  3.00000000E+02  8.00000000E+01  0.00000000E+00
  3.00000000E+02  6.00000000E+01  0.00000000E+00
  3.00000000E+02  4.00000000E+01  0.00000000E+00
  3.00000000E+02  2.00000000E+01  0.00000000E+00
  3.00000000E+02  4.99600361E-14  0.00000000E+00
  3.20000000E+02  3.00000000E+02  0.00000000E+00
  3.20000000E+02  2.80000000E+02  0.00000000E+00
  3.20000000E+02  2.60000000E+02  0.00000000E+00
  3.20000000E+02  2.40000000E+02  0.00000000E+00
  3.20000000E+02  2.20000000E+02  0.00000000E+00
  3.20000000E+02  2.00000000E+02  0.00000000E+00
  3.20000000E+02  1.80000000E+02  0.00000000E+00
  3.20000000E+02  1.60000000E+02  0.00000000E+00
  3.20000000E+02  1.40000000E+02  0.00000000E+00
  3.20000000E+02  1.20000000E+02  0.00000000E+00
  3.20000000E+02  1.00000000E+02  0.00000000E+00
  3.20000000E+02  8.00000000E+01  0.00000000E+00
  3.20000000E+02  6.00000000E+01  0.00000000E+00
  3.20000000E+02  4.00000000E+01  0.00000000E+00
  3.20000000E+02  2.00000000E+01  0.00000000E+00
  3.20000000E+02  4.99600361E-14  0.00000000E+00
  3.40000000E+02  3.00000000E+02  0.00000000E+00
  3.40000000E+02  2.80000000E+02  0.00000000E+00
  3.40000000E+02  2.60000000E+02  0.00000000E+00
  3.40000000E+02  2.40000000E+02  0.00000000E+00
  3.40000000E+02  2.20000000E+02  0.00000000E+00
  3.40000000E+02  2.00000000E+02  0.00000000E+00
  3.40000000E+02  1.80000000E+02  0.00000000E+00
  3.40000000E+02  1.60000000E+02  0.00000000E+00
  3.40000000E+02  1.40000000E+02  0.00000000E+00
  3.40000000E+02  1.20000000E+02  0.00000000E+00
  3.40000000E+02  1.00000000E+02  0.00000000E+00
  3.40000000E+02  8.00000000E+01  0.00000000E+00
  3.40000000E+02  6.00000000E+01  0.00000000E+00
  3.40000000E+02  4.00000000E+01  0.00000000E+00
  3.40000000E+02  2.00000000E+01  0.00000000E+00
  3.40000000E+02  4.99600361E-14  0.00000000E+00
  3.60000000E+02  3.00000000E+02  0.00000000E+00
  3.60000000E+02  2.80000000E+02  0.00000000E+00
  3.60000000E+02  2.60000000E+02  0.00000000E+00
  3.60000000E+02  2.40000000E+02  0.00000000E+00
  3.60000000E+02  2.20000000E+02  0.00000000E+00
  3.60000000E+02  2.00000000E+02  0.00000000E+00
  3.60000000E+02  1.80000000E+02  0.00000000E+00
  3.60000000E+02  1.60000000E+02  0.00000000E+00
  3.60000000E+02  1.40000000E+02  0.00000000E+00
  3.60000000E+02  1.20000000E+02  0.00000000E+00
  3.60000000E+02  1.00000000E+02  0.00000000E+00
  3.60000000E+02  8.00000000E+01  0.00000000E+00
  3.60000000E+02  6.00000000E+01  0.00000000E+00
  3.60000000E+02  4.00000000E+01  0.00000000E+00
  3.60000000E+02  2.00000000E+01  0.00000000E+00
  3.60000000E+02  4.99600361E-14  0.00000000E+00
  3.80000000E+02  3.00000000E+02  0.00000000E+00
  3.80000000E+02  2.80000000E+02  0.00000000E+00
  3.80000000E+02  2.60000000E+02  0.00000000E+00
  3.80000000E+02  2.40000000E+02  0.00000000E+00
  3.80000000E+02  2.20000000E+02  0.00000000E+00
  3.80000000E+02  2.00000000E+02  0.00000000E+00
  3.80000000E+02  1.80000000E+02  0.00000000E+00
  3.80000000E+02  1.60000000E+02  0.00000000E+00
  3.80000000E+02  1.40000000E+02  0.00000000E+00
  3.80000000E+02  1.20000000E+02  0.00000000E+00
  3.80000000E+02  1.00000000E+02  0.00000000E+00
  3.80000000E+02  8.00000000E+01  0.00000000E+00
  3.80000000E+02  6.00000000E+01  0.00000000E+00
  3.80000000E+02  4.00000000E+01  0.00000000E+00
  3.80000000E+02  2.00000000E+01  0.00000000E+00
  3.80000000E+02  4.99600361E-14  0.00000000E+00
  4.00000000E+02  3.00000000E+02  0.00000000E+00
  4.00000000E+02  2.80000000E+02  0.00000000E+00
  4.00000000E+02  2.60000000E+02  0.00000000E+00
  4.00000000E+02  2.40000000E+02  0.00000000E+00
  4.00000000E+02  2.20000000E+02  0.00000000E+00
  4.00000000E+02  2.00000000E+02  0.00000000E+00
  4.00000000E+02  1.80000000E+02  0.00000000E+00
  4.00000000E+02  1.60000000E+02  0.00000000E+00
  4.00000000E+02  1.40000000E+02  0.00000000E+00
  4.00000000E+02  1.20000000E+02  0.00000000E+00
  4.00000000E+02  1.00000000E+02  0.00000000E+00
  4.00000000E+02  8.00000000E+01  0.00000000E+00
  4.00000000E+02  6.00000000E+01  0.00000000E+00
  4.00000000E+02  4.00000000E+01  0.00000000E+00
  4.00000000E+02  2.00000000E+01  0.00000000E+00
  4.00000000E+02  4.99600361E-14  0.00000000E+00
  4.20000000E+02  3.00000000E+02  0.00000000E+00
  4.20000000E+02  2.80000000E+02  0.00000000E+00
  4.20000000E+02  2.60000000E+02  0.00000000E+00
  4.20000000E+02  2.40000000E+02  0.00000000E+00
  4.20000000E+02  2.20000000E+02  0.00000000E+00
  4.20000000E+02  2.00000000E+02  0.00000000E+00
  4.20000000E+02  1.80000000E+02  0.00000000E+00
  4.20000000E+02  1.60000000E+02  0.00000000E+00
  4.20000000E+02  1.40000000E+02  0.00000000E+00
  4.20000000E+02  1.20000000E+02  0.00000000E+00
  4.20000000E+02  1.00000000E+02  0.00000000E+00
  4.20000000E+02  8.00000000E+01  0.00000000E+00
  4.20000000E+02  6.00000000E+01  0.00000000E+00
  4.20000000E+02  4.00000000E+01  0.00000000E+00
  4.20000000E+02  2.00000000E+01  0.00000000E+00
  4.20000000E+02  4.99600361E-14  0.00000000E+00
  4.40000000E+02  3.00000000E+02  0.00000000E+00
  4.40000000E+02  2.80000000E+02  0.00000000E+00
  4.40000000E+02  2.60000000E+02  0.00000000E+00
  4.40000000E+02  2.40000000E+02  0.00000000E+00
  4.40000000E+02  2.20000000E+02  0.00000000E+00
  4.40000000E+02  2.00000000E+02  0.00000000E+00
  4.40000000E+02  1.80000000E+02  0.00000000E+00
  4.40000000E+02  1.60000000E+02  0.00000000E+00
  4.40000000E+02  1.40000000E+02  0.00000000E+00
  4.40000000E+02  1.20000000E+02  0.00000000E+00
  4.40000000E+02  1.00000000E+02  0.00000000E+00
  4.40000000E+02  8.00000000E+01  0.00000000E+00
  4.40000000E+02  6.00000000E+01  0.00000000E+00
  4.40000000E+02  4.00000000E+01  0.00000000E+00
  4.40000000E+02  2.00000000E+01  0.00000000E+00
  4.40000000E+02  4.99600361E-14  0.00000000E+00
  4.60000000E+02  3.00000000E+02  0.00000000E+00
  4.60000000E+02  2.80000000E+02  0.00000000E+00
  4.60000000E+02  2.60000000E+02  0.00000000E+00
  4.60000000E+02  2.40000000E+02  0.00000000E+00
  4.60000000E+02  2.20000000E+02  0.00000000E+00
  4.60000000E+02  2.00000000E+02  0.00000000E+00
  4.60000000E+02  1.80000000E+02  0.00000000E+00
  4.60000000E+02  1.60000000E+02  0.00000000E+00
  4.60000000E+02  1.40000000E+02  0.00000000E+00
  4.60000000E+02  1.20000000E+02  0.00000000E+00
  4.60000000E+02  1.00000000E+02  0.00000000E+00
  4.60000000E+02  8.00000000E+01  0.00000000E+00
  4.60000000E+02  6.00000000E+01  0.00000000E+00
  4.60000000E+02  4.00000000E+01  0.00000000E+00
  4.60000000E+02  2.00000000E+01  0.00000000E+00
  4.60000000E+02  4.99600361E-14  0.00000000E+00
  4.80000000E+02  3.00000000E+02  0.00000000E+00
  4.80000000E+02  2.80000000E+02  0.00000000E+00
  4.80000000E+02  2.60000000E+02  0.00000000E+00
  4.80000000E+02  2.40000000E+02  0.00000000E+00
  4.80000000E+02  2.20000000E+02  0.00000000E+00
  4.80000000E+02  2.00000000E+02  0.00000000E+00
  4.80000000E+02  1.80000000E+02  0.00000000E+00
  4.80000000E+02  1.60000000E+02  0.00000000E+00
  4.80000000E+02  1.40000000E+02  0.00000000E+00
  4.80000000E+02  1.20000000E+02  0.00000000E+00
  4.80000000E+02  1.00000000E+02  0.00000000E+00
  4.80000000E+02  8.00000000E+01  0.00000000E+00
  4.80000000E+02  6.00000000E+01  0.00000000E+00
  4.80000000E+02  4.00000000E+01  0.00000000E+00
  4.80000000E+02  2.00000000E+01  0.00000000E+00
  4.80000000E+02  4.99600361E-14  0.00000000E+00
  5.00000000E+02  3.00000000E+02  0.00000000E+00
  5.00000000E+02  2.80000000E+02  0.00000000E+00
  5.00000000E+02  2.60000000E+02  0.00000000E+00
  5.00000000E+02  2.40000000E+02  0.00000000E+00
  5.00000000E+02  2.20000000E+02  0.00000000E+00
  5.00000000E+02  2.00000000E+02  0.00000000E+00
  5.00000000E+02  1.80000000E+02  0.00000000E+00
  5.00000000E+02  1.60000000E+02  0.00000000E+00
  5.00000000E+02  1.40000000E+02  0.00000000E+00
  5.00000000E+02  1.20000000E+02  0.00000000E+00
  5.00000000E+02  1.00000000E+02  0.00000000E+00
  5.00000000E+02  8.00000000E+01  0.00000000E+00
  5.00000000E+02  6.00000000E+01  0.00000000E+00
  5.00000000E+02  4.00000000E+01  0.00000000E+00
  5.00000000E+02  2.00000000E+01  0.00000000E+00
  5.00000000E+02  4.99600361E-14  0.00000000E+00
  5.20000000E+02  3.00000000E+02  0.00000000E+00
  5.20000000E+02  2.80000000E+02  0.00000000E+00
  5.20000000E+02  2.60000000E+02  0.00000000E+00
  5.20000000E+02  2.40000000E+02  0.00000000E+00
  5.20000000E+02  2.20000000E+02  0.00000000E+00
  5.20000000E+02  2.00000000E+02  0.00000000E+00
  5.20000000E+02  1.80000000E+02  0.00000000E+00
  5.20000000E+02  1.60000000E+02  0.00000000E+00
  5.20000000E+02  1.40000000E+02  0.00000000E+00
  5.20000000E+02  1.20000000E+02  0.00000000E+00
  5.20000000E+02  1.00000000E+02  0.00000000E+00
  5.20000000E+02  8.00000000E+01  0.00000000E+00
  5.20000000E+02  6.00000000E+01  0.00000000E+00
  5.20000000E+02  4.00000000E+01  0.00000000E+00
  5.20000000E+02  2.00000000E+01  0.00000000E+00
  5.20000000E+02  4.99600361E-14  0.00000000E+00
  5.40000000E+02  3.00000000E+02  0.00000000E+00
  5.40000000E+02  2.80000000E+02  0.00000000E+00
  5.40000000E+02  2.60000000E+02  0.00000000E+00
  5.40000000E+02  2.40000000E+02  0.00000000E+00
  5.40000000E+02  2.20000000E+02  0.00000000E+00
  5.40000000E+02  2.00000000E+02  0.00000000E+00
  5.40000000E+02  1.80000000E+02  0.00000000E+00
  5.40000000E+02  1.60000000E+02  0.00000000E+00
  5.40000000E+02  1.40000000E+02  0.00000000E+00
  5.40000000E+02  1.20000000E+02  0.00000000E+00
  5.40000000E+02  1.00000000E+02  0.00000000E+00
  5.40000000E+02  8.00000000E+01  0.00000000E+00
  5.40000000E+02  6.00000000E+01  0.00000000E+00
  5.40000000E+02  4.00000000E+01  0.00000000E+00
  5.40000000E+02  2.00000000E+01  0.00000000E+00
  5.40000000E+02  4.99600361E-14  0.00000000E+00
  5.60000000E+02  3.00000000E+02  0.00000000E+00
  5.60000000E+02  2.80000000E+02  0.00000000E+00
  5.60000000E+02  2.60000000E+02  0.00000000E+00
  5.60000000E+02  2.40000000E+02  0.00000000E+00
  5.60000000E+02  2.20000000E+02  0.00000000E+00
  5.60000000E+02  2.00000000E+02  0.00000000E+00
  5.60000000E+02  1.80000000E+02  0.00000000E+00
  5.60000000E+02  1.60000000E+02  0.00000000E+00
  5.60000000E+02  1.40000000E+02  0.00000000E+00
  5.60000000E+02  1.20000000E+02  0.00000000E+00
  5.60000000E+02  1.00000000E+02  0.00000000E+00
  5.60000000E+02  8.00000000E+01  0.00000000E+00
  5.60000000E+02  6.00000000E+01  0.00000000E+00
  5.60000000E+02  4.00000000E+01  0.00000000E+00
  5.60000000E+02  2.00000000E+01  0.00000000E+00
  5.60000000E+02  4.99600361E-14  0.00000000E+00
  5.80000000E+02  3.00000000E+02  0.00000000E+00
  5.80000000E+02  2.80000000E+02  0.00000000E+00
  5.80000000E+02  2.60000000E+02  0.00000000E+00
  5.80000000E+02  2.40000000E+02  0.00000000E+00
  5.80000000E+02  2.20000000E+02  0.00000000E+00
  5.80000000E+02  2.00000000E+02  0.00000000E+00
  5.80000000E+02  1.80000000E+02  0.00000000E+00
  5.80000000E+02  1.60000000E+02  0.00000000E+00
  5.80000000E+02  1.40000000E+02  0.00000000E+00
  5.80000000E+02  1.20000000E+02  0.00000000E+00
  5.80000000E+02  1.00000000E+02  0.00000000E+00
  5.80000000E+02  8.00000000E+01  0.00000000E+00
  5.80000000E+02  6.00000000E+01  0.00000000E+00
  5.80000000E+02  4.00000000E+01  0.00000000E+00
  5.80000000E+02  2.00000000E+01  0.00000000E+00
  5.80000000E+02  4.99600361E-14  0.00000000E+00
  6.00000000E+02  3.00000000E+02  0.00000000E+00
  6.00000000E+02  2.80000000E+02  0.00000000E+00
  6.00000000E+02  2.60000000E+02  0.00000000E+00
  6.00000000E+02  2.40000000E+02  0.00000000E+00
  6.00000000E+02  2.20000000E+02  0.00000000E+00
  6.00000000E+02  2.00000000E+02  0.00000000E+00
  6.00000000E+02  1.80000000E+02  0.00000000E+00
  6.00000000E+02  1.60000000E+02  0.00000000E+00
  6.00000000E+02  1.40000000E+02  0.00000000E+00
  6.00000000E+02  1.20000000E+02  0.00000000E+00
  6.00000000E+02  1.00000000E+02  0.00000000E+00
  6.00000000E+02  8.00000000E+01  0.00000000E+00
  6.00000000E+02  6.00000000E+01  0.00000000E+00
  6.00000000E+02  4.00000000E+01  0.00000000E+00
  6.00000000E+02  2.00000000E+01  0.00000000E+00
  6.00000000E+02  4.99600361E-14  0.00000000E+00
CELLS       450      2250
         4           0           1          17          16
         4           1           2          18          17
         4           2           3          19          18
         4           3           4          20          19
         4           4           5          21          20
         4           5           6          22          21
         4           6           7          23          22
         4           7           8          24          23
         4           8           9          25          24
         4           9          10          26          25
         4          10          11          27          26
         4          11          12          28          27
         4          12          13          29          28
         4          13          14          30          29
         4          14          15          31          30
         4          16          17          33          32
         4          17          18          34          33
         4          18          19          35          34
         4          19          20          36          35
         4          20          21          37          36
         4          21          22          38          37
         4          22          23          39          38
         4          23          24          40          39
         4          24          25          41          40
         4          25          26          42          41
         4          26          27          43          42
         4          27          28          44          43
         4          28          29          45          44
         4          29          30          46          45
         4          30          31          47          46
         4          32          33          49          48
         4          33          34          50          49
         4          34          35          51          50
         4          35          36          52          51
         4          36          37          53          52
         4          37          38          54          53
         4          38          39          55          54
         4          39          40          56          55
         4          40          41          57          56
         4          41          42          58          57
         4          42          43          59          58
         4          43          44          60          59
         4          44          45          61          60
         4          45          46          62          61
         4          46          47          63          62
         4          48          49          65          64
         4          49          50          66          65
         4          50          51          67          66
         4          51          52          68          67
         4          52          53          69          68
         4          53          54          70          69
         4          54          55          71          70
         4          55          56          72          71
         4          56          57          73          72
         4          57          58          74          73
         4          58          59          75          74
         4          59          60          76          75
         4          60          61          77          76
         4          61          62          78          77
         4          62          63          79          78
         4          64          65          81          80
         4          65          66          82          81
         4          66          67          83          82
         4          67          68          84          83
         4          68          69          85          84
         4          69          70          86          85
         4          70          71          87          86
         4          71          72          88          87
         4          72          73          89          88
         4          73          74          90          89
         4          74          75          91          90
         4          75          76          92          91
         4          76          77          93          92
         4          77          78          94          93
         4          78          79          95          94
         4          80          81          97          96
         4          81          82          98          97
         4          82          83          99          98
         4          83          84         100          99
         4          84          85         101         100
         4          85          86         102         101
         4          86          87         103         102
         4          87          88         104         103
         4          88          89         105         104
         4          89          90         106         105
         4          90          91         107         106
         4          91          92         108         107
         4          92          93         109         108
         4          93          94         110         109
         4          94          95         111         110
         4          96          97         113         112
         4          97          98         114         113
         4          98          99         115         114
         4          99         100         116         115
         4         100         101         117         116
         4         101         102         118         117
         4         102         103         119         118
         4         103         104         120         119
         4         104         105         121         120
         4         105         106         122         121
         4         106         107         123         122
         4         107         108         124         123
         4         108         109         125         124
         4         109         110         126         125
         4         110         111         127         126
         4         112         113         129         128
         4         113         114         130         129
         4         114         115         131         130
         4         115         116         132         131
         4         116         117         133         132
         4         117         118         134         133
         4         118         119         135         134
         4         119         120         136         135
         4         120         121         137         136
         4         121         122         138         137
         4         122         123         139         138
         4         123         124         140         139
         4         124         125         141         140
         4         125         126         142         141
         4         126         127         143         142
         4         128         129         145         144
         4         129         130         146         145
         4         130         131         147         146
         4         131         132         148         147
         4         132         133         149         148
         4         133         134         150         149
         4         134         135         151         150
         4         135         136         152         151
         4         136         137         153         152
         4         137         138         154         153
         4         138         139         155         154
         4         139         140         156         155
         4         140         141         157         156
         4         141         142         158         157
         4         142         143         159         158
         4         144         145         161         160
         4         145         146         162         161
         4         146         147         163         162
         4         147         148         164         163
         4         148         149         165         164
         4         149         150         166         165
         4         150         151         167         166
         4         151         152         168         167
         4         152         153         169         168
         4         153         154         170         169
         4         154         155         171         170
         4         155         156         172         171
         4         156         157         173         172
         4         157         158         174         173
         4         158         159         175         174
         4         160         161         177         176
         4         161         162         178         177
         4         162         163         179         178
         4         163         164         180         179
         4         164         165         181         180
         4         165         166         182         181
         4         166         167         183         182
         4         167         168         184         183
         4         168         169         185         184
         4         169         170         186         185
         4         170         171         187         186
         4         171         172         188         187
         4         172         173         189         188
         4         173         174         190         189
         4         174         175         191         190
         4         176         177         193         192
         4         177         178         194         193
         4         178         179         195         194
         4         179         180         196         195
         4         180         181         197         196
         4         181         182         198         197
         4         182         183         199         198
         4         183         184         200         199
         4         184         185         201         200
         4         185         186         202         201
         4         186         187         203         202
         4         187         188         204         203
         4         188         189         205         204
         4         189         190         206         205
         4         190         191         207         206
         4         192         193         209         208
         4         193         194         210         209
         4         194         195         211         210
         4         195         196         212         211
         4         196         197         213         212
         4         197         198         214         213
         4         198         199         215         214
         4         199         200         216         215
         4         200         201         217         216
         4         201         202         218         217
         4         202         203         219         218
         4         203         204         220         219
         4         204         205         221         220
         4         205         206         222         221
         4         206         207         223         222
         4         208         209         225         224
         4         209         210         226         225
         4         210         211         227         226
         4         211         212         228         227
         4         212         213         229         228
         4         213         214         230         229
         4         214         215         231         230
         4         215         216         232         231
         4         216         217         233         232
         4         217         218         234         233
         4         218         219         235         234
         4         219         220         236         235
         4         220         221         237         236
         4         221         222         238         237
         4         222         223         239         238
         4         224         225         241         240
         4         225         226         242         241
         4         226         227         243         242
         4         227         228         244         243
         4         228         229         245         244
         4         229         230         246         245
         4         230         231         247         246
         4         231         232         248         247
         4         232         233         249         248
         4         233         234         250         249
         4         234         235         251         250
         4         235         236         252         251
         4         236         237         253         252
         4         237         238         254         253
         4         238         239         255         254
         4         240         241         257         256
         4         241         242         258         257
         4         242         243         259         258
         4         243         244         260         259
         4         244         245         261         260
         4         245         246         262         261
         4         246         247         263         262
         4         247         248         264         263
         4         248         249         265         264
         4         249         250         266         265
         4         250         251         267         266
         4         251         252         268         267
         4         252         253         269         268
         4         253         254         270         269
         4         254         255         271         270
         4         256         257         273         272
         4         257         258         274         273
         4         258         259         275         274
         4         259         260         276         275
         4         260         261         277         276
         4         261         262         278         277
         4         262         263         279         278
         4         263         264         280         279
         4         264         265         281         280
         4         265         266         282         281
         4         266         267         283         282
         4         267         268         284         283
         4         268         269         285         284
         4         269         270         286         285
         4         270         271         287         286
         4         272         273         289         288
         4         273         274         290         289
         4         274         275         291         290
         4         275         276         292         291
         4         276         277         293         292
         4         277         278         294         293
         4         278         279         295         294
         4         279         280         296         295
         4         280         281         297         296
         4         281         282         298         297
         4         282         283         299         298
         4         283         284         300         299
         4         284         285         301         300
         4         285         286         302         301
         4         286         287         303         302
         4         288         289         305         304
         4         289         290         306         305
         4         290         291         307         306
         4         291         292         308         307
         4         292         293         309         308
         4         293         294         310         309
         4         294         295         311         310
         4         295         296         312         311
         4         296         297         313         312
         4         297         298         314         313
         4         298         299         315         314
         4         299         300         316         315
         4         300         301         317         316
         4         301         302         318         317
         4         302         303         319         318
         4         304         305         321         320
         4         305         306         322         321
         4         306         307         323         322
         4         307         308         324         323
         4         308         309         325         324
         4         309         310         326         325
         4         310         311         327         326
         4         311         312         328         327
         4         312         313         329         328
         4         313         314         330         329
         4         314         315         331         330
         4         315         316         332         331
         4         316         317         333         332
         4         317         318         334         333
         4         318         319         335         334
         4         320         321         337         336
         4         321         322         338         337
         4         322         323         339         338
         4         323         324         340         339
         4         324         325         341         340
         4         325         326         342         341
         4         326         327         343         342
         4         327         328         344         343
         4         328         329         345         344
         4         329         330         346         345
         4         330         331         347         346
         4         331         332         348         347
         4         332         333         349         348
         4         333         334         350         349
         4         334         335         351         350
         4         336         337         353         352
         4         337         338         354         353
         4         338         339         355         354
         4         339         340         356         355
         4         340         341         357         356
         4         341         342         358         357
         4         342         343         359         358
         4         343         344         360         359
         4         344         345         361         360
         4         345         346         362         361
         4         346         347         363         362
         4         347         348         364         363
         4         348         349         365         364
         4         349         350         366         365
         4         350         351         367         366
         4         352         353         369         368
         4         353         354         370         369
         4         354         355         371         370
         4         355         356         372         371
         4         356         357         373         372
         4         357         358         374         373
         4         358         359         375         374
         4         359         360         376         375
         4         360         361         377         376
         4         361         362         378         377
         4         362         363         379         378
         4         363         364         380         379
         4         364         365         381         380
         4         365         366         382         381
         4         366         367         383         382
         4         368         369         385         384
         4         369         370         386         385
         4         370         371         387         386
         4         371         372         388         387
         4         372         373         389         388
         4         373         374         390         389
         4         374         375         391         390
         4         375         376         392         391
         4         376         377         393         392
         4         377         378         394         393
         4         378         379         395         394
         4         379         380         396         395
         4         380         381         397         396
         4         381         382         398         397
         4         382         383         399         398
         4         384         385         401         400
         4         385         386         402         401
         4         386         387         403         402
         4         387         388         404         403
         4         388         389         405         404
         4         389         390         406         405
         4         390         391         407         406
         4         391         392         408         407
         4         392         393         409         408
         4         393         394         410         409
         4         394         395         411         410
         4         395         396         412         411
         4         396         397         413         412
         4         397         398         414         413
         4         398         399         415         414
         4         400         401         417         416
         4         401         402         418         417
         4         402         403         419         418
         4         403         404         420         419
         4         404         405         421         420
         4         405         406         422         421
         4         406         407         423         422
         4         407         408         424         423
         4         408         409         425         424
         4         409         410         426         425
         4         410         411         427         426
         4         411         412         428         427
         4         412         413         429         428
         4         413         414         430         429
         4         414         415         431         430
         4         416         417         433         432
         4         417         418         434         433
         4         418         419         435         434
         4         419         420         436         435
         4         420         421         437         436
         4         421         422         438         437
         4         422         423         439         438
         4         423         424         440         439
         4         424         425         441         440
         4         425         426         442         441
         4         426         427         443         442
         4         427         428         444         443
         4         428         429         445         444
         4         429         430         446         445
         4         430         431         447         446
         4         432         433         449         448
         4         433         434         450         449
         4         434         435         451         450
         4         435         436         452         451
         4         436         437         453         452
         4         437         438         454         453
         4         438         439         455         454
         4         439         440         456         455
         4         440         441         457         456
         4         441         442         458         457
         4         442         443         459         458
         4         443         444         460         459
         4         444         445         461         460
         4         445         446         462         461
         4         446         447         463         462
         4         448         449         465         464
         4         449         450         466         465
         4         450         451         467         466
         4         451         452         468         467
         4         452         453         469         468
         4         453         454         470         469
         4         454         455         471         470
         4         455         456         472         471
         4         456         457         473         472
         4         457         458         474         473
         4         458         459         475         474
         4         459         460         476         475
         4         460         461         477         476
         4         461         462         478         477
         4         462         463         479         478
         4         464         465         481         480
         4         465         466         482         481
         4         466         467         483         482
         4         467         468         484         483
         4         468         469         485         484
         4         469         470         486         485
         4         470         471         487         486
         4         471         472         488         487
         4         472         473         489         488
         4         473         474         490         489
         4         474         475         491         490
         4         475         476         492         491
         4         476         477         493         492
         4         477         478         494         493
         4         478         479         495         494
CELL_TYPES        450
9
9
9
9
9
9
9
9
9
9
9
9
9
9
9
9
9
9
9
9
9
9
9
9
9
9
9
9
9
9
9
9
9
9
9
9
9
9
9
9
9
9
9
9
9
9
9
9
9
9
9
9
9
9
9
9
9
9
9
9
9
9
9
9
9
9
9
9
9
9
9
9
9
9
9
9
9
9
9
9
9
9
9
9
9
9
9
9
9
9
9
9
9
9
9
9
9
9
9
9
9
9
9
9
9
9
9
9
9
9
9
9
9
9
9
9
9
9
9
9
9
9
9
9
9
9
9
9
9
9
9
9
9
9
9
9
9
9
9
9
9
9
9
9
9
9
9
9
9
9
9
9
9
9
9
9
9
9
9
9
9
9
9
9
9
9
9
9
9
9
9
9
9
9
9
9
9
9
9
9
9
9
9
9
9
9
9
9
9
9
9
9
9
9
9
9
9
9
9
9
9
9
9
9
9
9
9
9
9
9
9
9
9
9
9
9
9
9
9
9
9
9
9
9
9
9
9
9
9
9
9
9
9
9
9
9
9
9
9
9
9
9
9
9
9
9
9
9
9
9
9
9
9
9
9
9
9
9
9
9
9
9
9
9
9
9
9
9
9
9
9
9
9
9
9
9
9
9
9
9
9
9
9
9
9
9
9
9
9
9
9
9
9
9
9
9
9
9
9
9
9
9
9
9
9
9
9
9
9
9
9
9
9
9
9
9
9
9
9
9
9
9
9
9
9
9
9
9
9
9
9
9
9
9
9
9
9
9
9
9
9
9
9
9
9
9
9
9
9
9
9
9
9
9
9
9
9
9
9
9
9
9
9
9
9
9
9
9
9
9
9
9
9
9
9
9
9
9
9
9
9
9
9
9
9
9
9
9
9
9
9
9
9
9
9
9
9
9
9
9
9
9
9
9
9
9
9
9
9
9
9
9
9
9
9
9
9
9
9
9
9
9
9
9
9
9
9
9
9
9
9
9
9
9
9
9
9
9
9
9
9
9
9
9
9
9
9
9
9
9
POINT_DATA       496
SCALARS p double 
LOOKUP_TABLE default
   50033408.8054433     
   50033408.8054433     
   50033408.8054433     
   50033408.8054433     
   50033408.8054432     
   50033408.8054432     
   50033408.8054433     
   50033408.8054432     
   50033408.8054433     
   50033408.8054433     
   50033408.8054433     
   50033408.8054433     
   50033408.8054433     
   50033408.8054433     
   50033408.8054433     
   50033408.8054433     
   50028231.7652811     
   50028231.7652811     
   50028231.7652811     
   50028231.7652810     
   50028231.7652810     
   50028231.7652810     
   50028231.7652810     
   50028231.7652810     
   50028231.7652811     
   50028231.7652811     
   50028231.7652811     
   50028231.7652811     
   50028231.7652811     
   50028231.7652811     
   50028231.7652811     
   50028231.7652811     
   50012695.2664772     
   50012695.2664772     
   50012695.2664771     
   50012695.2664771     
   50012695.2664771     
   50012695.2664771     
   50012695.2664771     
   50012695.2664771     
   50012695.2664771     
   50012695.2664772     
   50012695.2664772     
   50012695.2664772     
   50012695.2664772     
   50012695.2664772     
   50012695.2664772     
   50012695.2664772     
   49986783.1684923     
   49986783.1684923     
   49986783.1684923     
   49986783.1684923     
   49986783.1684923     
   49986783.1684922     
   49986783.1684923     
   49986783.1684922     
   49986783.1684923     
   49986783.1684923     
   49986783.1684923     
   49986783.1684923     
   49986783.1684923     
   49986783.1684923     
   49986783.1684923     
   49986783.1684923     
   49950468.5517971     
   49950468.5517971     
   49950468.5517971     
   49950468.5517971     
   49950468.5517971     
   49950468.5517971     
   49950468.5517971     
   49950468.5517971     
   49950468.5517971     
   49950468.5517971     
   49950468.5517971     
   49950468.5517971     
   49950468.5517971     
   49950468.5517971     
   49950468.5517971     
   49950468.5517971     
   49903713.6899062     
   49903713.6899062     
   49903713.6899061     
   49903713.6899062     
   49903713.6899061     
   49903713.6899061     
   49903713.6899061     
   49903713.6899062     
   49903713.6899062     
   49903713.6899062     
   49903713.6899062     
   49903713.6899062     
   49903713.6899062     
   49903713.6899062     
   49903713.6899062     
   49903713.6899062     
   49846470.0101844     
   49846470.0101844     
   49846470.0101845     
   49846470.0101844     
   49846470.0101844     
   49846470.0101845     
   49846470.0101845     
   49846470.0101845     
   49846470.0101845     
   49846470.0101845     
   49846470.0101845     
   49846470.0101845     
   49846470.0101845     
   49846470.0101845     
   49846470.0101845     
   49846470.0101845     
   49778678.0433866     
   49778678.0433866     
   49778678.0433866     
   49778678.0433866     
   49778678.0433866     
   49778678.0433866     
   49778678.0433867     
   49778678.0433867     
   49778678.0433867     
   49778678.0433867     
   49778678.0433867     
   49778678.0433867     
   49778678.0433867     
   49778678.0433867     
   49778678.0433867     
   49778678.0433867     
   49700267.3618754     
   49700267.3618754     
   49700267.3618754     
   49700267.3618754     
   49700267.3618754     
   49700267.3618754     
   49700267.3618754     
   49700267.3618754     
   49700267.3618754     
   49700267.3618754     
   49700267.3618754     
   49700267.3618754     
   49700267.3618754     
   49700267.3618754     
   49700267.3618754     
   49700267.3618754     
   49611156.5064557     
   49611156.5064557     
   49611156.5064558     
   49611156.5064558     
   49611156.5064558     
   49611156.5064558     
   49611156.5064558     
   49611156.5064558     
   49611156.5064558     
   49611156.5064558     
   49611156.5064558     
   49611156.5064558     
   49611156.5064558     
   49611156.5064558     
   49611156.5064558     
   49611156.5064558     
   49511252.9017490     
   49511252.9017490     
   49511252.9017490     
   49511252.9017491     
   49511252.9017491     
   49511252.9017491     
   49511252.9017491     
   49511252.9017491     
   49511252.9017491     
   49511252.9017491     
   49511252.9017491     
   49511252.9017491     
   49511252.9017491     
   49511252.9017491     
   49511252.9017491     
   49511252.9017491     
   49400452.7600180     
   49400452.7600180     
   49400452.7600180     
   49400452.7600180     
   49400452.7600180     
   49400452.7600180     
   49400452.7600180     
   49400452.7600180     
   49400452.7600181     
   49400452.7600181     
   49400452.7600181     
   49400452.7600181     
   49400452.7600180     
   49400452.7600180     
   49400452.7600180     
   49400452.7600181     
   49278640.9733441     
   49278640.9733441     
   49278640.9733441     
   49278640.9733441     
   49278640.9733441     
   49278640.9733441     
   49278640.9733441     
   49278640.9733441     
   49278640.9733442     
   49278640.9733441     
   49278640.9733442     
   49278640.9733442     
   49278640.9733442     
   49278640.9733441     
   49278640.9733441     
   49278640.9733441     
   49145690.9940443     
   49145690.9940443     
   49145690.9940443     
   49145690.9940443     
   49145690.9940443     
   49145690.9940443     
   49145690.9940443     
   49145690.9940443     
   49145690.9940443     
   49145690.9940443     
   49145690.9940443     
   49145690.9940443     
   49145690.9940443     
   49145690.9940443     
   49145690.9940443     
   49145690.9940443     
   49001464.7032033     
   49001464.7032033     
   49001464.7032033     
   49001464.7032033     
   49001464.7032033     
   49001464.7032033     
   49001464.7032033     
   49001464.7032033     
   49001464.7032033     
   49001464.7032033     
   49001464.7032033     
   49001464.7032033     
   49001464.7032033     
   49001464.7032033     
   49001464.7032033     
   49001464.7032033     
   48845812.2671848     
   48845812.2671848     
   48845812.2671847     
   48845812.2671847     
   48845812.2671847     
   48845812.2671847     
   48845812.2671847     
   48845812.2671848     
   48845812.2671848     
   48845812.2671848     
   48845812.2671848     
   48845812.2671848     
   48845812.2671848     
   48845812.2671848     
   48845812.2671847     
   48845812.2671848     
   48678571.9819724     
   48678571.9819724     
   48678571.9819724     
   48678571.9819724     
   48678571.9819724     
   48678571.9819724     
   48678571.9819724     
   48678571.9819724     
   48678571.9819724     
   48678571.9819724     
   48678571.9819724     
   48678571.9819724     
   48678571.9819724     
   48678571.9819724     
   48678571.9819724     
   48678571.9819724     
   48499570.1051790     
   48499570.1051790     
   48499570.1051790     
   48499570.1051790     
   48499570.1051790     
   48499570.1051790     
   48499570.1051790     
   48499570.1051790     
   48499570.1051790     
   48499570.1051790     
   48499570.1051790     
   48499570.1051790     
   48499570.1051790     
   48499570.1051790     
   48499570.1051790     
   48499570.1051790     
   48308620.6755491     
   48308620.6755491     
   48308620.6755491     
   48308620.6755491     
   48308620.6755491     
   48308620.6755491     
   48308620.6755491     
   48308620.6755491     
   48308620.6755491     
   48308620.6755491     
   48308620.6755491     
   48308620.6755491     
   48308620.6755491     
   48308620.6755491     
   48308620.6755491     
   48308620.6755491     
   48105525.3197680     
   48105525.3197680     
   48105525.3197680     
   48105525.3197680     
   48105525.3197680     
   48105525.3197680     
   48105525.3197680     
   48105525.3197680     
   48105525.3197680     
   48105525.3197680     
   48105525.3197680     
   48105525.3197680     
   48105525.3197680     
   48105525.3197679     
   48105525.3197680     
   48105525.3197680     
   47890073.0463757     
   47890073.0463757     
   47890073.0463757     
   47890073.0463757     
   47890073.0463757     
   47890073.0463757     
   47890073.0463757     
   47890073.0463757     
   47890073.0463757     
   47890073.0463757     
   47890073.0463757     
   47890073.0463756     
   47890073.0463756     
   47890073.0463757     
   47890073.0463756     
   47890073.0463757     
   47662040.0265725     
   47662040.0265724     
   47662040.0265724     
   47662040.0265725     
   47662040.0265725     
   47662040.0265725     
   47662040.0265725     
   47662040.0265724     
   47662040.0265724     
   47662040.0265724     
   47662040.0265724     
   47662040.0265724     
   47662040.0265724     
   47662040.0265724     
   47662040.0265724     
   47662040.0265724     
   47421189.3616877     
   47421189.3616877     
   47421189.3616877     
   47421189.3616877     
   47421189.3616877     
   47421189.3616876     
   47421189.3616877     
   47421189.3616876     
   47421189.3616876     
   47421189.3616876     
   47421189.3616876     
   47421189.3616876     
   47421189.3616876     
   47421189.3616876     
   47421189.3616876     
   47421189.3616876     
   47167270.8370711     
   47167270.8370711     
   47167270.8370711     
   47167270.8370711     
   47167270.8370711     
   47167270.8370711     
   47167270.8370711     
   47167270.8370710     
   47167270.8370710     
   47167270.8370710     
   47167270.8370710     
   47167270.8370710     
   47167270.8370710     
   47167270.8370710     
   47167270.8370710     
   47167270.8370710     
   46900020.6621500     
   46900020.6621500     
   46900020.6621499     
   46900020.6621499     
   46900020.6621499     
   46900020.6621499     
   46900020.6621499     
   46900020.6621499     
   46900020.6621499     
   46900020.6621498     
   46900020.6621498     
   46900020.6621498     
   46900020.6621498     
   46900020.6621499     
   46900020.6621499     
   46900020.6621498     
   46619161.1963826     
   46619161.1963826     
   46619161.1963826     
   46619161.1963826     
   46619161.1963826     
   46619161.1963825     
   46619161.1963825     
   46619161.1963825     
   46619161.1963825     
   46619161.1963825     
   46619161.1963825     
   46619161.1963825     
   46619161.1963825     
   46619161.1963825     
   46619161.1963825     
   46619161.1963825     
   46324400.6608235     
   46324400.6608235     
   46324400.6608235     
   46324400.6608235     
   46324400.6608235     
   46324400.6608235     
   46324400.6608235     
   46324400.6608235     
   46324400.6608235     
   46324400.6608235     
   46324400.6608234     
   46324400.6608235     
   46324400.6608235     
   46324400.6608235     
   46324400.6608235     
   46324400.6608235     
   46015432.8350006     
   46015432.8350006     
   46015432.8350006     
   46015432.8350006     
   46015432.8350006     
   46015432.8350006     
   46015432.8350006     
   46015432.8350006     
   46015432.8350006     
   46015432.8350006     
   46015432.8350006     
   46015432.8350006     
   46015432.8350006     
   46015432.8350006     
   46015432.8350006     
   46015432.8350006     
   45691936.7387890     
   45691936.7387890     
   45691936.7387890     
   45691936.7387890     
   45691936.7387890     
   45691936.7387890     
   45691936.7387890     
   45691936.7387890     
   45691936.7387890     
   45691936.7387890     
   45691936.7387890     
   45691936.7387890     
   45691936.7387890     
   45691936.7387890     
   45691936.7387890     
   45691936.7387890     
   45353576.2989517     
   45353576.2989517     
   45353576.2989517     
   45353576.2989517     
   45353576.2989517     
   45353576.2989516     
   45353576.2989516     
   45353576.2989516     
   45353576.2989516     
   45353576.2989516     
   45353576.2989516     
   45353576.2989516     
   45353576.2989516     
   45353576.2989516     
   45353576.2989516     
   45353576.2989516     
   45000000.0000000     
   45000000.0000000     
   45000000.0000000     
   45000000.0000000     
   45000000.0000000     
   45000000.0000000     
   45000000.0000000     
   45000000.0000000     
   45000000.0000000     
   45000000.0000000     
   45000000.0000000     
   45000000.0000000     
   45000000.0000000     
   45000000.0000000     
   45000000.0000000     
   45000000.0000000     
VECTORS u double 
    0.00000E+00        -0.11702E-01         0.00000E+00
    0.00000E+00        -0.10901E-01         0.00000E+00
    0.00000E+00        -0.10103E-01         0.00000E+00
    0.00000E+00        -0.93081E-02         0.00000E+00
    0.00000E+00        -0.85157E-02         0.00000E+00
    0.00000E+00        -0.77259E-02         0.00000E+00
    0.00000E+00        -0.69387E-02         0.00000E+00
    0.00000E+00        -0.61542E-02         0.00000E+00
    0.00000E+00        -0.53724E-02         0.00000E+00
    0.00000E+00        -0.45935E-02         0.00000E+00
    0.00000E+00        -0.38178E-02         0.00000E+00
    0.00000E+00        -0.30456E-02         0.00000E+00
    0.00000E+00        -0.22773E-02         0.00000E+00
    0.00000E+00        -0.15132E-02         0.00000E+00
    0.00000E+00        -0.75395E-03         0.00000E+00
    0.00000E+00         0.00000E+00         0.00000E+00
    0.14260E-03        -0.11708E-01         0.00000E+00
    0.13056E-03        -0.10907E-01         0.00000E+00
    0.11915E-03        -0.10109E-01         0.00000E+00
    0.10833E-03        -0.93133E-02         0.00000E+00
    0.98073E-04        -0.85205E-02         0.00000E+00
    0.88303E-04        -0.77304E-02         0.00000E+00
    0.78955E-04        -0.69428E-02         0.00000E+00
    0.69949E-04        -0.61579E-02         0.00000E+00
    0.61200E-04        -0.53757E-02         0.00000E+00
    0.52622E-04        -0.45964E-02         0.00000E+00
    0.44126E-04        -0.38203E-02         0.00000E+00
    0.35627E-04        -0.30476E-02         0.00000E+00
    0.27042E-04        -0.22788E-02         0.00000E+00
    0.18291E-04        -0.15143E-02         0.00000E+00
    0.93003E-05        -0.75447E-03         0.00000E+00
    0.00000E+00         0.00000E+00         0.00000E+00
    0.28456E-03        -0.11727E-01         0.00000E+00
    0.26049E-03        -0.10925E-01         0.00000E+00
    0.23768E-03        -0.10125E-01         0.00000E+00
    0.21609E-03        -0.93289E-02         0.00000E+00
    0.19560E-03        -0.85351E-02         0.00000E+00
    0.17611E-03        -0.77439E-02         0.00000E+00
    0.15746E-03        -0.69552E-02         0.00000E+00
    0.13950E-03        -0.61691E-02         0.00000E+00
    0.12206E-03        -0.53857E-02         0.00000E+00
    0.10496E-03        -0.46051E-02         0.00000E+00
    0.88023E-04        -0.38277E-02         0.00000E+00
    0.71077E-04        -0.30536E-02         0.00000E+00
    0.53956E-04        -0.22834E-02         0.00000E+00
    0.36500E-04        -0.15173E-02         0.00000E+00
    0.18561E-04        -0.75602E-03         0.00000E+00
    0.00000E+00         0.00000E+00         0.00000E+00
    0.42524E-03        -0.11758E-01         0.00000E+00
    0.38915E-03        -0.10954E-01         0.00000E+00
    0.35499E-03        -0.10153E-01         0.00000E+00
    0.32267E-03        -0.93549E-02         0.00000E+00
    0.29204E-03        -0.85594E-02         0.00000E+00
    0.26291E-03        -0.77664E-02         0.00000E+00
    0.23507E-03        -0.69758E-02         0.00000E+00
    0.20827E-03        -0.61878E-02         0.00000E+00
    0.18224E-03        -0.54023E-02         0.00000E+00
    0.15673E-03        -0.46196E-02         0.00000E+00
    0.13146E-03        -0.38399E-02         0.00000E+00
    0.10617E-03        -0.30636E-02         0.00000E+00
    0.80613E-04        -0.22909E-02         0.00000E+00
    0.54544E-04        -0.15224E-02         0.00000E+00
    0.27742E-04        -0.75862E-03         0.00000E+00
    0.00000E+00         0.00000E+00         0.00000E+00
    0.56397E-03        -0.11801E-01         0.00000E+00
    0.51589E-03        -0.10995E-01         0.00000E+00
    0.47043E-03        -0.10192E-01         0.00000E+00
    0.42748E-03        -0.93913E-02         0.00000E+00
    0.38683E-03        -0.85934E-02         0.00000E+00
    0.34822E-03        -0.77979E-02         0.00000E+00
    0.31133E-03        -0.70047E-02         0.00000E+00
    0.27585E-03        -0.62139E-02         0.00000E+00
    0.24141E-03        -0.54256E-02         0.00000E+00
    0.20765E-03        -0.46399E-02         0.00000E+00
    0.17421E-03        -0.38571E-02         0.00000E+00
    0.14074E-03        -0.30775E-02         0.00000E+00
    0.10689E-03        -0.23016E-02         0.00000E+00
    0.72343E-04        -0.15296E-02         0.00000E+00
    0.36806E-04        -0.76225E-03         0.00000E+00
    0.00000E+00         0.00000E+00         0.00000E+00
    0.70009E-03        -0.11856E-01         0.00000E+00
    0.64003E-03        -0.11048E-01         0.00000E+00
    0.58337E-03        -0.10242E-01         0.00000E+00
    0.52992E-03        -0.94382E-02         0.00000E+00
    0.47941E-03        -0.86372E-02         0.00000E+00
    0.43150E-03        -0.78384E-02         0.00000E+00
    0.38579E-03        -0.70419E-02         0.00000E+00
    0.34185E-03        -0.62475E-02         0.00000E+00
    0.29922E-03        -0.54555E-02         0.00000E+00
    0.25744E-03        -0.46660E-02         0.00000E+00
    0.21605E-03        -0.38792E-02         0.00000E+00
    0.17460E-03        -0.30955E-02         0.00000E+00
    0.13265E-03        -0.23152E-02         0.00000E+00
    0.89818E-04        -0.15388E-02         0.00000E+00
    0.45714E-04        -0.76691E-03         0.00000E+00
    0.00000E+00         0.00000E+00         0.00000E+00
    0.83288E-03        -0.11924E-01         0.00000E+00
    0.76089E-03        -0.11112E-01         0.00000E+00
    0.69314E-03        -0.10303E-01         0.00000E+00
    0.62936E-03        -0.94955E-02         0.00000E+00
    0.56921E-03        -0.86907E-02         0.00000E+00
    0.51224E-03        -0.78880E-02         0.00000E+00
    0.45797E-03        -0.70873E-02         0.00000E+00
    0.40585E-03        -0.62887E-02         0.00000E+00
    0.35532E-03        -0.54922E-02         0.00000E+00
    0.30581E-03        -0.46979E-02         0.00000E+00
    0.25675E-03        -0.39062E-02         0.00000E+00
    0.20758E-03        -0.31174E-02         0.00000E+00
    0.15779E-03        -0.23319E-02         0.00000E+00
    0.10689E-03        -0.15501E-02         0.00000E+00
    0.54431E-04        -0.77261E-03         0.00000E+00
    0.00000E+00         0.00000E+00         0.00000E+00
    0.96158E-03        -0.12005E-01         0.00000E+00
    0.87774E-03        -0.11188E-01         0.00000E+00
    0.79904E-03        -0.10375E-01         0.00000E+00
    0.72515E-03        -0.95632E-02         0.00000E+00
    0.65562E-03        -0.87539E-02         0.00000E+00
    0.58991E-03        -0.79466E-02         0.00000E+00
    0.52741E-03        -0.71410E-02         0.00000E+00
    0.46746E-03        -0.63373E-02         0.00000E+00
    0.40938E-03        -0.55354E-02         0.00000E+00
    0.35248E-03        -0.47356E-02         0.00000E+00
    0.29608E-03        -0.39382E-02         0.00000E+00
    0.23952E-03        -0.31433E-02         0.00000E+00
    0.18218E-03        -0.23516E-02         0.00000E+00
    0.12349E-03        -0.15634E-02         0.00000E+00
    0.62923E-04        -0.77934E-03         0.00000E+00
    0.00000E+00         0.00000E+00         0.00000E+00
    0.10854E-02        -0.12097E-01         0.00000E+00
    0.98981E-03        -0.11276E-01         0.00000E+00
    0.90035E-03        -0.10458E-01         0.00000E+00
    0.81662E-03        -0.96413E-02         0.00000E+00
    0.73804E-03        -0.88269E-02         0.00000E+00
    0.66395E-03        -0.80141E-02         0.00000E+00
    0.59362E-03        -0.72030E-02         0.00000E+00
    0.52626E-03        -0.63933E-02         0.00000E+00
    0.46104E-03        -0.55853E-02         0.00000E+00
    0.39716E-03        -0.47791E-02         0.00000E+00
    0.33382E-03        -0.39750E-02         0.00000E+00
    0.27024E-03        -0.31732E-02         0.00000E+00
    0.20570E-03        -0.23743E-02         0.00000E+00
    0.13954E-03        -0.15787E-02         0.00000E+00
    0.71156E-04        -0.78710E-03         0.00000E+00
    0.00000E+00         0.00000E+00         0.00000E+00
    0.12035E-02        -0.12202E-01         0.00000E+00
    0.10963E-02        -0.11376E-01         0.00000E+00
    0.99632E-03        -0.10552E-01         0.00000E+00
    0.90306E-03        -0.97298E-02         0.00000E+00
    0.81583E-03        -0.89095E-02         0.00000E+00
    0.73381E-03        -0.80907E-02         0.00000E+00
    0.65612E-03        -0.72731E-02         0.00000E+00
    0.58182E-03        -0.64569E-02         0.00000E+00
    0.50996E-03        -0.56419E-02         0.00000E+00
    0.43957E-03        -0.48284E-02         0.00000E+00
    0.36975E-03        -0.40167E-02         0.00000E+00
    0.29958E-03        -0.32070E-02         0.00000E+00
    0.22825E-03        -0.24000E-02         0.00000E+00
    0.15498E-03        -0.15961E-02         0.00000E+00
    0.79101E-04        -0.79588E-03         0.00000E+00
    0.00000E+00         0.00000E+00         0.00000E+00
    0.13150E-02        -0.12319E-01         0.00000E+00
    0.11963E-02        -0.11487E-01         0.00000E+00
    0.10861E-02        -0.10657E-01         0.00000E+00
    0.98375E-03        -0.98285E-02         0.00000E+00
    0.88832E-03        -0.90018E-02         0.00000E+00
    0.79888E-03        -0.81761E-02         0.00000E+00
    0.71438E-03        -0.73515E-02         0.00000E+00
    0.63371E-03        -0.65277E-02         0.00000E+00
    0.55576E-03        -0.57050E-02         0.00000E+00
    0.47943E-03        -0.48833E-02         0.00000E+00
    0.40364E-03        -0.40631E-02         0.00000E+00
    0.32738E-03        -0.32448E-02         0.00000E+00
    0.24970E-03        -0.24287E-02         0.00000E+00
    0.16974E-03        -0.16155E-02         0.00000E+00
    0.86729E-04        -0.80566E-03         0.00000E+00
    0.00000E+00         0.00000E+00         0.00000E+00
    0.14188E-02        -0.12448E-01         0.00000E+00
    0.12890E-02        -0.11609E-01         0.00000E+00
    0.11689E-02        -0.10773E-01         0.00000E+00
    0.10579E-02        -0.99375E-02         0.00000E+00
    0.95484E-03        -0.91035E-02         0.00000E+00
    0.85858E-03        -0.82704E-02         0.00000E+00
    0.76789E-03        -0.74378E-02         0.00000E+00
    0.68149E-03        -0.66059E-02         0.00000E+00
    0.59809E-03        -0.57745E-02         0.00000E+00
    0.51642E-03        -0.49439E-02         0.00000E+00
    0.43527E-03        -0.41144E-02         0.00000E+00
    0.35347E-03        -0.32864E-02         0.00000E+00
    0.26996E-03        -0.24603E-02         0.00000E+00
    0.18376E-03        -0.16368E-02         0.00000E+00
    0.94015E-04        -0.81643E-03         0.00000E+00
    0.00000E+00         0.00000E+00         0.00000E+00
    0.15140E-02        -0.12589E-01         0.00000E+00
    0.13733E-02        -0.11743E-01         0.00000E+00
    0.12438E-02        -0.10899E-01         0.00000E+00
    0.11247E-02        -0.10056E-01         0.00000E+00
    0.10147E-02        -0.92146E-02         0.00000E+00
    0.91227E-03        -0.83732E-02         0.00000E+00
    0.81611E-03        -0.75321E-02         0.00000E+00
    0.72470E-03        -0.66911E-02         0.00000E+00
    0.63657E-03        -0.58503E-02         0.00000E+00
    0.55027E-03        -0.50099E-02         0.00000E+00
    0.46441E-03        -0.41703E-02         0.00000E+00
    0.37769E-03        -0.33317E-02         0.00000E+00
    0.28890E-03        -0.24947E-02         0.00000E+00
    0.19697E-03        -0.16600E-02         0.00000E+00
    0.10093E-03        -0.82818E-03         0.00000E+00
    0.00000E+00         0.00000E+00         0.00000E+00
    0.15994E-02        -0.12742E-01         0.00000E+00
    0.14482E-02        -0.11888E-01         0.00000E+00
    0.13099E-02        -0.11036E-01         0.00000E+00
    0.11834E-02        -0.10185E-01         0.00000E+00
    0.10670E-02        -0.93348E-02         0.00000E+00
    0.95929E-03        -0.84845E-02         0.00000E+00
    0.85848E-03        -0.76340E-02         0.00000E+00
    0.76289E-03        -0.67833E-02         0.00000E+00
    0.67083E-03        -0.59323E-02         0.00000E+00
    0.58066E-03        -0.50813E-02         0.00000E+00
    0.49083E-03        -0.42306E-02         0.00000E+00
    0.39987E-03        -0.33806E-02         0.00000E+00
    0.30643E-03        -0.25319E-02         0.00000E+00
    0.20931E-03        -0.16851E-02         0.00000E+00
    0.10746E-03        -0.84085E-03         0.00000E+00
    0.00000E+00         0.00000E+00         0.00000E+00
    0.16738E-02        -0.12905E-01         0.00000E+00
    0.15125E-02        -0.12043E-01         0.00000E+00
    0.13661E-02        -0.11183E-01         0.00000E+00
    0.12329E-02        -0.10323E-01         0.00000E+00
    0.11112E-02        -0.94637E-02         0.00000E+00
    0.99899E-03        -0.86038E-02         0.00000E+00
    0.89443E-03        -0.77433E-02         0.00000E+00
    0.79556E-03        -0.68820E-02         0.00000E+00
    0.70045E-03        -0.60201E-02         0.00000E+00
    0.60728E-03        -0.51578E-02         0.00000E+00
    0.51428E-03        -0.42953E-02         0.00000E+00
    0.41983E-03        -0.34331E-02         0.00000E+00
    0.32242E-03        -0.25717E-02         0.00000E+00
    0.22072E-03        -0.17120E-02         0.00000E+00
    0.11357E-03        -0.85443E-03         0.00000E+00
    0.00000E+00         0.00000E+00         0.00000E+00
    0.17358E-02        -0.13080E-01         0.00000E+00
    0.15652E-02        -0.12209E-01         0.00000E+00
    0.14114E-02        -0.11339E-01         0.00000E+00
    0.12724E-02        -0.10470E-01         0.00000E+00
    0.11463E-02        -0.96009E-02         0.00000E+00
    0.10306E-02        -0.87307E-02         0.00000E+00
    0.92336E-03        -0.78595E-02         0.00000E+00
    0.82220E-03        -0.69870E-02         0.00000E+00
    0.72503E-03        -0.61135E-02         0.00000E+00
    0.62978E-03        -0.52390E-02         0.00000E+00
    0.53450E-03        -0.43639E-02         0.00000E+00
    0.43738E-03        -0.34888E-02         0.00000E+00
    0.33675E-03        -0.26141E-02         0.00000E+00
    0.23113E-03        -0.17405E-02         0.00000E+00
    0.11923E-03        -0.86885E-03         0.00000E+00
    0.00000E+00         0.00000E+00         0.00000E+00
    0.17840E-02        -0.13264E-01         0.00000E+00
    0.16049E-02        -0.12384E-01         0.00000E+00
    0.14446E-02        -0.11505E-01         0.00000E+00
    0.13010E-02        -0.10626E-01         0.00000E+00
    0.11715E-02        -0.97459E-02         0.00000E+00
    0.10535E-02        -0.88648E-02         0.00000E+00
    0.94465E-03        -0.79821E-02         0.00000E+00
    0.84231E-03        -0.70978E-02         0.00000E+00
    0.74412E-03        -0.62119E-02         0.00000E+00
    0.64781E-03        -0.53246E-02         0.00000E+00
    0.55120E-03        -0.44363E-02         0.00000E+00
    0.45230E-03        -0.35475E-02         0.00000E+00
    0.34926E-03        -0.26586E-02         0.00000E+00
    0.24044E-03        -0.17706E-02         0.00000E+00
    0.12441E-03        -0.88405E-03         0.00000E+00
    0.00000E+00         0.00000E+00         0.00000E+00
    0.18170E-02        -0.13458E-01         0.00000E+00
    0.16302E-02        -0.12568E-01         0.00000E+00
    0.14647E-02        -0.11679E-01         0.00000E+00
    0.13175E-02        -0.10789E-01         0.00000E+00
    0.11859E-02        -0.98979E-02         0.00000E+00
    0.10669E-02        -0.90051E-02         0.00000E+00
    0.95765E-03        -0.81104E-02         0.00000E+00
    0.85531E-03        -0.72135E-02         0.00000E+00
    0.75725E-03        -0.63147E-02         0.00000E+00
    0.66096E-03        -0.54140E-02         0.00000E+00
    0.56406E-03        -0.45119E-02         0.00000E+00
    0.46434E-03        -0.36088E-02         0.00000E+00
    0.35978E-03        -0.27052E-02         0.00000E+00
    0.24855E-03        -0.18020E-02         0.00000E+00
    0.12906E-03        -0.89996E-03         0.00000E+00
    0.00000E+00         0.00000E+00         0.00000E+00
    0.18330E-02        -0.13661E-01         0.00000E+00
    0.16398E-02        -0.12760E-01         0.00000E+00
    0.14703E-02        -0.11860E-01         0.00000E+00
    0.13210E-02        -0.10959E-01         0.00000E+00
    0.11887E-02        -0.10056E-01         0.00000E+00
    0.10700E-02        -0.91509E-02         0.00000E+00
    0.96170E-03        -0.82435E-02         0.00000E+00
    0.86063E-03        -0.73335E-02         0.00000E+00
    0.76391E-03        -0.64212E-02         0.00000E+00
    0.66879E-03        -0.55066E-02         0.00000E+00
    0.57269E-03        -0.45902E-02         0.00000E+00
    0.47320E-03        -0.36723E-02         0.00000E+00
    0.36809E-03        -0.27535E-02         0.00000E+00
    0.25532E-03        -0.18347E-02         0.00000E+00
    0.13312E-03        -0.91647E-03         0.00000E+00
    0.00000E+00         0.00000E+00         0.00000E+00
    0.18304E-02        -0.13870E-01         0.00000E+00
    0.16322E-02        -0.12959E-01         0.00000E+00
    0.14602E-02        -0.12047E-01         0.00000E+00
    0.13104E-02        -0.11134E-01         0.00000E+00
    0.11790E-02        -0.10219E-01         0.00000E+00
    0.10621E-02        -0.93009E-02         0.00000E+00
    0.95609E-03        -0.83802E-02         0.00000E+00
    0.85763E-03        -0.74567E-02         0.00000E+00
    0.76351E-03        -0.65304E-02         0.00000E+00
    0.67078E-03        -0.56015E-02         0.00000E+00
    0.57664E-03        -0.46704E-02         0.00000E+00
    0.47849E-03        -0.37374E-02         0.00000E+00
    0.37389E-03        -0.28031E-02         0.00000E+00
    0.26057E-03        -0.18682E-02         0.00000E+00
    0.13651E-03        -0.93348E-03         0.00000E+00
    0.00000E+00         0.00000E+00         0.00000E+00
    0.18072E-02        -0.14085E-01         0.00000E+00
    0.16058E-02        -0.13162E-01         0.00000E+00
    0.14332E-02        -0.12239E-01         0.00000E+00
    0.12847E-02        -0.11313E-01         0.00000E+00
    0.11558E-02        -0.10385E-01         0.00000E+00
    0.10423E-02        -0.94537E-02         0.00000E+00
    0.94011E-03        -0.85193E-02         0.00000E+00
    0.84564E-03        -0.75818E-02         0.00000E+00
    0.75543E-03        -0.66412E-02         0.00000E+00
    0.66633E-03        -0.56978E-02         0.00000E+00
    0.57537E-03        -0.47518E-02         0.00000E+00
    0.47975E-03        -0.38036E-02         0.00000E+00
    0.37681E-03        -0.28536E-02         0.00000E+00
    0.26402E-03        -0.19024E-02         0.00000E+00
    0.13909E-03        -0.95085E-03         0.00000E+00
    0.00000E+00         0.00000E+00         0.00000E+00
    0.17617E-02        -0.14304E-01         0.00000E+00
    0.15591E-02        -0.13369E-01         0.00000E+00
    0.13879E-02        -0.12433E-01         0.00000E+00
    0.12426E-02        -0.11494E-01         0.00000E+00
    0.11182E-02        -0.10553E-01         0.00000E+00
    0.10098E-02        -0.96075E-02         0.00000E+00
    0.91300E-03        -0.86591E-02         0.00000E+00
    0.82392E-03        -0.77072E-02         0.00000E+00
    0.73893E-03        -0.67523E-02         0.00000E+00
    0.65472E-03        -0.57942E-02         0.00000E+00
    0.56819E-03        -0.48334E-02         0.00000E+00
    0.47636E-03        -0.38700E-02         0.00000E+00
    0.37635E-03        -0.29043E-02         0.00000E+00
    0.26535E-03        -0.19369E-02         0.00000E+00
    0.14070E-03        -0.96841E-03         0.00000E+00
    0.00000E+00         0.00000E+00         0.00000E+00
    0.16918E-02        -0.14525E-01         0.00000E+00
    0.14904E-02        -0.13577E-01         0.00000E+00
    0.13230E-02        -0.12628E-01         0.00000E+00
    0.11833E-02        -0.11676E-01         0.00000E+00
    0.10654E-02        -0.10720E-01         0.00000E+00
    0.96382E-03        -0.97603E-02         0.00000E+00
    0.87397E-03        -0.87974E-02         0.00000E+00
    0.79164E-03        -0.78311E-02         0.00000E+00
    0.71314E-03        -0.68617E-02         0.00000E+00
    0.63507E-03        -0.58893E-02         0.00000E+00
    0.55423E-03        -0.49139E-02         0.00000E+00
    0.46753E-03        -0.39356E-02         0.00000E+00
    0.37184E-03        -0.29546E-02         0.00000E+00
    0.26406E-03        -0.19712E-02         0.00000E+00
    0.14108E-03        -0.98600E-03         0.00000E+00
    0.00000E+00         0.00000E+00         0.00000E+00
    0.15954E-02        -0.14745E-01         0.00000E+00
    0.13982E-02        -0.13784E-01         0.00000E+00
    0.12375E-02        -0.12821E-01         0.00000E+00
    0.11058E-02        -0.11854E-01         0.00000E+00
    0.99649E-03        -0.10884E-01         0.00000E+00
    0.90360E-03        -0.99094E-02         0.00000E+00
    0.82216E-03        -0.89318E-02         0.00000E+00
    0.74788E-03        -0.79512E-02         0.00000E+00
    0.67705E-03        -0.69677E-02         0.00000E+00
    0.60630E-03        -0.59813E-02         0.00000E+00
    0.53241E-03        -0.49919E-02         0.00000E+00
    0.45222E-03        -0.39995E-02         0.00000E+00
    0.36240E-03        -0.30038E-02         0.00000E+00
    0.25950E-03        -0.20050E-02         0.00000E+00
    0.13990E-03        -0.10034E-02         0.00000E+00
    0.00000E+00         0.00000E+00         0.00000E+00
    0.14704E-02        -0.14960E-01         0.00000E+00
    0.12809E-02        -0.13986E-01         0.00000E+00
    0.11301E-02        -0.13008E-01         0.00000E+00
    0.10093E-02        -0.12026E-01         0.00000E+00
    0.91080E-03        -0.11041E-01         0.00000E+00
    0.82832E-03        -0.10052E-01         0.00000E+00
    0.75666E-03        -0.90596E-02         0.00000E+00
    0.69158E-03        -0.80650E-02         0.00000E+00
    0.62947E-03        -0.70679E-02         0.00000E+00
    0.56709E-03        -0.60683E-02         0.00000E+00
    0.50136E-03        -0.50658E-02         0.00000E+00
    0.42910E-03        -0.40602E-02         0.00000E+00
    0.34686E-03        -0.30509E-02         0.00000E+00
    0.25080E-03        -0.20376E-02         0.00000E+00
    0.13667E-03        -0.10204E-02         0.00000E+00
    0.00000E+00         0.00000E+00         0.00000E+00
    0.13147E-02        -0.15167E-01         0.00000E+00
    0.11370E-02        -0.14179E-01         0.00000E+00
    0.99996E-03        -0.13186E-01         0.00000E+00
    0.89302E-03        -0.12189E-01         0.00000E+00
    0.80766E-03        -0.11188E-01         0.00000E+00
    0.73718E-03        -0.10184E-01         0.00000E+00
    0.67646E-03        -0.91774E-02         0.00000E+00
    0.62148E-03        -0.81694E-02         0.00000E+00
    0.56892E-03        -0.71596E-02         0.00000E+00
    0.51584E-03        -0.61480E-02         0.00000E+00
    0.45938E-03        -0.51338E-02         0.00000E+00
    0.39648E-03        -0.41164E-02         0.00000E+00
    0.32366E-03        -0.30949E-02         0.00000E+00
    0.23674E-03        -0.20685E-02         0.00000E+00
    0.13073E-03        -0.10368E-02         0.00000E+00
    0.00000E+00         0.00000E+00         0.00000E+00
    0.11259E-02        -0.15362E-01         0.00000E+00
    0.96542E-03        -0.14359E-01         0.00000E+00
    0.84647E-03        -0.13350E-01         0.00000E+00
    0.75661E-03        -0.12337E-01         0.00000E+00
    0.68644E-03        -0.11320E-01         0.00000E+00
    0.62926E-03        -0.10301E-01         0.00000E+00
    0.58032E-03        -0.92816E-02         0.00000E+00
    0.53608E-03        -0.82613E-02         0.00000E+00
    0.49369E-03        -0.72403E-02         0.00000E+00
    0.45061E-03        -0.62180E-02         0.00000E+00
    0.40436E-03        -0.51938E-02         0.00000E+00
    0.35220E-03        -0.41665E-02         0.00000E+00
    0.29077E-03        -0.31347E-02         0.00000E+00
    0.21567E-03        -0.20970E-02         0.00000E+00
    0.12114E-03        -0.10522E-02         0.00000E+00
    0.00000E+00         0.00000E+00         0.00000E+00
    0.90191E-03        -0.15538E-01         0.00000E+00
    0.76521E-03        -0.14519E-01         0.00000E+00
    0.66945E-03        -0.13494E-01         0.00000E+00
    0.59979E-03        -0.12464E-01         0.00000E+00
    0.54648E-03        -0.11432E-01         0.00000E+00
    0.50345E-03        -0.10400E-01         0.00000E+00
    0.46677E-03        -0.93683E-02         0.00000E+00
    0.43359E-03        -0.83374E-02         0.00000E+00
    0.40170E-03        -0.73068E-02         0.00000E+00
    0.36911E-03        -0.62760E-02         0.00000E+00
    0.33385E-03        -0.52437E-02         0.00000E+00
    0.29363E-03        -0.42086E-02         0.00000E+00
    0.24554E-03        -0.31688E-02         0.00000E+00
    0.18531E-03        -0.21222E-02         0.00000E+00
    0.10652E-03        -0.10664E-02         0.00000E+00
    0.00000E+00         0.00000E+00         0.00000E+00
    0.64043E-03        -0.15686E-01         0.00000E+00
    0.53634E-03        -0.14651E-01         0.00000E+00
    0.46931E-03        -0.13609E-01         0.00000E+00
    0.42230E-03        -0.12563E-01         0.00000E+00
    0.38675E-03        -0.11518E-01         0.00000E+00
    0.35820E-03        -0.10475E-01         0.00000E+00
    0.33388E-03        -0.94336E-02         0.00000E+00
    0.31184E-03        -0.83945E-02         0.00000E+00
    0.29059E-03        -0.73567E-02         0.00000E+00
    0.26877E-03        -0.63194E-02         0.00000E+00
    0.24501E-03        -0.52813E-02         0.00000E+00
    0.21769E-03        -0.42407E-02         0.00000E+00
    0.18464E-03        -0.31955E-02         0.00000E+00
    0.14243E-03        -0.21429E-02         0.00000E+00
    0.84725E-04        -0.10788E-02         0.00000E+00
    0.00000E+00         0.00000E+00         0.00000E+00
    0.33948E-03        -0.15796E-01         0.00000E+00
    0.28035E-03        -0.14744E-01         0.00000E+00
    0.24662E-03        -0.13685E-01         0.00000E+00
    0.22317E-03        -0.12627E-01         0.00000E+00
    0.20552E-03        -0.11573E-01         0.00000E+00
    0.19134E-03        -0.10522E-01         0.00000E+00
    0.17925E-03        -0.94744E-02         0.00000E+00
    0.16827E-03        -0.84300E-02         0.00000E+00
    0.15766E-03        -0.73877E-02         0.00000E+00
    0.14673E-03        -0.63464E-02         0.00000E+00
    0.13478E-03        -0.53048E-02         0.00000E+00
    0.12098E-03        -0.42610E-02         0.00000E+00
    0.10417E-03        -0.32128E-02         0.00000E+00
    0.82406E-04        -0.21571E-02         0.00000E+00
    0.51957E-04        -0.10889E-02         0.00000E+00
    0.00000E+00         0.00000E+00         0.00000E+00
    0.00000E+00        -0.15845E-01         0.00000E+00
    0.00000E+00        -0.14779E-01         0.00000E+00
    0.00000E+00        -0.13712E-01         0.00000E+00
    0.00000E+00        -0.12650E-01         0.00000E+00
    0.00000E+00        -0.11591E-01         0.00000E+00
    0.00000E+00        -0.10538E-01         0.00000E+00
    0.00000E+00        -0.94882E-02         0.00000E+00
    0.00000E+00        -0.84420E-02         0.00000E+00
    0.00000E+00        -0.73982E-02         0.00000E+00
    0.00000E+00        -0.63556E-02         0.00000E+00
    0.00000E+00        -0.53128E-02         0.00000E+00
    0.00000E+00        -0.42680E-02         0.00000E+00
    0.00000E+00        -0.32189E-02         0.00000E+00
    0.00000E+00        -0.21622E-02         0.00000E+00
    0.00000E+00        -0.10932E-02         0.00000E+00
    0.00000E+00         0.00000E+00         0.00000E+00
CELL_DATA        450
VECTORS vDarcy double 
    0.29583E-08        -0.59871E-20         0.00000E+00
    0.29583E-08        -0.43240E-20         0.00000E+00
    0.29583E-08        -0.69849E-20         0.00000E+00
    0.29583E-08        -0.73175E-20         0.00000E+00
    0.29583E-08         0.19957E-20         0.00000E+00
    0.29583E-08        -0.33262E-21         0.00000E+00
    0.29583E-08         0.66523E-21         0.00000E+00
    0.29583E-08         0.15300E-19         0.00000E+00
    0.29583E-08        -0.46566E-20         0.00000E+00
    0.29583E-08         0.26609E-20         0.00000E+00
    0.29583E-08         0.18626E-19         0.00000E+00
    0.29583E-08         0.86480E-20         0.00000E+00
    0.29583E-08        -0.10644E-19         0.00000E+00
    0.29583E-08         0.79828E-20         0.00000E+00
    0.29583E-08        -0.53218E-20         0.00000E+00
    0.88780E-08         0.00000E+00         0.00000E+00
    0.88780E-08        -0.13970E-19         0.00000E+00
    0.88780E-08        -0.33262E-20         0.00000E+00
    0.88780E-08        -0.19957E-20         0.00000E+00
    0.88780E-08        -0.79828E-20         0.00000E+00
    0.88780E-08        -0.29935E-20         0.00000E+00
    0.88780E-08         0.10644E-19         0.00000E+00
    0.88780E-08         0.99785E-20         0.00000E+00
    0.88780E-08         0.13305E-20         0.00000E+00
    0.88780E-08         0.00000E+00         0.00000E+00
    0.88780E-08         0.11974E-19         0.00000E+00
    0.88780E-08         0.66523E-20         0.00000E+00
    0.88780E-08        -0.19957E-20         0.00000E+00
    0.88780E-08         0.39914E-20         0.00000E+00
    0.88780E-08        -0.59871E-20         0.00000E+00
    0.14807E-07         0.33262E-21         0.00000E+00
    0.14807E-07        -0.93132E-20         0.00000E+00
    0.14807E-07        -0.23283E-20         0.00000E+00
    0.14807E-07         0.66523E-21         0.00000E+00
    0.14807E-07        -0.11974E-19         0.00000E+00
    0.14807E-07         0.33262E-20         0.00000E+00
    0.14807E-07         0.33262E-20         0.00000E+00
    0.14807E-07         0.14635E-19         0.00000E+00
    0.14807E-07         0.63197E-20         0.00000E+00
    0.14807E-07         0.66523E-21         0.00000E+00
    0.14807E-07         0.66523E-20         0.00000E+00
    0.14807E-07         0.53218E-20         0.00000E+00
    0.14807E-07        -0.66523E-21         0.00000E+00
    0.14807E-07        -0.99785E-20         0.00000E+00
    0.14807E-07        -0.79828E-20         0.00000E+00
    0.20751E-07        -0.36588E-20         0.00000E+00
    0.20751E-07         0.33262E-20         0.00000E+00
    0.20751E-07        -0.79828E-20         0.00000E+00
    0.20751E-07         0.66523E-21         0.00000E+00
    0.20751E-07        -0.49892E-20         0.00000E+00
    0.20751E-07         0.00000E+00         0.00000E+00
    0.20751E-07         0.29935E-20         0.00000E+00
    0.20751E-07         0.18626E-19         0.00000E+00
    0.20751E-07         0.26609E-20         0.00000E+00
    0.20751E-07        -0.26609E-20         0.00000E+00
    0.20751E-07         0.11974E-19         0.00000E+00
    0.20751E-07        -0.39914E-20         0.00000E+00
    0.20751E-07         0.26609E-20         0.00000E+00
    0.20751E-07        -0.13970E-19         0.00000E+00
    0.20751E-07        -0.73175E-20         0.00000E+00
    0.26717E-07         0.26609E-20         0.00000E+00
    0.26717E-07        -0.63197E-20         0.00000E+00
    0.26717E-07         0.33262E-21         0.00000E+00
    0.26717E-07        -0.66523E-20         0.00000E+00
    0.26717E-07         0.26609E-20         0.00000E+00
    0.26717E-07        -0.13305E-20         0.00000E+00
    0.26717E-07         0.12972E-19         0.00000E+00
    0.26717E-07         0.79828E-20         0.00000E+00
    0.26717E-07         0.66523E-21         0.00000E+00
    0.26717E-07         0.39914E-20         0.00000E+00
    0.26717E-07         0.79828E-20         0.00000E+00
    0.26717E-07        -0.73175E-20         0.00000E+00
    0.26717E-07         0.66523E-21         0.00000E+00
    0.26717E-07        -0.66523E-20         0.00000E+00
    0.26717E-07        -0.26609E-20         0.00000E+00
    0.32711E-07         0.33262E-20         0.00000E+00
    0.32711E-07        -0.59871E-20         0.00000E+00
    0.32711E-07        -0.66523E-21         0.00000E+00
    0.32711E-07        -0.83154E-20         0.00000E+00
    0.32711E-07         0.33262E-20         0.00000E+00
    0.32711E-07         0.93132E-20         0.00000E+00
    0.32711E-07         0.39914E-20         0.00000E+00
    0.32711E-07         0.11974E-19         0.00000E+00
    0.32711E-07        -0.23283E-20         0.00000E+00
    0.32711E-07         0.13970E-19         0.00000E+00
    0.32711E-07         0.19957E-20         0.00000E+00
    0.32711E-07        -0.29935E-20         0.00000E+00
    0.32711E-07        -0.39914E-20         0.00000E+00
    0.32711E-07         0.19957E-20         0.00000E+00
    0.32711E-07        -0.43240E-20         0.00000E+00
    0.38738E-07         0.13305E-20         0.00000E+00
    0.38738E-07         0.13305E-20         0.00000E+00
    0.38738E-07        -0.26609E-20         0.00000E+00
    0.38738E-07        -0.99785E-21         0.00000E+00
    0.38738E-07         0.86480E-20         0.00000E+00
    0.38738E-07         0.15966E-19         0.00000E+00
    0.38738E-07        -0.59871E-20         0.00000E+00
    0.38738E-07         0.15300E-19         0.00000E+00
    0.38738E-07         0.00000E+00         0.00000E+00
    0.38738E-07         0.13305E-19         0.00000E+00
    0.38738E-07        -0.69849E-20         0.00000E+00
    0.38738E-07         0.66523E-21         0.00000E+00
    0.38738E-07         0.86480E-20         0.00000E+00
    0.38738E-07        -0.43240E-20         0.00000E+00
    0.38738E-07        -0.73175E-20         0.00000E+00
    0.44806E-07        -0.33262E-21         0.00000E+00
    0.44806E-07         0.66523E-21         0.00000E+00
    0.44806E-07        -0.29935E-20         0.00000E+00
    0.44806E-07        -0.26609E-20         0.00000E+00
    0.44806E-07         0.13970E-19         0.00000E+00
    0.44806E-07         0.83154E-20         0.00000E+00
    0.44806E-07        -0.66523E-21         0.00000E+00
    0.44806E-07         0.14635E-19         0.00000E+00
    0.44806E-07         0.19957E-20         0.00000E+00
    0.44806E-07         0.33262E-20         0.00000E+00
    0.44806E-07        -0.19957E-20         0.00000E+00
    0.44806E-07         0.19957E-20         0.00000E+00
    0.44806E-07         0.11309E-19         0.00000E+00
    0.44806E-07        -0.26609E-20         0.00000E+00
    0.44806E-07        -0.14635E-19         0.00000E+00
    0.50920E-07        -0.31598E-20         0.00000E+00
    0.50920E-07         0.10145E-19         0.00000E+00
    0.50920E-07        -0.14968E-20         0.00000E+00
    0.50920E-07        -0.33262E-20         0.00000E+00
    0.50920E-07         0.76501E-20         0.00000E+00
    0.50920E-07        -0.28272E-20         0.00000E+00
    0.50920E-07         0.99785E-21         0.00000E+00
    0.50920E-07         0.11642E-19         0.00000E+00
    0.50920E-07         0.93132E-20         0.00000E+00
    0.50920E-07         0.00000E+00         0.00000E+00
    0.50920E-07         0.10644E-19         0.00000E+00
    0.50920E-07         0.16631E-20         0.00000E+00
    0.50920E-07         0.88143E-20         0.00000E+00
    0.50920E-07        -0.76501E-20         0.00000E+00
    0.50920E-07        -0.41577E-20         0.00000E+00
    0.57088E-07        -0.23283E-20         0.00000E+00
    0.57088E-07         0.73175E-20         0.00000E+00
    0.57088E-07         0.34925E-20         0.00000E+00
    0.57088E-07         0.43240E-20         0.00000E+00
    0.57088E-07        -0.19957E-20         0.00000E+00
    0.57088E-07        -0.16631E-20         0.00000E+00
    0.57088E-07         0.14968E-20         0.00000E+00
    0.57088E-07         0.28272E-20         0.00000E+00
    0.57088E-07         0.86480E-20         0.00000E+00
    0.57088E-07         0.00000E+00         0.00000E+00
    0.57088E-07         0.11974E-19         0.00000E+00
    0.57088E-07         0.29935E-20         0.00000E+00
    0.57088E-07        -0.29935E-20         0.00000E+00
    0.57088E-07         0.33262E-20         0.00000E+00
    0.57088E-07        -0.53218E-20         0.00000E+00
    0.63314E-07        -0.44903E-20         0.00000E+00
    0.63314E-07        -0.66523E-21         0.00000E+00
    0.63314E-07         0.83154E-20         0.00000E+00
    0.63314E-07         0.86480E-20         0.00000E+00
    0.63314E-07        -0.19957E-20         0.00000E+00
    0.63314E-07         0.11642E-20         0.00000E+00
    0.63314E-07         0.13305E-20         0.00000E+00
    0.63314E-07         0.39914E-20         0.00000E+00
    0.63314E-07         0.19957E-20         0.00000E+00
    0.63314E-07         0.16631E-20         0.00000E+00
    0.63314E-07         0.78165E-20         0.00000E+00
    0.63314E-07        -0.33262E-20         0.00000E+00
    0.63314E-07        -0.33262E-20         0.00000E+00
    0.63314E-07         0.93132E-20         0.00000E+00
    0.63314E-07        -0.49892E-20         0.00000E+00
    0.69607E-07        -0.76501E-20         0.00000E+00
    0.69607E-07        -0.26609E-20         0.00000E+00
    0.69607E-07         0.73175E-20         0.00000E+00
    0.69607E-07         0.11642E-19         0.00000E+00
    0.69607E-07         0.13305E-20         0.00000E+00
    0.69607E-07        -0.81491E-20         0.00000E+00
    0.69607E-07         0.59871E-20         0.00000E+00
    0.69607E-07         0.98121E-20         0.00000E+00
    0.69607E-07        -0.39914E-20         0.00000E+00
    0.69607E-07         0.86480E-20         0.00000E+00
    0.69607E-07        -0.16631E-21         0.00000E+00
    0.69607E-07        -0.39914E-20         0.00000E+00
    0.69607E-07        -0.83154E-20         0.00000E+00
    0.69607E-07        -0.83154E-20         0.00000E+00
    0.69607E-07         0.61534E-20         0.00000E+00
    0.75971E-07        -0.12639E-19         0.00000E+00
    0.75971E-07         0.33262E-20         0.00000E+00
    0.75971E-07        -0.19957E-20         0.00000E+00
    0.75971E-07         0.11974E-19         0.00000E+00
    0.75971E-07         0.66523E-21         0.00000E+00
    0.75971E-07        -0.98121E-20         0.00000E+00
    0.75971E-07         0.11642E-19         0.00000E+00
    0.75971E-07         0.13305E-20         0.00000E+00
    0.75971E-07         0.63197E-20         0.00000E+00
    0.75971E-07         0.96458E-20         0.00000E+00
    0.75971E-07         0.00000E+00         0.00000E+00
    0.75971E-07        -0.33262E-20         0.00000E+00
    0.75971E-07        -0.17961E-19         0.00000E+00
    0.75971E-07        -0.99785E-20         0.00000E+00
    0.75971E-07         0.23283E-20         0.00000E+00
    0.82415E-07        -0.93132E-20         0.00000E+00
    0.82415E-07        -0.26609E-20         0.00000E+00
    0.82415E-07        -0.59871E-20         0.00000E+00
    0.82415E-07         0.11642E-19         0.00000E+00
    0.82415E-07        -0.33262E-20         0.00000E+00
    0.82415E-07         0.13305E-20         0.00000E+00
    0.82415E-07         0.56545E-20         0.00000E+00
    0.82415E-07         0.29935E-20         0.00000E+00
    0.82415E-07         0.12307E-19         0.00000E+00
    0.82415E-07         0.36588E-20         0.00000E+00
    0.82415E-07        -0.83154E-21         0.00000E+00
    0.82415E-07        -0.10644E-19         0.00000E+00
    0.82415E-07        -0.12639E-19         0.00000E+00
    0.82415E-07        -0.28272E-20         0.00000E+00
    0.82415E-07        -0.71512E-20         0.00000E+00
    0.88944E-07         0.29935E-20         0.00000E+00
    0.88944E-07        -0.17795E-19         0.00000E+00
    0.88944E-07        -0.99785E-20         0.00000E+00
    0.88944E-07         0.76501E-20         0.00000E+00
    0.88944E-07         0.19957E-20         0.00000E+00
    0.88944E-07        -0.23283E-20         0.00000E+00
    0.88944E-07         0.59871E-20         0.00000E+00
    0.88944E-07         0.23283E-20         0.00000E+00
    0.88944E-07         0.10311E-19         0.00000E+00
    0.88944E-07         0.26609E-20         0.00000E+00
    0.88944E-07        -0.66523E-21         0.00000E+00
    0.88944E-07        -0.11808E-19         0.00000E+00
    0.88944E-07        -0.73175E-20         0.00000E+00
    0.88944E-07        -0.19957E-20         0.00000E+00
    0.88944E-07        -0.21620E-20         0.00000E+00
    0.95566E-07        -0.24946E-20         0.00000E+00
    0.95566E-07        -0.13471E-19         0.00000E+00
    0.95566E-07        -0.53218E-20         0.00000E+00
    0.95566E-07        -0.66523E-21         0.00000E+00
    0.95566E-07        -0.99785E-21         0.00000E+00
    0.95566E-07        -0.36588E-20         0.00000E+00
    0.95566E-07         0.15300E-19         0.00000E+00
    0.95566E-07         0.49892E-21         0.00000E+00
    0.95566E-07         0.33262E-21         0.00000E+00
    0.95566E-07         0.74838E-20         0.00000E+00
    0.95566E-07         0.26609E-20         0.00000E+00
    0.95566E-07        -0.53218E-20         0.00000E+00
    0.95566E-07        -0.74838E-20         0.00000E+00
    0.95566E-07        -0.26609E-20         0.00000E+00
    0.95566E-07         0.33262E-20         0.00000E+00
    0.10229E-06        -0.46566E-20         0.00000E+00
    0.10229E-06         0.11642E-20         0.00000E+00
    0.10229E-06         0.19957E-20         0.00000E+00
    0.10229E-06        -0.29935E-20         0.00000E+00
    0.10229E-06        -0.93132E-20         0.00000E+00
    0.10229E-06         0.49892E-21         0.00000E+00
    0.10229E-06         0.79828E-20         0.00000E+00
    0.10229E-06         0.13305E-20         0.00000E+00
    0.10229E-06        -0.83154E-20         0.00000E+00
    0.10229E-06         0.79828E-20         0.00000E+00
    0.10229E-06        -0.33262E-20         0.00000E+00
    0.10229E-06        -0.13305E-20         0.00000E+00
    0.10229E-06        -0.26609E-20         0.00000E+00
    0.10229E-06         0.19957E-20         0.00000E+00
    0.10229E-06         0.14968E-20         0.00000E+00
    0.10911E-06         0.43240E-20         0.00000E+00
    0.10911E-06         0.51555E-20         0.00000E+00
    0.10911E-06         0.46566E-20         0.00000E+00
    0.10911E-06        -0.76501E-20         0.00000E+00
    0.10911E-06         0.19957E-20         0.00000E+00
    0.10911E-06        -0.36588E-20         0.00000E+00
    0.10911E-06        -0.16631E-20         0.00000E+00
    0.10911E-06         0.33262E-20         0.00000E+00
    0.10911E-06        -0.66523E-20         0.00000E+00
    0.10911E-06        -0.36588E-20         0.00000E+00
    0.10911E-06        -0.26609E-20         0.00000E+00
    0.10911E-06        -0.33262E-20         0.00000E+00
    0.10911E-06         0.00000E+00         0.00000E+00
    0.10911E-06         0.58208E-20         0.00000E+00
    0.10911E-06         0.99785E-21         0.00000E+00
    0.11605E-06         0.46566E-20         0.00000E+00
    0.11605E-06         0.00000E+00         0.00000E+00
    0.11605E-06         0.26609E-20         0.00000E+00
    0.11605E-06        -0.39914E-20         0.00000E+00
    0.11605E-06         0.83154E-20         0.00000E+00
    0.11605E-06        -0.56545E-20         0.00000E+00
    0.11605E-06         0.26609E-20         0.00000E+00
    0.11605E-06        -0.26609E-20         0.00000E+00
    0.11605E-06        -0.11642E-19         0.00000E+00
    0.11605E-06        -0.12972E-19         0.00000E+00
    0.11605E-06         0.33262E-20         0.00000E+00
    0.11605E-06        -0.12639E-19         0.00000E+00
    0.11605E-06        -0.66523E-20         0.00000E+00
    0.11605E-06         0.10477E-19         0.00000E+00
    0.11605E-06         0.33262E-20         0.00000E+00
    0.12312E-06        -0.19957E-20         0.00000E+00
    0.12312E-06        -0.19957E-20         0.00000E+00
    0.12312E-06         0.36588E-20         0.00000E+00
    0.12312E-06         0.19957E-20         0.00000E+00
    0.12312E-06         0.99785E-21         0.00000E+00
    0.12312E-06         0.33262E-20         0.00000E+00
    0.12312E-06        -0.66523E-20         0.00000E+00
    0.12312E-06        -0.16631E-20         0.00000E+00
    0.12312E-06        -0.89806E-20         0.00000E+00
    0.12312E-06        -0.14302E-19         0.00000E+00
    0.12312E-06        -0.89806E-20         0.00000E+00
    0.12312E-06        -0.59871E-20         0.00000E+00
    0.12312E-06        -0.99785E-21         0.00000E+00
    0.12312E-06         0.33262E-21         0.00000E+00
    0.12312E-06         0.10976E-19         0.00000E+00
    0.13030E-06        -0.39914E-20         0.00000E+00
    0.13030E-06        -0.59871E-20         0.00000E+00
    0.13030E-06         0.83154E-20         0.00000E+00
    0.13030E-06         0.16631E-20         0.00000E+00
    0.13030E-06        -0.16631E-20         0.00000E+00
    0.13030E-06         0.63197E-20         0.00000E+00
    0.13030E-06        -0.20290E-19         0.00000E+00
    0.13030E-06        -0.49892E-20         0.00000E+00
    0.13030E-06        -0.59871E-20         0.00000E+00
    0.13030E-06        -0.53218E-20         0.00000E+00
    0.13030E-06        -0.15966E-19         0.00000E+00
    0.13030E-06        -0.39914E-20         0.00000E+00
    0.13030E-06         0.61534E-20         0.00000E+00
    0.13030E-06        -0.11642E-19         0.00000E+00
    0.13030E-06         0.11642E-19         0.00000E+00
    0.13763E-06        -0.44903E-20         0.00000E+00
    0.13763E-06        -0.26609E-20         0.00000E+00
    0.13763E-06         0.33262E-20         0.00000E+00
    0.13763E-06        -0.16631E-20         0.00000E+00
    0.13763E-06        -0.66523E-20         0.00000E+00
    0.13763E-06         0.76501E-20         0.00000E+00
    0.13763E-06        -0.20955E-19         0.00000E+00
    0.13763E-06        -0.99785E-20         0.00000E+00
    0.13763E-06        -0.46566E-20         0.00000E+00
    0.13763E-06         0.00000E+00         0.00000E+00
    0.13763E-06        -0.96458E-20         0.00000E+00
    0.13763E-06        -0.43240E-20         0.00000E+00
    0.13763E-06        -0.26609E-20         0.00000E+00
    0.13763E-06        -0.28272E-20         0.00000E+00
    0.13763E-06        -0.33262E-21         0.00000E+00
    0.14510E-06        -0.11143E-19         0.00000E+00
    0.14510E-06         0.19957E-20         0.00000E+00
    0.14510E-06        -0.81491E-20         0.00000E+00
    0.14510E-06        -0.86480E-20         0.00000E+00
    0.14510E-06        -0.79828E-20         0.00000E+00
    0.14510E-06         0.46566E-20         0.00000E+00
    0.14510E-06        -0.12972E-19         0.00000E+00
    0.14510E-06        -0.14302E-19         0.00000E+00
    0.14510E-06        -0.89806E-20         0.00000E+00
    0.14510E-06         0.29935E-20         0.00000E+00
    0.14510E-06        -0.89806E-20         0.00000E+00
    0.14510E-06         0.11974E-19         0.00000E+00
    0.14510E-06        -0.13305E-19         0.00000E+00
    0.14510E-06         0.29935E-20         0.00000E+00
    0.14510E-06        -0.26609E-20         0.00000E+00
    0.15271E-06        -0.12972E-19         0.00000E+00
    0.15271E-06        -0.66523E-21         0.00000E+00
    0.15271E-06        -0.66523E-20         0.00000E+00
    0.15271E-06        -0.96458E-20         0.00000E+00
    0.15271E-06        -0.93132E-20         0.00000E+00
    0.15271E-06        -0.13305E-20         0.00000E+00
    0.15271E-06        -0.56545E-20         0.00000E+00
    0.15271E-06        -0.22618E-19         0.00000E+00
    0.15271E-06        -0.89806E-20         0.00000E+00
    0.15271E-06        -0.29935E-20         0.00000E+00
    0.15271E-06         0.33262E-21         0.00000E+00
    0.15271E-06         0.66523E-20         0.00000E+00
    0.15271E-06        -0.29935E-20         0.00000E+00
    0.15271E-06         0.26609E-20         0.00000E+00
    0.15271E-06        -0.53218E-20         0.00000E+00
    0.16049E-06        -0.83154E-20         0.00000E+00
    0.16049E-06        -0.99785E-21         0.00000E+00
    0.16049E-06         0.29935E-20         0.00000E+00
    0.16049E-06        -0.46566E-20         0.00000E+00
    0.16049E-06        -0.15300E-19         0.00000E+00
    0.16049E-06        -0.79828E-20         0.00000E+00
    0.16049E-06         0.29935E-20         0.00000E+00
    0.16049E-06        -0.18793E-19         0.00000E+00
    0.16049E-06        -0.15966E-19         0.00000E+00
    0.16049E-06         0.00000E+00         0.00000E+00
    0.16049E-06         0.10477E-19         0.00000E+00
    0.16049E-06         0.33262E-21         0.00000E+00
    0.16049E-06         0.78165E-20         0.00000E+00
    0.16049E-06         0.00000E+00         0.00000E+00
    0.16049E-06        -0.38251E-20         0.00000E+00
    0.16843E-06        -0.26609E-20         0.00000E+00
    0.16843E-06        -0.23283E-20         0.00000E+00
    0.16843E-06         0.96458E-20         0.00000E+00
    0.16843E-06        -0.99785E-20         0.00000E+00
    0.16843E-06        -0.11974E-19         0.00000E+00
    0.16843E-06        -0.84817E-20         0.00000E+00
    0.16843E-06        -0.29935E-20         0.00000E+00
    0.16843E-06        -0.10644E-19         0.00000E+00
    0.16843E-06        -0.58208E-20         0.00000E+00
    0.16843E-06        -0.16631E-20         0.00000E+00
    0.16843E-06         0.76501E-20         0.00000E+00
    0.16843E-06         0.46566E-20         0.00000E+00
    0.16843E-06         0.28272E-20         0.00000E+00
    0.16843E-06         0.00000E+00         0.00000E+00
    0.16843E-06         0.33262E-20         0.00000E+00
    0.17655E-06         0.00000E+00         0.00000E+00
    0.17655E-06        -0.38251E-20         0.00000E+00
    0.17655E-06         0.10976E-19         0.00000E+00
    0.17655E-06        -0.53218E-20         0.00000E+00
    0.17655E-06        -0.91469E-20         0.00000E+00
    0.17655E-06         0.00000E+00         0.00000E+00
    0.17655E-06        -0.96458E-20         0.00000E+00
    0.17655E-06        -0.15300E-19         0.00000E+00
    0.17655E-06        -0.23283E-20         0.00000E+00
    0.17655E-06        -0.29935E-20         0.00000E+00
    0.17655E-06         0.17462E-19         0.00000E+00
    0.17655E-06         0.28272E-20         0.00000E+00
    0.17655E-06        -0.49892E-21         0.00000E+00
    0.17655E-06        -0.66523E-21         0.00000E+00
    0.17655E-06        -0.13305E-20         0.00000E+00
    0.18485E-06        -0.16631E-21         0.00000E+00
    0.18485E-06        -0.16631E-20         0.00000E+00
    0.18485E-06         0.14635E-19         0.00000E+00
    0.18485E-06        -0.24946E-20         0.00000E+00
    0.18485E-06        -0.83154E-20         0.00000E+00
    0.18485E-06        -0.66523E-21         0.00000E+00
    0.18485E-06        -0.43240E-20         0.00000E+00
    0.18485E-06        -0.17462E-19         0.00000E+00
    0.18485E-06        -0.14968E-19         0.00000E+00
    0.18485E-06         0.69849E-20         0.00000E+00
    0.18485E-06         0.15300E-19         0.00000E+00
    0.18485E-06         0.19957E-20         0.00000E+00
    0.18485E-06         0.33262E-21         0.00000E+00
    0.18485E-06        -0.23283E-20         0.00000E+00
    0.18485E-06        -0.39914E-20         0.00000E+00
    0.19335E-06         0.00000E+00         0.00000E+00
    0.19335E-06         0.49892E-21         0.00000E+00
    0.19335E-06         0.76501E-20         0.00000E+00
    0.19335E-06        -0.53218E-20         0.00000E+00
    0.19335E-06        -0.73175E-20         0.00000E+00
    0.19335E-06        -0.99785E-21         0.00000E+00
    0.19335E-06        -0.66523E-21         0.00000E+00
    0.19335E-06        -0.12307E-19         0.00000E+00
    0.19335E-06        -0.43240E-20         0.00000E+00
    0.19335E-06        -0.19957E-20         0.00000E+00
    0.19335E-06         0.66523E-20         0.00000E+00
    0.19335E-06         0.39914E-20         0.00000E+00
    0.19335E-06        -0.49892E-20         0.00000E+00
    0.19335E-06         0.43240E-20         0.00000E+00
    0.19335E-06        -0.23283E-20         0.00000E+00
    0.20204E-06         0.00000E+00         0.00000E+00
    0.20204E-06         0.53218E-20         0.00000E+00
    0.20204E-06        -0.29935E-20         0.00000E+00
    0.20204E-06        -0.16631E-20         0.00000E+00
    0.20204E-06        -0.26609E-20         0.00000E+00
    0.20204E-06        -0.13305E-20         0.00000E+00
    0.20204E-06         0.13305E-20         0.00000E+00
    0.20204E-06        -0.56545E-20         0.00000E+00
    0.20204E-06         0.13305E-20         0.00000E+00
    0.20204E-06        -0.34925E-20         0.00000E+00
    0.20204E-06         0.66523E-20         0.00000E+00
    0.20204E-06        -0.99785E-21         0.00000E+00
    0.20204E-06        -0.61534E-20         0.00000E+00
    0.20204E-06         0.73175E-20         0.00000E+00
    0.20204E-06         0.26609E-20         0.00000E+00
POINT_DATA        496
VECTORS vDarcyNodal double 
    0.29583E-08        -0.53218E-20         0.00000E+00
    0.29583E-08        -0.53218E-20         0.00000E+00
    0.29583E-08        -0.53218E-20         0.00000E+00
    0.29583E-08        -0.79828E-20         0.00000E+00
    0.29583E-08        -0.26609E-20         0.00000E+00
    0.29583E-08         0.53218E-20         0.00000E+00
    0.29583E-08        -0.26609E-20         0.00000E+00
    0.29583E-08         0.26609E-20         0.00000E+00
    0.29583E-08         0.79828E-20         0.00000E+00
    0.29583E-08         0.26609E-20         0.00000E+00
    0.29583E-08         0.53218E-20         0.00000E+00
    0.29583E-08         0.10644E-19         0.00000E+00
    0.29583E-08         0.53218E-20         0.00000E+00
    0.29583E-08        -0.26609E-20         0.00000E+00
    0.29583E-08         0.00000E+00         0.00000E+00
    0.29583E-08         0.00000E+00         0.00000E+00
    0.59182E-08        -0.81054E-20         0.00000E+00
    0.59182E-08        -0.53218E-20         0.00000E+00
    0.59182E-08        -0.53218E-20         0.00000E+00
    0.59182E-08        -0.13305E-20         0.00000E+00
    0.59182E-08         0.61312E-22         0.00000E+00
    0.59182E-08        -0.40527E-20         0.00000E+00
    0.59182E-08         0.12691E-20         0.00000E+00
    0.59182E-08         0.13305E-19         0.00000E+00
    0.59182E-08         0.53218E-20         0.00000E+00
    0.59182E-08        -0.26609E-20         0.00000E+00
    0.59182E-08         0.10644E-19         0.00000E+00
    0.59182E-08         0.13305E-19         0.00000E+00
    0.59182E-08        -0.26609E-20         0.00000E+00
    0.59182E-08         0.26609E-20         0.00000E+00
    0.59182E-08         0.27222E-20         0.00000E+00
    0.59182E-08        -0.78601E-20         0.00000E+00
    0.11842E-07         0.10396E-19         0.00000E+00
    0.11842E-07        -0.79828E-20         0.00000E+00
    0.11842E-07        -0.11974E-19         0.00000E+00
    0.11842E-07         0.00000E+00         0.00000E+00
    0.11842E-07        -0.65284E-20         0.00000E+00
    0.11842E-07        -0.41153E-20         0.00000E+00
    0.11842E-07         0.38674E-20         0.00000E+00
    0.11842E-07         0.79828E-20         0.00000E+00
    0.11842E-07         0.93132E-20         0.00000E+00
    0.11842E-07         0.79828E-20         0.00000E+00
    0.11842E-07         0.00000E+00         0.00000E+00
    0.11842E-07         0.26609E-20         0.00000E+00
    0.11842E-07         0.79828E-20         0.00000E+00
    0.11842E-07         0.26609E-20         0.00000E+00
    0.11842E-07        -0.38674E-20         0.00000E+00
    0.11842E-07        -0.50740E-20         0.00000E+00
    0.17779E-07        -0.79828E-20         0.00000E+00
    0.17779E-07         0.00000E+00         0.00000E+00
    0.17779E-07         0.00000E+00         0.00000E+00
    0.17779E-07        -0.26609E-20         0.00000E+00
    0.17779E-07        -0.38656E-20         0.00000E+00
    0.17779E-07        -0.26609E-20         0.00000E+00
    0.17779E-07        -0.14562E-20         0.00000E+00
    0.17779E-07         0.10644E-19         0.00000E+00
    0.17779E-07         0.14509E-19         0.00000E+00
    0.17779E-07        -0.13305E-20         0.00000E+00
    0.17779E-07         0.54476E-20         0.00000E+00
    0.17779E-07         0.79828E-20         0.00000E+00
    0.17779E-07        -0.26609E-20         0.00000E+00
    0.17779E-07        -0.79828E-20         0.00000E+00
    0.17779E-07        -0.10769E-19         0.00000E+00
    0.17779E-07        -0.13556E-19         0.00000E+00
    0.23734E-07         0.21483E-20         0.00000E+00
    0.23734E-07         0.00000E+00         0.00000E+00
    0.23734E-07        -0.53218E-20         0.00000E+00
    0.23734E-07        -0.39914E-20         0.00000E+00
    0.23734E-07        -0.10741E-20         0.00000E+00
    0.23734E-07        -0.15868E-20         0.00000E+00
    0.23734E-07         0.10741E-20         0.00000E+00
    0.23734E-07         0.10644E-19         0.00000E+00
    0.23734E-07         0.79828E-20         0.00000E+00
    0.23734E-07         0.13305E-20         0.00000E+00
    0.23734E-07         0.26609E-20         0.00000E+00
    0.23734E-07         0.26609E-20         0.00000E+00
    0.23734E-07         0.26609E-20         0.00000E+00
    0.23734E-07        -0.26609E-20         0.00000E+00
    0.23734E-07        -0.90569E-20         0.00000E+00
    0.23734E-07         0.31735E-20         0.00000E+00
    0.29714E-07         0.10644E-19         0.00000E+00
    0.29714E-07        -0.23988E-20         0.00000E+00
    0.29714E-07        -0.39914E-20         0.00000E+00
    0.29714E-07        -0.39914E-20         0.00000E+00
    0.29714E-07        -0.53218E-20         0.00000E+00
    0.29714E-07         0.10683E-20         0.00000E+00
    0.29714E-07         0.79828E-20         0.00000E+00
    0.29714E-07         0.10644E-19         0.00000E+00
    0.29714E-07         0.26609E-20         0.00000E+00
    0.29714E-07         0.53218E-20         0.00000E+00
    0.29714E-07         0.10644E-19         0.00000E+00
    0.29714E-07         0.26609E-20         0.00000E+00
    0.29714E-07        -0.79828E-20         0.00000E+00
    0.29714E-07        -0.26609E-20         0.00000E+00
    0.29714E-07         0.00000E+00         0.00000E+00
    0.29714E-07        -0.53218E-20         0.00000E+00
    0.35724E-07         0.00000E+00         0.00000E+00
    0.35724E-07         0.26609E-20         0.00000E+00
    0.35724E-07        -0.26609E-20         0.00000E+00
    0.35724E-07        -0.53218E-20         0.00000E+00
    0.35724E-07         0.15995E-20         0.00000E+00
    0.35724E-07         0.10644E-19         0.00000E+00
    0.35724E-07         0.37224E-20         0.00000E+00
    0.35724E-07         0.26609E-20         0.00000E+00
    0.35724E-07         0.77138E-20         0.00000E+00
    0.35724E-07         0.79828E-20         0.00000E+00
    0.35724E-07         0.82518E-20         0.00000E+00
    0.35724E-07         0.00000E+00         0.00000E+00
    0.35724E-07         0.00000E+00         0.00000E+00
    0.35724E-07         0.00000E+00         0.00000E+00
    0.35724E-07        -0.15995E-20         0.00000E+00
    0.35724E-07        -0.53801E-21         0.00000E+00
    0.41772E-07         0.68749E-20         0.00000E+00
    0.41772E-07        -0.26609E-20         0.00000E+00
    0.41772E-07        -0.34375E-20         0.00000E+00
    0.41772E-07        -0.55393E-21         0.00000E+00
    0.41772E-07         0.47679E-20         0.00000E+00
    0.41772E-07         0.15189E-19         0.00000E+00
    0.41772E-07         0.72062E-20         0.00000E+00
    0.41772E-07         0.60984E-20         0.00000E+00
    0.41772E-07         0.87593E-20         0.00000E+00
    0.41772E-07         0.53218E-20         0.00000E+00
    0.41772E-07        -0.77654E-21         0.00000E+00
    0.41772E-07        -0.34375E-20         0.00000E+00
    0.41772E-07         0.10644E-19         0.00000E+00
    0.41772E-07         0.47679E-20         0.00000E+00
    0.41772E-07        -0.10644E-19         0.00000E+00
    0.41772E-07        -0.14858E-19         0.00000E+00
    0.47863E-07        -0.91268E-20         0.00000E+00
    0.47863E-07         0.26609E-20         0.00000E+00
    0.47863E-07         0.26609E-20         0.00000E+00
    0.47863E-07        -0.26609E-20         0.00000E+00
    0.47863E-07         0.72243E-20         0.00000E+00
    0.47863E-07         0.60803E-20         0.00000E+00
    0.47863E-07         0.75844E-21         0.00000E+00
    0.47863E-07         0.79828E-20         0.00000E+00
    0.47863E-07         0.53218E-20         0.00000E+00
    0.47863E-07         0.00000E+00         0.00000E+00
    0.47863E-07         0.26609E-20         0.00000E+00
    0.47863E-07         0.26609E-20         0.00000E+00
    0.47863E-07         0.53218E-20         0.00000E+00
    0.47863E-07         0.53218E-20         0.00000E+00
    0.47863E-07        -0.60803E-20         0.00000E+00
    0.47863E-07        -0.12161E-19         0.00000E+00
    0.54004E-07         0.14763E-20         0.00000E+00
    0.54004E-07         0.26609E-20         0.00000E+00
    0.54004E-07         0.53218E-20         0.00000E+00
    0.54004E-07         0.20686E-20         0.00000E+00
    0.54004E-07         0.00000E+00         0.00000E+00
    0.54004E-07         0.00000E+00         0.00000E+00
    0.54004E-07        -0.26609E-20         0.00000E+00
    0.54004E-07         0.26609E-20         0.00000E+00
    0.54004E-07         0.13305E-19         0.00000E+00
    0.54004E-07         0.79828E-20         0.00000E+00
    0.54004E-07         0.79828E-20         0.00000E+00
    0.54004E-07         0.10644E-19         0.00000E+00
    0.54004E-07         0.45837E-20         0.00000E+00
    0.54004E-07        -0.53218E-20         0.00000E+00
    0.54004E-07        -0.45837E-20         0.00000E+00
    0.54004E-07         0.53218E-20         0.00000E+00
    0.60201E-07         0.00000E+00         0.00000E+00
    0.60201E-07         0.19453E-20         0.00000E+00
    0.60201E-07         0.26609E-20         0.00000E+00
    0.60201E-07         0.53218E-20         0.00000E+00
    0.60201E-07         0.39914E-20         0.00000E+00
    0.60201E-07         0.71567E-21         0.00000E+00
    0.60201E-07         0.26609E-20         0.00000E+00
    0.60201E-07         0.26609E-20         0.00000E+00
    0.60201E-07         0.00000E+00         0.00000E+00
    0.60201E-07         0.26609E-20         0.00000E+00
    0.60201E-07         0.53218E-20         0.00000E+00
    0.60201E-07         0.79828E-20         0.00000E+00
    0.60201E-07        -0.26609E-20         0.00000E+00
    0.60201E-07         0.26609E-20         0.00000E+00
    0.60201E-07         0.26609E-20         0.00000E+00
    0.60201E-07        -0.10644E-19         0.00000E+00
    0.66461E-07        -0.53218E-20         0.00000E+00
    0.66461E-07        -0.53218E-20         0.00000E+00
    0.66461E-07         0.26609E-20         0.00000E+00
    0.66461E-07         0.10644E-19         0.00000E+00
    0.66461E-07         0.00000E+00         0.00000E+00
    0.66461E-07        -0.26609E-20         0.00000E+00
    0.66461E-07         0.00000E+00         0.00000E+00
    0.66461E-07         0.53218E-20         0.00000E+00
    0.66461E-07         0.79828E-20         0.00000E+00
    0.66461E-07         0.26609E-20         0.00000E+00
    0.66461E-07         0.46309E-20         0.00000E+00
    0.66461E-07        -0.66523E-20         0.00000E+00
    0.66461E-07        -0.46309E-20         0.00000E+00
    0.66461E-07         0.00000E+00         0.00000E+00
    0.66461E-07         0.00000E+00         0.00000E+00
    0.66461E-07         0.00000E+00         0.00000E+00
    0.72789E-07        -0.10644E-19         0.00000E+00
    0.72789E-07        -0.53218E-20         0.00000E+00
    0.72789E-07         0.26609E-20         0.00000E+00
    0.72789E-07         0.79828E-20         0.00000E+00
    0.72789E-07         0.11310E-19         0.00000E+00
    0.72789E-07        -0.53218E-20         0.00000E+00
    0.72789E-07        -0.66651E-21         0.00000E+00
    0.72789E-07         0.10644E-19         0.00000E+00
    0.72789E-07        -0.66651E-21         0.00000E+00
    0.72789E-07         0.53218E-20         0.00000E+00
    0.72789E-07         0.73188E-20         0.00000E+00
    0.72789E-07         0.00000E+00         0.00000E+00
    0.72789E-07        -0.79828E-20         0.00000E+00
    0.72789E-07        -0.15966E-19         0.00000E+00
    0.72789E-07        -0.33274E-20         0.00000E+00
    0.72789E-07         0.11972E-19         0.00000E+00
    0.79193E-07        -0.15966E-19         0.00000E+00
    0.79193E-07        -0.53218E-20         0.00000E+00
    0.79193E-07         0.00000E+00         0.00000E+00
    0.79193E-07         0.26609E-20         0.00000E+00
    0.79193E-07         0.53218E-20         0.00000E+00
    0.79193E-07        -0.26609E-20         0.00000E+00
    0.79193E-07         0.00000E+00         0.00000E+00
    0.79193E-07         0.39303E-20         0.00000E+00
    0.79193E-07         0.10644E-19         0.00000E+00
    0.79193E-07         0.53830E-20         0.00000E+00
    0.79193E-07         0.00000E+00         0.00000E+00
    0.79193E-07        -0.26609E-20         0.00000E+00
    0.79193E-07        -0.10644E-19         0.00000E+00
    0.79193E-07        -0.10644E-19         0.00000E+00
    0.79193E-07        -0.26609E-20         0.00000E+00
    0.79193E-07        -0.26609E-20         0.00000E+00
    0.85680E-07        -0.24864E-21         0.00000E+00
    0.85680E-07        -0.53218E-20         0.00000E+00
    0.85680E-07        -0.65280E-20         0.00000E+00
    0.85680E-07         0.38671E-20         0.00000E+00
    0.85680E-07         0.38671E-20         0.00000E+00
    0.85680E-07        -0.12061E-20         0.00000E+00
    0.85680E-07         0.67766E-20         0.00000E+00
    0.85680E-07         0.38671E-20         0.00000E+00
    0.85680E-07         0.38671E-20         0.00000E+00
    0.85680E-07         0.79828E-20         0.00000E+00
    0.85680E-07        -0.12061E-20         0.00000E+00
    0.85680E-07        -0.65280E-20         0.00000E+00
    0.85680E-07        -0.10644E-19         0.00000E+00
    0.85680E-07        -0.54462E-20         0.00000E+00
    0.85680E-07        -0.66523E-20         0.00000E+00
    0.85680E-07        -0.10395E-19         0.00000E+00
    0.92255E-07         0.53218E-20         0.00000E+00
    0.92255E-07        -0.10644E-19         0.00000E+00
    0.92255E-07        -0.20149E-19         0.00000E+00
    0.92255E-07        -0.53218E-20         0.00000E+00
    0.92255E-07         0.41836E-20         0.00000E+00
    0.92255E-07         0.00000E+00         0.00000E+00
    0.92255E-07         0.26609E-20         0.00000E+00
    0.92255E-07         0.91210E-20         0.00000E+00
    0.92255E-07         0.64601E-20         0.00000E+00
    0.92255E-07         0.41836E-20         0.00000E+00
    0.92255E-07         0.41836E-20         0.00000E+00
    0.92255E-07        -0.15227E-20         0.00000E+00
    0.92255E-07        -0.79828E-20         0.00000E+00
    0.92255E-07        -0.64601E-20         0.00000E+00
    0.92255E-07         0.00000E+00         0.00000E+00
    0.92255E-07         0.53218E-20         0.00000E+00
    0.98926E-07        -0.85126E-20         0.00000E+00
    0.98926E-07        -0.53218E-20         0.00000E+00
    0.98926E-07        -0.53218E-20         0.00000E+00
    0.98926E-07        -0.28353E-34         0.00000E+00
    0.98926E-07        -0.37265E-20         0.00000E+00
    0.98926E-07        -0.15954E-20         0.00000E+00
    0.98926E-07         0.90483E-20         0.00000E+00
    0.98926E-07         0.79828E-20         0.00000E+00
    0.98926E-07        -0.53218E-20         0.00000E+00
    0.98926E-07         0.53218E-20         0.00000E+00
    0.98926E-07         0.79828E-20         0.00000E+00
    0.98926E-07         0.00000E+00         0.00000E+00
    0.98926E-07         0.00000E+00         0.00000E+00
    0.98926E-07         0.00000E+00         0.00000E+00
    0.98926E-07        -0.10656E-20         0.00000E+00
    0.98926E-07        -0.74530E-20         0.00000E+00
    0.10570E-06         0.19761E-20         0.00000E+00
    0.10570E-06         0.98803E-21         0.00000E+00
    0.10570E-06         0.79828E-20         0.00000E+00
    0.10570E-06         0.16729E-20         0.00000E+00
    0.10570E-06        -0.79828E-20         0.00000E+00
    0.10570E-06        -0.43338E-20         0.00000E+00
    0.10570E-06        -0.36489E-20         0.00000E+00
    0.10570E-06         0.00000E+00         0.00000E+00
    0.10570E-06         0.98803E-21         0.00000E+00
    0.10570E-06        -0.26609E-20         0.00000E+00
    0.10570E-06        -0.26609E-20         0.00000E+00
    0.10570E-06        -0.26609E-20         0.00000E+00
    0.10570E-06         0.00000E+00         0.00000E+00
    0.10570E-06         0.26609E-20         0.00000E+00
    0.10570E-06         0.69947E-20         0.00000E+00
    0.10570E-06         0.86676E-20         0.00000E+00
    0.11258E-06         0.71330E-20         0.00000E+00
    0.11258E-06         0.53218E-20         0.00000E+00
    0.11258E-06         0.26609E-20         0.00000E+00
    0.11258E-06        -0.44163E-20         0.00000E+00
    0.11258E-06         0.00000E+00         0.00000E+00
    0.11258E-06         0.00000E+00         0.00000E+00
    0.11258E-06        -0.26609E-20         0.00000E+00
    0.11258E-06         0.00000E+00         0.00000E+00
    0.11258E-06        -0.79828E-20         0.00000E+00
    0.11258E-06        -0.79828E-20         0.00000E+00
    0.11258E-06        -0.26609E-20         0.00000E+00
    0.11258E-06        -0.26609E-20         0.00000E+00
    0.11258E-06        -0.35665E-20         0.00000E+00
    0.11258E-06         0.13305E-20         0.00000E+00
    0.11258E-06         0.90557E-21         0.00000E+00
    0.11258E-06        -0.53218E-20         0.00000E+00
    0.11959E-06         0.00000E+00         0.00000E+00
    0.11959E-06         0.81809E-21         0.00000E+00
    0.11959E-06        -0.18428E-20         0.00000E+00
    0.11959E-06         0.00000E+00         0.00000E+00
    0.11959E-06         0.00000E+00         0.00000E+00
    0.11959E-06         0.00000E+00         0.00000E+00
    0.11959E-06         0.00000E+00         0.00000E+00
    0.11959E-06         0.00000E+00         0.00000E+00
    0.11959E-06        -0.26609E-20         0.00000E+00
    0.11959E-06        -0.13305E-19         0.00000E+00
    0.11959E-06        -0.79828E-20         0.00000E+00
    0.11959E-06        -0.53218E-20         0.00000E+00
    0.11959E-06        -0.10644E-19         0.00000E+00
    0.11959E-06         0.34790E-20         0.00000E+00
    0.11959E-06         0.10644E-19         0.00000E+00
    0.11959E-06         0.90075E-20         0.00000E+00
    0.12671E-06        -0.53218E-20         0.00000E+00
    0.12671E-06        -0.47169E-20         0.00000E+00
    0.12671E-06         0.26609E-20         0.00000E+00
    0.12671E-06         0.39914E-20         0.00000E+00
    0.12671E-06        -0.54355E-34         0.00000E+00
    0.12671E-06         0.20560E-20         0.00000E+00
    0.12671E-06        -0.26609E-20         0.00000E+00
    0.12671E-06        -0.79828E-20         0.00000E+00
    0.12671E-06        -0.53218E-20         0.00000E+00
    0.12671E-06        -0.53218E-20         0.00000E+00
    0.12671E-06        -0.13305E-19         0.00000E+00
    0.12671E-06        -0.79828E-20         0.00000E+00
    0.12671E-06         0.53218E-20         0.00000E+00
    0.12671E-06        -0.26609E-20         0.00000E+00
    0.12671E-06         0.00000E+00         0.00000E+00
    0.12671E-06         0.10644E-19         0.00000E+00
    0.13397E-06        -0.12554E-20         0.00000E+00
    0.13397E-06        -0.32886E-20         0.00000E+00
    0.13397E-06        -0.70275E-21         0.00000E+00
    0.13397E-06         0.53218E-20         0.00000E+00
    0.13397E-06        -0.11106E-33         0.00000E+00
    0.13397E-06         0.62771E-21         0.00000E+00
    0.13397E-06        -0.10644E-19         0.00000E+00
    0.13397E-06        -0.15966E-19         0.00000E+00
    0.13397E-06        -0.53218E-20         0.00000E+00
    0.13397E-06        -0.26609E-20         0.00000E+00
    0.13397E-06        -0.79828E-20         0.00000E+00
    0.13397E-06        -0.14635E-19         0.00000E+00
    0.13397E-06        -0.26609E-20         0.00000E+00
    0.13397E-06        -0.20332E-20         0.00000E+00
    0.13397E-06         0.00000E+00         0.00000E+00
    0.13397E-06         0.93883E-20         0.00000E+00
    0.14136E-06        -0.53218E-20         0.00000E+00
    0.14136E-06        -0.26609E-20         0.00000E+00
    0.14136E-06        -0.26609E-20         0.00000E+00
    0.14136E-06        -0.26609E-20         0.00000E+00
    0.14136E-06        -0.53218E-20         0.00000E+00
    0.14136E-06         0.00000E+00         0.00000E+00
    0.14136E-06        -0.26609E-20         0.00000E+00
    0.14136E-06        -0.10644E-19         0.00000E+00
    0.14136E-06        -0.79828E-20         0.00000E+00
    0.14136E-06        -0.53218E-20         0.00000E+00
    0.14136E-06        -0.18551E-20         0.00000E+00
    0.14136E-06         0.94040E-35         0.00000E+00
    0.14136E-06        -0.34668E-20         0.00000E+00
    0.14136E-06        -0.66523E-20         0.00000E+00
    0.14136E-06        -0.26609E-20         0.00000E+00
    0.14136E-06        -0.53218E-20         0.00000E+00
    0.14891E-06        -0.16798E-19         0.00000E+00
    0.14891E-06        -0.53218E-20         0.00000E+00
    0.14891E-06        -0.53218E-20         0.00000E+00
    0.14891E-06        -0.13305E-19         0.00000E+00
    0.14891E-06        -0.79828E-20         0.00000E+00
    0.14891E-06        -0.26609E-20         0.00000E+00
    0.14891E-06        -0.53218E-20         0.00000E+00
    0.14891E-06        -0.15966E-19         0.00000E+00
    0.14891E-06        -0.12472E-19         0.00000E+00
    0.14891E-06         0.41610E-21         0.00000E+00
    0.14891E-06         0.49826E-21         0.00000E+00
    0.14891E-06         0.22448E-20         0.00000E+00
    0.14891E-06        -0.22448E-20         0.00000E+00
    0.14891E-06        -0.57379E-20         0.00000E+00
    0.14891E-06         0.30770E-20         0.00000E+00
    0.14891E-06        -0.36574E-20         0.00000E+00
    0.15660E-06        -0.53218E-20         0.00000E+00
    0.15660E-06        -0.53218E-20         0.00000E+00
    0.15660E-06        -0.26609E-20         0.00000E+00
    0.15660E-06        -0.26609E-20         0.00000E+00
    0.15660E-06        -0.10946E-19         0.00000E+00
    0.15660E-06        -0.79828E-20         0.00000E+00
    0.15660E-06         0.30207E-21         0.00000E+00
    0.15660E-06        -0.13305E-19         0.00000E+00
    0.15660E-06        -0.15663E-19         0.00000E+00
    0.15660E-06        -0.79828E-20         0.00000E+00
    0.15660E-06        -0.30207E-21         0.00000E+00
    0.15660E-06         0.53218E-20         0.00000E+00
    0.15660E-06         0.53218E-20         0.00000E+00
    0.15660E-06         0.53218E-20         0.00000E+00
    0.15660E-06        -0.63502E-20         0.00000E+00
    0.15660E-06        -0.12700E-19         0.00000E+00
    0.16446E-06        -0.53218E-20         0.00000E+00
    0.16446E-06         0.00000E+00         0.00000E+00
    0.16446E-06         0.53218E-20         0.00000E+00
    0.16446E-06        -0.28433E-20         0.00000E+00
    0.16446E-06        -0.94956E-20         0.00000E+00
    0.16446E-06        -0.15601E-19         0.00000E+00
    0.16446E-06        -0.51395E-20         0.00000E+00
    0.16446E-06         0.00000E+00         0.00000E+00
    0.16446E-06        -0.15783E-19         0.00000E+00
    0.16446E-06        -0.79828E-20         0.00000E+00
    0.16446E-06         0.78004E-20         0.00000E+00
    0.16446E-06         0.39914E-20         0.00000E+00
    0.16446E-06         0.26609E-20         0.00000E+00
    0.16446E-06         0.24785E-20         0.00000E+00
    0.16446E-06         0.41738E-20         0.00000E+00
    0.16446E-06         0.56866E-20         0.00000E+00
    0.17249E-06         0.00000E+00         0.00000E+00
    0.17249E-06        -0.53218E-20         0.00000E+00
    0.17249E-06         0.26609E-20         0.00000E+00
    0.17249E-06         0.53218E-20         0.00000E+00
    0.17249E-06        -0.10644E-19         0.00000E+00
    0.17249E-06        -0.79828E-20         0.00000E+00
    0.17249E-06        -0.53218E-20         0.00000E+00
    0.17249E-06        -0.10530E-19         0.00000E+00
    0.17249E-06        -0.61690E-34         0.00000E+00
    0.17249E-06        -0.27748E-20         0.00000E+00
    0.17249E-06        -0.26609E-20         0.00000E+00
    0.17249E-06         0.66523E-20         0.00000E+00
    0.17249E-06         0.26609E-20         0.00000E+00
    0.17249E-06         0.26609E-20         0.00000E+00
    0.17249E-06        -0.26609E-20         0.00000E+00
    0.17249E-06        -0.53218E-20         0.00000E+00
    0.18070E-06         0.00000E+00         0.00000E+00
    0.18070E-06        -0.14882E-21         0.00000E+00
    0.18070E-06         0.26609E-20         0.00000E+00
    0.18070E-06         0.28097E-20         0.00000E+00
    0.18070E-06        -0.28097E-20         0.00000E+00
    0.18070E-06        -0.14793E-20         0.00000E+00
    0.18070E-06         0.00000E+00         0.00000E+00
    0.18070E-06        -0.10495E-19         0.00000E+00
    0.18070E-06        -0.18626E-19         0.00000E+00
    0.18070E-06        -0.28097E-20         0.00000E+00
    0.18070E-06         0.16114E-19         0.00000E+00
    0.18070E-06         0.10644E-19         0.00000E+00
    0.18070E-06        -0.13305E-20         0.00000E+00
    0.18070E-06        -0.26609E-20         0.00000E+00
    0.18070E-06        -0.14882E-21         0.00000E+00
    0.18070E-06         0.00000E+00         0.00000E+00
    0.18910E-06         0.18138E-20         0.00000E+00
    0.18910E-06        -0.53218E-20         0.00000E+00
    0.18910E-06         0.84063E-20         0.00000E+00
    0.18910E-06         0.75592E-20         0.00000E+00
    0.18910E-06        -0.44150E-20         0.00000E+00
    0.18910E-06        -0.22373E-20         0.00000E+00
    0.18910E-06        -0.22373E-20         0.00000E+00
    0.18910E-06        -0.70759E-20         0.00000E+00
    0.18910E-06        -0.13728E-19         0.00000E+00
    0.18910E-06        -0.53218E-20         0.00000E+00
    0.18910E-06         0.57454E-20         0.00000E+00
    0.18910E-06         0.84063E-20         0.00000E+00
    0.18910E-06         0.53218E-20         0.00000E+00
    0.18910E-06        -0.42358E-21         0.00000E+00
    0.18910E-06        -0.53218E-20         0.00000E+00
    0.18910E-06        -0.97965E-20         0.00000E+00
    0.19770E-06         0.00000E+00         0.00000E+00
    0.19770E-06         0.47021E-20         0.00000E+00
    0.19770E-06         0.33716E-20         0.00000E+00
    0.19770E-06        -0.53218E-20         0.00000E+00
    0.19770E-06        -0.53218E-20         0.00000E+00
    0.19770E-06        -0.53218E-20         0.00000E+00
    0.19770E-06        -0.26609E-20         0.00000E+00
    0.19770E-06        -0.53218E-20         0.00000E+00
    0.19770E-06        -0.33716E-20         0.00000E+00
    0.19770E-06        -0.26609E-20         0.00000E+00
    0.19770E-06         0.26609E-20         0.00000E+00
    0.19770E-06         0.59416E-20         0.00000E+00
    0.19770E-06        -0.53218E-20         0.00000E+00
    0.19770E-06        -0.26609E-20         0.00000E+00
    0.19770E-06         0.53218E-20         0.00000E+00
    0.19770E-06         0.53218E-20         0.00000E+00
    0.20204E-06         0.00000E+00         0.00000E+00
    0.20204E-06         0.00000E+00         0.00000E+00
    0.20204E-06         0.00000E+00         0.00000E+00
    0.20204E-06         0.00000E+00         0.00000E+00
    0.20204E-06         0.00000E+00         0.00000E+00
    0.20204E-06         0.00000E+00         0.00000E+00
    0.20204E-06         0.00000E+00         0.00000E+00
    0.20204E-06         0.00000E+00         0.00000E+00
    0.20204E-06        -0.26609E-20         0.00000E+00
    0.20204E-06         0.26609E-20         0.00000E+00
    0.20204E-06         0.00000E+00         0.00000E+00
    0.20204E-06        -0.26609E-20         0.00000E+00
    0.20204E-06         0.00000E+00         0.00000E+00
    0.20204E-06         0.00000E+00         0.00000E+00
    0.20204E-06         0.26609E-20         0.00000E+00
    0.20204E-06         0.00000E+00         0.00000E+00
CELL_DATA        450
TENSORS stressef double 
   -0.82776E+06         0.93060E+01         0.00000E+00
    0.93060E+01        -0.99693E+07         0.00000E+00
    0.00000E+00         0.00000E+00        -0.21594E+07
 
   -0.97064E+06         0.56037E+02         0.00000E+00
    0.56037E+02        -0.99692E+07         0.00000E+00
    0.00000E+00         0.00000E+00        -0.21880E+07
 
   -0.11060E+07         0.20010E+03         0.00000E+00
    0.20010E+03        -0.99690E+07         0.00000E+00
    0.00000E+00         0.00000E+00        -0.22150E+07
 
   -0.12343E+07         0.50305E+03         0.00000E+00
    0.50305E+03        -0.99683E+07         0.00000E+00
    0.00000E+00         0.00000E+00        -0.22405E+07
 
   -0.13560E+07         0.10144E+04         0.00000E+00
    0.10144E+04        -0.99668E+07         0.00000E+00
    0.00000E+00         0.00000E+00        -0.22646E+07
 
   -0.14718E+07         0.17720E+04         0.00000E+00
    0.17720E+04        -0.99641E+07         0.00000E+00
    0.00000E+00         0.00000E+00        -0.22872E+07
 
   -0.15825E+07         0.28029E+04         0.00000E+00
    0.28029E+04        -0.99596E+07         0.00000E+00
    0.00000E+00         0.00000E+00        -0.23084E+07
 
   -0.16890E+07         0.41243E+04         0.00000E+00
    0.41243E+04        -0.99527E+07         0.00000E+00
    0.00000E+00         0.00000E+00        -0.23283E+07
 
   -0.17921E+07         0.57446E+04         0.00000E+00
    0.57446E+04        -0.99429E+07         0.00000E+00
    0.00000E+00         0.00000E+00        -0.23470E+07
 
   -0.18928E+07         0.76642E+04         0.00000E+00
    0.76642E+04        -0.99295E+07         0.00000E+00
    0.00000E+00         0.00000E+00        -0.23645E+07
 
   -0.19920E+07         0.98776E+04         0.00000E+00
    0.98776E+04        -0.99120E+07         0.00000E+00
    0.00000E+00         0.00000E+00        -0.23808E+07
 
   -0.20906E+07         0.12374E+05         0.00000E+00
    0.12374E+05        -0.98898E+07         0.00000E+00
    0.00000E+00         0.00000E+00        -0.23961E+07
 
   -0.21893E+07         0.15138E+05         0.00000E+00
    0.15138E+05        -0.98624E+07         0.00000E+00
    0.00000E+00         0.00000E+00        -0.24103E+07
 
   -0.22891E+07         0.18154E+05         0.00000E+00
    0.18154E+05        -0.98291E+07         0.00000E+00
    0.00000E+00         0.00000E+00        -0.24236E+07
 
   -0.23907E+07         0.21405E+05         0.00000E+00
    0.21405E+05        -0.97896E+07         0.00000E+00
    0.00000E+00         0.00000E+00        -0.24361E+07
 
   -0.83809E+06         0.81982E+01         0.00000E+00
    0.81982E+01        -0.99796E+07         0.00000E+00
    0.00000E+00         0.00000E+00        -0.21635E+07
 
   -0.98084E+06         0.11354E+03         0.00000E+00
    0.11354E+03        -0.99797E+07         0.00000E+00
    0.00000E+00         0.00000E+00        -0.21921E+07
 
   -0.11160E+07         0.51712E+03         0.00000E+00
    0.51712E+03        -0.99796E+07         0.00000E+00
    0.00000E+00         0.00000E+00        -0.22191E+07
 
   -0.12438E+07         0.14035E+04         0.00000E+00
    0.14035E+04        -0.99791E+07         0.00000E+00
    0.00000E+00         0.00000E+00        -0.22446E+07
 
   -0.13651E+07         0.29208E+04         0.00000E+00
    0.29208E+04        -0.99778E+07         0.00000E+00
    0.00000E+00         0.00000E+00        -0.22686E+07
 
   -0.14804E+07         0.51823E+04         0.00000E+00
    0.51823E+04        -0.99754E+07         0.00000E+00
    0.00000E+00         0.00000E+00        -0.22911E+07
 
   -0.15905E+07         0.82686E+04         0.00000E+00
    0.82686E+04        -0.99711E+07         0.00000E+00
    0.00000E+00         0.00000E+00        -0.23123E+07
 
   -0.16964E+07         0.12231E+05         0.00000E+00
    0.12231E+05        -0.99645E+07         0.00000E+00
    0.00000E+00         0.00000E+00        -0.23322E+07
 
   -0.17989E+07         0.17093E+05         0.00000E+00
    0.17093E+05        -0.99550E+07         0.00000E+00
    0.00000E+00         0.00000E+00        -0.23508E+07
 
   -0.18990E+07         0.22856E+05         0.00000E+00
    0.22856E+05        -0.99419E+07         0.00000E+00
    0.00000E+00         0.00000E+00        -0.23682E+07
 
   -0.19977E+07         0.29503E+05         0.00000E+00
    0.29503E+05        -0.99247E+07         0.00000E+00
    0.00000E+00         0.00000E+00        -0.23845E+07
 
   -0.20957E+07         0.36999E+05         0.00000E+00
    0.36999E+05        -0.99027E+07         0.00000E+00
    0.00000E+00         0.00000E+00        -0.23997E+07
 
   -0.21939E+07         0.45302E+05         0.00000E+00
    0.45302E+05        -0.98755E+07         0.00000E+00
    0.00000E+00         0.00000E+00        -0.24139E+07
 
   -0.22932E+07         0.54359E+05         0.00000E+00
    0.54359E+05        -0.98425E+07         0.00000E+00
    0.00000E+00         0.00000E+00        -0.24271E+07
 
   -0.23944E+07         0.64119E+05         0.00000E+00
    0.64119E+05        -0.98031E+07         0.00000E+00
    0.00000E+00         0.00000E+00        -0.24395E+07
 
   -0.85882E+06        -0.52159E+02         0.00000E+00
   -0.52159E+02        -0.10000E+08         0.00000E+00
    0.00000E+00         0.00000E+00        -0.21718E+07
 
   -0.10013E+07         0.71641E+01         0.00000E+00
    0.71641E+01        -0.10001E+08         0.00000E+00
    0.00000E+00         0.00000E+00        -0.22004E+07
 
   -0.11359E+07         0.58447E+03         0.00000E+00
    0.58447E+03        -0.10001E+08         0.00000E+00
    0.00000E+00         0.00000E+00        -0.22273E+07
 
   -0.12630E+07         0.19869E+04         0.00000E+00
    0.19869E+04        -0.10001E+08         0.00000E+00
    0.00000E+00         0.00000E+00        -0.22527E+07
 
   -0.13833E+07         0.44603E+04         0.00000E+00
    0.44603E+04        -0.99999E+07         0.00000E+00
    0.00000E+00         0.00000E+00        -0.22766E+07
 
   -0.14976E+07         0.81920E+04         0.00000E+00
    0.81920E+04        -0.99979E+07         0.00000E+00
    0.00000E+00         0.00000E+00        -0.22991E+07
 
   -0.16066E+07         0.13315E+05         0.00000E+00
    0.13315E+05        -0.99942E+07         0.00000E+00
    0.00000E+00         0.00000E+00        -0.23201E+07
 
   -0.17112E+07         0.19911E+05         0.00000E+00
    0.19911E+05        -0.99882E+07         0.00000E+00
    0.00000E+00         0.00000E+00        -0.23399E+07
 
   -0.18126E+07         0.28019E+05         0.00000E+00
    0.28019E+05        -0.99792E+07         0.00000E+00
    0.00000E+00         0.00000E+00        -0.23584E+07
 
   -0.19115E+07         0.37640E+05         0.00000E+00
    0.37640E+05        -0.99667E+07         0.00000E+00
    0.00000E+00         0.00000E+00        -0.23756E+07
 
   -0.20089E+07         0.48739E+05         0.00000E+00
    0.48739E+05        -0.99500E+07         0.00000E+00
    0.00000E+00         0.00000E+00        -0.23918E+07
 
   -0.21058E+07         0.61260E+05         0.00000E+00
    0.61260E+05        -0.99285E+07         0.00000E+00
    0.00000E+00         0.00000E+00        -0.24069E+07
 
   -0.22030E+07         0.75127E+05         0.00000E+00
    0.75127E+05        -0.99018E+07         0.00000E+00
    0.00000E+00         0.00000E+00        -0.24210E+07
 
   -0.23014E+07         0.90251E+05         0.00000E+00
    0.90251E+05        -0.98692E+07         0.00000E+00
    0.00000E+00         0.00000E+00        -0.24341E+07
 
   -0.24016E+07         0.10654E+06         0.00000E+00
    0.10654E+06        -0.98302E+07         0.00000E+00
    0.00000E+00         0.00000E+00        -0.24464E+07
 
   -0.89014E+06        -0.21155E+03         0.00000E+00
   -0.21155E+03        -0.10032E+08         0.00000E+00
    0.00000E+00         0.00000E+00        -0.21843E+07
 
   -0.10322E+07        -0.37283E+03         0.00000E+00
   -0.37283E+03        -0.10032E+08         0.00000E+00
    0.00000E+00         0.00000E+00        -0.22128E+07
 
   -0.11659E+07         0.23536E+03         0.00000E+00
    0.23536E+03        -0.10033E+08         0.00000E+00
    0.00000E+00         0.00000E+00        -0.22397E+07
 
   -0.12919E+07         0.20420E+04         0.00000E+00
    0.20420E+04        -0.10033E+08         0.00000E+00
    0.00000E+00         0.00000E+00        -0.22650E+07
 
   -0.14108E+07         0.53890E+04         0.00000E+00
    0.53890E+04        -0.10033E+08         0.00000E+00
    0.00000E+00         0.00000E+00        -0.22887E+07
 
   -0.15234E+07         0.10535E+05         0.00000E+00
    0.10535E+05        -0.10032E+08         0.00000E+00
    0.00000E+00         0.00000E+00        -0.23110E+07
 
   -0.16307E+07         0.17663E+05         0.00000E+00
    0.17663E+05        -0.10029E+08         0.00000E+00
    0.00000E+00         0.00000E+00        -0.23319E+07
 
   -0.17335E+07         0.26883E+05         0.00000E+00
    0.26883E+05        -0.10024E+08         0.00000E+00
    0.00000E+00         0.00000E+00        -0.23514E+07
 
   -0.18330E+07         0.38245E+05         0.00000E+00
    0.38245E+05        -0.10016E+08         0.00000E+00
    0.00000E+00         0.00000E+00        -0.23697E+07
 
   -0.19301E+07         0.51744E+05         0.00000E+00
    0.51744E+05        -0.10004E+08         0.00000E+00
    0.00000E+00         0.00000E+00        -0.23868E+07
 
   -0.20258E+07         0.67330E+05         0.00000E+00
    0.67330E+05        -0.99879E+07         0.00000E+00
    0.00000E+00         0.00000E+00        -0.24028E+07
 
   -0.21211E+07         0.84916E+05         0.00000E+00
    0.84916E+05        -0.99672E+07         0.00000E+00
    0.00000E+00         0.00000E+00        -0.24177E+07
 
   -0.22167E+07         0.10439E+06         0.00000E+00
    0.10439E+06        -0.99412E+07         0.00000E+00
    0.00000E+00         0.00000E+00        -0.24316E+07
 
   -0.23136E+07         0.12563E+06         0.00000E+00
    0.12563E+06        -0.99092E+07         0.00000E+00
    0.00000E+00         0.00000E+00        -0.24446E+07
 
   -0.24125E+07         0.14849E+06         0.00000E+00
    0.14849E+06        -0.98709E+07         0.00000E+00
    0.00000E+00         0.00000E+00        -0.24567E+07
 
   -0.93230E+06        -0.51015E+03         0.00000E+00
   -0.51015E+03        -0.10073E+08         0.00000E+00
    0.00000E+00         0.00000E+00        -0.22011E+07
 
   -0.10737E+07        -0.11368E+04         0.00000E+00
   -0.11368E+04        -0.10074E+08         0.00000E+00
    0.00000E+00         0.00000E+00        -0.22295E+07
 
   -0.12063E+07        -0.69729E+03         0.00000E+00
   -0.69729E+03        -0.10075E+08         0.00000E+00
    0.00000E+00         0.00000E+00        -0.22563E+07
 
   -0.13307E+07         0.13578E+04         0.00000E+00
    0.13578E+04        -0.10076E+08         0.00000E+00
    0.00000E+00         0.00000E+00        -0.22814E+07
 
   -0.14476E+07         0.54638E+04         0.00000E+00
    0.54638E+04        -0.10077E+08         0.00000E+00
    0.00000E+00         0.00000E+00        -0.23049E+07
 
   -0.15580E+07         0.11948E+05         0.00000E+00
    0.11948E+05        -0.10077E+08         0.00000E+00
    0.00000E+00         0.00000E+00        -0.23270E+07
 
   -0.16629E+07         0.21037E+05         0.00000E+00
    0.21037E+05        -0.10075E+08         0.00000E+00
    0.00000E+00         0.00000E+00        -0.23476E+07
 
   -0.17633E+07         0.32867E+05         0.00000E+00
    0.32867E+05        -0.10071E+08         0.00000E+00
    0.00000E+00         0.00000E+00        -0.23669E+07
 
   -0.18603E+07         0.47493E+05         0.00000E+00
    0.47493E+05        -0.10064E+08         0.00000E+00
    0.00000E+00         0.00000E+00        -0.23849E+07
 
   -0.19550E+07         0.64902E+05         0.00000E+00
    0.64902E+05        -0.10053E+08         0.00000E+00
    0.00000E+00         0.00000E+00        -0.24017E+07
 
   -0.20484E+07         0.85021E+05         0.00000E+00
    0.85021E+05        -0.10039E+08         0.00000E+00
    0.00000E+00         0.00000E+00        -0.24174E+07
 
   -0.21414E+07         0.10773E+06         0.00000E+00
    0.10773E+06        -0.10019E+08         0.00000E+00
    0.00000E+00         0.00000E+00        -0.24320E+07
 
   -0.22349E+07         0.13287E+06         0.00000E+00
    0.13287E+06        -0.99937E+07         0.00000E+00
    0.00000E+00         0.00000E+00        -0.24457E+07
 
   -0.23299E+07         0.16028E+06         0.00000E+00
    0.16028E+06        -0.99626E+07         0.00000E+00
    0.00000E+00         0.00000E+00        -0.24585E+07
 
   -0.24270E+07         0.18977E+06         0.00000E+00
    0.18977E+06        -0.99250E+07         0.00000E+00
    0.00000E+00         0.00000E+00        -0.24704E+07
 
   -0.98566E+06        -0.98859E+03         0.00000E+00
   -0.98859E+03        -0.10125E+08         0.00000E+00
    0.00000E+00         0.00000E+00        -0.22222E+07
 
   -0.11262E+07        -0.23957E+04         0.00000E+00
   -0.23957E+04        -0.10126E+08         0.00000E+00
    0.00000E+00         0.00000E+00        -0.22505E+07
 
   -0.12572E+07        -0.23806E+04         0.00000E+00
   -0.23806E+04        -0.10128E+08         0.00000E+00
    0.00000E+00         0.00000E+00        -0.22771E+07
 
   -0.13795E+07        -0.27574E+03         0.00000E+00
   -0.27574E+03        -0.10130E+08         0.00000E+00
    0.00000E+00         0.00000E+00        -0.23020E+07
 
   -0.14939E+07         0.44438E+04         0.00000E+00
    0.44438E+04        -0.10132E+08         0.00000E+00
    0.00000E+00         0.00000E+00        -0.23252E+07
 
   -0.16014E+07         0.12168E+05         0.00000E+00
    0.12168E+05        -0.10133E+08         0.00000E+00
    0.00000E+00         0.00000E+00        -0.23470E+07
 
   -0.17033E+07         0.23165E+05         0.00000E+00
    0.23165E+05        -0.10133E+08         0.00000E+00
    0.00000E+00         0.00000E+00        -0.23672E+07
 
   -0.18006E+07         0.37588E+05         0.00000E+00
    0.37588E+05        -0.10130E+08         0.00000E+00
    0.00000E+00         0.00000E+00        -0.23862E+07
 
   -0.18945E+07         0.55494E+05         0.00000E+00
    0.55494E+05        -0.10125E+08         0.00000E+00
    0.00000E+00         0.00000E+00        -0.24038E+07
 
   -0.19861E+07         0.76853E+05         0.00000E+00
    0.76853E+05        -0.10115E+08         0.00000E+00
    0.00000E+00         0.00000E+00        -0.24203E+07
 
   -0.20765E+07         0.10156E+06         0.00000E+00
    0.10156E+06        -0.10102E+08         0.00000E+00
    0.00000E+00         0.00000E+00        -0.24357E+07
 
   -0.21667E+07         0.12947E+06         0.00000E+00
    0.12947E+06        -0.10083E+08         0.00000E+00
    0.00000E+00         0.00000E+00        -0.24500E+07
 
   -0.22576E+07         0.16037E+06         0.00000E+00
    0.16037E+06        -0.10059E+08         0.00000E+00
    0.00000E+00         0.00000E+00        -0.24634E+07
 
   -0.23502E+07         0.19403E+06         0.00000E+00
    0.19403E+06        -0.10029E+08         0.00000E+00
    0.00000E+00         0.00000E+00        -0.24759E+07
 
   -0.24451E+07         0.23021E+06         0.00000E+00
    0.23021E+06        -0.99927E+07         0.00000E+00
    0.00000E+00         0.00000E+00        -0.24876E+07
 
   -0.10507E+07        -0.16879E+04         0.00000E+00
   -0.16879E+04        -0.10188E+08         0.00000E+00
    0.00000E+00         0.00000E+00        -0.22477E+07
 
   -0.11900E+07        -0.42608E+04         0.00000E+00
   -0.42608E+04        -0.10189E+08         0.00000E+00
    0.00000E+00         0.00000E+00        -0.22759E+07
 
   -0.13190E+07        -0.49811E+04         0.00000E+00
   -0.49811E+04        -0.10192E+08         0.00000E+00
    0.00000E+00         0.00000E+00        -0.23022E+07
 
   -0.14386E+07        -0.30665E+04         0.00000E+00
   -0.30665E+04        -0.10195E+08         0.00000E+00
    0.00000E+00         0.00000E+00        -0.23268E+07
 
   -0.15498E+07         0.20918E+04         0.00000E+00
    0.20918E+04        -0.10199E+08         0.00000E+00
    0.00000E+00         0.00000E+00        -0.23497E+07
 
   -0.16539E+07         0.10941E+05         0.00000E+00
    0.10941E+05        -0.10201E+08         0.00000E+00
    0.00000E+00         0.00000E+00        -0.23710E+07
 
   -0.17520E+07         0.23781E+05         0.00000E+00
    0.23781E+05        -0.10202E+08         0.00000E+00
    0.00000E+00         0.00000E+00        -0.23909E+07
 
   -0.18455E+07         0.40779E+05         0.00000E+00
    0.40779E+05        -0.10201E+08         0.00000E+00
    0.00000E+00         0.00000E+00        -0.24094E+07
 
   -0.19356E+07         0.61983E+05         0.00000E+00
    0.61983E+05        -0.10197E+08         0.00000E+00
    0.00000E+00         0.00000E+00        -0.24266E+07
 
   -0.20234E+07         0.87343E+05         0.00000E+00
    0.87343E+05        -0.10190E+08         0.00000E+00
    0.00000E+00         0.00000E+00        -0.24426E+07
 
   -0.21102E+07         0.11672E+06         0.00000E+00
    0.11672E+06        -0.10178E+08         0.00000E+00
    0.00000E+00         0.00000E+00        -0.24576E+07
 
   -0.21970E+07         0.14991E+06         0.00000E+00
    0.14991E+06        -0.10161E+08         0.00000E+00
    0.00000E+00         0.00000E+00        -0.24716E+07
 
   -0.22848E+07         0.18666E+06         0.00000E+00
    0.18666E+06        -0.10138E+08         0.00000E+00
    0.00000E+00         0.00000E+00        -0.24846E+07
 
   -0.23744E+07         0.22667E+06         0.00000E+00
    0.22667E+06        -0.10109E+08         0.00000E+00
    0.00000E+00         0.00000E+00        -0.24968E+07
 
   -0.24667E+07         0.26964E+06         0.00000E+00
    0.26964E+06        -0.10074E+08         0.00000E+00
    0.00000E+00         0.00000E+00        -0.25081E+07
 
   -0.11278E+07        -0.26494E+04         0.00000E+00
   -0.26494E+04        -0.10261E+08         0.00000E+00
    0.00000E+00         0.00000E+00        -0.22778E+07
 
   -0.12655E+07        -0.68431E+04         0.00000E+00
   -0.68431E+04        -0.10263E+08         0.00000E+00
    0.00000E+00         0.00000E+00        -0.23057E+07
 
   -0.13919E+07        -0.86632E+04         0.00000E+00
   -0.86632E+04        -0.10267E+08         0.00000E+00
    0.00000E+00         0.00000E+00        -0.23318E+07
 
   -0.15082E+07        -0.72185E+04         0.00000E+00
   -0.72185E+04        -0.10271E+08         0.00000E+00
    0.00000E+00         0.00000E+00        -0.23559E+07
 
   -0.16156E+07        -0.18231E+04         0.00000E+00
   -0.18231E+04        -0.10276E+08         0.00000E+00
    0.00000E+00         0.00000E+00        -0.23784E+07
 
   -0.17155E+07         0.80187E+04         0.00000E+00
    0.80187E+04        -0.10281E+08         0.00000E+00
    0.00000E+00         0.00000E+00        -0.23992E+07
 
   -0.18091E+07         0.22630E+05         0.00000E+00
    0.22630E+05        -0.10284E+08         0.00000E+00
    0.00000E+00         0.00000E+00        -0.24186E+07
 
   -0.18980E+07         0.42182E+05         0.00000E+00
    0.42182E+05        -0.10285E+08         0.00000E+00
    0.00000E+00         0.00000E+00        -0.24365E+07
 
   -0.19835E+07         0.66708E+05         0.00000E+00
    0.66708E+05        -0.10282E+08         0.00000E+00
    0.00000E+00         0.00000E+00        -0.24532E+07
 
   -0.20669E+07         0.96126E+05         0.00000E+00
    0.96126E+05        -0.10277E+08         0.00000E+00
    0.00000E+00         0.00000E+00        -0.24687E+07
 
   -0.21494E+07         0.13026E+06         0.00000E+00
    0.13026E+06        -0.10266E+08         0.00000E+00
    0.00000E+00         0.00000E+00        -0.24832E+07
 
   -0.22322E+07         0.16884E+06         0.00000E+00
    0.16884E+06        -0.10251E+08         0.00000E+00
    0.00000E+00         0.00000E+00        -0.24967E+07
 
   -0.23163E+07         0.21155E+06         0.00000E+00
    0.21155E+06        -0.10230E+08         0.00000E+00
    0.00000E+00         0.00000E+00        -0.25093E+07
 
   -0.24027E+07         0.25804E+06         0.00000E+00
    0.25804E+06        -0.10203E+08         0.00000E+00
    0.00000E+00         0.00000E+00        -0.25211E+07
 
   -0.24920E+07         0.30791E+06         0.00000E+00
    0.30791E+06        -0.10169E+08         0.00000E+00
    0.00000E+00         0.00000E+00        -0.25321E+07
 
   -0.12177E+07        -0.39143E+04         0.00000E+00
   -0.39143E+04        -0.10345E+08         0.00000E+00
    0.00000E+00         0.00000E+00        -0.23125E+07
 
   -0.13533E+07        -0.10252E+05         0.00000E+00
   -0.10252E+05        -0.10348E+08         0.00000E+00
    0.00000E+00         0.00000E+00        -0.23402E+07
 
   -0.14766E+07        -0.13588E+05         0.00000E+00
   -0.13588E+05        -0.10352E+08         0.00000E+00
    0.00000E+00         0.00000E+00        -0.23658E+07
 
   -0.15888E+07        -0.12928E+05         0.00000E+00
   -0.12928E+05        -0.10359E+08         0.00000E+00
    0.00000E+00         0.00000E+00        -0.23895E+07
 
   -0.16916E+07        -0.75221E+04         0.00000E+00
   -0.75221E+04        -0.10365E+08         0.00000E+00
    0.00000E+00         0.00000E+00        -0.24114E+07
 
   -0.17864E+07         0.31652E+04         0.00000E+00
    0.31652E+04        -0.10371E+08         0.00000E+00
    0.00000E+00         0.00000E+00        -0.24316E+07
 
   -0.18748E+07         0.19470E+05         0.00000E+00
    0.19470E+05        -0.10377E+08         0.00000E+00
    0.00000E+00         0.00000E+00        -0.24503E+07
 
   -0.19583E+07         0.41555E+05         0.00000E+00
    0.41555E+05        -0.10380E+08         0.00000E+00
    0.00000E+00         0.00000E+00        -0.24676E+07
 
   -0.20384E+07         0.69430E+05         0.00000E+00
    0.69430E+05        -0.10380E+08         0.00000E+00
    0.00000E+00         0.00000E+00        -0.24836E+07
 
   -0.21166E+07         0.10297E+06         0.00000E+00
    0.10297E+06        -0.10376E+08         0.00000E+00
    0.00000E+00         0.00000E+00        -0.24985E+07
 
   -0.21942E+07         0.14196E+06         0.00000E+00
    0.14196E+06        -0.10368E+08         0.00000E+00
    0.00000E+00         0.00000E+00        -0.25124E+07
 
   -0.22724E+07         0.18605E+06         0.00000E+00
    0.18605E+06        -0.10354E+08         0.00000E+00
    0.00000E+00         0.00000E+00        -0.25253E+07
 
   -0.23523E+07         0.23487E+06         0.00000E+00
    0.23487E+06        -0.10335E+08         0.00000E+00
    0.00000E+00         0.00000E+00        -0.25374E+07
 
   -0.24348E+07         0.28796E+06         0.00000E+00
    0.28796E+06        -0.10309E+08         0.00000E+00
    0.00000E+00         0.00000E+00        -0.25488E+07
 
   -0.25207E+07         0.34486E+06         0.00000E+00
    0.34486E+06        -0.10276E+08         0.00000E+00
    0.00000E+00         0.00000E+00        -0.25594E+07
 
   -0.13211E+07        -0.55233E+04         0.00000E+00
   -0.55233E+04        -0.10440E+08         0.00000E+00
    0.00000E+00         0.00000E+00        -0.23522E+07
 
   -0.14540E+07        -0.14594E+05         0.00000E+00
   -0.14594E+05        -0.10443E+08         0.00000E+00
    0.00000E+00         0.00000E+00        -0.23794E+07
 
   -0.15733E+07        -0.19908E+05         0.00000E+00
   -0.19908E+05        -0.10449E+08         0.00000E+00
    0.00000E+00         0.00000E+00        -0.24045E+07
 
   -0.16807E+07        -0.20383E+05         0.00000E+00
   -0.20383E+05        -0.10457E+08         0.00000E+00
    0.00000E+00         0.00000E+00        -0.24275E+07
 
   -0.17780E+07        -0.15211E+05         0.00000E+00
   -0.15211E+05        -0.10465E+08         0.00000E+00
    0.00000E+00         0.00000E+00        -0.24487E+07
 
   -0.18669E+07        -0.38369E+04         0.00000E+00
   -0.38369E+04        -0.10474E+08         0.00000E+00
    0.00000E+00         0.00000E+00        -0.24681E+07
 
   -0.19491E+07         0.14078E+05         0.00000E+00
    0.14078E+05        -0.10481E+08         0.00000E+00
    0.00000E+00         0.00000E+00        -0.24861E+07
 
   -0.20263E+07         0.38675E+05         0.00000E+00
    0.38675E+05        -0.10487E+08         0.00000E+00
    0.00000E+00         0.00000E+00        -0.25026E+07
 
   -0.21003E+07         0.69929E+05         0.00000E+00
    0.69929E+05        -0.10489E+08         0.00000E+00
    0.00000E+00         0.00000E+00        -0.25179E+07
 
   -0.21725E+07         0.10767E+06         0.00000E+00
    0.10767E+06        -0.10488E+08         0.00000E+00
    0.00000E+00         0.00000E+00        -0.25320E+07
 
   -0.22445E+07         0.15161E+06         0.00000E+00
    0.15161E+06        -0.10482E+08         0.00000E+00
    0.00000E+00         0.00000E+00        -0.25452E+07
 
   -0.23174E+07         0.20136E+06         0.00000E+00
    0.20136E+06        -0.10470E+08         0.00000E+00
    0.00000E+00         0.00000E+00        -0.25575E+07
 
   -0.23925E+07         0.25643E+06         0.00000E+00
    0.25643E+06        -0.10453E+08         0.00000E+00
    0.00000E+00         0.00000E+00        -0.25691E+07
 
   -0.24708E+07         0.31629E+06         0.00000E+00
    0.31629E+06        -0.10429E+08         0.00000E+00
    0.00000E+00         0.00000E+00        -0.25799E+07
 
   -0.25529E+07         0.38037E+06         0.00000E+00
    0.38037E+06        -0.10398E+08         0.00000E+00
    0.00000E+00         0.00000E+00        -0.25901E+07
 
   -0.14388E+07        -0.75159E+04         0.00000E+00
   -0.75159E+04        -0.10545E+08         0.00000E+00
    0.00000E+00         0.00000E+00        -0.23968E+07
 
   -0.15681E+07        -0.19971E+05         0.00000E+00
   -0.19971E+05        -0.10549E+08         0.00000E+00
    0.00000E+00         0.00000E+00        -0.24235E+07
 
   -0.16826E+07        -0.27768E+05         0.00000E+00
   -0.27768E+05        -0.10557E+08         0.00000E+00
    0.00000E+00         0.00000E+00        -0.24479E+07
 
   -0.17843E+07        -0.29751E+05         0.00000E+00
   -0.29751E+05        -0.10566E+08         0.00000E+00
    0.00000E+00         0.00000E+00        -0.24701E+07
 
   -0.18751E+07        -0.25077E+05         0.00000E+00
   -0.25077E+05        -0.10577E+08         0.00000E+00
    0.00000E+00         0.00000E+00        -0.24904E+07
 
   -0.19571E+07        -0.13180E+05         0.00000E+00
   -0.13180E+05        -0.10588E+08         0.00000E+00
    0.00000E+00         0.00000E+00        -0.25090E+07
 
   -0.20322E+07         0.62578E+04         0.00000E+00
    0.62578E+04        -0.10598E+08         0.00000E+00
    0.00000E+00         0.00000E+00        -0.25260E+07
 
   -0.21023E+07         0.33347E+05         0.00000E+00
    0.33347E+05        -0.10606E+08         0.00000E+00
    0.00000E+00         0.00000E+00        -0.25416E+07
 
   -0.21692E+07         0.68014E+05         0.00000E+00
    0.68014E+05        -0.10610E+08         0.00000E+00
    0.00000E+00         0.00000E+00        -0.25559E+07
 
   -0.22347E+07         0.11003E+06         0.00000E+00
    0.11003E+06        -0.10611E+08         0.00000E+00
    0.00000E+00         0.00000E+00        -0.25692E+07
 
   -0.23002E+07         0.15904E+06         0.00000E+00
    0.15904E+06        -0.10608E+08         0.00000E+00
    0.00000E+00         0.00000E+00        -0.25816E+07
 
   -0.23672E+07         0.21458E+06         0.00000E+00
    0.21458E+06        -0.10599E+08         0.00000E+00
    0.00000E+00         0.00000E+00        -0.25932E+07
 
   -0.24370E+07         0.27607E+06         0.00000E+00
    0.27607E+06        -0.10583E+08         0.00000E+00
    0.00000E+00         0.00000E+00        -0.26041E+07
 
   -0.25105E+07         0.34287E+06         0.00000E+00
    0.34287E+06        -0.10561E+08         0.00000E+00
    0.00000E+00         0.00000E+00        -0.26143E+07
 
   -0.25885E+07         0.41431E+06         0.00000E+00
    0.41431E+06        -0.10532E+08         0.00000E+00
    0.00000E+00         0.00000E+00        -0.26241E+07
 
   -0.15716E+07        -0.99292E+04         0.00000E+00
   -0.99292E+04        -0.10662E+08         0.00000E+00
    0.00000E+00         0.00000E+00        -0.24467E+07
 
   -0.16965E+07        -0.26474E+05         0.00000E+00
   -0.26474E+05        -0.10667E+08         0.00000E+00
    0.00000E+00         0.00000E+00        -0.24726E+07
 
   -0.18052E+07        -0.37294E+05         0.00000E+00
   -0.37294E+05        -0.10675E+08         0.00000E+00
    0.00000E+00         0.00000E+00        -0.24961E+07
 
   -0.19000E+07        -0.41180E+05         0.00000E+00
   -0.41180E+05        -0.10687E+08         0.00000E+00
    0.00000E+00         0.00000E+00        -0.25174E+07
 
   -0.19833E+07        -0.37273E+05         0.00000E+00
   -0.37273E+05        -0.10700E+08         0.00000E+00
    0.00000E+00         0.00000E+00        -0.25366E+07
 
   -0.20573E+07        -0.25023E+05         0.00000E+00
   -0.25023E+05        -0.10713E+08         0.00000E+00
    0.00000E+00         0.00000E+00        -0.25541E+07
 
   -0.21242E+07        -0.41472E+04         0.00000E+00
   -0.41472E+04        -0.10726E+08         0.00000E+00
    0.00000E+00         0.00000E+00        -0.25700E+07
 
   -0.21862E+07         0.25413E+05         0.00000E+00
    0.25413E+05        -0.10736E+08         0.00000E+00
    0.00000E+00         0.00000E+00        -0.25845E+07
 
   -0.22452E+07         0.63526E+05         0.00000E+00
    0.63526E+05        -0.10744E+08         0.00000E+00
    0.00000E+00         0.00000E+00        -0.25978E+07
 
   -0.23030E+07         0.10990E+06         0.00000E+00
    0.10990E+06        -0.10747E+08         0.00000E+00
    0.00000E+00         0.00000E+00        -0.26101E+07
 
   -0.23614E+07         0.16409E+06         0.00000E+00
    0.16409E+06        -0.10746E+08         0.00000E+00
    0.00000E+00         0.00000E+00        -0.26215E+07
 
   -0.24218E+07         0.22556E+06         0.00000E+00
    0.22556E+06        -0.10739E+08         0.00000E+00
    0.00000E+00         0.00000E+00        -0.26323E+07
 
   -0.24856E+07         0.29364E+06         0.00000E+00
    0.29364E+06        -0.10726E+08         0.00000E+00
    0.00000E+00         0.00000E+00        -0.26424E+07
 
   -0.25539E+07         0.36758E+06         0.00000E+00
    0.36758E+06        -0.10706E+08         0.00000E+00
    0.00000E+00         0.00000E+00        -0.26520E+07
 
   -0.26275E+07         0.44657E+06         0.00000E+00
    0.44657E+06        -0.10679E+08         0.00000E+00
    0.00000E+00         0.00000E+00        -0.26612E+07
 
   -0.17206E+07        -0.12797E+05         0.00000E+00
   -0.12797E+05        -0.10789E+08         0.00000E+00
    0.00000E+00         0.00000E+00        -0.25020E+07
 
   -0.18398E+07        -0.34185E+05         0.00000E+00
   -0.34185E+05        -0.10795E+08         0.00000E+00
    0.00000E+00         0.00000E+00        -0.25270E+07
 
   -0.19415E+07        -0.48593E+05         0.00000E+00
   -0.48593E+05        -0.10805E+08         0.00000E+00
    0.00000E+00         0.00000E+00        -0.25494E+07
 
   -0.20283E+07        -0.54785E+05         0.00000E+00
   -0.54785E+05        -0.10819E+08         0.00000E+00
    0.00000E+00         0.00000E+00        -0.25694E+07
 
   -0.21029E+07        -0.51915E+05         0.00000E+00
   -0.51915E+05        -0.10834E+08         0.00000E+00
    0.00000E+00         0.00000E+00        -0.25874E+07
 
   -0.21677E+07        -0.39476E+05         0.00000E+00
   -0.39476E+05        -0.10850E+08         0.00000E+00
    0.00000E+00         0.00000E+00        -0.26036E+07
 
   -0.22254E+07        -0.17246E+05         0.00000E+00
   -0.17246E+05        -0.10865E+08         0.00000E+00
    0.00000E+00         0.00000E+00        -0.26181E+07
 
   -0.22782E+07         0.14765E+05         0.00000E+00
    0.14765E+05        -0.10879E+08         0.00000E+00
    0.00000E+00         0.00000E+00        -0.26314E+07
 
   -0.23283E+07         0.56351E+05         0.00000E+00
    0.56351E+05        -0.10889E+08         0.00000E+00
    0.00000E+00         0.00000E+00        -0.26434E+07
 
   -0.23776E+07         0.10714E+06         0.00000E+00
    0.10714E+06        -0.10895E+08         0.00000E+00
    0.00000E+00         0.00000E+00        -0.26546E+07
 
   -0.24280E+07         0.16663E+06         0.00000E+00
    0.16663E+06        -0.10897E+08         0.00000E+00
    0.00000E+00         0.00000E+00        -0.26649E+07
 
   -0.24811E+07         0.23417E+06         0.00000E+00
    0.23417E+06        -0.10892E+08         0.00000E+00
    0.00000E+00         0.00000E+00        -0.26747E+07
 
   -0.25384E+07         0.30901E+06         0.00000E+00
    0.30901E+06        -0.10882E+08         0.00000E+00
    0.00000E+00         0.00000E+00        -0.26840E+07
 
   -0.26009E+07         0.39029E+06         0.00000E+00
    0.39029E+06        -0.10864E+08         0.00000E+00
    0.00000E+00         0.00000E+00        -0.26929E+07
 
   -0.26698E+07         0.47705E+06         0.00000E+00
    0.47705E+06        -0.10838E+08         0.00000E+00
    0.00000E+00         0.00000E+00        -0.27016E+07
 
   -0.18866E+07        -0.16147E+05         0.00000E+00
   -0.16147E+05        -0.10928E+08         0.00000E+00
    0.00000E+00         0.00000E+00        -0.25629E+07
 
   -0.19989E+07        -0.43166E+05         0.00000E+00
   -0.43166E+05        -0.10935E+08         0.00000E+00
    0.00000E+00         0.00000E+00        -0.25867E+07
 
   -0.20922E+07        -0.61739E+05         0.00000E+00
   -0.61739E+05        -0.10947E+08         0.00000E+00
    0.00000E+00         0.00000E+00        -0.26078E+07
 
   -0.21696E+07        -0.70636E+05         0.00000E+00
   -0.70636E+05        -0.10962E+08         0.00000E+00
    0.00000E+00         0.00000E+00        -0.26264E+07
 
   -0.22341E+07        -0.69063E+05         0.00000E+00
   -0.69063E+05        -0.10980E+08         0.00000E+00
    0.00000E+00         0.00000E+00        -0.26428E+07
 
   -0.22887E+07        -0.56590E+05         0.00000E+00
   -0.56590E+05        -0.10998E+08         0.00000E+00
    0.00000E+00         0.00000E+00        -0.26574E+07
 
   -0.23359E+07        -0.33081E+05         0.00000E+00
   -0.33081E+05        -0.11016E+08         0.00000E+00
    0.00000E+00         0.00000E+00        -0.26705E+07
 
   -0.23785E+07         0.13583E+04         0.00000E+00
    0.13583E+04        -0.11032E+08         0.00000E+00
    0.00000E+00         0.00000E+00        -0.26822E+07
 
   -0.24186E+07         0.46434E+05         0.00000E+00
    0.46434E+05        -0.11045E+08         0.00000E+00
    0.00000E+00         0.00000E+00        -0.26928E+07
 
   -0.24585E+07         0.10169E+06         0.00000E+00
    0.10169E+06        -0.11054E+08         0.00000E+00
    0.00000E+00         0.00000E+00        -0.27026E+07
 
   -0.25001E+07         0.16655E+06         0.00000E+00
    0.16655E+06        -0.11059E+08         0.00000E+00
    0.00000E+00         0.00000E+00        -0.27117E+07
 
   -0.25451E+07         0.24029E+06         0.00000E+00
    0.24029E+06        -0.11057E+08         0.00000E+00
    0.00000E+00         0.00000E+00        -0.27204E+07
 
   -0.25952E+07         0.32205E+06         0.00000E+00
    0.32205E+06        -0.11049E+08         0.00000E+00
    0.00000E+00         0.00000E+00        -0.27287E+07
 
   -0.26515E+07         0.41088E+06         0.00000E+00
    0.41088E+06        -0.11033E+08         0.00000E+00
    0.00000E+00         0.00000E+00        -0.27369E+07
 
   -0.27151E+07         0.50566E+06         0.00000E+00
    0.50566E+06        -0.11009E+08         0.00000E+00
    0.00000E+00         0.00000E+00        -0.27449E+07
 
   -0.20708E+07        -0.20002E+05         0.00000E+00
   -0.20002E+05        -0.11078E+08         0.00000E+00
    0.00000E+00         0.00000E+00        -0.26298E+07
 
   -0.21746E+07        -0.53459E+05         0.00000E+00
   -0.53459E+05        -0.11086E+08         0.00000E+00
    0.00000E+00         0.00000E+00        -0.26521E+07
 
   -0.22580E+07        -0.76766E+05         0.00000E+00
   -0.76766E+05        -0.11099E+08         0.00000E+00
    0.00000E+00         0.00000E+00        -0.26715E+07
 
   -0.23244E+07        -0.88749E+05         0.00000E+00
   -0.88749E+05        -0.11117E+08         0.00000E+00
    0.00000E+00         0.00000E+00        -0.26883E+07
 
   -0.23775E+07        -0.88708E+05         0.00000E+00
   -0.88708E+05        -0.11137E+08         0.00000E+00
    0.00000E+00         0.00000E+00        -0.27029E+07
 
   -0.24203E+07        -0.76331E+05         0.00000E+00
   -0.76331E+05        -0.11158E+08         0.00000E+00
    0.00000E+00         0.00000E+00        -0.27157E+07
 
   -0.24560E+07        -0.51611E+05         0.00000E+00
   -0.51611E+05        -0.11179E+08         0.00000E+00
    0.00000E+00         0.00000E+00        -0.27269E+07
 
   -0.24871E+07        -0.14770E+05         0.00000E+00
   -0.14770E+05        -0.11197E+08         0.00000E+00
    0.00000E+00         0.00000E+00        -0.27369E+07
 
   -0.25163E+07         0.33794E+05         0.00000E+00
    0.33794E+05        -0.11213E+08         0.00000E+00
    0.00000E+00         0.00000E+00        -0.27459E+07
 
   -0.25458E+07         0.93544E+05         0.00000E+00
    0.93544E+05        -0.11225E+08         0.00000E+00
    0.00000E+00         0.00000E+00        -0.27541E+07
 
   -0.25777E+07         0.16382E+06         0.00000E+00
    0.16382E+06        -0.11232E+08         0.00000E+00
    0.00000E+00         0.00000E+00        -0.27619E+07
 
   -0.26139E+07         0.24383E+06         0.00000E+00
    0.24383E+06        -0.11232E+08         0.00000E+00
    0.00000E+00         0.00000E+00        -0.27693E+07
 
   -0.26560E+07         0.33266E+06         0.00000E+00
    0.33266E+06        -0.11227E+08         0.00000E+00
    0.00000E+00         0.00000E+00        -0.27765E+07
 
   -0.27055E+07         0.42923E+06         0.00000E+00
    0.42923E+06        -0.11213E+08         0.00000E+00
    0.00000E+00         0.00000E+00        -0.27838E+07
 
   -0.27635E+07         0.53229E+06         0.00000E+00
    0.53229E+06        -0.11192E+08         0.00000E+00
    0.00000E+00         0.00000E+00        -0.27911E+07
 
   -0.22742E+07        -0.24373E+05         0.00000E+00
   -0.24373E+05        -0.11240E+08         0.00000E+00
    0.00000E+00         0.00000E+00        -0.27028E+07
 
   -0.23677E+07        -0.65074E+05         0.00000E+00
   -0.65074E+05        -0.11248E+08         0.00000E+00
    0.00000E+00         0.00000E+00        -0.27232E+07
 
   -0.24393E+07        -0.93659E+05         0.00000E+00
   -0.93659E+05        -0.11264E+08         0.00000E+00
    0.00000E+00         0.00000E+00        -0.27406E+07
 
   -0.24932E+07        -0.10906E+06         0.00000E+00
   -0.10906E+06        -0.11283E+08         0.00000E+00
    0.00000E+00         0.00000E+00        -0.27553E+07
 
   -0.25332E+07        -0.11075E+06         0.00000E+00
   -0.11075E+06        -0.11306E+08         0.00000E+00
    0.00000E+00         0.00000E+00        -0.27677E+07
 
   -0.25630E+07        -0.98564E+05         0.00000E+00
   -0.98564E+05        -0.11329E+08         0.00000E+00
    0.00000E+00         0.00000E+00        -0.27784E+07
 
   -0.25857E+07        -0.72684E+05         0.00000E+00
   -0.72684E+05        -0.11352E+08         0.00000E+00
    0.00000E+00         0.00000E+00        -0.27875E+07
 
   -0.26044E+07        -0.33476E+05         0.00000E+00
   -0.33476E+05        -0.11373E+08         0.00000E+00
    0.00000E+00         0.00000E+00        -0.27954E+07
 
   -0.26216E+07         0.18543E+05         0.00000E+00
    0.18543E+05        -0.11391E+08         0.00000E+00
    0.00000E+00         0.00000E+00        -0.28025E+07
 
   -0.26397E+07         0.82751E+05         0.00000E+00
    0.82751E+05        -0.11405E+08         0.00000E+00
    0.00000E+00         0.00000E+00        -0.28090E+07
 
   -0.26610E+07         0.15843E+06         0.00000E+00
    0.15843E+06        -0.11415E+08         0.00000E+00
    0.00000E+00         0.00000E+00        -0.28151E+07
 
   -0.26874E+07         0.24474E+06         0.00000E+00
    0.24474E+06        -0.11418E+08         0.00000E+00
    0.00000E+00         0.00000E+00        -0.28211E+07
 
   -0.27208E+07         0.34072E+06         0.00000E+00
    0.34072E+06        -0.11415E+08         0.00000E+00
    0.00000E+00         0.00000E+00        -0.28272E+07
 
   -0.27628E+07         0.44520E+06         0.00000E+00
    0.44520E+06        -0.11404E+08         0.00000E+00
    0.00000E+00         0.00000E+00        -0.28335E+07
 
   -0.28148E+07         0.55681E+06         0.00000E+00
    0.55681E+06        -0.11385E+08         0.00000E+00
    0.00000E+00         0.00000E+00        -0.28400E+07
 
   -0.24981E+07        -0.29262E+05         0.00000E+00
   -0.29262E+05        -0.11413E+08         0.00000E+00
    0.00000E+00         0.00000E+00        -0.27823E+07
 
   -0.25791E+07        -0.77984E+05         0.00000E+00
   -0.77984E+05        -0.11423E+08         0.00000E+00
    0.00000E+00         0.00000E+00        -0.28004E+07
 
   -0.26369E+07        -0.11233E+06         0.00000E+00
   -0.11233E+06        -0.11439E+08         0.00000E+00
    0.00000E+00         0.00000E+00        -0.28152E+07
 
   -0.26763E+07        -0.13143E+06         0.00000E+00
   -0.13143E+06        -0.11461E+08         0.00000E+00
    0.00000E+00         0.00000E+00        -0.28274E+07
 
   -0.27016E+07        -0.13495E+06         0.00000E+00
   -0.13495E+06        -0.11485E+08         0.00000E+00
    0.00000E+00         0.00000E+00        -0.28373E+07
 
   -0.27168E+07        -0.12302E+06         0.00000E+00
   -0.12302E+06        -0.11510E+08         0.00000E+00
    0.00000E+00         0.00000E+00        -0.28454E+07
 
   -0.27254E+07        -0.96008E+05         0.00000E+00
   -0.96008E+05        -0.11535E+08         0.00000E+00
    0.00000E+00         0.00000E+00        -0.28521E+07
 
   -0.27304E+07        -0.54482E+05         0.00000E+00
   -0.54482E+05        -0.11558E+08         0.00000E+00
    0.00000E+00         0.00000E+00        -0.28578E+07
 
   -0.27346E+07         0.91026E+03         0.00000E+00
    0.91026E+03        -0.11579E+08         0.00000E+00
    0.00000E+00         0.00000E+00        -0.28627E+07
 
   -0.27404E+07         0.69468E+05         0.00000E+00
    0.69468E+05        -0.11595E+08         0.00000E+00
    0.00000E+00         0.00000E+00        -0.28672E+07
 
   -0.27501E+07         0.15044E+06         0.00000E+00
    0.15044E+06        -0.11607E+08         0.00000E+00
    0.00000E+00         0.00000E+00        -0.28715E+07
 
   -0.27659E+07         0.24298E+06         0.00000E+00
    0.24298E+06        -0.11614E+08         0.00000E+00
    0.00000E+00         0.00000E+00        -0.28759E+07
 
   -0.27897E+07         0.34612E+06         0.00000E+00
    0.34612E+06        -0.11613E+08         0.00000E+00
    0.00000E+00         0.00000E+00        -0.28806E+07
 
   -0.28235E+07         0.45864E+06         0.00000E+00
    0.45864E+06        -0.11605E+08         0.00000E+00
    0.00000E+00         0.00000E+00        -0.28857E+07
 
   -0.28688E+07         0.57906E+06         0.00000E+00
    0.57906E+06        -0.11589E+08         0.00000E+00
    0.00000E+00         0.00000E+00        -0.28915E+07
 
   -0.27435E+07        -0.34656E+05         0.00000E+00
   -0.34656E+05        -0.11599E+08         0.00000E+00
    0.00000E+00         0.00000E+00        -0.28684E+07
 
   -0.28095E+07        -0.92117E+05         0.00000E+00
   -0.92117E+05        -0.11609E+08         0.00000E+00
    0.00000E+00         0.00000E+00        -0.28836E+07
 
   -0.28511E+07        -0.13262E+06         0.00000E+00
   -0.13262E+06        -0.11627E+08         0.00000E+00
    0.00000E+00         0.00000E+00        -0.28956E+07
 
   -0.28740E+07        -0.15557E+06         0.00000E+00
   -0.15557E+06        -0.11650E+08         0.00000E+00
    0.00000E+00         0.00000E+00        -0.29047E+07
 
   -0.28828E+07        -0.16096E+06         0.00000E+00
   -0.16096E+06        -0.11676E+08         0.00000E+00
    0.00000E+00         0.00000E+00        -0.29117E+07
 
   -0.28820E+07        -0.14925E+06         0.00000E+00
   -0.14925E+06        -0.11702E+08         0.00000E+00
    0.00000E+00         0.00000E+00        -0.29169E+07
 
   -0.28751E+07        -0.12112E+06         0.00000E+00
   -0.12112E+06        -0.11729E+08         0.00000E+00
    0.00000E+00         0.00000E+00        -0.29208E+07
 
   -0.28654E+07        -0.77343E+05         0.00000E+00
   -0.77343E+05        -0.11753E+08         0.00000E+00
    0.00000E+00         0.00000E+00        -0.29238E+07
 
   -0.28556E+07        -0.18730E+05         0.00000E+00
   -0.18730E+05        -0.11775E+08         0.00000E+00
    0.00000E+00         0.00000E+00        -0.29262E+07
 
   -0.28482E+07         0.53959E+05         0.00000E+00
    0.53959E+05        -0.11794E+08         0.00000E+00
    0.00000E+00         0.00000E+00        -0.29284E+07
 
   -0.28454E+07         0.13998E+06         0.00000E+00
    0.13998E+06        -0.11808E+08         0.00000E+00
    0.00000E+00         0.00000E+00        -0.29307E+07
 
   -0.28496E+07         0.23854E+06         0.00000E+00
    0.23854E+06        -0.11817E+08         0.00000E+00
    0.00000E+00         0.00000E+00        -0.29333E+07
 
   -0.28629E+07         0.34872E+06         0.00000E+00
    0.34872E+06        -0.11819E+08         0.00000E+00
    0.00000E+00         0.00000E+00        -0.29364E+07
 
   -0.28875E+07         0.46933E+06         0.00000E+00
    0.46933E+06        -0.11814E+08         0.00000E+00
    0.00000E+00         0.00000E+00        -0.29403E+07
 
   -0.29253E+07         0.59882E+06         0.00000E+00
    0.59882E+06        -0.11800E+08         0.00000E+00
    0.00000E+00         0.00000E+00        -0.29451E+07
 
   -0.30114E+07        -0.40527E+05         0.00000E+00
   -0.40527E+05        -0.11796E+08         0.00000E+00
    0.00000E+00         0.00000E+00        -0.29614E+07
 
   -0.30595E+07        -0.10734E+06         0.00000E+00
   -0.10734E+06        -0.11807E+08         0.00000E+00
    0.00000E+00         0.00000E+00        -0.29732E+07
 
   -0.30825E+07        -0.15426E+06         0.00000E+00
   -0.15426E+06        -0.11826E+08         0.00000E+00
    0.00000E+00         0.00000E+00        -0.29816E+07
 
   -0.30865E+07        -0.18106E+06         0.00000E+00
   -0.18106E+06        -0.11850E+08         0.00000E+00
    0.00000E+00         0.00000E+00        -0.29873E+07
 
   -0.30771E+07        -0.18821E+06         0.00000E+00
   -0.18821E+06        -0.11877E+08         0.00000E+00
    0.00000E+00         0.00000E+00        -0.29908E+07
 
   -0.30587E+07        -0.17661E+06         0.00000E+00
   -0.17661E+06        -0.11904E+08         0.00000E+00
    0.00000E+00         0.00000E+00        -0.29926E+07
 
   -0.30353E+07        -0.14732E+06         0.00000E+00
   -0.14732E+06        -0.11931E+08         0.00000E+00
    0.00000E+00         0.00000E+00        -0.29933E+07
 
   -0.30099E+07        -0.10141E+06         0.00000E+00
   -0.10141E+06        -0.11957E+08         0.00000E+00
    0.00000E+00         0.00000E+00        -0.29933E+07
 
   -0.29852E+07        -0.39829E+05         0.00000E+00
   -0.39829E+05        -0.11980E+08         0.00000E+00
    0.00000E+00         0.00000E+00        -0.29930E+07
 
   -0.29637E+07         0.36621E+05         0.00000E+00
    0.36621E+05        -0.12000E+08         0.00000E+00
    0.00000E+00         0.00000E+00        -0.29927E+07
 
   -0.29475E+07         0.12726E+06         0.00000E+00
    0.12726E+06        -0.12016E+08         0.00000E+00
    0.00000E+00         0.00000E+00        -0.29926E+07
 
   -0.29390E+07         0.23144E+06         0.00000E+00
    0.23144E+06        -0.12027E+08         0.00000E+00
    0.00000E+00         0.00000E+00        -0.29931E+07
 
   -0.29407E+07         0.34838E+06         0.00000E+00
    0.34838E+06        -0.12032E+08         0.00000E+00
    0.00000E+00         0.00000E+00        -0.29945E+07
 
   -0.29549E+07         0.47700E+06         0.00000E+00
    0.47700E+06        -0.12030E+08         0.00000E+00
    0.00000E+00         0.00000E+00        -0.29969E+07
 
   -0.29842E+07         0.61578E+06         0.00000E+00
    0.61578E+06        -0.12019E+08         0.00000E+00
    0.00000E+00         0.00000E+00        -0.30007E+07
 
   -0.33029E+07        -0.46827E+05         0.00000E+00
   -0.46827E+05        -0.12005E+08         0.00000E+00
    0.00000E+00         0.00000E+00        -0.30616E+07
 
   -0.33297E+07        -0.12347E+06         0.00000E+00
   -0.12347E+06        -0.12017E+08         0.00000E+00
    0.00000E+00         0.00000E+00        -0.30693E+07
 
   -0.33311E+07        -0.17684E+06         0.00000E+00
   -0.17684E+06        -0.12037E+08         0.00000E+00
    0.00000E+00         0.00000E+00        -0.30735E+07
 
   -0.33139E+07        -0.20729E+06         0.00000E+00
   -0.20729E+06        -0.12061E+08         0.00000E+00
    0.00000E+00         0.00000E+00        -0.30750E+07
 
   -0.32843E+07        -0.21590E+06         0.00000E+00
   -0.21590E+06        -0.12088E+08         0.00000E+00
    0.00000E+00         0.00000E+00        -0.30745E+07
 
   -0.32470E+07        -0.20418E+06         0.00000E+00
   -0.20418E+06        -0.12116E+08         0.00000E+00
    0.00000E+00         0.00000E+00        -0.30725E+07
 
   -0.32060E+07        -0.17367E+06         0.00000E+00
   -0.17367E+06        -0.12142E+08         0.00000E+00
    0.00000E+00         0.00000E+00        -0.30696E+07
 
   -0.31641E+07        -0.12578E+06         0.00000E+00
   -0.12578E+06        -0.12167E+08         0.00000E+00
    0.00000E+00         0.00000E+00        -0.30663E+07
 
   -0.31239E+07        -0.61623E+05         0.00000E+00
   -0.61623E+05        -0.12190E+08         0.00000E+00
    0.00000E+00         0.00000E+00        -0.30628E+07
 
   -0.30875E+07         0.18003E+05         0.00000E+00
    0.18003E+05        -0.12211E+08         0.00000E+00
    0.00000E+00         0.00000E+00        -0.30596E+07
 
   -0.30571E+07         0.11258E+06         0.00000E+00
    0.11258E+06        -0.12228E+08         0.00000E+00
    0.00000E+00         0.00000E+00        -0.30570E+07
 
   -0.30348E+07         0.22169E+06         0.00000E+00
    0.22169E+06        -0.12241E+08         0.00000E+00
    0.00000E+00         0.00000E+00        -0.30552E+07
 
   -0.30235E+07         0.34485E+06         0.00000E+00
    0.34485E+06        -0.12249E+08         0.00000E+00
    0.00000E+00         0.00000E+00        -0.30546E+07
 
   -0.30259E+07         0.48125E+06         0.00000E+00
    0.48125E+06        -0.12251E+08         0.00000E+00
    0.00000E+00         0.00000E+00        -0.30554E+07
 
   -0.30452E+07         0.62946E+06         0.00000E+00
    0.62946E+06        -0.12244E+08         0.00000E+00
    0.00000E+00         0.00000E+00        -0.30578E+07
 
   -0.36189E+07        -0.53490E+05         0.00000E+00
   -0.53490E+05        -0.12227E+08         0.00000E+00
    0.00000E+00         0.00000E+00        -0.31692E+07
 
   -0.36205E+07        -0.14022E+06         0.00000E+00
   -0.14022E+06        -0.12239E+08         0.00000E+00
    0.00000E+00         0.00000E+00        -0.31719E+07
 
   -0.35969E+07        -0.19981E+06         0.00000E+00
   -0.19981E+06        -0.12259E+08         0.00000E+00
    0.00000E+00         0.00000E+00        -0.31712E+07
 
   -0.35560E+07        -0.23340E+06         0.00000E+00
   -0.23340E+06        -0.12283E+08         0.00000E+00
    0.00000E+00         0.00000E+00        -0.31679E+07
 
   -0.35044E+07        -0.24294E+06         0.00000E+00
   -0.24294E+06        -0.12309E+08         0.00000E+00
    0.00000E+00         0.00000E+00        -0.31628E+07
 
   -0.34470E+07        -0.23070E+06         0.00000E+00
   -0.23070E+06        -0.12335E+08         0.00000E+00
    0.00000E+00         0.00000E+00        -0.31565E+07
 
   -0.33876E+07        -0.19887E+06         0.00000E+00
   -0.19887E+06        -0.12360E+08         0.00000E+00
    0.00000E+00         0.00000E+00        -0.31495E+07
 
   -0.33288E+07        -0.14925E+06         0.00000E+00
   -0.14925E+06        -0.12383E+08         0.00000E+00
    0.00000E+00         0.00000E+00        -0.31424E+07
 
   -0.32726E+07        -0.83110E+05         0.00000E+00
   -0.83110E+05        -0.12405E+08         0.00000E+00
    0.00000E+00         0.00000E+00        -0.31355E+07
 
   -0.32208E+07        -0.11684E+04         0.00000E+00
   -0.11684E+04        -0.12425E+08         0.00000E+00
    0.00000E+00         0.00000E+00        -0.31291E+07
 
   -0.31752E+07         0.96307E+05         0.00000E+00
    0.96307E+05        -0.12443E+08         0.00000E+00
    0.00000E+00         0.00000E+00        -0.31236E+07
 
   -0.31380E+07         0.20932E+06         0.00000E+00
    0.20932E+06        -0.12458E+08         0.00000E+00
    0.00000E+00         0.00000E+00        -0.31193E+07
 
   -0.31122E+07         0.33784E+06         0.00000E+00
    0.33784E+06        -0.12470E+08         0.00000E+00
    0.00000E+00         0.00000E+00        -0.31164E+07
 
   -0.31009E+07         0.48151E+06         0.00000E+00
    0.48151E+06        -0.12475E+08         0.00000E+00
    0.00000E+00         0.00000E+00        -0.31152E+07
 
   -0.31084E+07         0.63918E+06         0.00000E+00
    0.63918E+06        -0.12473E+08         0.00000E+00
    0.00000E+00         0.00000E+00        -0.31162E+07
 
   -0.39599E+07        -0.60430E+05         0.00000E+00
   -0.60430E+05        -0.12462E+08         0.00000E+00
    0.00000E+00         0.00000E+00        -0.32843E+07
 
   -0.39320E+07        -0.15721E+06         0.00000E+00
   -0.15721E+06        -0.12474E+08         0.00000E+00
    0.00000E+00         0.00000E+00        -0.32811E+07
 
   -0.38797E+07        -0.22241E+06         0.00000E+00
   -0.22241E+06        -0.12493E+08         0.00000E+00
    0.00000E+00         0.00000E+00        -0.32746E+07
 
   -0.38123E+07        -0.25824E+06         0.00000E+00
   -0.25824E+06        -0.12516E+08         0.00000E+00
    0.00000E+00         0.00000E+00        -0.32657E+07
 
   -0.37369E+07        -0.26785E+06         0.00000E+00
   -0.26785E+06        -0.12540E+08         0.00000E+00
    0.00000E+00         0.00000E+00        -0.32553E+07
 
   -0.36585E+07        -0.25454E+06         0.00000E+00
   -0.25454E+06        -0.12562E+08         0.00000E+00
    0.00000E+00         0.00000E+00        -0.32441E+07
 
   -0.35804E+07        -0.22128E+06         0.00000E+00
   -0.22128E+06        -0.12583E+08         0.00000E+00
    0.00000E+00         0.00000E+00        -0.32327E+07
 
   -0.35046E+07        -0.17030E+06         0.00000E+00
   -0.17030E+06        -0.12603E+08         0.00000E+00
    0.00000E+00         0.00000E+00        -0.32215E+07
 
   -0.34323E+07        -0.10301E+06         0.00000E+00
   -0.10301E+06        -0.12622E+08         0.00000E+00
    0.00000E+00         0.00000E+00        -0.32108E+07
 
   -0.33648E+07        -0.19975E+05         0.00000E+00
   -0.19975E+05        -0.12640E+08         0.00000E+00
    0.00000E+00         0.00000E+00        -0.32010E+07
 
   -0.33034E+07         0.78943E+05         0.00000E+00
    0.78943E+05        -0.12658E+08         0.00000E+00
    0.00000E+00         0.00000E+00        -0.31923E+07
 
   -0.32501E+07         0.19434E+06         0.00000E+00
    0.19434E+06        -0.12675E+08         0.00000E+00
    0.00000E+00         0.00000E+00        -0.31850E+07
 
   -0.32078E+07         0.32691E+06         0.00000E+00
    0.32691E+06        -0.12690E+08         0.00000E+00
    0.00000E+00         0.00000E+00        -0.31795E+07
 
   -0.31806E+07         0.47698E+06         0.00000E+00
    0.47698E+06        -0.12700E+08         0.00000E+00
    0.00000E+00         0.00000E+00        -0.31762E+07
 
   -0.31734E+07         0.64398E+06         0.00000E+00
    0.64398E+06        -0.12703E+08         0.00000E+00
    0.00000E+00         0.00000E+00        -0.31753E+07
 
   -0.43266E+07        -0.67538E+05         0.00000E+00
   -0.67538E+05        -0.12709E+08         0.00000E+00
    0.00000E+00         0.00000E+00        -0.34071E+07
 
   -0.42636E+07        -0.17393E+06         0.00000E+00
   -0.17393E+06        -0.12721E+08         0.00000E+00
    0.00000E+00         0.00000E+00        -0.33969E+07
 
   -0.41785E+07        -0.24356E+06         0.00000E+00
   -0.24356E+06        -0.12739E+08         0.00000E+00
    0.00000E+00         0.00000E+00        -0.33836E+07
 
   -0.40818E+07        -0.28022E+06         0.00000E+00
   -0.28022E+06        -0.12759E+08         0.00000E+00
    0.00000E+00         0.00000E+00        -0.33682E+07
 
   -0.39812E+07        -0.28868E+06         0.00000E+00
   -0.28868E+06        -0.12778E+08         0.00000E+00
    0.00000E+00         0.00000E+00        -0.33519E+07
 
   -0.38814E+07        -0.27359E+06         0.00000E+00
   -0.27359E+06        -0.12795E+08         0.00000E+00
    0.00000E+00         0.00000E+00        -0.33353E+07
 
   -0.37848E+07        -0.23881E+06         0.00000E+00
   -0.23881E+06        -0.12810E+08         0.00000E+00
    0.00000E+00         0.00000E+00        -0.33189E+07
 
   -0.36925E+07        -0.18705E+06         0.00000E+00
   -0.18705E+06        -0.12824E+08         0.00000E+00
    0.00000E+00         0.00000E+00        -0.33032E+07
 
   -0.36047E+07        -0.11978E+06         0.00000E+00
   -0.11978E+06        -0.12838E+08         0.00000E+00
    0.00000E+00         0.00000E+00        -0.32885E+07
 
   -0.35216E+07        -0.37298E+05         0.00000E+00
   -0.37298E+05        -0.12853E+08         0.00000E+00
    0.00000E+00         0.00000E+00        -0.32750E+07
 
   -0.34438E+07         0.61070E+05         0.00000E+00
    0.61070E+05        -0.12870E+08         0.00000E+00
    0.00000E+00         0.00000E+00        -0.32628E+07
 
   -0.33730E+07         0.17674E+06         0.00000E+00
    0.17674E+06        -0.12889E+08         0.00000E+00
    0.00000E+00         0.00000E+00        -0.32523E+07
 
   -0.33121E+07         0.31143E+06         0.00000E+00
    0.31143E+06        -0.12907E+08         0.00000E+00
    0.00000E+00         0.00000E+00        -0.32439E+07
 
   -0.32658E+07         0.46656E+06         0.00000E+00
    0.46656E+06        -0.12923E+08         0.00000E+00
    0.00000E+00         0.00000E+00        -0.32378E+07
 
   -0.32405E+07         0.64247E+06         0.00000E+00
    0.64247E+06        -0.12933E+08         0.00000E+00
    0.00000E+00         0.00000E+00        -0.32347E+07
 
   -0.47189E+07        -0.74675E+05         0.00000E+00
   -0.74675E+05        -0.12970E+08         0.00000E+00
    0.00000E+00         0.00000E+00        -0.35377E+07
 
   -0.46145E+07        -0.18967E+06         0.00000E+00
   -0.18967E+06        -0.12981E+08         0.00000E+00
    0.00000E+00         0.00000E+00        -0.35191E+07
 
   -0.44919E+07        -0.26180E+06         0.00000E+00
   -0.26180E+06        -0.12997E+08         0.00000E+00
    0.00000E+00         0.00000E+00        -0.34977E+07
 
   -0.43633E+07        -0.29719E+06         0.00000E+00
   -0.29719E+06        -0.13011E+08         0.00000E+00
    0.00000E+00         0.00000E+00        -0.34749E+07
 
   -0.42366E+07        -0.30287E+06         0.00000E+00
   -0.30287E+06        -0.13023E+08         0.00000E+00
    0.00000E+00         0.00000E+00        -0.34519E+07
 
   -0.41156E+07        -0.28520E+06         0.00000E+00
   -0.28520E+06        -0.13031E+08         0.00000E+00
    0.00000E+00         0.00000E+00        -0.34293E+07
 
   -0.40015E+07        -0.24898E+06         0.00000E+00
   -0.24898E+06        -0.13037E+08         0.00000E+00
    0.00000E+00         0.00000E+00        -0.34077E+07
 
   -0.38938E+07        -0.19732E+06         0.00000E+00
   -0.19732E+06        -0.13043E+08         0.00000E+00
    0.00000E+00         0.00000E+00        -0.33873E+07
 
   -0.37914E+07        -0.13161E+06         0.00000E+00
   -0.13161E+06        -0.13050E+08         0.00000E+00
    0.00000E+00         0.00000E+00        -0.33683E+07
 
   -0.36933E+07        -0.51830E+05         0.00000E+00
   -0.51830E+05        -0.13061E+08         0.00000E+00
    0.00000E+00         0.00000E+00        -0.33508E+07
 
   -0.35990E+07         0.43390E+05         0.00000E+00
    0.43390E+05        -0.13076E+08         0.00000E+00
    0.00000E+00         0.00000E+00        -0.33349E+07
 
   -0.35094E+07         0.15648E+06         0.00000E+00
    0.15648E+06        -0.13095E+08         0.00000E+00
    0.00000E+00         0.00000E+00        -0.33209E+07
 
   -0.34273E+07         0.29058E+06         0.00000E+00
    0.29058E+06        -0.13118E+08         0.00000E+00
    0.00000E+00         0.00000E+00        -0.33091E+07
 
   -0.33580E+07         0.44871E+06         0.00000E+00
    0.44871E+06        -0.13141E+08         0.00000E+00
    0.00000E+00         0.00000E+00        -0.32999E+07
 
   -0.33097E+07         0.63270E+06         0.00000E+00
    0.63270E+06        -0.13160E+08         0.00000E+00
    0.00000E+00         0.00000E+00        -0.32939E+07
 
   -0.51367E+07        -0.81667E+05         0.00000E+00
   -0.81667E+05        -0.13244E+08         0.00000E+00
    0.00000E+00         0.00000E+00        -0.36761E+07
 
   -0.49829E+07        -0.20338E+06         0.00000E+00
   -0.20338E+06        -0.13253E+08         0.00000E+00
    0.00000E+00         0.00000E+00        -0.36473E+07
 
   -0.48175E+07        -0.27495E+06         0.00000E+00
   -0.27495E+06        -0.13264E+08         0.00000E+00
    0.00000E+00         0.00000E+00        -0.36164E+07
 
   -0.46547E+07        -0.30616E+06         0.00000E+00
   -0.30616E+06        -0.13271E+08         0.00000E+00
    0.00000E+00         0.00000E+00        -0.35851E+07
 
   -0.45019E+07        -0.30716E+06         0.00000E+00
   -0.30716E+06        -0.13272E+08         0.00000E+00
    0.00000E+00         0.00000E+00        -0.35547E+07
 
   -0.43611E+07        -0.28623E+06         0.00000E+00
   -0.28623E+06        -0.13268E+08         0.00000E+00
    0.00000E+00         0.00000E+00        -0.35257E+07
 
   -0.42314E+07        -0.24902E+06         0.00000E+00
   -0.24902E+06        -0.13262E+08         0.00000E+00
    0.00000E+00         0.00000E+00        -0.34986E+07
 
   -0.41103E+07        -0.19873E+06         0.00000E+00
   -0.19873E+06        -0.13257E+08         0.00000E+00
    0.00000E+00         0.00000E+00        -0.34734E+07
 
   -0.39950E+07        -0.13659E+06         0.00000E+00
   -0.13659E+06        -0.13255E+08         0.00000E+00
    0.00000E+00         0.00000E+00        -0.34500E+07
 
   -0.38830E+07        -0.62118E+05         0.00000E+00
   -0.62118E+05        -0.13259E+08         0.00000E+00
    0.00000E+00         0.00000E+00        -0.34284E+07
 
   -0.37724E+07         0.26748E+05         0.00000E+00
    0.26748E+05        -0.13271E+08         0.00000E+00
    0.00000E+00         0.00000E+00        -0.34087E+07
 
   -0.36629E+07         0.13359E+06         0.00000E+00
    0.13359E+06        -0.13291E+08         0.00000E+00
    0.00000E+00         0.00000E+00        -0.33908E+07
 
   -0.35567E+07         0.26332E+06         0.00000E+00
    0.26332E+06        -0.13319E+08         0.00000E+00
    0.00000E+00         0.00000E+00        -0.33750E+07
 
   -0.34595E+07         0.42135E+06         0.00000E+00
    0.42135E+06        -0.13351E+08         0.00000E+00
    0.00000E+00         0.00000E+00        -0.33620E+07
 
   -0.33815E+07         0.61194E+06         0.00000E+00
    0.61194E+06        -0.13381E+08         0.00000E+00
    0.00000E+00         0.00000E+00        -0.33526E+07
 
   -0.55788E+07        -0.88257E+05         0.00000E+00
   -0.88257E+05        -0.13531E+08         0.00000E+00
    0.00000E+00         0.00000E+00        -0.38220E+07
 
   -0.53657E+07        -0.21337E+06         0.00000E+00
   -0.21337E+06        -0.13538E+08         0.00000E+00
    0.00000E+00         0.00000E+00        -0.37808E+07
 
   -0.51519E+07        -0.27970E+06         0.00000E+00
   -0.27970E+06        -0.13541E+08         0.00000E+00
    0.00000E+00         0.00000E+00        -0.37387E+07
 
   -0.49537E+07        -0.30297E+06         0.00000E+00
   -0.30297E+06        -0.13535E+08         0.00000E+00
    0.00000E+00         0.00000E+00        -0.36978E+07
 
   -0.47763E+07        -0.29747E+06         0.00000E+00
   -0.29747E+06        -0.13520E+08         0.00000E+00
    0.00000E+00         0.00000E+00        -0.36593E+07
 
   -0.46184E+07        -0.27322E+06         0.00000E+00
   -0.27322E+06        -0.13500E+08         0.00000E+00
    0.00000E+00         0.00000E+00        -0.36237E+07
 
   -0.44760E+07        -0.23612E+06         0.00000E+00
   -0.23612E+06        -0.13479E+08         0.00000E+00
    0.00000E+00         0.00000E+00        -0.35910E+07
 
   -0.43441E+07        -0.18907E+06         0.00000E+00
   -0.18907E+06        -0.13461E+08         0.00000E+00
    0.00000E+00         0.00000E+00        -0.35610E+07
 
   -0.42182E+07        -0.13288E+06         0.00000E+00
   -0.13288E+06        -0.13449E+08         0.00000E+00
    0.00000E+00         0.00000E+00        -0.35334E+07
 
   -0.40940E+07        -0.66661E+05         0.00000E+00
   -0.66661E+05        -0.13445E+08         0.00000E+00
    0.00000E+00         0.00000E+00        -0.35078E+07
 
   -0.39680E+07         0.12183E+05         0.00000E+00
    0.12183E+05        -0.13452E+08         0.00000E+00
    0.00000E+00         0.00000E+00        -0.34840E+07
 
   -0.38382E+07         0.10826E+06         0.00000E+00
    0.10826E+06        -0.13472E+08         0.00000E+00
    0.00000E+00         0.00000E+00        -0.34620E+07
 
   -0.37049E+07         0.22852E+06         0.00000E+00
    0.22852E+06        -0.13504E+08         0.00000E+00
    0.00000E+00         0.00000E+00        -0.34418E+07
 
   -0.35737E+07         0.38176E+06         0.00000E+00
    0.38176E+06        -0.13548E+08         0.00000E+00
    0.00000E+00         0.00000E+00        -0.34242E+07
 
   -0.34569E+07         0.57635E+06         0.00000E+00
    0.57635E+06        -0.13594E+08         0.00000E+00
    0.00000E+00         0.00000E+00        -0.34101E+07
 
   -0.60432E+07        -0.93997E+05         0.00000E+00
   -0.93997E+05        -0.13833E+08         0.00000E+00
    0.00000E+00         0.00000E+00        -0.39752E+07
 
   -0.57574E+07        -0.21651E+06         0.00000E+00
   -0.21651E+06        -0.13834E+08         0.00000E+00
    0.00000E+00         0.00000E+00        -0.39184E+07
 
   -0.54903E+07        -0.27063E+06         0.00000E+00
   -0.27063E+06        -0.13824E+08         0.00000E+00
    0.00000E+00         0.00000E+00        -0.38628E+07
 
   -0.52580E+07        -0.28189E+06         0.00000E+00
   -0.28189E+06        -0.13798E+08         0.00000E+00
    0.00000E+00         0.00000E+00        -0.38112E+07
 
   -0.50600E+07        -0.26916E+06         0.00000E+00
   -0.26916E+06        -0.13762E+08         0.00000E+00
    0.00000E+00         0.00000E+00        -0.37643E+07
 
   -0.48891E+07        -0.24288E+06         0.00000E+00
   -0.24288E+06        -0.13722E+08         0.00000E+00
    0.00000E+00         0.00000E+00        -0.37222E+07
 
   -0.47375E+07        -0.20805E+06         0.00000E+00
   -0.20805E+06        -0.13684E+08         0.00000E+00
    0.00000E+00         0.00000E+00        -0.36843E+07
 
   -0.45979E+07        -0.16671E+06         0.00000E+00
   -0.16671E+06        -0.13651E+08         0.00000E+00
    0.00000E+00         0.00000E+00        -0.36498E+07
 
   -0.44639E+07        -0.11912E+06         0.00000E+00
   -0.11912E+06        -0.13627E+08         0.00000E+00
    0.00000E+00         0.00000E+00        -0.36182E+07
 
   -0.43299E+07        -0.64132E+05         0.00000E+00
   -0.64132E+05        -0.13614E+08         0.00000E+00
    0.00000E+00         0.00000E+00        -0.35889E+07
 
   -0.41905E+07         0.98683E+03         0.00000E+00
    0.98683E+03        -0.13616E+08         0.00000E+00
    0.00000E+00         0.00000E+00        -0.35612E+07
 
   -0.40409E+07         0.81230E+05         0.00000E+00
    0.81230E+05        -0.13634E+08         0.00000E+00
    0.00000E+00         0.00000E+00        -0.35349E+07
 
   -0.38783E+07         0.18531E+06         0.00000E+00
    0.18531E+06        -0.13671E+08         0.00000E+00
    0.00000E+00         0.00000E+00        -0.35099E+07
 
   -0.37059E+07         0.32653E+06         0.00000E+00
    0.32653E+06        -0.13727E+08         0.00000E+00
    0.00000E+00         0.00000E+00        -0.34866E+07
 
   -0.35377E+07         0.52038E+06         0.00000E+00
    0.52038E+06        -0.13794E+08         0.00000E+00
    0.00000E+00         0.00000E+00        -0.34664E+07
 
   -0.65249E+07        -0.97780E+05         0.00000E+00
   -0.97780E+05        -0.14148E+08         0.00000E+00
    0.00000E+00         0.00000E+00        -0.41345E+07
 
   -0.61489E+07        -0.20623E+06         0.00000E+00
   -0.20623E+06        -0.14138E+08         0.00000E+00
    0.00000E+00         0.00000E+00        -0.40574E+07
 
   -0.58269E+07        -0.23867E+06         0.00000E+00
   -0.23867E+06        -0.14103E+08         0.00000E+00
    0.00000E+00         0.00000E+00        -0.39860E+07
 
   -0.55669E+07        -0.23589E+06         0.00000E+00
   -0.23589E+06        -0.14048E+08         0.00000E+00
    0.00000E+00         0.00000E+00        -0.39230E+07
 
   -0.53549E+07        -0.21821E+06         0.00000E+00
   -0.21821E+06        -0.13986E+08         0.00000E+00
    0.00000E+00         0.00000E+00        -0.38681E+07
 
   -0.51761E+07        -0.19325E+06         0.00000E+00
   -0.19325E+06        -0.13925E+08         0.00000E+00
    0.00000E+00         0.00000E+00        -0.38201E+07
 
   -0.50190E+07        -0.16397E+06         0.00000E+00
   -0.16397E+06        -0.13869E+08         0.00000E+00
    0.00000E+00         0.00000E+00        -0.37776E+07
 
   -0.48746E+07        -0.13127E+06         0.00000E+00
   -0.13127E+06        -0.13822E+08         0.00000E+00
    0.00000E+00         0.00000E+00        -0.37394E+07
 
   -0.47353E+07        -0.94921E+05         0.00000E+00
   -0.94921E+05        -0.13787E+08         0.00000E+00
    0.00000E+00         0.00000E+00        -0.37044E+07
 
   -0.45941E+07        -0.53772E+05         0.00000E+00
   -0.53772E+05        -0.13765E+08         0.00000E+00
    0.00000E+00         0.00000E+00        -0.36719E+07
 
   -0.44441E+07        -0.54830E+04         0.00000E+00
   -0.54830E+04        -0.13760E+08         0.00000E+00
    0.00000E+00         0.00000E+00        -0.36408E+07
 
   -0.42775E+07         0.54312E+05         0.00000E+00
    0.54312E+05        -0.13774E+08         0.00000E+00
    0.00000E+00         0.00000E+00        -0.36104E+07
 
   -0.40860E+07         0.13410E+06         0.00000E+00
    0.13410E+06        -0.13814E+08         0.00000E+00
    0.00000E+00         0.00000E+00        -0.35800E+07
 
   -0.38652E+07         0.25187E+06         0.00000E+00
    0.25187E+06        -0.13884E+08         0.00000E+00
    0.00000E+00         0.00000E+00        -0.35499E+07
 
   -0.36277E+07         0.43578E+06         0.00000E+00
    0.43578E+06        -0.13979E+08         0.00000E+00
    0.00000E+00         0.00000E+00        -0.35214E+07
 
   -0.70123E+07        -0.95541E+05         0.00000E+00
   -0.95541E+05        -0.14474E+08         0.00000E+00
    0.00000E+00         0.00000E+00        -0.42972E+07
 
   -0.65259E+07        -0.16649E+06         0.00000E+00
   -0.16649E+06        -0.14436E+08         0.00000E+00
    0.00000E+00         0.00000E+00        -0.41923E+07
 
   -0.61596E+07        -0.17098E+06         0.00000E+00
   -0.17098E+06        -0.14356E+08         0.00000E+00
    0.00000E+00         0.00000E+00        -0.41032E+07
 
   -0.58845E+07        -0.15984E+06         0.00000E+00
   -0.15984E+06        -0.14266E+08         0.00000E+00
    0.00000E+00         0.00000E+00        -0.40302E+07
 
   -0.56659E+07        -0.14361E+06         0.00000E+00
   -0.14361E+06        -0.14178E+08         0.00000E+00
    0.00000E+00         0.00000E+00        -0.39689E+07
 
   -0.54836E+07        -0.12516E+06         0.00000E+00
   -0.12516E+06        -0.14098E+08         0.00000E+00
    0.00000E+00         0.00000E+00        -0.39163E+07
 
   -0.53241E+07        -0.10533E+06         0.00000E+00
   -0.10533E+06        -0.14028E+08         0.00000E+00
    0.00000E+00         0.00000E+00        -0.38704E+07
 
   -0.51773E+07        -0.84205E+05         0.00000E+00
   -0.84205E+05        -0.13970E+08         0.00000E+00
    0.00000E+00         0.00000E+00        -0.38294E+07
 
   -0.50349E+07        -0.61365E+05         0.00000E+00
   -0.61365E+05        -0.13925E+08         0.00000E+00
    0.00000E+00         0.00000E+00        -0.37920E+07
 
   -0.48893E+07        -0.35961E+05         0.00000E+00
   -0.35961E+05        -0.13896E+08         0.00000E+00
    0.00000E+00         0.00000E+00        -0.37570E+07
 
   -0.47321E+07        -0.64617E+04         0.00000E+00
   -0.64617E+04        -0.13885E+08         0.00000E+00
    0.00000E+00         0.00000E+00        -0.37233E+07
 
   -0.45534E+07         0.29968E+05         0.00000E+00
    0.29968E+05        -0.13895E+08         0.00000E+00
    0.00000E+00         0.00000E+00        -0.36896E+07
 
   -0.43394E+07         0.79144E+05         0.00000E+00
    0.79144E+05        -0.13933E+08         0.00000E+00
    0.00000E+00         0.00000E+00        -0.36545E+07
 
   -0.40681E+07         0.15580E+06         0.00000E+00
    0.15580E+06        -0.14010E+08         0.00000E+00
    0.00000E+00         0.00000E+00        -0.36157E+07
 
   -0.37355E+07         0.30871E+06         0.00000E+00
    0.30871E+06        -0.14143E+08         0.00000E+00
    0.00000E+00         0.00000E+00        -0.35758E+07
 
   -0.74720E+07        -0.60350E+05         0.00000E+00
   -0.60350E+05        -0.14780E+08         0.00000E+00
    0.00000E+00         0.00000E+00        -0.44503E+07
 
   -0.68786E+07        -0.68912E+05         0.00000E+00
   -0.68912E+05        -0.14669E+08         0.00000E+00
    0.00000E+00         0.00000E+00        -0.43096E+07
 
   -0.64993E+07        -0.63242E+05         0.00000E+00
   -0.63242E+05        -0.14546E+08         0.00000E+00
    0.00000E+00         0.00000E+00        -0.42090E+07
 
   -0.62197E+07        -0.56982E+05         0.00000E+00
   -0.56982E+05        -0.14430E+08         0.00000E+00
    0.00000E+00         0.00000E+00        -0.41299E+07
 
   -0.59995E+07        -0.50280E+05         0.00000E+00
   -0.50280E+05        -0.14325E+08         0.00000E+00
    0.00000E+00         0.00000E+00        -0.40649E+07
 
   -0.58164E+07        -0.43409E+05         0.00000E+00
   -0.43409E+05        -0.14233E+08         0.00000E+00
    0.00000E+00         0.00000E+00        -0.40098E+07
 
   -0.56562E+07        -0.36363E+05         0.00000E+00
   -0.36363E+05        -0.14154E+08         0.00000E+00
    0.00000E+00         0.00000E+00        -0.39620E+07
 
   -0.55085E+07        -0.29040E+05         0.00000E+00
   -0.29040E+05        -0.14089E+08         0.00000E+00
    0.00000E+00         0.00000E+00        -0.39196E+07
 
   -0.53648E+07        -0.21245E+05         0.00000E+00
   -0.21245E+05        -0.14040E+08         0.00000E+00
    0.00000E+00         0.00000E+00        -0.38809E+07
 
   -0.52171E+07        -0.12665E+05         0.00000E+00
   -0.12665E+05        -0.14006E+08         0.00000E+00
    0.00000E+00         0.00000E+00        -0.38447E+07
 
   -0.50564E+07        -0.27742E+04         0.00000E+00
   -0.27742E+04        -0.13991E+08         0.00000E+00
    0.00000E+00         0.00000E+00        -0.38095E+07
 
   -0.48716E+07         0.93698E+04         0.00000E+00
    0.93698E+04        -0.13998E+08         0.00000E+00
    0.00000E+00         0.00000E+00        -0.37740E+07
 
   -0.46453E+07         0.25810E+05         0.00000E+00
    0.25810E+05        -0.14034E+08         0.00000E+00
    0.00000E+00         0.00000E+00        -0.37358E+07
 
   -0.43464E+07         0.51190E+05         0.00000E+00
    0.51190E+05        -0.14111E+08         0.00000E+00
    0.00000E+00         0.00000E+00        -0.36914E+07
 
   -0.38835E+07         0.11617E+06         0.00000E+00
    0.11617E+06        -0.14268E+08         0.00000E+00
    0.00000E+00         0.00000E+00        -0.36303E+07
 
TENSORS stresstot double 
   -0.50859E+08         0.93060E+01         0.00000E+00
    0.93060E+01        -0.60000E+08         0.00000E+00
    0.00000E+00         0.00000E+00        -0.52190E+08
 
   -0.51001E+08         0.56037E+02         0.00000E+00
    0.56037E+02        -0.60000E+08         0.00000E+00
    0.00000E+00         0.00000E+00        -0.52219E+08
 
   -0.51137E+08         0.20010E+03         0.00000E+00
    0.20010E+03        -0.60000E+08         0.00000E+00
    0.00000E+00         0.00000E+00        -0.52246E+08
 
   -0.51265E+08         0.50305E+03         0.00000E+00
    0.50305E+03        -0.59999E+08         0.00000E+00
    0.00000E+00         0.00000E+00        -0.52271E+08
 
   -0.51387E+08         0.10144E+04         0.00000E+00
    0.10144E+04        -0.59998E+08         0.00000E+00
    0.00000E+00         0.00000E+00        -0.52295E+08
 
   -0.51503E+08         0.17720E+04         0.00000E+00
    0.17720E+04        -0.59995E+08         0.00000E+00
    0.00000E+00         0.00000E+00        -0.52318E+08
 
   -0.51613E+08         0.28029E+04         0.00000E+00
    0.28029E+04        -0.59990E+08         0.00000E+00
    0.00000E+00         0.00000E+00        -0.52339E+08
 
   -0.51720E+08         0.41243E+04         0.00000E+00
    0.41243E+04        -0.59984E+08         0.00000E+00
    0.00000E+00         0.00000E+00        -0.52359E+08
 
   -0.51823E+08         0.57446E+04         0.00000E+00
    0.57446E+04        -0.59974E+08         0.00000E+00
    0.00000E+00         0.00000E+00        -0.52378E+08
 
   -0.51924E+08         0.76642E+04         0.00000E+00
    0.76642E+04        -0.59960E+08         0.00000E+00
    0.00000E+00         0.00000E+00        -0.52395E+08
 
   -0.52023E+08         0.98776E+04         0.00000E+00
    0.98776E+04        -0.59943E+08         0.00000E+00
    0.00000E+00         0.00000E+00        -0.52412E+08
 
   -0.52121E+08         0.12374E+05         0.00000E+00
    0.12374E+05        -0.59921E+08         0.00000E+00
    0.00000E+00         0.00000E+00        -0.52427E+08
 
   -0.52220E+08         0.15138E+05         0.00000E+00
    0.15138E+05        -0.59893E+08         0.00000E+00
    0.00000E+00         0.00000E+00        -0.52441E+08
 
   -0.52320E+08         0.18154E+05         0.00000E+00
    0.18154E+05        -0.59860E+08         0.00000E+00
    0.00000E+00         0.00000E+00        -0.52454E+08
 
   -0.52422E+08         0.21405E+05         0.00000E+00
    0.21405E+05        -0.59820E+08         0.00000E+00
    0.00000E+00         0.00000E+00        -0.52467E+08
 
   -0.50859E+08         0.81982E+01         0.00000E+00
    0.81982E+01        -0.60000E+08         0.00000E+00
    0.00000E+00         0.00000E+00        -0.52184E+08
 
   -0.51001E+08         0.11354E+03         0.00000E+00
    0.11354E+03        -0.60000E+08         0.00000E+00
    0.00000E+00         0.00000E+00        -0.52213E+08
 
   -0.51136E+08         0.51712E+03         0.00000E+00
    0.51712E+03        -0.60000E+08         0.00000E+00
    0.00000E+00         0.00000E+00        -0.52240E+08
 
   -0.51264E+08         0.14035E+04         0.00000E+00
    0.14035E+04        -0.60000E+08         0.00000E+00
    0.00000E+00         0.00000E+00        -0.52265E+08
 
   -0.51386E+08         0.29208E+04         0.00000E+00
    0.29208E+04        -0.59998E+08         0.00000E+00
    0.00000E+00         0.00000E+00        -0.52289E+08
 
   -0.51501E+08         0.51823E+04         0.00000E+00
    0.51823E+04        -0.59996E+08         0.00000E+00
    0.00000E+00         0.00000E+00        -0.52312E+08
 
   -0.51611E+08         0.82686E+04         0.00000E+00
    0.82686E+04        -0.59992E+08         0.00000E+00
    0.00000E+00         0.00000E+00        -0.52333E+08
 
   -0.51717E+08         0.12231E+05         0.00000E+00
    0.12231E+05        -0.59985E+08         0.00000E+00
    0.00000E+00         0.00000E+00        -0.52353E+08
 
   -0.51819E+08         0.17093E+05         0.00000E+00
    0.17093E+05        -0.59975E+08         0.00000E+00
    0.00000E+00         0.00000E+00        -0.52371E+08
 
   -0.51920E+08         0.22856E+05         0.00000E+00
    0.22856E+05        -0.59962E+08         0.00000E+00
    0.00000E+00         0.00000E+00        -0.52389E+08
 
   -0.52018E+08         0.29503E+05         0.00000E+00
    0.29503E+05        -0.59945E+08         0.00000E+00
    0.00000E+00         0.00000E+00        -0.52405E+08
 
   -0.52116E+08         0.36999E+05         0.00000E+00
    0.36999E+05        -0.59923E+08         0.00000E+00
    0.00000E+00         0.00000E+00        -0.52420E+08
 
   -0.52214E+08         0.45302E+05         0.00000E+00
    0.45302E+05        -0.59896E+08         0.00000E+00
    0.00000E+00         0.00000E+00        -0.52434E+08
 
   -0.52314E+08         0.54359E+05         0.00000E+00
    0.54359E+05        -0.59863E+08         0.00000E+00
    0.00000E+00         0.00000E+00        -0.52448E+08
 
   -0.52415E+08         0.64119E+05         0.00000E+00
    0.64119E+05        -0.59824E+08         0.00000E+00
    0.00000E+00         0.00000E+00        -0.52460E+08
 
   -0.50859E+08        -0.52159E+02         0.00000E+00
   -0.52159E+02        -0.60000E+08         0.00000E+00
    0.00000E+00         0.00000E+00        -0.52172E+08
 
   -0.51001E+08         0.71641E+01         0.00000E+00
    0.71641E+01        -0.60000E+08         0.00000E+00
    0.00000E+00         0.00000E+00        -0.52200E+08
 
   -0.51136E+08         0.58447E+03         0.00000E+00
    0.58447E+03        -0.60000E+08         0.00000E+00
    0.00000E+00         0.00000E+00        -0.52227E+08
 
   -0.51263E+08         0.19869E+04         0.00000E+00
    0.19869E+04        -0.60000E+08         0.00000E+00
    0.00000E+00         0.00000E+00        -0.52252E+08
 
   -0.51383E+08         0.44603E+04         0.00000E+00
    0.44603E+04        -0.60000E+08         0.00000E+00
    0.00000E+00         0.00000E+00        -0.52276E+08
 
   -0.51497E+08         0.81920E+04         0.00000E+00
    0.81920E+04        -0.59998E+08         0.00000E+00
    0.00000E+00         0.00000E+00        -0.52299E+08
 
   -0.51606E+08         0.13315E+05         0.00000E+00
    0.13315E+05        -0.59994E+08         0.00000E+00
    0.00000E+00         0.00000E+00        -0.52320E+08
 
   -0.51711E+08         0.19911E+05         0.00000E+00
    0.19911E+05        -0.59988E+08         0.00000E+00
    0.00000E+00         0.00000E+00        -0.52340E+08
 
   -0.51812E+08         0.28019E+05         0.00000E+00
    0.28019E+05        -0.59979E+08         0.00000E+00
    0.00000E+00         0.00000E+00        -0.52358E+08
 
   -0.51911E+08         0.37640E+05         0.00000E+00
    0.37640E+05        -0.59966E+08         0.00000E+00
    0.00000E+00         0.00000E+00        -0.52375E+08
 
   -0.52009E+08         0.48739E+05         0.00000E+00
    0.48739E+05        -0.59950E+08         0.00000E+00
    0.00000E+00         0.00000E+00        -0.52392E+08
 
   -0.52106E+08         0.61260E+05         0.00000E+00
    0.61260E+05        -0.59928E+08         0.00000E+00
    0.00000E+00         0.00000E+00        -0.52407E+08
 
   -0.52203E+08         0.75127E+05         0.00000E+00
    0.75127E+05        -0.59901E+08         0.00000E+00
    0.00000E+00         0.00000E+00        -0.52421E+08
 
   -0.52301E+08         0.90251E+05         0.00000E+00
    0.90251E+05        -0.59869E+08         0.00000E+00
    0.00000E+00         0.00000E+00        -0.52434E+08
 
   -0.52401E+08         0.10654E+06         0.00000E+00
    0.10654E+06        -0.59830E+08         0.00000E+00
    0.00000E+00         0.00000E+00        -0.52446E+08
 
   -0.50859E+08        -0.21155E+03         0.00000E+00
   -0.21155E+03        -0.60000E+08         0.00000E+00
    0.00000E+00         0.00000E+00        -0.52153E+08
 
   -0.51001E+08        -0.37283E+03         0.00000E+00
   -0.37283E+03        -0.60001E+08         0.00000E+00
    0.00000E+00         0.00000E+00        -0.52181E+08
 
   -0.51135E+08         0.23536E+03         0.00000E+00
    0.23536E+03        -0.60001E+08         0.00000E+00
    0.00000E+00         0.00000E+00        -0.52208E+08
 
   -0.51261E+08         0.20420E+04         0.00000E+00
    0.20420E+04        -0.60002E+08         0.00000E+00
    0.00000E+00         0.00000E+00        -0.52234E+08
 
   -0.51379E+08         0.53890E+04         0.00000E+00
    0.53890E+04        -0.60002E+08         0.00000E+00
    0.00000E+00         0.00000E+00        -0.52257E+08
 
   -0.51492E+08         0.10535E+05         0.00000E+00
    0.10535E+05        -0.60000E+08         0.00000E+00
    0.00000E+00         0.00000E+00        -0.52280E+08
 
   -0.51599E+08         0.17663E+05         0.00000E+00
    0.17663E+05        -0.59997E+08         0.00000E+00
    0.00000E+00         0.00000E+00        -0.52301E+08
 
   -0.51702E+08         0.26883E+05         0.00000E+00
    0.26883E+05        -0.59992E+08         0.00000E+00
    0.00000E+00         0.00000E+00        -0.52320E+08
 
   -0.51802E+08         0.38245E+05         0.00000E+00
    0.38245E+05        -0.59984E+08         0.00000E+00
    0.00000E+00         0.00000E+00        -0.52338E+08
 
   -0.51899E+08         0.51744E+05         0.00000E+00
    0.51744E+05        -0.59972E+08         0.00000E+00
    0.00000E+00         0.00000E+00        -0.52355E+08
 
   -0.51994E+08         0.67330E+05         0.00000E+00
    0.67330E+05        -0.59957E+08         0.00000E+00
    0.00000E+00         0.00000E+00        -0.52371E+08
 
   -0.52090E+08         0.84916E+05         0.00000E+00
    0.84916E+05        -0.59936E+08         0.00000E+00
    0.00000E+00         0.00000E+00        -0.52386E+08
 
   -0.52185E+08         0.10439E+06         0.00000E+00
    0.10439E+06        -0.59910E+08         0.00000E+00
    0.00000E+00         0.00000E+00        -0.52400E+08
 
   -0.52282E+08         0.12563E+06         0.00000E+00
    0.12563E+06        -0.59878E+08         0.00000E+00
    0.00000E+00         0.00000E+00        -0.52413E+08
 
   -0.52381E+08         0.14849E+06         0.00000E+00
    0.14849E+06        -0.59839E+08         0.00000E+00
    0.00000E+00         0.00000E+00        -0.52425E+08
 
   -0.50859E+08        -0.51015E+03         0.00000E+00
   -0.51015E+03        -0.60000E+08         0.00000E+00
    0.00000E+00         0.00000E+00        -0.52128E+08
 
   -0.51001E+08        -0.11368E+04         0.00000E+00
   -0.11368E+04        -0.60001E+08         0.00000E+00
    0.00000E+00         0.00000E+00        -0.52157E+08
 
   -0.51133E+08        -0.69729E+03         0.00000E+00
   -0.69729E+03        -0.60002E+08         0.00000E+00
    0.00000E+00         0.00000E+00        -0.52183E+08
 
   -0.51258E+08         0.13578E+04         0.00000E+00
    0.13578E+04        -0.60003E+08         0.00000E+00
    0.00000E+00         0.00000E+00        -0.52208E+08
 
   -0.51375E+08         0.54638E+04         0.00000E+00
    0.54638E+04        -0.60004E+08         0.00000E+00
    0.00000E+00         0.00000E+00        -0.52232E+08
 
   -0.51485E+08         0.11948E+05         0.00000E+00
    0.11948E+05        -0.60004E+08         0.00000E+00
    0.00000E+00         0.00000E+00        -0.52254E+08
 
   -0.51590E+08         0.21037E+05         0.00000E+00
    0.21037E+05        -0.60002E+08         0.00000E+00
    0.00000E+00         0.00000E+00        -0.52275E+08
 
   -0.51690E+08         0.32867E+05         0.00000E+00
    0.32867E+05        -0.59998E+08         0.00000E+00
    0.00000E+00         0.00000E+00        -0.52294E+08
 
   -0.51787E+08         0.47493E+05         0.00000E+00
    0.47493E+05        -0.59991E+08         0.00000E+00
    0.00000E+00         0.00000E+00        -0.52312E+08
 
   -0.51882E+08         0.64902E+05         0.00000E+00
    0.64902E+05        -0.59980E+08         0.00000E+00
    0.00000E+00         0.00000E+00        -0.52329E+08
 
   -0.51975E+08         0.85021E+05         0.00000E+00
    0.85021E+05        -0.59966E+08         0.00000E+00
    0.00000E+00         0.00000E+00        -0.52344E+08
 
   -0.52068E+08         0.10773E+06         0.00000E+00
    0.10773E+06        -0.59946E+08         0.00000E+00
    0.00000E+00         0.00000E+00        -0.52359E+08
 
   -0.52162E+08         0.13287E+06         0.00000E+00
    0.13287E+06        -0.59921E+08         0.00000E+00
    0.00000E+00         0.00000E+00        -0.52373E+08
 
   -0.52257E+08         0.16028E+06         0.00000E+00
    0.16028E+06        -0.59890E+08         0.00000E+00
    0.00000E+00         0.00000E+00        -0.52386E+08
 
   -0.52354E+08         0.18977E+06         0.00000E+00
    0.18977E+06        -0.59852E+08         0.00000E+00
    0.00000E+00         0.00000E+00        -0.52397E+08
 
   -0.50861E+08        -0.98859E+03         0.00000E+00
   -0.98859E+03        -0.60000E+08         0.00000E+00
    0.00000E+00         0.00000E+00        -0.52097E+08
 
   -0.51001E+08        -0.23957E+04         0.00000E+00
   -0.23957E+04        -0.60001E+08         0.00000E+00
    0.00000E+00         0.00000E+00        -0.52126E+08
 
   -0.51132E+08        -0.23806E+04         0.00000E+00
   -0.23806E+04        -0.60003E+08         0.00000E+00
    0.00000E+00         0.00000E+00        -0.52152E+08
 
   -0.51255E+08        -0.27574E+03         0.00000E+00
   -0.27574E+03        -0.60005E+08         0.00000E+00
    0.00000E+00         0.00000E+00        -0.52177E+08
 
   -0.51369E+08         0.44438E+04         0.00000E+00
    0.44438E+04        -0.60007E+08         0.00000E+00
    0.00000E+00         0.00000E+00        -0.52200E+08
 
   -0.51477E+08         0.12168E+05         0.00000E+00
    0.12168E+05        -0.60008E+08         0.00000E+00
    0.00000E+00         0.00000E+00        -0.52222E+08
 
   -0.51578E+08         0.23165E+05         0.00000E+00
    0.23165E+05        -0.60008E+08         0.00000E+00
    0.00000E+00         0.00000E+00        -0.52242E+08
 
   -0.51676E+08         0.37588E+05         0.00000E+00
    0.37588E+05        -0.60005E+08         0.00000E+00
    0.00000E+00         0.00000E+00        -0.52261E+08
 
   -0.51770E+08         0.55494E+05         0.00000E+00
    0.55494E+05        -0.60000E+08         0.00000E+00
    0.00000E+00         0.00000E+00        -0.52279E+08
 
   -0.51861E+08         0.76853E+05         0.00000E+00
    0.76853E+05        -0.59990E+08         0.00000E+00
    0.00000E+00         0.00000E+00        -0.52295E+08
 
   -0.51952E+08         0.10156E+06         0.00000E+00
    0.10156E+06        -0.59977E+08         0.00000E+00
    0.00000E+00         0.00000E+00        -0.52311E+08
 
   -0.52042E+08         0.12947E+06         0.00000E+00
    0.12947E+06        -0.59958E+08         0.00000E+00
    0.00000E+00         0.00000E+00        -0.52325E+08
 
   -0.52133E+08         0.16037E+06         0.00000E+00
    0.16037E+06        -0.59934E+08         0.00000E+00
    0.00000E+00         0.00000E+00        -0.52338E+08
 
   -0.52225E+08         0.19403E+06         0.00000E+00
    0.19403E+06        -0.59904E+08         0.00000E+00
    0.00000E+00         0.00000E+00        -0.52351E+08
 
   -0.52320E+08         0.23021E+06         0.00000E+00
    0.23021E+06        -0.59868E+08         0.00000E+00
    0.00000E+00         0.00000E+00        -0.52363E+08
 
   -0.50863E+08        -0.16879E+04         0.00000E+00
   -0.16879E+04        -0.60000E+08         0.00000E+00
    0.00000E+00         0.00000E+00        -0.52060E+08
 
   -0.51003E+08        -0.42608E+04         0.00000E+00
   -0.42608E+04        -0.60002E+08         0.00000E+00
    0.00000E+00         0.00000E+00        -0.52088E+08
 
   -0.51132E+08        -0.49811E+04         0.00000E+00
   -0.49811E+04        -0.60005E+08         0.00000E+00
    0.00000E+00         0.00000E+00        -0.52115E+08
 
   -0.51251E+08        -0.30665E+04         0.00000E+00
   -0.30665E+04        -0.60008E+08         0.00000E+00
    0.00000E+00         0.00000E+00        -0.52139E+08
 
   -0.51362E+08         0.20918E+04         0.00000E+00
    0.20918E+04        -0.60011E+08         0.00000E+00
    0.00000E+00         0.00000E+00        -0.52162E+08
 
   -0.51466E+08         0.10941E+05         0.00000E+00
    0.10941E+05        -0.60014E+08         0.00000E+00
    0.00000E+00         0.00000E+00        -0.52184E+08
 
   -0.51565E+08         0.23781E+05         0.00000E+00
    0.23781E+05        -0.60015E+08         0.00000E+00
    0.00000E+00         0.00000E+00        -0.52203E+08
 
   -0.51658E+08         0.40779E+05         0.00000E+00
    0.40779E+05        -0.60014E+08         0.00000E+00
    0.00000E+00         0.00000E+00        -0.52222E+08
 
   -0.51748E+08         0.61983E+05         0.00000E+00
    0.61983E+05        -0.60010E+08         0.00000E+00
    0.00000E+00         0.00000E+00        -0.52239E+08
 
   -0.51836E+08         0.87343E+05         0.00000E+00
    0.87343E+05        -0.60002E+08         0.00000E+00
    0.00000E+00         0.00000E+00        -0.52255E+08
 
   -0.51923E+08         0.11672E+06         0.00000E+00
    0.11672E+06        -0.59990E+08         0.00000E+00
    0.00000E+00         0.00000E+00        -0.52270E+08
 
   -0.52010E+08         0.14991E+06         0.00000E+00
    0.14991E+06        -0.59973E+08         0.00000E+00
    0.00000E+00         0.00000E+00        -0.52284E+08
 
   -0.52097E+08         0.18666E+06         0.00000E+00
    0.18666E+06        -0.59951E+08         0.00000E+00
    0.00000E+00         0.00000E+00        -0.52297E+08
 
   -0.52187E+08         0.22667E+06         0.00000E+00
    0.22667E+06        -0.59922E+08         0.00000E+00
    0.00000E+00         0.00000E+00        -0.52309E+08
 
   -0.52279E+08         0.26964E+06         0.00000E+00
    0.26964E+06        -0.59886E+08         0.00000E+00
    0.00000E+00         0.00000E+00        -0.52321E+08
 
   -0.50867E+08        -0.26494E+04         0.00000E+00
   -0.26494E+04        -0.60001E+08         0.00000E+00
    0.00000E+00         0.00000E+00        -0.52017E+08
 
   -0.51005E+08        -0.68431E+04         0.00000E+00
   -0.68431E+04        -0.60003E+08         0.00000E+00
    0.00000E+00         0.00000E+00        -0.52045E+08
 
   -0.51131E+08        -0.86632E+04         0.00000E+00
   -0.86632E+04        -0.60006E+08         0.00000E+00
    0.00000E+00         0.00000E+00        -0.52071E+08
 
   -0.51248E+08        -0.72185E+04         0.00000E+00
   -0.72185E+04        -0.60011E+08         0.00000E+00
    0.00000E+00         0.00000E+00        -0.52095E+08
 
   -0.51355E+08        -0.18231E+04         0.00000E+00
   -0.18231E+04        -0.60016E+08         0.00000E+00
    0.00000E+00         0.00000E+00        -0.52118E+08
 
   -0.51455E+08         0.80187E+04         0.00000E+00
    0.80187E+04        -0.60020E+08         0.00000E+00
    0.00000E+00         0.00000E+00        -0.52139E+08
 
   -0.51549E+08         0.22630E+05         0.00000E+00
    0.22630E+05        -0.60023E+08         0.00000E+00
    0.00000E+00         0.00000E+00        -0.52158E+08
 
   -0.51638E+08         0.42182E+05         0.00000E+00
    0.42182E+05        -0.60024E+08         0.00000E+00
    0.00000E+00         0.00000E+00        -0.52176E+08
 
   -0.51723E+08         0.66708E+05         0.00000E+00
    0.66708E+05        -0.60022E+08         0.00000E+00
    0.00000E+00         0.00000E+00        -0.52193E+08
 
   -0.51806E+08         0.96126E+05         0.00000E+00
    0.96126E+05        -0.60016E+08         0.00000E+00
    0.00000E+00         0.00000E+00        -0.52208E+08
 
   -0.51889E+08         0.13026E+06         0.00000E+00
    0.13026E+06        -0.60006E+08         0.00000E+00
    0.00000E+00         0.00000E+00        -0.52223E+08
 
   -0.51972E+08         0.16884E+06         0.00000E+00
    0.16884E+06        -0.59991E+08         0.00000E+00
    0.00000E+00         0.00000E+00        -0.52236E+08
 
   -0.52056E+08         0.21155E+06         0.00000E+00
    0.21155E+06        -0.59970E+08         0.00000E+00
    0.00000E+00         0.00000E+00        -0.52249E+08
 
   -0.52142E+08         0.25804E+06         0.00000E+00
    0.25804E+06        -0.59942E+08         0.00000E+00
    0.00000E+00         0.00000E+00        -0.52261E+08
 
   -0.52231E+08         0.30791E+06         0.00000E+00
    0.30791E+06        -0.59908E+08         0.00000E+00
    0.00000E+00         0.00000E+00        -0.52272E+08
 
   -0.50873E+08        -0.39143E+04         0.00000E+00
   -0.39143E+04        -0.60001E+08         0.00000E+00
    0.00000E+00         0.00000E+00        -0.51968E+08
 
   -0.51009E+08        -0.10252E+05         0.00000E+00
   -0.10252E+05        -0.60003E+08         0.00000E+00
    0.00000E+00         0.00000E+00        -0.51996E+08
 
   -0.51132E+08        -0.13588E+05         0.00000E+00
   -0.13588E+05        -0.60008E+08         0.00000E+00
    0.00000E+00         0.00000E+00        -0.52022E+08
 
   -0.51245E+08        -0.12928E+05         0.00000E+00
   -0.12928E+05        -0.60014E+08         0.00000E+00
    0.00000E+00         0.00000E+00        -0.52045E+08
 
   -0.51347E+08        -0.75221E+04         0.00000E+00
   -0.75221E+04        -0.60021E+08         0.00000E+00
    0.00000E+00         0.00000E+00        -0.52067E+08
 
   -0.51442E+08         0.31652E+04         0.00000E+00
    0.31652E+04        -0.60027E+08         0.00000E+00
    0.00000E+00         0.00000E+00        -0.52087E+08
 
   -0.51530E+08         0.19470E+05         0.00000E+00
    0.19470E+05        -0.60032E+08         0.00000E+00
    0.00000E+00         0.00000E+00        -0.52106E+08
 
   -0.51614E+08         0.41555E+05         0.00000E+00
    0.41555E+05        -0.60035E+08         0.00000E+00
    0.00000E+00         0.00000E+00        -0.52123E+08
 
   -0.51694E+08         0.69430E+05         0.00000E+00
    0.69430E+05        -0.60035E+08         0.00000E+00
    0.00000E+00         0.00000E+00        -0.52139E+08
 
   -0.51772E+08         0.10297E+06         0.00000E+00
    0.10297E+06        -0.60032E+08         0.00000E+00
    0.00000E+00         0.00000E+00        -0.52154E+08
 
   -0.51850E+08         0.14196E+06         0.00000E+00
    0.14196E+06        -0.60023E+08         0.00000E+00
    0.00000E+00         0.00000E+00        -0.52168E+08
 
   -0.51928E+08         0.18605E+06         0.00000E+00
    0.18605E+06        -0.60010E+08         0.00000E+00
    0.00000E+00         0.00000E+00        -0.52181E+08
 
   -0.52008E+08         0.23487E+06         0.00000E+00
    0.23487E+06        -0.59991E+08         0.00000E+00
    0.00000E+00         0.00000E+00        -0.52193E+08
 
   -0.52091E+08         0.28796E+06         0.00000E+00
    0.28796E+06        -0.59965E+08         0.00000E+00
    0.00000E+00         0.00000E+00        -0.52204E+08
 
   -0.52176E+08         0.34486E+06         0.00000E+00
    0.34486E+06        -0.59932E+08         0.00000E+00
    0.00000E+00         0.00000E+00        -0.52215E+08
 
   -0.50882E+08        -0.55233E+04         0.00000E+00
   -0.55233E+04        -0.60001E+08         0.00000E+00
    0.00000E+00         0.00000E+00        -0.51913E+08
 
   -0.51015E+08        -0.14594E+05         0.00000E+00
   -0.14594E+05        -0.60004E+08         0.00000E+00
    0.00000E+00         0.00000E+00        -0.51941E+08
 
   -0.51134E+08        -0.19908E+05         0.00000E+00
   -0.19908E+05        -0.60010E+08         0.00000E+00
    0.00000E+00         0.00000E+00        -0.51966E+08
 
   -0.51242E+08        -0.20383E+05         0.00000E+00
   -0.20383E+05        -0.60018E+08         0.00000E+00
    0.00000E+00         0.00000E+00        -0.51989E+08
 
   -0.51339E+08        -0.15211E+05         0.00000E+00
   -0.15211E+05        -0.60027E+08         0.00000E+00
    0.00000E+00         0.00000E+00        -0.52010E+08
 
   -0.51428E+08        -0.38369E+04         0.00000E+00
   -0.38369E+04        -0.60035E+08         0.00000E+00
    0.00000E+00         0.00000E+00        -0.52029E+08
 
   -0.51510E+08         0.14078E+05         0.00000E+00
    0.14078E+05        -0.60042E+08         0.00000E+00
    0.00000E+00         0.00000E+00        -0.52047E+08
 
   -0.51588E+08         0.38675E+05         0.00000E+00
    0.38675E+05        -0.60048E+08         0.00000E+00
    0.00000E+00         0.00000E+00        -0.52064E+08
 
   -0.51662E+08         0.69929E+05         0.00000E+00
    0.69929E+05        -0.60050E+08         0.00000E+00
    0.00000E+00         0.00000E+00        -0.52079E+08
 
   -0.51734E+08         0.10767E+06         0.00000E+00
    0.10767E+06        -0.60049E+08         0.00000E+00
    0.00000E+00         0.00000E+00        -0.52093E+08
 
   -0.51806E+08         0.15161E+06         0.00000E+00
    0.15161E+06        -0.60043E+08         0.00000E+00
    0.00000E+00         0.00000E+00        -0.52106E+08
 
   -0.51879E+08         0.20136E+06         0.00000E+00
    0.20136E+06        -0.60031E+08         0.00000E+00
    0.00000E+00         0.00000E+00        -0.52119E+08
 
   -0.51954E+08         0.25643E+06         0.00000E+00
    0.25643E+06        -0.60014E+08         0.00000E+00
    0.00000E+00         0.00000E+00        -0.52130E+08
 
   -0.52032E+08         0.31629E+06         0.00000E+00
    0.31629E+06        -0.59990E+08         0.00000E+00
    0.00000E+00         0.00000E+00        -0.52141E+08
 
   -0.52114E+08         0.38037E+06         0.00000E+00
    0.38037E+06        -0.59959E+08         0.00000E+00
    0.00000E+00         0.00000E+00        -0.52151E+08
 
   -0.50895E+08        -0.75159E+04         0.00000E+00
   -0.75159E+04        -0.60001E+08         0.00000E+00
    0.00000E+00         0.00000E+00        -0.51853E+08
 
   -0.51024E+08        -0.19971E+05         0.00000E+00
   -0.19971E+05        -0.60005E+08         0.00000E+00
    0.00000E+00         0.00000E+00        -0.51879E+08
 
   -0.51138E+08        -0.27768E+05         0.00000E+00
   -0.27768E+05        -0.60012E+08         0.00000E+00
    0.00000E+00         0.00000E+00        -0.51904E+08
 
   -0.51240E+08        -0.29751E+05         0.00000E+00
   -0.29751E+05        -0.60022E+08         0.00000E+00
    0.00000E+00         0.00000E+00        -0.51926E+08
 
   -0.51331E+08        -0.25077E+05         0.00000E+00
   -0.25077E+05        -0.60033E+08         0.00000E+00
    0.00000E+00         0.00000E+00        -0.51946E+08
 
   -0.51413E+08        -0.13180E+05         0.00000E+00
   -0.13180E+05        -0.60044E+08         0.00000E+00
    0.00000E+00         0.00000E+00        -0.51965E+08
 
   -0.51488E+08         0.62578E+04         0.00000E+00
    0.62578E+04        -0.60053E+08         0.00000E+00
    0.00000E+00         0.00000E+00        -0.51982E+08
 
   -0.51558E+08         0.33347E+05         0.00000E+00
    0.33347E+05        -0.60061E+08         0.00000E+00
    0.00000E+00         0.00000E+00        -0.51997E+08
 
   -0.51625E+08         0.68014E+05         0.00000E+00
    0.68014E+05        -0.60066E+08         0.00000E+00
    0.00000E+00         0.00000E+00        -0.52012E+08
 
   -0.51691E+08         0.11003E+06         0.00000E+00
    0.11003E+06        -0.60067E+08         0.00000E+00
    0.00000E+00         0.00000E+00        -0.52025E+08
 
   -0.51756E+08         0.15904E+06         0.00000E+00
    0.15904E+06        -0.60064E+08         0.00000E+00
    0.00000E+00         0.00000E+00        -0.52037E+08
 
   -0.51823E+08         0.21458E+06         0.00000E+00
    0.21458E+06        -0.60055E+08         0.00000E+00
    0.00000E+00         0.00000E+00        -0.52049E+08
 
   -0.51893E+08         0.27607E+06         0.00000E+00
    0.27607E+06        -0.60039E+08         0.00000E+00
    0.00000E+00         0.00000E+00        -0.52060E+08
 
   -0.51966E+08         0.34287E+06         0.00000E+00
    0.34287E+06        -0.60017E+08         0.00000E+00
    0.00000E+00         0.00000E+00        -0.52070E+08
 
   -0.52044E+08         0.41431E+06         0.00000E+00
    0.41431E+06        -0.59988E+08         0.00000E+00
    0.00000E+00         0.00000E+00        -0.52080E+08
 
   -0.50911E+08        -0.99292E+04         0.00000E+00
   -0.99292E+04        -0.60001E+08         0.00000E+00
    0.00000E+00         0.00000E+00        -0.51786E+08
 
   -0.51036E+08        -0.26474E+05         0.00000E+00
   -0.26474E+05        -0.60006E+08         0.00000E+00
    0.00000E+00         0.00000E+00        -0.51812E+08
 
   -0.51145E+08        -0.37294E+05         0.00000E+00
   -0.37294E+05        -0.60015E+08         0.00000E+00
    0.00000E+00         0.00000E+00        -0.51836E+08
 
   -0.51240E+08        -0.41180E+05         0.00000E+00
   -0.41180E+05        -0.60026E+08         0.00000E+00
    0.00000E+00         0.00000E+00        -0.51857E+08
 
   -0.51323E+08        -0.37273E+05         0.00000E+00
   -0.37273E+05        -0.60039E+08         0.00000E+00
    0.00000E+00         0.00000E+00        -0.51876E+08
 
   -0.51397E+08        -0.25023E+05         0.00000E+00
   -0.25023E+05        -0.60053E+08         0.00000E+00
    0.00000E+00         0.00000E+00        -0.51894E+08
 
   -0.51464E+08        -0.41472E+04         0.00000E+00
   -0.41472E+04        -0.60065E+08         0.00000E+00
    0.00000E+00         0.00000E+00        -0.51910E+08
 
   -0.51526E+08         0.25413E+05         0.00000E+00
    0.25413E+05        -0.60076E+08         0.00000E+00
    0.00000E+00         0.00000E+00        -0.51924E+08
 
   -0.51585E+08         0.63526E+05         0.00000E+00
    0.63526E+05        -0.60083E+08         0.00000E+00
    0.00000E+00         0.00000E+00        -0.51937E+08
 
   -0.51643E+08         0.10990E+06         0.00000E+00
    0.10990E+06        -0.60087E+08         0.00000E+00
    0.00000E+00         0.00000E+00        -0.51950E+08
 
   -0.51701E+08         0.16409E+06         0.00000E+00
    0.16409E+06        -0.60086E+08         0.00000E+00
    0.00000E+00         0.00000E+00        -0.51961E+08
 
   -0.51761E+08         0.22556E+06         0.00000E+00
    0.22556E+06        -0.60079E+08         0.00000E+00
    0.00000E+00         0.00000E+00        -0.51972E+08
 
   -0.51825E+08         0.29364E+06         0.00000E+00
    0.29364E+06        -0.60066E+08         0.00000E+00
    0.00000E+00         0.00000E+00        -0.51982E+08
 
   -0.51893E+08         0.36758E+06         0.00000E+00
    0.36758E+06        -0.60046E+08         0.00000E+00
    0.00000E+00         0.00000E+00        -0.51992E+08
 
   -0.51967E+08         0.44657E+06         0.00000E+00
    0.44657E+06        -0.60018E+08         0.00000E+00
    0.00000E+00         0.00000E+00        -0.52001E+08
 
   -0.50933E+08        -0.12797E+05         0.00000E+00
   -0.12797E+05        -0.60001E+08         0.00000E+00
    0.00000E+00         0.00000E+00        -0.51714E+08
 
   -0.51052E+08        -0.34185E+05         0.00000E+00
   -0.34185E+05        -0.60007E+08         0.00000E+00
    0.00000E+00         0.00000E+00        -0.51739E+08
 
   -0.51154E+08        -0.48593E+05         0.00000E+00
   -0.48593E+05        -0.60018E+08         0.00000E+00
    0.00000E+00         0.00000E+00        -0.51762E+08
 
   -0.51240E+08        -0.54785E+05         0.00000E+00
   -0.54785E+05        -0.60031E+08         0.00000E+00
    0.00000E+00         0.00000E+00        -0.51782E+08
 
   -0.51315E+08        -0.51915E+05         0.00000E+00
   -0.51915E+05        -0.60046E+08         0.00000E+00
    0.00000E+00         0.00000E+00        -0.51800E+08
 
   -0.51380E+08        -0.39476E+05         0.00000E+00
   -0.39476E+05        -0.60062E+08         0.00000E+00
    0.00000E+00         0.00000E+00        -0.51816E+08
 
   -0.51438E+08        -0.17246E+05         0.00000E+00
   -0.17246E+05        -0.60077E+08         0.00000E+00
    0.00000E+00         0.00000E+00        -0.51830E+08
 
   -0.51490E+08         0.14765E+05         0.00000E+00
    0.14765E+05        -0.60091E+08         0.00000E+00
    0.00000E+00         0.00000E+00        -0.51844E+08
 
   -0.51540E+08         0.56351E+05         0.00000E+00
    0.56351E+05        -0.60101E+08         0.00000E+00
    0.00000E+00         0.00000E+00        -0.51856E+08
 
   -0.51590E+08         0.10714E+06         0.00000E+00
    0.10714E+06        -0.60107E+08         0.00000E+00
    0.00000E+00         0.00000E+00        -0.51867E+08
 
   -0.51640E+08         0.16663E+06         0.00000E+00
    0.16663E+06        -0.60109E+08         0.00000E+00
    0.00000E+00         0.00000E+00        -0.51877E+08
 
   -0.51693E+08         0.23417E+06         0.00000E+00
    0.23417E+06        -0.60105E+08         0.00000E+00
    0.00000E+00         0.00000E+00        -0.51887E+08
 
   -0.51751E+08         0.30901E+06         0.00000E+00
    0.30901E+06        -0.60094E+08         0.00000E+00
    0.00000E+00         0.00000E+00        -0.51896E+08
 
   -0.51813E+08         0.39029E+06         0.00000E+00
    0.39029E+06        -0.60076E+08         0.00000E+00
    0.00000E+00         0.00000E+00        -0.51905E+08
 
   -0.51882E+08         0.47705E+06         0.00000E+00
    0.47705E+06        -0.60050E+08         0.00000E+00
    0.00000E+00         0.00000E+00        -0.51914E+08
 
   -0.50960E+08        -0.16147E+05         0.00000E+00
   -0.16147E+05        -0.60002E+08         0.00000E+00
    0.00000E+00         0.00000E+00        -0.51637E+08
 
   -0.51072E+08        -0.43166E+05         0.00000E+00
   -0.43166E+05        -0.60008E+08         0.00000E+00
    0.00000E+00         0.00000E+00        -0.51660E+08
 
   -0.51166E+08        -0.61739E+05         0.00000E+00
   -0.61739E+05        -0.60020E+08         0.00000E+00
    0.00000E+00         0.00000E+00        -0.51681E+08
 
   -0.51243E+08        -0.70636E+05         0.00000E+00
   -0.70636E+05        -0.60036E+08         0.00000E+00
    0.00000E+00         0.00000E+00        -0.51700E+08
 
   -0.51308E+08        -0.69063E+05         0.00000E+00
   -0.69063E+05        -0.60054E+08         0.00000E+00
    0.00000E+00         0.00000E+00        -0.51716E+08
 
   -0.51362E+08        -0.56590E+05         0.00000E+00
   -0.56590E+05        -0.60072E+08         0.00000E+00
    0.00000E+00         0.00000E+00        -0.51731E+08
 
   -0.51410E+08        -0.33081E+05         0.00000E+00
   -0.33081E+05        -0.60090E+08         0.00000E+00
    0.00000E+00         0.00000E+00        -0.51744E+08
 
   -0.51452E+08         0.13583E+04         0.00000E+00
    0.13583E+04        -0.60106E+08         0.00000E+00
    0.00000E+00         0.00000E+00        -0.51756E+08
 
   -0.51492E+08         0.46434E+05         0.00000E+00
    0.46434E+05        -0.60119E+08         0.00000E+00
    0.00000E+00         0.00000E+00        -0.51766E+08
 
   -0.51532E+08         0.10169E+06         0.00000E+00
    0.10169E+06        -0.60128E+08         0.00000E+00
    0.00000E+00         0.00000E+00        -0.51776E+08
 
   -0.51574E+08         0.16655E+06         0.00000E+00
    0.16655E+06        -0.60132E+08         0.00000E+00
    0.00000E+00         0.00000E+00        -0.51785E+08
 
   -0.51619E+08         0.24029E+06         0.00000E+00
    0.24029E+06        -0.60130E+08         0.00000E+00
    0.00000E+00         0.00000E+00        -0.51794E+08
 
   -0.51669E+08         0.32205E+06         0.00000E+00
    0.32205E+06        -0.60122E+08         0.00000E+00
    0.00000E+00         0.00000E+00        -0.51802E+08
 
   -0.51725E+08         0.41088E+06         0.00000E+00
    0.41088E+06        -0.60107E+08         0.00000E+00
    0.00000E+00         0.00000E+00        -0.51810E+08
 
   -0.51789E+08         0.50566E+06         0.00000E+00
    0.50566E+06        -0.60083E+08         0.00000E+00
    0.00000E+00         0.00000E+00        -0.51818E+08
 
   -0.50994E+08        -0.20002E+05         0.00000E+00
   -0.20002E+05        -0.60002E+08         0.00000E+00
    0.00000E+00         0.00000E+00        -0.51553E+08
 
   -0.51098E+08        -0.53459E+05         0.00000E+00
   -0.53459E+05        -0.60010E+08         0.00000E+00
    0.00000E+00         0.00000E+00        -0.51576E+08
 
   -0.51182E+08        -0.76766E+05         0.00000E+00
   -0.76766E+05        -0.60023E+08         0.00000E+00
    0.00000E+00         0.00000E+00        -0.51595E+08
 
   -0.51248E+08        -0.88749E+05         0.00000E+00
   -0.88749E+05        -0.60041E+08         0.00000E+00
    0.00000E+00         0.00000E+00        -0.51612E+08
 
   -0.51301E+08        -0.88708E+05         0.00000E+00
   -0.88708E+05        -0.60061E+08         0.00000E+00
    0.00000E+00         0.00000E+00        -0.51627E+08
 
   -0.51344E+08        -0.76331E+05         0.00000E+00
   -0.76331E+05        -0.60082E+08         0.00000E+00
    0.00000E+00         0.00000E+00        -0.51639E+08
 
   -0.51380E+08        -0.51611E+05         0.00000E+00
   -0.51611E+05        -0.60102E+08         0.00000E+00
    0.00000E+00         0.00000E+00        -0.51651E+08
 
   -0.51411E+08        -0.14770E+05         0.00000E+00
   -0.14770E+05        -0.60121E+08         0.00000E+00
    0.00000E+00         0.00000E+00        -0.51661E+08
 
   -0.51440E+08         0.33794E+05         0.00000E+00
    0.33794E+05        -0.60137E+08         0.00000E+00
    0.00000E+00         0.00000E+00        -0.51670E+08
 
   -0.51469E+08         0.93544E+05         0.00000E+00
    0.93544E+05        -0.60148E+08         0.00000E+00
    0.00000E+00         0.00000E+00        -0.51678E+08
 
   -0.51501E+08         0.16382E+06         0.00000E+00
    0.16382E+06        -0.60155E+08         0.00000E+00
    0.00000E+00         0.00000E+00        -0.51685E+08
 
   -0.51538E+08         0.24383E+06         0.00000E+00
    0.24383E+06        -0.60156E+08         0.00000E+00
    0.00000E+00         0.00000E+00        -0.51693E+08
 
   -0.51580E+08         0.33266E+06         0.00000E+00
    0.33266E+06        -0.60150E+08         0.00000E+00
    0.00000E+00         0.00000E+00        -0.51700E+08
 
   -0.51629E+08         0.42923E+06         0.00000E+00
    0.42923E+06        -0.60137E+08         0.00000E+00
    0.00000E+00         0.00000E+00        -0.51707E+08
 
   -0.51687E+08         0.53229E+06         0.00000E+00
    0.53229E+06        -0.60116E+08         0.00000E+00
    0.00000E+00         0.00000E+00        -0.51715E+08
 
   -0.51036E+08        -0.24373E+05         0.00000E+00
   -0.24373E+05        -0.60002E+08         0.00000E+00
    0.00000E+00         0.00000E+00        -0.51465E+08
 
   -0.51130E+08        -0.65074E+05         0.00000E+00
   -0.65074E+05        -0.60011E+08         0.00000E+00
    0.00000E+00         0.00000E+00        -0.51485E+08
 
   -0.51202E+08        -0.93659E+05         0.00000E+00
   -0.93659E+05        -0.60026E+08         0.00000E+00
    0.00000E+00         0.00000E+00        -0.51503E+08
 
   -0.51255E+08        -0.10906E+06         0.00000E+00
   -0.10906E+06        -0.60045E+08         0.00000E+00
    0.00000E+00         0.00000E+00        -0.51517E+08
 
   -0.51295E+08        -0.11075E+06         0.00000E+00
   -0.11075E+06        -0.60068E+08         0.00000E+00
    0.00000E+00         0.00000E+00        -0.51530E+08
 
   -0.51325E+08        -0.98564E+05         0.00000E+00
   -0.98564E+05        -0.60091E+08         0.00000E+00
    0.00000E+00         0.00000E+00        -0.51541E+08
 
   -0.51348E+08        -0.72684E+05         0.00000E+00
   -0.72684E+05        -0.60114E+08         0.00000E+00
    0.00000E+00         0.00000E+00        -0.51550E+08
 
   -0.51367E+08        -0.33476E+05         0.00000E+00
   -0.33476E+05        -0.60135E+08         0.00000E+00
    0.00000E+00         0.00000E+00        -0.51558E+08
 
   -0.51384E+08         0.18543E+05         0.00000E+00
    0.18543E+05        -0.60153E+08         0.00000E+00
    0.00000E+00         0.00000E+00        -0.51565E+08
 
   -0.51402E+08         0.82751E+05         0.00000E+00
    0.82751E+05        -0.60168E+08         0.00000E+00
    0.00000E+00         0.00000E+00        -0.51571E+08
 
   -0.51423E+08         0.15843E+06         0.00000E+00
    0.15843E+06        -0.60177E+08         0.00000E+00
    0.00000E+00         0.00000E+00        -0.51577E+08
 
   -0.51450E+08         0.24474E+06         0.00000E+00
    0.24474E+06        -0.60181E+08         0.00000E+00
    0.00000E+00         0.00000E+00        -0.51583E+08
 
   -0.51483E+08         0.34072E+06         0.00000E+00
    0.34072E+06        -0.60177E+08         0.00000E+00
    0.00000E+00         0.00000E+00        -0.51589E+08
 
   -0.51525E+08         0.44520E+06         0.00000E+00
    0.44520E+06        -0.60167E+08         0.00000E+00
    0.00000E+00         0.00000E+00        -0.51596E+08
 
   -0.51577E+08         0.55681E+06         0.00000E+00
    0.55681E+06        -0.60148E+08         0.00000E+00
    0.00000E+00         0.00000E+00        -0.51602E+08
 
   -0.51087E+08        -0.29262E+05         0.00000E+00
   -0.29262E+05        -0.60002E+08         0.00000E+00
    0.00000E+00         0.00000E+00        -0.51371E+08
 
   -0.51168E+08        -0.77984E+05         0.00000E+00
   -0.77984E+05        -0.60012E+08         0.00000E+00
    0.00000E+00         0.00000E+00        -0.51389E+08
 
   -0.51226E+08        -0.11233E+06         0.00000E+00
   -0.11233E+06        -0.60028E+08         0.00000E+00
    0.00000E+00         0.00000E+00        -0.51404E+08
 
   -0.51265E+08        -0.13143E+06         0.00000E+00
   -0.13143E+06        -0.60050E+08         0.00000E+00
    0.00000E+00         0.00000E+00        -0.51416E+08
 
   -0.51291E+08        -0.13495E+06         0.00000E+00
   -0.13495E+06        -0.60074E+08         0.00000E+00
    0.00000E+00         0.00000E+00        -0.51426E+08
 
   -0.51306E+08        -0.12302E+06         0.00000E+00
   -0.12302E+06        -0.60099E+08         0.00000E+00
    0.00000E+00         0.00000E+00        -0.51435E+08
 
   -0.51314E+08        -0.96008E+05         0.00000E+00
   -0.96008E+05        -0.60124E+08         0.00000E+00
    0.00000E+00         0.00000E+00        -0.51441E+08
 
   -0.51319E+08        -0.54482E+05         0.00000E+00
   -0.54482E+05        -0.60148E+08         0.00000E+00
    0.00000E+00         0.00000E+00        -0.51447E+08
 
   -0.51324E+08         0.91026E+03         0.00000E+00
    0.91026E+03        -0.60168E+08         0.00000E+00
    0.00000E+00         0.00000E+00        -0.51452E+08
 
   -0.51329E+08         0.69468E+05         0.00000E+00
    0.69468E+05        -0.60185E+08         0.00000E+00
    0.00000E+00         0.00000E+00        -0.51456E+08
 
   -0.51339E+08         0.15044E+06         0.00000E+00
    0.15044E+06        -0.60196E+08         0.00000E+00
    0.00000E+00         0.00000E+00        -0.51461E+08
 
   -0.51355E+08         0.24298E+06         0.00000E+00
    0.24298E+06        -0.60203E+08         0.00000E+00
    0.00000E+00         0.00000E+00        -0.51465E+08
 
   -0.51379E+08         0.34612E+06         0.00000E+00
    0.34612E+06        -0.60202E+08         0.00000E+00
    0.00000E+00         0.00000E+00        -0.51470E+08
 
   -0.51413E+08         0.45864E+06         0.00000E+00
    0.45864E+06        -0.60194E+08         0.00000E+00
    0.00000E+00         0.00000E+00        -0.51475E+08
 
   -0.51458E+08         0.57906E+06         0.00000E+00
    0.57906E+06        -0.60178E+08         0.00000E+00
    0.00000E+00         0.00000E+00        -0.51481E+08
 
   -0.51148E+08        -0.34656E+05         0.00000E+00
   -0.34656E+05        -0.60003E+08         0.00000E+00
    0.00000E+00         0.00000E+00        -0.51272E+08
 
   -0.51214E+08        -0.92117E+05         0.00000E+00
   -0.92117E+05        -0.60013E+08         0.00000E+00
    0.00000E+00         0.00000E+00        -0.51288E+08
 
   -0.51255E+08        -0.13262E+06         0.00000E+00
   -0.13262E+06        -0.60031E+08         0.00000E+00
    0.00000E+00         0.00000E+00        -0.51300E+08
 
   -0.51278E+08        -0.15557E+06         0.00000E+00
   -0.15557E+06        -0.60054E+08         0.00000E+00
    0.00000E+00         0.00000E+00        -0.51309E+08
 
   -0.51287E+08        -0.16096E+06         0.00000E+00
   -0.16096E+06        -0.60080E+08         0.00000E+00
    0.00000E+00         0.00000E+00        -0.51316E+08
 
   -0.51286E+08        -0.14925E+06         0.00000E+00
   -0.14925E+06        -0.60107E+08         0.00000E+00
    0.00000E+00         0.00000E+00        -0.51321E+08
 
   -0.51279E+08        -0.12112E+06         0.00000E+00
   -0.12112E+06        -0.60133E+08         0.00000E+00
    0.00000E+00         0.00000E+00        -0.51325E+08
 
   -0.51270E+08        -0.77343E+05         0.00000E+00
   -0.77343E+05        -0.60158E+08         0.00000E+00
    0.00000E+00         0.00000E+00        -0.51328E+08
 
   -0.51260E+08        -0.18730E+05         0.00000E+00
   -0.18730E+05        -0.60180E+08         0.00000E+00
    0.00000E+00         0.00000E+00        -0.51330E+08
 
   -0.51252E+08         0.53959E+05         0.00000E+00
    0.53959E+05        -0.60198E+08         0.00000E+00
    0.00000E+00         0.00000E+00        -0.51333E+08
 
   -0.51250E+08         0.13998E+06         0.00000E+00
    0.13998E+06        -0.60212E+08         0.00000E+00
    0.00000E+00         0.00000E+00        -0.51335E+08
 
   -0.51254E+08         0.23854E+06         0.00000E+00
    0.23854E+06        -0.60221E+08         0.00000E+00
    0.00000E+00         0.00000E+00        -0.51337E+08
 
   -0.51267E+08         0.34872E+06         0.00000E+00
    0.34872E+06        -0.60223E+08         0.00000E+00
    0.00000E+00         0.00000E+00        -0.51341E+08
 
   -0.51292E+08         0.46933E+06         0.00000E+00
    0.46933E+06        -0.60218E+08         0.00000E+00
    0.00000E+00         0.00000E+00        -0.51344E+08
 
   -0.51329E+08         0.59882E+06         0.00000E+00
    0.59882E+06        -0.60204E+08         0.00000E+00
    0.00000E+00         0.00000E+00        -0.51349E+08
 
   -0.51218E+08        -0.40527E+05         0.00000E+00
   -0.40527E+05        -0.60003E+08         0.00000E+00
    0.00000E+00         0.00000E+00        -0.51169E+08
 
   -0.51267E+08        -0.10734E+06         0.00000E+00
   -0.10734E+06        -0.60014E+08         0.00000E+00
    0.00000E+00         0.00000E+00        -0.51180E+08
 
   -0.51290E+08        -0.15426E+06         0.00000E+00
   -0.15426E+06        -0.60033E+08         0.00000E+00
    0.00000E+00         0.00000E+00        -0.51189E+08
 
   -0.51294E+08        -0.18106E+06         0.00000E+00
   -0.18106E+06        -0.60057E+08         0.00000E+00
    0.00000E+00         0.00000E+00        -0.51194E+08
 
   -0.51284E+08        -0.18821E+06         0.00000E+00
   -0.18821E+06        -0.60084E+08         0.00000E+00
    0.00000E+00         0.00000E+00        -0.51198E+08
 
   -0.51266E+08        -0.17661E+06         0.00000E+00
   -0.17661E+06        -0.60111E+08         0.00000E+00
    0.00000E+00         0.00000E+00        -0.51200E+08
 
   -0.51242E+08        -0.14732E+06         0.00000E+00
   -0.14732E+06        -0.60138E+08         0.00000E+00
    0.00000E+00         0.00000E+00        -0.51200E+08
 
   -0.51217E+08        -0.10141E+06         0.00000E+00
   -0.10141E+06        -0.60164E+08         0.00000E+00
    0.00000E+00         0.00000E+00        -0.51200E+08
 
   -0.51192E+08        -0.39829E+05         0.00000E+00
   -0.39829E+05        -0.60187E+08         0.00000E+00
    0.00000E+00         0.00000E+00        -0.51200E+08
 
   -0.51171E+08         0.36621E+05         0.00000E+00
    0.36621E+05        -0.60207E+08         0.00000E+00
    0.00000E+00         0.00000E+00        -0.51200E+08
 
   -0.51155E+08         0.12726E+06         0.00000E+00
    0.12726E+06        -0.60223E+08         0.00000E+00
    0.00000E+00         0.00000E+00        -0.51200E+08
 
   -0.51146E+08         0.23144E+06         0.00000E+00
    0.23144E+06        -0.60234E+08         0.00000E+00
    0.00000E+00         0.00000E+00        -0.51200E+08
 
   -0.51148E+08         0.34838E+06         0.00000E+00
    0.34838E+06        -0.60239E+08         0.00000E+00
    0.00000E+00         0.00000E+00        -0.51202E+08
 
   -0.51162E+08         0.47700E+06         0.00000E+00
    0.47700E+06        -0.60237E+08         0.00000E+00
    0.00000E+00         0.00000E+00        -0.51204E+08
 
   -0.51191E+08         0.61578E+06         0.00000E+00
    0.61578E+06        -0.60226E+08         0.00000E+00
    0.00000E+00         0.00000E+00        -0.51208E+08
 
   -0.51301E+08        -0.46827E+05         0.00000E+00
   -0.46827E+05        -0.60003E+08         0.00000E+00
    0.00000E+00         0.00000E+00        -0.51059E+08
 
   -0.51328E+08        -0.12347E+06         0.00000E+00
   -0.12347E+06        -0.60015E+08         0.00000E+00
    0.00000E+00         0.00000E+00        -0.51067E+08
 
   -0.51329E+08        -0.17684E+06         0.00000E+00
   -0.17684E+06        -0.60034E+08         0.00000E+00
    0.00000E+00         0.00000E+00        -0.51071E+08
 
   -0.51312E+08        -0.20729E+06         0.00000E+00
   -0.20729E+06        -0.60059E+08         0.00000E+00
    0.00000E+00         0.00000E+00        -0.51073E+08
 
   -0.51282E+08        -0.21590E+06         0.00000E+00
   -0.21590E+06        -0.60086E+08         0.00000E+00
    0.00000E+00         0.00000E+00        -0.51072E+08
 
   -0.51245E+08        -0.20418E+06         0.00000E+00
   -0.20418E+06        -0.60113E+08         0.00000E+00
    0.00000E+00         0.00000E+00        -0.51070E+08
 
   -0.51204E+08        -0.17367E+06         0.00000E+00
   -0.17367E+06        -0.60140E+08         0.00000E+00
    0.00000E+00         0.00000E+00        -0.51067E+08
 
   -0.51162E+08        -0.12578E+06         0.00000E+00
   -0.12578E+06        -0.60165E+08         0.00000E+00
    0.00000E+00         0.00000E+00        -0.51064E+08
 
   -0.51122E+08        -0.61623E+05         0.00000E+00
   -0.61623E+05        -0.60188E+08         0.00000E+00
    0.00000E+00         0.00000E+00        -0.51061E+08
 
   -0.51085E+08         0.18003E+05         0.00000E+00
    0.18003E+05        -0.60208E+08         0.00000E+00
    0.00000E+00         0.00000E+00        -0.51057E+08
 
   -0.51055E+08         0.11258E+06         0.00000E+00
    0.11258E+06        -0.60226E+08         0.00000E+00
    0.00000E+00         0.00000E+00        -0.51055E+08
 
   -0.51033E+08         0.22169E+06         0.00000E+00
    0.22169E+06        -0.60239E+08         0.00000E+00
    0.00000E+00         0.00000E+00        -0.51053E+08
 
   -0.51021E+08         0.34485E+06         0.00000E+00
    0.34485E+06        -0.60247E+08         0.00000E+00
    0.00000E+00         0.00000E+00        -0.51052E+08
 
   -0.51024E+08         0.48125E+06         0.00000E+00
    0.48125E+06        -0.60249E+08         0.00000E+00
    0.00000E+00         0.00000E+00        -0.51053E+08
 
   -0.51043E+08         0.62946E+06         0.00000E+00
    0.62946E+06        -0.60242E+08         0.00000E+00
    0.00000E+00         0.00000E+00        -0.51056E+08
 
   -0.51395E+08        -0.53490E+05         0.00000E+00
   -0.53490E+05        -0.60003E+08         0.00000E+00
    0.00000E+00         0.00000E+00        -0.50945E+08
 
   -0.51397E+08        -0.14022E+06         0.00000E+00
   -0.14022E+06        -0.60015E+08         0.00000E+00
    0.00000E+00         0.00000E+00        -0.50948E+08
 
   -0.51373E+08        -0.19981E+06         0.00000E+00
   -0.19981E+06        -0.60035E+08         0.00000E+00
    0.00000E+00         0.00000E+00        -0.50947E+08
 
   -0.51332E+08        -0.23340E+06         0.00000E+00
   -0.23340E+06        -0.60060E+08         0.00000E+00
    0.00000E+00         0.00000E+00        -0.50944E+08
 
   -0.51280E+08        -0.24294E+06         0.00000E+00
   -0.24294E+06        -0.60085E+08         0.00000E+00
    0.00000E+00         0.00000E+00        -0.50939E+08
 
   -0.51223E+08        -0.23070E+06         0.00000E+00
   -0.23070E+06        -0.60111E+08         0.00000E+00
    0.00000E+00         0.00000E+00        -0.50933E+08
 
   -0.51164E+08        -0.19887E+06         0.00000E+00
   -0.19887E+06        -0.60136E+08         0.00000E+00
    0.00000E+00         0.00000E+00        -0.50926E+08
 
   -0.51105E+08        -0.14925E+06         0.00000E+00
   -0.14925E+06        -0.60159E+08         0.00000E+00
    0.00000E+00         0.00000E+00        -0.50918E+08
 
   -0.51049E+08        -0.83110E+05         0.00000E+00
   -0.83110E+05        -0.60181E+08         0.00000E+00
    0.00000E+00         0.00000E+00        -0.50912E+08
 
   -0.50997E+08        -0.11684E+04         0.00000E+00
   -0.11684E+04        -0.60201E+08         0.00000E+00
    0.00000E+00         0.00000E+00        -0.50905E+08
 
   -0.50951E+08         0.96307E+05         0.00000E+00
    0.96307E+05        -0.60219E+08         0.00000E+00
    0.00000E+00         0.00000E+00        -0.50900E+08
 
   -0.50914E+08         0.20932E+06         0.00000E+00
    0.20932E+06        -0.60234E+08         0.00000E+00
    0.00000E+00         0.00000E+00        -0.50895E+08
 
   -0.50888E+08         0.33784E+06         0.00000E+00
    0.33784E+06        -0.60246E+08         0.00000E+00
    0.00000E+00         0.00000E+00        -0.50892E+08
 
   -0.50877E+08         0.48151E+06         0.00000E+00
    0.48151E+06        -0.60251E+08         0.00000E+00
    0.00000E+00         0.00000E+00        -0.50891E+08
 
   -0.50884E+08         0.63918E+06         0.00000E+00
    0.63918E+06        -0.60249E+08         0.00000E+00
    0.00000E+00         0.00000E+00        -0.50892E+08
 
   -0.51502E+08        -0.60430E+05         0.00000E+00
   -0.60430E+05        -0.60003E+08         0.00000E+00
    0.00000E+00         0.00000E+00        -0.50826E+08
 
   -0.51474E+08        -0.15721E+06         0.00000E+00
   -0.15721E+06        -0.60015E+08         0.00000E+00
    0.00000E+00         0.00000E+00        -0.50823E+08
 
   -0.51421E+08        -0.22241E+06         0.00000E+00
   -0.22241E+06        -0.60035E+08         0.00000E+00
    0.00000E+00         0.00000E+00        -0.50816E+08
 
   -0.51354E+08        -0.25824E+06         0.00000E+00
   -0.25824E+06        -0.60058E+08         0.00000E+00
    0.00000E+00         0.00000E+00        -0.50807E+08
 
   -0.51278E+08        -0.26785E+06         0.00000E+00
   -0.26785E+06        -0.60081E+08         0.00000E+00
    0.00000E+00         0.00000E+00        -0.50797E+08
 
   -0.51200E+08        -0.25454E+06         0.00000E+00
   -0.25454E+06        -0.60104E+08         0.00000E+00
    0.00000E+00         0.00000E+00        -0.50786E+08
 
   -0.51122E+08        -0.22128E+06         0.00000E+00
   -0.22128E+06        -0.60125E+08         0.00000E+00
    0.00000E+00         0.00000E+00        -0.50774E+08
 
   -0.51046E+08        -0.17030E+06         0.00000E+00
   -0.17030E+06        -0.60145E+08         0.00000E+00
    0.00000E+00         0.00000E+00        -0.50763E+08
 
   -0.50974E+08        -0.10301E+06         0.00000E+00
   -0.10301E+06        -0.60163E+08         0.00000E+00
    0.00000E+00         0.00000E+00        -0.50752E+08
 
   -0.50906E+08        -0.19975E+05         0.00000E+00
   -0.19975E+05        -0.60182E+08         0.00000E+00
    0.00000E+00         0.00000E+00        -0.50743E+08
 
   -0.50845E+08         0.78943E+05         0.00000E+00
    0.78943E+05        -0.60200E+08         0.00000E+00
    0.00000E+00         0.00000E+00        -0.50734E+08
 
   -0.50792E+08         0.19434E+06         0.00000E+00
    0.19434E+06        -0.60217E+08         0.00000E+00
    0.00000E+00         0.00000E+00        -0.50727E+08
 
   -0.50749E+08         0.32691E+06         0.00000E+00
    0.32691E+06        -0.60232E+08         0.00000E+00
    0.00000E+00         0.00000E+00        -0.50721E+08
 
   -0.50722E+08         0.47698E+06         0.00000E+00
    0.47698E+06        -0.60242E+08         0.00000E+00
    0.00000E+00         0.00000E+00        -0.50718E+08
 
   -0.50715E+08         0.64398E+06         0.00000E+00
    0.64398E+06        -0.60245E+08         0.00000E+00
    0.00000E+00         0.00000E+00        -0.50717E+08
 
   -0.51621E+08        -0.67538E+05         0.00000E+00
   -0.67538E+05        -0.60003E+08         0.00000E+00
    0.00000E+00         0.00000E+00        -0.50701E+08
 
   -0.51558E+08        -0.17393E+06         0.00000E+00
   -0.17393E+06        -0.60015E+08         0.00000E+00
    0.00000E+00         0.00000E+00        -0.50691E+08
 
   -0.51473E+08        -0.24356E+06         0.00000E+00
   -0.24356E+06        -0.60034E+08         0.00000E+00
    0.00000E+00         0.00000E+00        -0.50678E+08
 
   -0.51376E+08        -0.28022E+06         0.00000E+00
   -0.28022E+06        -0.60053E+08         0.00000E+00
    0.00000E+00         0.00000E+00        -0.50662E+08
 
   -0.51275E+08        -0.28868E+06         0.00000E+00
   -0.28868E+06        -0.60072E+08         0.00000E+00
    0.00000E+00         0.00000E+00        -0.50646E+08
 
   -0.51176E+08        -0.27359E+06         0.00000E+00
   -0.27359E+06        -0.60089E+08         0.00000E+00
    0.00000E+00         0.00000E+00        -0.50629E+08
 
   -0.51079E+08        -0.23881E+06         0.00000E+00
   -0.23881E+06        -0.60104E+08         0.00000E+00
    0.00000E+00         0.00000E+00        -0.50613E+08
 
   -0.50987E+08        -0.18705E+06         0.00000E+00
   -0.18705E+06        -0.60118E+08         0.00000E+00
    0.00000E+00         0.00000E+00        -0.50597E+08
 
   -0.50899E+08        -0.11978E+06         0.00000E+00
   -0.11978E+06        -0.60132E+08         0.00000E+00
    0.00000E+00         0.00000E+00        -0.50583E+08
 
   -0.50816E+08        -0.37298E+05         0.00000E+00
   -0.37298E+05        -0.60147E+08         0.00000E+00
    0.00000E+00         0.00000E+00        -0.50569E+08
 
   -0.50738E+08         0.61070E+05         0.00000E+00
    0.61070E+05        -0.60164E+08         0.00000E+00
    0.00000E+00         0.00000E+00        -0.50557E+08
 
   -0.50667E+08         0.17674E+06         0.00000E+00
    0.17674E+06        -0.60183E+08         0.00000E+00
    0.00000E+00         0.00000E+00        -0.50547E+08
 
   -0.50606E+08         0.31143E+06         0.00000E+00
    0.31143E+06        -0.60201E+08         0.00000E+00
    0.00000E+00         0.00000E+00        -0.50538E+08
 
   -0.50560E+08         0.46656E+06         0.00000E+00
    0.46656E+06        -0.60218E+08         0.00000E+00
    0.00000E+00         0.00000E+00        -0.50532E+08
 
   -0.50535E+08         0.64247E+06         0.00000E+00
    0.64247E+06        -0.60227E+08         0.00000E+00
    0.00000E+00         0.00000E+00        -0.50529E+08
 
   -0.51753E+08        -0.74675E+05         0.00000E+00
   -0.74675E+05        -0.60003E+08         0.00000E+00
    0.00000E+00         0.00000E+00        -0.50571E+08
 
   -0.51648E+08        -0.18967E+06         0.00000E+00
   -0.18967E+06        -0.60015E+08         0.00000E+00
    0.00000E+00         0.00000E+00        -0.50553E+08
 
   -0.51526E+08        -0.26180E+06         0.00000E+00
   -0.26180E+06        -0.60030E+08         0.00000E+00
    0.00000E+00         0.00000E+00        -0.50531E+08
 
   -0.51397E+08        -0.29719E+06         0.00000E+00
   -0.29719E+06        -0.60045E+08         0.00000E+00
    0.00000E+00         0.00000E+00        -0.50509E+08
 
   -0.51270E+08        -0.30287E+06         0.00000E+00
   -0.30287E+06        -0.60057E+08         0.00000E+00
    0.00000E+00         0.00000E+00        -0.50486E+08
 
   -0.51149E+08        -0.28520E+06         0.00000E+00
   -0.28520E+06        -0.60065E+08         0.00000E+00
    0.00000E+00         0.00000E+00        -0.50463E+08
 
   -0.51035E+08        -0.24898E+06         0.00000E+00
   -0.24898E+06        -0.60071E+08         0.00000E+00
    0.00000E+00         0.00000E+00        -0.50441E+08
 
   -0.50927E+08        -0.19732E+06         0.00000E+00
   -0.19732E+06        -0.60076E+08         0.00000E+00
    0.00000E+00         0.00000E+00        -0.50421E+08
 
   -0.50825E+08        -0.13161E+06         0.00000E+00
   -0.13161E+06        -0.60084E+08         0.00000E+00
    0.00000E+00         0.00000E+00        -0.50402E+08
 
   -0.50727E+08        -0.51830E+05         0.00000E+00
   -0.51830E+05        -0.60094E+08         0.00000E+00
    0.00000E+00         0.00000E+00        -0.50384E+08
 
   -0.50633E+08         0.43390E+05         0.00000E+00
    0.43390E+05        -0.60109E+08         0.00000E+00
    0.00000E+00         0.00000E+00        -0.50369E+08
 
   -0.50543E+08         0.15648E+06         0.00000E+00
    0.15648E+06        -0.60129E+08         0.00000E+00
    0.00000E+00         0.00000E+00        -0.50355E+08
 
   -0.50461E+08         0.29058E+06         0.00000E+00
    0.29058E+06        -0.60152E+08         0.00000E+00
    0.00000E+00         0.00000E+00        -0.50343E+08
 
   -0.50392E+08         0.44871E+06         0.00000E+00
    0.44871E+06        -0.60175E+08         0.00000E+00
    0.00000E+00         0.00000E+00        -0.50334E+08
 
   -0.50343E+08         0.63270E+06         0.00000E+00
    0.63270E+06        -0.60194E+08         0.00000E+00
    0.00000E+00         0.00000E+00        -0.50328E+08
 
   -0.51896E+08        -0.81667E+05         0.00000E+00
   -0.81667E+05        -0.60003E+08         0.00000E+00
    0.00000E+00         0.00000E+00        -0.50436E+08
 
   -0.51743E+08        -0.20338E+06         0.00000E+00
   -0.20338E+06        -0.60013E+08         0.00000E+00
    0.00000E+00         0.00000E+00        -0.50407E+08
 
   -0.51577E+08        -0.27495E+06         0.00000E+00
   -0.27495E+06        -0.60024E+08         0.00000E+00
    0.00000E+00         0.00000E+00        -0.50376E+08
 
   -0.51414E+08        -0.30616E+06         0.00000E+00
   -0.30616E+06        -0.60031E+08         0.00000E+00
    0.00000E+00         0.00000E+00        -0.50345E+08
 
   -0.51261E+08        -0.30716E+06         0.00000E+00
   -0.30716E+06        -0.60031E+08         0.00000E+00
    0.00000E+00         0.00000E+00        -0.50314E+08
 
   -0.51121E+08        -0.28623E+06         0.00000E+00
   -0.28623E+06        -0.60027E+08         0.00000E+00
    0.00000E+00         0.00000E+00        -0.50285E+08
 
   -0.50991E+08        -0.24902E+06         0.00000E+00
   -0.24902E+06        -0.60021E+08         0.00000E+00
    0.00000E+00         0.00000E+00        -0.50258E+08
 
   -0.50870E+08        -0.19873E+06         0.00000E+00
   -0.19873E+06        -0.60016E+08         0.00000E+00
    0.00000E+00         0.00000E+00        -0.50233E+08
 
   -0.50755E+08        -0.13659E+06         0.00000E+00
   -0.13659E+06        -0.60015E+08         0.00000E+00
    0.00000E+00         0.00000E+00        -0.50210E+08
 
   -0.50643E+08        -0.62118E+05         0.00000E+00
   -0.62118E+05        -0.60019E+08         0.00000E+00
    0.00000E+00         0.00000E+00        -0.50188E+08
 
   -0.50532E+08         0.26748E+05         0.00000E+00
    0.26748E+05        -0.60031E+08         0.00000E+00
    0.00000E+00         0.00000E+00        -0.50168E+08
 
   -0.50422E+08         0.13359E+06         0.00000E+00
    0.13359E+06        -0.60050E+08         0.00000E+00
    0.00000E+00         0.00000E+00        -0.50150E+08
 
   -0.50316E+08         0.26332E+06         0.00000E+00
    0.26332E+06        -0.60078E+08         0.00000E+00
    0.00000E+00         0.00000E+00        -0.50135E+08
 
   -0.50219E+08         0.42135E+06         0.00000E+00
    0.42135E+06        -0.60110E+08         0.00000E+00
    0.00000E+00         0.00000E+00        -0.50122E+08
 
   -0.50141E+08         0.61194E+06         0.00000E+00
    0.61194E+06        -0.60141E+08         0.00000E+00
    0.00000E+00         0.00000E+00        -0.50112E+08
 
   -0.52051E+08        -0.88257E+05         0.00000E+00
   -0.88257E+05        -0.60003E+08         0.00000E+00
    0.00000E+00         0.00000E+00        -0.50294E+08
 
   -0.51837E+08        -0.21337E+06         0.00000E+00
   -0.21337E+06        -0.60010E+08         0.00000E+00
    0.00000E+00         0.00000E+00        -0.50253E+08
 
   -0.51624E+08        -0.27970E+06         0.00000E+00
   -0.27970E+06        -0.60013E+08         0.00000E+00
    0.00000E+00         0.00000E+00        -0.50210E+08
 
   -0.51425E+08        -0.30297E+06         0.00000E+00
   -0.30297E+06        -0.60007E+08         0.00000E+00
    0.00000E+00         0.00000E+00        -0.50170E+08
 
   -0.51248E+08        -0.29747E+06         0.00000E+00
   -0.29747E+06        -0.59992E+08         0.00000E+00
    0.00000E+00         0.00000E+00        -0.50131E+08
 
   -0.51090E+08        -0.27322E+06         0.00000E+00
   -0.27322E+06        -0.59972E+08         0.00000E+00
    0.00000E+00         0.00000E+00        -0.50095E+08
 
   -0.50948E+08        -0.23612E+06         0.00000E+00
   -0.23612E+06        -0.59951E+08         0.00000E+00
    0.00000E+00         0.00000E+00        -0.50063E+08
 
   -0.50816E+08        -0.18907E+06         0.00000E+00
   -0.18907E+06        -0.59933E+08         0.00000E+00
    0.00000E+00         0.00000E+00        -0.50033E+08
 
   -0.50690E+08        -0.13288E+06         0.00000E+00
   -0.13288E+06        -0.59920E+08         0.00000E+00
    0.00000E+00         0.00000E+00        -0.50005E+08
 
   -0.50566E+08        -0.66661E+05         0.00000E+00
   -0.66661E+05        -0.59917E+08         0.00000E+00
    0.00000E+00         0.00000E+00        -0.49980E+08
 
   -0.50440E+08         0.12183E+05         0.00000E+00
    0.12183E+05        -0.59924E+08         0.00000E+00
    0.00000E+00         0.00000E+00        -0.49956E+08
 
   -0.50310E+08         0.10826E+06         0.00000E+00
    0.10826E+06        -0.59943E+08         0.00000E+00
    0.00000E+00         0.00000E+00        -0.49934E+08
 
   -0.50177E+08         0.22852E+06         0.00000E+00
    0.22852E+06        -0.59976E+08         0.00000E+00
    0.00000E+00         0.00000E+00        -0.49914E+08
 
   -0.50045E+08         0.38176E+06         0.00000E+00
    0.38176E+06        -0.60019E+08         0.00000E+00
    0.00000E+00         0.00000E+00        -0.49896E+08
 
   -0.49929E+08         0.57635E+06         0.00000E+00
    0.57635E+06        -0.60066E+08         0.00000E+00
    0.00000E+00         0.00000E+00        -0.49882E+08
 
   -0.52213E+08        -0.93997E+05         0.00000E+00
   -0.93997E+05        -0.60003E+08         0.00000E+00
    0.00000E+00         0.00000E+00        -0.50145E+08
 
   -0.51927E+08        -0.21651E+06         0.00000E+00
   -0.21651E+06        -0.60004E+08         0.00000E+00
    0.00000E+00         0.00000E+00        -0.50088E+08
 
   -0.51660E+08        -0.27063E+06         0.00000E+00
   -0.27063E+06        -0.59994E+08         0.00000E+00
    0.00000E+00         0.00000E+00        -0.50033E+08
 
   -0.51428E+08        -0.28189E+06         0.00000E+00
   -0.28189E+06        -0.59968E+08         0.00000E+00
    0.00000E+00         0.00000E+00        -0.49981E+08
 
   -0.51230E+08        -0.26916E+06         0.00000E+00
   -0.26916E+06        -0.59932E+08         0.00000E+00
    0.00000E+00         0.00000E+00        -0.49934E+08
 
   -0.51059E+08        -0.24288E+06         0.00000E+00
   -0.24288E+06        -0.59892E+08         0.00000E+00
    0.00000E+00         0.00000E+00        -0.49892E+08
 
   -0.50907E+08        -0.20805E+06         0.00000E+00
   -0.20805E+06        -0.59854E+08         0.00000E+00
    0.00000E+00         0.00000E+00        -0.49854E+08
 
   -0.50768E+08        -0.16671E+06         0.00000E+00
   -0.16671E+06        -0.59821E+08         0.00000E+00
    0.00000E+00         0.00000E+00        -0.49820E+08
 
   -0.50634E+08        -0.11912E+06         0.00000E+00
   -0.11912E+06        -0.59797E+08         0.00000E+00
    0.00000E+00         0.00000E+00        -0.49788E+08
 
   -0.50500E+08        -0.64132E+05         0.00000E+00
   -0.64132E+05        -0.59784E+08         0.00000E+00
    0.00000E+00         0.00000E+00        -0.49759E+08
 
   -0.50360E+08         0.98683E+03         0.00000E+00
    0.98683E+03        -0.59785E+08         0.00000E+00
    0.00000E+00         0.00000E+00        -0.49731E+08
 
   -0.50211E+08         0.81230E+05         0.00000E+00
    0.81230E+05        -0.59804E+08         0.00000E+00
    0.00000E+00         0.00000E+00        -0.49705E+08
 
   -0.50048E+08         0.18531E+06         0.00000E+00
    0.18531E+06        -0.59841E+08         0.00000E+00
    0.00000E+00         0.00000E+00        -0.49680E+08
 
   -0.49876E+08         0.32653E+06         0.00000E+00
    0.32653E+06        -0.59897E+08         0.00000E+00
    0.00000E+00         0.00000E+00        -0.49657E+08
 
   -0.49708E+08         0.52038E+06         0.00000E+00
    0.52038E+06        -0.59964E+08         0.00000E+00
    0.00000E+00         0.00000E+00        -0.49636E+08
 
   -0.52379E+08        -0.97780E+05         0.00000E+00
   -0.97780E+05        -0.60001E+08         0.00000E+00
    0.00000E+00         0.00000E+00        -0.49988E+08
 
   -0.52003E+08        -0.20623E+06         0.00000E+00
   -0.20623E+06        -0.59992E+08         0.00000E+00
    0.00000E+00         0.00000E+00        -0.49911E+08
 
   -0.51681E+08        -0.23867E+06         0.00000E+00
   -0.23867E+06        -0.59957E+08         0.00000E+00
    0.00000E+00         0.00000E+00        -0.49840E+08
 
   -0.51421E+08        -0.23589E+06         0.00000E+00
   -0.23589E+06        -0.59902E+08         0.00000E+00
    0.00000E+00         0.00000E+00        -0.49777E+08
 
   -0.51209E+08        -0.21821E+06         0.00000E+00
   -0.21821E+06        -0.59840E+08         0.00000E+00
    0.00000E+00         0.00000E+00        -0.49722E+08
 
   -0.51030E+08        -0.19325E+06         0.00000E+00
   -0.19325E+06        -0.59778E+08         0.00000E+00
    0.00000E+00         0.00000E+00        -0.49674E+08
 
   -0.50873E+08        -0.16397E+06         0.00000E+00
   -0.16397E+06        -0.59723E+08         0.00000E+00
    0.00000E+00         0.00000E+00        -0.49631E+08
 
   -0.50728E+08        -0.13127E+06         0.00000E+00
   -0.13127E+06        -0.59676E+08         0.00000E+00
    0.00000E+00         0.00000E+00        -0.49593E+08
 
   -0.50589E+08        -0.94921E+05         0.00000E+00
   -0.94921E+05        -0.59641E+08         0.00000E+00
    0.00000E+00         0.00000E+00        -0.49558E+08
 
   -0.50448E+08        -0.53772E+05         0.00000E+00
   -0.53772E+05        -0.59619E+08         0.00000E+00
    0.00000E+00         0.00000E+00        -0.49526E+08
 
   -0.50298E+08        -0.54830E+04         0.00000E+00
   -0.54830E+04        -0.59613E+08         0.00000E+00
    0.00000E+00         0.00000E+00        -0.49494E+08
 
   -0.50131E+08         0.54312E+05         0.00000E+00
    0.54312E+05        -0.59628E+08         0.00000E+00
    0.00000E+00         0.00000E+00        -0.49464E+08
 
   -0.49940E+08         0.13410E+06         0.00000E+00
    0.13410E+06        -0.59668E+08         0.00000E+00
    0.00000E+00         0.00000E+00        -0.49434E+08
 
   -0.49719E+08         0.25187E+06         0.00000E+00
    0.25187E+06        -0.59738E+08         0.00000E+00
    0.00000E+00         0.00000E+00        -0.49404E+08
 
   -0.49481E+08         0.43578E+06         0.00000E+00
    0.43578E+06        -0.59833E+08         0.00000E+00
    0.00000E+00         0.00000E+00        -0.49375E+08
 
   -0.52535E+08        -0.95541E+05         0.00000E+00
   -0.95541E+05        -0.59997E+08         0.00000E+00
    0.00000E+00         0.00000E+00        -0.49820E+08
 
   -0.52049E+08        -0.16649E+06         0.00000E+00
   -0.16649E+06        -0.59958E+08         0.00000E+00
    0.00000E+00         0.00000E+00        -0.49715E+08
 
   -0.51682E+08        -0.17098E+06         0.00000E+00
   -0.17098E+06        -0.59879E+08         0.00000E+00
    0.00000E+00         0.00000E+00        -0.49626E+08
 
   -0.51407E+08        -0.15984E+06         0.00000E+00
   -0.15984E+06        -0.59789E+08         0.00000E+00
    0.00000E+00         0.00000E+00        -0.49553E+08
 
   -0.51189E+08        -0.14361E+06         0.00000E+00
   -0.14361E+06        -0.59701E+08         0.00000E+00
    0.00000E+00         0.00000E+00        -0.49492E+08
 
   -0.51006E+08        -0.12516E+06         0.00000E+00
   -0.12516E+06        -0.59621E+08         0.00000E+00
    0.00000E+00         0.00000E+00        -0.49439E+08
 
   -0.50847E+08        -0.10533E+06         0.00000E+00
   -0.10533E+06        -0.59550E+08         0.00000E+00
    0.00000E+00         0.00000E+00        -0.49393E+08
 
   -0.50700E+08        -0.84205E+05         0.00000E+00
   -0.84205E+05        -0.59492E+08         0.00000E+00
    0.00000E+00         0.00000E+00        -0.49352E+08
 
   -0.50558E+08        -0.61365E+05         0.00000E+00
   -0.61365E+05        -0.59448E+08         0.00000E+00
    0.00000E+00         0.00000E+00        -0.49315E+08
 
   -0.50412E+08        -0.35961E+05         0.00000E+00
   -0.35961E+05        -0.59419E+08         0.00000E+00
    0.00000E+00         0.00000E+00        -0.49280E+08
 
   -0.50255E+08        -0.64617E+04         0.00000E+00
   -0.64617E+04        -0.59407E+08         0.00000E+00
    0.00000E+00         0.00000E+00        -0.49246E+08
 
   -0.50076E+08         0.29968E+05         0.00000E+00
    0.29968E+05        -0.59418E+08         0.00000E+00
    0.00000E+00         0.00000E+00        -0.49212E+08
 
   -0.49862E+08         0.79144E+05         0.00000E+00
    0.79144E+05        -0.59456E+08         0.00000E+00
    0.00000E+00         0.00000E+00        -0.49177E+08
 
   -0.49591E+08         0.15580E+06         0.00000E+00
    0.15580E+06        -0.59533E+08         0.00000E+00
    0.00000E+00         0.00000E+00        -0.49138E+08
 
   -0.49258E+08         0.30871E+06         0.00000E+00
    0.30871E+06        -0.59666E+08         0.00000E+00
    0.00000E+00         0.00000E+00        -0.49099E+08
 
   -0.52649E+08        -0.60350E+05         0.00000E+00
   -0.60350E+05        -0.59956E+08         0.00000E+00
    0.00000E+00         0.00000E+00        -0.49627E+08
 
   -0.52055E+08        -0.68912E+05         0.00000E+00
   -0.68912E+05        -0.59846E+08         0.00000E+00
    0.00000E+00         0.00000E+00        -0.49486E+08
 
   -0.51676E+08        -0.63242E+05         0.00000E+00
   -0.63242E+05        -0.59723E+08         0.00000E+00
    0.00000E+00         0.00000E+00        -0.49386E+08
 
   -0.51397E+08        -0.56982E+05         0.00000E+00
   -0.56982E+05        -0.59606E+08         0.00000E+00
    0.00000E+00         0.00000E+00        -0.49307E+08
 
   -0.51176E+08        -0.50280E+05         0.00000E+00
   -0.50280E+05        -0.59502E+08         0.00000E+00
    0.00000E+00         0.00000E+00        -0.49242E+08
 
   -0.50993E+08        -0.43409E+05         0.00000E+00
   -0.43409E+05        -0.59409E+08         0.00000E+00
    0.00000E+00         0.00000E+00        -0.49187E+08
 
   -0.50833E+08        -0.36363E+05         0.00000E+00
   -0.36363E+05        -0.59331E+08         0.00000E+00
    0.00000E+00         0.00000E+00        -0.49139E+08
 
   -0.50685E+08        -0.29040E+05         0.00000E+00
   -0.29040E+05        -0.59266E+08         0.00000E+00
    0.00000E+00         0.00000E+00        -0.49096E+08
 
   -0.50542E+08        -0.21245E+05         0.00000E+00
   -0.21245E+05        -0.59217E+08         0.00000E+00
    0.00000E+00         0.00000E+00        -0.49058E+08
 
   -0.50394E+08        -0.12665E+05         0.00000E+00
   -0.12665E+05        -0.59183E+08         0.00000E+00
    0.00000E+00         0.00000E+00        -0.49021E+08
 
   -0.50233E+08        -0.27742E+04         0.00000E+00
   -0.27742E+04        -0.59168E+08         0.00000E+00
    0.00000E+00         0.00000E+00        -0.48986E+08
 
   -0.50048E+08         0.93698E+04         0.00000E+00
    0.93698E+04        -0.59175E+08         0.00000E+00
    0.00000E+00         0.00000E+00        -0.48951E+08
 
   -0.49822E+08         0.25810E+05         0.00000E+00
    0.25810E+05        -0.59210E+08         0.00000E+00
    0.00000E+00         0.00000E+00        -0.48913E+08
 
   -0.49523E+08         0.51190E+05         0.00000E+00
    0.51190E+05        -0.59287E+08         0.00000E+00
    0.00000E+00         0.00000E+00        -0.48868E+08
 
   -0.49060E+08         0.11617E+06         0.00000E+00
    0.11617E+06        -0.59445E+08         0.00000E+00
    0.00000E+00         0.00000E+00        -0.48807E+08
 
SCALARS stressS double 
LOOKUP_TABLE default
  -54349629.7789150     
  -54406758.6241847     
  -54460818.4677088     
  -54511857.0012916     
  -54559945.8759672     
  -54605176.0133023     
  -54647653.1149180     
  -54687493.4488409     
  -54724819.9793487     
  -54759758.8972988     
  -54792436.6004174     
  -54822977.1674159     
  -54851500.3656760     
  -54878120.2290416     
  -54902944.2392659     
  -54347552.2810240     
  -54404660.3227069     
  -54458670.6105971     
  -54509635.6723814     
  -54557631.8832389     
  -54602754.6851726     
  -54645114.0188011     
  -54684830.0439405     
  -54722029.2133164     
  -54756840.7541741     
  -54789393.6052977     
  -54819813.8517564     
  -54848222.6961528     
  -54874735.0026522     
  -54899458.4478959     
  -54343425.5413704     
  -54400487.0880453     
  -54454393.3873132     
  -54505206.7462283     
  -54553013.0794010     
  -54597916.9465387     
  -54640036.8311085     
  -54679500.7317573     
  -54716442.1260430     
  -54750996.3566374     
  -54783297.4834135     
  -54813475.6404793     
  -54841654.9348485     
  -54867951.9224088     
  -54892474.6963501     
  -54337306.1743657     
  -54394285.6335992     
  -54448023.6496760     
  -54498597.4658122     
  -54546107.5314210     
  -54590672.2724676     
  -54632423.1463893     
  -54671500.0458655     
  -54708047.1034462     
  -54742208.9398926     
  -54774127.3930624     
  -54803938.7610881     
  -54831771.5930377     
  -54857745.0615068     
  -54881967.9537576     
  -54329279.3368566     
  -54386125.9528562     
  -54439616.3335654     
  -54489848.1302597     
  -54536941.5870463     
  -54581033.9655574     
  -54622274.3130031     
  -54660818.6275075     
  -54696825.4620159     
  -54730451.9991132     
  -54761850.6239658     
  -54791166.0212039     
  -54818532.8234967     
  -54844073.8440831     
  -54867898.9315084     
  -54319458.9533933     
  -54376101.1748515     
  -54429244.0016524     
  -54479011.3757650     
  -54525548.9378042     
  -54569018.0372893     
  -54609590.1612278     
  -54647441.8211636     
  -54682749.9255334     
  -54715687.6552382     
  -54746420.8561637     
  -54775104.9630605     
  -54801882.4743858     
  -54826881.0065866     
  -54850211.9675435     
  -54307987.9199495     
  -54364327.2825682     
  -54416996.1544081     
  -54466151.1484571     
  -54511969.3131685     
  -54554641.6722693     
  -54594367.2752045     
  -54631347.7807594     
  -54665782.5818365     
  -54697864.4699854     
  -54727775.8349098     
  -54755685.3972389     
  -54781745.4821329     
  -54806089.8558848     
  -54828832.1659685     
  -54295038.2002112     
  -54350942.6158119     
  -54402978.2396806     
  -54451341.3093950     
  -54496246.7568823     
  -54537921.2377059     
  -54576596.7824236     
  -54612505.0708238     
  -54645872.3129135     
  -54676914.7097543     
  -54705834.4641828     
  -54732816.3170603     
  -54758024.5989930     
  -54781600.8094373     
  -54803661.7627290     
  -54280810.7037659     
  -54336107.0578649     
  -54387310.2715399     
  -54434663.7952259     
  -54478427.4231776     
  -54518869.7911142     
  -54556261.6293276     
  -54590869.7460650     
  -54622951.6947108     
  -54652751.0643769     
  -54680493.3297053     
  -54706382.2037708     
  -54730596.4583121     
  -54753287.2069618     
  -54774575.6870938     
  -54265534.8093587     
  -54320000.7816466     
  -54370124.9480093     
  -54416206.2398910     
  -54458556.8161993     
  -54497494.0293854     
  -54533333.3070657     
  -54566381.8939205     
  -54596933.3695279     
  -54625262.8377075     
  -54651622.6764821     
  -54676238.7479069     
  -54699306.9946007     
  -54720990.3934278     
  -54741416.2929835     
  -54249467.3695081     
  -54302822.4062345     
  -54351565.1342359     
  -54396058.9422373     
  -54436676.3793174     
  -54473790.6112224     
  -54507767.9871030     
  -54538961.6278642     
  -54567705.9045954     
  -54594311.6443037     
  -54619061.8878616     
  -54642208.0364217     
  -54663966.2588912     
  -54684514.0924795     
  -54703987.2460523     
  -54232891.0065080     
  -54284786.3885873     
  -54331780.5517077     
  -54374311.0399378     
  -54412819.3204727     
  -54447741.7710234     
  -54479502.0214255     
  -54508504.5246542     
  -54535129.1663786     
  -54559726.6718171     
  -54582614.5455809     
  -54604073.2914005     
  -54624342.7059033     
  -54643618.1208916     
  -54662046.5750035     
  -54216111.4863009     
  -54266119.4482164     
  -54310923.4836384     
  -54351045.7190032     
  -54387005.5322248     
  -54419310.1230728     
  -54448446.7549657     
  -54474876.5060665     
  -54499029.2624865     
  -54521299.6046175     
  -54542043.1966192     
  -54561573.2986050     
  -54580157.0827263     
  -54598011.5429133     
  -54615298.9331455     
  -54199453.9389433     
  -54247055.7939072     
  -54289143.2683955     
  -54326334.2456096     
  -54359235.4257405     
  -54388432.5262045     
  -54414482.5860899     
  -54437908.1744830     
  -54459193.1333144     
  -54478779.3538703     
  -54497064.0175442     
  -54514396.7381140     
  -54531076.1249134     
  -54547345.4342434     
  -54563387.1743253     
  -54183257.6863214     
  -54227830.8895706     
  -54266579.3007146     
  -54300228.5446953     
  -54329482.4382938     
  -54355012.8343694     
  -54377452.1907050     
  -54397388.6212505     
  -54415362.9158660     
  -54431866.8073471     
  -54447341.6566507     
  -54462176.7322300     
  -54476706.3726853     
  -54491205.5264513     
  -54505883.4333594     
  -54167869.4437531     
  -54208673.4559090     
  -54243352.1830435     
  -54272751.9537152     
  -54297683.8806545     
  -54318913.2877762     
  -54337152.7913184     
  -54353058.7362618     
  -54367230.2560138     
  -54380209.9052526     
  -54392484.6572609     
  -54404486.0673101     
  -54416588.5672178     
  -54429105.1433313     
  -54442280.0237588     
  -54153634.6855222     
  -54189795.3443451     
  -54219552.5458270     
  -54243887.6263620     
  -54263729.6430994     
  -54279944.1878812     
  -54293327.2971905     
  -54304604.0567694     
  -54314430.8184397     
  -54323399.4760553     
  -54332042.0342903     
  -54340833.7394457     
  -54350193.2874868     
  -54360479.0323302     
  -54371980.6349252     
  -54140887.0046398     
  -54171378.8152372     
  -54195226.8481452     
  -54213563.8104751     
  -54227448.0445585     
  -54237851.3274228     
  -54245654.0578787     
  -54251647.2054660     
  -54256539.3453212     
  -54260966.4431337     
  -54265501.8078491     
  -54270663.7370889     
  -54276918.7586801     
  -54284678.9504331     
  -54294292.5370466     
  -54129935.3432774     
  -54153560.5544342     
  -54170359.1109373     
  -54181634.8114010     
  -54188587.7408433     
  -54192300.3889397     
  -54193734.8548772     
  -54193739.9905889     
  -54193065.7614389     
  -54192381.2596558     
  -54192292.6163304     
  -54193357.3323600     
  -54196092.1271331     
  -54200972.2014231     
  -54208420.7925614     
  -54121048.9885174     
  -54136411.3727368     
  -54144846.9010764     
  -54147855.7691090     
  -54146794.0373097     
  -54142857.1573205     
  -54137080.6107740     
  -54130355.2946752     
  -54123453.0391777     
  -54117056.7725335     
  -54111789.9690809     
  -54108240.6441864     
  -54106975.9898604     
  -54108544.7640215     
  -54113465.8315553     
  -54114440.1372418     
  -54119909.7565302     
  -54118468.7495453     
  -54111848.2469937     
  -54101577.0917555     
  -54088961.9086097     
  -54075094.1608263     
  -54060879.0069091     
  -54047077.8542878     
  -54034356.1829770     
  -54023329.2939364     
  -54014599.9161654     
  -54008782.6525240     
  -54006511.2402540     
  -54008426.1733085     
  -54110243.4527734     
  -54103905.8784972     
  -54090838.1200343     
  -54073051.7622223     
  -54052268.2577089     
  -54029895.8071538     
  -54007049.4255815     
  -53984602.5413357     
  -53963255.5058174     
  -53943608.3657451     
  -53926228.7152129     
  -53911707.9131449     
  -53900699.5889756     
  -53893934.6901129     
  -53892208.5664968     
  -54108490.9790643     
  -54088069.4772528     
  -54061335.2007654     
  -54030653.3086804     
  -53997959.2074944     
  -53964736.8490681     
  -53932066.7472608     
  -53900717.0645218     
  -53871251.1180968     
  -53844133.4188122     
  -53819825.4660656     
  -53798866.2068864     
  -53781931.1817275     
  -53769860.7247351     
  -53763648.4276014     
  -54109078.0828394     
  -54071808.2728495     
  -54029000.3742149     
  -53983481.9506406     
  -53937416.8681229     
  -53892303.6823899     
  -53849085.6746579     
  -53808311.6396187     
  -53770299.5011704     
  -53735281.6382437     
  -53703530.7010282     
  -53675470.2674054     
  -53651764.5180467     
  -53633372.7454627     
  -53621544.2942843     
  -54111709.7317884     
  -54054128.1483867     
  -53992358.5744789     
  -53929847.9239224     
  -53868967.3230684     
  -53811089.7748246     
  -53756840.3651377     
  -53706379.0973878     
  -53659635.6865901     
  -53616487.6590761     
  -53576908.1583280     
  -53541106.8015523     
  -53509673.0186019     
  -53483679.9149630     
  -53464712.1665809     
  -54115797.2581986     
  -54033370.1670506     
  -53949112.5536193     
  -53867296.8234742     
  -53790350.1665778     
  -53719202.2854684     
  -53653851.0141515     
  -53593835.2350829     
  -53538534.4572297     
  -53487337.9101071     
  -53439777.0766459     
  -53395700.1157963     
  -53355479.6553099     
  -53320265.0918102     
  -53292068.4183569     
  -54120229.6085001     
  -54006650.0448212     
  -53895583.7790718     
  -53792253.7867391     
  -53698577.6806697     
  -53614350.8980832     
  -53538452.9540753     
  -53469557.5330451     
  -53406352.8482057     
  -53347629.0700911     
  -53292339.1003090     
  -53239709.2581238     
  -53189647.9733206     
  -53143133.7989331     
  -53102777.6982396     
  -54122655.0846044     
  -53968555.5379443     
  -53825664.7545418     
  -53699618.9129204     
  -53589968.2522820     
  -53493946.0565528     
  -53408890.5940999     
  -53332447.3104568     
  -53262561.2504898     
  -53197390.5681924     
  -53135223.3695782     
  -53074461.1675153     
  -53013694.6987049     
  -52953435.3871599     
  -52896463.9244091     
  -54117240.5920805     
  -53907322.0622466     
  -53729196.3285042     
  -53583137.8642964     
  -53460482.7047260     
  -53355374.3966945     
  -53263486.5390316     
  -53181512.7005192     
  -53106752.4373920     
  -53036821.8521778     
  -52969408.8418136     
  -52902004.6729002     
  -52831671.8903000     
  -52754172.9445159     
  -52674310.2913562     
  -54077470.9766047     
  -53795986.2073045     
  -53594872.7295489     
  -53436554.6290548     
  -53306517.3569700     
  -53196422.0313161     
  -53100867.3495770     
  -53015960.4785961     
  -52938622.5251925     
  -52866154.2680092     
  -52795876.5766104     
  -52724701.5485637     
  -52648335.6815515     
  -52559619.8777405     
  -52437291.2687330     
SCALARS 2waySource double 
LOOKUP_TABLE default
  0.000000000000000E+000
  0.000000000000000E+000
  0.000000000000000E+000
  0.000000000000000E+000
  0.000000000000000E+000
  0.000000000000000E+000
  0.000000000000000E+000
  0.000000000000000E+000
  0.000000000000000E+000
  0.000000000000000E+000
  0.000000000000000E+000
  0.000000000000000E+000
  0.000000000000000E+000
  0.000000000000000E+000
  0.000000000000000E+000
  0.000000000000000E+000
  0.000000000000000E+000
  0.000000000000000E+000
  0.000000000000000E+000
  0.000000000000000E+000
  0.000000000000000E+000
  0.000000000000000E+000
  0.000000000000000E+000
  0.000000000000000E+000
  0.000000000000000E+000
  0.000000000000000E+000
  0.000000000000000E+000
  0.000000000000000E+000
  0.000000000000000E+000
  0.000000000000000E+000
  0.000000000000000E+000
  0.000000000000000E+000
  0.000000000000000E+000
  0.000000000000000E+000
  0.000000000000000E+000
  0.000000000000000E+000
  0.000000000000000E+000
  0.000000000000000E+000
  0.000000000000000E+000
  0.000000000000000E+000
  0.000000000000000E+000
  0.000000000000000E+000
  0.000000000000000E+000
  0.000000000000000E+000
  0.000000000000000E+000
  0.000000000000000E+000
  0.000000000000000E+000
  0.000000000000000E+000
  0.000000000000000E+000
  0.000000000000000E+000
  0.000000000000000E+000
  0.000000000000000E+000
  0.000000000000000E+000
  0.000000000000000E+000
  0.000000000000000E+000
  0.000000000000000E+000
  0.000000000000000E+000
  0.000000000000000E+000
  0.000000000000000E+000
  0.000000000000000E+000
  0.000000000000000E+000
  0.000000000000000E+000
  0.000000000000000E+000
  0.000000000000000E+000
  0.000000000000000E+000
  0.000000000000000E+000
  0.000000000000000E+000
  0.000000000000000E+000
  0.000000000000000E+000
  0.000000000000000E+000
  0.000000000000000E+000
  0.000000000000000E+000
  0.000000000000000E+000
  0.000000000000000E+000
  0.000000000000000E+000
  0.000000000000000E+000
  0.000000000000000E+000
  0.000000000000000E+000
  0.000000000000000E+000
  0.000000000000000E+000
  0.000000000000000E+000
  0.000000000000000E+000
  0.000000000000000E+000
  0.000000000000000E+000
  0.000000000000000E+000
  0.000000000000000E+000
  0.000000000000000E+000
  0.000000000000000E+000
  0.000000000000000E+000
  0.000000000000000E+000
  0.000000000000000E+000
  0.000000000000000E+000
  0.000000000000000E+000
  0.000000000000000E+000
  0.000000000000000E+000
  0.000000000000000E+000
  0.000000000000000E+000
  0.000000000000000E+000
  0.000000000000000E+000
  0.000000000000000E+000
  0.000000000000000E+000
  0.000000000000000E+000
  0.000000000000000E+000
  0.000000000000000E+000
  0.000000000000000E+000
  0.000000000000000E+000
  0.000000000000000E+000
  0.000000000000000E+000
  0.000000000000000E+000
  0.000000000000000E+000
  0.000000000000000E+000
  0.000000000000000E+000
  0.000000000000000E+000
  0.000000000000000E+000
  0.000000000000000E+000
  0.000000000000000E+000
  0.000000000000000E+000
  0.000000000000000E+000
  0.000000000000000E+000
  0.000000000000000E+000
  0.000000000000000E+000
  0.000000000000000E+000
  0.000000000000000E+000
  0.000000000000000E+000
  0.000000000000000E+000
  0.000000000000000E+000
  0.000000000000000E+000
  0.000000000000000E+000
  0.000000000000000E+000
  0.000000000000000E+000
  0.000000000000000E+000
  0.000000000000000E+000
  0.000000000000000E+000
  0.000000000000000E+000
  0.000000000000000E+000
  0.000000000000000E+000
  0.000000000000000E+000
  0.000000000000000E+000
  0.000000000000000E+000
  0.000000000000000E+000
  0.000000000000000E+000
  0.000000000000000E+000
  0.000000000000000E+000
  0.000000000000000E+000
  0.000000000000000E+000
  0.000000000000000E+000
  0.000000000000000E+000
  0.000000000000000E+000
  0.000000000000000E+000
  0.000000000000000E+000
  0.000000000000000E+000
  0.000000000000000E+000
  0.000000000000000E+000
  0.000000000000000E+000
  0.000000000000000E+000
  0.000000000000000E+000
  0.000000000000000E+000
  0.000000000000000E+000
  0.000000000000000E+000
  0.000000000000000E+000
  0.000000000000000E+000
  0.000000000000000E+000
  0.000000000000000E+000
  0.000000000000000E+000
  0.000000000000000E+000
  0.000000000000000E+000
  0.000000000000000E+000
  0.000000000000000E+000
  0.000000000000000E+000
  0.000000000000000E+000
  0.000000000000000E+000
  0.000000000000000E+000
  0.000000000000000E+000
  0.000000000000000E+000
  0.000000000000000E+000
  0.000000000000000E+000
  0.000000000000000E+000
  0.000000000000000E+000
  0.000000000000000E+000
  0.000000000000000E+000
  0.000000000000000E+000
  0.000000000000000E+000
  0.000000000000000E+000
  0.000000000000000E+000
  0.000000000000000E+000
  0.000000000000000E+000
  0.000000000000000E+000
  0.000000000000000E+000
  0.000000000000000E+000
  0.000000000000000E+000
  0.000000000000000E+000
  0.000000000000000E+000
  0.000000000000000E+000
  0.000000000000000E+000
  0.000000000000000E+000
  0.000000000000000E+000
  0.000000000000000E+000
  0.000000000000000E+000
  0.000000000000000E+000
  0.000000000000000E+000
  0.000000000000000E+000
  0.000000000000000E+000
  0.000000000000000E+000
  0.000000000000000E+000
  0.000000000000000E+000
  0.000000000000000E+000
  0.000000000000000E+000
  0.000000000000000E+000
  0.000000000000000E+000
  0.000000000000000E+000
  0.000000000000000E+000
  0.000000000000000E+000
  0.000000000000000E+000
  0.000000000000000E+000
  0.000000000000000E+000
  0.000000000000000E+000
  0.000000000000000E+000
  0.000000000000000E+000
  0.000000000000000E+000
  0.000000000000000E+000
  0.000000000000000E+000
  0.000000000000000E+000
  0.000000000000000E+000
  0.000000000000000E+000
  0.000000000000000E+000
  0.000000000000000E+000
  0.000000000000000E+000
  0.000000000000000E+000
  0.000000000000000E+000
  0.000000000000000E+000
  0.000000000000000E+000
  0.000000000000000E+000
  0.000000000000000E+000
  0.000000000000000E+000
  0.000000000000000E+000
  0.000000000000000E+000
  0.000000000000000E+000
  0.000000000000000E+000
  0.000000000000000E+000
  0.000000000000000E+000
  0.000000000000000E+000
  0.000000000000000E+000
  0.000000000000000E+000
  0.000000000000000E+000
  0.000000000000000E+000
  0.000000000000000E+000
  0.000000000000000E+000
  0.000000000000000E+000
  0.000000000000000E+000
  0.000000000000000E+000
  0.000000000000000E+000
  0.000000000000000E+000
  0.000000000000000E+000
  0.000000000000000E+000
  0.000000000000000E+000
  0.000000000000000E+000
  0.000000000000000E+000
  0.000000000000000E+000
  0.000000000000000E+000
  0.000000000000000E+000
  0.000000000000000E+000
  0.000000000000000E+000
  0.000000000000000E+000
  0.000000000000000E+000
  0.000000000000000E+000
  0.000000000000000E+000
  0.000000000000000E+000
  0.000000000000000E+000
  0.000000000000000E+000
  0.000000000000000E+000
  0.000000000000000E+000
  0.000000000000000E+000
  0.000000000000000E+000
  0.000000000000000E+000
  0.000000000000000E+000
  0.000000000000000E+000
  0.000000000000000E+000
  0.000000000000000E+000
  0.000000000000000E+000
  0.000000000000000E+000
  0.000000000000000E+000
  0.000000000000000E+000
  0.000000000000000E+000
  0.000000000000000E+000
  0.000000000000000E+000
  0.000000000000000E+000
  0.000000000000000E+000
  0.000000000000000E+000
  0.000000000000000E+000
  0.000000000000000E+000
  0.000000000000000E+000
  0.000000000000000E+000
  0.000000000000000E+000
  0.000000000000000E+000
  0.000000000000000E+000
  0.000000000000000E+000
  0.000000000000000E+000
  0.000000000000000E+000
  0.000000000000000E+000
  0.000000000000000E+000
  0.000000000000000E+000
  0.000000000000000E+000
  0.000000000000000E+000
  0.000000000000000E+000
  0.000000000000000E+000
  0.000000000000000E+000
  0.000000000000000E+000
  0.000000000000000E+000
  0.000000000000000E+000
  0.000000000000000E+000
  0.000000000000000E+000
  0.000000000000000E+000
  0.000000000000000E+000
  0.000000000000000E+000
  0.000000000000000E+000
  0.000000000000000E+000
  0.000000000000000E+000
  0.000000000000000E+000
  0.000000000000000E+000
  0.000000000000000E+000
  0.000000000000000E+000
  0.000000000000000E+000
  0.000000000000000E+000
  0.000000000000000E+000
  0.000000000000000E+000
  0.000000000000000E+000
  0.000000000000000E+000
  0.000000000000000E+000
  0.000000000000000E+000
  0.000000000000000E+000
  0.000000000000000E+000
  0.000000000000000E+000
  0.000000000000000E+000
  0.000000000000000E+000
  0.000000000000000E+000
  0.000000000000000E+000
  0.000000000000000E+000
  0.000000000000000E+000
  0.000000000000000E+000
  0.000000000000000E+000
  0.000000000000000E+000
  0.000000000000000E+000
  0.000000000000000E+000
  0.000000000000000E+000
  0.000000000000000E+000
  0.000000000000000E+000
  0.000000000000000E+000
  0.000000000000000E+000
  0.000000000000000E+000
  0.000000000000000E+000
  0.000000000000000E+000
  0.000000000000000E+000
  0.000000000000000E+000
  0.000000000000000E+000
  0.000000000000000E+000
  0.000000000000000E+000
  0.000000000000000E+000
  0.000000000000000E+000
  0.000000000000000E+000
  0.000000000000000E+000
  0.000000000000000E+000
  0.000000000000000E+000
  0.000000000000000E+000
  0.000000000000000E+000
  0.000000000000000E+000
  0.000000000000000E+000
  0.000000000000000E+000
  0.000000000000000E+000
  0.000000000000000E+000
  0.000000000000000E+000
  0.000000000000000E+000
  0.000000000000000E+000
  0.000000000000000E+000
  0.000000000000000E+000
  0.000000000000000E+000
  0.000000000000000E+000
  0.000000000000000E+000
  0.000000000000000E+000
  0.000000000000000E+000
  0.000000000000000E+000
  0.000000000000000E+000
  0.000000000000000E+000
  0.000000000000000E+000
  0.000000000000000E+000
  0.000000000000000E+000
  0.000000000000000E+000
  0.000000000000000E+000
  0.000000000000000E+000
  0.000000000000000E+000
  0.000000000000000E+000
  0.000000000000000E+000
  0.000000000000000E+000
  0.000000000000000E+000
  0.000000000000000E+000
  0.000000000000000E+000
  0.000000000000000E+000
  0.000000000000000E+000
  0.000000000000000E+000
  0.000000000000000E+000
  0.000000000000000E+000
  0.000000000000000E+000
  0.000000000000000E+000
  0.000000000000000E+000
  0.000000000000000E+000
  0.000000000000000E+000
  0.000000000000000E+000
  0.000000000000000E+000
  0.000000000000000E+000
  0.000000000000000E+000
  0.000000000000000E+000
  0.000000000000000E+000
  0.000000000000000E+000
  0.000000000000000E+000
  0.000000000000000E+000
  0.000000000000000E+000
  0.000000000000000E+000
  0.000000000000000E+000
  0.000000000000000E+000
  0.000000000000000E+000
  0.000000000000000E+000
  0.000000000000000E+000
  0.000000000000000E+000
  0.000000000000000E+000
  0.000000000000000E+000
  0.000000000000000E+000
  0.000000000000000E+000
  0.000000000000000E+000
  0.000000000000000E+000
  0.000000000000000E+000
  0.000000000000000E+000
  0.000000000000000E+000
  0.000000000000000E+000
  0.000000000000000E+000
  0.000000000000000E+000
  0.000000000000000E+000
  0.000000000000000E+000
  0.000000000000000E+000
  0.000000000000000E+000
  0.000000000000000E+000
  0.000000000000000E+000
  0.000000000000000E+000
  0.000000000000000E+000
  0.000000000000000E+000
  0.000000000000000E+000
  0.000000000000000E+000
  0.000000000000000E+000
  0.000000000000000E+000
  0.000000000000000E+000
  0.000000000000000E+000
  0.000000000000000E+000
SCALARS poroP double 
LOOKUP_TABLE default
  0.000000000000000E+000
  0.000000000000000E+000
  0.000000000000000E+000
  0.000000000000000E+000
  0.000000000000000E+000
  0.000000000000000E+000
  0.000000000000000E+000
  0.000000000000000E+000
  0.000000000000000E+000
  0.000000000000000E+000
  0.000000000000000E+000
  0.000000000000000E+000
  0.000000000000000E+000
  0.000000000000000E+000
  0.000000000000000E+000
  0.000000000000000E+000
  0.000000000000000E+000
  0.000000000000000E+000
  0.000000000000000E+000
  0.000000000000000E+000
  0.000000000000000E+000
  0.000000000000000E+000
  0.000000000000000E+000
  0.000000000000000E+000
  0.000000000000000E+000
  0.000000000000000E+000
  0.000000000000000E+000
  0.000000000000000E+000
  0.000000000000000E+000
  0.000000000000000E+000
  0.000000000000000E+000
  0.000000000000000E+000
  0.000000000000000E+000
  0.000000000000000E+000
  0.000000000000000E+000
  0.000000000000000E+000
  0.000000000000000E+000
  0.000000000000000E+000
  0.000000000000000E+000
  0.000000000000000E+000
  0.000000000000000E+000
  0.000000000000000E+000
  0.000000000000000E+000
  0.000000000000000E+000
  0.000000000000000E+000
  0.000000000000000E+000
  0.000000000000000E+000
  0.000000000000000E+000
  0.000000000000000E+000
  0.000000000000000E+000
  0.000000000000000E+000
  0.000000000000000E+000
  0.000000000000000E+000
  0.000000000000000E+000
  0.000000000000000E+000
  0.000000000000000E+000
  0.000000000000000E+000
  0.000000000000000E+000
  0.000000000000000E+000
  0.000000000000000E+000
  0.000000000000000E+000
  0.000000000000000E+000
  0.000000000000000E+000
  0.000000000000000E+000
  0.000000000000000E+000
  0.000000000000000E+000
  0.000000000000000E+000
  0.000000000000000E+000
  0.000000000000000E+000
  0.000000000000000E+000
  0.000000000000000E+000
  0.000000000000000E+000
  0.000000000000000E+000
  0.000000000000000E+000
  0.000000000000000E+000
  0.000000000000000E+000
  0.000000000000000E+000
  0.000000000000000E+000
  0.000000000000000E+000
  0.000000000000000E+000
  0.000000000000000E+000
  0.000000000000000E+000
  0.000000000000000E+000
  0.000000000000000E+000
  0.000000000000000E+000
  0.000000000000000E+000
  0.000000000000000E+000
  0.000000000000000E+000
  0.000000000000000E+000
  0.000000000000000E+000
  0.000000000000000E+000
  0.000000000000000E+000
  0.000000000000000E+000
  0.000000000000000E+000
  0.000000000000000E+000
  0.000000000000000E+000
  0.000000000000000E+000
  0.000000000000000E+000
  0.000000000000000E+000
  0.000000000000000E+000
  0.000000000000000E+000
  0.000000000000000E+000
  0.000000000000000E+000
  0.000000000000000E+000
  0.000000000000000E+000
  0.000000000000000E+000
  0.000000000000000E+000
  0.000000000000000E+000
  0.000000000000000E+000
  0.000000000000000E+000
  0.000000000000000E+000
  0.000000000000000E+000
  0.000000000000000E+000
  0.000000000000000E+000
  0.000000000000000E+000
  0.000000000000000E+000
  0.000000000000000E+000
  0.000000000000000E+000
  0.000000000000000E+000
  0.000000000000000E+000
  0.000000000000000E+000
  0.000000000000000E+000
  0.000000000000000E+000
  0.000000000000000E+000
  0.000000000000000E+000
  0.000000000000000E+000
  0.000000000000000E+000
  0.000000000000000E+000
  0.000000000000000E+000
  0.000000000000000E+000
  0.000000000000000E+000
  0.000000000000000E+000
  0.000000000000000E+000
  0.000000000000000E+000
  0.000000000000000E+000
  0.000000000000000E+000
  0.000000000000000E+000
  0.000000000000000E+000
  0.000000000000000E+000
  0.000000000000000E+000
  0.000000000000000E+000
  0.000000000000000E+000
  0.000000000000000E+000
  0.000000000000000E+000
  0.000000000000000E+000
  0.000000000000000E+000
  0.000000000000000E+000
  0.000000000000000E+000
  0.000000000000000E+000
  0.000000000000000E+000
  0.000000000000000E+000
  0.000000000000000E+000
  0.000000000000000E+000
  0.000000000000000E+000
  0.000000000000000E+000
  0.000000000000000E+000
  0.000000000000000E+000
  0.000000000000000E+000
  0.000000000000000E+000
  0.000000000000000E+000
  0.000000000000000E+000
  0.000000000000000E+000
  0.000000000000000E+000
  0.000000000000000E+000
  0.000000000000000E+000
  0.000000000000000E+000
  0.000000000000000E+000
  0.000000000000000E+000
  0.000000000000000E+000
  0.000000000000000E+000
  0.000000000000000E+000
  0.000000000000000E+000
  0.000000000000000E+000
  0.000000000000000E+000
  0.000000000000000E+000
  0.000000000000000E+000
  0.000000000000000E+000
  0.000000000000000E+000
  0.000000000000000E+000
  0.000000000000000E+000
  0.000000000000000E+000
  0.000000000000000E+000
  0.000000000000000E+000
  0.000000000000000E+000
  0.000000000000000E+000
  0.000000000000000E+000
  0.000000000000000E+000
  0.000000000000000E+000
  0.000000000000000E+000
  0.000000000000000E+000
  0.000000000000000E+000
  0.000000000000000E+000
  0.000000000000000E+000
  0.000000000000000E+000
  0.000000000000000E+000
  0.000000000000000E+000
  0.000000000000000E+000
  0.000000000000000E+000
  0.000000000000000E+000
  0.000000000000000E+000
  0.000000000000000E+000
  0.000000000000000E+000
  0.000000000000000E+000
  0.000000000000000E+000
  0.000000000000000E+000
  0.000000000000000E+000
  0.000000000000000E+000
  0.000000000000000E+000
  0.000000000000000E+000
  0.000000000000000E+000
  0.000000000000000E+000
  0.000000000000000E+000
  0.000000000000000E+000
  0.000000000000000E+000
  0.000000000000000E+000
  0.000000000000000E+000
  0.000000000000000E+000
  0.000000000000000E+000
  0.000000000000000E+000
  0.000000000000000E+000
  0.000000000000000E+000
  0.000000000000000E+000
  0.000000000000000E+000
  0.000000000000000E+000
  0.000000000000000E+000
  0.000000000000000E+000
  0.000000000000000E+000
  0.000000000000000E+000
  0.000000000000000E+000
  0.000000000000000E+000
  0.000000000000000E+000
  0.000000000000000E+000
  0.000000000000000E+000
  0.000000000000000E+000
  0.000000000000000E+000
  0.000000000000000E+000
  0.000000000000000E+000
  0.000000000000000E+000
  0.000000000000000E+000
  0.000000000000000E+000
  0.000000000000000E+000
  0.000000000000000E+000
  0.000000000000000E+000
  0.000000000000000E+000
  0.000000000000000E+000
  0.000000000000000E+000
  0.000000000000000E+000
  0.000000000000000E+000
  0.000000000000000E+000
  0.000000000000000E+000
  0.000000000000000E+000
  0.000000000000000E+000
  0.000000000000000E+000
  0.000000000000000E+000
  0.000000000000000E+000
  0.000000000000000E+000
  0.000000000000000E+000
  0.000000000000000E+000
  0.000000000000000E+000
  0.000000000000000E+000
  0.000000000000000E+000
  0.000000000000000E+000
  0.000000000000000E+000
  0.000000000000000E+000
  0.000000000000000E+000
  0.000000000000000E+000
  0.000000000000000E+000
  0.000000000000000E+000
  0.000000000000000E+000
  0.000000000000000E+000
  0.000000000000000E+000
  0.000000000000000E+000
  0.000000000000000E+000
  0.000000000000000E+000
  0.000000000000000E+000
  0.000000000000000E+000
  0.000000000000000E+000
  0.000000000000000E+000
  0.000000000000000E+000
  0.000000000000000E+000
  0.000000000000000E+000
  0.000000000000000E+000
  0.000000000000000E+000
  0.000000000000000E+000
  0.000000000000000E+000
  0.000000000000000E+000
  0.000000000000000E+000
  0.000000000000000E+000
  0.000000000000000E+000
  0.000000000000000E+000
  0.000000000000000E+000
  0.000000000000000E+000
  0.000000000000000E+000
  0.000000000000000E+000
  0.000000000000000E+000
  0.000000000000000E+000
  0.000000000000000E+000
  0.000000000000000E+000
  0.000000000000000E+000
  0.000000000000000E+000
  0.000000000000000E+000
  0.000000000000000E+000
  0.000000000000000E+000
  0.000000000000000E+000
  0.000000000000000E+000
  0.000000000000000E+000
  0.000000000000000E+000
  0.000000000000000E+000
  0.000000000000000E+000
  0.000000000000000E+000
  0.000000000000000E+000
  0.000000000000000E+000
  0.000000000000000E+000
  0.000000000000000E+000
  0.000000000000000E+000
  0.000000000000000E+000
  0.000000000000000E+000
  0.000000000000000E+000
  0.000000000000000E+000
  0.000000000000000E+000
  0.000000000000000E+000
  0.000000000000000E+000
  0.000000000000000E+000
  0.000000000000000E+000
  0.000000000000000E+000
  0.000000000000000E+000
  0.000000000000000E+000
  0.000000000000000E+000
  0.000000000000000E+000
  0.000000000000000E+000
  0.000000000000000E+000
  0.000000000000000E+000
  0.000000000000000E+000
  0.000000000000000E+000
  0.000000000000000E+000
  0.000000000000000E+000
  0.000000000000000E+000
  0.000000000000000E+000
  0.000000000000000E+000
  0.000000000000000E+000
  0.000000000000000E+000
  0.000000000000000E+000
  0.000000000000000E+000
  0.000000000000000E+000
  0.000000000000000E+000
  0.000000000000000E+000
  0.000000000000000E+000
  0.000000000000000E+000
  0.000000000000000E+000
  0.000000000000000E+000
  0.000000000000000E+000
  0.000000000000000E+000
  0.000000000000000E+000
  0.000000000000000E+000
  0.000000000000000E+000
  0.000000000000000E+000
  0.000000000000000E+000
  0.000000000000000E+000
  0.000000000000000E+000
  0.000000000000000E+000
  0.000000000000000E+000
  0.000000000000000E+000
  0.000000000000000E+000
  0.000000000000000E+000
  0.000000000000000E+000
  0.000000000000000E+000
  0.000000000000000E+000
  0.000000000000000E+000
  0.000000000000000E+000
  0.000000000000000E+000
  0.000000000000000E+000
  0.000000000000000E+000
  0.000000000000000E+000
  0.000000000000000E+000
  0.000000000000000E+000
  0.000000000000000E+000
  0.000000000000000E+000
  0.000000000000000E+000
  0.000000000000000E+000
  0.000000000000000E+000
  0.000000000000000E+000
  0.000000000000000E+000
  0.000000000000000E+000
  0.000000000000000E+000
  0.000000000000000E+000
  0.000000000000000E+000
  0.000000000000000E+000
  0.000000000000000E+000
  0.000000000000000E+000
  0.000000000000000E+000
  0.000000000000000E+000
  0.000000000000000E+000
  0.000000000000000E+000
  0.000000000000000E+000
  0.000000000000000E+000
  0.000000000000000E+000
  0.000000000000000E+000
  0.000000000000000E+000
  0.000000000000000E+000
  0.000000000000000E+000
  0.000000000000000E+000
  0.000000000000000E+000
  0.000000000000000E+000
  0.000000000000000E+000
  0.000000000000000E+000
  0.000000000000000E+000
  0.000000000000000E+000
  0.000000000000000E+000
  0.000000000000000E+000
  0.000000000000000E+000
  0.000000000000000E+000
  0.000000000000000E+000
  0.000000000000000E+000
  0.000000000000000E+000
  0.000000000000000E+000
  0.000000000000000E+000
  0.000000000000000E+000
  0.000000000000000E+000
  0.000000000000000E+000
  0.000000000000000E+000
  0.000000000000000E+000
  0.000000000000000E+000
  0.000000000000000E+000
  0.000000000000000E+000
  0.000000000000000E+000
  0.000000000000000E+000
  0.000000000000000E+000
  0.000000000000000E+000
  0.000000000000000E+000
  0.000000000000000E+000
  0.000000000000000E+000
  0.000000000000000E+000
  0.000000000000000E+000
  0.000000000000000E+000
  0.000000000000000E+000
  0.000000000000000E+000
  0.000000000000000E+000
  0.000000000000000E+000
  0.000000000000000E+000
  0.000000000000000E+000
  0.000000000000000E+000
  0.000000000000000E+000
  0.000000000000000E+000
  0.000000000000000E+000
  0.000000000000000E+000
  0.000000000000000E+000
  0.000000000000000E+000
  0.000000000000000E+000
  0.000000000000000E+000
  0.000000000000000E+000
SCALARS elementIsPlast double 
LOOKUP_TABLE default
  0.000000000000000E+000
  0.000000000000000E+000
  0.000000000000000E+000
  0.000000000000000E+000
  0.000000000000000E+000
  0.000000000000000E+000
  0.000000000000000E+000
  0.000000000000000E+000
  0.000000000000000E+000
  0.000000000000000E+000
  0.000000000000000E+000
  0.000000000000000E+000
  0.000000000000000E+000
  0.000000000000000E+000
  0.000000000000000E+000
  0.000000000000000E+000
  0.000000000000000E+000
  0.000000000000000E+000
  0.000000000000000E+000
  0.000000000000000E+000
  0.000000000000000E+000
  0.000000000000000E+000
  0.000000000000000E+000
  0.000000000000000E+000
  0.000000000000000E+000
  0.000000000000000E+000
  0.000000000000000E+000
  0.000000000000000E+000
  0.000000000000000E+000
  0.000000000000000E+000
  0.000000000000000E+000
  0.000000000000000E+000
  0.000000000000000E+000
  0.000000000000000E+000
  0.000000000000000E+000
  0.000000000000000E+000
  0.000000000000000E+000
  0.000000000000000E+000
  0.000000000000000E+000
  0.000000000000000E+000
  0.000000000000000E+000
  0.000000000000000E+000
  0.000000000000000E+000
  0.000000000000000E+000
  0.000000000000000E+000
  0.000000000000000E+000
  0.000000000000000E+000
  0.000000000000000E+000
  0.000000000000000E+000
  0.000000000000000E+000
  0.000000000000000E+000
  0.000000000000000E+000
  0.000000000000000E+000
  0.000000000000000E+000
  0.000000000000000E+000
  0.000000000000000E+000
  0.000000000000000E+000
  0.000000000000000E+000
  0.000000000000000E+000
  0.000000000000000E+000
  0.000000000000000E+000
  0.000000000000000E+000
  0.000000000000000E+000
  0.000000000000000E+000
  0.000000000000000E+000
  0.000000000000000E+000
  0.000000000000000E+000
  0.000000000000000E+000
  0.000000000000000E+000
  0.000000000000000E+000
  0.000000000000000E+000
  0.000000000000000E+000
  0.000000000000000E+000
  0.000000000000000E+000
  0.000000000000000E+000
  0.000000000000000E+000
  0.000000000000000E+000
  0.000000000000000E+000
  0.000000000000000E+000
  0.000000000000000E+000
  0.000000000000000E+000
  0.000000000000000E+000
  0.000000000000000E+000
  0.000000000000000E+000
  0.000000000000000E+000
  0.000000000000000E+000
  0.000000000000000E+000
  0.000000000000000E+000
  0.000000000000000E+000
  0.000000000000000E+000
  0.000000000000000E+000
  0.000000000000000E+000
  0.000000000000000E+000
  0.000000000000000E+000
  0.000000000000000E+000
  0.000000000000000E+000
  0.000000000000000E+000
  0.000000000000000E+000
  0.000000000000000E+000
  0.000000000000000E+000
  0.000000000000000E+000
  0.000000000000000E+000
  0.000000000000000E+000
  0.000000000000000E+000
  0.000000000000000E+000
  0.000000000000000E+000
  0.000000000000000E+000
  0.000000000000000E+000
  0.000000000000000E+000
  0.000000000000000E+000
  0.000000000000000E+000
  0.000000000000000E+000
  0.000000000000000E+000
  0.000000000000000E+000
  0.000000000000000E+000
  0.000000000000000E+000
  0.000000000000000E+000
  0.000000000000000E+000
  0.000000000000000E+000
  0.000000000000000E+000
  0.000000000000000E+000
  0.000000000000000E+000
  0.000000000000000E+000
  0.000000000000000E+000
  0.000000000000000E+000
  0.000000000000000E+000
  0.000000000000000E+000
  0.000000000000000E+000
  0.000000000000000E+000
  0.000000000000000E+000
  0.000000000000000E+000
  0.000000000000000E+000
  0.000000000000000E+000
  0.000000000000000E+000
  0.000000000000000E+000
  0.000000000000000E+000
  0.000000000000000E+000
  0.000000000000000E+000
  0.000000000000000E+000
  0.000000000000000E+000
  0.000000000000000E+000
  0.000000000000000E+000
  0.000000000000000E+000
  0.000000000000000E+000
  0.000000000000000E+000
  0.000000000000000E+000
  0.000000000000000E+000
  0.000000000000000E+000
  0.000000000000000E+000
  0.000000000000000E+000
  0.000000000000000E+000
  0.000000000000000E+000
  0.000000000000000E+000
  0.000000000000000E+000
  0.000000000000000E+000
  0.000000000000000E+000
  0.000000000000000E+000
  0.000000000000000E+000
  0.000000000000000E+000
  0.000000000000000E+000
  0.000000000000000E+000
  0.000000000000000E+000
  0.000000000000000E+000
  0.000000000000000E+000
  0.000000000000000E+000
  0.000000000000000E+000
  0.000000000000000E+000
  0.000000000000000E+000
  0.000000000000000E+000
  0.000000000000000E+000
  0.000000000000000E+000
  0.000000000000000E+000
  0.000000000000000E+000
  0.000000000000000E+000
  0.000000000000000E+000
  0.000000000000000E+000
  0.000000000000000E+000
  0.000000000000000E+000
  0.000000000000000E+000
  0.000000000000000E+000
  0.000000000000000E+000
  0.000000000000000E+000
  0.000000000000000E+000
  0.000000000000000E+000
  0.000000000000000E+000
  0.000000000000000E+000
  0.000000000000000E+000
  0.000000000000000E+000
  0.000000000000000E+000
  0.000000000000000E+000
  0.000000000000000E+000
  0.000000000000000E+000
  0.000000000000000E+000
  0.000000000000000E+000
  0.000000000000000E+000
  0.000000000000000E+000
  0.000000000000000E+000
  0.000000000000000E+000
  0.000000000000000E+000
  0.000000000000000E+000
  0.000000000000000E+000
  0.000000000000000E+000
  0.000000000000000E+000
  0.000000000000000E+000
  0.000000000000000E+000
  0.000000000000000E+000
  0.000000000000000E+000
  0.000000000000000E+000
  0.000000000000000E+000
  0.000000000000000E+000
  0.000000000000000E+000
  0.000000000000000E+000
  0.000000000000000E+000
  0.000000000000000E+000
  0.000000000000000E+000
  0.000000000000000E+000
  0.000000000000000E+000
  0.000000000000000E+000
  0.000000000000000E+000
  0.000000000000000E+000
  0.000000000000000E+000
  0.000000000000000E+000
  0.000000000000000E+000
  0.000000000000000E+000
  0.000000000000000E+000
  0.000000000000000E+000
  0.000000000000000E+000
  0.000000000000000E+000
  0.000000000000000E+000
  0.000000000000000E+000
  0.000000000000000E+000
  0.000000000000000E+000
  0.000000000000000E+000
  0.000000000000000E+000
  0.000000000000000E+000
  0.000000000000000E+000
  0.000000000000000E+000
  0.000000000000000E+000
  0.000000000000000E+000
  0.000000000000000E+000
  0.000000000000000E+000
  0.000000000000000E+000
  0.000000000000000E+000
  0.000000000000000E+000
  0.000000000000000E+000
  0.000000000000000E+000
  0.000000000000000E+000
  0.000000000000000E+000
  0.000000000000000E+000
  0.000000000000000E+000
  0.000000000000000E+000
  0.000000000000000E+000
  0.000000000000000E+000
  0.000000000000000E+000
  0.000000000000000E+000
  0.000000000000000E+000
  0.000000000000000E+000
  0.000000000000000E+000
  0.000000000000000E+000
  0.000000000000000E+000
  0.000000000000000E+000
  0.000000000000000E+000
  0.000000000000000E+000
  0.000000000000000E+000
  0.000000000000000E+000
  0.000000000000000E+000
  0.000000000000000E+000
  0.000000000000000E+000
  0.000000000000000E+000
  0.000000000000000E+000
  0.000000000000000E+000
  0.000000000000000E+000
  0.000000000000000E+000
  0.000000000000000E+000
  0.000000000000000E+000
  0.000000000000000E+000
  0.000000000000000E+000
  0.000000000000000E+000
  0.000000000000000E+000
  0.000000000000000E+000
  0.000000000000000E+000
  0.000000000000000E+000
  0.000000000000000E+000
  0.000000000000000E+000
  0.000000000000000E+000
  0.000000000000000E+000
  0.000000000000000E+000
  0.000000000000000E+000
  0.000000000000000E+000
  0.000000000000000E+000
  0.000000000000000E+000
  0.000000000000000E+000
  0.000000000000000E+000
  0.000000000000000E+000
  0.000000000000000E+000
  0.000000000000000E+000
  0.000000000000000E+000
  0.000000000000000E+000
  0.000000000000000E+000
  0.000000000000000E+000
  0.000000000000000E+000
  0.000000000000000E+000
  0.000000000000000E+000
  0.000000000000000E+000
  0.000000000000000E+000
  0.000000000000000E+000
  0.000000000000000E+000
  0.000000000000000E+000
  0.000000000000000E+000
  0.000000000000000E+000
  0.000000000000000E+000
  0.000000000000000E+000
  0.000000000000000E+000
  0.000000000000000E+000
  0.000000000000000E+000
  0.000000000000000E+000
  0.000000000000000E+000
  0.000000000000000E+000
  0.000000000000000E+000
  0.000000000000000E+000
  0.000000000000000E+000
  0.000000000000000E+000
  0.000000000000000E+000
  0.000000000000000E+000
  0.000000000000000E+000
  0.000000000000000E+000
  0.000000000000000E+000
  0.000000000000000E+000
  0.000000000000000E+000
  0.000000000000000E+000
  0.000000000000000E+000
  0.000000000000000E+000
  0.000000000000000E+000
  0.000000000000000E+000
  0.000000000000000E+000
  0.000000000000000E+000
  0.000000000000000E+000
  0.000000000000000E+000
  0.000000000000000E+000
  0.000000000000000E+000
  0.000000000000000E+000
  0.000000000000000E+000
  0.000000000000000E+000
  0.000000000000000E+000
  0.000000000000000E+000
  0.000000000000000E+000
  0.000000000000000E+000
  0.000000000000000E+000
  0.000000000000000E+000
  0.000000000000000E+000
  0.000000000000000E+000
  0.000000000000000E+000
  0.000000000000000E+000
  0.000000000000000E+000
  0.000000000000000E+000
  0.000000000000000E+000
  0.000000000000000E+000
  0.000000000000000E+000
  0.000000000000000E+000
  0.000000000000000E+000
  0.000000000000000E+000
  0.000000000000000E+000
  0.000000000000000E+000
  0.000000000000000E+000
  0.000000000000000E+000
  0.000000000000000E+000
  0.000000000000000E+000
  0.000000000000000E+000
  0.000000000000000E+000
  0.000000000000000E+000
  0.000000000000000E+000
  0.000000000000000E+000
  0.000000000000000E+000
  0.000000000000000E+000
  0.000000000000000E+000
  0.000000000000000E+000
  0.000000000000000E+000
  0.000000000000000E+000
  0.000000000000000E+000
  0.000000000000000E+000
  0.000000000000000E+000
  0.000000000000000E+000
  0.000000000000000E+000
  0.000000000000000E+000
  0.000000000000000E+000
  0.000000000000000E+000
  0.000000000000000E+000
  0.000000000000000E+000
  0.000000000000000E+000
  0.000000000000000E+000
  0.000000000000000E+000
  0.000000000000000E+000
  0.000000000000000E+000
  0.000000000000000E+000
  0.000000000000000E+000
  0.000000000000000E+000
  0.000000000000000E+000
  0.000000000000000E+000
  0.000000000000000E+000
  0.000000000000000E+000
  0.000000000000000E+000
  0.000000000000000E+000
  0.000000000000000E+000
  0.000000000000000E+000
  0.000000000000000E+000
  0.000000000000000E+000
  0.000000000000000E+000
  0.000000000000000E+000
  0.000000000000000E+000
  0.000000000000000E+000
  0.000000000000000E+000
  0.000000000000000E+000
  0.000000000000000E+000
  0.000000000000000E+000
  0.000000000000000E+000
  0.000000000000000E+000
  0.000000000000000E+000
  0.000000000000000E+000
  0.000000000000000E+000
  0.000000000000000E+000
  0.000000000000000E+000
  0.000000000000000E+000
  0.000000000000000E+000
  0.000000000000000E+000
  0.000000000000000E+000
  0.000000000000000E+000
  0.000000000000000E+000
  0.000000000000000E+000
  0.000000000000000E+000
  0.000000000000000E+000
  0.000000000000000E+000
  0.000000000000000E+000
  0.000000000000000E+000
  0.000000000000000E+000
  0.000000000000000E+000
  0.000000000000000E+000
  0.000000000000000E+000
  0.000000000000000E+000
  0.000000000000000E+000
  0.000000000000000E+000
  0.000000000000000E+000
  0.000000000000000E+000
  0.000000000000000E+000
  0.000000000000000E+000
  0.000000000000000E+000
  0.000000000000000E+000
  0.000000000000000E+000
  0.000000000000000E+000
  0.000000000000000E+000
  0.000000000000000E+000
SCALARS poroL double 
LOOKUP_TABLE default
  0.155966778388511     
  0.155966338935855     
  0.155965923090905     
  0.155965530486801     
  0.155965160572380     
  0.155964812648247     
  0.155964485901311     
  0.155964179437204     
  0.155963892310046     
  0.155963623549139     
  0.155963372182192     
  0.155963137254753     
  0.155962917845536     
  0.155962713077356     
  0.155962522123432     
  0.155966714701807     
  0.155966275409178     
  0.155965859945425     
  0.155965467906488     
  0.155965098704866     
  0.155964751606390     
  0.155964425765362     
  0.155964120257476     
  0.155963834110020     
  0.155963566328936     
  0.155963315922389     
  0.155963081920493     
  0.155962863390921     
  0.155962659450102     
  0.155962469269754     
  0.155966587028278     
  0.155966148093303     
  0.155965733429463     
  0.155965342557471     
  0.155964974816447     
  0.155964629402084     
  0.155964305402972     
  0.155964001834506     
  0.155963717669934     
  0.155963451868160     
  0.155963203397954     
  0.155962971258285     
  0.155962754494482     
  0.155962552209962     
  0.155962363573240     
  0.155966394766814     
  0.155965956463281     
  0.155965543093927     
  0.155965154064572     
  0.155964788602529     
  0.155964445796828     
  0.155964124636260     
  0.155963824044725     
  0.155963542913513     
  0.155963280130156     
  0.155963034603593     
  0.155962805285377     
  0.155962591186670     
  0.155962391390759     
  0.155962205060818     
  0.155966137013723     
  0.155965699732062     
  0.155965288267595     
  0.155964901869158     
  0.155964539611799     
  0.155964200439656     
  0.155963883206214     
  0.155963586711487     
  0.155963309735837     
  0.155963051070167     
  0.155962809542284     
  0.155962584039228     
  0.155962373525364     
  0.155962177055975     
  0.155961993786072     
  0.155965812560743     
  0.155965376851348     
  0.155964968060372     
  0.155964585234418     
  0.155964227253171     
  0.155963892875483     
  0.155963580782222     
  0.155963289615607     
  0.155963018014804     
  0.155962764647652     
  0.155962528238414     
  0.155962307591438     
  0.155962101610582     
  0.155961909314180     
  0.155961729845250     
  0.155965419893130     
  0.155964986513417     
  0.155964581368249     
  0.155964203252910     
  0.155963850805489     
  0.155963522556573     
  0.155963216975012     
  0.155962932509585     
  0.155962667626500     
  0.155962420842745     
  0.155962190755322     
  0.155961976066381     
  0.155961775604190     
  0.155961588339776     
  0.155961413398929     
  0.155964957188480     
  0.155964527154514     
  0.155964126880484     
  0.155963754856871     
  0.155963409430352     
  0.155963088857422     
  0.155962791353232     
  0.155962515135629     
  0.155962258464536     
  0.155962019676868     
  0.155961797217219     
  0.155961589664504     
  0.155961395754643     
  0.155961214399178     
  0.155961044699538     
  0.155964422317157     
  0.155963996960587     
  0.155963603089712     
  0.155963238831838     
  0.155962902188546     
  0.155962591093408     
  0.155962303463883     
  0.155962037247601     
  0.155961790463380     
  0.155961561237460     
  0.155961347835419     
  0.155961148690234     
  0.155960962426737     
  0.155960787882517     
  0.155960624124977     
  0.155963812845344     
  0.155963393876327     
  0.155963008305816     
  0.155962653834340     
  0.155962328060676     
  0.155962028543652     
  0.155961752856900     
  0.155961498637001     
  0.155961263625651     
  0.155961045706665     
  0.155960842938674     
  0.155960653584278     
  0.155960476136227     
  0.155960309340851     
  0.155960152218547     
  0.155963126042011     
  0.155962715618651     
  0.155962340674590     
  0.155961998414528     
  0.155961685972704     
  0.155961400478613     
  0.155961139114183     
  0.155960899163100     
  0.155960678053279     
  0.155960473393743     
  0.155960283007254     
  0.155960104959957     
  0.155959937589015     
  0.155959779528757     
  0.155959629735268     
  0.155962358891232     
  0.155961959695985     
  0.155961598202423     
  0.155961271044821     
  0.155960974827279     
  0.155960706193044     
  0.155960461883425     
  0.155960238787246     
  0.155960033982310     
  0.155959844770730     
  0.155959668710162     
  0.155959503642887     
  0.155959347724314     
  0.155959199451891     
  0.155959057694551     
  0.155961508111518     
  0.155961123434888     
  0.155960778788462     
  0.155960470155882     
  0.155960193541934     
  0.155959945045082     
  0.155959720917144     
  0.155959517611366     
  0.155959331820932     
  0.155959160510608     
  0.155959000944516     
  0.155958850712962     
  0.155958707760777     
  0.155958570418775     
  0.155958437438850     
  0.155960570183921     
  0.155960204015806     
  0.155959880266002     
  0.155959594181562     
  0.155959341095561     
  0.155959116502480     
  0.155958916117404     
  0.155958735920570     
  0.155958572190118     
  0.155958421526883     
  0.155958280875624     
  0.155958147547004     
  0.155958019244029     
  0.155957894095495     
  0.155957770697495     
  0.155959541390761     
  0.155959198519966     
  0.155958900455265     
  0.155958641614927     
  0.155958416584976     
  0.155958220197314     
  0.155958047586881     
  0.155957894229723     
  0.155957755965918     
  0.155957629012907     
  0.155957509975604     
  0.155957395859638     
  0.155957284093173     
  0.155957172561221     
  0.155957059654245     
  0.155958417866776     
  0.155958103989759     
  0.155957837230320     
  0.155957611078237     
  0.155957419294184     
  0.155957255991052     
  0.155957115687179     
  0.155956993333756     
  0.155956884322066     
  0.155956784478610     
  0.155956690057441     
  0.155956597738902     
  0.155956504642749     
  0.155956408361394     
  0.155956307016160     
  0.155957195664293     
  0.155956917505379     
  0.155956688603829     
  0.155956501410902     
  0.155956348780004     
  0.155956224052736     
  0.155956121105741     
  0.155956034361437     
  0.155955958770963     
  0.155955889781289     
  0.155955823300071     
  0.155955755671570     
  0.155955683675047     
  0.155955604553933     
  0.155955516080067     
  0.155955870833736     
  0.155955636281347     
  0.155955452834940     
  0.155955311781384     
  0.155955204979583     
  0.155955124954330     
  0.155955064933327     
  0.155955018832192     
  0.155954981200346     
  0.155954947145748     
  0.155954912258327     
  0.155954872551179     
  0.155954824435628     
  0.155954764741846     
  0.155954690791179     
  0.155954439520418     
  0.155954257788025     
  0.155954128568359     
  0.155954041832202     
  0.155953988348129     
  0.155953959789298     
  0.155953948754944     
  0.155953948715439     
  0.155953953901817     
  0.155953959167215     
  0.155953959849087     
  0.155953951658964     
  0.155953930622081     
  0.155953893083048     
  0.155953835786193     
  0.155952898078420     
  0.155952779906233     
  0.155952715017554     
  0.155952691872415     
  0.155952700039583     
  0.155952730323275     
  0.155952774758248     
  0.155952826491449     
  0.155952879585722     
  0.155952928787773     
  0.155952969301646     
  0.155952996604145     
  0.155953006332255     
  0.155952994264762     
  0.155952956410396     
  0.155951243203071     
  0.155951201129076     
  0.155951212213746     
  0.155951263140688     
  0.155951342149575     
  0.155951439189445     
  0.155951545864428     
  0.155951655211766     
  0.155951761374478     
  0.155951859233488     
  0.155951944055712     
  0.155952011204772     
  0.155952055952953     
  0.155952073425356     
  0.155952058695101     
  0.155949472086472     
  0.155949520837043     
  0.155949621358262     
  0.155949758176399     
  0.155949918049511     
  0.155950090145284     
  0.155950265886681     
  0.155950438555021     
  0.155950602762987     
  0.155950753894834     
  0.155950887584453     
  0.155950999282931     
  0.155951083962347     
  0.155951136000031     
  0.155951149277905     
  0.155947582608618     
  0.155947739697093     
  0.155947945345374     
  0.155948181359928     
  0.155948432853014     
  0.155948688409618     
  0.155948939718093     
  0.155949180869499     
  0.155949407530625     
  0.155949616128312     
  0.155949803112564     
  0.155949964337635     
  0.155950094607059     
  0.155950187456728     
  0.155950235243629     
  0.155945573597437     
  0.155945860288283     
  0.155946189579811     
  0.155946539721531     
  0.155946894068319     
  0.155947241092825     
  0.155947573539038     
  0.155947887185461     
  0.155948179586526     
  0.155948448954703     
  0.155948693192681     
  0.155948909042171     
  0.155949091394089     
  0.155949232869263     
  0.155949323857349     
  0.155943445239981     
  0.155943888175238     
  0.155944363325806     
  0.155944844176964     
  0.155945312489278     
  0.155945757701188     
  0.155946175004339     
  0.155946563167938     
  0.155946922732636     
  0.155947254640540     
  0.155947559098238     
  0.155947834493290     
  0.155948076291620     
  0.155948276238572     
  0.155948422144328     
  0.155941199874388     
  0.155941833928935     
  0.155942482064423     
  0.155943111416193     
  0.155943703313554     
  0.155944250604947     
  0.155944753307034     
  0.155945214966873     
  0.155945640357472     
  0.155946034177065     
  0.155946400029630     
  0.155946739083175     
  0.155947048471333     
  0.155947319352591     
  0.155947536250079     
  0.155938843747226     
  0.155939717436178     
  0.155940571792068     
  0.155941366638163     
  0.155942087223594     
  0.155942735121922     
  0.155943318952260     
  0.155943848917037     
  0.155944335106921     
  0.155944786828291     
  0.155945212135751     
  0.155945616980691     
  0.155946002067497     
  0.155946359868838     
  0.155946670300382     
  0.155936392536171     
  0.155937577917300     
  0.155938677077172     
  0.155939646660569     
  0.155940490127189     
  0.155941228759464     
  0.155941883032252     
  0.155942471057511     
  0.155943008642588     
  0.155943509955528     
  0.155943988164749     
  0.155944455566303     
  0.155944923000678     
  0.155945386533844     
  0.155945824775865     
  0.155933888584052     
  0.155935503341974     
  0.155936873539926     
  0.155937997066574     
  0.155938940567801     
  0.155939749093248     
  0.155940455922922     
  0.155941086490910     
  0.155941661569858     
  0.155942199497436     
  0.155942718059054     
  0.155943236552661     
  0.155943777574066     
  0.155944373719803     
  0.155944988047904     
  0.155931533209022     
  0.155933698476478     
  0.155935245503230     
  0.155936463334772     
  0.155937463621481     
  0.155938310508601     
  0.155939045544615     
  0.155939698674391     
  0.155940293581725     
  0.155940851029857     
  0.155941391627484     
  0.155941939127699     
  0.155942526557446     
  0.155943208986706     
  0.155944149976006     
