# vtk DataFile Version 3.0
vtk output
ASCII
DATASET UNSTRUCTURED_GRID
POINTS       496 double 
  0.00000000E+00  3.00000000E+02  0.00000000E+00
  0.00000000E+00  2.80000000E+02  0.00000000E+00
  0.00000000E+00  2.60000000E+02  0.00000000E+00
  0.00000000E+00  2.40000000E+02  0.00000000E+00
  0.00000000E+00  2.20000000E+02  0.00000000E+00
  0.00000000E+00  2.00000000E+02  0.00000000E+00
  0.00000000E+00  1.80000000E+02  0.00000000E+00
  0.00000000E+00  1.60000000E+02  0.00000000E+00
  0.00000000E+00  1.40000000E+02  0.00000000E+00
  0.00000000E+00  1.20000000E+02  0.00000000E+00
  0.00000000E+00  1.00000000E+02  0.00000000E+00
  0.00000000E+00  8.00000000E+01  0.00000000E+00
  0.00000000E+00  6.00000000E+01  0.00000000E+00
  0.00000000E+00  4.00000000E+01  0.00000000E+00
  0.00000000E+00  2.00000000E+01  0.00000000E+00
  0.00000000E+00  4.99600361E-14  0.00000000E+00
  2.00000000E+01  3.00000000E+02  0.00000000E+00
  2.00000000E+01  2.80000000E+02  0.00000000E+00
  2.00000000E+01  2.60000000E+02  0.00000000E+00
  2.00000000E+01  2.40000000E+02  0.00000000E+00
  2.00000000E+01  2.20000000E+02  0.00000000E+00
  2.00000000E+01  2.00000000E+02  0.00000000E+00
  2.00000000E+01  1.80000000E+02  0.00000000E+00
  2.00000000E+01  1.60000000E+02  0.00000000E+00
  2.00000000E+01  1.40000000E+02  0.00000000E+00
  2.00000000E+01  1.20000000E+02  0.00000000E+00
  2.00000000E+01  1.00000000E+02  0.00000000E+00
  2.00000000E+01  8.00000000E+01  0.00000000E+00
  2.00000000E+01  6.00000000E+01  0.00000000E+00
  2.00000000E+01  4.00000000E+01  0.00000000E+00
  2.00000000E+01  2.00000000E+01  0.00000000E+00
  2.00000000E+01  4.99600361E-14  0.00000000E+00
  4.00000000E+01  3.00000000E+02  0.00000000E+00
  4.00000000E+01  2.80000000E+02  0.00000000E+00
  4.00000000E+01  2.60000000E+02  0.00000000E+00
  4.00000000E+01  2.40000000E+02  0.00000000E+00
  4.00000000E+01  2.20000000E+02  0.00000000E+00
  4.00000000E+01  2.00000000E+02  0.00000000E+00
  4.00000000E+01  1.80000000E+02  0.00000000E+00
  4.00000000E+01  1.60000000E+02  0.00000000E+00
  4.00000000E+01  1.40000000E+02  0.00000000E+00
  4.00000000E+01  1.20000000E+02  0.00000000E+00
  4.00000000E+01  1.00000000E+02  0.00000000E+00
  4.00000000E+01  8.00000000E+01  0.00000000E+00
  4.00000000E+01  6.00000000E+01  0.00000000E+00
  4.00000000E+01  4.00000000E+01  0.00000000E+00
  4.00000000E+01  2.00000000E+01  0.00000000E+00
  4.00000000E+01  4.99600361E-14  0.00000000E+00
  6.00000000E+01  3.00000000E+02  0.00000000E+00
  6.00000000E+01  2.80000000E+02  0.00000000E+00
  6.00000000E+01  2.60000000E+02  0.00000000E+00
  6.00000000E+01  2.40000000E+02  0.00000000E+00
  6.00000000E+01  2.20000000E+02  0.00000000E+00
  6.00000000E+01  2.00000000E+02  0.00000000E+00
  6.00000000E+01  1.80000000E+02  0.00000000E+00
  6.00000000E+01  1.60000000E+02  0.00000000E+00
  6.00000000E+01  1.40000000E+02  0.00000000E+00
  6.00000000E+01  1.20000000E+02  0.00000000E+00
  6.00000000E+01  1.00000000E+02  0.00000000E+00
  6.00000000E+01  8.00000000E+01  0.00000000E+00
  6.00000000E+01  6.00000000E+01  0.00000000E+00
  6.00000000E+01  4.00000000E+01  0.00000000E+00
  6.00000000E+01  2.00000000E+01  0.00000000E+00
  6.00000000E+01  4.99600361E-14  0.00000000E+00
  8.00000000E+01  3.00000000E+02  0.00000000E+00
  8.00000000E+01  2.80000000E+02  0.00000000E+00
  8.00000000E+01  2.60000000E+02  0.00000000E+00
  8.00000000E+01  2.40000000E+02  0.00000000E+00
  8.00000000E+01  2.20000000E+02  0.00000000E+00
  8.00000000E+01  2.00000000E+02  0.00000000E+00
  8.00000000E+01  1.80000000E+02  0.00000000E+00
  8.00000000E+01  1.60000000E+02  0.00000000E+00
  8.00000000E+01  1.40000000E+02  0.00000000E+00
  8.00000000E+01  1.20000000E+02  0.00000000E+00
  8.00000000E+01  1.00000000E+02  0.00000000E+00
  8.00000000E+01  8.00000000E+01  0.00000000E+00
  8.00000000E+01  6.00000000E+01  0.00000000E+00
  8.00000000E+01  4.00000000E+01  0.00000000E+00
  8.00000000E+01  2.00000000E+01  0.00000000E+00
  8.00000000E+01  4.99600361E-14  0.00000000E+00
  1.00000000E+02  3.00000000E+02  0.00000000E+00
  1.00000000E+02  2.80000000E+02  0.00000000E+00
  1.00000000E+02  2.60000000E+02  0.00000000E+00
  1.00000000E+02  2.40000000E+02  0.00000000E+00
  1.00000000E+02  2.20000000E+02  0.00000000E+00
  1.00000000E+02  2.00000000E+02  0.00000000E+00
  1.00000000E+02  1.80000000E+02  0.00000000E+00
  1.00000000E+02  1.60000000E+02  0.00000000E+00
  1.00000000E+02  1.40000000E+02  0.00000000E+00
  1.00000000E+02  1.20000000E+02  0.00000000E+00
  1.00000000E+02  1.00000000E+02  0.00000000E+00
  1.00000000E+02  8.00000000E+01  0.00000000E+00
  1.00000000E+02  6.00000000E+01  0.00000000E+00
  1.00000000E+02  4.00000000E+01  0.00000000E+00
  1.00000000E+02  2.00000000E+01  0.00000000E+00
  1.00000000E+02  4.99600361E-14  0.00000000E+00
  1.20000000E+02  3.00000000E+02  0.00000000E+00
  1.20000000E+02  2.80000000E+02  0.00000000E+00
  1.20000000E+02  2.60000000E+02  0.00000000E+00
  1.20000000E+02  2.40000000E+02  0.00000000E+00
  1.20000000E+02  2.20000000E+02  0.00000000E+00
  1.20000000E+02  2.00000000E+02  0.00000000E+00
  1.20000000E+02  1.80000000E+02  0.00000000E+00
  1.20000000E+02  1.60000000E+02  0.00000000E+00
  1.20000000E+02  1.40000000E+02  0.00000000E+00
  1.20000000E+02  1.20000000E+02  0.00000000E+00
  1.20000000E+02  1.00000000E+02  0.00000000E+00
  1.20000000E+02  8.00000000E+01  0.00000000E+00
  1.20000000E+02  6.00000000E+01  0.00000000E+00
  1.20000000E+02  4.00000000E+01  0.00000000E+00
  1.20000000E+02  2.00000000E+01  0.00000000E+00
  1.20000000E+02  4.99600361E-14  0.00000000E+00
  1.40000000E+02  3.00000000E+02  0.00000000E+00
  1.40000000E+02  2.80000000E+02  0.00000000E+00
  1.40000000E+02  2.60000000E+02  0.00000000E+00
  1.40000000E+02  2.40000000E+02  0.00000000E+00
  1.40000000E+02  2.20000000E+02  0.00000000E+00
  1.40000000E+02  2.00000000E+02  0.00000000E+00
  1.40000000E+02  1.80000000E+02  0.00000000E+00
  1.40000000E+02  1.60000000E+02  0.00000000E+00
  1.40000000E+02  1.40000000E+02  0.00000000E+00
  1.40000000E+02  1.20000000E+02  0.00000000E+00
  1.40000000E+02  1.00000000E+02  0.00000000E+00
  1.40000000E+02  8.00000000E+01  0.00000000E+00
  1.40000000E+02  6.00000000E+01  0.00000000E+00
  1.40000000E+02  4.00000000E+01  0.00000000E+00
  1.40000000E+02  2.00000000E+01  0.00000000E+00
  1.40000000E+02  4.99600361E-14  0.00000000E+00
  1.60000000E+02  3.00000000E+02  0.00000000E+00
  1.60000000E+02  2.80000000E+02  0.00000000E+00
  1.60000000E+02  2.60000000E+02  0.00000000E+00
  1.60000000E+02  2.40000000E+02  0.00000000E+00
  1.60000000E+02  2.20000000E+02  0.00000000E+00
  1.60000000E+02  2.00000000E+02  0.00000000E+00
  1.60000000E+02  1.80000000E+02  0.00000000E+00
  1.60000000E+02  1.60000000E+02  0.00000000E+00
  1.60000000E+02  1.40000000E+02  0.00000000E+00
  1.60000000E+02  1.20000000E+02  0.00000000E+00
  1.60000000E+02  1.00000000E+02  0.00000000E+00
  1.60000000E+02  8.00000000E+01  0.00000000E+00
  1.60000000E+02  6.00000000E+01  0.00000000E+00
  1.60000000E+02  4.00000000E+01  0.00000000E+00
  1.60000000E+02  2.00000000E+01  0.00000000E+00
  1.60000000E+02  4.99600361E-14  0.00000000E+00
  1.80000000E+02  3.00000000E+02  0.00000000E+00
  1.80000000E+02  2.80000000E+02  0.00000000E+00
  1.80000000E+02  2.60000000E+02  0.00000000E+00
  1.80000000E+02  2.40000000E+02  0.00000000E+00
  1.80000000E+02  2.20000000E+02  0.00000000E+00
  1.80000000E+02  2.00000000E+02  0.00000000E+00
  1.80000000E+02  1.80000000E+02  0.00000000E+00
  1.80000000E+02  1.60000000E+02  0.00000000E+00
  1.80000000E+02  1.40000000E+02  0.00000000E+00
  1.80000000E+02  1.20000000E+02  0.00000000E+00
  1.80000000E+02  1.00000000E+02  0.00000000E+00
  1.80000000E+02  8.00000000E+01  0.00000000E+00
  1.80000000E+02  6.00000000E+01  0.00000000E+00
  1.80000000E+02  4.00000000E+01  0.00000000E+00
  1.80000000E+02  2.00000000E+01  0.00000000E+00
  1.80000000E+02  4.99600361E-14  0.00000000E+00
  2.00000000E+02  3.00000000E+02  0.00000000E+00
  2.00000000E+02  2.80000000E+02  0.00000000E+00
  2.00000000E+02  2.60000000E+02  0.00000000E+00
  2.00000000E+02  2.40000000E+02  0.00000000E+00
  2.00000000E+02  2.20000000E+02  0.00000000E+00
  2.00000000E+02  2.00000000E+02  0.00000000E+00
  2.00000000E+02  1.80000000E+02  0.00000000E+00
  2.00000000E+02  1.60000000E+02  0.00000000E+00
  2.00000000E+02  1.40000000E+02  0.00000000E+00
  2.00000000E+02  1.20000000E+02  0.00000000E+00
  2.00000000E+02  1.00000000E+02  0.00000000E+00
  2.00000000E+02  8.00000000E+01  0.00000000E+00
  2.00000000E+02  6.00000000E+01  0.00000000E+00
  2.00000000E+02  4.00000000E+01  0.00000000E+00
  2.00000000E+02  2.00000000E+01  0.00000000E+00
  2.00000000E+02  4.99600361E-14  0.00000000E+00
  2.20000000E+02  3.00000000E+02  0.00000000E+00
  2.20000000E+02  2.80000000E+02  0.00000000E+00
  2.20000000E+02  2.60000000E+02  0.00000000E+00
  2.20000000E+02  2.40000000E+02  0.00000000E+00
  2.20000000E+02  2.20000000E+02  0.00000000E+00
  2.20000000E+02  2.00000000E+02  0.00000000E+00
  2.20000000E+02  1.80000000E+02  0.00000000E+00
  2.20000000E+02  1.60000000E+02  0.00000000E+00
  2.20000000E+02  1.40000000E+02  0.00000000E+00
  2.20000000E+02  1.20000000E+02  0.00000000E+00
  2.20000000E+02  1.00000000E+02  0.00000000E+00
  2.20000000E+02  8.00000000E+01  0.00000000E+00
  2.20000000E+02  6.00000000E+01  0.00000000E+00
  2.20000000E+02  4.00000000E+01  0.00000000E+00
  2.20000000E+02  2.00000000E+01  0.00000000E+00
  2.20000000E+02  4.99600361E-14  0.00000000E+00
  2.40000000E+02  3.00000000E+02  0.00000000E+00
  2.40000000E+02  2.80000000E+02  0.00000000E+00
  2.40000000E+02  2.60000000E+02  0.00000000E+00
  2.40000000E+02  2.40000000E+02  0.00000000E+00
  2.40000000E+02  2.20000000E+02  0.00000000E+00
  2.40000000E+02  2.00000000E+02  0.00000000E+00
  2.40000000E+02  1.80000000E+02  0.00000000E+00
  2.40000000E+02  1.60000000E+02  0.00000000E+00
  2.40000000E+02  1.40000000E+02  0.00000000E+00
  2.40000000E+02  1.20000000E+02  0.00000000E+00
  2.40000000E+02  1.00000000E+02  0.00000000E+00
  2.40000000E+02  8.00000000E+01  0.00000000E+00
  2.40000000E+02  6.00000000E+01  0.00000000E+00
  2.40000000E+02  4.00000000E+01  0.00000000E+00
  2.40000000E+02  2.00000000E+01  0.00000000E+00
  2.40000000E+02  4.99600361E-14  0.00000000E+00
  2.60000000E+02  3.00000000E+02  0.00000000E+00
  2.60000000E+02  2.80000000E+02  0.00000000E+00
  2.60000000E+02  2.60000000E+02  0.00000000E+00
  2.60000000E+02  2.40000000E+02  0.00000000E+00
  2.60000000E+02  2.20000000E+02  0.00000000E+00
  2.60000000E+02  2.00000000E+02  0.00000000E+00
  2.60000000E+02  1.80000000E+02  0.00000000E+00
  2.60000000E+02  1.60000000E+02  0.00000000E+00
  2.60000000E+02  1.40000000E+02  0.00000000E+00
  2.60000000E+02  1.20000000E+02  0.00000000E+00
  2.60000000E+02  1.00000000E+02  0.00000000E+00
  2.60000000E+02  8.00000000E+01  0.00000000E+00
  2.60000000E+02  6.00000000E+01  0.00000000E+00
  2.60000000E+02  4.00000000E+01  0.00000000E+00
  2.60000000E+02  2.00000000E+01  0.00000000E+00
  2.60000000E+02  4.99600361E-14  0.00000000E+00
  2.80000000E+02  3.00000000E+02  0.00000000E+00
  2.80000000E+02  2.80000000E+02  0.00000000E+00
  2.80000000E+02  2.60000000E+02  0.00000000E+00
  2.80000000E+02  2.40000000E+02  0.00000000E+00
  2.80000000E+02  2.20000000E+02  0.00000000E+00
  2.80000000E+02  2.00000000E+02  0.00000000E+00
  2.80000000E+02  1.80000000E+02  0.00000000E+00
  2.80000000E+02  1.60000000E+02  0.00000000E+00
  2.80000000E+02  1.40000000E+02  0.00000000E+00
  2.80000000E+02  1.20000000E+02  0.00000000E+00
  2.80000000E+02  1.00000000E+02  0.00000000E+00
  2.80000000E+02  8.00000000E+01  0.00000000E+00
  2.80000000E+02  6.00000000E+01  0.00000000E+00
  2.80000000E+02  4.00000000E+01  0.00000000E+00
  2.80000000E+02  2.00000000E+01  0.00000000E+00
  2.80000000E+02  4.99600361E-14  0.00000000E+00
  3.00000000E+02  3.00000000E+02  0.00000000E+00
  3.00000000E+02  2.80000000E+02  0.00000000E+00
  3.00000000E+02  2.60000000E+02  0.00000000E+00
  3.00000000E+02  2.40000000E+02  0.00000000E+00
  3.00000000E+02  2.20000000E+02  0.00000000E+00
  3.00000000E+02  2.00000000E+02  0.00000000E+00
  3.00000000E+02  1.80000000E+02  0.00000000E+00
  3.00000000E+02  1.60000000E+02  0.00000000E+00
  3.00000000E+02  1.40000000E+02  0.00000000E+00
  3.00000000E+02  1.20000000E+02  0.00000000E+00
  3.00000000E+02  1.00000000E+02  0.00000000E+00
  3.00000000E+02  8.00000000E+01  0.00000000E+00
  3.00000000E+02  6.00000000E+01  0.00000000E+00
  3.00000000E+02  4.00000000E+01  0.00000000E+00
  3.00000000E+02  2.00000000E+01  0.00000000E+00
  3.00000000E+02  4.99600361E-14  0.00000000E+00
  3.20000000E+02  3.00000000E+02  0.00000000E+00
  3.20000000E+02  2.80000000E+02  0.00000000E+00
  3.20000000E+02  2.60000000E+02  0.00000000E+00
  3.20000000E+02  2.40000000E+02  0.00000000E+00
  3.20000000E+02  2.20000000E+02  0.00000000E+00
  3.20000000E+02  2.00000000E+02  0.00000000E+00
  3.20000000E+02  1.80000000E+02  0.00000000E+00
  3.20000000E+02  1.60000000E+02  0.00000000E+00
  3.20000000E+02  1.40000000E+02  0.00000000E+00
  3.20000000E+02  1.20000000E+02  0.00000000E+00
  3.20000000E+02  1.00000000E+02  0.00000000E+00
  3.20000000E+02  8.00000000E+01  0.00000000E+00
  3.20000000E+02  6.00000000E+01  0.00000000E+00
  3.20000000E+02  4.00000000E+01  0.00000000E+00
  3.20000000E+02  2.00000000E+01  0.00000000E+00
  3.20000000E+02  4.99600361E-14  0.00000000E+00
  3.40000000E+02  3.00000000E+02  0.00000000E+00
  3.40000000E+02  2.80000000E+02  0.00000000E+00
  3.40000000E+02  2.60000000E+02  0.00000000E+00
  3.40000000E+02  2.40000000E+02  0.00000000E+00
  3.40000000E+02  2.20000000E+02  0.00000000E+00
  3.40000000E+02  2.00000000E+02  0.00000000E+00
  3.40000000E+02  1.80000000E+02  0.00000000E+00
  3.40000000E+02  1.60000000E+02  0.00000000E+00
  3.40000000E+02  1.40000000E+02  0.00000000E+00
  3.40000000E+02  1.20000000E+02  0.00000000E+00
  3.40000000E+02  1.00000000E+02  0.00000000E+00
  3.40000000E+02  8.00000000E+01  0.00000000E+00
  3.40000000E+02  6.00000000E+01  0.00000000E+00
  3.40000000E+02  4.00000000E+01  0.00000000E+00
  3.40000000E+02  2.00000000E+01  0.00000000E+00
  3.40000000E+02  4.99600361E-14  0.00000000E+00
  3.60000000E+02  3.00000000E+02  0.00000000E+00
  3.60000000E+02  2.80000000E+02  0.00000000E+00
  3.60000000E+02  2.60000000E+02  0.00000000E+00
  3.60000000E+02  2.40000000E+02  0.00000000E+00
  3.60000000E+02  2.20000000E+02  0.00000000E+00
  3.60000000E+02  2.00000000E+02  0.00000000E+00
  3.60000000E+02  1.80000000E+02  0.00000000E+00
  3.60000000E+02  1.60000000E+02  0.00000000E+00
  3.60000000E+02  1.40000000E+02  0.00000000E+00
  3.60000000E+02  1.20000000E+02  0.00000000E+00
  3.60000000E+02  1.00000000E+02  0.00000000E+00
  3.60000000E+02  8.00000000E+01  0.00000000E+00
  3.60000000E+02  6.00000000E+01  0.00000000E+00
  3.60000000E+02  4.00000000E+01  0.00000000E+00
  3.60000000E+02  2.00000000E+01  0.00000000E+00
  3.60000000E+02  4.99600361E-14  0.00000000E+00
  3.80000000E+02  3.00000000E+02  0.00000000E+00
  3.80000000E+02  2.80000000E+02  0.00000000E+00
  3.80000000E+02  2.60000000E+02  0.00000000E+00
  3.80000000E+02  2.40000000E+02  0.00000000E+00
  3.80000000E+02  2.20000000E+02  0.00000000E+00
  3.80000000E+02  2.00000000E+02  0.00000000E+00
  3.80000000E+02  1.80000000E+02  0.00000000E+00
  3.80000000E+02  1.60000000E+02  0.00000000E+00
  3.80000000E+02  1.40000000E+02  0.00000000E+00
  3.80000000E+02  1.20000000E+02  0.00000000E+00
  3.80000000E+02  1.00000000E+02  0.00000000E+00
  3.80000000E+02  8.00000000E+01  0.00000000E+00
  3.80000000E+02  6.00000000E+01  0.00000000E+00
  3.80000000E+02  4.00000000E+01  0.00000000E+00
  3.80000000E+02  2.00000000E+01  0.00000000E+00
  3.80000000E+02  4.99600361E-14  0.00000000E+00
  4.00000000E+02  3.00000000E+02  0.00000000E+00
  4.00000000E+02  2.80000000E+02  0.00000000E+00
  4.00000000E+02  2.60000000E+02  0.00000000E+00
  4.00000000E+02  2.40000000E+02  0.00000000E+00
  4.00000000E+02  2.20000000E+02  0.00000000E+00
  4.00000000E+02  2.00000000E+02  0.00000000E+00
  4.00000000E+02  1.80000000E+02  0.00000000E+00
  4.00000000E+02  1.60000000E+02  0.00000000E+00
  4.00000000E+02  1.40000000E+02  0.00000000E+00
  4.00000000E+02  1.20000000E+02  0.00000000E+00
  4.00000000E+02  1.00000000E+02  0.00000000E+00
  4.00000000E+02  8.00000000E+01  0.00000000E+00
  4.00000000E+02  6.00000000E+01  0.00000000E+00
  4.00000000E+02  4.00000000E+01  0.00000000E+00
  4.00000000E+02  2.00000000E+01  0.00000000E+00
  4.00000000E+02  4.99600361E-14  0.00000000E+00
  4.20000000E+02  3.00000000E+02  0.00000000E+00
  4.20000000E+02  2.80000000E+02  0.00000000E+00
  4.20000000E+02  2.60000000E+02  0.00000000E+00
  4.20000000E+02  2.40000000E+02  0.00000000E+00
  4.20000000E+02  2.20000000E+02  0.00000000E+00
  4.20000000E+02  2.00000000E+02  0.00000000E+00
  4.20000000E+02  1.80000000E+02  0.00000000E+00
  4.20000000E+02  1.60000000E+02  0.00000000E+00
  4.20000000E+02  1.40000000E+02  0.00000000E+00
  4.20000000E+02  1.20000000E+02  0.00000000E+00
  4.20000000E+02  1.00000000E+02  0.00000000E+00
  4.20000000E+02  8.00000000E+01  0.00000000E+00
  4.20000000E+02  6.00000000E+01  0.00000000E+00
  4.20000000E+02  4.00000000E+01  0.00000000E+00
  4.20000000E+02  2.00000000E+01  0.00000000E+00
  4.20000000E+02  4.99600361E-14  0.00000000E+00
  4.40000000E+02  3.00000000E+02  0.00000000E+00
  4.40000000E+02  2.80000000E+02  0.00000000E+00
  4.40000000E+02  2.60000000E+02  0.00000000E+00
  4.40000000E+02  2.40000000E+02  0.00000000E+00
  4.40000000E+02  2.20000000E+02  0.00000000E+00
  4.40000000E+02  2.00000000E+02  0.00000000E+00
  4.40000000E+02  1.80000000E+02  0.00000000E+00
  4.40000000E+02  1.60000000E+02  0.00000000E+00
  4.40000000E+02  1.40000000E+02  0.00000000E+00
  4.40000000E+02  1.20000000E+02  0.00000000E+00
  4.40000000E+02  1.00000000E+02  0.00000000E+00
  4.40000000E+02  8.00000000E+01  0.00000000E+00
  4.40000000E+02  6.00000000E+01  0.00000000E+00
  4.40000000E+02  4.00000000E+01  0.00000000E+00
  4.40000000E+02  2.00000000E+01  0.00000000E+00
  4.40000000E+02  4.99600361E-14  0.00000000E+00
  4.60000000E+02  3.00000000E+02  0.00000000E+00
  4.60000000E+02  2.80000000E+02  0.00000000E+00
  4.60000000E+02  2.60000000E+02  0.00000000E+00
  4.60000000E+02  2.40000000E+02  0.00000000E+00
  4.60000000E+02  2.20000000E+02  0.00000000E+00
  4.60000000E+02  2.00000000E+02  0.00000000E+00
  4.60000000E+02  1.80000000E+02  0.00000000E+00
  4.60000000E+02  1.60000000E+02  0.00000000E+00
  4.60000000E+02  1.40000000E+02  0.00000000E+00
  4.60000000E+02  1.20000000E+02  0.00000000E+00
  4.60000000E+02  1.00000000E+02  0.00000000E+00
  4.60000000E+02  8.00000000E+01  0.00000000E+00
  4.60000000E+02  6.00000000E+01  0.00000000E+00
  4.60000000E+02  4.00000000E+01  0.00000000E+00
  4.60000000E+02  2.00000000E+01  0.00000000E+00
  4.60000000E+02  4.99600361E-14  0.00000000E+00
  4.80000000E+02  3.00000000E+02  0.00000000E+00
  4.80000000E+02  2.80000000E+02  0.00000000E+00
  4.80000000E+02  2.60000000E+02  0.00000000E+00
  4.80000000E+02  2.40000000E+02  0.00000000E+00
  4.80000000E+02  2.20000000E+02  0.00000000E+00
  4.80000000E+02  2.00000000E+02  0.00000000E+00
  4.80000000E+02  1.80000000E+02  0.00000000E+00
  4.80000000E+02  1.60000000E+02  0.00000000E+00
  4.80000000E+02  1.40000000E+02  0.00000000E+00
  4.80000000E+02  1.20000000E+02  0.00000000E+00
  4.80000000E+02  1.00000000E+02  0.00000000E+00
  4.80000000E+02  8.00000000E+01  0.00000000E+00
  4.80000000E+02  6.00000000E+01  0.00000000E+00
  4.80000000E+02  4.00000000E+01  0.00000000E+00
  4.80000000E+02  2.00000000E+01  0.00000000E+00
  4.80000000E+02  4.99600361E-14  0.00000000E+00
  5.00000000E+02  3.00000000E+02  0.00000000E+00
  5.00000000E+02  2.80000000E+02  0.00000000E+00
  5.00000000E+02  2.60000000E+02  0.00000000E+00
  5.00000000E+02  2.40000000E+02  0.00000000E+00
  5.00000000E+02  2.20000000E+02  0.00000000E+00
  5.00000000E+02  2.00000000E+02  0.00000000E+00
  5.00000000E+02  1.80000000E+02  0.00000000E+00
  5.00000000E+02  1.60000000E+02  0.00000000E+00
  5.00000000E+02  1.40000000E+02  0.00000000E+00
  5.00000000E+02  1.20000000E+02  0.00000000E+00
  5.00000000E+02  1.00000000E+02  0.00000000E+00
  5.00000000E+02  8.00000000E+01  0.00000000E+00
  5.00000000E+02  6.00000000E+01  0.00000000E+00
  5.00000000E+02  4.00000000E+01  0.00000000E+00
  5.00000000E+02  2.00000000E+01  0.00000000E+00
  5.00000000E+02  4.99600361E-14  0.00000000E+00
  5.20000000E+02  3.00000000E+02  0.00000000E+00
  5.20000000E+02  2.80000000E+02  0.00000000E+00
  5.20000000E+02  2.60000000E+02  0.00000000E+00
  5.20000000E+02  2.40000000E+02  0.00000000E+00
  5.20000000E+02  2.20000000E+02  0.00000000E+00
  5.20000000E+02  2.00000000E+02  0.00000000E+00
  5.20000000E+02  1.80000000E+02  0.00000000E+00
  5.20000000E+02  1.60000000E+02  0.00000000E+00
  5.20000000E+02  1.40000000E+02  0.00000000E+00
  5.20000000E+02  1.20000000E+02  0.00000000E+00
  5.20000000E+02  1.00000000E+02  0.00000000E+00
  5.20000000E+02  8.00000000E+01  0.00000000E+00
  5.20000000E+02  6.00000000E+01  0.00000000E+00
  5.20000000E+02  4.00000000E+01  0.00000000E+00
  5.20000000E+02  2.00000000E+01  0.00000000E+00
  5.20000000E+02  4.99600361E-14  0.00000000E+00
  5.40000000E+02  3.00000000E+02  0.00000000E+00
  5.40000000E+02  2.80000000E+02  0.00000000E+00
  5.40000000E+02  2.60000000E+02  0.00000000E+00
  5.40000000E+02  2.40000000E+02  0.00000000E+00
  5.40000000E+02  2.20000000E+02  0.00000000E+00
  5.40000000E+02  2.00000000E+02  0.00000000E+00
  5.40000000E+02  1.80000000E+02  0.00000000E+00
  5.40000000E+02  1.60000000E+02  0.00000000E+00
  5.40000000E+02  1.40000000E+02  0.00000000E+00
  5.40000000E+02  1.20000000E+02  0.00000000E+00
  5.40000000E+02  1.00000000E+02  0.00000000E+00
  5.40000000E+02  8.00000000E+01  0.00000000E+00
  5.40000000E+02  6.00000000E+01  0.00000000E+00
  5.40000000E+02  4.00000000E+01  0.00000000E+00
  5.40000000E+02  2.00000000E+01  0.00000000E+00
  5.40000000E+02  4.99600361E-14  0.00000000E+00
  5.60000000E+02  3.00000000E+02  0.00000000E+00
  5.60000000E+02  2.80000000E+02  0.00000000E+00
  5.60000000E+02  2.60000000E+02  0.00000000E+00
  5.60000000E+02  2.40000000E+02  0.00000000E+00
  5.60000000E+02  2.20000000E+02  0.00000000E+00
  5.60000000E+02  2.00000000E+02  0.00000000E+00
  5.60000000E+02  1.80000000E+02  0.00000000E+00
  5.60000000E+02  1.60000000E+02  0.00000000E+00
  5.60000000E+02  1.40000000E+02  0.00000000E+00
  5.60000000E+02  1.20000000E+02  0.00000000E+00
  5.60000000E+02  1.00000000E+02  0.00000000E+00
  5.60000000E+02  8.00000000E+01  0.00000000E+00
  5.60000000E+02  6.00000000E+01  0.00000000E+00
  5.60000000E+02  4.00000000E+01  0.00000000E+00
  5.60000000E+02  2.00000000E+01  0.00000000E+00
  5.60000000E+02  4.99600361E-14  0.00000000E+00
  5.80000000E+02  3.00000000E+02  0.00000000E+00
  5.80000000E+02  2.80000000E+02  0.00000000E+00
  5.80000000E+02  2.60000000E+02  0.00000000E+00
  5.80000000E+02  2.40000000E+02  0.00000000E+00
  5.80000000E+02  2.20000000E+02  0.00000000E+00
  5.80000000E+02  2.00000000E+02  0.00000000E+00
  5.80000000E+02  1.80000000E+02  0.00000000E+00
  5.80000000E+02  1.60000000E+02  0.00000000E+00
  5.80000000E+02  1.40000000E+02  0.00000000E+00
  5.80000000E+02  1.20000000E+02  0.00000000E+00
  5.80000000E+02  1.00000000E+02  0.00000000E+00
  5.80000000E+02  8.00000000E+01  0.00000000E+00
  5.80000000E+02  6.00000000E+01  0.00000000E+00
  5.80000000E+02  4.00000000E+01  0.00000000E+00
  5.80000000E+02  2.00000000E+01  0.00000000E+00
  5.80000000E+02  4.99600361E-14  0.00000000E+00
  6.00000000E+02  3.00000000E+02  0.00000000E+00
  6.00000000E+02  2.80000000E+02  0.00000000E+00
  6.00000000E+02  2.60000000E+02  0.00000000E+00
  6.00000000E+02  2.40000000E+02  0.00000000E+00
  6.00000000E+02  2.20000000E+02  0.00000000E+00
  6.00000000E+02  2.00000000E+02  0.00000000E+00
  6.00000000E+02  1.80000000E+02  0.00000000E+00
  6.00000000E+02  1.60000000E+02  0.00000000E+00
  6.00000000E+02  1.40000000E+02  0.00000000E+00
  6.00000000E+02  1.20000000E+02  0.00000000E+00
  6.00000000E+02  1.00000000E+02  0.00000000E+00
  6.00000000E+02  8.00000000E+01  0.00000000E+00
  6.00000000E+02  6.00000000E+01  0.00000000E+00
  6.00000000E+02  4.00000000E+01  0.00000000E+00
  6.00000000E+02  2.00000000E+01  0.00000000E+00
  6.00000000E+02  4.99600361E-14  0.00000000E+00
CELLS       450      2250
         4           0           1          17          16
         4           1           2          18          17
         4           2           3          19          18
         4           3           4          20          19
         4           4           5          21          20
         4           5           6          22          21
         4           6           7          23          22
         4           7           8          24          23
         4           8           9          25          24
         4           9          10          26          25
         4          10          11          27          26
         4          11          12          28          27
         4          12          13          29          28
         4          13          14          30          29
         4          14          15          31          30
         4          16          17          33          32
         4          17          18          34          33
         4          18          19          35          34
         4          19          20          36          35
         4          20          21          37          36
         4          21          22          38          37
         4          22          23          39          38
         4          23          24          40          39
         4          24          25          41          40
         4          25          26          42          41
         4          26          27          43          42
         4          27          28          44          43
         4          28          29          45          44
         4          29          30          46          45
         4          30          31          47          46
         4          32          33          49          48
         4          33          34          50          49
         4          34          35          51          50
         4          35          36          52          51
         4          36          37          53          52
         4          37          38          54          53
         4          38          39          55          54
         4          39          40          56          55
         4          40          41          57          56
         4          41          42          58          57
         4          42          43          59          58
         4          43          44          60          59
         4          44          45          61          60
         4          45          46          62          61
         4          46          47          63          62
         4          48          49          65          64
         4          49          50          66          65
         4          50          51          67          66
         4          51          52          68          67
         4          52          53          69          68
         4          53          54          70          69
         4          54          55          71          70
         4          55          56          72          71
         4          56          57          73          72
         4          57          58          74          73
         4          58          59          75          74
         4          59          60          76          75
         4          60          61          77          76
         4          61          62          78          77
         4          62          63          79          78
         4          64          65          81          80
         4          65          66          82          81
         4          66          67          83          82
         4          67          68          84          83
         4          68          69          85          84
         4          69          70          86          85
         4          70          71          87          86
         4          71          72          88          87
         4          72          73          89          88
         4          73          74          90          89
         4          74          75          91          90
         4          75          76          92          91
         4          76          77          93          92
         4          77          78          94          93
         4          78          79          95          94
         4          80          81          97          96
         4          81          82          98          97
         4          82          83          99          98
         4          83          84         100          99
         4          84          85         101         100
         4          85          86         102         101
         4          86          87         103         102
         4          87          88         104         103
         4          88          89         105         104
         4          89          90         106         105
         4          90          91         107         106
         4          91          92         108         107
         4          92          93         109         108
         4          93          94         110         109
         4          94          95         111         110
         4          96          97         113         112
         4          97          98         114         113
         4          98          99         115         114
         4          99         100         116         115
         4         100         101         117         116
         4         101         102         118         117
         4         102         103         119         118
         4         103         104         120         119
         4         104         105         121         120
         4         105         106         122         121
         4         106         107         123         122
         4         107         108         124         123
         4         108         109         125         124
         4         109         110         126         125
         4         110         111         127         126
         4         112         113         129         128
         4         113         114         130         129
         4         114         115         131         130
         4         115         116         132         131
         4         116         117         133         132
         4         117         118         134         133
         4         118         119         135         134
         4         119         120         136         135
         4         120         121         137         136
         4         121         122         138         137
         4         122         123         139         138
         4         123         124         140         139
         4         124         125         141         140
         4         125         126         142         141
         4         126         127         143         142
         4         128         129         145         144
         4         129         130         146         145
         4         130         131         147         146
         4         131         132         148         147
         4         132         133         149         148
         4         133         134         150         149
         4         134         135         151         150
         4         135         136         152         151
         4         136         137         153         152
         4         137         138         154         153
         4         138         139         155         154
         4         139         140         156         155
         4         140         141         157         156
         4         141         142         158         157
         4         142         143         159         158
         4         144         145         161         160
         4         145         146         162         161
         4         146         147         163         162
         4         147         148         164         163
         4         148         149         165         164
         4         149         150         166         165
         4         150         151         167         166
         4         151         152         168         167
         4         152         153         169         168
         4         153         154         170         169
         4         154         155         171         170
         4         155         156         172         171
         4         156         157         173         172
         4         157         158         174         173
         4         158         159         175         174
         4         160         161         177         176
         4         161         162         178         177
         4         162         163         179         178
         4         163         164         180         179
         4         164         165         181         180
         4         165         166         182         181
         4         166         167         183         182
         4         167         168         184         183
         4         168         169         185         184
         4         169         170         186         185
         4         170         171         187         186
         4         171         172         188         187
         4         172         173         189         188
         4         173         174         190         189
         4         174         175         191         190
         4         176         177         193         192
         4         177         178         194         193
         4         178         179         195         194
         4         179         180         196         195
         4         180         181         197         196
         4         181         182         198         197
         4         182         183         199         198
         4         183         184         200         199
         4         184         185         201         200
         4         185         186         202         201
         4         186         187         203         202
         4         187         188         204         203
         4         188         189         205         204
         4         189         190         206         205
         4         190         191         207         206
         4         192         193         209         208
         4         193         194         210         209
         4         194         195         211         210
         4         195         196         212         211
         4         196         197         213         212
         4         197         198         214         213
         4         198         199         215         214
         4         199         200         216         215
         4         200         201         217         216
         4         201         202         218         217
         4         202         203         219         218
         4         203         204         220         219
         4         204         205         221         220
         4         205         206         222         221
         4         206         207         223         222
         4         208         209         225         224
         4         209         210         226         225
         4         210         211         227         226
         4         211         212         228         227
         4         212         213         229         228
         4         213         214         230         229
         4         214         215         231         230
         4         215         216         232         231
         4         216         217         233         232
         4         217         218         234         233
         4         218         219         235         234
         4         219         220         236         235
         4         220         221         237         236
         4         221         222         238         237
         4         222         223         239         238
         4         224         225         241         240
         4         225         226         242         241
         4         226         227         243         242
         4         227         228         244         243
         4         228         229         245         244
         4         229         230         246         245
         4         230         231         247         246
         4         231         232         248         247
         4         232         233         249         248
         4         233         234         250         249
         4         234         235         251         250
         4         235         236         252         251
         4         236         237         253         252
         4         237         238         254         253
         4         238         239         255         254
         4         240         241         257         256
         4         241         242         258         257
         4         242         243         259         258
         4         243         244         260         259
         4         244         245         261         260
         4         245         246         262         261
         4         246         247         263         262
         4         247         248         264         263
         4         248         249         265         264
         4         249         250         266         265
         4         250         251         267         266
         4         251         252         268         267
         4         252         253         269         268
         4         253         254         270         269
         4         254         255         271         270
         4         256         257         273         272
         4         257         258         274         273
         4         258         259         275         274
         4         259         260         276         275
         4         260         261         277         276
         4         261         262         278         277
         4         262         263         279         278
         4         263         264         280         279
         4         264         265         281         280
         4         265         266         282         281
         4         266         267         283         282
         4         267         268         284         283
         4         268         269         285         284
         4         269         270         286         285
         4         270         271         287         286
         4         272         273         289         288
         4         273         274         290         289
         4         274         275         291         290
         4         275         276         292         291
         4         276         277         293         292
         4         277         278         294         293
         4         278         279         295         294
         4         279         280         296         295
         4         280         281         297         296
         4         281         282         298         297
         4         282         283         299         298
         4         283         284         300         299
         4         284         285         301         300
         4         285         286         302         301
         4         286         287         303         302
         4         288         289         305         304
         4         289         290         306         305
         4         290         291         307         306
         4         291         292         308         307
         4         292         293         309         308
         4         293         294         310         309
         4         294         295         311         310
         4         295         296         312         311
         4         296         297         313         312
         4         297         298         314         313
         4         298         299         315         314
         4         299         300         316         315
         4         300         301         317         316
         4         301         302         318         317
         4         302         303         319         318
         4         304         305         321         320
         4         305         306         322         321
         4         306         307         323         322
         4         307         308         324         323
         4         308         309         325         324
         4         309         310         326         325
         4         310         311         327         326
         4         311         312         328         327
         4         312         313         329         328
         4         313         314         330         329
         4         314         315         331         330
         4         315         316         332         331
         4         316         317         333         332
         4         317         318         334         333
         4         318         319         335         334
         4         320         321         337         336
         4         321         322         338         337
         4         322         323         339         338
         4         323         324         340         339
         4         324         325         341         340
         4         325         326         342         341
         4         326         327         343         342
         4         327         328         344         343
         4         328         329         345         344
         4         329         330         346         345
         4         330         331         347         346
         4         331         332         348         347
         4         332         333         349         348
         4         333         334         350         349
         4         334         335         351         350
         4         336         337         353         352
         4         337         338         354         353
         4         338         339         355         354
         4         339         340         356         355
         4         340         341         357         356
         4         341         342         358         357
         4         342         343         359         358
         4         343         344         360         359
         4         344         345         361         360
         4         345         346         362         361
         4         346         347         363         362
         4         347         348         364         363
         4         348         349         365         364
         4         349         350         366         365
         4         350         351         367         366
         4         352         353         369         368
         4         353         354         370         369
         4         354         355         371         370
         4         355         356         372         371
         4         356         357         373         372
         4         357         358         374         373
         4         358         359         375         374
         4         359         360         376         375
         4         360         361         377         376
         4         361         362         378         377
         4         362         363         379         378
         4         363         364         380         379
         4         364         365         381         380
         4         365         366         382         381
         4         366         367         383         382
         4         368         369         385         384
         4         369         370         386         385
         4         370         371         387         386
         4         371         372         388         387
         4         372         373         389         388
         4         373         374         390         389
         4         374         375         391         390
         4         375         376         392         391
         4         376         377         393         392
         4         377         378         394         393
         4         378         379         395         394
         4         379         380         396         395
         4         380         381         397         396
         4         381         382         398         397
         4         382         383         399         398
         4         384         385         401         400
         4         385         386         402         401
         4         386         387         403         402
         4         387         388         404         403
         4         388         389         405         404
         4         389         390         406         405
         4         390         391         407         406
         4         391         392         408         407
         4         392         393         409         408
         4         393         394         410         409
         4         394         395         411         410
         4         395         396         412         411
         4         396         397         413         412
         4         397         398         414         413
         4         398         399         415         414
         4         400         401         417         416
         4         401         402         418         417
         4         402         403         419         418
         4         403         404         420         419
         4         404         405         421         420
         4         405         406         422         421
         4         406         407         423         422
         4         407         408         424         423
         4         408         409         425         424
         4         409         410         426         425
         4         410         411         427         426
         4         411         412         428         427
         4         412         413         429         428
         4         413         414         430         429
         4         414         415         431         430
         4         416         417         433         432
         4         417         418         434         433
         4         418         419         435         434
         4         419         420         436         435
         4         420         421         437         436
         4         421         422         438         437
         4         422         423         439         438
         4         423         424         440         439
         4         424         425         441         440
         4         425         426         442         441
         4         426         427         443         442
         4         427         428         444         443
         4         428         429         445         444
         4         429         430         446         445
         4         430         431         447         446
         4         432         433         449         448
         4         433         434         450         449
         4         434         435         451         450
         4         435         436         452         451
         4         436         437         453         452
         4         437         438         454         453
         4         438         439         455         454
         4         439         440         456         455
         4         440         441         457         456
         4         441         442         458         457
         4         442         443         459         458
         4         443         444         460         459
         4         444         445         461         460
         4         445         446         462         461
         4         446         447         463         462
         4         448         449         465         464
         4         449         450         466         465
         4         450         451         467         466
         4         451         452         468         467
         4         452         453         469         468
         4         453         454         470         469
         4         454         455         471         470
         4         455         456         472         471
         4         456         457         473         472
         4         457         458         474         473
         4         458         459         475         474
         4         459         460         476         475
         4         460         461         477         476
         4         461         462         478         477
         4         462         463         479         478
         4         464         465         481         480
         4         465         466         482         481
         4         466         467         483         482
         4         467         468         484         483
         4         468         469         485         484
         4         469         470         486         485
         4         470         471         487         486
         4         471         472         488         487
         4         472         473         489         488
         4         473         474         490         489
         4         474         475         491         490
         4         475         476         492         491
         4         476         477         493         492
         4         477         478         494         493
         4         478         479         495         494
CELL_TYPES        450
9
9
9
9
9
9
9
9
9
9
9
9
9
9
9
9
9
9
9
9
9
9
9
9
9
9
9
9
9
9
9
9
9
9
9
9
9
9
9
9
9
9
9
9
9
9
9
9
9
9
9
9
9
9
9
9
9
9
9
9
9
9
9
9
9
9
9
9
9
9
9
9
9
9
9
9
9
9
9
9
9
9
9
9
9
9
9
9
9
9
9
9
9
9
9
9
9
9
9
9
9
9
9
9
9
9
9
9
9
9
9
9
9
9
9
9
9
9
9
9
9
9
9
9
9
9
9
9
9
9
9
9
9
9
9
9
9
9
9
9
9
9
9
9
9
9
9
9
9
9
9
9
9
9
9
9
9
9
9
9
9
9
9
9
9
9
9
9
9
9
9
9
9
9
9
9
9
9
9
9
9
9
9
9
9
9
9
9
9
9
9
9
9
9
9
9
9
9
9
9
9
9
9
9
9
9
9
9
9
9
9
9
9
9
9
9
9
9
9
9
9
9
9
9
9
9
9
9
9
9
9
9
9
9
9
9
9
9
9
9
9
9
9
9
9
9
9
9
9
9
9
9
9
9
9
9
9
9
9
9
9
9
9
9
9
9
9
9
9
9
9
9
9
9
9
9
9
9
9
9
9
9
9
9
9
9
9
9
9
9
9
9
9
9
9
9
9
9
9
9
9
9
9
9
9
9
9
9
9
9
9
9
9
9
9
9
9
9
9
9
9
9
9
9
9
9
9
9
9
9
9
9
9
9
9
9
9
9
9
9
9
9
9
9
9
9
9
9
9
9
9
9
9
9
9
9
9
9
9
9
9
9
9
9
9
9
9
9
9
9
9
9
9
9
9
9
9
9
9
9
9
9
9
9
9
9
9
9
9
9
9
9
9
9
9
9
9
9
9
9
9
9
9
9
9
9
9
9
9
9
9
9
9
9
9
9
9
9
9
9
9
9
9
9
9
9
9
9
9
9
9
9
9
9
9
9
9
9
9
9
9
9
9
9
9
9
9
9
9
9
POINT_DATA       496
SCALARS p double 
LOOKUP_TABLE default
   36985826.8980604     
   36981029.8959998     
   36966614.4930143     
   36942389.6986977     
   36908188.3081698     
   36863845.7110741     
   36809198.9669947     
   36743994.7134553     
   36676145.3179266     
   36614862.1683203     
   36561139.6948557     
   36515656.9161190     
   36479075.3512749     
   36452058.6960244     
   36435287.0063576     
   36429465.4770756     
   36949912.2853873     
   36945120.4317444     
   36930713.4566819     
   36906504.4975612     
   36872327.1349982     
   36828021.0507731     
   36773421.2097776     
   36708268.9989248     
   36640500.9521348     
   36579314.4691386     
   36525683.1157478     
   36480280.6385330     
   36443764.4382663     
   36416795.4490642     
   36400052.3677249     
   36394240.1600363     
   36842220.3219724     
   36837441.5907493     
   36823067.3619572     
   36798918.1457574     
   36764822.3658266     
   36720626.6722929     
   36666166.1710963     
   36601179.2547637     
   36533660.2823592     
   36472765.0918217     
   36419408.0634301     
   36374247.2413588     
   36337927.3132028     
   36311101.2980963     
   36294443.9582040     
   36288659.6717796     
   36662879.7337259     
   36658131.3323513     
   36643842.7896098     
   36619828.5354607     
   36585902.1585974     
   36541900.4357361     
   36487667.0824488     
   36422986.7308840     
   36355903.2570832     
   36295495.6599658     
   36242599.3904337     
   36197842.7312236     
   36161850.2839959     
   36135262.3886239     
   36118747.6343990     
   36113009.7205097     
   36412075.2560802     
   36407393.0006530     
   36393285.8725978     
   36369534.8439765     
   36335915.1958185     
   36292232.8455124     
   36238323.1159741     
   36174106.9279528     
   36107703.9741821     
   36047979.7205478     
   35995731.3619433     
   35951542.2087921     
   35916008.5585306     
   35889753.5115259     
   35873437.6163779     
   35867764.2294256     
   36090077.3814380     
   36085493.1334578     
   36071688.1006182     
   36048384.7134710     
   36015280.1970674     
   35972116.0727293     
   35918713.4997902     
   35855188.4520901     
   35789702.4064547     
   35730872.6377284     
   35679463.2426140     
   35636006.3749569     
   35601062.9867768     
   35575234.8735003     
   35559173.2037660     
   35553582.0002087     
   35697234.2618027     
   35692779.5200581     
   35679398.1753796     
   35656752.8411084     
   35624446.5659873     
   35582118.3844997     
   35529546.3104619     
   35467022.7203358     
   35402714.7408726     
   35345005.7733770     
   35294633.7679225     
   35252076.5148022     
   35217855.4866773     
   35192547.6323760     
   35176794.2757453     
   35171302.1525360     
   35234029.7855878     
   35229726.0976559     
   35216857.7029795     
   35195061.5825005     
   35163878.5381429     
   35122840.6161316     
   35071623.4319781     
   35010573.8593374     
   34947745.6715435     
   34891388.3289859     
   34842255.0218538     
   34800768.8624121     
   34767403.4246167     
   34742708.3264338     
   34727315.6853321     
   34721938.4398967     
   34701127.7605601     
   34696991.0474953     
   34684677.9207255     
   34663850.0931848     
   34634079.7579453     
   34594869.0088971     
   34545755.0226384     
   34486939.6738798     
   34425972.3772868     
   34371188.6982378     
   34323507.2147978     
   34283268.3095731     
   34250892.8093826     
   34226902.0855007     
   34211920.6340744     
   34206672.5961047     
   34099422.0915250     
   34095460.4187900     
   34083708.7235527     
   34063890.7528646     
   34035710.7565121     
   33998806.1501570     
   33952700.5552529     
   33897221.3747171     
   33838715.8062177     
   33785741.7562442     
   33739733.9212434     
   33700920.5184498     
   33669668.8015760     
   33646473.7351843     
   33631953.3453339     
   33626847.1179324     
   33430034.2314945     
   33426250.6130017     
   33415063.9666627     
   33396279.3218296     
   33369775.2853499     
   33335461.6412211     
   33293152.6269635     
   33242442.0405695     
   33187447.9675072     
   33136539.1680680     
   33092434.3077315     
   33055218.5807727     
   33025218.4133733     
   33002916.1081493     
   32988911.4053876     
   32983958.2478913     
   32694258.9792693     
   32690675.6752440     
   32680107.8574685     
   32662444.1999286     
   32637736.8807633     
   32606187.5011234     
   32568037.7740312     
   32523273.7088297     
   32473461.7848444     
   32425224.1567156     
   32383254.2808522     
   32347766.3708917     
   32319147.6723321     
   32297852.0380988     
   32284436.8695245     
   32279650.3920785     
   31893555.4867091     
   31890217.0478533     
   31880399.8968225     
   31864075.8709992     
   31841459.5820933     
   31812968.4737364     
   31779116.8551419     
   31740418.3832397     
   31697601.9993272     
   31653708.4483993     
   31613822.8827150     
   31580285.3283936     
   31553157.8035489     
   31532987.6419228     
   31520306.4353948     
   31515702.0174009     
   31029518.0343397     
   31026490.4261745     
   31017653.8015371     
   31003069.4165788     
   30983088.8068254     
   30958220.0060883     
   30929022.4991101     
   30896080.1455687     
   30860131.3040382     
   30822797.4310424     
   30786626.9649450     
   30754699.3267115     
   30728954.1936726     
   30710056.3941950     
   30698298.9406031     
   30694064.8904575     
   30103826.8887744     
   30101194.1296648     
   30093710.4011198     
   30081528.9966363     
   30065015.0896993     
   30044560.9336110     
   30020548.8764526     
   29993453.4426151     
   29963901.3883182     
   29932832.5763107     
   29901953.8741558     
   29873599.4360980     
   29849699.8621835     
   29831726.2010055     
   29820642.2703424     
   29817027.0754528     
   29118240.4192553     
   29116083.4396295     
   29110569.1844463     
   29101850.3441732     
   29089901.6960125     
   29074705.5102923     
   29056401.7851177     
   29035320.7519261     
   29011968.0509017     
   28987056.2050465     
   28961655.6689957     
   28937373.3253076     
   28916033.8806865     
   28899304.3513284     
   28888415.1474620     
   28884681.7655939     
   28074737.4070174     
   28073215.9226564     
   28070605.4192581     
   28066877.8894267     
   28060636.7543269     
   28051416.2695720     
   28039190.1574678     
   28024224.3897659     
   28006946.3364687     
   27987938.3874658     
   27967993.2928129     
   27948198.8371502     
   27929950.9720770     
   27914806.7434978     
   27904435.9370930     
   27900694.9338280     
   26976059.2665992     
   26976042.8364346     
   26977331.4792917     
   26979670.3417977     
   26980198.1965256     
   26977418.0432417     
   26971498.9224966     
   26962667.0604592     
   26951311.2452654     
   26937925.3967355     
   26923122.6082216     
   26907698.1495557     
   26892732.1803913     
   26879678.4748531     
   26870367.2248864     
   26866966.0889899     
   25828999.9199886     
   25830469.0193736     
   25835367.5404433     
   25843453.7326993     
   25851231.3080195     
   25855428.9557675     
   25855948.5102024     
   25853203.6256264     
   25847580.9319508     
   25839510.3120559     
   25829495.6815873     
   25818193.6009791     
   25806544.3286967     
   25795895.4573663     
   25788031.9487272     
   25785113.6170326     
   24638266.4871834     
   24640872.2259345     
   24648846.9928726     
   24662057.6911964     
   24676807.8092287     
   24688233.1351884     
   24695276.2979240     
   24698527.3789295     
   24698424.4378914     
   24695372.1356829     
   24689828.4584401     
   24682405.4068178     
   24673984.5368846     
   24665813.0359110     
   24659535.2043191     
   24657158.3290840     
   23408805.1039289     
   23412265.4950861     
   23422582.0251328     
   23439892.3280679     
   23460844.6442410     
   23479110.9801720     
   23492507.3586542     
   23501568.5529282     
   23506737.2835657     
   23508415.3849011     
   23507055.7584779     
   23503264.0179830     
   23497888.9953321     
   23492089.4554543     
   23487362.0958037     
   23485517.9985943     
   22144394.0650254     
   22148583.9346661     
   22161004.8413263     
   22181637.5508740     
   22207691.7965675     
   22231940.9718963     
   22251125.1907544     
   22265590.9615678     
   22275678.9258362     
   22281757.8211787     
   22284275.3202301     
   22283832.1978780     
   22281248.9925030     
   22277613.4777138     
   22274299.6388502     
   22272940.9957360     
   20849094.0077647     
   20853962.6942861     
   20868244.2512527     
   20891685.9878613     
   20921793.5354124     
   20950933.5028756     
   20975026.9261413     
   20994208.7988159     
   21008671.2326121     
   21018701.1989508     
   21024706.8916082     
   21027262.6152968     
   21027154.7617486     
   21025413.9188358     
   21023322.8605533     
   21022382.4301271     
   19527369.4913687     
   19532832.1903568     
   19548665.5618229     
   19574343.1617917     
   19607551.9937170     
   19640417.9793179     
   19668330.0237046     
   19691283.0437970     
   19709339.6021710     
   19722684.7027375     
   19731651.1450263     
   19736755.9893483     
   19738736.9221714     
   19738573.4731439     
   19737483.3383590     
   19736883.5215775     
   18184032.6123311     
   18189962.7890091     
   18206935.9732080     
   18234138.0013695     
   18269391.4827142     
   18304730.6126133     
   18335207.7555165     
   18360769.4203946     
   18381402.8089323     
   18397206.7230550     
   18408427.6325293     
   18415503.4064679     
   18419103.9571908     
   18420152.5779753     
   18419817.5695756     
   18419474.3024284     
   16824280.5764539     
   16830504.9636652     
   16848060.3251445     
   16875861.0264068     
   16911878.5168988     
   16948212.9096717     
   16979802.1447742     
   17006590.8529883     
   17028545.2860664     
   17045717.1363266     
   17058286.1279358     
   17066610.0493215     
   17071273.2835150     
   17073123.4096428     
   17073279.9450600     
   17073105.9164787     
   15453755.3531235     
   15460048.1320157     
   15477442.3265536     
   15504571.9856268     
   15539671.6231575     
   15575204.0638576     
   15606172.5531221     
   15632538.7935014     
   15654292.7895161     
   15671493.6372054     
   15684299.0049886     
   15693005.9642940     
   15698098.6736350     
   15700311.5421745     
   15700689.5930555     
   15700596.9447542     
   14078633.3712771     
   14084694.6840456     
   14100925.9450025     
   14125639.6375601     
   14157462.7125229     
   14189955.5244012     
   14218215.4121277     
   14242160.0121375     
   14261881.5653490     
   14277515.3143749     
   14289253.5100973     
   14297360.4472861     
   14302201.6240681     
   14304343.4651741     
   14304693.3065811     
   14304606.8861308     
   12705769.4500356     
   12711147.5808751     
   12724788.7737591     
   12744734.9083265     
   12770112.2009557     
   12796519.2788182     
   12819476.9678670     
   12838577.3248136     
   12854092.8435516     
   12866333.7982075     
   12875571.5880995     
   12882022.9824532     
   12885918.5589312     
   12887599.3647068     
   12887741.8621576     
   12887619.9027748     
   11342953.0505960     
   11346862.2095471     
   11355620.8276920     
   11367679.0625915     
   11382602.8879749     
   11398545.7670242     
   11412895.9842779     
   11424186.1718369     
   11433019.3378907     
   11439985.2833657     
   11445276.6194699     
   11449006.9932108     
   11451273.3513981     
   11452204.6864194     
   11452078.8068473     
   11452012.4934443     
   10000000.0000000     
   10000000.0000000     
   10000000.0000000     
   10000000.0000000     
   10000000.0000000     
   10000000.0000000     
   10000000.0000000     
   10000000.0000000     
   10000000.0000000     
   10000000.0000000     
   10000000.0000000     
   10000000.0000000     
   10000000.0000000     
  10000000.00000000     
   10000000.0000000     
   10000000.0000000     
VECTORS u double 
    0.00000E+00        -0.28870E-01         0.00000E+00
    0.00000E+00        -0.26636E-01         0.00000E+00
    0.00000E+00        -0.24452E-01         0.00000E+00
    0.00000E+00        -0.22321E-01         0.00000E+00
    0.00000E+00        -0.20244E-01         0.00000E+00
    0.00000E+00        -0.18224E-01         0.00000E+00
    0.00000E+00        -0.16261E-01         0.00000E+00
    0.00000E+00        -0.14352E-01         0.00000E+00
    0.00000E+00        -0.12487E-01         0.00000E+00
    0.00000E+00        -0.10642E-01         0.00000E+00
    0.00000E+00        -0.88143E-02         0.00000E+00
    0.00000E+00        -0.70055E-02         0.00000E+00
    0.00000E+00        -0.52170E-02         0.00000E+00
    0.00000E+00        -0.34511E-02         0.00000E+00
    0.00000E+00        -0.17109E-02         0.00000E+00
    0.00000E+00         0.00000E+00         0.00000E+00
    0.10137E-02        -0.28909E-01         0.00000E+00
    0.93467E-03        -0.26673E-01         0.00000E+00
    0.85364E-03        -0.24487E-01         0.00000E+00
    0.77150E-03        -0.22354E-01         0.00000E+00
    0.68939E-03        -0.20276E-01         0.00000E+00
    0.60868E-03        -0.18255E-01         0.00000E+00
    0.53092E-03        -0.16289E-01         0.00000E+00
    0.45756E-03        -0.14378E-01         0.00000E+00
    0.38969E-03        -0.12511E-01         0.00000E+00
    0.32694E-03        -0.10663E-01         0.00000E+00
    0.26819E-03        -0.88321E-02         0.00000E+00
    0.21237E-03        -0.70200E-02         0.00000E+00
    0.15851E-03        -0.52281E-02         0.00000E+00
    0.10573E-03        -0.34586E-02         0.00000E+00
    0.53163E-04        -0.17147E-02         0.00000E+00
    0.00000E+00         0.00000E+00         0.00000E+00
    0.20221E-02        -0.29026E-01         0.00000E+00
    0.18635E-02        -0.26785E-01         0.00000E+00
    0.17012E-02        -0.24594E-01         0.00000E+00
    0.15367E-02        -0.22456E-01         0.00000E+00
    0.13725E-02        -0.20373E-01         0.00000E+00
    0.12114E-02        -0.18347E-01         0.00000E+00
    0.10564E-02        -0.16376E-01         0.00000E+00
    0.91043E-03        -0.14458E-01         0.00000E+00
    0.77550E-03        -0.12583E-01         0.00000E+00
    0.65071E-03        -0.10725E-01         0.00000E+00
    0.53383E-03        -0.88853E-02         0.00000E+00
    0.42274E-03        -0.70635E-02         0.00000E+00
    0.31555E-03        -0.52613E-02         0.00000E+00
    0.21048E-03        -0.34812E-02         0.00000E+00
    0.10584E-03        -0.17262E-02         0.00000E+00
    0.00000E+00         0.00000E+00         0.00000E+00
    0.30202E-02        -0.29222E-01         0.00000E+00
    0.27810E-02        -0.26971E-01         0.00000E+00
    0.25365E-02        -0.24772E-01         0.00000E+00
    0.22893E-02        -0.22626E-01         0.00000E+00
    0.20431E-02        -0.20536E-01         0.00000E+00
    0.18024E-02        -0.18501E-01         0.00000E+00
    0.15713E-02        -0.16520E-01         0.00000E+00
    0.13540E-02        -0.14590E-01         0.00000E+00
    0.11536E-02        -0.12701E-01         0.00000E+00
    0.96822E-03        -0.10829E-01         0.00000E+00
    0.79439E-03        -0.89740E-02         0.00000E+00
    0.62914E-03        -0.71358E-02         0.00000E+00
    0.46965E-03        -0.53166E-02         0.00000E+00
    0.31330E-03        -0.35188E-02         0.00000E+00
    0.15756E-03        -0.17454E-02         0.00000E+00
    0.00000E+00         0.00000E+00         0.00000E+00
    0.40023E-02        -0.29497E-01         0.00000E+00
    0.36814E-02        -0.27234E-01         0.00000E+00
    0.33537E-02        -0.25023E-01         0.00000E+00
    0.30231E-02        -0.22866E-01         0.00000E+00
    0.26953E-02        -0.20764E-01         0.00000E+00
    0.23760E-02        -0.18717E-01         0.00000E+00
    0.20706E-02        -0.16722E-01         0.00000E+00
    0.17842E-02        -0.14775E-01         0.00000E+00
    0.15205E-02        -0.12867E-01         0.00000E+00
    0.12764E-02        -0.10975E-01         0.00000E+00
    0.10474E-02        -0.90976E-02         0.00000E+00
    0.82960E-03        -0.72367E-02         0.00000E+00
    0.61936E-03        -0.53938E-02         0.00000E+00
    0.41322E-03        -0.35713E-02         0.00000E+00
    0.20784E-03        -0.17721E-02         0.00000E+00
    0.00000E+00         0.00000E+00         0.00000E+00
    0.49623E-02        -0.29854E-01         0.00000E+00
    0.45586E-02        -0.27576E-01         0.00000E+00
    0.41469E-02        -0.25350E-01         0.00000E+00
    0.37327E-02        -0.23177E-01         0.00000E+00
    0.33237E-02        -0.21060E-01         0.00000E+00
    0.29271E-02        -0.18996E-01         0.00000E+00
    0.25496E-02        -0.16982E-01         0.00000E+00
    0.21970E-02        -0.15013E-01         0.00000E+00
    0.18728E-02        -0.13080E-01         0.00000E+00
    0.15724E-02        -0.11161E-01         0.00000E+00
    0.12905E-02        -0.92560E-02         0.00000E+00
    0.10222E-02        -0.73659E-02         0.00000E+00
    0.76325E-03        -0.54926E-02         0.00000E+00
    0.50928E-03        -0.36384E-02         0.00000E+00
    0.25620E-03        -0.18063E-02         0.00000E+00
    0.00000E+00         0.00000E+00         0.00000E+00
    0.58927E-02        -0.30293E-01         0.00000E+00
    0.54060E-02        -0.27997E-01         0.00000E+00
    0.49101E-02        -0.25753E-01         0.00000E+00
    0.44128E-02        -0.23562E-01         0.00000E+00
    0.39235E-02        -0.21425E-01         0.00000E+00
    0.34513E-02        -0.19339E-01         0.00000E+00
    0.30042E-02        -0.17300E-01         0.00000E+00
    0.25885E-02        -0.15304E-01         0.00000E+00
    0.22071E-02        -0.13339E-01         0.00000E+00
    0.18534E-02        -0.11388E-01         0.00000E+00
    0.15213E-02        -0.94486E-02         0.00000E+00
    0.12052E-02        -0.75229E-02         0.00000E+00
    0.89991E-03        -0.56126E-02         0.00000E+00
    0.60053E-03        -0.37199E-02         0.00000E+00
    0.30216E-03        -0.18479E-02         0.00000E+00
    0.00000E+00         0.00000E+00         0.00000E+00
    0.67850E-02        -0.30815E-01         0.00000E+00
    0.62158E-02        -0.28500E-01         0.00000E+00
    0.56370E-02        -0.26236E-01         0.00000E+00
    0.50584E-02        -0.24023E-01         0.00000E+00
    0.44910E-02        -0.21861E-01         0.00000E+00
    0.39455E-02        -0.19746E-01         0.00000E+00
    0.34312E-02        -0.17676E-01         0.00000E+00
    0.29556E-02        -0.15645E-01         0.00000E+00
    0.25203E-02        -0.13644E-01         0.00000E+00
    0.21168E-02        -0.11654E-01         0.00000E+00
    0.17376E-02        -0.96748E-02         0.00000E+00
    0.13766E-02        -0.77073E-02         0.00000E+00
    0.10280E-02        -0.57535E-02         0.00000E+00
    0.68604E-03        -0.38156E-02         0.00000E+00
    0.34524E-03        -0.18967E-02         0.00000E+00
    0.00000E+00         0.00000E+00         0.00000E+00
    0.76293E-02        -0.31417E-01         0.00000E+00
    0.69792E-02        -0.29083E-01         0.00000E+00
    0.63204E-02        -0.26798E-01         0.00000E+00
    0.56643E-02        -0.24560E-01         0.00000E+00
    0.50228E-02        -0.22369E-01         0.00000E+00
    0.44074E-02        -0.20220E-01         0.00000E+00
    0.38286E-02        -0.18111E-01         0.00000E+00
    0.32951E-02        -0.16038E-01         0.00000E+00
    0.28096E-02        -0.13994E-01         0.00000E+00
    0.23601E-02        -0.11960E-01         0.00000E+00
    0.19373E-02        -0.99339E-02         0.00000E+00
    0.15348E-02        -0.79183E-02         0.00000E+00
    0.11460E-02        -0.59147E-02         0.00000E+00
    0.76481E-03        -0.39252E-02         0.00000E+00
    0.38494E-03        -0.19525E-02         0.00000E+00
    0.00000E+00         0.00000E+00         0.00000E+00
    0.84152E-02        -0.32099E-01         0.00000E+00
    0.76870E-02        -0.29746E-01         0.00000E+00
    0.69528E-02        -0.27439E-01         0.00000E+00
    0.62251E-02        -0.25174E-01         0.00000E+00
    0.55155E-02        -0.22950E-01         0.00000E+00
    0.48353E-02        -0.20761E-01         0.00000E+00
    0.41955E-02        -0.18606E-01         0.00000E+00
    0.36060E-02        -0.16482E-01         0.00000E+00
    0.30726E-02        -0.14387E-01         0.00000E+00
    0.25812E-02        -0.12303E-01         0.00000E+00
    0.21185E-02        -0.10225E-01         0.00000E+00
    0.16779E-02        -0.81552E-02         0.00000E+00
    0.12526E-02        -0.60956E-02         0.00000E+00
    0.83583E-03        -0.40481E-02         0.00000E+00
    0.42069E-03        -0.20152E-02         0.00000E+00
    0.00000E+00         0.00000E+00         0.00000E+00
    0.91320E-02        -0.32859E-01         0.00000E+00
    0.83299E-02        -0.30486E-01         0.00000E+00
    0.75266E-02        -0.28156E-01         0.00000E+00
    0.67345E-02        -0.25863E-01         0.00000E+00
    0.59646E-02        -0.23602E-01         0.00000E+00
    0.52271E-02        -0.21370E-01         0.00000E+00
    0.45320E-02        -0.19163E-01         0.00000E+00
    0.38891E-02        -0.16980E-01         0.00000E+00
    0.33077E-02        -0.14824E-01         0.00000E+00
    0.27777E-02        -0.12683E-01         0.00000E+00
    0.22791E-02        -0.10547E-01         0.00000E+00
    0.18044E-02        -0.84171E-02         0.00000E+00
    0.13463E-02        -0.62955E-02         0.00000E+00
    0.89795E-03        -0.41839E-02         0.00000E+00
    0.45183E-03        -0.20846E-02         0.00000E+00
    0.00000E+00         0.00000E+00         0.00000E+00
    0.97705E-02        -0.33693E-01         0.00000E+00
    0.88994E-02        -0.31301E-01         0.00000E+00
    0.80341E-02        -0.28947E-01         0.00000E+00
    0.71858E-02        -0.26623E-01         0.00000E+00
    0.63644E-02        -0.24324E-01         0.00000E+00
    0.55788E-02        -0.22045E-01         0.00000E+00
    0.48372E-02        -0.19782E-01         0.00000E+00
    0.41474E-02        -0.17535E-01         0.00000E+00
    0.35172E-02        -0.15306E-01         0.00000E+00
    0.29474E-02        -0.13099E-01         0.00000E+00
    0.24174E-02        -0.10898E-01         0.00000E+00
    0.19125E-02        -0.87029E-02         0.00000E+00
    0.14257E-02        -0.65134E-02         0.00000E+00
    0.94981E-03        -0.43320E-02         0.00000E+00
    0.47748E-03        -0.21603E-02         0.00000E+00
    0.00000E+00         0.00000E+00         0.00000E+00
    0.10322E-01        -0.34597E-01         0.00000E+00
    0.93879E-02        -0.32185E-01         0.00000E+00
    0.84681E-02        -0.29806E-01         0.00000E+00
    0.75723E-02        -0.27450E-01         0.00000E+00
    0.67089E-02        -0.25111E-01         0.00000E+00
    0.58853E-02        -0.22783E-01         0.00000E+00
    0.51075E-02        -0.20462E-01         0.00000E+00
    0.43806E-02        -0.18147E-01         0.00000E+00
    0.37082E-02        -0.15842E-01         0.00000E+00
    0.30940E-02        -0.13552E-01         0.00000E+00
    0.25315E-02        -0.11278E-01         0.00000E+00
    0.20006E-02        -0.90111E-02         0.00000E+00
    0.14891E-02        -0.67485E-02         0.00000E+00
    0.98974E-03        -0.44917E-02         0.00000E+00
    0.49625E-03        -0.22421E-02         0.00000E+00
    0.00000E+00         0.00000E+00         0.00000E+00
    0.10779E-01        -0.35567E-01         0.00000E+00
    0.97880E-02        -0.33133E-01         0.00000E+00
    0.88215E-02        -0.30728E-01         0.00000E+00
    0.78873E-02        -0.28338E-01         0.00000E+00
    0.69922E-02        -0.25957E-01         0.00000E+00
    0.61414E-02        -0.23577E-01         0.00000E+00
    0.53383E-02        -0.21196E-01         0.00000E+00
    0.45850E-02        -0.18813E-01         0.00000E+00
    0.38825E-02        -0.16432E-01         0.00000E+00
    0.32311E-02        -0.14056E-01         0.00000E+00
    0.26292E-02        -0.11693E-01         0.00000E+00
    0.20684E-02        -0.93417E-02         0.00000E+00
    0.15345E-02        -0.69997E-02         0.00000E+00
    0.10157E-02        -0.46629E-02         0.00000E+00
    0.50566E-03        -0.23302E-02         0.00000E+00
    0.00000E+00         0.00000E+00         0.00000E+00
    0.11134E-01        -0.36597E-01         0.00000E+00
    0.10093E-01        -0.34141E-01         0.00000E+00
    0.90879E-02        -0.31707E-01         0.00000E+00
    0.81253E-02        -0.29281E-01         0.00000E+00
    0.72094E-02        -0.26854E-01         0.00000E+00
    0.63426E-02        -0.24420E-01         0.00000E+00
    0.55253E-02        -0.21977E-01         0.00000E+00
    0.47568E-02        -0.19525E-01         0.00000E+00
    0.40353E-02        -0.17066E-01         0.00000E+00
    0.33591E-02        -0.14607E-01         0.00000E+00
    0.27263E-02        -0.12152E-01         0.00000E+00
    0.21324E-02        -0.97065E-02         0.00000E+00
    0.15699E-02        -0.72722E-02         0.00000E+00
    0.10306E-02        -0.48461E-02         0.00000E+00
    0.50700E-03        -0.24241E-02         0.00000E+00
    0.00000E+00         0.00000E+00         0.00000E+00
    0.11379E-01        -0.37681E-01         0.00000E+00
    0.10296E-01        -0.35201E-01         0.00000E+00
    0.92619E-02        -0.32735E-01         0.00000E+00
    0.82818E-02        -0.30269E-01         0.00000E+00
    0.73568E-02        -0.27794E-01         0.00000E+00
    0.64856E-02        -0.25303E-01         0.00000E+00
    0.56653E-02        -0.22795E-01         0.00000E+00
    0.48921E-02        -0.20272E-01         0.00000E+00
    0.41625E-02        -0.17736E-01         0.00000E+00
    0.34730E-02        -0.15192E-01         0.00000E+00
    0.28206E-02        -0.12645E-01         0.00000E+00
    0.22025E-02        -0.10103E-01         0.00000E+00
    0.16152E-02        -0.75680E-02         0.00000E+00
    0.10545E-02        -0.50408E-02         0.00000E+00
    0.51694E-03        -0.25189E-02         0.00000E+00
    0.00000E+00         0.00000E+00         0.00000E+00
    0.11508E-01        -0.38811E-01         0.00000E+00
    0.10390E-01        -0.36304E-01         0.00000E+00
    0.93389E-02        -0.33803E-01         0.00000E+00
    0.83540E-02        -0.31293E-01         0.00000E+00
    0.74321E-02        -0.28765E-01         0.00000E+00
    0.65677E-02        -0.26214E-01         0.00000E+00
    0.57550E-02        -0.23640E-01         0.00000E+00
    0.49880E-02        -0.21045E-01         0.00000E+00
    0.42611E-02        -0.18430E-01         0.00000E+00
    0.35693E-02        -0.15800E-01         0.00000E+00
    0.29087E-02        -0.13162E-01         0.00000E+00
    0.22766E-02        -0.10520E-01         0.00000E+00
    0.16713E-02        -0.78801E-02         0.00000E+00
    0.10914E-02        -0.52454E-02         0.00000E+00
    0.53510E-03        -0.26182E-02         0.00000E+00
    0.00000E+00         0.00000E+00         0.00000E+00
    0.11516E-01        -0.39980E-01         0.00000E+00
    0.10371E-01        -0.37441E-01         0.00000E+00
    0.93162E-02        -0.34900E-01         0.00000E+00
    0.83406E-02        -0.32340E-01         0.00000E+00
    0.74333E-02        -0.29755E-01         0.00000E+00
    0.65863E-02        -0.27143E-01         0.00000E+00
    0.57915E-02        -0.24502E-01         0.00000E+00
    0.50413E-02        -0.21833E-01         0.00000E+00
    0.43282E-02        -0.19139E-01         0.00000E+00
    0.36454E-02        -0.16423E-01         0.00000E+00
    0.29877E-02        -0.13691E-01         0.00000E+00
    0.23517E-02        -0.10949E-01         0.00000E+00
    0.17356E-02        -0.82021E-02         0.00000E+00
    0.11387E-02        -0.54579E-02         0.00000E+00
    0.56029E-03        -0.27221E-02         0.00000E+00
    0.00000E+00         0.00000E+00         0.00000E+00
    0.11400E-01        -0.41190E-01         0.00000E+00
    0.10239E-01        -0.38602E-01         0.00000E+00
    0.91936E-02        -0.36008E-01         0.00000E+00
    0.82398E-02        -0.33395E-01         0.00000E+00
    0.73581E-02        -0.30752E-01         0.00000E+00
    0.65384E-02        -0.28077E-01         0.00000E+00
    0.57719E-02        -0.25368E-01         0.00000E+00
    0.50491E-02        -0.22625E-01         0.00000E+00
    0.43606E-02        -0.19852E-01         0.00000E+00
    0.36981E-02        -0.17050E-01         0.00000E+00
    0.30542E-02        -0.14225E-01         0.00000E+00
    0.24239E-02        -0.11382E-01         0.00000E+00
    0.18041E-02        -0.85295E-02         0.00000E+00
    0.11932E-02        -0.56757E-02         0.00000E+00
    0.59136E-03        -0.28295E-02         0.00000E+00
    0.00000E+00         0.00000E+00         0.00000E+00
    0.11171E-01        -0.42427E-01         0.00000E+00
    0.10007E-01        -0.39777E-01         0.00000E+00
    0.89754E-02        -0.37120E-01         0.00000E+00
    0.80499E-02        -0.34447E-01         0.00000E+00
    0.72036E-02        -0.31745E-01         0.00000E+00
    0.64211E-02        -0.29005E-01         0.00000E+00
    0.56929E-02        -0.26227E-01         0.00000E+00
    0.50079E-02        -0.23412E-01         0.00000E+00
    0.43549E-02        -0.20559E-01         0.00000E+00
    0.37232E-02        -0.17672E-01         0.00000E+00
    0.31036E-02        -0.14755E-01         0.00000E+00
    0.24883E-02        -0.11815E-01         0.00000E+00
    0.18720E-02        -0.88583E-02         0.00000E+00
    0.12517E-02        -0.58960E-02         0.00000E+00
    0.62687E-03        -0.29392E-02         0.00000E+00
    0.00000E+00         0.00000E+00         0.00000E+00
    0.10828E-01        -0.43669E-01         0.00000E+00
    0.96731E-02        -0.40952E-01         0.00000E+00
    0.86642E-02        -0.38227E-01         0.00000E+00
    0.77724E-02        -0.35488E-01         0.00000E+00
    0.69681E-02        -0.32722E-01         0.00000E+00
    0.62320E-02        -0.29917E-01         0.00000E+00
    0.55517E-02        -0.27070E-01         0.00000E+00
    0.49142E-02        -0.24180E-01         0.00000E+00
    0.43064E-02        -0.21250E-01         0.00000E+00
    0.37156E-02        -0.18280E-01         0.00000E+00
    0.31299E-02        -0.15276E-01         0.00000E+00
    0.25389E-02        -0.12241E-01         0.00000E+00
    0.19344E-02        -0.91846E-02         0.00000E+00
    0.13106E-02        -0.61164E-02         0.00000E+00
    0.66512E-03        -0.30497E-02         0.00000E+00
    0.00000E+00         0.00000E+00         0.00000E+00
    0.10363E-01        -0.44900E-01         0.00000E+00
    0.92326E-02        -0.42115E-01         0.00000E+00
    0.82573E-02        -0.39319E-01         0.00000E+00
    0.74066E-02        -0.36509E-01         0.00000E+00
    0.66515E-02        -0.33675E-01         0.00000E+00
    0.59696E-02        -0.30801E-01         0.00000E+00
    0.53455E-02        -0.27883E-01         0.00000E+00
    0.47640E-02        -0.24921E-01         0.00000E+00
    0.42101E-02        -0.21915E-01         0.00000E+00
    0.36689E-02        -0.18866E-01         0.00000E+00
    0.31261E-02        -0.15778E-01         0.00000E+00
    0.25687E-02        -0.12656E-01         0.00000E+00
    0.19851E-02        -0.95042E-02         0.00000E+00
    0.13657E-02        -0.63344E-02         0.00000E+00
    0.70427E-03        -0.31602E-02         0.00000E+00
    0.00000E+00         0.00000E+00         0.00000E+00
    0.97704E-02        -0.46102E-01         0.00000E+00
    0.86796E-02        -0.43249E-01         0.00000E+00
    0.77507E-02        -0.40381E-01         0.00000E+00
    0.69518E-02        -0.37498E-01         0.00000E+00
    0.62535E-02        -0.34592E-01         0.00000E+00
    0.56328E-02        -0.31645E-01         0.00000E+00
    0.50718E-02        -0.28656E-01         0.00000E+00
    0.45533E-02        -0.25621E-01         0.00000E+00
    0.40601E-02        -0.22543E-01         0.00000E+00
    0.35756E-02        -0.19420E-01         0.00000E+00
    0.30837E-02        -0.16256E-01         0.00000E+00
    0.25688E-02        -0.13052E-01         0.00000E+00
    0.20162E-02        -0.98128E-02         0.00000E+00
    0.14116E-02        -0.65474E-02         0.00000E+00
    0.74203E-03        -0.32693E-02         0.00000E+00
    0.00000E+00         0.00000E+00         0.00000E+00
    0.90460E-02        -0.47262E-01         0.00000E+00
    0.80101E-02        -0.44338E-01         0.00000E+00
    0.71413E-02        -0.41398E-01         0.00000E+00
    0.64057E-02        -0.38439E-01         0.00000E+00
    0.57729E-02        -0.35458E-01         0.00000E+00
    0.52205E-02        -0.32438E-01         0.00000E+00
    0.47284E-02        -0.29376E-01         0.00000E+00
    0.42777E-02        -0.26271E-01         0.00000E+00
    0.38500E-02        -0.23123E-01         0.00000E+00
    0.34275E-02        -0.19933E-01         0.00000E+00
    0.29928E-02        -0.16699E-01         0.00000E+00
    0.25289E-02        -0.13423E-01         0.00000E+00
    0.20181E-02        -0.10106E-01         0.00000E+00
    0.14408E-02        -0.67526E-02         0.00000E+00
    0.77515E-03        -0.33760E-02         0.00000E+00
    0.00000E+00         0.00000E+00         0.00000E+00
    0.81855E-02        -0.48361E-01         0.00000E+00
    0.72210E-02        -0.45366E-01         0.00000E+00
    0.64267E-02        -0.42352E-01         0.00000E+00
    0.57665E-02        -0.39317E-01         0.00000E+00
    0.52088E-02        -0.36261E-01         0.00000E+00
    0.47311E-02        -0.33166E-01         0.00000E+00
    0.43123E-02        -0.30031E-01         0.00000E+00
    0.39323E-02        -0.26858E-01         0.00000E+00
    0.35725E-02        -0.23647E-01         0.00000E+00
    0.32151E-02        -0.20395E-01         0.00000E+00
    0.28426E-02        -0.17101E-01         0.00000E+00
    0.24370E-02        -0.13762E-01         0.00000E+00
    0.19785E-02        -0.10377E-01         0.00000E+00
    0.14432E-02        -0.69470E-02         0.00000E+00
    0.79833E-03        -0.34796E-02         0.00000E+00
    0.00000E+00         0.00000E+00         0.00000E+00
    0.71855E-02        -0.49382E-01         0.00000E+00
    0.63102E-02        -0.46316E-01         0.00000E+00
    0.56061E-02        -0.43226E-01         0.00000E+00
    0.50336E-02        -0.40114E-01         0.00000E+00
    0.45602E-02        -0.36982E-01         0.00000E+00
    0.41630E-02        -0.33813E-01         0.00000E+00
    0.38199E-02        -0.30608E-01         0.00000E+00
    0.35112E-02        -0.27372E-01         0.00000E+00
    0.32194E-02        -0.24102E-01         0.00000E+00
    0.29280E-02        -0.20797E-01         0.00000E+00
    0.26206E-02        -0.17453E-01         0.00000E+00
    0.22794E-02        -0.14063E-01         0.00000E+00
    0.18833E-02        -0.10623E-01         0.00000E+00
    0.14053E-02        -0.71268E-02         0.00000E+00
    0.80350E-03        -0.35780E-02         0.00000E+00
    0.00000E+00         0.00000E+00         0.00000E+00
    0.60431E-02        -0.50306E-01         0.00000E+00
    0.52771E-02        -0.47168E-01         0.00000E+00
    0.46801E-02        -0.44002E-01         0.00000E+00
    0.42078E-02        -0.40813E-01         0.00000E+00
    0.38267E-02        -0.37604E-01         0.00000E+00
    0.35138E-02        -0.34364E-01         0.00000E+00
    0.32468E-02        -0.31095E-01         0.00000E+00
    0.30078E-02        -0.27801E-01         0.00000E+00
    0.27818E-02        -0.24481E-01         0.00000E+00
    0.25552E-02        -0.21132E-01         0.00000E+00
    0.23139E-02        -0.17748E-01         0.00000E+00
    0.20417E-02        -0.14320E-01         0.00000E+00
    0.17173E-02        -0.10837E-01         0.00000E+00
    0.13118E-02        -0.72891E-02         0.00000E+00
    0.77713E-03        -0.36712E-02         0.00000E+00
    0.00000E+00         0.00000E+00         0.00000E+00
    0.47556E-02        -0.51111E-01         0.00000E+00
    0.41227E-02        -0.47901E-01         0.00000E+00
    0.36514E-02        -0.44657E-01         0.00000E+00
    0.32905E-02        -0.41391E-01         0.00000E+00
    0.30077E-02        -0.38110E-01         0.00000E+00
    0.27801E-02        -0.34805E-01         0.00000E+00
    0.25871E-02        -0.31480E-01         0.00000E+00
    0.24142E-02        -0.28138E-01         0.00000E+00
    0.22504E-02        -0.24777E-01         0.00000E+00
    0.20857E-02        -0.21393E-01         0.00000E+00
    0.19094E-02        -0.17979E-01         0.00000E+00
    0.17083E-02        -0.14524E-01         0.00000E+00
    0.14634E-02        -0.11014E-01         0.00000E+00
    0.11453E-02        -0.74314E-02         0.00000E+00
    0.70386E-03        -0.37596E-02         0.00000E+00
    0.00000E+00         0.00000E+00         0.00000E+00
    0.33197E-02        -0.51768E-01         0.00000E+00
    0.28513E-02        -0.48485E-01         0.00000E+00
    0.25256E-02        -0.45165E-01         0.00000E+00
    0.22839E-02        -0.41827E-01         0.00000E+00
    0.21006E-02        -0.38481E-01         0.00000E+00
    0.19562E-02        -0.35124E-01         0.00000E+00
    0.18328E-02        -0.31756E-01         0.00000E+00
    0.17214E-02        -0.28378E-01         0.00000E+00
    0.16157E-02        -0.24986E-01         0.00000E+00
    0.15093E-02        -0.21577E-01         0.00000E+00
    0.13952E-02        -0.18143E-01         0.00000E+00
    0.12643E-02        -0.14672E-01         0.00000E+00
    0.11030E-02        -0.11148E-01         0.00000E+00
    0.88692E-03        -0.75490E-02         0.00000E+00
    0.56657E-03        -0.38418E-02         0.00000E+00
    0.00000E+00         0.00000E+00         0.00000E+00
    0.17323E-02        -0.52237E-01         0.00000E+00
    0.14724E-02        -0.48883E-01         0.00000E+00
    0.13089E-02        -0.45494E-01         0.00000E+00
    0.11887E-02        -0.42098E-01         0.00000E+00
    0.11000E-02        -0.38705E-01         0.00000E+00
    0.10332E-02        -0.35313E-01         0.00000E+00
    0.97402E-03        -0.31919E-01         0.00000E+00
    0.91988E-03        -0.28519E-01         0.00000E+00
    0.86850E-03        -0.25110E-01         0.00000E+00
    0.81683E-03        -0.21685E-01         0.00000E+00
    0.76143E-03        -0.18238E-01         0.00000E+00
    0.69783E-03        -0.14758E-01         0.00000E+00
    0.61914E-03        -0.11230E-01         0.00000E+00
    0.51214E-03        -0.76300E-02         0.00000E+00
    0.34533E-03        -0.39145E-02         0.00000E+00
    0.00000E+00         0.00000E+00         0.00000E+00
    0.00000E+00        -0.52439E-01         0.00000E+00
    0.00000E+00        -0.49030E-01         0.00000E+00
    0.00000E+00        -0.45609E-01         0.00000E+00
    0.00000E+00        -0.42191E-01         0.00000E+00
    0.00000E+00        -0.38778E-01         0.00000E+00
    0.00000E+00        -0.35375E-01         0.00000E+00
    0.00000E+00        -0.31973E-01         0.00000E+00
    0.00000E+00        -0.28566E-01         0.00000E+00
    0.00000E+00        -0.25150E-01         0.00000E+00
    0.00000E+00        -0.21720E-01         0.00000E+00
    0.00000E+00        -0.18269E-01         0.00000E+00
    0.00000E+00        -0.14787E-01         0.00000E+00
    0.00000E+00        -0.11258E-01         0.00000E+00
    0.00000E+00        -0.76596E-02         0.00000E+00
    0.00000E+00        -0.39492E-02         0.00000E+00
    0.00000E+00         0.00000E+00         0.00000E+00
CELL_DATA        450
VECTORS vDarcy double 
    0.25625E-09        -0.34210E-10         0.00000E+00
    0.25619E-09        -0.10283E-09         0.00000E+00
    0.25610E-09        -0.17279E-09         0.00000E+00
    0.25595E-09        -0.24394E-09         0.00000E+00
    0.25573E-09        -0.31624E-09         0.00000E+00
    0.25543E-09        -0.38972E-09         0.00000E+00
    0.25507E-09        -0.46502E-09         0.00000E+00
    0.25459E-09        -0.48377E-09         0.00000E+00
    0.25395E-09        -0.43685E-09         0.00000E+00
    0.25327E-09        -0.38292E-09         0.00000E+00
    0.25265E-09        -0.32417E-09         0.00000E+00
    0.25212E-09        -0.26072E-09         0.00000E+00
    0.25171E-09        -0.19255E-09         0.00000E+00
    0.25143E-09        -0.11953E-09         0.00000E+00
    0.25129E-09        -0.41491E-10         0.00000E+00
    0.76838E-09        -0.34145E-10         0.00000E+00
    0.76819E-09        -0.10268E-09         0.00000E+00
    0.76784E-09        -0.17252E-09         0.00000E+00
    0.76732E-09        -0.24356E-09         0.00000E+00
    0.76662E-09        -0.31572E-09         0.00000E+00
    0.76572E-09        -0.38905E-09         0.00000E+00
    0.76462E-09        -0.46424E-09         0.00000E+00
    0.76312E-09        -0.48259E-09         0.00000E+00
    0.76117E-09        -0.43547E-09         0.00000E+00
    0.75912E-09        -0.38162E-09         0.00000E+00
    0.75726E-09        -0.32302E-09         0.00000E+00
    0.75567E-09        -0.25978E-09         0.00000E+00
    0.75444E-09        -0.19186E-09         0.00000E+00
    0.75361E-09        -0.11912E-09         0.00000E+00
    0.75319E-09        -0.41358E-10         0.00000E+00
    0.12795E-08        -0.33989E-10         0.00000E+00
    0.12791E-08        -0.10226E-09         0.00000E+00
    0.12783E-08        -0.17182E-09         0.00000E+00
    0.12772E-08        -0.24266E-09         0.00000E+00
    0.12758E-08        -0.31463E-09         0.00000E+00
    0.12743E-08        -0.38774E-09         0.00000E+00
    0.12724E-08        -0.46255E-09         0.00000E+00
    0.12697E-08        -0.48014E-09         0.00000E+00
    0.12664E-08        -0.43268E-09         0.00000E+00
    0.12629E-08        -0.37899E-09         0.00000E+00
    0.12598E-08        -0.32071E-09         0.00000E+00
    0.12572E-08        -0.25791E-09         0.00000E+00
    0.12551E-08        -0.19050E-09         0.00000E+00
    0.12537E-08        -0.11831E-09         0.00000E+00
    0.12530E-08        -0.41093E-10         0.00000E+00
    0.17893E-08        -0.33644E-10         0.00000E+00
    0.17884E-08        -0.10130E-09         0.00000E+00
    0.17867E-08        -0.17040E-09         0.00000E+00
    0.17846E-08        -0.24096E-09         0.00000E+00
    0.17824E-08        -0.31279E-09         0.00000E+00
    0.17801E-08        -0.38576E-09         0.00000E+00
    0.17772E-08        -0.45979E-09         0.00000E+00
    0.17731E-08        -0.47615E-09         0.00000E+00
    0.17682E-08        -0.42850E-09         0.00000E+00
    0.17633E-08        -0.37503E-09         0.00000E+00
    0.17590E-08        -0.31724E-09         0.00000E+00
    0.17553E-08        -0.25510E-09         0.00000E+00
    0.17524E-08        -0.18846E-09         0.00000E+00
    0.17505E-08        -0.11709E-09         0.00000E+00
    0.17495E-08        -0.40696E-10         0.00000E+00
    0.22971E-08        -0.33058E-10         0.00000E+00
    0.22956E-08        -0.99573E-10         0.00000E+00
    0.22929E-08        -0.16786E-09         0.00000E+00
    0.22894E-08        -0.23802E-09         0.00000E+00
    0.22856E-08        -0.30979E-09         0.00000E+00
    0.22819E-08        -0.38279E-09         0.00000E+00
    0.22776E-08        -0.45565E-09         0.00000E+00
    0.22718E-08        -0.47043E-09         0.00000E+00
    0.22653E-08        -0.42285E-09         0.00000E+00
    0.22590E-08        -0.36971E-09         0.00000E+00
    0.22534E-08        -0.31259E-09         0.00000E+00
    0.22486E-08        -0.25135E-09         0.00000E+00
    0.22449E-08        -0.18575E-09         0.00000E+00
    0.22424E-08        -0.11547E-09         0.00000E+00
    0.22412E-08        -0.40172E-10         0.00000E+00
    0.28023E-08        -0.32245E-10         0.00000E+00
    0.28003E-08        -0.96980E-10         0.00000E+00
    0.27963E-08        -0.16391E-09         0.00000E+00
    0.27911E-08        -0.23332E-09         0.00000E+00
    0.27852E-08        -0.30495E-09         0.00000E+00
    0.27792E-08        -0.37800E-09         0.00000E+00
    0.27726E-08        -0.44959E-09         0.00000E+00
    0.27648E-08        -0.46294E-09         0.00000E+00
    0.27565E-08        -0.41565E-09         0.00000E+00
    0.27487E-08        -0.36301E-09         0.00000E+00
    0.27417E-08        -0.30676E-09         0.00000E+00
    0.27359E-08        -0.24666E-09         0.00000E+00
    0.27314E-08        -0.18236E-09         0.00000E+00
    0.27284E-08        -0.11346E-09         0.00000E+00
    0.27269E-08        -0.39524E-10         0.00000E+00
    0.33041E-08        -0.31243E-10         0.00000E+00
    0.33016E-08        -0.93634E-10         0.00000E+00
    0.32967E-08        -0.15852E-09         0.00000E+00
    0.32896E-08        -0.22646E-09         0.00000E+00
    0.32809E-08        -0.29735E-09         0.00000E+00
    0.32714E-08        -0.37019E-09         0.00000E+00
    0.32613E-08        -0.44074E-09         0.00000E+00
    0.32507E-08        -0.45344E-09         0.00000E+00
    0.32404E-08        -0.40681E-09         0.00000E+00
    0.32311E-08        -0.35487E-09         0.00000E+00
    0.32228E-08        -0.29972E-09         0.00000E+00
    0.32158E-08        -0.24103E-09         0.00000E+00
    0.32105E-08        -0.17832E-09         0.00000E+00
    0.32070E-08        -0.11107E-09         0.00000E+00
    0.32053E-08        -0.38760E-10         0.00000E+00
    0.38011E-08        -0.30106E-10         0.00000E+00
    0.37984E-08        -0.89819E-10         0.00000E+00
    0.37929E-08        -0.15203E-09         0.00000E+00
    0.37843E-08        -0.21740E-09         0.00000E+00
    0.37727E-08        -0.28622E-09         0.00000E+00
    0.37586E-08        -0.35784E-09         0.00000E+00
    0.37430E-08        -0.42749E-09         0.00000E+00
    0.37283E-08        -0.44150E-09         0.00000E+00
    0.37160E-08        -0.39636E-09         0.00000E+00
    0.37051E-08        -0.34526E-09         0.00000E+00
    0.36954E-08        -0.29144E-09         0.00000E+00
    0.36873E-08        -0.23443E-09         0.00000E+00
    0.36812E-08        -0.17361E-09         0.00000E+00
    0.36771E-08        -0.10831E-09         0.00000E+00
    0.36751E-08        -0.37888E-10         0.00000E+00
    0.42916E-08        -0.28885E-10         0.00000E+00
    0.42889E-08        -0.85831E-10         0.00000E+00
    0.42832E-08        -0.14497E-09         0.00000E+00
    0.42738E-08        -0.20668E-09         0.00000E+00
    0.42598E-08        -0.27146E-09         0.00000E+00
    0.42408E-08        -0.33958E-09         0.00000E+00
    0.42181E-08        -0.40760E-09         0.00000E+00
    0.41973E-08        -0.42606E-09         0.00000E+00
    0.41819E-08        -0.38427E-09         0.00000E+00
    0.41694E-08        -0.33409E-09         0.00000E+00
    0.41583E-08        -0.28189E-09         0.00000E+00
    0.41491E-08        -0.22688E-09         0.00000E+00
    0.41422E-08        -0.16825E-09         0.00000E+00
    0.41376E-08        -0.10519E-09         0.00000E+00
    0.41354E-08        -0.36920E-10         0.00000E+00
    0.47741E-08        -0.27623E-10         0.00000E+00
    0.47713E-08        -0.81807E-10         0.00000E+00
    0.47655E-08        -0.13767E-09         0.00000E+00
    0.47557E-08        -0.19502E-09         0.00000E+00
    0.47404E-08        -0.25398E-09         0.00000E+00
    0.47175E-08        -0.31529E-09         0.00000E+00
    0.46869E-08        -0.37867E-09         0.00000E+00
    0.46573E-08        -0.40473E-09         0.00000E+00
    0.46373E-08        -0.37043E-09         0.00000E+00
    0.46230E-08        -0.32132E-09         0.00000E+00
    0.46104E-08        -0.27109E-09         0.00000E+00
    0.46002E-08        -0.21840E-09         0.00000E+00
    0.45924E-08        -0.16222E-09         0.00000E+00
    0.45873E-08        -0.10171E-09         0.00000E+00
    0.45849E-08        -0.35866E-10         0.00000E+00
    0.52471E-08        -0.26272E-10         0.00000E+00
    0.52441E-08        -0.77579E-10         0.00000E+00
    0.52378E-08        -0.12998E-09         0.00000E+00
    0.52273E-08        -0.18262E-09         0.00000E+00
    0.52109E-08        -0.23486E-09         0.00000E+00
    0.51861E-08        -0.28690E-09         0.00000E+00
    0.51499E-08        -0.34044E-09         0.00000E+00
    0.51101E-08        -0.37370E-09         0.00000E+00
    0.50820E-08        -0.35351E-09         0.00000E+00
    0.50648E-08        -0.30690E-09         0.00000E+00
    0.50509E-08        -0.25922E-09         0.00000E+00
    0.50397E-08        -0.20900E-09         0.00000E+00
    0.50311E-08        -0.15544E-09         0.00000E+00
    0.50254E-08        -0.97759E-10         0.00000E+00
    0.50226E-08        -0.34724E-10         0.00000E+00
    0.57096E-08        -0.24682E-10         0.00000E+00
    0.57059E-08        -0.72689E-10         0.00000E+00
    0.56983E-08        -0.12119E-09         0.00000E+00
    0.56860E-08        -0.16874E-09         0.00000E+00
    0.56675E-08        -0.21408E-09         0.00000E+00
    0.56412E-08        -0.25672E-09         0.00000E+00
    0.56041E-08        -0.29758E-09         0.00000E+00
    0.55574E-08        -0.33025E-09         0.00000E+00
    0.55169E-08        -0.32848E-09         0.00000E+00
    0.54938E-08        -0.29183E-09         0.00000E+00
    0.54793E-08        -0.24609E-09         0.00000E+00
    0.54670E-08        -0.19874E-09         0.00000E+00
    0.54576E-08        -0.14783E-09         0.00000E+00
    0.54509E-08        -0.93034E-10         0.00000E+00
    0.54476E-08        -0.33478E-10         0.00000E+00
    0.61604E-08        -0.22698E-10         0.00000E+00
    0.61557E-08        -0.66510E-10         0.00000E+00
    0.61459E-08        -0.11020E-09         0.00000E+00
    0.61302E-08        -0.15187E-09         0.00000E+00
    0.61078E-08        -0.19024E-09         0.00000E+00
    0.60781E-08        -0.22478E-09         0.00000E+00
    0.60409E-08        -0.25541E-09         0.00000E+00
    0.59958E-08        -0.28080E-09         0.00000E+00
    0.59478E-08        -0.28958E-09         0.00000E+00
    0.59111E-08        -0.27114E-09         0.00000E+00
    0.58920E-08        -0.23338E-09         0.00000E+00
    0.58812E-08        -0.18848E-09         0.00000E+00
    0.58717E-08        -0.13927E-09         0.00000E+00
    0.58638E-08        -0.87117E-10         0.00000E+00
    0.58591E-08        -0.31507E-10         0.00000E+00
    0.65991E-08        -0.20180E-10         0.00000E+00
    0.65928E-08        -0.58184E-10         0.00000E+00
    0.65793E-08        -0.95422E-10         0.00000E+00
    0.65583E-08        -0.13010E-09         0.00000E+00
    0.65300E-08        -0.16157E-09         0.00000E+00
    0.64957E-08        -0.18969E-09         0.00000E+00
    0.64563E-08        -0.21402E-09         0.00000E+00
    0.64125E-08        -0.23350E-09         0.00000E+00
    0.63673E-08        -0.24384E-09         0.00000E+00
    0.63260E-08        -0.23901E-09         0.00000E+00
    0.62943E-08        -0.21488E-09         0.00000E+00
    0.62749E-08        -0.17696E-09         0.00000E+00
    0.62649E-08        -0.13143E-09         0.00000E+00
    0.62591E-08        -0.81417E-10         0.00000E+00
    0.62545E-08        -0.27978E-10         0.00000E+00
    0.70252E-08        -0.17075E-10         0.00000E+00
    0.70164E-08        -0.46335E-10         0.00000E+00
    0.69969E-08        -0.74503E-10         0.00000E+00
    0.69682E-08        -0.10146E-09         0.00000E+00
    0.69330E-08        -0.12708E-09         0.00000E+00
    0.68939E-08        -0.15084E-09         0.00000E+00
    0.68520E-08        -0.17173E-09         0.00000E+00
    0.68084E-08        -0.18858E-09         0.00000E+00
    0.67642E-08        -0.19954E-09         0.00000E+00
    0.67227E-08        -0.20060E-09         0.00000E+00
    0.66885E-08        -0.18761E-09         0.00000E+00
    0.66648E-08        -0.16124E-09         0.00000E+00
    0.66512E-08        -0.12369E-09         0.00000E+00
    0.66460E-08        -0.78317E-10         0.00000E+00
    0.66456E-08        -0.26192E-10         0.00000E+00
    0.74367E-08        -0.13112E-10         0.00000E+00
    0.74240E-08        -0.28960E-10         0.00000E+00
    0.73957E-08        -0.44363E-10         0.00000E+00
    0.73575E-08        -0.64833E-10         0.00000E+00
    0.73158E-08        -0.87027E-10         0.00000E+00
    0.72728E-08        -0.10881E-09         0.00000E+00
    0.72292E-08        -0.12848E-09         0.00000E+00
    0.71857E-08        -0.14481E-09         0.00000E+00
    0.71429E-08        -0.15653E-09         0.00000E+00
    0.71024E-08        -0.16161E-09         0.00000E+00
    0.70669E-08        -0.15709E-09         0.00000E+00
    0.70398E-08        -0.14109E-09         0.00000E+00
    0.70231E-08        -0.11360E-09         0.00000E+00
    0.70155E-08        -0.75769E-10         0.00000E+00
    0.70136E-08        -0.26638E-10         0.00000E+00
    0.78260E-08        -0.54811E-11         0.00000E+00
    0.78066E-08        -0.47110E-11         0.00000E+00
    0.77710E-08        -0.49491E-11         0.00000E+00
    0.77252E-08        -0.20361E-10         0.00000E+00
    0.76781E-08        -0.42769E-10         0.00000E+00
    0.76326E-08        -0.64667E-10         0.00000E+00
    0.75882E-08        -0.84810E-10         0.00000E+00
    0.75452E-08        -0.10205E-09         0.00000E+00
    0.75040E-08        -0.11544E-09         0.00000E+00
    0.74656E-08        -0.12383E-09         0.00000E+00
    0.74317E-08        -0.12551E-09         0.00000E+00
    0.74044E-08        -0.11836E-09         0.00000E+00
    0.73852E-08        -0.10049E-09         0.00000E+00
    0.73739E-08        -0.70140E-10         0.00000E+00
    0.73688E-08        -0.25452E-10         0.00000E+00
    0.81698E-08         0.51766E-11         0.00000E+00
    0.81516E-08         0.22048E-10         0.00000E+00
    0.81183E-08         0.37150E-10         0.00000E+00
    0.80719E-08         0.29596E-10         0.00000E+00
    0.80212E-08         0.50512E-11         0.00000E+00
    0.79734E-08        -0.19241E-10         0.00000E+00
    0.79287E-08        -0.41253E-10         0.00000E+00
    0.78866E-08        -0.60502E-10         0.00000E+00
    0.78472E-08        -0.76459E-10         0.00000E+00
    0.78112E-08        -0.88435E-10         0.00000E+00
    0.77794E-08        -0.95238E-10         0.00000E+00
    0.77528E-08        -0.94841E-10         0.00000E+00
    0.77324E-08        -0.84461E-10         0.00000E+00
    0.77186E-08        -0.61199E-10         0.00000E+00
    0.77117E-08        -0.22518E-10         0.00000E+00
    0.84812E-08         0.14519E-10         0.00000E+00
    0.84662E-08         0.45868E-10         0.00000E+00
    0.84370E-08         0.75882E-10         0.00000E+00
    0.83939E-08         0.80267E-10         0.00000E+00
    0.83433E-08         0.55666E-10         0.00000E+00
    0.82943E-08         0.26946E-10         0.00000E+00
    0.82497E-08         0.18036E-11         0.00000E+00
    0.82087E-08        -0.20401E-10         0.00000E+00
    0.81712E-08        -0.39632E-10         0.00000E+00
    0.81374E-08        -0.55436E-10         0.00000E+00
    0.81076E-08        -0.66719E-10         0.00000E+00
    0.80823E-08        -0.71511E-10         0.00000E+00
    0.80619E-08        -0.67058E-10         0.00000E+00
    0.80474E-08        -0.50386E-10         0.00000E+00
    0.80397E-08        -0.18867E-10         0.00000E+00
    0.87569E-08         0.21611E-10         0.00000E+00
    0.87456E-08         0.65164E-10         0.00000E+00
    0.87228E-08         0.10873E-09         0.00000E+00
    0.86861E-08         0.12719E-09         0.00000E+00
    0.86397E-08         0.10578E-09         0.00000E+00
    0.85928E-08         0.72819E-10         0.00000E+00
    0.85495E-08         0.43865E-10         0.00000E+00
    0.85100E-08         0.18048E-10         0.00000E+00
    0.84745E-08        -0.48959E-11         0.00000E+00
    0.84427E-08        -0.24595E-10         0.00000E+00
    0.84149E-08        -0.39955E-10         0.00000E+00
    0.83911E-08        -0.49151E-10         0.00000E+00
    0.83718E-08        -0.49775E-10         0.00000E+00
    0.83577E-08        -0.39208E-10         0.00000E+00
    0.83502E-08        -0.15038E-10         0.00000E+00
    0.90051E-08         0.27250E-10         0.00000E+00
    0.89951E-08         0.80992E-10         0.00000E+00
    0.89759E-08         0.13516E-09         0.00000E+00
    0.89461E-08         0.16745E-09         0.00000E+00
    0.89067E-08         0.15145E-09         0.00000E+00
    0.88648E-08         0.11606E-09         0.00000E+00
    0.88251E-08         0.83810E-10         0.00000E+00
    0.87884E-08         0.54349E-10         0.00000E+00
    0.87553E-08         0.27633E-10         0.00000E+00
    0.87258E-08         0.41248E-11         0.00000E+00
    0.87001E-08        -0.15086E-10         0.00000E+00
    0.86783E-08        -0.28350E-10         0.00000E+00
    0.86606E-08        -0.33611E-10         0.00000E+00
    0.86478E-08        -0.28646E-10         0.00000E+00
    0.86410E-08        -0.11409E-10         0.00000E+00
    0.92239E-08         0.32262E-10         0.00000E+00
    0.92150E-08         0.95102E-10         0.00000E+00
    0.91987E-08         0.15698E-09         0.00000E+00
    0.91745E-08         0.20003E-09         0.00000E+00
    0.91427E-08         0.19016E-09         0.00000E+00
    0.91080E-08         0.15415E-09         0.00000E+00
    0.90738E-08         0.11985E-09         0.00000E+00
    0.90416E-08         0.87447E-10         0.00000E+00
    0.90121E-08         0.57380E-10         0.00000E+00
    0.89857E-08         0.30360E-10         0.00000E+00
    0.89626E-08         0.75252E-11         0.00000E+00
    0.89432E-08        -0.95857E-11         0.00000E+00
    0.89276E-08        -0.19151E-10         0.00000E+00
    0.89164E-08        -0.19253E-10         0.00000E+00
    0.89105E-08        -0.81893E-11         0.00000E+00
    0.94109E-08         0.36789E-10         0.00000E+00
    0.94036E-08         0.10724E-09         0.00000E+00
    0.93904E-08         0.17492E-09         0.00000E+00
    0.93717E-08         0.22549E-09         0.00000E+00
    0.93476E-08         0.22082E-09         0.00000E+00
    0.93210E-08         0.18521E-09         0.00000E+00
    0.92941E-08         0.15006E-09         0.00000E+00
    0.92681E-08         0.11582E-09         0.00000E+00
    0.92436E-08         0.83253E-10         0.00000E+00
    0.92214E-08         0.53326E-10         0.00000E+00
    0.92019E-08         0.27285E-10         0.00000E+00
    0.91854E-08         0.66714E-11         0.00000E+00
    0.91724E-08        -0.67826E-11         0.00000E+00
    0.91632E-08        -0.11331E-10         0.00000E+00
    0.91583E-08        -0.54859E-11         0.00000E+00
    0.95637E-08         0.40562E-10         0.00000E+00
    0.95584E-08         0.11681E-09         0.00000E+00
    0.95493E-08         0.18828E-09         0.00000E+00
    0.95370E-08         0.24378E-09         0.00000E+00
    0.95212E-08         0.24287E-09         0.00000E+00
    0.95036E-08         0.20792E-09         0.00000E+00
    0.94854E-08         0.17276E-09         0.00000E+00
    0.94671E-08         0.13778E-09         0.00000E+00
    0.94494E-08         0.10381E-09         0.00000E+00
    0.94328E-08         0.71893E-10         0.00000E+00
    0.94179E-08         0.43379E-10         0.00000E+00
    0.94052E-08         0.19878E-10         0.00000E+00
    0.93951E-08         0.31524E-11         0.00000E+00
    0.93881E-08        -0.50755E-11         0.00000E+00
    0.93845E-08        -0.33587E-11         0.00000E+00
    0.96796E-08         0.43267E-10         0.00000E+00
    0.96770E-08         0.12292E-09         0.00000E+00
    0.96733E-08         0.19581E-09         0.00000E+00
    0.96690E-08         0.25374E-09         0.00000E+00
    0.96631E-08         0.25519E-09         0.00000E+00
    0.96559E-08         0.22099E-09         0.00000E+00
    0.96479E-08         0.18640E-09         0.00000E+00
    0.96391E-08         0.15164E-09         0.00000E+00
    0.96297E-08         0.11742E-09         0.00000E+00
    0.96203E-08         0.84714E-10         0.00000E+00
    0.96112E-08         0.54838E-10         0.00000E+00
    0.96031E-08         0.29427E-10         0.00000E+00
    0.95965E-08         0.10323E-10         0.00000E+00
    0.95919E-08        -0.63555E-12         0.00000E+00
    0.95896E-08        -0.18421E-11         0.00000E+00
    0.97554E-08         0.44550E-10         0.00000E+00
    0.97564E-08         0.12440E-09         0.00000E+00
    0.97600E-08         0.19553E-09         0.00000E+00
    0.97663E-08         0.25316E-09         0.00000E+00
    0.97729E-08         0.25584E-09         0.00000E+00
    0.97783E-08         0.22271E-09         0.00000E+00
    0.97824E-08         0.18924E-09         0.00000E+00
    0.97849E-08         0.15562E-09         0.00000E+00
    0.97858E-08         0.12238E-09         0.00000E+00
    0.97851E-08         0.90346E-10         0.00000E+00
    0.97830E-08         0.60640E-10         0.00000E+00
    0.97803E-08         0.34737E-10         0.00000E+00
    0.97776E-08         0.14467E-10         0.00000E+00
    0.97756E-08         0.19035E-11         0.00000E+00
    0.97745E-08        -0.94956E-12         0.00000E+00
    0.97875E-08         0.43962E-10         0.00000E+00
    0.97933E-08         0.11967E-09         0.00000E+00
    0.98068E-08         0.18451E-09         0.00000E+00
    0.98278E-08         0.23820E-09         0.00000E+00
    0.98508E-08         0.24214E-09         0.00000E+00
    0.98717E-08         0.21083E-09         0.00000E+00
    0.98904E-08         0.17910E-09         0.00000E+00
    0.99066E-08         0.14765E-09         0.00000E+00
    0.99197E-08         0.11689E-09         0.00000E+00
    0.99293E-08         0.87378E-10         0.00000E+00
    0.99354E-08         0.59861E-10         0.00000E+00
    0.99386E-08         0.35367E-10         0.00000E+00
    0.99399E-08         0.15504E-10         0.00000E+00
    0.99404E-08         0.25915E-11         0.00000E+00
    0.99405E-08        -0.63755E-12         0.00000E+00
    0.97714E-08         0.40700E-10         0.00000E+00
    0.97840E-08         0.10629E-09         0.00000E+00
    0.98111E-08         0.15893E-09         0.00000E+00
    0.98518E-08         0.20357E-09         0.00000E+00
    0.98970E-08         0.20963E-09         0.00000E+00
    0.99381E-08         0.18230E-09         0.00000E+00
    0.99746E-08         0.15321E-09         0.00000E+00
    0.10007E-07         0.12543E-09         0.00000E+00
    0.10035E-07         0.99224E-10         0.00000E+00
    0.10056E-07         0.74669E-10         0.00000E+00
    0.10071E-07         0.51825E-10         0.00000E+00
    0.10080E-07         0.31102E-10         0.00000E+00
    0.10085E-07         0.13608E-10         0.00000E+00
    0.10088E-07         0.17527E-11         0.00000E+00
    0.10089E-07        -0.74184E-12         0.00000E+00
    0.97011E-08         0.33038E-10         0.00000E+00
    0.97249E-08         0.79693E-10         0.00000E+00
    0.97714E-08         0.11388E-09         0.00000E+00
    0.98375E-08         0.14341E-09         0.00000E+00
    0.99126E-08         0.15071E-09         0.00000E+00
    0.99810E-08         0.13277E-09         0.00000E+00
    0.10040E-07         0.10816E-09         0.00000E+00
    0.10092E-07         0.86660E-10         0.00000E+00
    0.10135E-07         0.68362E-10         0.00000E+00
    0.10168E-07         0.51714E-10         0.00000E+00
    0.10192E-07         0.36241E-10         0.00000E+00
    0.10207E-07         0.21933E-10         0.00000E+00
    0.10216E-07         0.92981E-11         0.00000E+00
    0.10220E-07         0.59153E-13         0.00000E+00
    0.10221E-07        -0.67019E-12         0.00000E+00
    0.95670E-08         0.13904E-10         0.00000E+00
    0.96136E-08         0.31157E-10         0.00000E+00
    0.96887E-08         0.42900E-10         0.00000E+00
    0.97856E-08         0.53100E-10         0.00000E+00
    0.98961E-08         0.56729E-10         0.00000E+00
    0.10004E-07         0.51065E-10         0.00000E+00
    0.10096E-07         0.40178E-10         0.00000E+00
    0.10168E-07         0.31435E-10         0.00000E+00
    0.10225E-07         0.24791E-10         0.00000E+00
    0.10269E-07         0.18832E-10         0.00000E+00
    0.10301E-07         0.13277E-10         0.00000E+00
    0.10322E-07         0.80662E-11         0.00000E+00
    0.10334E-07         0.33148E-11         0.00000E+00
    0.10337E-07        -0.44804E-12         0.00000E+00
    0.10337E-07        -0.23603E-12         0.00000E+00
POINT_DATA        496
VECTORS vDarcyNodal double 
    0.25627E-09        -0.34229E-10         0.00000E+00
    0.25623E-09        -0.68543E-10         0.00000E+00
    0.25616E-09        -0.13785E-09         0.00000E+00
    0.25604E-09        -0.20844E-09         0.00000E+00
    0.25586E-09        -0.28020E-09         0.00000E+00
    0.25560E-09        -0.35313E-09         0.00000E+00
    0.25526E-09        -0.42754E-09         0.00000E+00
    0.25488E-09        -0.47463E-09         0.00000E+00
    0.25429E-09        -0.46063E-09         0.00000E+00
    0.25360E-09        -0.41022E-09         0.00000E+00
    0.25294E-09        -0.35385E-09         0.00000E+00
    0.25236E-09        -0.29270E-09         0.00000E+00
    0.25188E-09        -0.22683E-09         0.00000E+00
    0.25154E-09        -0.15617E-09         0.00000E+00
    0.25133E-09        -0.80579E-10         0.00000E+00
    0.25126E-09        -0.41525E-10         0.00000E+00
    0.51234E-09        -0.34192E-10         0.00000E+00
    0.51227E-09        -0.68494E-10         0.00000E+00
    0.51211E-09        -0.13776E-09         0.00000E+00
    0.51183E-09        -0.20829E-09         0.00000E+00
    0.51144E-09        -0.27998E-09         0.00000E+00
    0.51091E-09        -0.35283E-09         0.00000E+00
    0.51024E-09        -0.42719E-09         0.00000E+00
    0.50945E-09        -0.47415E-09         0.00000E+00
    0.50826E-09        -0.45999E-09         0.00000E+00
    0.50685E-09        -0.40955E-09         0.00000E+00
    0.50553E-09        -0.35324E-09         0.00000E+00
    0.50437E-09        -0.29218E-09         0.00000E+00
    0.50342E-09        -0.22643E-09         0.00000E+00
    0.50273E-09        -0.15590E-09         0.00000E+00
    0.50231E-09        -0.80443E-10         0.00000E+00
    0.50218E-09        -0.41458E-10         0.00000E+00
    0.10240E-08        -0.34098E-10         0.00000E+00
    0.10239E-08        -0.68330E-10         0.00000E+00
    0.10234E-08        -0.13743E-09         0.00000E+00
    0.10227E-08        -0.20779E-09         0.00000E+00
    0.10218E-08        -0.27929E-09         0.00000E+00
    0.10207E-08        -0.35194E-09         0.00000E+00
    0.10193E-08        -0.42610E-09         0.00000E+00
    0.10176E-08        -0.47267E-09         0.00000E+00
    0.10152E-08        -0.45806E-09         0.00000E+00
    0.10124E-08        -0.40753E-09         0.00000E+00
    0.10097E-08        -0.35139E-09         0.00000E+00
    0.10074E-08        -0.29062E-09         0.00000E+00
    0.10055E-08        -0.22522E-09         0.00000E+00
    0.10041E-08        -0.15508E-09         0.00000E+00
    0.10033E-08        -0.80037E-10         0.00000E+00
    0.10030E-08        -0.41258E-10         0.00000E+00
    0.15346E-08        -0.33881E-10         0.00000E+00
    0.15342E-08        -0.67915E-10         0.00000E+00
    0.15332E-08        -0.13664E-09         0.00000E+00
    0.15318E-08        -0.20670E-09         0.00000E+00
    0.15300E-08        -0.27799E-09         0.00000E+00
    0.15282E-08        -0.35043E-09         0.00000E+00
    0.15262E-08        -0.42418E-09         0.00000E+00
    0.15234E-08        -0.47001E-09         0.00000E+00
    0.15194E-08        -0.45476E-09         0.00000E+00
    0.15151E-08        -0.40414E-09         0.00000E+00
    0.15111E-08        -0.34830E-09         0.00000E+00
    0.15076E-08        -0.28800E-09         0.00000E+00
    0.15048E-08        -0.22320E-09         0.00000E+00
    0.15027E-08        -0.15372E-09         0.00000E+00
    0.15015E-08        -0.79362E-10         0.00000E+00
    0.15011E-08        -0.40927E-10         0.00000E+00
    0.20435E-08        -0.33408E-10         0.00000E+00
    0.20429E-08        -0.67030E-10         0.00000E+00
    0.20411E-08        -0.13505E-09         0.00000E+00
    0.20385E-08        -0.20466E-09         0.00000E+00
    0.20355E-08        -0.27575E-09         0.00000E+00
    0.20325E-08        -0.34812E-09         0.00000E+00
    0.20295E-08        -0.42136E-09         0.00000E+00
    0.20253E-08        -0.46592E-09         0.00000E+00
    0.20196E-08        -0.44988E-09         0.00000E+00
    0.20139E-08        -0.39938E-09         0.00000E+00
    0.20085E-08        -0.34396E-09         0.00000E+00
    0.20038E-08        -0.28434E-09         0.00000E+00
    0.20000E-08        -0.22037E-09         0.00000E+00
    0.19973E-08        -0.15182E-09         0.00000E+00
    0.19956E-08        -0.78421E-10         0.00000E+00
    0.19951E-08        -0.40466E-10         0.00000E+00
    0.25501E-08        -0.32707E-10         0.00000E+00
    0.25493E-08        -0.65600E-10         0.00000E+00
    0.25466E-08        -0.13237E-09         0.00000E+00
    0.25426E-08        -0.20122E-09         0.00000E+00
    0.25379E-08        -0.27206E-09         0.00000E+00
    0.25330E-08        -0.34445E-09         0.00000E+00
    0.25282E-08        -0.41707E-09         0.00000E+00
    0.25221E-08        -0.46017E-09         0.00000E+00
    0.25145E-08        -0.44341E-09         0.00000E+00
    0.25073E-08        -0.39318E-09         0.00000E+00
    0.25005E-08        -0.33834E-09         0.00000E+00
    0.24946E-08        -0.27961E-09         0.00000E+00
    0.24899E-08        -0.21673E-09         0.00000E+00
    0.24864E-08        -0.14939E-09         0.00000E+00
    0.24844E-08        -0.77219E-10         0.00000E+00
    0.24837E-08        -0.39878E-10         0.00000E+00
    0.30537E-08        -0.31782E-10         0.00000E+00
    0.30527E-08        -0.63624E-10         0.00000E+00
    0.30493E-08        -0.12851E-09         0.00000E+00
    0.30438E-08        -0.19601E-09         0.00000E+00
    0.30369E-08        -0.26622E-09         0.00000E+00
    0.30292E-08        -0.33849E-09         0.00000E+00
    0.30214E-08        -0.41052E-09         0.00000E+00
    0.30125E-08        -0.45237E-09         0.00000E+00
    0.30029E-08        -0.43519E-09         0.00000E+00
    0.29940E-08        -0.38547E-09         0.00000E+00
    0.29858E-08        -0.33142E-09         0.00000E+00
    0.29787E-08        -0.27381E-09         0.00000E+00
    0.29730E-08        -0.21229E-09         0.00000E+00
    0.29689E-08        -0.14643E-09         0.00000E+00
    0.29665E-08        -0.75763E-10         0.00000E+00
    0.29657E-08        -0.39170E-10         0.00000E+00
    0.35532E-08        -0.30703E-10         0.00000E+00
    0.35520E-08        -0.61252E-10         0.00000E+00
    0.35481E-08        -0.12364E-09         0.00000E+00
    0.35415E-08        -0.18897E-09         0.00000E+00
    0.35324E-08        -0.25759E-09         0.00000E+00
    0.35212E-08        -0.32904E-09         0.00000E+00
    0.35088E-08        -0.40041E-09         0.00000E+00
    0.34955E-08        -0.44181E-09         0.00000E+00
    0.34835E-08        -0.42507E-09         0.00000E+00
    0.34729E-08        -0.37621E-09         0.00000E+00
    0.34633E-08        -0.32317E-09         0.00000E+00
    0.34549E-08        -0.26693E-09         0.00000E+00
    0.34482E-08        -0.20705E-09         0.00000E+00
    0.34435E-08        -0.14295E-09         0.00000E+00
    0.34407E-08        -0.74064E-10         0.00000E+00
    0.34398E-08        -0.38349E-10         0.00000E+00
    0.40470E-08        -0.29510E-10         0.00000E+00
    0.40457E-08        -0.58673E-10         0.00000E+00
    0.40416E-08        -0.11820E-09         0.00000E+00
    0.40345E-08        -0.18046E-09         0.00000E+00
    0.40237E-08        -0.24602E-09         0.00000E+00
    0.40088E-08        -0.31501E-09         0.00000E+00
    0.39905E-08        -0.38492E-09         0.00000E+00
    0.39706E-08        -0.42718E-09         0.00000E+00
    0.39551E-08        -0.41280E-09         0.00000E+00
    0.39429E-08        -0.36540E-09         0.00000E+00
    0.39316E-08        -0.31353E-09         0.00000E+00
    0.39220E-08        -0.25894E-09         0.00000E+00
    0.39144E-08        -0.20100E-09         0.00000E+00
    0.39090E-08        -0.13897E-09         0.00000E+00
    0.39058E-08        -0.72134E-10         0.00000E+00
    0.39048E-08        -0.37426E-10         0.00000E+00
    0.45335E-08        -0.28259E-10         0.00000E+00
    0.45322E-08        -0.56042E-10         0.00000E+00
    0.45280E-08        -0.11259E-09         0.00000E+00
    0.45206E-08        -0.17118E-09         0.00000E+00
    0.45089E-08        -0.23211E-09         0.00000E+00
    0.44913E-08        -0.29603E-09         0.00000E+00
    0.44670E-08        -0.36227E-09         0.00000E+00
    0.44380E-08        -0.40648E-09         0.00000E+00
    0.44166E-08        -0.39754E-09         0.00000E+00
    0.44026E-08        -0.35296E-09         0.00000E+00
    0.43898E-08        -0.30246E-09         0.00000E+00
    0.43789E-08        -0.24983E-09         0.00000E+00
    0.43703E-08        -0.19414E-09         0.00000E+00
    0.43643E-08        -0.13448E-09         0.00000E+00
    0.43607E-08        -0.69980E-10         0.00000E+00
    0.43596E-08        -0.36413E-10         0.00000E+00
    0.50113E-08        -0.26987E-10         0.00000E+00
    0.50099E-08        -0.53388E-10         0.00000E+00
    0.50055E-08        -0.10688E-09         0.00000E+00
    0.49977E-08        -0.16151E-09         0.00000E+00
    0.49853E-08        -0.21688E-09         0.00000E+00
    0.49660E-08        -0.27323E-09         0.00000E+00
    0.49376E-08        -0.33170E-09         0.00000E+00
    0.48993E-08        -0.37692E-09         0.00000E+00
    0.48682E-08        -0.37762E-09         0.00000E+00
    0.48511E-08        -0.33879E-09         0.00000E+00
    0.48366E-08        -0.28996E-09         0.00000E+00
    0.48247E-08        -0.23966E-09         0.00000E+00
    0.48152E-08        -0.18648E-09         0.00000E+00
    0.48084E-08        -0.12945E-09         0.00000E+00
    0.48044E-08        -0.67592E-10         0.00000E+00
    0.48032E-08        -0.35319E-10         0.00000E+00
    0.54791E-08        -0.25556E-10         0.00000E+00
    0.54775E-08        -0.50463E-10         0.00000E+00
    0.54725E-08        -0.10067E-09         0.00000E+00
    0.54636E-08        -0.15109E-09         0.00000E+00
    0.54496E-08        -0.20060E-09         0.00000E+00
    0.54288E-08        -0.24853E-09         0.00000E+00
    0.53985E-08        -0.29564E-09         0.00000E+00
    0.53555E-08        -0.33722E-09         0.00000E+00
    0.53120E-08        -0.34959E-09         0.00000E+00
    0.52869E-08        -0.32163E-09         0.00000E+00
    0.52717E-08        -0.27616E-09         0.00000E+00
    0.52585E-08        -0.22856E-09         0.00000E+00
    0.52482E-08        -0.17795E-09         0.00000E+00
    0.52405E-08        -0.12375E-09         0.00000E+00
    0.52357E-08        -0.64891E-10         0.00000E+00
    0.52345E-08        -0.34128E-10         0.00000E+00
    0.59360E-08        -0.23808E-10         0.00000E+00
    0.59340E-08        -0.46909E-10         0.00000E+00
    0.59277E-08        -0.93209E-10         0.00000E+00
    0.59166E-08        -0.13884E-09         0.00000E+00
    0.58996E-08        -0.18222E-09         0.00000E+00
    0.58757E-08        -0.22228E-09         0.00000E+00
    0.58436E-08        -0.25867E-09         0.00000E+00
    0.58014E-08        -0.29062E-09         0.00000E+00
    0.57518E-08        -0.30914E-09         0.00000E+00
    0.57128E-08        -0.29868E-09         0.00000E+00
    0.56920E-08        -0.26176E-09         0.00000E+00
    0.56793E-08        -0.21627E-09         0.00000E+00
    0.56689E-08        -0.16861E-09         0.00000E+00
    0.56603E-08        -0.11711E-09         0.00000E+00
    0.56543E-08        -0.61621E-10         0.00000E+00
    0.56524E-08        -0.32828E-10         0.00000E+00
    0.63810E-08        -0.21589E-10         0.00000E+00
    0.63785E-08        -0.42300E-10         0.00000E+00
    0.63700E-08        -0.83502E-10         0.00000E+00
    0.63552E-08        -0.12323E-09         0.00000E+00
    0.63333E-08        -0.15989E-09         0.00000E+00
    0.63045E-08        -0.19275E-09         0.00000E+00
    0.62693E-08        -0.22153E-09         0.00000E+00
    0.62279E-08        -0.24559E-09         0.00000E+00
    0.61805E-08        -0.26125E-09         0.00000E+00
    0.61346E-08        -0.26203E-09         0.00000E+00
    0.61024E-08        -0.24275E-09         0.00000E+00
    0.60838E-08        -0.20559E-09         0.00000E+00
    0.60722E-08        -0.15914E-09         0.00000E+00
    0.60643E-08        -0.10927E-09         0.00000E+00
    0.60586E-08        -0.57003E-10         0.00000E+00
    0.60550E-08        -0.30185E-10         0.00000E+00
    0.68137E-08        -0.18772E-10         0.00000E+00
    0.68106E-08        -0.36065E-10         0.00000E+00
    0.67986E-08        -0.70105E-10         0.00000E+00
    0.67776E-08        -0.10229E-09         0.00000E+00
    0.67488E-08        -0.13178E-09         0.00000E+00
    0.67143E-08        -0.15851E-09         0.00000E+00
    0.66753E-08        -0.18218E-09         0.00000E+00
    0.66329E-08        -0.20193E-09         0.00000E+00
    0.65879E-08        -0.21609E-09         0.00000E+00
    0.65436E-08        -0.22081E-09         0.00000E+00
    0.65051E-08        -0.21114E-09         0.00000E+00
    0.64777E-08        -0.18626E-09         0.00000E+00
    0.64619E-08        -0.14925E-09         0.00000E+00
    0.64541E-08        -0.10357E-09         0.00000E+00
    0.64510E-08        -0.52392E-10         0.00000E+00
    0.64492E-08        -0.25771E-10         0.00000E+00
    0.72329E-08        -0.15378E-10         0.00000E+00
    0.72289E-08        -0.27345E-10         0.00000E+00
    0.72114E-08        -0.50734E-10         0.00000E+00
    0.71812E-08        -0.73669E-10         0.00000E+00
    0.71445E-08        -0.96756E-10         0.00000E+00
    0.71044E-08        -0.11941E-09         0.00000E+00
    0.70623E-08        -0.14038E-09         0.00000E+00
    0.70189E-08        -0.15838E-09         0.00000E+00
    0.69751E-08        -0.17203E-09         0.00000E+00
    0.69321E-08        -0.17933E-09         0.00000E+00
    0.68930E-08        -0.17708E-09         0.00000E+00
    0.68624E-08        -0.16260E-09         0.00000E+00
    0.68422E-08        -0.13568E-09         0.00000E+00
    0.68321E-08        -0.98436E-10         0.00000E+00
    0.68294E-08        -0.52116E-10         0.00000E+00
    0.68299E-08        -0.26612E-10         0.00000E+00
    0.76351E-08        -0.10846E-10         0.00000E+00
    0.76275E-08        -0.14727E-10         0.00000E+00
    0.76031E-08        -0.22590E-10         0.00000E+00
    0.75636E-08        -0.35529E-10         0.00000E+00
    0.75191E-08        -0.55106E-10         0.00000E+00
    0.74748E-08        -0.76436E-10         0.00000E+00
    0.74306E-08        -0.96912E-10         0.00000E+00
    0.73869E-08        -0.11492E-09         0.00000E+00
    0.73441E-08        -0.12932E-09         0.00000E+00
    0.73029E-08        -0.13883E-09         0.00000E+00
    0.72651E-08        -0.14163E-09         0.00000E+00
    0.72335E-08        -0.13558E-09         0.00000E+00
    0.72107E-08        -0.11900E-09         0.00000E+00
    0.71975E-08        -0.90931E-10         0.00000E+00
    0.71918E-08        -0.50291E-10         0.00000E+00
    0.71906E-08        -0.26664E-10         0.00000E+00
    0.80032E-08        -0.11711E-12         0.00000E+00
    0.79925E-08         0.45338E-11         0.00000E+00
    0.79657E-08         0.12927E-10         0.00000E+00
    0.79236E-08         0.10216E-10         0.00000E+00
    0.78736E-08        -0.80264E-11         0.00000E+00
    0.78257E-08        -0.31001E-10         0.00000E+00
    0.77803E-08        -0.52567E-10         0.00000E+00
    0.77367E-08        -0.71941E-10         0.00000E+00
    0.76951E-08        -0.88170E-10         0.00000E+00
    0.76561E-08        -0.10045E-09         0.00000E+00
    0.76207E-08        -0.10772E-09         0.00000E+00
    0.75904E-08        -0.10830E-09         0.00000E+00
    0.75668E-08        -0.99849E-10         0.00000E+00
    0.75507E-08        -0.79698E-10         0.00000E+00
    0.75417E-08        -0.45300E-10         0.00000E+00
    0.75388E-08        -0.24240E-10         0.00000E+00
    0.83302E-08         0.10470E-10         0.00000E+00
    0.83208E-08         0.22690E-10         0.00000E+00
    0.82970E-08         0.46268E-10         0.00000E+00
    0.82583E-08         0.56527E-10         0.00000E+00
    0.82076E-08         0.42671E-10         0.00000E+00
    0.81569E-08         0.16809E-10         0.00000E+00
    0.81108E-08        -0.79294E-11         0.00000E+00
    0.80677E-08        -0.29816E-10         0.00000E+00
    0.80276E-08        -0.48793E-10         0.00000E+00
    0.79908E-08        -0.64442E-10         0.00000E+00
    0.79578E-08        -0.75957E-10         0.00000E+00
    0.79292E-08        -0.81781E-10         0.00000E+00
    0.79059E-08        -0.79453E-10         0.00000E+00
    0.78884E-08        -0.65963E-10         0.00000E+00
    0.78775E-08        -0.38418E-10         0.00000E+00
    0.78739E-08        -0.20797E-10         0.00000E+00
    0.86226E-08         0.18567E-10         0.00000E+00
    0.86155E-08         0.37696E-10         0.00000E+00
    0.85963E-08         0.75480E-10         0.00000E+00
    0.85635E-08         0.99620E-10         0.00000E+00
    0.85166E-08         0.93259E-10         0.00000E+00
    0.84665E-08         0.65801E-10         0.00000E+00
    0.84206E-08         0.36677E-10         0.00000E+00
    0.83786E-08         0.11216E-10         0.00000E+00
    0.83402E-08        -0.11242E-10         0.00000E+00
    0.83055E-08        -0.30627E-10         0.00000E+00
    0.82746E-08        -0.46199E-10         0.00000E+00
    0.82479E-08        -0.56450E-10         0.00000E+00
    0.82255E-08        -0.59117E-10         0.00000E+00
    0.82082E-08        -0.51481E-10         0.00000E+00
    0.81969E-08        -0.30835E-10         0.00000E+00
    0.81931E-08        -0.16937E-10         0.00000E+00
    0.88838E-08         0.24654E-10         0.00000E+00
    0.88782E-08         0.49077E-10         0.00000E+00
    0.88625E-08         0.98416E-10         0.00000E+00
    0.88362E-08         0.13631E-09         0.00000E+00
    0.87960E-08         0.13971E-09         0.00000E+00
    0.87504E-08         0.11280E-09         0.00000E+00
    0.87072E-08         0.80004E-10         0.00000E+00
    0.86673E-08         0.50694E-10         0.00000E+00
    0.86311E-08         0.24392E-10         0.00000E+00
    0.85986E-08         0.11346E-11         0.00000E+00
    0.85699E-08        -0.18352E-10         0.00000E+00
    0.85451E-08        -0.32657E-10         0.00000E+00
    0.85243E-08        -0.39810E-10         0.00000E+00
    0.85081E-08        -0.37503E-10         0.00000E+00
    0.84975E-08        -0.23411E-10         0.00000E+00
    0.84938E-08        -0.13139E-10         0.00000E+00
    0.91170E-08         0.29846E-10         0.00000E+00
    0.91120E-08         0.59164E-10         0.00000E+00
    0.90981E-08         0.11773E-09         0.00000E+00
    0.90765E-08         0.16630E-09         0.00000E+00
    0.90440E-08         0.17918E-09         0.00000E+00
    0.90054E-08         0.15471E-09         0.00000E+00
    0.89674E-08         0.11986E-09         0.00000E+00
    0.89315E-08         0.87463E-10         0.00000E+00
    0.88985E-08         0.57589E-10         0.00000E+00
    0.88688E-08         0.30622E-10         0.00000E+00
    0.88427E-08         0.73893E-11         0.00000E+00
    0.88201E-08        -0.10780E-10         0.00000E+00
    0.88013E-08        -0.22153E-10         0.00000E+00
    0.87868E-08        -0.24755E-10         0.00000E+00
    0.87774E-08        -0.16644E-10         0.00000E+00
    0.87741E-08        -0.96795E-11         0.00000E+00
    0.93196E-08         0.34676E-10         0.00000E+00
    0.93152E-08         0.68199E-10         0.00000E+00
    0.93034E-08         0.13435E-09         0.00000E+00
    0.92857E-08         0.19071E-09         0.00000E+00
    0.92604E-08         0.21101E-09         0.00000E+00
    0.92299E-08         0.18960E-09         0.00000E+00
    0.91990E-08         0.15413E-09         0.00000E+00
    0.91689E-08         0.11983E-09         0.00000E+00
    0.91407E-08         0.87236E-10         0.00000E+00
    0.91149E-08         0.57116E-10         0.00000E+00
    0.90921E-08         0.30494E-10         0.00000E+00
    0.90724E-08         0.87190E-11         0.00000E+00
    0.90562E-08        -0.65849E-11         0.00000E+00
    0.90438E-08        -0.13649E-10         0.00000E+00
    0.90358E-08        -0.10798E-10         0.00000E+00
    0.90331E-08        -0.66994E-11         0.00000E+00
    0.94892E-08         0.38901E-10         0.00000E+00
    0.94856E-08         0.75829E-10         0.00000E+00
    0.94764E-08         0.14781E-09         0.00000E+00
    0.94634E-08         0.20969E-09         0.00000E+00
    0.94453E-08         0.23530E-09         0.00000E+00
    0.94235E-08         0.21644E-09         0.00000E+00
    0.94010E-08         0.18114E-09         0.00000E+00
    0.93785E-08         0.14605E-09         0.00000E+00
    0.93567E-08         0.11183E-09         0.00000E+00
    0.93363E-08         0.79461E-10         0.00000E+00
    0.93179E-08         0.50115E-10         0.00000E+00
    0.93019E-08         0.25236E-10         0.00000E+00
    0.92887E-08         0.64730E-11         0.00000E+00
    0.92788E-08        -0.44647E-11         0.00000E+00
    0.92725E-08        -0.60188E-11         0.00000E+00
    0.92703E-08        -0.42725E-11         0.00000E+00
    0.96230E-08         0.42223E-10         0.00000E+00
    0.96205E-08         0.81539E-10         0.00000E+00
    0.96149E-08         0.15728E-09         0.00000E+00
    0.96078E-08         0.22237E-09         0.00000E+00
    0.95982E-08         0.25135E-09         0.00000E+00
    0.95861E-08         0.23435E-09         0.00000E+00
    0.95733E-08         0.19954E-09         0.00000E+00
    0.95599E-08         0.16450E-09         0.00000E+00
    0.95463E-08         0.12975E-09         0.00000E+00
    0.95328E-08         0.96237E-10         0.00000E+00
    0.95202E-08         0.65157E-10         0.00000E+00
    0.95088E-08         0.38020E-10         0.00000E+00
    0.94994E-08         0.16557E-10         0.00000E+00
    0.94922E-08         0.25413E-11         0.00000E+00
    0.94878E-08        -0.24155E-11         0.00000E+00
    0.94863E-08        -0.24449E-11         0.00000E+00
    0.97181E-08         0.44310E-10         0.00000E+00
    0.97171E-08         0.84645E-10         0.00000E+00
    0.97162E-08         0.16146E-09         0.00000E+00
    0.97171E-08         0.22719E-09         0.00000E+00
    0.97181E-08         0.25758E-09         0.00000E+00
    0.97178E-08         0.24183E-09         0.00000E+00
    0.97164E-08         0.20785E-09         0.00000E+00
    0.97138E-08         0.17355E-09         0.00000E+00
    0.97101E-08         0.13931E-09         0.00000E+00
    0.97054E-08         0.10590E-09         0.00000E+00
    0.96999E-08         0.74394E-10         0.00000E+00
    0.96943E-08         0.46245E-10         0.00000E+00
    0.96891E-08         0.23193E-10         0.00000E+00
    0.96850E-08         0.71454E-11         0.00000E+00
    0.96825E-08        -0.62292E-13         0.00000E+00
    0.96816E-08        -0.12394E-11         0.00000E+00
    0.97712E-08         0.44789E-10         0.00000E+00
    0.97721E-08         0.84302E-10         0.00000E+00
    0.97776E-08         0.15847E-09         0.00000E+00
    0.97892E-08         0.22150E-09         0.00000E+00
    0.98047E-08         0.25143E-09         0.00000E+00
    0.98189E-08         0.23673E-09         0.00000E+00
    0.98311E-08         0.20411E-09         0.00000E+00
    0.98416E-08         0.17131E-09         0.00000E+00
    0.98499E-08         0.13869E-09         0.00000E+00
    0.98556E-08         0.10683E-09         0.00000E+00
    0.98588E-08         0.76592E-10         0.00000E+00
    0.98597E-08         0.49133E-10         0.00000E+00
    0.98592E-08         0.26011E-10         0.00000E+00
    0.98583E-08         0.92250E-11         0.00000E+00
    0.98577E-08         0.10162E-11         0.00000E+00
    0.98574E-08        -0.65976E-12         0.00000E+00
    0.97779E-08         0.43135E-10         0.00000E+00
    0.97816E-08         0.79326E-10         0.00000E+00
    0.97958E-08         0.14571E-09         0.00000E+00
    0.98221E-08         0.20121E-09         0.00000E+00
    0.98574E-08         0.22891E-09         0.00000E+00
    0.98904E-08         0.21624E-09         0.00000E+00
    0.99193E-08         0.18582E-09         0.00000E+00
    0.99456E-08         0.15544E-09         0.00000E+00
    0.99681E-08         0.12586E-09         0.00000E+00
    0.99861E-08         0.97441E-10         0.00000E+00
    0.99990E-08         0.70648E-10         0.00000E+00
    0.10007E-07         0.46096E-10         0.00000E+00
    0.10012E-07         0.24860E-10         0.00000E+00
    0.10014E-07         0.88707E-11         0.00000E+00
    0.10015E-07         0.93782E-12         0.00000E+00
    0.10015E-07        -0.61535E-12         0.00000E+00
    0.97324E-08         0.38266E-10         0.00000E+00
    0.97406E-08         0.67668E-10         0.00000E+00
    0.97683E-08         0.11951E-09         0.00000E+00
    0.98142E-08         0.16128E-09         0.00000E+00
    0.98751E-08         0.18429E-09         0.00000E+00
    0.99345E-08         0.17569E-09         0.00000E+00
    0.99845E-08         0.14969E-09         0.00000E+00
    0.10030E-07         0.12321E-09         0.00000E+00
    0.10069E-07         0.98796E-10         0.00000E+00
    0.10100E-07         0.76453E-10         0.00000E+00
    0.10123E-07         0.55847E-10         0.00000E+00
    0.10139E-07         0.36832E-10         0.00000E+00
    0.10149E-07         0.19850E-10         0.00000E+00
    0.10153E-07         0.64905E-11         0.00000E+00
    0.10155E-07         0.73105E-13         0.00000E+00
    0.10155E-07        -0.86832E-12         0.00000E+00
    0.96245E-08         0.27810E-10         0.00000E+00
    0.96443E-08         0.45064E-10         0.00000E+00
    0.96940E-08         0.74061E-10         0.00000E+00
    0.97660E-08         0.96005E-10         0.00000E+00
    0.98570E-08         0.10983E-09         0.00000E+00
    0.99516E-08         0.10780E-09         0.00000E+00
    0.10034E-07         0.91247E-10         0.00000E+00
    0.10102E-07         0.71616E-10         0.00000E+00
    0.10158E-07         0.56229E-10         0.00000E+00
    0.10202E-07         0.43625E-10         0.00000E+00
    0.10235E-07         0.32110E-10         0.00000E+00
    0.10258E-07         0.21344E-10         0.00000E+00
    0.10272E-07         0.11382E-10         0.00000E+00
    0.10278E-07         0.28669E-11         0.00000E+00
    0.10279E-07        -0.68410E-12         0.00000E+00
    0.10279E-07        -0.47209E-12         0.00000E+00
    0.95531E-08         0.00000E+00         0.00000E+00
    0.95817E-08         0.00000E+00         0.00000E+00
    0.96453E-08        -0.24850E-22         0.00000E+00
    0.97321E-08         0.26038E-26         0.00000E+00
    0.98391E-08         0.33137E-22         0.00000E+00
    0.99531E-08         0.00000E+00         0.00000E+00
    0.10056E-07         0.00000E+00         0.00000E+00
    0.10136E-07        -0.29001E-22         0.00000E+00
    0.10200E-07        -0.29001E-22         0.00000E+00
    0.10250E-07         0.29002E-22         0.00000E+00
    0.10287E-07         0.33145E-22         0.00000E+00
    0.10314E-07        -0.33147E-22         0.00000E+00
    0.10331E-07        -0.41429E-23         0.00000E+00
    0.10337E-07         0.33147E-22         0.00000E+00
    0.10337E-07         0.82870E-23         0.00000E+00
    0.10336E-07         0.00000E+00         0.00000E+00
CELL_DATA        450
TENSORS stressef double 
    0.88003E+05         0.57503E+04         0.00000E+00
    0.57503E+04        -0.23027E+08         0.00000E+00
    0.00000E+00         0.00000E+00        -0.58571E+07
 
    0.80379E+05         0.15808E+05         0.00000E+00
    0.15808E+05        -0.23015E+08         0.00000E+00
    0.00000E+00         0.00000E+00        -0.58152E+07
 
    0.62763E+05         0.24710E+05         0.00000E+00
    0.24710E+05        -0.22993E+08         0.00000E+00
    0.00000E+00         0.00000E+00        -0.57362E+07
 
    0.27524E+05         0.32194E+05         0.00000E+00
    0.32194E+05        -0.22966E+08         0.00000E+00
    0.00000E+00         0.00000E+00        -0.56092E+07
 
   -0.34797E+05         0.37803E+05         0.00000E+00
    0.37803E+05        -0.22935E+08         0.00000E+00
    0.00000E+00         0.00000E+00        -0.54246E+07
 
   -0.13220E+06         0.41138E+05         0.00000E+00
    0.41138E+05        -0.22906E+08         0.00000E+00
    0.00000E+00         0.00000E+00        -0.51861E+07
 
   -0.26736E+06         0.42564E+05         0.00000E+00
    0.42564E+05        -0.22884E+08         0.00000E+00
    0.00000E+00         0.00000E+00        -0.49039E+07
 
   -0.56972E+06         0.42689E+05         0.00000E+00
    0.42689E+05        -0.22867E+08         0.00000E+00
    0.00000E+00         0.00000E+00        -0.46955E+07
 
   -0.13445E+07         0.43938E+05         0.00000E+00
    0.43938E+05        -0.22846E+08         0.00000E+00
    0.00000E+00         0.00000E+00        -0.48381E+07
 
   -0.20762E+07         0.48922E+05         0.00000E+00
    0.48922E+05        -0.22811E+08         0.00000E+00
    0.00000E+00         0.00000E+00        -0.49774E+07
 
   -0.27603E+07         0.57350E+05         0.00000E+00
    0.57350E+05        -0.22755E+08         0.00000E+00
    0.00000E+00         0.00000E+00        -0.51030E+07
 
   -0.34074E+07         0.68851E+05         0.00000E+00
    0.68851E+05        -0.22670E+08         0.00000E+00
    0.00000E+00         0.00000E+00        -0.52155E+07
 
   -0.40273E+07         0.83231E+05         0.00000E+00
    0.83231E+05        -0.22550E+08         0.00000E+00
    0.00000E+00         0.00000E+00        -0.53155E+07
 
   -0.46290E+07         0.10038E+06         0.00000E+00
    0.10038E+06        -0.22389E+08         0.00000E+00
    0.00000E+00         0.00000E+00        -0.54036E+07
 
   -0.52210E+07         0.12022E+06         0.00000E+00
    0.12022E+06        -0.22180E+08         0.00000E+00
    0.00000E+00         0.00000E+00        -0.54802E+07
 
    0.37642E+05         0.17029E+05         0.00000E+00
    0.17029E+05        -0.23099E+08         0.00000E+00
    0.00000E+00         0.00000E+00        -0.58933E+07
 
    0.27654E+05         0.47229E+05         0.00000E+00
    0.47229E+05        -0.23087E+08         0.00000E+00
    0.00000E+00         0.00000E+00        -0.58491E+07
 
    0.75848E+04         0.73832E+05         0.00000E+00
    0.73832E+05        -0.23066E+08         0.00000E+00
    0.00000E+00         0.00000E+00        -0.57672E+07
 
   -0.30867E+05         0.95939E+05         0.00000E+00
    0.95939E+05        -0.23040E+08         0.00000E+00
    0.00000E+00         0.00000E+00        -0.56370E+07
 
   -0.97421E+05         0.11217E+06         0.00000E+00
    0.11217E+06        -0.23011E+08         0.00000E+00
    0.00000E+00         0.00000E+00        -0.54497E+07
 
   -0.19903E+06         0.12193E+06         0.00000E+00
    0.12193E+06        -0.22985E+08         0.00000E+00
    0.00000E+00         0.00000E+00        -0.52106E+07
 
   -0.33746E+06         0.12602E+06         0.00000E+00
    0.12602E+06        -0.22965E+08         0.00000E+00
    0.00000E+00         0.00000E+00        -0.49304E+07
 
   -0.64150E+06         0.12626E+06         0.00000E+00
    0.12626E+06        -0.22951E+08         0.00000E+00
    0.00000E+00         0.00000E+00        -0.47260E+07
 
   -0.14094E+07         0.13032E+06         0.00000E+00
    0.13032E+06        -0.22934E+08         0.00000E+00
    0.00000E+00         0.00000E+00        -0.48686E+07
 
   -0.21335E+07         0.14559E+06         0.00000E+00
    0.14559E+06        -0.22901E+08         0.00000E+00
    0.00000E+00         0.00000E+00        -0.50070E+07
 
   -0.28111E+07         0.17096E+06         0.00000E+00
    0.17096E+06        -0.22847E+08         0.00000E+00
    0.00000E+00         0.00000E+00        -0.51316E+07
 
   -0.34522E+07         0.20549E+06         0.00000E+00
    0.20549E+06        -0.22764E+08         0.00000E+00
    0.00000E+00         0.00000E+00        -0.52433E+07
 
   -0.40663E+07         0.24862E+06         0.00000E+00
    0.24862E+06        -0.22646E+08         0.00000E+00
    0.00000E+00         0.00000E+00        -0.53426E+07
 
   -0.46624E+07         0.30003E+06         0.00000E+00
    0.30003E+06        -0.22487E+08         0.00000E+00
    0.00000E+00         0.00000E+00        -0.54299E+07
 
   -0.52491E+07         0.35951E+06         0.00000E+00
    0.35951E+06        -0.22281E+08         0.00000E+00
    0.00000E+00         0.00000E+00        -0.55059E+07
 
   -0.63619E+05         0.27769E+05         0.00000E+00
    0.27769E+05        -0.23243E+08         0.00000E+00
    0.00000E+00         0.00000E+00        -0.59665E+07
 
   -0.77603E+05         0.77879E+05         0.00000E+00
    0.77879E+05        -0.23232E+08         0.00000E+00
    0.00000E+00         0.00000E+00        -0.59171E+07
 
   -0.10302E+06         0.12186E+06         0.00000E+00
    0.12186E+06        -0.23213E+08         0.00000E+00
    0.00000E+00         0.00000E+00        -0.58294E+07
 
   -0.14844E+06         0.15760E+06         0.00000E+00
    0.15760E+06        -0.23188E+08         0.00000E+00
    0.00000E+00         0.00000E+00        -0.56922E+07
 
   -0.22342E+06         0.18303E+06         0.00000E+00
    0.18303E+06        -0.23163E+08         0.00000E+00
    0.00000E+00         0.00000E+00        -0.55003E+07
 
   -0.33304E+06         0.19816E+06         0.00000E+00
    0.19816E+06        -0.23142E+08         0.00000E+00
    0.00000E+00         0.00000E+00        -0.52600E+07
 
   -0.47781E+06         0.20442E+06         0.00000E+00
    0.20442E+06        -0.23128E+08         0.00000E+00
    0.00000E+00         0.00000E+00        -0.49841E+07
 
   -0.78463E+06         0.20446E+06         0.00000E+00
    0.20446E+06        -0.23122E+08         0.00000E+00
    0.00000E+00         0.00000E+00        -0.47874E+07
 
   -0.15381E+07         0.21255E+06         0.00000E+00
    0.21255E+06        -0.23109E+08         0.00000E+00
    0.00000E+00         0.00000E+00        -0.49295E+07
 
   -0.22477E+07         0.23873E+06         0.00000E+00
    0.23873E+06        -0.23081E+08         0.00000E+00
    0.00000E+00         0.00000E+00        -0.50658E+07
 
   -0.29123E+07         0.28131E+06         0.00000E+00
    0.28131E+06        -0.23031E+08         0.00000E+00
    0.00000E+00         0.00000E+00        -0.51888E+07
 
   -0.35414E+07         0.33895E+06         0.00000E+00
    0.33895E+06        -0.22953E+08         0.00000E+00
    0.00000E+00         0.00000E+00        -0.52988E+07
 
   -0.41441E+07         0.41081E+06         0.00000E+00
    0.41081E+06        -0.22839E+08         0.00000E+00
    0.00000E+00         0.00000E+00        -0.53966E+07
 
   -0.47292E+07         0.49639E+06         0.00000E+00
    0.49639E+06        -0.22684E+08         0.00000E+00
    0.00000E+00         0.00000E+00        -0.54826E+07
 
   -0.53052E+07         0.59537E+06         0.00000E+00
    0.59537E+06        -0.22482E+08         0.00000E+00
    0.00000E+00         0.00000E+00        -0.55573E+07
 
   -0.21624E+06         0.37738E+05         0.00000E+00
    0.37738E+05        -0.23458E+08         0.00000E+00
    0.00000E+00         0.00000E+00        -0.60760E+07
 
   -0.23601E+06         0.10687E+06         0.00000E+00
    0.10687E+06        -0.23449E+08         0.00000E+00
    0.00000E+00         0.00000E+00        -0.60203E+07
 
   -0.26963E+06         0.16734E+06         0.00000E+00
    0.16734E+06        -0.23433E+08         0.00000E+00
    0.00000E+00         0.00000E+00        -0.59234E+07
 
   -0.32652E+06         0.21539E+06         0.00000E+00
    0.21539E+06        -0.23412E+08         0.00000E+00
    0.00000E+00         0.00000E+00        -0.57754E+07
 
   -0.41389E+06         0.24830E+06         0.00000E+00
    0.24830E+06        -0.23393E+08         0.00000E+00
    0.00000E+00         0.00000E+00        -0.55770E+07
 
   -0.53508E+06         0.26715E+06         0.00000E+00
    0.26715E+06        -0.23379E+08         0.00000E+00
    0.00000E+00         0.00000E+00        -0.53353E+07
 
   -0.68804E+06         0.27460E+06         0.00000E+00
    0.27460E+06        -0.23374E+08         0.00000E+00
    0.00000E+00         0.00000E+00        -0.50662E+07
 
   -0.99869E+06         0.27436E+06         0.00000E+00
    0.27436E+06        -0.23376E+08         0.00000E+00
    0.00000E+00         0.00000E+00        -0.48813E+07
 
   -0.17291E+07         0.28795E+06         0.00000E+00
    0.28795E+06        -0.23372E+08         0.00000E+00
    0.00000E+00         0.00000E+00        -0.50202E+07
 
   -0.24179E+07         0.32600E+06         0.00000E+00
    0.32600E+06        -0.23351E+08         0.00000E+00
    0.00000E+00         0.00000E+00        -0.51538E+07
 
   -0.30634E+07         0.38625E+06         0.00000E+00
    0.38625E+06        -0.23307E+08         0.00000E+00
    0.00000E+00         0.00000E+00        -0.52741E+07
 
   -0.36747E+07         0.46715E+06         0.00000E+00
    0.46715E+06        -0.23234E+08         0.00000E+00
    0.00000E+00         0.00000E+00        -0.53818E+07
 
   -0.42605E+07         0.56770E+06         0.00000E+00
    0.56770E+06        -0.23127E+08         0.00000E+00
    0.00000E+00         0.00000E+00        -0.54774E+07
 
   -0.48292E+07         0.68728E+06         0.00000E+00
    0.68728E+06        -0.22978E+08         0.00000E+00
    0.00000E+00         0.00000E+00        -0.55614E+07
 
   -0.53891E+07         0.82553E+06         0.00000E+00
    0.82553E+06        -0.22782E+08         0.00000E+00
    0.00000E+00         0.00000E+00        -0.56342E+07
 
   -0.42139E+06         0.46365E+05         0.00000E+00
    0.46365E+05        -0.23745E+08         0.00000E+00
    0.00000E+00         0.00000E+00        -0.62200E+07
 
   -0.44819E+06         0.13297E+06         0.00000E+00
    0.13297E+06        -0.23739E+08         0.00000E+00
    0.00000E+00         0.00000E+00        -0.61578E+07
 
   -0.49356E+06         0.20855E+06         0.00000E+00
    0.20855E+06        -0.23727E+08         0.00000E+00
    0.00000E+00         0.00000E+00        -0.60497E+07
 
   -0.56655E+06         0.26698E+06         0.00000E+00
    0.26698E+06        -0.23712E+08         0.00000E+00
    0.00000E+00         0.00000E+00        -0.58887E+07
 
   -0.67056E+06         0.30562E+06         0.00000E+00
    0.30562E+06        -0.23701E+08         0.00000E+00
    0.00000E+00         0.00000E+00        -0.56809E+07
 
   -0.80603E+06         0.32638E+06         0.00000E+00
    0.32638E+06        -0.23697E+08         0.00000E+00
    0.00000E+00         0.00000E+00        -0.54387E+07
 
   -0.96912E+06         0.33362E+06         0.00000E+00
    0.33362E+06        -0.23703E+08         0.00000E+00
    0.00000E+00         0.00000E+00        -0.51786E+07
 
   -0.12811E+07         0.33374E+06         0.00000E+00
    0.33374E+06        -0.23716E+08         0.00000E+00
    0.00000E+00         0.00000E+00        -0.50068E+07
 
   -0.19805E+07         0.35430E+06         0.00000E+00
    0.35430E+06        -0.23722E+08         0.00000E+00
    0.00000E+00         0.00000E+00        -0.51405E+07
 
   -0.26427E+07         0.40527E+06         0.00000E+00
    0.40527E+06        -0.23710E+08         0.00000E+00
    0.00000E+00         0.00000E+00        -0.52705E+07
 
   -0.32635E+07         0.48375E+06         0.00000E+00
    0.48375E+06        -0.23674E+08         0.00000E+00
    0.00000E+00         0.00000E+00        -0.53875E+07
 
   -0.38515E+07         0.58809E+06         0.00000E+00
    0.58809E+06        -0.23609E+08         0.00000E+00
    0.00000E+00         0.00000E+00        -0.54921E+07
 
   -0.44150E+07         0.71723E+06         0.00000E+00
    0.71723E+06        -0.23509E+08         0.00000E+00
    0.00000E+00         0.00000E+00        -0.55847E+07
 
   -0.49620E+07         0.87054E+06         0.00000E+00
    0.87054E+06        -0.23368E+08         0.00000E+00
    0.00000E+00         0.00000E+00        -0.56660E+07
 
   -0.55006E+07         0.10477E+07         0.00000E+00
    0.10477E+07        -0.23181E+08         0.00000E+00
    0.00000E+00         0.00000E+00        -0.57364E+07
 
   -0.68119E+06         0.53263E+05         0.00000E+00
    0.53263E+05        -0.24102E+08         0.00000E+00
    0.00000E+00         0.00000E+00        -0.63958E+07
 
   -0.71562E+06         0.15461E+06         0.00000E+00
    0.15461E+06        -0.24099E+08         0.00000E+00
    0.00000E+00         0.00000E+00        -0.63275E+07
 
   -0.77680E+06         0.24263E+06         0.00000E+00
    0.24263E+06        -0.24094E+08         0.00000E+00
    0.00000E+00         0.00000E+00        -0.62068E+07
 
   -0.86984E+06         0.30936E+06         0.00000E+00
    0.30936E+06        -0.24091E+08         0.00000E+00
    0.00000E+00         0.00000E+00        -0.60324E+07
 
   -0.99507E+06         0.35208E+06         0.00000E+00
    0.35208E+06        -0.24091E+08         0.00000E+00
    0.00000E+00         0.00000E+00        -0.58150E+07
 
   -0.11468E+07         0.37353E+06         0.00000E+00
    0.37353E+06        -0.24099E+08         0.00000E+00
    0.00000E+00         0.00000E+00        -0.55737E+07
 
   -0.13213E+07         0.37958E+06         0.00000E+00
    0.37958E+06        -0.24117E+08         0.00000E+00
    0.00000E+00         0.00000E+00        -0.53238E+07
 
   -0.16287E+07         0.38079E+06         0.00000E+00
    0.38079E+06        -0.24142E+08         0.00000E+00
    0.00000E+00         0.00000E+00        -0.51633E+07
 
   -0.22905E+07         0.40992E+06         0.00000E+00
    0.40992E+06        -0.24159E+08         0.00000E+00
    0.00000E+00         0.00000E+00        -0.52899E+07
 
   -0.29206E+07         0.47474E+06         0.00000E+00
    0.47474E+06        -0.24157E+08         0.00000E+00
    0.00000E+00         0.00000E+00        -0.54155E+07
 
   -0.35115E+07         0.57204E+06         0.00000E+00
    0.57204E+06        -0.24131E+08         0.00000E+00
    0.00000E+00         0.00000E+00        -0.55284E+07
 
   -0.40711E+07         0.69995E+06         0.00000E+00
    0.69995E+06        -0.24075E+08         0.00000E+00
    0.00000E+00         0.00000E+00        -0.56292E+07
 
   -0.46071E+07         0.85744E+06         0.00000E+00
    0.85744E+06        -0.23984E+08         0.00000E+00
    0.00000E+00         0.00000E+00        -0.57182E+07
 
   -0.51272E+07         0.10441E+07         0.00000E+00
    0.10441E+07        -0.23854E+08         0.00000E+00
    0.00000E+00         0.00000E+00        -0.57962E+07
 
   -0.56393E+07         0.12597E+07         0.00000E+00
    0.12597E+07        -0.23678E+08         0.00000E+00
    0.00000E+00         0.00000E+00        -0.58634E+07
 
   -0.99846E+06         0.58260E+05         0.00000E+00
    0.58260E+05        -0.24530E+08         0.00000E+00
    0.00000E+00         0.00000E+00        -0.65977E+07
 
   -0.10418E+07         0.16991E+06         0.00000E+00
    0.16991E+06        -0.24532E+08         0.00000E+00
    0.00000E+00         0.00000E+00        -0.65230E+07
 
   -0.11209E+07         0.26585E+06         0.00000E+00
    0.26585E+06        -0.24537E+08         0.00000E+00
    0.00000E+00         0.00000E+00        -0.63908E+07
 
   -0.12388E+07         0.33798E+06         0.00000E+00
    0.33798E+06        -0.24547E+08         0.00000E+00
    0.00000E+00         0.00000E+00        -0.62045E+07
 
   -0.13875E+07         0.38427E+06         0.00000E+00
    0.38427E+06        -0.24564E+08         0.00000E+00
    0.00000E+00         0.00000E+00        -0.59827E+07
 
   -0.15578E+07         0.40712E+06         0.00000E+00
    0.40712E+06        -0.24586E+08         0.00000E+00
    0.00000E+00         0.00000E+00        -0.57448E+07
 
   -0.17444E+07         0.41189E+06         0.00000E+00
    0.41189E+06        -0.24617E+08         0.00000E+00
    0.00000E+00         0.00000E+00        -0.55057E+07
 
   -0.20388E+07         0.41415E+06         0.00000E+00
    0.41415E+06        -0.24653E+08         0.00000E+00
    0.00000E+00         0.00000E+00        -0.53504E+07
 
   -0.26569E+07         0.45311E+06         0.00000E+00
    0.45311E+06        -0.24683E+08         0.00000E+00
    0.00000E+00         0.00000E+00        -0.54680E+07
 
   -0.32498E+07         0.53301E+06         0.00000E+00
    0.53301E+06        -0.24692E+08         0.00000E+00
    0.00000E+00         0.00000E+00        -0.55884E+07
 
   -0.38061E+07         0.64967E+06         0.00000E+00
    0.64967E+06        -0.24676E+08         0.00000E+00
    0.00000E+00         0.00000E+00        -0.56964E+07
 
   -0.43327E+07         0.80110E+06         0.00000E+00
    0.80110E+06        -0.24631E+08         0.00000E+00
    0.00000E+00         0.00000E+00        -0.57927E+07
 
   -0.48365E+07         0.98648E+06         0.00000E+00
    0.98648E+06        -0.24551E+08         0.00000E+00
    0.00000E+00         0.00000E+00        -0.58775E+07
 
   -0.53246E+07         0.12057E+07         0.00000E+00
    0.12057E+07        -0.24433E+08         0.00000E+00
    0.00000E+00         0.00000E+00        -0.59514E+07
 
   -0.58049E+07         0.14591E+07         0.00000E+00
    0.14591E+07        -0.24270E+08         0.00000E+00
    0.00000E+00         0.00000E+00        -0.60149E+07
 
   -0.13772E+07         0.60929E+05         0.00000E+00
    0.60929E+05        -0.25028E+08         0.00000E+00
    0.00000E+00         0.00000E+00        -0.68189E+07
 
   -0.14308E+07         0.17691E+06         0.00000E+00
    0.17691E+06        -0.25036E+08         0.00000E+00
    0.00000E+00         0.00000E+00        -0.67373E+07
 
   -0.15315E+07         0.27443E+06         0.00000E+00
    0.27443E+06        -0.25053E+08         0.00000E+00
    0.00000E+00         0.00000E+00        -0.65934E+07
 
   -0.16740E+07         0.34799E+06         0.00000E+00
    0.34799E+06        -0.25081E+08         0.00000E+00
    0.00000E+00         0.00000E+00        -0.64030E+07
 
   -0.18462E+07         0.39784E+06         0.00000E+00
    0.39784E+06        -0.25117E+08         0.00000E+00
    0.00000E+00         0.00000E+00        -0.61860E+07
 
   -0.20370E+07         0.42470E+06         0.00000E+00
    0.42470E+06        -0.25159E+08         0.00000E+00
    0.00000E+00         0.00000E+00        -0.59572E+07
 
   -0.22379E+07         0.43064E+06         0.00000E+00
    0.43064E+06        -0.25204E+08         0.00000E+00
    0.00000E+00         0.00000E+00        -0.57292E+07
 
   -0.25096E+07         0.43336E+06         0.00000E+00
    0.43336E+06        -0.25252E+08         0.00000E+00
    0.00000E+00         0.00000E+00        -0.55694E+07
 
   -0.30773E+07         0.48294E+06         0.00000E+00
    0.48294E+06        -0.25293E+08         0.00000E+00
    0.00000E+00         0.00000E+00        -0.56740E+07
 
   -0.36284E+07         0.57915E+06         0.00000E+00
    0.57915E+06        -0.25314E+08         0.00000E+00
    0.00000E+00         0.00000E+00        -0.57884E+07
 
   -0.41462E+07         0.71552E+06         0.00000E+00
    0.71552E+06        -0.25309E+08         0.00000E+00
    0.00000E+00         0.00000E+00        -0.58910E+07
 
   -0.46356E+07         0.89012E+06         0.00000E+00
    0.89012E+06        -0.25275E+08         0.00000E+00
    0.00000E+00         0.00000E+00        -0.59821E+07
 
   -0.51026E+07         0.11026E+07         0.00000E+00
    0.11026E+07        -0.25208E+08         0.00000E+00
    0.00000E+00         0.00000E+00        -0.60621E+07
 
   -0.55538E+07         0.13535E+07         0.00000E+00
    0.13535E+07        -0.25103E+08         0.00000E+00
    0.00000E+00         0.00000E+00        -0.61314E+07
 
   -0.59969E+07         0.16437E+07         0.00000E+00
    0.16437E+07        -0.24955E+08         0.00000E+00
    0.00000E+00         0.00000E+00        -0.61904E+07
 
   -0.18218E+07         0.60821E+05         0.00000E+00
    0.60821E+05        -0.25597E+08         0.00000E+00
    0.00000E+00         0.00000E+00        -0.70525E+07
 
   -0.18897E+07         0.17379E+06         0.00000E+00
    0.17379E+06        -0.25611E+08         0.00000E+00
    0.00000E+00         0.00000E+00        -0.69603E+07
 
   -0.20132E+07         0.26536E+06         0.00000E+00
    0.26536E+06        -0.25642E+08         0.00000E+00
    0.00000E+00         0.00000E+00        -0.68073E+07
 
   -0.21773E+07         0.33568E+06         0.00000E+00
    0.33568E+06        -0.25690E+08         0.00000E+00
    0.00000E+00         0.00000E+00        -0.66223E+07
 
   -0.23694E+07         0.38750E+06         0.00000E+00
    0.38750E+06        -0.25749E+08         0.00000E+00
    0.00000E+00         0.00000E+00        -0.64220E+07
 
   -0.25794E+07         0.42143E+06         0.00000E+00
    0.42143E+06        -0.25814E+08         0.00000E+00
    0.00000E+00         0.00000E+00        -0.62136E+07
 
   -0.27967E+07         0.43585E+06         0.00000E+00
    0.43585E+06        -0.25878E+08         0.00000E+00
    0.00000E+00         0.00000E+00        -0.60024E+07
 
   -0.30443E+07         0.43996E+06         0.00000E+00
    0.43996E+06        -0.25935E+08         0.00000E+00
    0.00000E+00         0.00000E+00        -0.58308E+07
 
   -0.35476E+07         0.49797E+06         0.00000E+00
    0.49797E+06        -0.25987E+08         0.00000E+00
    0.00000E+00         0.00000E+00        -0.59070E+07
 
   -0.40543E+07         0.61254E+06         0.00000E+00
    0.61254E+06        -0.26020E+08         0.00000E+00
    0.00000E+00         0.00000E+00        -0.60149E+07
 
   -0.45306E+07         0.76853E+06         0.00000E+00
    0.76853E+06        -0.26027E+08         0.00000E+00
    0.00000E+00         0.00000E+00        -0.61115E+07
 
   -0.49793E+07         0.96582E+06         0.00000E+00
    0.96582E+06        -0.26005E+08         0.00000E+00
    0.00000E+00         0.00000E+00        -0.61969E+07
 
   -0.54055E+07         0.12044E+07         0.00000E+00
    0.12044E+07        -0.25952E+08         0.00000E+00
    0.00000E+00         0.00000E+00        -0.62714E+07
 
   -0.58150E+07         0.14854E+07         0.00000E+00
    0.14854E+07        -0.25862E+08         0.00000E+00
    0.00000E+00         0.00000E+00        -0.63355E+07
 
   -0.62152E+07         0.18109E+07         0.00000E+00
    0.18109E+07        -0.25732E+08         0.00000E+00
    0.00000E+00         0.00000E+00        -0.63895E+07
 
   -0.23378E+07         0.57163E+05         0.00000E+00
    0.57163E+05        -0.26235E+08         0.00000E+00
    0.00000E+00         0.00000E+00        -0.72925E+07
 
   -0.24264E+07         0.15866E+06         0.00000E+00
    0.15866E+06        -0.26257E+08         0.00000E+00
    0.00000E+00         0.00000E+00        -0.71824E+07
 
   -0.25714E+07         0.23757E+06         0.00000E+00
    0.23757E+06        -0.26302E+08         0.00000E+00
    0.00000E+00         0.00000E+00        -0.70253E+07
 
   -0.27516E+07         0.29954E+06         0.00000E+00
    0.29954E+06        -0.26369E+08         0.00000E+00
    0.00000E+00         0.00000E+00        -0.68557E+07
 
   -0.29564E+07         0.34952E+06         0.00000E+00
    0.34952E+06        -0.26452E+08         0.00000E+00
    0.00000E+00         0.00000E+00        -0.66842E+07
 
   -0.31786E+07         0.39023E+06         0.00000E+00
    0.39023E+06        -0.26543E+08         0.00000E+00
    0.00000E+00         0.00000E+00        -0.65106E+07
 
   -0.34117E+07         0.42024E+06         0.00000E+00
    0.42024E+06        -0.26634E+08         0.00000E+00
    0.00000E+00         0.00000E+00        -0.63303E+07
 
   -0.36482E+07         0.43727E+06         0.00000E+00
    0.43727E+06        -0.26707E+08         0.00000E+00
    0.00000E+00         0.00000E+00        -0.61527E+07
 
   -0.40614E+07         0.49982E+06         0.00000E+00
    0.49982E+06        -0.26766E+08         0.00000E+00
    0.00000E+00         0.00000E+00        -0.61654E+07
 
   -0.45264E+07         0.63210E+06         0.00000E+00
    0.63210E+06        -0.26810E+08         0.00000E+00
    0.00000E+00         0.00000E+00        -0.62673E+07
 
   -0.49582E+07         0.80789E+06         0.00000E+00
    0.80789E+06        -0.26830E+08         0.00000E+00
    0.00000E+00         0.00000E+00        -0.63575E+07
 
   -0.53631E+07         0.10276E+07         0.00000E+00
    0.10276E+07        -0.26820E+08         0.00000E+00
    0.00000E+00         0.00000E+00        -0.64367E+07
 
   -0.57454E+07         0.12906E+07         0.00000E+00
    0.12906E+07        -0.26781E+08         0.00000E+00
    0.00000E+00         0.00000E+00        -0.65052E+07
 
   -0.61087E+07         0.15993E+07         0.00000E+00
    0.15993E+07        -0.26708E+08         0.00000E+00
    0.00000E+00         0.00000E+00        -0.65633E+07
 
   -0.64597E+07         0.19578E+07         0.00000E+00
    0.19578E+07        -0.26598E+08         0.00000E+00
    0.00000E+00         0.00000E+00        -0.66115E+07
 
   -0.29333E+07         0.48693E+05         0.00000E+00
    0.48693E+05        -0.26940E+08         0.00000E+00
    0.00000E+00         0.00000E+00        -0.75260E+07
 
   -0.30471E+07         0.13034E+06         0.00000E+00
    0.13034E+06        -0.26972E+08         0.00000E+00
    0.00000E+00         0.00000E+00        -0.73955E+07
 
   -0.32097E+07         0.19131E+06         0.00000E+00
    0.19131E+06        -0.27032E+08         0.00000E+00
    0.00000E+00         0.00000E+00        -0.72436E+07
 
   -0.34003E+07         0.24031E+06         0.00000E+00
    0.24031E+06        -0.27117E+08         0.00000E+00
    0.00000E+00         0.00000E+00        -0.70983E+07
 
   -0.36097E+07         0.28386E+06         0.00000E+00
    0.28386E+06        -0.27222E+08         0.00000E+00
    0.00000E+00         0.00000E+00        -0.69646E+07
 
   -0.38331E+07         0.32713E+06         0.00000E+00
    0.32713E+06        -0.27338E+08         0.00000E+00
    0.00000E+00         0.00000E+00        -0.68376E+07
 
   -0.40687E+07         0.37327E+06         0.00000E+00
    0.37327E+06        -0.27455E+08         0.00000E+00
    0.00000E+00         0.00000E+00        -0.67056E+07
 
   -0.43133E+07         0.41941E+06         0.00000E+00
    0.41941E+06        -0.27561E+08         0.00000E+00
    0.00000E+00         0.00000E+00        -0.65533E+07
 
   -0.46219E+07         0.49127E+06         0.00000E+00
    0.49127E+06        -0.27632E+08         0.00000E+00
    0.00000E+00         0.00000E+00        -0.64676E+07
 
   -0.50436E+07         0.63669E+06         0.00000E+00
    0.63669E+06        -0.27684E+08         0.00000E+00
    0.00000E+00         0.00000E+00        -0.65455E+07
 
   -0.54266E+07         0.83414E+06         0.00000E+00
    0.83414E+06        -0.27714E+08         0.00000E+00
    0.00000E+00         0.00000E+00        -0.66282E+07
 
   -0.57869E+07         0.10751E+07         0.00000E+00
    0.10751E+07        -0.27717E+08         0.00000E+00
    0.00000E+00         0.00000E+00        -0.67008E+07
 
   -0.61231E+07         0.13607E+07         0.00000E+00
    0.13607E+07        -0.27691E+08         0.00000E+00
    0.00000E+00         0.00000E+00        -0.67628E+07
 
   -0.64367E+07         0.16932E+07         0.00000E+00
    0.16932E+07        -0.27636E+08         0.00000E+00
    0.00000E+00         0.00000E+00        -0.68146E+07
 
   -0.67311E+07         0.20807E+07         0.00000E+00
    0.20807E+07        -0.27550E+08         0.00000E+00
    0.00000E+00         0.00000E+00        -0.68561E+07
 
   -0.36171E+07         0.34221E+05         0.00000E+00
    0.34221E+05        -0.27713E+08         0.00000E+00
    0.00000E+00         0.00000E+00        -0.77444E+07
 
   -0.37560E+07         0.88824E+05         0.00000E+00
    0.88824E+05        -0.27753E+08         0.00000E+00
    0.00000E+00         0.00000E+00        -0.75982E+07
 
   -0.39313E+07         0.12727E+06         0.00000E+00
    0.12727E+06        -0.27827E+08         0.00000E+00
    0.00000E+00         0.00000E+00        -0.74610E+07
 
   -0.41260E+07         0.15937E+06         0.00000E+00
    0.15937E+06        -0.27930E+08         0.00000E+00
    0.00000E+00         0.00000E+00        -0.73482E+07
 
   -0.43320E+07         0.19314E+06         0.00000E+00
    0.19314E+06        -0.28054E+08         0.00000E+00
    0.00000E+00         0.00000E+00        -0.72587E+07
 
   -0.45456E+07         0.23533E+06         0.00000E+00
    0.23533E+06        -0.28190E+08         0.00000E+00
    0.00000E+00         0.00000E+00        -0.71840E+07
 
   -0.47676E+07         0.29122E+06         0.00000E+00
    0.29122E+06        -0.28328E+08         0.00000E+00
    0.00000E+00         0.00000E+00        -0.71089E+07
 
   -0.50039E+07         0.36392E+06         0.00000E+00
    0.36392E+06        -0.28458E+08         0.00000E+00
    0.00000E+00         0.00000E+00        -0.70110E+07
 
   -0.52545E+07         0.46779E+06         0.00000E+00
    0.46779E+06        -0.28571E+08         0.00000E+00
    0.00000E+00         0.00000E+00        -0.68825E+07
 
   -0.55882E+07         0.63072E+06         0.00000E+00
    0.63072E+06        -0.28646E+08         0.00000E+00
    0.00000E+00         0.00000E+00        -0.68580E+07
 
   -0.59376E+07         0.84758E+06         0.00000E+00
    0.84758E+06        -0.28679E+08         0.00000E+00
    0.00000E+00         0.00000E+00        -0.69234E+07
 
   -0.62498E+07         0.11089E+07         0.00000E+00
    0.11089E+07        -0.28692E+08         0.00000E+00
    0.00000E+00         0.00000E+00        -0.69884E+07
 
   -0.65406E+07         0.14149E+07         0.00000E+00
    0.14149E+07        -0.28680E+08         0.00000E+00
    0.00000E+00         0.00000E+00        -0.70442E+07
 
   -0.68032E+07         0.17654E+07         0.00000E+00
    0.17654E+07        -0.28644E+08         0.00000E+00
    0.00000E+00         0.00000E+00        -0.70894E+07
 
   -0.70318E+07         0.21740E+07         0.00000E+00
    0.21740E+07        -0.28585E+08         0.00000E+00
    0.00000E+00         0.00000E+00        -0.71233E+07
 
   -0.43982E+07         0.13821E+05         0.00000E+00
    0.13821E+05        -0.28548E+08         0.00000E+00
    0.00000E+00         0.00000E+00        -0.79408E+07
 
   -0.45565E+07         0.34525E+05         0.00000E+00
    0.34525E+05        -0.28597E+08         0.00000E+00
    0.00000E+00         0.00000E+00        -0.77916E+07
 
   -0.47385E+07         0.45803E+05         0.00000E+00
    0.45803E+05        -0.28685E+08         0.00000E+00
    0.00000E+00         0.00000E+00        -0.76788E+07
 
   -0.49297E+07         0.58278E+05         0.00000E+00
    0.58278E+05        -0.28804E+08         0.00000E+00
    0.00000E+00         0.00000E+00        -0.76060E+07
 
   -0.51235E+07         0.81074E+05         0.00000E+00
    0.81074E+05        -0.28945E+08         0.00000E+00
    0.00000E+00         0.00000E+00        -0.75661E+07
 
   -0.53174E+07         0.12192E+06         0.00000E+00
    0.12192E+06        -0.29095E+08         0.00000E+00
    0.00000E+00         0.00000E+00        -0.75453E+07
 
   -0.55132E+07         0.18645E+06         0.00000E+00
    0.18645E+06        -0.29245E+08         0.00000E+00
    0.00000E+00         0.00000E+00        -0.75254E+07
 
   -0.57153E+07         0.27994E+06         0.00000E+00
    0.27994E+06        -0.29383E+08         0.00000E+00
    0.00000E+00         0.00000E+00        -0.74866E+07
 
   -0.59358E+07         0.40733E+06         0.00000E+00
    0.40733E+06        -0.29505E+08         0.00000E+00
    0.00000E+00         0.00000E+00        -0.74114E+07
 
   -0.61811E+07         0.59067E+06         0.00000E+00
    0.59067E+06        -0.29618E+08         0.00000E+00
    0.00000E+00         0.00000E+00        -0.73104E+07
 
   -0.64751E+07         0.84168E+06         0.00000E+00
    0.84168E+06        -0.29710E+08         0.00000E+00
    0.00000E+00         0.00000E+00        -0.72789E+07
 
   -0.67467E+07         0.11303E+07         0.00000E+00
    0.11303E+07        -0.29746E+08         0.00000E+00
    0.00000E+00         0.00000E+00        -0.72986E+07
 
   -0.70010E+07         0.14523E+07         0.00000E+00
    0.14523E+07        -0.29742E+08         0.00000E+00
    0.00000E+00         0.00000E+00        -0.73487E+07
 
   -0.72166E+07         0.18141E+07         0.00000E+00
    0.18141E+07        -0.29728E+08         0.00000E+00
    0.00000E+00         0.00000E+00        -0.73888E+07
 
   -0.73688E+07         0.22274E+07         0.00000E+00
    0.22274E+07        -0.29705E+08         0.00000E+00
    0.00000E+00         0.00000E+00        -0.74147E+07
 
   -0.52841E+07        -0.11391E+05         0.00000E+00
   -0.11391E+05        -0.29445E+08         0.00000E+00
    0.00000E+00         0.00000E+00        -0.81160E+07
 
   -0.54530E+07        -0.32078E+05         0.00000E+00
   -0.32078E+05        -0.29502E+08         0.00000E+00
    0.00000E+00         0.00000E+00        -0.79786E+07
 
   -0.56326E+07        -0.52442E+05         0.00000E+00
   -0.52442E+05        -0.29603E+08         0.00000E+00
    0.00000E+00         0.00000E+00        -0.79003E+07
 
   -0.58105E+07        -0.61199E+05         0.00000E+00
   -0.61199E+05        -0.29736E+08         0.00000E+00
    0.00000E+00         0.00000E+00        -0.78756E+07
 
   -0.59811E+07        -0.48058E+05         0.00000E+00
   -0.48058E+05        -0.29889E+08         0.00000E+00
    0.00000E+00         0.00000E+00        -0.78894E+07
 
   -0.61442E+07        -0.54591E+04         0.00000E+00
   -0.54591E+04        -0.30047E+08         0.00000E+00
    0.00000E+00         0.00000E+00        -0.79222E+07
 
   -0.63035E+07         0.70695E+05         0.00000E+00
    0.70695E+05        -0.30200E+08         0.00000E+00
    0.00000E+00         0.00000E+00        -0.79539E+07
 
   -0.64655E+07         0.18241E+06         0.00000E+00
    0.18241E+06        -0.30341E+08         0.00000E+00
    0.00000E+00         0.00000E+00        -0.79676E+07
 
   -0.66374E+07         0.33301E+06         0.00000E+00
    0.33301E+06        -0.30461E+08         0.00000E+00
    0.00000E+00         0.00000E+00        -0.79484E+07
 
   -0.68293E+07         0.52995E+06         0.00000E+00
    0.52995E+06        -0.30562E+08         0.00000E+00
    0.00000E+00         0.00000E+00        -0.78916E+07
 
   -0.70483E+07         0.78699E+06         0.00000E+00
    0.78699E+06        -0.30656E+08         0.00000E+00
    0.00000E+00         0.00000E+00        -0.78167E+07
 
   -0.72772E+07         0.11046E+07         0.00000E+00
    0.11046E+07        -0.30745E+08         0.00000E+00
    0.00000E+00         0.00000E+00        -0.77557E+07
 
   -0.74927E+07         0.14587E+07         0.00000E+00
    0.14587E+07        -0.30807E+08         0.00000E+00
    0.00000E+00         0.00000E+00        -0.77362E+07
 
   -0.76801E+07         0.18347E+07         0.00000E+00
    0.18347E+07        -0.30827E+08         0.00000E+00
    0.00000E+00         0.00000E+00        -0.77588E+07
 
   -0.77875E+07         0.22260E+07         0.00000E+00
    0.22260E+07        -0.30839E+08         0.00000E+00
    0.00000E+00         0.00000E+00        -0.77939E+07
 
   -0.62814E+07        -0.40699E+05         0.00000E+00
   -0.40699E+05        -0.30404E+08         0.00000E+00
    0.00000E+00         0.00000E+00        -0.82749E+07
 
   -0.64495E+07        -0.10995E+06         0.00000E+00
   -0.10995E+06        -0.30466E+08         0.00000E+00
    0.00000E+00         0.00000E+00        -0.81635E+07
 
   -0.66144E+07        -0.16631E+06         0.00000E+00
   -0.16631E+06        -0.30578E+08         0.00000E+00
    0.00000E+00         0.00000E+00        -0.81314E+07
 
   -0.67651E+07        -0.19609E+06         0.00000E+00
   -0.19609E+06        -0.30723E+08         0.00000E+00
    0.00000E+00         0.00000E+00        -0.81628E+07
 
   -0.68987E+07        -0.18869E+06         0.00000E+00
   -0.18869E+06        -0.30881E+08         0.00000E+00
    0.00000E+00         0.00000E+00        -0.82324E+07
 
   -0.70196E+07        -0.14016E+06         0.00000E+00
   -0.14016E+06        -0.31039E+08         0.00000E+00
    0.00000E+00         0.00000E+00        -0.83164E+07
 
   -0.71347E+07        -0.50059E+05         0.00000E+00
   -0.50059E+05        -0.31191E+08         0.00000E+00
    0.00000E+00         0.00000E+00        -0.83960E+07
 
   -0.72507E+07         0.81727E+05         0.00000E+00
    0.81727E+05        -0.31327E+08         0.00000E+00
    0.00000E+00         0.00000E+00        -0.84565E+07
 
   -0.73742E+07         0.25579E+06         0.00000E+00
    0.25579E+06        -0.31443E+08         0.00000E+00
    0.00000E+00         0.00000E+00        -0.84864E+07
 
   -0.75121E+07         0.47443E+06         0.00000E+00
    0.47443E+06        -0.31536E+08         0.00000E+00
    0.00000E+00         0.00000E+00        -0.84791E+07
 
   -0.76694E+07         0.74390E+06         0.00000E+00
    0.74390E+06        -0.31607E+08         0.00000E+00
    0.00000E+00         0.00000E+00        -0.84392E+07
 
   -0.78445E+07         0.10671E+07         0.00000E+00
    0.10671E+07        -0.31663E+08         0.00000E+00
    0.00000E+00         0.00000E+00        -0.83891E+07
 
   -0.80261E+07         0.14323E+07         0.00000E+00
    0.14323E+07        -0.31711E+08         0.00000E+00
    0.00000E+00         0.00000E+00        -0.83554E+07
 
   -0.81944E+07         0.18200E+07         0.00000E+00
    0.18200E+07        -0.31748E+08         0.00000E+00
    0.00000E+00         0.00000E+00        -0.83568E+07
 
   -0.83466E+07         0.21896E+07         0.00000E+00
    0.21896E+07        -0.31782E+08         0.00000E+00
    0.00000E+00         0.00000E+00        -0.83947E+07
 
   -0.73958E+07        -0.72495E+05         0.00000E+00
   -0.72495E+05        -0.31420E+08         0.00000E+00
    0.00000E+00         0.00000E+00        -0.84245E+07
 
   -0.75498E+07        -0.19920E+06         0.00000E+00
   -0.19920E+06        -0.31488E+08         0.00000E+00
    0.00000E+00         0.00000E+00        -0.83523E+07
 
   -0.76829E+07        -0.29474E+06         0.00000E+00
   -0.29474E+06        -0.31610E+08         0.00000E+00
    0.00000E+00         0.00000E+00        -0.83810E+07
 
   -0.77870E+07        -0.34059E+06         0.00000E+00
   -0.34059E+06        -0.31758E+08         0.00000E+00
    0.00000E+00         0.00000E+00        -0.84738E+07
 
   -0.78688E+07        -0.33368E+06         0.00000E+00
   -0.33368E+06        -0.31913E+08         0.00000E+00
    0.00000E+00         0.00000E+00        -0.85965E+07
 
   -0.79382E+07        -0.27673E+06         0.00000E+00
   -0.27673E+06        -0.32066E+08         0.00000E+00
    0.00000E+00         0.00000E+00        -0.87274E+07
 
   -0.80025E+07        -0.17173E+06         0.00000E+00
   -0.17173E+06        -0.32211E+08         0.00000E+00
    0.00000E+00         0.00000E+00        -0.88513E+07
 
   -0.80680E+07        -0.19733E+05         0.00000E+00
   -0.19733E+05        -0.32341E+08         0.00000E+00
    0.00000E+00         0.00000E+00        -0.89562E+07
 
   -0.81408E+07         0.17851E+06         0.00000E+00
    0.17851E+06        -0.32452E+08         0.00000E+00
    0.00000E+00         0.00000E+00        -0.90322E+07
 
   -0.82266E+07         0.42272E+06         0.00000E+00
    0.42272E+06        -0.32539E+08         0.00000E+00
    0.00000E+00         0.00000E+00        -0.90732E+07
 
   -0.83315E+07         0.71265E+06         0.00000E+00
    0.71265E+06        -0.32602E+08         0.00000E+00
    0.00000E+00         0.00000E+00        -0.90805E+07
 
   -0.84592E+07         0.10459E+07         0.00000E+00
    0.10459E+07        -0.32648E+08         0.00000E+00
    0.00000E+00         0.00000E+00        -0.90649E+07
 
   -0.86085E+07         0.14139E+07         0.00000E+00
    0.14139E+07        -0.32682E+08         0.00000E+00
    0.00000E+00         0.00000E+00        -0.90446E+07
 
   -0.87747E+07         0.17961E+07         0.00000E+00
    0.17961E+07        -0.32713E+08         0.00000E+00
    0.00000E+00         0.00000E+00        -0.90350E+07
 
   -0.89475E+07         0.21690E+07         0.00000E+00
    0.21690E+07        -0.32736E+08         0.00000E+00
    0.00000E+00         0.00000E+00        -0.90341E+07
 
   -0.86319E+07        -0.10560E+06         0.00000E+00
   -0.10560E+06        -0.32495E+08         0.00000E+00
    0.00000E+00         0.00000E+00        -0.85774E+07
 
   -0.87586E+07        -0.30337E+06         0.00000E+00
   -0.30337E+06        -0.32573E+08         0.00000E+00
    0.00000E+00         0.00000E+00        -0.85609E+07
 
   -0.88302E+07        -0.43208E+06         0.00000E+00
   -0.43208E+06        -0.32696E+08         0.00000E+00
    0.00000E+00         0.00000E+00        -0.86605E+07
 
   -0.88662E+07        -0.48509E+06         0.00000E+00
   -0.48509E+06        -0.32834E+08         0.00000E+00
    0.00000E+00         0.00000E+00        -0.88102E+07
 
   -0.88861E+07        -0.47637E+06         0.00000E+00
   -0.47637E+06        -0.32978E+08         0.00000E+00
    0.00000E+00         0.00000E+00        -0.89793E+07
 
   -0.88969E+07        -0.41121E+06         0.00000E+00
   -0.41121E+06        -0.33121E+08         0.00000E+00
    0.00000E+00         0.00000E+00        -0.91524E+07
 
   -0.89046E+07        -0.29221E+06         0.00000E+00
   -0.29221E+06        -0.33258E+08         0.00000E+00
    0.00000E+00         0.00000E+00        -0.93182E+07
 
   -0.89151E+07        -0.12110E+06         0.00000E+00
   -0.12110E+06        -0.33381E+08         0.00000E+00
    0.00000E+00         0.00000E+00        -0.94665E+07
 
   -0.89345E+07         0.10015E+06         0.00000E+00
    0.10015E+06        -0.33486E+08         0.00000E+00
    0.00000E+00         0.00000E+00        -0.95883E+07
 
   -0.89697E+07         0.36852E+06         0.00000E+00
    0.36852E+06        -0.33571E+08         0.00000E+00
    0.00000E+00         0.00000E+00        -0.96782E+07
 
   -0.90284E+07         0.67945E+06         0.00000E+00
    0.67945E+06        -0.33634E+08         0.00000E+00
    0.00000E+00         0.00000E+00        -0.97344E+07
 
   -0.91178E+07         0.10265E+07         0.00000E+00
    0.10265E+07        -0.33680E+08         0.00000E+00
    0.00000E+00         0.00000E+00        -0.97596E+07
 
   -0.92433E+07         0.13998E+07         0.00000E+00
    0.13998E+07        -0.33712E+08         0.00000E+00
    0.00000E+00         0.00000E+00        -0.97601E+07
 
   -0.94036E+07         0.17859E+07         0.00000E+00
    0.17859E+07        -0.33734E+08         0.00000E+00
    0.00000E+00         0.00000E+00        -0.97416E+07
 
   -0.95880E+07         0.21693E+07         0.00000E+00
    0.21693E+07        -0.33739E+08         0.00000E+00
    0.00000E+00         0.00000E+00        -0.97066E+07
 
   -0.10001E+08        -0.16022E+06         0.00000E+00
   -0.16022E+06        -0.33670E+08         0.00000E+00
    0.00000E+00         0.00000E+00        -0.87958E+07
 
   -0.10065E+08        -0.40887E+06         0.00000E+00
   -0.40887E+06        -0.33736E+08         0.00000E+00
    0.00000E+00         0.00000E+00        -0.88274E+07
 
   -0.10040E+08        -0.56073E+06         0.00000E+00
   -0.56073E+06        -0.33819E+08         0.00000E+00
    0.00000E+00         0.00000E+00        -0.89667E+07
 
   -0.99981E+07        -0.62183E+06         0.00000E+00
   -0.62183E+06        -0.33941E+08         0.00000E+00
    0.00000E+00         0.00000E+00        -0.91649E+07
 
   -0.99484E+07        -0.61272E+06         0.00000E+00
   -0.61272E+06        -0.34071E+08         0.00000E+00
    0.00000E+00         0.00000E+00        -0.93757E+07
 
   -0.98945E+07        -0.54138E+06         0.00000E+00
   -0.54138E+06        -0.34202E+08         0.00000E+00
    0.00000E+00         0.00000E+00        -0.95883E+07
 
   -0.98401E+07        -0.41042E+06         0.00000E+00
   -0.41042E+06        -0.34328E+08         0.00000E+00
    0.00000E+00         0.00000E+00        -0.97945E+07
 
   -0.97912E+07        -0.22238E+06         0.00000E+00
   -0.22238E+06        -0.34443E+08         0.00000E+00
    0.00000E+00         0.00000E+00        -0.99852E+07
 
   -0.97552E+07         0.18950E+05         0.00000E+00
    0.18950E+05        -0.34544E+08         0.00000E+00
    0.00000E+00         0.00000E+00        -0.10152E+08
 
   -0.97407E+07         0.30827E+06         0.00000E+00
    0.30827E+06        -0.34628E+08         0.00000E+00
    0.00000E+00         0.00000E+00        -0.10290E+08
 
   -0.97574E+07         0.63861E+06         0.00000E+00
    0.63861E+06        -0.34695E+08         0.00000E+00
    0.00000E+00         0.00000E+00        -0.10393E+08
 
   -0.98144E+07         0.10015E+07         0.00000E+00
    0.10015E+07        -0.34745E+08         0.00000E+00
    0.00000E+00         0.00000E+00        -0.10458E+08
 
   -0.99186E+07         0.13880E+07         0.00000E+00
    0.13880E+07        -0.34778E+08         0.00000E+00
    0.00000E+00         0.00000E+00        -0.10482E+08
 
   -0.10071E+08         0.17874E+07         0.00000E+00
    0.17874E+07        -0.34793E+08         0.00000E+00
    0.00000E+00         0.00000E+00        -0.10465E+08
 
   -0.10264E+08         0.21862E+07         0.00000E+00
    0.21862E+07        -0.34786E+08         0.00000E+00
    0.00000E+00         0.00000E+00        -0.10409E+08
 
   -0.11506E+08        -0.20667E+06         0.00000E+00
   -0.20667E+06        -0.34795E+08         0.00000E+00
    0.00000E+00         0.00000E+00        -0.92601E+07
 
   -0.11460E+08        -0.51096E+06         0.00000E+00
   -0.51096E+06        -0.34862E+08         0.00000E+00
    0.00000E+00         0.00000E+00        -0.92644E+07
 
   -0.11299E+08        -0.68907E+06         0.00000E+00
   -0.68907E+06        -0.34965E+08         0.00000E+00
    0.00000E+00         0.00000E+00        -0.93188E+07
 
   -0.11177E+08        -0.75281E+06         0.00000E+00
   -0.75281E+06        -0.35068E+08         0.00000E+00
    0.00000E+00         0.00000E+00        -0.95319E+07
 
   -0.11055E+08        -0.74243E+06         0.00000E+00
   -0.74243E+06        -0.35186E+08         0.00000E+00
    0.00000E+00         0.00000E+00        -0.97820E+07
 
   -0.10930E+08        -0.66645E+06         0.00000E+00
   -0.66645E+06        -0.35304E+08         0.00000E+00
    0.00000E+00         0.00000E+00        -0.10033E+08
 
   -0.10809E+08        -0.52533E+06         0.00000E+00
   -0.52533E+06        -0.35419E+08         0.00000E+00
    0.00000E+00         0.00000E+00        -0.10278E+08
 
   -0.10697E+08        -0.32316E+06         0.00000E+00
   -0.32316E+06        -0.35525E+08         0.00000E+00
    0.00000E+00         0.00000E+00        -0.10508E+08
 
   -0.10604E+08        -0.65273E+05         0.00000E+00
   -0.65273E+05        -0.35621E+08         0.00000E+00
    0.00000E+00         0.00000E+00        -0.10717E+08
 
   -0.10540E+08         0.24132E+06         0.00000E+00
    0.24132E+06        -0.35704E+08         0.00000E+00
    0.00000E+00         0.00000E+00        -0.10898E+08
 
   -0.10516E+08         0.58899E+06         0.00000E+00
    0.58899E+06        -0.35774E+08         0.00000E+00
    0.00000E+00         0.00000E+00        -0.11044E+08
 
   -0.10542E+08         0.96950E+06         0.00000E+00
    0.96950E+06        -0.35828E+08         0.00000E+00
    0.00000E+00         0.00000E+00        -0.11147E+08
 
   -0.10625E+08         0.13744E+07         0.00000E+00
    0.13744E+07        -0.35865E+08         0.00000E+00
    0.00000E+00         0.00000E+00        -0.11199E+08
 
   -0.10768E+08         0.17935E+07         0.00000E+00
    0.17935E+07        -0.35879E+08         0.00000E+00
    0.00000E+00         0.00000E+00        -0.11194E+08
 
   -0.10969E+08         0.22132E+07         0.00000E+00
    0.22132E+07        -0.35868E+08         0.00000E+00
    0.00000E+00         0.00000E+00        -0.11131E+08
 
   -0.13121E+08        -0.24043E+06         0.00000E+00
   -0.24043E+06        -0.35985E+08         0.00000E+00
    0.00000E+00         0.00000E+00        -0.98213E+07
 
   -0.12936E+08        -0.59241E+06         0.00000E+00
   -0.59241E+06        -0.36029E+08         0.00000E+00
    0.00000E+00         0.00000E+00        -0.97930E+07
 
   -0.12633E+08        -0.80620E+06         0.00000E+00
   -0.80620E+06        -0.36122E+08         0.00000E+00
    0.00000E+00         0.00000E+00        -0.97657E+07
 
   -0.12390E+08        -0.88382E+06         0.00000E+00
   -0.88382E+06        -0.36214E+08         0.00000E+00
    0.00000E+00         0.00000E+00        -0.99228E+07
 
   -0.12200E+08        -0.86827E+06         0.00000E+00
   -0.86827E+06        -0.36321E+08         0.00000E+00
    0.00000E+00         0.00000E+00        -0.10203E+08
 
   -0.12002E+08        -0.78539E+06         0.00000E+00
   -0.78539E+06        -0.36426E+08         0.00000E+00
    0.00000E+00         0.00000E+00        -0.10487E+08
 
   -0.11810E+08        -0.63511E+06         0.00000E+00
   -0.63511E+06        -0.36527E+08         0.00000E+00
    0.00000E+00         0.00000E+00        -0.10765E+08
 
   -0.11633E+08        -0.42145E+06         0.00000E+00
   -0.42145E+06        -0.36622E+08         0.00000E+00
    0.00000E+00         0.00000E+00        -0.11030E+08
 
   -0.11482E+08        -0.15084E+06         0.00000E+00
   -0.15084E+06        -0.36711E+08         0.00000E+00
    0.00000E+00         0.00000E+00        -0.11275E+08
 
   -0.11368E+08         0.16949E+06         0.00000E+00
    0.16949E+06        -0.36791E+08         0.00000E+00
    0.00000E+00         0.00000E+00        -0.11494E+08
 
   -0.11302E+08         0.53198E+06         0.00000E+00
    0.53198E+06        -0.36861E+08         0.00000E+00
    0.00000E+00         0.00000E+00        -0.11678E+08
 
   -0.11295E+08         0.92955E+06         0.00000E+00
    0.92955E+06        -0.36919E+08         0.00000E+00
    0.00000E+00         0.00000E+00        -0.11818E+08
 
   -0.11355E+08         0.13544E+07         0.00000E+00
    0.13544E+07        -0.36961E+08         0.00000E+00
    0.00000E+00         0.00000E+00        -0.11903E+08
 
   -0.11487E+08         0.17969E+07         0.00000E+00
    0.17969E+07        -0.36981E+08         0.00000E+00
    0.00000E+00         0.00000E+00        -0.11922E+08
 
   -0.11694E+08         0.22428E+07         0.00000E+00
    0.22428E+07        -0.36973E+08         0.00000E+00
    0.00000E+00         0.00000E+00        -0.11866E+08
 
   -0.14827E+08        -0.26250E+06         0.00000E+00
   -0.26250E+06        -0.37231E+08         0.00000E+00
    0.00000E+00         0.00000E+00        -0.10412E+08
 
   -0.14480E+08        -0.65908E+06         0.00000E+00
   -0.65908E+06        -0.37263E+08         0.00000E+00
    0.00000E+00         0.00000E+00        -0.10349E+08
 
   -0.14039E+08        -0.90376E+06         0.00000E+00
   -0.90376E+06        -0.37323E+08         0.00000E+00
    0.00000E+00         0.00000E+00        -0.10272E+08
 
   -0.13647E+08        -0.10006E+07         0.00000E+00
   -0.10006E+07        -0.37399E+08         0.00000E+00
    0.00000E+00         0.00000E+00        -0.10351E+08
 
   -0.13380E+08        -0.98475E+06         0.00000E+00
   -0.98475E+06        -0.37481E+08         0.00000E+00
    0.00000E+00         0.00000E+00        -0.10646E+08
 
   -0.13106E+08        -0.89491E+06         0.00000E+00
   -0.89491E+06        -0.37567E+08         0.00000E+00
    0.00000E+00         0.00000E+00        -0.10952E+08
 
   -0.12841E+08        -0.73620E+06         0.00000E+00
   -0.73620E+06        -0.37650E+08         0.00000E+00
    0.00000E+00         0.00000E+00        -0.11254E+08
 
   -0.12598E+08        -0.51355E+06         0.00000E+00
   -0.51355E+06        -0.37730E+08         0.00000E+00
    0.00000E+00         0.00000E+00        -0.11545E+08
 
   -0.12389E+08        -0.23376E+06         0.00000E+00
   -0.23376E+06        -0.37806E+08         0.00000E+00
    0.00000E+00         0.00000E+00        -0.11818E+08
 
   -0.12225E+08         0.96052E+05         0.00000E+00
    0.96052E+05        -0.37878E+08         0.00000E+00
    0.00000E+00         0.00000E+00        -0.12067E+08
 
   -0.12115E+08         0.46952E+06         0.00000E+00
    0.46952E+06        -0.37947E+08         0.00000E+00
    0.00000E+00         0.00000E+00        -0.12285E+08
 
   -0.12072E+08         0.88092E+06         0.00000E+00
    0.88092E+06        -0.38008E+08         0.00000E+00
    0.00000E+00         0.00000E+00        -0.12462E+08
 
   -0.12104E+08         0.13242E+07         0.00000E+00
    0.13242E+07        -0.38058E+08         0.00000E+00
    0.00000E+00         0.00000E+00        -0.12585E+08
 
   -0.12222E+08         0.17907E+07         0.00000E+00
    0.17907E+07        -0.38089E+08         0.00000E+00
    0.00000E+00         0.00000E+00        -0.12637E+08
 
   -0.12432E+08         0.22666E+07         0.00000E+00
    0.22666E+07        -0.38092E+08         0.00000E+00
    0.00000E+00         0.00000E+00        -0.12602E+08
 
   -0.16607E+08        -0.28165E+06         0.00000E+00
   -0.28165E+06        -0.38509E+08         0.00000E+00
    0.00000E+00         0.00000E+00        -0.11023E+08
 
   -0.16090E+08        -0.71104E+06         0.00000E+00
   -0.71104E+06        -0.38532E+08         0.00000E+00
    0.00000E+00         0.00000E+00        -0.10924E+08
 
   -0.15500E+08        -0.97753E+06         0.00000E+00
   -0.97753E+06        -0.38568E+08         0.00000E+00
    0.00000E+00         0.00000E+00        -0.10814E+08
 
   -0.14953E+08        -0.10931E+07         0.00000E+00
   -0.10931E+07        -0.38617E+08         0.00000E+00
    0.00000E+00         0.00000E+00        -0.10824E+08
 
   -0.14591E+08        -0.10819E+07         0.00000E+00
   -0.10819E+07        -0.38669E+08         0.00000E+00
    0.00000E+00         0.00000E+00        -0.11115E+08
 
   -0.14240E+08        -0.98773E+06         0.00000E+00
   -0.98773E+06        -0.38727E+08         0.00000E+00
    0.00000E+00         0.00000E+00        -0.11430E+08
 
   -0.13903E+08        -0.82225E+06         0.00000E+00
   -0.82225E+06        -0.38784E+08         0.00000E+00
    0.00000E+00         0.00000E+00        -0.11744E+08
 
   -0.13594E+08        -0.59349E+06         0.00000E+00
   -0.59349E+06        -0.38841E+08         0.00000E+00
    0.00000E+00         0.00000E+00        -0.12047E+08
 
   -0.13327E+08        -0.30889E+06         0.00000E+00
   -0.30889E+06        -0.38899E+08         0.00000E+00
    0.00000E+00         0.00000E+00        -0.12336E+08
 
   -0.13112E+08         0.25167E+05         0.00000E+00
    0.25167E+05        -0.38960E+08         0.00000E+00
    0.00000E+00         0.00000E+00        -0.12607E+08
 
   -0.12957E+08         0.40372E+06         0.00000E+00
    0.40372E+06        -0.39024E+08         0.00000E+00
    0.00000E+00         0.00000E+00        -0.12854E+08
 
   -0.12874E+08         0.82321E+06         0.00000E+00
    0.82321E+06        -0.39088E+08         0.00000E+00
    0.00000E+00         0.00000E+00        -0.13068E+08
 
   -0.12873E+08         0.12802E+07         0.00000E+00
    0.12802E+07        -0.39148E+08         0.00000E+00
    0.00000E+00         0.00000E+00        -0.13234E+08
 
   -0.12969E+08         0.17686E+07         0.00000E+00
    0.17686E+07        -0.39194E+08         0.00000E+00
    0.00000E+00         0.00000E+00        -0.13332E+08
 
   -0.13175E+08         0.22758E+07         0.00000E+00
    0.22758E+07        -0.39216E+08         0.00000E+00
    0.00000E+00         0.00000E+00        -0.13334E+08
 
   -0.18448E+08        -0.29737E+06         0.00000E+00
   -0.29737E+06        -0.39816E+08         0.00000E+00
    0.00000E+00         0.00000E+00        -0.11653E+08
 
   -0.17751E+08        -0.75030E+06         0.00000E+00
   -0.75030E+06        -0.39830E+08         0.00000E+00
    0.00000E+00         0.00000E+00        -0.11516E+08
 
   -0.17004E+08        -0.10308E+07         0.00000E+00
   -0.10308E+07        -0.39849E+08         0.00000E+00
    0.00000E+00         0.00000E+00        -0.11371E+08
 
   -0.16303E+08        -0.11562E+07         0.00000E+00
   -0.11562E+07        -0.39868E+08         0.00000E+00
    0.00000E+00         0.00000E+00        -0.11324E+08
 
   -0.15834E+08        -0.11502E+07         0.00000E+00
   -0.11502E+07        -0.39884E+08         0.00000E+00
    0.00000E+00         0.00000E+00        -0.11605E+08
 
   -0.15401E+08        -0.10534E+07         0.00000E+00
   -0.10534E+07        -0.39904E+08         0.00000E+00
    0.00000E+00         0.00000E+00        -0.11919E+08
 
   -0.14992E+08        -0.88390E+06         0.00000E+00
   -0.88390E+06        -0.39926E+08         0.00000E+00
    0.00000E+00         0.00000E+00        -0.12229E+08
 
   -0.14621E+08        -0.65334E+06         0.00000E+00
   -0.65334E+06        -0.39952E+08         0.00000E+00
    0.00000E+00         0.00000E+00        -0.12530E+08
 
   -0.14299E+08        -0.37001E+06         0.00000E+00
   -0.37001E+06        -0.39985E+08         0.00000E+00
    0.00000E+00         0.00000E+00        -0.12823E+08
 
   -0.14033E+08        -0.39058E+05         0.00000E+00
   -0.39058E+05        -0.40030E+08         0.00000E+00
    0.00000E+00         0.00000E+00        -0.13106E+08
 
   -0.13832E+08         0.33679E+06         0.00000E+00
    0.33679E+06        -0.40086E+08         0.00000E+00
    0.00000E+00         0.00000E+00        -0.13377E+08
 
   -0.13704E+08         0.75639E+06         0.00000E+00
    0.75639E+06        -0.40152E+08         0.00000E+00
    0.00000E+00         0.00000E+00        -0.13627E+08
 
   -0.13662E+08         0.12194E+07         0.00000E+00
    0.12194E+07        -0.40223E+08         0.00000E+00
    0.00000E+00         0.00000E+00        -0.13842E+08
 
   -0.13726E+08         0.17241E+07         0.00000E+00
    0.17241E+07        -0.40290E+08         0.00000E+00
    0.00000E+00         0.00000E+00        -0.13996E+08
 
   -0.13920E+08         0.22612E+07         0.00000E+00
    0.22612E+07        -0.40337E+08         0.00000E+00
    0.00000E+00         0.00000E+00        -0.14052E+08
 
   -0.20339E+08        -0.31011E+06         0.00000E+00
   -0.31011E+06        -0.41147E+08         0.00000E+00
    0.00000E+00         0.00000E+00        -0.12297E+08
 
   -0.19451E+08        -0.77850E+06         0.00000E+00
   -0.77850E+06        -0.41153E+08         0.00000E+00
    0.00000E+00         0.00000E+00        -0.12121E+08
 
   -0.18538E+08        -0.10629E+07         0.00000E+00
   -0.10629E+07        -0.41154E+08         0.00000E+00
    0.00000E+00         0.00000E+00        -0.11938E+08
 
   -0.17683E+08        -0.11876E+07         0.00000E+00
   -0.11876E+07        -0.41142E+08         0.00000E+00
    0.00000E+00         0.00000E+00        -0.11842E+08
 
   -0.17105E+08        -0.11810E+07         0.00000E+00
   -0.11810E+07        -0.41118E+08         0.00000E+00
    0.00000E+00         0.00000E+00        -0.12110E+08
 
   -0.16586E+08        -0.10812E+07         0.00000E+00
   -0.10812E+07        -0.41093E+08         0.00000E+00
    0.00000E+00         0.00000E+00        -0.12412E+08
 
   -0.16109E+08        -0.91052E+06         0.00000E+00
   -0.91052E+06        -0.41070E+08         0.00000E+00
    0.00000E+00         0.00000E+00        -0.12703E+08
 
   -0.15681E+08        -0.68403E+06         0.00000E+00
   -0.68403E+06        -0.41056E+08         0.00000E+00
    0.00000E+00         0.00000E+00        -0.12987E+08
 
   -0.15308E+08        -0.41041E+06         0.00000E+00
   -0.41041E+06        -0.41057E+08         0.00000E+00
    0.00000E+00         0.00000E+00        -0.13269E+08
 
   -0.14993E+08        -0.92519E+05         0.00000E+00
   -0.92519E+05        -0.41081E+08         0.00000E+00
    0.00000E+00         0.00000E+00        -0.13555E+08
 
   -0.14744E+08         0.27028E+06         0.00000E+00
    0.27028E+06        -0.41128E+08         0.00000E+00
    0.00000E+00         0.00000E+00        -0.13844E+08
 
   -0.14568E+08         0.67996E+06         0.00000E+00
    0.67996E+06        -0.41196E+08         0.00000E+00
    0.00000E+00         0.00000E+00        -0.14130E+08
 
   -0.14477E+08         0.11392E+07         0.00000E+00
    0.11392E+07        -0.41280E+08         0.00000E+00
    0.00000E+00         0.00000E+00        -0.14399E+08
 
   -0.14496E+08         0.16512E+07         0.00000E+00
    0.16512E+07        -0.41371E+08         0.00000E+00
    0.00000E+00         0.00000E+00        -0.14623E+08
 
   -0.14664E+08         0.22146E+07         0.00000E+00
    0.22146E+07        -0.41453E+08         0.00000E+00
    0.00000E+00         0.00000E+00        -0.14751E+08
 
   -0.22268E+08        -0.32043E+06         0.00000E+00
   -0.32043E+06        -0.42497E+08         0.00000E+00
    0.00000E+00         0.00000E+00        -0.12953E+08
 
   -0.21174E+08        -0.79485E+06         0.00000E+00
   -0.79485E+06        -0.42496E+08         0.00000E+00
    0.00000E+00         0.00000E+00        -0.12734E+08
 
   -0.20085E+08        -0.10705E+07         0.00000E+00
   -0.10705E+07        -0.42475E+08         0.00000E+00
    0.00000E+00         0.00000E+00        -0.12512E+08
 
   -0.19080E+08        -0.11826E+07         0.00000E+00
   -0.11826E+07        -0.42428E+08         0.00000E+00
    0.00000E+00         0.00000E+00        -0.12371E+08
 
   -0.18392E+08        -0.11671E+07         0.00000E+00
   -0.11671E+07        -0.42358E+08         0.00000E+00
    0.00000E+00         0.00000E+00        -0.12620E+08
 
   -0.17794E+08        -0.10616E+07         0.00000E+00
   -0.10616E+07        -0.42280E+08         0.00000E+00
    0.00000E+00         0.00000E+00        -0.12896E+08
 
   -0.17256E+08        -0.89260E+06         0.00000E+00
   -0.89260E+06        -0.42205E+08         0.00000E+00
    0.00000E+00         0.00000E+00        -0.13154E+08
 
   -0.16779E+08        -0.67724E+06         0.00000E+00
   -0.67724E+06        -0.42145E+08         0.00000E+00
    0.00000E+00         0.00000E+00        -0.13406E+08
 
   -0.16361E+08        -0.42346E+06         0.00000E+00
   -0.42346E+06        -0.42109E+08         0.00000E+00
    0.00000E+00         0.00000E+00        -0.13665E+08
 
   -0.16002E+08        -0.13118E+06         0.00000E+00
   -0.13118E+06        -0.42107E+08         0.00000E+00
    0.00000E+00         0.00000E+00        -0.13943E+08
 
   -0.15704E+08         0.20513E+06         0.00000E+00
    0.20513E+06        -0.42143E+08         0.00000E+00
    0.00000E+00         0.00000E+00        -0.14244E+08
 
   -0.15475E+08         0.59262E+06         0.00000E+00
    0.59262E+06        -0.42215E+08         0.00000E+00
    0.00000E+00         0.00000E+00        -0.14567E+08
 
   -0.15327E+08         0.10373E+07         0.00000E+00
    0.10373E+07        -0.42316E+08         0.00000E+00
    0.00000E+00         0.00000E+00        -0.14896E+08
 
   -0.15282E+08         0.15450E+07         0.00000E+00
    0.15450E+07        -0.42434E+08         0.00000E+00
    0.00000E+00         0.00000E+00        -0.15203E+08
 
   -0.15405E+08         0.21208E+07         0.00000E+00
    0.21208E+07        -0.42558E+08         0.00000E+00
    0.00000E+00         0.00000E+00        -0.15423E+08
 
   -0.24222E+08        -0.32888E+06         0.00000E+00
   -0.32888E+06        -0.43862E+08         0.00000E+00
    0.00000E+00         0.00000E+00        -0.13617E+08
 
   -0.22901E+08        -0.79670E+06         0.00000E+00
   -0.79670E+06        -0.43851E+08         0.00000E+00
    0.00000E+00         0.00000E+00        -0.13350E+08
 
   -0.21626E+08        -0.10463E+07         0.00000E+00
   -0.10463E+07        -0.43803E+08         0.00000E+00
    0.00000E+00         0.00000E+00        -0.13086E+08
 
   -0.20479E+08        -0.11322E+07         0.00000E+00
   -0.11322E+07        -0.43710E+08         0.00000E+00
    0.00000E+00         0.00000E+00        -0.12903E+08
 
   -0.19687E+08        -0.10995E+07         0.00000E+00
   -0.10995E+07        -0.43584E+08         0.00000E+00
    0.00000E+00         0.00000E+00        -0.13120E+08
 
   -0.19018E+08        -0.98662E+06         0.00000E+00
   -0.98662E+06        -0.43447E+08         0.00000E+00
    0.00000E+00         0.00000E+00        -0.13356E+08
 
   -0.18432E+08        -0.82364E+06         0.00000E+00
   -0.82364E+06        -0.43317E+08         0.00000E+00
    0.00000E+00         0.00000E+00        -0.13568E+08
 
   -0.17920E+08        -0.62753E+06         0.00000E+00
   -0.62753E+06        -0.43208E+08         0.00000E+00
    0.00000E+00         0.00000E+00        -0.13776E+08
 
   -0.17468E+08        -0.40415E+06         0.00000E+00
   -0.40415E+06        -0.43133E+08         0.00000E+00
    0.00000E+00         0.00000E+00        -0.14002E+08
 
   -0.17070E+08        -0.15060E+06         0.00000E+00
   -0.15060E+06        -0.43103E+08         0.00000E+00
    0.00000E+00         0.00000E+00        -0.14261E+08
 
   -0.16723E+08         0.14318E+06         0.00000E+00
    0.14318E+06        -0.43124E+08         0.00000E+00
    0.00000E+00         0.00000E+00        -0.14568E+08
 
   -0.16434E+08         0.49150E+06         0.00000E+00
    0.49150E+06        -0.43200E+08         0.00000E+00
    0.00000E+00         0.00000E+00        -0.14924E+08
 
   -0.16219E+08         0.90733E+06         0.00000E+00
    0.90733E+06        -0.43324E+08         0.00000E+00
    0.00000E+00         0.00000E+00        -0.15321E+08
 
   -0.16099E+08         0.13991E+07         0.00000E+00
    0.13991E+07        -0.43480E+08         0.00000E+00
    0.00000E+00         0.00000E+00        -0.15727E+08
 
   -0.16145E+08         0.19776E+07         0.00000E+00
    0.19776E+07        -0.43649E+08         0.00000E+00
    0.00000E+00         0.00000E+00        -0.16064E+08
 
   -0.26189E+08        -0.33646E+06         0.00000E+00
   -0.33646E+06        -0.45235E+08         0.00000E+00
    0.00000E+00         0.00000E+00        -0.14285E+08
 
   -0.24606E+08        -0.77781E+06         0.00000E+00
   -0.77781E+06        -0.45212E+08         0.00000E+00
    0.00000E+00         0.00000E+00        -0.13963E+08
 
   -0.23139E+08        -0.97559E+06         0.00000E+00
   -0.97559E+06        -0.45122E+08         0.00000E+00
    0.00000E+00         0.00000E+00        -0.13652E+08
 
   -0.21864E+08        -0.10216E+07         0.00000E+00
   -0.10216E+07        -0.44966E+08         0.00000E+00
    0.00000E+00         0.00000E+00        -0.13425E+08
 
   -0.20982E+08        -0.96743E+06         0.00000E+00
   -0.96743E+06        -0.44771E+08         0.00000E+00
    0.00000E+00         0.00000E+00        -0.13590E+08
 
   -0.20260E+08        -0.85052E+06         0.00000E+00
   -0.85052E+06        -0.44570E+08         0.00000E+00
    0.00000E+00         0.00000E+00        -0.13769E+08
 
   -0.19644E+08        -0.70178E+06         0.00000E+00
   -0.70178E+06        -0.44384E+08         0.00000E+00
    0.00000E+00         0.00000E+00        -0.13926E+08
 
   -0.19109E+08        -0.53444E+06         0.00000E+00
   -0.53444E+06        -0.44231E+08         0.00000E+00
    0.00000E+00         0.00000E+00        -0.14087E+08
 
   -0.18636E+08        -0.35106E+06         0.00000E+00
   -0.35106E+06        -0.44121E+08         0.00000E+00
    0.00000E+00         0.00000E+00        -0.14273E+08
 
   -0.18208E+08        -0.14681E+06         0.00000E+00
   -0.14681E+06        -0.44063E+08         0.00000E+00
    0.00000E+00         0.00000E+00        -0.14506E+08
 
   -0.17816E+08         0.89374E+05         0.00000E+00
    0.89374E+05        -0.44067E+08         0.00000E+00
    0.00000E+00         0.00000E+00        -0.14805E+08
 
   -0.17463E+08         0.37667E+06         0.00000E+00
    0.37667E+06        -0.44140E+08         0.00000E+00
    0.00000E+00         0.00000E+00        -0.15185E+08
 
   -0.17166E+08         0.74118E+06         0.00000E+00
    0.74118E+06        -0.44289E+08         0.00000E+00
    0.00000E+00         0.00000E+00        -0.15650E+08
 
   -0.16952E+08         0.12034E+07         0.00000E+00
    0.12034E+07        -0.44494E+08         0.00000E+00
    0.00000E+00         0.00000E+00        -0.16174E+08
 
   -0.16884E+08         0.17790E+07         0.00000E+00
    0.17790E+07        -0.44723E+08         0.00000E+00
    0.00000E+00         0.00000E+00        -0.16673E+08
 
   -0.28150E+08        -0.34299E+06         0.00000E+00
   -0.34299E+06        -0.46608E+08         0.00000E+00
    0.00000E+00         0.00000E+00        -0.14951E+08
 
   -0.26248E+08        -0.72188E+06         0.00000E+00
   -0.72188E+06        -0.46558E+08         0.00000E+00
    0.00000E+00         0.00000E+00        -0.14561E+08
 
   -0.24594E+08        -0.83218E+06         0.00000E+00
   -0.83218E+06        -0.46397E+08         0.00000E+00
    0.00000E+00         0.00000E+00        -0.14198E+08
 
   -0.23228E+08        -0.82942E+06         0.00000E+00
   -0.82942E+06        -0.46155E+08         0.00000E+00
    0.00000E+00         0.00000E+00        -0.13917E+08
 
   -0.22276E+08        -0.76170E+06         0.00000E+00
   -0.76170E+06        -0.45877E+08         0.00000E+00
    0.00000E+00         0.00000E+00        -0.13994E+08
 
   -0.21525E+08        -0.65305E+06         0.00000E+00
   -0.65305E+06        -0.45615E+08         0.00000E+00
    0.00000E+00         0.00000E+00        -0.14109E+08
 
   -0.20896E+08        -0.53147E+06         0.00000E+00
   -0.53147E+06        -0.45383E+08         0.00000E+00
    0.00000E+00         0.00000E+00        -0.14210E+08
 
   -0.20354E+08        -0.40410E+06         0.00000E+00
   -0.40410E+06        -0.45197E+08         0.00000E+00
    0.00000E+00         0.00000E+00        -0.14326E+08
 
   -0.19870E+08        -0.26820E+06         0.00000E+00
   -0.26820E+06        -0.45062E+08         0.00000E+00
    0.00000E+00         0.00000E+00        -0.14476E+08
 
   -0.19423E+08        -0.11929E+06         0.00000E+00
   -0.11929E+06        -0.44984E+08         0.00000E+00
    0.00000E+00         0.00000E+00        -0.14679E+08
 
   -0.18997E+08         0.50583E+05         0.00000E+00
    0.50583E+05        -0.44970E+08         0.00000E+00
    0.00000E+00         0.00000E+00        -0.14958E+08
 
   -0.18585E+08         0.25807E+06         0.00000E+00
    0.25807E+06        -0.45034E+08         0.00000E+00
    0.00000E+00         0.00000E+00        -0.15341E+08
 
   -0.18191E+08         0.53689E+06         0.00000E+00
    0.53689E+06        -0.45191E+08         0.00000E+00
    0.00000E+00         0.00000E+00        -0.15856E+08
 
   -0.17854E+08         0.93973E+06         0.00000E+00
    0.93973E+06        -0.45456E+08         0.00000E+00
    0.00000E+00         0.00000E+00        -0.16515E+08
 
   -0.17627E+08         0.14948E+07         0.00000E+00
    0.14948E+07        -0.45780E+08         0.00000E+00
    0.00000E+00         0.00000E+00        -0.17244E+08
 
   -0.30066E+08        -0.33653E+06         0.00000E+00
   -0.33653E+06        -0.47963E+08         0.00000E+00
    0.00000E+00         0.00000E+00        -0.15606E+08
 
   -0.27772E+08        -0.57773E+06         0.00000E+00
   -0.57773E+06        -0.47824E+08         0.00000E+00
    0.00000E+00         0.00000E+00        -0.15119E+08
 
   -0.25971E+08        -0.58059E+06         0.00000E+00
   -0.58059E+06        -0.47533E+08         0.00000E+00
    0.00000E+00         0.00000E+00        -0.14701E+08
 
   -0.24581E+08        -0.54248E+06         0.00000E+00
   -0.54248E+06        -0.47199E+08         0.00000E+00
    0.00000E+00         0.00000E+00        -0.14370E+08
 
   -0.23577E+08        -0.48476E+06         0.00000E+00
   -0.48476E+06        -0.46857E+08         0.00000E+00
    0.00000E+00         0.00000E+00        -0.14296E+08
 
   -0.22823E+08        -0.40323E+06         0.00000E+00
   -0.40323E+06        -0.46545E+08         0.00000E+00
    0.00000E+00         0.00000E+00        -0.14344E+08
 
   -0.22201E+08        -0.32685E+06         0.00000E+00
   -0.32685E+06        -0.46290E+08         0.00000E+00
    0.00000E+00         0.00000E+00        -0.14404E+08
 
   -0.21660E+08        -0.24870E+06         0.00000E+00
   -0.24870E+06        -0.46089E+08         0.00000E+00
    0.00000E+00         0.00000E+00        -0.14487E+08
 
   -0.21172E+08        -0.16506E+06         0.00000E+00
   -0.16506E+06        -0.45944E+08         0.00000E+00
    0.00000E+00         0.00000E+00        -0.14610E+08
 
   -0.20717E+08        -0.74158E+05         0.00000E+00
   -0.74158E+05        -0.45857E+08         0.00000E+00
    0.00000E+00         0.00000E+00        -0.14788E+08
 
   -0.20273E+08         0.27833E+05         0.00000E+00
    0.27833E+05        -0.45835E+08         0.00000E+00
    0.00000E+00         0.00000E+00        -0.15043E+08
 
   -0.19820E+08         0.15002E+06         0.00000E+00
    0.15002E+06        -0.45890E+08         0.00000E+00
    0.00000E+00         0.00000E+00        -0.15408E+08
 
   -0.19340E+08         0.31537E+06         0.00000E+00
    0.31537E+06        -0.46043E+08         0.00000E+00
    0.00000E+00         0.00000E+00        -0.15935E+08
 
   -0.18831E+08         0.58564E+06         0.00000E+00
    0.58564E+06        -0.46330E+08         0.00000E+00
    0.00000E+00         0.00000E+00        -0.16700E+08
 
   -0.18383E+08         0.10875E+07         0.00000E+00
    0.10875E+07        -0.46806E+08         0.00000E+00
    0.00000E+00         0.00000E+00        -0.17759E+08
 
   -0.31821E+08        -0.21651E+06         0.00000E+00
   -0.21651E+06        -0.49172E+08         0.00000E+00
    0.00000E+00         0.00000E+00        -0.16201E+08
 
   -0.29144E+08        -0.24007E+06         0.00000E+00
   -0.24007E+06        -0.48781E+08         0.00000E+00
    0.00000E+00         0.00000E+00        -0.15585E+08
 
   -0.27308E+08        -0.21234E+06         0.00000E+00
   -0.21234E+06        -0.48353E+08         0.00000E+00
    0.00000E+00         0.00000E+00        -0.15132E+08
 
   -0.25936E+08        -0.18750E+06         0.00000E+00
   -0.18750E+06        -0.47959E+08         0.00000E+00
    0.00000E+00         0.00000E+00        -0.14779E+08
 
   -0.24911E+08        -0.16560E+06         0.00000E+00
   -0.16560E+06        -0.47626E+08         0.00000E+00
    0.00000E+00         0.00000E+00        -0.14516E+08
 
   -0.24172E+08        -0.13495E+06         0.00000E+00
   -0.13495E+06        -0.47332E+08         0.00000E+00
    0.00000E+00         0.00000E+00        -0.14463E+08
 
   -0.23565E+08        -0.10982E+06         0.00000E+00
   -0.10982E+06        -0.47086E+08         0.00000E+00
    0.00000E+00         0.00000E+00        -0.14502E+08
 
   -0.23029E+08        -0.83716E+05         0.00000E+00
   -0.83716E+05        -0.46891E+08         0.00000E+00
    0.00000E+00         0.00000E+00        -0.14568E+08
 
   -0.22544E+08        -0.55294E+05         0.00000E+00
   -0.55294E+05        -0.46752E+08         0.00000E+00
    0.00000E+00         0.00000E+00        -0.14675E+08
 
   -0.22088E+08        -0.24491E+05         0.00000E+00
   -0.24491E+05        -0.46673E+08         0.00000E+00
    0.00000E+00         0.00000E+00        -0.14837E+08
 
   -0.21639E+08         0.97328E+04         0.00000E+00
    0.97328E+04        -0.46660E+08         0.00000E+00
    0.00000E+00         0.00000E+00        -0.15076E+08
 
   -0.21172E+08         0.49811E+05         0.00000E+00
    0.49811E+05        -0.46723E+08         0.00000E+00
    0.00000E+00         0.00000E+00        -0.15423E+08
 
   -0.20648E+08         0.10252E+06         0.00000E+00
    0.10252E+06        -0.46883E+08         0.00000E+00
    0.00000E+00         0.00000E+00        -0.15937E+08
 
   -0.20010E+08         0.19084E+06         0.00000E+00
    0.19084E+06        -0.47183E+08         0.00000E+00
    0.00000E+00         0.00000E+00        -0.16743E+08
 
   -0.19169E+08         0.42465E+06         0.00000E+00
    0.42465E+06        -0.47737E+08         0.00000E+00
    0.00000E+00         0.00000E+00        -0.18139E+08
 
TENSORS stresstot double 
   -0.36877E+08         0.57503E+04         0.00000E+00
    0.57503E+04        -0.59992E+08         0.00000E+00
    0.00000E+00         0.00000E+00        -0.42823E+08
 
   -0.36875E+08         0.15808E+05         0.00000E+00
    0.15808E+05        -0.59971E+08         0.00000E+00
    0.00000E+00         0.00000E+00        -0.42771E+08
 
   -0.36874E+08         0.24710E+05         0.00000E+00
    0.24710E+05        -0.59930E+08         0.00000E+00
    0.00000E+00         0.00000E+00        -0.42673E+08
 
   -0.36880E+08         0.32194E+05         0.00000E+00
    0.32194E+05        -0.59873E+08         0.00000E+00
    0.00000E+00         0.00000E+00        -0.42517E+08
 
   -0.36903E+08         0.37803E+05         0.00000E+00
    0.37803E+05        -0.59803E+08         0.00000E+00
    0.00000E+00         0.00000E+00        -0.42293E+08
 
   -0.36951E+08         0.41138E+05         0.00000E+00
    0.41138E+05        -0.59725E+08         0.00000E+00
    0.00000E+00         0.00000E+00        -0.42005E+08
 
   -0.37026E+08         0.42564E+05         0.00000E+00
    0.42564E+05        -0.59642E+08         0.00000E+00
    0.00000E+00         0.00000E+00        -0.41663E+08
 
   -0.37262E+08         0.42689E+05         0.00000E+00
    0.42689E+05        -0.59559E+08         0.00000E+00
    0.00000E+00         0.00000E+00        -0.41388E+08
 
   -0.37972E+08         0.43938E+05         0.00000E+00
    0.43938E+05        -0.59474E+08         0.00000E+00
    0.00000E+00         0.00000E+00        -0.41466E+08
 
   -0.38646E+08         0.48922E+05         0.00000E+00
    0.48922E+05        -0.59381E+08         0.00000E+00
    0.00000E+00         0.00000E+00        -0.41548E+08
 
   -0.39281E+08         0.57350E+05         0.00000E+00
    0.57350E+05        -0.59275E+08         0.00000E+00
    0.00000E+00         0.00000E+00        -0.41624E+08
 
   -0.39887E+08         0.68851E+05         0.00000E+00
    0.68851E+05        -0.59150E+08         0.00000E+00
    0.00000E+00         0.00000E+00        -0.41695E+08
 
   -0.40475E+08         0.83231E+05         0.00000E+00
    0.83231E+05        -0.58998E+08         0.00000E+00
    0.00000E+00         0.00000E+00        -0.41763E+08
 
   -0.41055E+08         0.10038E+06         0.00000E+00
    0.10038E+06        -0.58815E+08         0.00000E+00
    0.00000E+00         0.00000E+00        -0.41830E+08
 
   -0.41636E+08         0.12022E+06         0.00000E+00
    0.12022E+06        -0.58595E+08         0.00000E+00
    0.00000E+00         0.00000E+00        -0.41895E+08
 
   -0.36856E+08         0.17029E+05         0.00000E+00
    0.17029E+05        -0.59993E+08         0.00000E+00
    0.00000E+00         0.00000E+00        -0.42787E+08
 
   -0.36856E+08         0.47229E+05         0.00000E+00
    0.47229E+05        -0.59971E+08         0.00000E+00
    0.00000E+00         0.00000E+00        -0.42733E+08
 
   -0.36857E+08         0.73832E+05         0.00000E+00
    0.73832E+05        -0.59931E+08         0.00000E+00
    0.00000E+00         0.00000E+00        -0.42632E+08
 
   -0.36867E+08         0.95939E+05         0.00000E+00
    0.95939E+05        -0.59875E+08         0.00000E+00
    0.00000E+00         0.00000E+00        -0.42473E+08
 
   -0.36894E+08         0.11217E+06         0.00000E+00
    0.11217E+06        -0.59807E+08         0.00000E+00
    0.00000E+00         0.00000E+00        -0.42246E+08
 
   -0.36946E+08         0.12193E+06         0.00000E+00
    0.12193E+06        -0.59732E+08         0.00000E+00
    0.00000E+00         0.00000E+00        -0.41958E+08
 
   -0.37025E+08         0.12602E+06         0.00000E+00
    0.12602E+06        -0.59652E+08         0.00000E+00
    0.00000E+00         0.00000E+00        -0.41618E+08
 
   -0.37262E+08         0.12626E+06         0.00000E+00
    0.12626E+06        -0.59572E+08         0.00000E+00
    0.00000E+00         0.00000E+00        -0.41347E+08
 
   -0.37966E+08         0.13032E+06         0.00000E+00
    0.13032E+06        -0.59490E+08         0.00000E+00
    0.00000E+00         0.00000E+00        -0.41425E+08
 
   -0.38633E+08         0.14559E+06         0.00000E+00
    0.14559E+06        -0.59401E+08         0.00000E+00
    0.00000E+00         0.00000E+00        -0.41506E+08
 
   -0.39261E+08         0.17096E+06         0.00000E+00
    0.17096E+06        -0.59297E+08         0.00000E+00
    0.00000E+00         0.00000E+00        -0.41582E+08
 
   -0.39861E+08         0.20549E+06         0.00000E+00
    0.20549E+06        -0.59173E+08         0.00000E+00
    0.00000E+00         0.00000E+00        -0.41652E+08
 
   -0.40444E+08         0.24862E+06         0.00000E+00
    0.24862E+06        -0.59024E+08         0.00000E+00
    0.00000E+00         0.00000E+00        -0.41720E+08
 
   -0.41018E+08         0.30003E+06         0.00000E+00
    0.30003E+06        -0.58843E+08         0.00000E+00
    0.00000E+00         0.00000E+00        -0.41786E+08
 
   -0.41593E+08         0.35951E+06         0.00000E+00
    0.35951E+06        -0.58625E+08         0.00000E+00
    0.00000E+00         0.00000E+00        -0.41850E+08
 
   -0.36814E+08         0.27769E+05         0.00000E+00
    0.27769E+05        -0.59993E+08         0.00000E+00
    0.00000E+00         0.00000E+00        -0.42717E+08
 
   -0.36818E+08         0.77879E+05         0.00000E+00
    0.77879E+05        -0.59973E+08         0.00000E+00
    0.00000E+00         0.00000E+00        -0.42658E+08
 
   -0.36824E+08         0.12186E+06         0.00000E+00
    0.12186E+06        -0.59934E+08         0.00000E+00
    0.00000E+00         0.00000E+00        -0.42551E+08
 
   -0.36841E+08         0.15760E+06         0.00000E+00
    0.15760E+06        -0.59880E+08         0.00000E+00
    0.00000E+00         0.00000E+00        -0.42385E+08
 
   -0.36877E+08         0.18303E+06         0.00000E+00
    0.18303E+06        -0.59816E+08         0.00000E+00
    0.00000E+00         0.00000E+00        -0.42154E+08
 
   -0.36937E+08         0.19816E+06         0.00000E+00
    0.19816E+06        -0.59746E+08         0.00000E+00
    0.00000E+00         0.00000E+00        -0.41864E+08
 
   -0.37022E+08         0.20442E+06         0.00000E+00
    0.20442E+06        -0.59673E+08         0.00000E+00
    0.00000E+00         0.00000E+00        -0.41529E+08
 
   -0.37263E+08         0.20446E+06         0.00000E+00
    0.20446E+06        -0.59600E+08         0.00000E+00
    0.00000E+00         0.00000E+00        -0.41266E+08
 
   -0.37953E+08         0.21255E+06         0.00000E+00
    0.21255E+06        -0.59524E+08         0.00000E+00
    0.00000E+00         0.00000E+00        -0.41344E+08
 
   -0.38605E+08         0.23873E+06         0.00000E+00
    0.23873E+06        -0.59439E+08         0.00000E+00
    0.00000E+00         0.00000E+00        -0.41423E+08
 
   -0.39221E+08         0.28131E+06         0.00000E+00
    0.28131E+06        -0.59340E+08         0.00000E+00
    0.00000E+00         0.00000E+00        -0.41497E+08
 
   -0.39809E+08         0.33895E+06         0.00000E+00
    0.33895E+06        -0.59221E+08         0.00000E+00
    0.00000E+00         0.00000E+00        -0.41567E+08
 
   -0.40381E+08         0.41081E+06         0.00000E+00
    0.41081E+06        -0.59075E+08         0.00000E+00
    0.00000E+00         0.00000E+00        -0.41633E+08
 
   -0.40944E+08         0.49639E+06         0.00000E+00
    0.49639E+06        -0.58899E+08         0.00000E+00
    0.00000E+00         0.00000E+00        -0.41697E+08
 
   -0.41509E+08         0.59537E+06         0.00000E+00
    0.59537E+06        -0.58685E+08         0.00000E+00
    0.00000E+00         0.00000E+00        -0.41761E+08
 
   -0.36751E+08         0.37738E+05         0.00000E+00
    0.37738E+05        -0.59993E+08         0.00000E+00
    0.00000E+00         0.00000E+00        -0.42611E+08
 
   -0.36762E+08         0.10687E+06         0.00000E+00
    0.10687E+06        -0.59975E+08         0.00000E+00
    0.00000E+00         0.00000E+00        -0.42546E+08
 
   -0.36776E+08         0.16734E+06         0.00000E+00
    0.16734E+06        -0.59939E+08         0.00000E+00
    0.00000E+00         0.00000E+00        -0.42430E+08
 
   -0.36804E+08         0.21539E+06         0.00000E+00
    0.21539E+06        -0.59890E+08         0.00000E+00
    0.00000E+00         0.00000E+00        -0.42253E+08
 
   -0.36853E+08         0.24830E+06         0.00000E+00
    0.24830E+06        -0.59832E+08         0.00000E+00
    0.00000E+00         0.00000E+00        -0.42016E+08
 
   -0.36925E+08         0.26715E+06         0.00000E+00
    0.26715E+06        -0.59769E+08         0.00000E+00
    0.00000E+00         0.00000E+00        -0.41725E+08
 
   -0.37019E+08         0.27460E+06         0.00000E+00
    0.27460E+06        -0.59705E+08         0.00000E+00
    0.00000E+00         0.00000E+00        -0.41397E+08
 
   -0.37264E+08         0.27436E+06         0.00000E+00
    0.27436E+06        -0.59641E+08         0.00000E+00
    0.00000E+00         0.00000E+00        -0.41146E+08
 
   -0.37931E+08         0.28795E+06         0.00000E+00
    0.28795E+06        -0.59574E+08         0.00000E+00
    0.00000E+00         0.00000E+00        -0.41222E+08
 
   -0.38563E+08         0.32600E+06         0.00000E+00
    0.32600E+06        -0.59497E+08         0.00000E+00
    0.00000E+00         0.00000E+00        -0.41299E+08
 
   -0.39160E+08         0.38625E+06         0.00000E+00
    0.38625E+06        -0.59404E+08         0.00000E+00
    0.00000E+00         0.00000E+00        -0.41371E+08
 
   -0.39732E+08         0.46715E+06         0.00000E+00
    0.46715E+06        -0.59291E+08         0.00000E+00
    0.00000E+00         0.00000E+00        -0.41439E+08
 
   -0.40286E+08         0.56770E+06         0.00000E+00
    0.56770E+06        -0.59152E+08         0.00000E+00
    0.00000E+00         0.00000E+00        -0.41503E+08
 
   -0.40834E+08         0.68728E+06         0.00000E+00
    0.68728E+06        -0.58982E+08         0.00000E+00
    0.00000E+00         0.00000E+00        -0.41566E+08
 
   -0.41382E+08         0.82553E+06         0.00000E+00
    0.82553E+06        -0.58775E+08         0.00000E+00
    0.00000E+00         0.00000E+00        -0.41627E+08
 
   -0.36670E+08         0.46365E+05         0.00000E+00
    0.46365E+05        -0.59993E+08         0.00000E+00
    0.00000E+00         0.00000E+00        -0.42469E+08
 
   -0.36688E+08         0.13297E+06         0.00000E+00
    0.13297E+06        -0.59978E+08         0.00000E+00
    0.00000E+00         0.00000E+00        -0.42397E+08
 
   -0.36714E+08         0.20855E+06         0.00000E+00
    0.20855E+06        -0.59947E+08         0.00000E+00
    0.00000E+00         0.00000E+00        -0.42270E+08
 
   -0.36759E+08         0.26698E+06         0.00000E+00
    0.26698E+06        -0.59905E+08         0.00000E+00
    0.00000E+00         0.00000E+00        -0.42081E+08
 
   -0.36824E+08         0.30562E+06         0.00000E+00
    0.30562E+06        -0.59855E+08         0.00000E+00
    0.00000E+00         0.00000E+00        -0.41835E+08
 
   -0.36911E+08         0.32638E+06         0.00000E+00
    0.32638E+06        -0.59803E+08         0.00000E+00
    0.00000E+00         0.00000E+00        -0.41544E+08
 
   -0.37016E+08         0.33362E+06         0.00000E+00
    0.33362E+06        -0.59750E+08         0.00000E+00
    0.00000E+00         0.00000E+00        -0.41225E+08
 
   -0.37263E+08         0.33374E+06         0.00000E+00
    0.33374E+06        -0.59698E+08         0.00000E+00
    0.00000E+00         0.00000E+00        -0.40989E+08
 
   -0.37900E+08         0.35430E+06         0.00000E+00
    0.35430E+06        -0.59641E+08         0.00000E+00
    0.00000E+00         0.00000E+00        -0.41060E+08
 
   -0.38506E+08         0.40527E+06         0.00000E+00
    0.40527E+06        -0.59573E+08         0.00000E+00
    0.00000E+00         0.00000E+00        -0.41134E+08
 
   -0.39079E+08         0.48375E+06         0.00000E+00
    0.48375E+06        -0.59490E+08         0.00000E+00
    0.00000E+00         0.00000E+00        -0.41203E+08
 
   -0.39628E+08         0.58809E+06         0.00000E+00
    0.58809E+06        -0.59385E+08         0.00000E+00
    0.00000E+00         0.00000E+00        -0.41268E+08
 
   -0.40161E+08         0.71723E+06         0.00000E+00
    0.71723E+06        -0.59254E+08         0.00000E+00
    0.00000E+00         0.00000E+00        -0.41330E+08
 
   -0.40686E+08         0.87054E+06         0.00000E+00
    0.87054E+06        -0.59093E+08         0.00000E+00
    0.00000E+00         0.00000E+00        -0.41390E+08
 
   -0.41214E+08         0.10477E+07         0.00000E+00
    0.10477E+07        -0.58895E+08         0.00000E+00
    0.00000E+00         0.00000E+00        -0.41450E+08
 
   -0.36573E+08         0.53263E+05         0.00000E+00
    0.53263E+05        -0.59993E+08         0.00000E+00
    0.00000E+00         0.00000E+00        -0.42287E+08
 
   -0.36598E+08         0.15461E+06         0.00000E+00
    0.15461E+06        -0.59981E+08         0.00000E+00
    0.00000E+00         0.00000E+00        -0.42210E+08
 
   -0.36641E+08         0.24263E+06         0.00000E+00
    0.24263E+06        -0.59958E+08         0.00000E+00
    0.00000E+00         0.00000E+00        -0.42071E+08
 
   -0.36706E+08         0.30936E+06         0.00000E+00
    0.30936E+06        -0.59927E+08         0.00000E+00
    0.00000E+00         0.00000E+00        -0.41869E+08
 
   -0.36794E+08         0.35208E+06         0.00000E+00
    0.35208E+06        -0.59890E+08         0.00000E+00
    0.00000E+00         0.00000E+00        -0.41613E+08
 
   -0.36897E+08         0.37353E+06         0.00000E+00
    0.37353E+06        -0.59850E+08         0.00000E+00
    0.00000E+00         0.00000E+00        -0.41324E+08
 
   -0.37014E+08         0.37958E+06         0.00000E+00
    0.37958E+06        -0.59810E+08         0.00000E+00
    0.00000E+00         0.00000E+00        -0.41016E+08
 
   -0.37257E+08         0.38079E+06         0.00000E+00
    0.38079E+06        -0.59771E+08         0.00000E+00
    0.00000E+00         0.00000E+00        -0.40792E+08
 
   -0.37858E+08         0.40992E+06         0.00000E+00
    0.40992E+06        -0.59726E+08         0.00000E+00
    0.00000E+00         0.00000E+00        -0.40857E+08
 
   -0.38433E+08         0.47474E+06         0.00000E+00
    0.47474E+06        -0.59670E+08         0.00000E+00
    0.00000E+00         0.00000E+00        -0.40928E+08
 
   -0.38977E+08         0.57204E+06         0.00000E+00
    0.57204E+06        -0.59596E+08         0.00000E+00
    0.00000E+00         0.00000E+00        -0.40994E+08
 
   -0.39498E+08         0.69995E+06         0.00000E+00
    0.69995E+06        -0.59501E+08         0.00000E+00
    0.00000E+00         0.00000E+00        -0.41056E+08
 
   -0.40004E+08         0.85744E+06         0.00000E+00
    0.85744E+06        -0.59381E+08         0.00000E+00
    0.00000E+00         0.00000E+00        -0.41115E+08
 
   -0.40503E+08         0.10441E+07         0.00000E+00
    0.10441E+07        -0.59230E+08         0.00000E+00
    0.00000E+00         0.00000E+00        -0.41172E+08
 
   -0.41005E+08         0.12597E+07         0.00000E+00
    0.12597E+07        -0.59043E+08         0.00000E+00
    0.00000E+00         0.00000E+00        -0.41229E+08
 
   -0.36462E+08         0.58260E+05         0.00000E+00
    0.58260E+05        -0.59993E+08         0.00000E+00
    0.00000E+00         0.00000E+00        -0.42061E+08
 
   -0.36497E+08         0.16991E+06         0.00000E+00
    0.16991E+06        -0.59986E+08         0.00000E+00
    0.00000E+00         0.00000E+00        -0.41978E+08
 
   -0.36558E+08         0.26585E+06         0.00000E+00
    0.26585E+06        -0.59974E+08         0.00000E+00
    0.00000E+00         0.00000E+00        -0.41828E+08
 
   -0.36649E+08         0.33798E+06         0.00000E+00
    0.33798E+06        -0.59957E+08         0.00000E+00
    0.00000E+00         0.00000E+00        -0.41615E+08
 
   -0.36761E+08         0.38427E+06         0.00000E+00
    0.38427E+06        -0.59937E+08         0.00000E+00
    0.00000E+00         0.00000E+00        -0.41356E+08
 
   -0.36884E+08         0.40712E+06         0.00000E+00
    0.40712E+06        -0.59913E+08         0.00000E+00
    0.00000E+00         0.00000E+00        -0.41071E+08
 
   -0.37014E+08         0.41189E+06         0.00000E+00
    0.41189E+06        -0.59887E+08         0.00000E+00
    0.00000E+00         0.00000E+00        -0.40775E+08
 
   -0.37246E+08         0.41415E+06         0.00000E+00
    0.41415E+06        -0.59860E+08         0.00000E+00
    0.00000E+00         0.00000E+00        -0.40557E+08
 
   -0.37804E+08         0.45311E+06         0.00000E+00
    0.45311E+06        -0.59830E+08         0.00000E+00
    0.00000E+00         0.00000E+00        -0.40615E+08
 
   -0.38343E+08         0.53301E+06         0.00000E+00
    0.53301E+06        -0.59786E+08         0.00000E+00
    0.00000E+00         0.00000E+00        -0.40682E+08
 
   -0.38854E+08         0.64967E+06         0.00000E+00
    0.64967E+06        -0.59724E+08         0.00000E+00
    0.00000E+00         0.00000E+00        -0.40744E+08
 
   -0.39342E+08         0.80110E+06         0.00000E+00
    0.80110E+06        -0.59640E+08         0.00000E+00
    0.00000E+00         0.00000E+00        -0.40802E+08
 
   -0.39817E+08         0.98648E+06         0.00000E+00
    0.98648E+06        -0.59531E+08         0.00000E+00
    0.00000E+00         0.00000E+00        -0.40858E+08
 
   -0.40284E+08         0.12057E+07         0.00000E+00
    0.12057E+07        -0.59392E+08         0.00000E+00
    0.00000E+00         0.00000E+00        -0.40911E+08
 
   -0.40754E+08         0.14591E+07         0.00000E+00
    0.14591E+07        -0.59219E+08         0.00000E+00
    0.00000E+00         0.00000E+00        -0.40964E+08
 
   -0.36343E+08         0.60929E+05         0.00000E+00
    0.60929E+05        -0.59994E+08         0.00000E+00
    0.00000E+00         0.00000E+00        -0.41784E+08
 
   -0.36388E+08         0.17691E+06         0.00000E+00
    0.17691E+06        -0.59993E+08         0.00000E+00
    0.00000E+00         0.00000E+00        -0.41694E+08
 
   -0.36472E+08         0.27443E+06         0.00000E+00
    0.27443E+06        -0.59993E+08         0.00000E+00
    0.00000E+00         0.00000E+00        -0.41534E+08
 
   -0.36588E+08         0.34799E+06         0.00000E+00
    0.34799E+06        -0.59995E+08         0.00000E+00
    0.00000E+00         0.00000E+00        -0.41317E+08
 
   -0.36725E+08         0.39784E+06         0.00000E+00
    0.39784E+06        -0.59996E+08         0.00000E+00
    0.00000E+00         0.00000E+00        -0.41065E+08
 
   -0.36871E+08         0.42470E+06         0.00000E+00
    0.42470E+06        -0.59993E+08         0.00000E+00
    0.00000E+00         0.00000E+00        -0.40791E+08
 
   -0.37017E+08         0.43064E+06         0.00000E+00
    0.43064E+06        -0.59983E+08         0.00000E+00
    0.00000E+00         0.00000E+00        -0.40508E+08
 
   -0.37227E+08         0.43336E+06         0.00000E+00
    0.43336E+06        -0.59970E+08         0.00000E+00
    0.00000E+00         0.00000E+00        -0.40287E+08
 
   -0.37736E+08         0.48294E+06         0.00000E+00
    0.48294E+06        -0.59952E+08         0.00000E+00
    0.00000E+00         0.00000E+00        -0.40333E+08
 
   -0.38235E+08         0.57915E+06         0.00000E+00
    0.57915E+06        -0.59921E+08         0.00000E+00
    0.00000E+00         0.00000E+00        -0.40396E+08
 
   -0.38709E+08         0.71552E+06         0.00000E+00
    0.71552E+06        -0.59871E+08         0.00000E+00
    0.00000E+00         0.00000E+00        -0.40453E+08
 
   -0.39161E+08         0.89012E+06         0.00000E+00
    0.89012E+06        -0.59800E+08         0.00000E+00
    0.00000E+00         0.00000E+00        -0.40508E+08
 
   -0.39600E+08         0.11026E+07         0.00000E+00
    0.11026E+07        -0.59705E+08         0.00000E+00
    0.00000E+00         0.00000E+00        -0.40559E+08
 
   -0.40031E+08         0.13535E+07         0.00000E+00
    0.13535E+07        -0.59580E+08         0.00000E+00
    0.00000E+00         0.00000E+00        -0.40609E+08
 
   -0.40464E+08         0.16437E+07         0.00000E+00
    0.16437E+07        -0.59422E+08         0.00000E+00
    0.00000E+00         0.00000E+00        -0.40657E+08
 
   -0.36220E+08         0.60821E+05         0.00000E+00
    0.60821E+05        -0.59995E+08         0.00000E+00
    0.00000E+00         0.00000E+00        -0.41451E+08
 
   -0.36280E+08         0.17379E+06         0.00000E+00
    0.17379E+06        -0.60001E+08         0.00000E+00
    0.00000E+00         0.00000E+00        -0.41351E+08
 
   -0.36387E+08         0.26536E+06         0.00000E+00
    0.26536E+06        -0.60016E+08         0.00000E+00
    0.00000E+00         0.00000E+00        -0.41181E+08
 
   -0.36527E+08         0.33568E+06         0.00000E+00
    0.33568E+06        -0.60039E+08         0.00000E+00
    0.00000E+00         0.00000E+00        -0.40972E+08
 
   -0.36685E+08         0.38750E+06         0.00000E+00
    0.38750E+06        -0.60065E+08         0.00000E+00
    0.00000E+00         0.00000E+00        -0.40738E+08
 
   -0.36852E+08         0.42143E+06         0.00000E+00
    0.42143E+06        -0.60087E+08         0.00000E+00
    0.00000E+00         0.00000E+00        -0.40487E+08
 
   -0.37017E+08         0.43585E+06         0.00000E+00
    0.43585E+06        -0.60099E+08         0.00000E+00
    0.00000E+00         0.00000E+00        -0.40223E+08
 
   -0.37206E+08         0.43996E+06         0.00000E+00
    0.43996E+06        -0.60097E+08         0.00000E+00
    0.00000E+00         0.00000E+00        -0.39993E+08
 
   -0.37653E+08         0.49797E+06         0.00000E+00
    0.49797E+06        -0.60093E+08         0.00000E+00
    0.00000E+00         0.00000E+00        -0.40012E+08
 
   -0.38109E+08         0.61254E+06         0.00000E+00
    0.61254E+06        -0.60075E+08         0.00000E+00
    0.00000E+00         0.00000E+00        -0.40070E+08
 
   -0.38543E+08         0.76853E+06         0.00000E+00
    0.76853E+06        -0.60039E+08         0.00000E+00
    0.00000E+00         0.00000E+00        -0.40123E+08
 
   -0.38955E+08         0.96582E+06         0.00000E+00
    0.96582E+06        -0.59982E+08         0.00000E+00
    0.00000E+00         0.00000E+00        -0.40173E+08
 
   -0.39354E+08         0.12044E+07         0.00000E+00
    0.12044E+07        -0.59900E+08         0.00000E+00
    0.00000E+00         0.00000E+00        -0.40220E+08
 
   -0.39744E+08         0.14854E+07         0.00000E+00
    0.14854E+07        -0.59792E+08         0.00000E+00
    0.00000E+00         0.00000E+00        -0.40265E+08
 
   -0.40135E+08         0.18109E+07         0.00000E+00
    0.18109E+07        -0.59652E+08         0.00000E+00
    0.00000E+00         0.00000E+00        -0.40309E+08
 
   -0.36101E+08         0.57163E+05         0.00000E+00
    0.57163E+05        -0.59998E+08         0.00000E+00
    0.00000E+00         0.00000E+00        -0.41055E+08
 
   -0.36182E+08         0.15866E+06         0.00000E+00
    0.15866E+06        -0.60012E+08         0.00000E+00
    0.00000E+00         0.00000E+00        -0.40938E+08
 
   -0.36311E+08         0.23757E+06         0.00000E+00
    0.23757E+06        -0.60042E+08         0.00000E+00
    0.00000E+00         0.00000E+00        -0.40765E+08
 
   -0.36468E+08         0.29954E+06         0.00000E+00
    0.29954E+06        -0.60086E+08         0.00000E+00
    0.00000E+00         0.00000E+00        -0.40572E+08
 
   -0.36641E+08         0.34952E+06         0.00000E+00
    0.34952E+06        -0.60137E+08         0.00000E+00
    0.00000E+00         0.00000E+00        -0.40369E+08
 
   -0.36824E+08         0.39023E+06         0.00000E+00
    0.39023E+06        -0.60188E+08         0.00000E+00
    0.00000E+00         0.00000E+00        -0.40156E+08
 
   -0.37008E+08         0.42024E+06         0.00000E+00
    0.42024E+06        -0.60230E+08         0.00000E+00
    0.00000E+00         0.00000E+00        -0.39927E+08
 
   -0.37190E+08         0.43727E+06         0.00000E+00
    0.43727E+06        -0.60249E+08         0.00000E+00
    0.00000E+00         0.00000E+00        -0.39694E+08
 
   -0.37548E+08         0.49982E+06         0.00000E+00
    0.49982E+06        -0.60253E+08         0.00000E+00
    0.00000E+00         0.00000E+00        -0.39653E+08
 
   -0.37965E+08         0.63210E+06         0.00000E+00
    0.63210E+06        -0.60249E+08         0.00000E+00
    0.00000E+00         0.00000E+00        -0.39706E+08
 
   -0.38355E+08         0.80789E+06         0.00000E+00
    0.80789E+06        -0.60227E+08         0.00000E+00
    0.00000E+00         0.00000E+00        -0.39755E+08
 
   -0.38726E+08         0.10276E+07         0.00000E+00
    0.10276E+07        -0.60183E+08         0.00000E+00
    0.00000E+00         0.00000E+00        -0.39799E+08
 
   -0.39081E+08         0.12906E+07         0.00000E+00
    0.12906E+07        -0.60117E+08         0.00000E+00
    0.00000E+00         0.00000E+00        -0.39841E+08
 
   -0.39426E+08         0.15993E+07         0.00000E+00
    0.15993E+07        -0.60026E+08         0.00000E+00
    0.00000E+00         0.00000E+00        -0.39881E+08
 
   -0.39768E+08         0.19578E+07         0.00000E+00
    0.19578E+07        -0.59906E+08         0.00000E+00
    0.00000E+00         0.00000E+00        -0.39919E+08
 
   -0.35994E+08         0.48693E+05         0.00000E+00
    0.48693E+05        -0.60001E+08         0.00000E+00
    0.00000E+00         0.00000E+00        -0.40586E+08
 
   -0.36100E+08         0.13034E+06         0.00000E+00
    0.13034E+06        -0.60025E+08         0.00000E+00
    0.00000E+00         0.00000E+00        -0.40448E+08
 
   -0.36248E+08         0.19131E+06         0.00000E+00
    0.19131E+06        -0.60070E+08         0.00000E+00
    0.00000E+00         0.00000E+00        -0.40282E+08
 
   -0.36417E+08         0.24031E+06         0.00000E+00
    0.24031E+06        -0.60134E+08         0.00000E+00
    0.00000E+00         0.00000E+00        -0.40115E+08
 
   -0.36597E+08         0.28386E+06         0.00000E+00
    0.28386E+06        -0.60209E+08         0.00000E+00
    0.00000E+00         0.00000E+00        -0.39952E+08
 
   -0.36784E+08         0.32713E+06         0.00000E+00
    0.32713E+06        -0.60288E+08         0.00000E+00
    0.00000E+00         0.00000E+00        -0.39788E+08
 
   -0.36975E+08         0.37327E+06         0.00000E+00
    0.37327E+06        -0.60362E+08         0.00000E+00
    0.00000E+00         0.00000E+00        -0.39612E+08
 
   -0.37170E+08         0.41941E+06         0.00000E+00
    0.41941E+06        -0.60418E+08         0.00000E+00
    0.00000E+00         0.00000E+00        -0.39410E+08
 
   -0.37428E+08         0.49127E+06         0.00000E+00
    0.49127E+06        -0.60438E+08         0.00000E+00
    0.00000E+00         0.00000E+00        -0.39273E+08
 
   -0.37803E+08         0.63669E+06         0.00000E+00
    0.63669E+06        -0.60443E+08         0.00000E+00
    0.00000E+00         0.00000E+00        -0.39305E+08
 
   -0.38146E+08         0.83414E+06         0.00000E+00
    0.83414E+06        -0.60434E+08         0.00000E+00
    0.00000E+00         0.00000E+00        -0.39348E+08
 
   -0.38474E+08         0.10751E+07         0.00000E+00
    0.10751E+07        -0.60404E+08         0.00000E+00
    0.00000E+00         0.00000E+00        -0.39388E+08
 
   -0.38784E+08         0.13607E+07         0.00000E+00
    0.13607E+07        -0.60352E+08         0.00000E+00
    0.00000E+00         0.00000E+00        -0.39424E+08
 
   -0.39080E+08         0.16932E+07         0.00000E+00
    0.16932E+07        -0.60280E+08         0.00000E+00
    0.00000E+00         0.00000E+00        -0.39458E+08
 
   -0.39365E+08         0.20807E+07         0.00000E+00
    0.20807E+07        -0.60184E+08         0.00000E+00
    0.00000E+00         0.00000E+00        -0.39490E+08
 
   -0.35909E+08         0.34221E+05         0.00000E+00
    0.34221E+05        -0.60005E+08         0.00000E+00
    0.00000E+00         0.00000E+00        -0.40037E+08
 
   -0.36041E+08         0.88824E+05         0.00000E+00
    0.88824E+05        -0.60038E+08         0.00000E+00
    0.00000E+00         0.00000E+00        -0.39884E+08
 
   -0.36203E+08         0.12727E+06         0.00000E+00
    0.12727E+06        -0.60099E+08         0.00000E+00
    0.00000E+00         0.00000E+00        -0.39733E+08
 
   -0.36377E+08         0.15937E+06         0.00000E+00
    0.15937E+06        -0.60181E+08         0.00000E+00
    0.00000E+00         0.00000E+00        -0.39600E+08
 
   -0.36557E+08         0.19314E+06         0.00000E+00
    0.19314E+06        -0.60278E+08         0.00000E+00
    0.00000E+00         0.00000E+00        -0.39483E+08
 
   -0.36737E+08         0.23533E+06         0.00000E+00
    0.23533E+06        -0.60381E+08         0.00000E+00
    0.00000E+00         0.00000E+00        -0.39376E+08
 
   -0.36920E+08         0.29122E+06         0.00000E+00
    0.29122E+06        -0.60481E+08         0.00000E+00
    0.00000E+00         0.00000E+00        -0.39262E+08
 
   -0.37113E+08         0.36392E+06         0.00000E+00
    0.36392E+06        -0.60567E+08         0.00000E+00
    0.00000E+00         0.00000E+00        -0.39120E+08
 
   -0.37317E+08         0.46779E+06         0.00000E+00
    0.46779E+06        -0.60634E+08         0.00000E+00
    0.00000E+00         0.00000E+00        -0.38945E+08
 
   -0.37607E+08         0.63072E+06         0.00000E+00
    0.63072E+06        -0.60665E+08         0.00000E+00
    0.00000E+00         0.00000E+00        -0.38877E+08
 
   -0.37919E+08         0.84758E+06         0.00000E+00
    0.84758E+06        -0.60661E+08         0.00000E+00
    0.00000E+00         0.00000E+00        -0.38905E+08
 
   -0.38200E+08         0.11089E+07         0.00000E+00
    0.11089E+07        -0.60642E+08         0.00000E+00
    0.00000E+00         0.00000E+00        -0.38939E+08
 
   -0.38466E+08         0.14149E+07         0.00000E+00
    0.14149E+07        -0.60606E+08         0.00000E+00
    0.00000E+00         0.00000E+00        -0.38970E+08
 
   -0.38712E+08         0.17654E+07         0.00000E+00
    0.17654E+07        -0.60552E+08         0.00000E+00
    0.00000E+00         0.00000E+00        -0.38998E+08
 
   -0.38932E+08         0.21740E+07         0.00000E+00
    0.21740E+07        -0.60485E+08         0.00000E+00
    0.00000E+00         0.00000E+00        -0.39023E+08
 
   -0.35858E+08         0.13821E+05         0.00000E+00
    0.13821E+05        -0.60008E+08         0.00000E+00
    0.00000E+00         0.00000E+00        -0.39401E+08
 
   -0.36010E+08         0.34525E+05         0.00000E+00
    0.34525E+05        -0.60050E+08         0.00000E+00
    0.00000E+00         0.00000E+00        -0.39245E+08
 
   -0.36180E+08         0.45803E+05         0.00000E+00
    0.45803E+05        -0.60126E+08         0.00000E+00
    0.00000E+00         0.00000E+00        -0.39120E+08
 
   -0.36353E+08         0.58278E+05         0.00000E+00
    0.58278E+05        -0.60227E+08         0.00000E+00
    0.00000E+00         0.00000E+00        -0.39029E+08
 
   -0.36522E+08         0.81074E+05         0.00000E+00
    0.81074E+05        -0.60344E+08         0.00000E+00
    0.00000E+00         0.00000E+00        -0.38965E+08
 
   -0.36687E+08         0.12192E+06         0.00000E+00
    0.12192E+06        -0.60465E+08         0.00000E+00
    0.00000E+00         0.00000E+00        -0.38915E+08
 
   -0.36849E+08         0.18645E+06         0.00000E+00
    0.18645E+06        -0.60581E+08         0.00000E+00
    0.00000E+00         0.00000E+00        -0.38862E+08
 
   -0.37014E+08         0.27994E+06         0.00000E+00
    0.27994E+06        -0.60682E+08         0.00000E+00
    0.00000E+00         0.00000E+00        -0.38785E+08
 
   -0.37194E+08         0.40733E+06         0.00000E+00
    0.40733E+06        -0.60764E+08         0.00000E+00
    0.00000E+00         0.00000E+00        -0.38670E+08
 
   -0.37400E+08         0.59067E+06         0.00000E+00
    0.59067E+06        -0.60838E+08         0.00000E+00
    0.00000E+00         0.00000E+00        -0.38530E+08
 
   -0.37659E+08         0.84168E+06         0.00000E+00
    0.84168E+06        -0.60894E+08         0.00000E+00
    0.00000E+00         0.00000E+00        -0.38463E+08
 
   -0.37901E+08         0.11303E+07         0.00000E+00
    0.11303E+07        -0.60901E+08         0.00000E+00
    0.00000E+00         0.00000E+00        -0.38453E+08
 
   -0.38132E+08         0.14523E+07         0.00000E+00
    0.14523E+07        -0.60874E+08         0.00000E+00
    0.00000E+00         0.00000E+00        -0.38480E+08
 
   -0.38332E+08         0.18141E+07         0.00000E+00
    0.18141E+07        -0.60843E+08         0.00000E+00
    0.00000E+00         0.00000E+00        -0.38504E+08
 
   -0.38476E+08         0.22274E+07         0.00000E+00
    0.22274E+07        -0.60812E+08         0.00000E+00
    0.00000E+00         0.00000E+00        -0.38522E+08
 
   -0.35849E+08        -0.11391E+05         0.00000E+00
   -0.11391E+05        -0.60011E+08         0.00000E+00
    0.00000E+00         0.00000E+00        -0.38681E+08
 
   -0.36013E+08        -0.32078E+05         0.00000E+00
   -0.32078E+05        -0.60062E+08         0.00000E+00
    0.00000E+00         0.00000E+00        -0.38538E+08
 
   -0.36182E+08        -0.52442E+05         0.00000E+00
   -0.52442E+05        -0.60152E+08         0.00000E+00
    0.00000E+00         0.00000E+00        -0.38449E+08
 
   -0.36344E+08        -0.61199E+05         0.00000E+00
   -0.61199E+05        -0.60270E+08         0.00000E+00
    0.00000E+00         0.00000E+00        -0.38409E+08
 
   -0.36494E+08        -0.48058E+05         0.00000E+00
   -0.48058E+05        -0.60402E+08         0.00000E+00
    0.00000E+00         0.00000E+00        -0.38402E+08
 
   -0.36632E+08        -0.54591E+04         0.00000E+00
   -0.54591E+04        -0.60535E+08         0.00000E+00
    0.00000E+00         0.00000E+00        -0.38410E+08
 
   -0.36763E+08         0.70695E+05         0.00000E+00
    0.70695E+05        -0.60660E+08         0.00000E+00
    0.00000E+00         0.00000E+00        -0.38414E+08
 
   -0.36894E+08         0.18241E+06         0.00000E+00
    0.18241E+06        -0.60769E+08         0.00000E+00
    0.00000E+00         0.00000E+00        -0.38396E+08
 
   -0.37032E+08         0.33301E+06         0.00000E+00
    0.33301E+06        -0.60856E+08         0.00000E+00
    0.00000E+00         0.00000E+00        -0.38343E+08
 
   -0.37190E+08         0.52995E+06         0.00000E+00
    0.52995E+06        -0.60923E+08         0.00000E+00
    0.00000E+00         0.00000E+00        -0.38253E+08
 
   -0.37378E+08         0.78699E+06         0.00000E+00
    0.78699E+06        -0.60985E+08         0.00000E+00
    0.00000E+00         0.00000E+00        -0.38146E+08
 
   -0.37579E+08         0.11046E+07         0.00000E+00
    0.11046E+07        -0.61047E+08         0.00000E+00
    0.00000E+00         0.00000E+00        -0.38057E+08
 
   -0.37773E+08         0.14587E+07         0.00000E+00
    0.14587E+07        -0.61087E+08         0.00000E+00
    0.00000E+00         0.00000E+00        -0.38016E+08
 
   -0.37945E+08         0.18347E+07         0.00000E+00
    0.18347E+07        -0.61093E+08         0.00000E+00
    0.00000E+00         0.00000E+00        -0.38024E+08
 
   -0.38045E+08         0.22260E+07         0.00000E+00
    0.22260E+07        -0.61097E+08         0.00000E+00
    0.00000E+00         0.00000E+00        -0.38051E+08
 
   -0.35891E+08        -0.40699E+05         0.00000E+00
   -0.40699E+05        -0.60014E+08         0.00000E+00
    0.00000E+00         0.00000E+00        -0.37885E+08
 
   -0.36055E+08        -0.10995E+06         0.00000E+00
   -0.10995E+06        -0.60072E+08         0.00000E+00
    0.00000E+00         0.00000E+00        -0.37769E+08
 
   -0.36211E+08        -0.16631E+06         0.00000E+00
   -0.16631E+06        -0.60175E+08         0.00000E+00
    0.00000E+00         0.00000E+00        -0.37728E+08
 
   -0.36350E+08        -0.19609E+06         0.00000E+00
   -0.19609E+06        -0.60307E+08         0.00000E+00
    0.00000E+00         0.00000E+00        -0.37747E+08
 
   -0.36467E+08        -0.18869E+06         0.00000E+00
   -0.18869E+06        -0.60449E+08         0.00000E+00
    0.00000E+00         0.00000E+00        -0.37801E+08
 
   -0.36569E+08        -0.14016E+06         0.00000E+00
   -0.14016E+06        -0.60589E+08         0.00000E+00
    0.00000E+00         0.00000E+00        -0.37865E+08
 
   -0.36661E+08        -0.50059E+05         0.00000E+00
   -0.50059E+05        -0.60717E+08         0.00000E+00
    0.00000E+00         0.00000E+00        -0.37922E+08
 
   -0.36752E+08         0.81727E+05         0.00000E+00
    0.81727E+05        -0.60828E+08         0.00000E+00
    0.00000E+00         0.00000E+00        -0.37958E+08
 
   -0.36848E+08         0.25579E+06         0.00000E+00
    0.25579E+06        -0.60917E+08         0.00000E+00
    0.00000E+00         0.00000E+00        -0.37960E+08
 
   -0.36958E+08         0.47443E+06         0.00000E+00
    0.47443E+06        -0.60982E+08         0.00000E+00
    0.00000E+00         0.00000E+00        -0.37925E+08
 
   -0.37088E+08         0.74390E+06         0.00000E+00
    0.74390E+06        -0.61025E+08         0.00000E+00
    0.00000E+00         0.00000E+00        -0.37858E+08
 
   -0.37239E+08         0.10671E+07         0.00000E+00
    0.10671E+07        -0.61058E+08         0.00000E+00
    0.00000E+00         0.00000E+00        -0.37783E+08
 
   -0.37400E+08         0.14323E+07         0.00000E+00
    0.14323E+07        -0.61085E+08         0.00000E+00
    0.00000E+00         0.00000E+00        -0.37730E+08
 
   -0.37554E+08         0.18200E+07         0.00000E+00
    0.18200E+07        -0.61108E+08         0.00000E+00
    0.00000E+00         0.00000E+00        -0.37717E+08
 
   -0.37699E+08         0.21896E+07         0.00000E+00
    0.21896E+07        -0.61135E+08         0.00000E+00
    0.00000E+00         0.00000E+00        -0.37747E+08
 
   -0.35991E+08        -0.72495E+05         0.00000E+00
   -0.72495E+05        -0.60016E+08         0.00000E+00
    0.00000E+00         0.00000E+00        -0.37020E+08
 
   -0.36142E+08        -0.19920E+06         0.00000E+00
   -0.19920E+06        -0.60080E+08         0.00000E+00
    0.00000E+00         0.00000E+00        -0.36945E+08
 
   -0.36270E+08        -0.29474E+06         0.00000E+00
   -0.29474E+06        -0.60198E+08         0.00000E+00
    0.00000E+00         0.00000E+00        -0.36969E+08
 
   -0.36367E+08        -0.34059E+06         0.00000E+00
   -0.34059E+06        -0.60338E+08         0.00000E+00
    0.00000E+00         0.00000E+00        -0.37054E+08
 
   -0.36438E+08        -0.33368E+06         0.00000E+00
   -0.33368E+06        -0.60482E+08         0.00000E+00
    0.00000E+00         0.00000E+00        -0.37166E+08
 
   -0.36494E+08        -0.27673E+06         0.00000E+00
   -0.27673E+06        -0.60621E+08         0.00000E+00
    0.00000E+00         0.00000E+00        -0.37283E+08
 
   -0.36541E+08        -0.17173E+06         0.00000E+00
   -0.17173E+06        -0.60750E+08         0.00000E+00
    0.00000E+00         0.00000E+00        -0.37390E+08
 
   -0.36588E+08        -0.19733E+05         0.00000E+00
   -0.19733E+05        -0.60861E+08         0.00000E+00
    0.00000E+00         0.00000E+00        -0.37476E+08
 
   -0.36639E+08         0.17851E+06         0.00000E+00
    0.17851E+06        -0.60950E+08         0.00000E+00
    0.00000E+00         0.00000E+00        -0.37531E+08
 
   -0.36703E+08         0.42272E+06         0.00000E+00
    0.42272E+06        -0.61015E+08         0.00000E+00
    0.00000E+00         0.00000E+00        -0.37549E+08
 
   -0.36785E+08         0.71265E+06         0.00000E+00
    0.71265E+06        -0.61056E+08         0.00000E+00
    0.00000E+00         0.00000E+00        -0.37534E+08
 
   -0.36892E+08         0.10459E+07         0.00000E+00
    0.10459E+07        -0.61080E+08         0.00000E+00
    0.00000E+00         0.00000E+00        -0.37498E+08
 
   -0.37024E+08         0.14139E+07         0.00000E+00
    0.14139E+07        -0.61097E+08         0.00000E+00
    0.00000E+00         0.00000E+00        -0.37460E+08
 
   -0.37176E+08         0.17961E+07         0.00000E+00
    0.17961E+07        -0.61115E+08         0.00000E+00
    0.00000E+00         0.00000E+00        -0.37437E+08
 
   -0.37342E+08         0.21690E+07         0.00000E+00
    0.21690E+07        -0.61131E+08         0.00000E+00
    0.00000E+00         0.00000E+00        -0.37429E+08
 
   -0.36157E+08        -0.10560E+06         0.00000E+00
   -0.10560E+06        -0.60020E+08         0.00000E+00
    0.00000E+00         0.00000E+00        -0.36102E+08
 
   -0.36283E+08        -0.30337E+06         0.00000E+00
   -0.30337E+06        -0.60097E+08         0.00000E+00
    0.00000E+00         0.00000E+00        -0.36085E+08
 
   -0.36354E+08        -0.43208E+06         0.00000E+00
   -0.43208E+06        -0.60220E+08         0.00000E+00
    0.00000E+00         0.00000E+00        -0.36184E+08
 
   -0.36388E+08        -0.48509E+06         0.00000E+00
   -0.48509E+06        -0.60356E+08         0.00000E+00
    0.00000E+00         0.00000E+00        -0.36332E+08
 
   -0.36404E+08        -0.47637E+06         0.00000E+00
   -0.47637E+06        -0.60496E+08         0.00000E+00
    0.00000E+00         0.00000E+00        -0.36497E+08
 
   -0.36407E+08        -0.41121E+06         0.00000E+00
   -0.41121E+06        -0.60631E+08         0.00000E+00
    0.00000E+00         0.00000E+00        -0.36662E+08
 
   -0.36404E+08        -0.29221E+06         0.00000E+00
   -0.29221E+06        -0.60757E+08         0.00000E+00
    0.00000E+00         0.00000E+00        -0.36818E+08
 
   -0.36401E+08        -0.12110E+06         0.00000E+00
   -0.12110E+06        -0.60867E+08         0.00000E+00
    0.00000E+00         0.00000E+00        -0.36953E+08
 
   -0.36405E+08         0.10015E+06         0.00000E+00
    0.10015E+06        -0.60957E+08         0.00000E+00
    0.00000E+00         0.00000E+00        -0.37059E+08
 
   -0.36424E+08         0.36852E+06         0.00000E+00
    0.36852E+06        -0.61025E+08         0.00000E+00
    0.00000E+00         0.00000E+00        -0.37132E+08
 
   -0.36465E+08         0.67945E+06         0.00000E+00
    0.67945E+06        -0.61071E+08         0.00000E+00
    0.00000E+00         0.00000E+00        -0.37171E+08
 
   -0.36537E+08         0.10265E+07         0.00000E+00
    0.10265E+07        -0.61099E+08         0.00000E+00
    0.00000E+00         0.00000E+00        -0.37179E+08
 
   -0.36648E+08         0.13998E+07         0.00000E+00
    0.13998E+07        -0.61117E+08         0.00000E+00
    0.00000E+00         0.00000E+00        -0.37164E+08
 
   -0.36796E+08         0.17859E+07         0.00000E+00
    0.17859E+07        -0.61126E+08         0.00000E+00
    0.00000E+00         0.00000E+00        -0.37134E+08
 
   -0.36974E+08         0.21693E+07         0.00000E+00
    0.21693E+07        -0.61125E+08         0.00000E+00
    0.00000E+00         0.00000E+00        -0.37092E+08
 
   -0.36403E+08        -0.16022E+06         0.00000E+00
   -0.16022E+06        -0.60073E+08         0.00000E+00
    0.00000E+00         0.00000E+00        -0.35199E+08
 
   -0.36470E+08        -0.40887E+06         0.00000E+00
   -0.40887E+06        -0.60141E+08         0.00000E+00
    0.00000E+00         0.00000E+00        -0.35232E+08
 
   -0.36449E+08        -0.56073E+06         0.00000E+00
   -0.56073E+06        -0.60228E+08         0.00000E+00
    0.00000E+00         0.00000E+00        -0.35376E+08
 
   -0.36412E+08        -0.62183E+06         0.00000E+00
   -0.62183E+06        -0.60355E+08         0.00000E+00
    0.00000E+00         0.00000E+00        -0.35579E+08
 
   -0.36364E+08        -0.61272E+06         0.00000E+00
   -0.61272E+06        -0.60487E+08         0.00000E+00
    0.00000E+00         0.00000E+00        -0.35792E+08
 
   -0.36310E+08        -0.54138E+06         0.00000E+00
   -0.54138E+06        -0.60617E+08         0.00000E+00
    0.00000E+00         0.00000E+00        -0.36003E+08
 
   -0.36251E+08        -0.41042E+06         0.00000E+00
   -0.41042E+06        -0.60739E+08         0.00000E+00
    0.00000E+00         0.00000E+00        -0.36205E+08
 
   -0.36195E+08        -0.22238E+06         0.00000E+00
   -0.22238E+06        -0.60847E+08         0.00000E+00
    0.00000E+00         0.00000E+00        -0.36389E+08
 
   -0.36149E+08         0.18950E+05         0.00000E+00
    0.18950E+05        -0.60938E+08         0.00000E+00
    0.00000E+00         0.00000E+00        -0.36546E+08
 
   -0.36123E+08         0.30827E+06         0.00000E+00
    0.30827E+06        -0.61011E+08         0.00000E+00
    0.00000E+00         0.00000E+00        -0.36672E+08
 
   -0.36127E+08         0.63861E+06         0.00000E+00
    0.63861E+06        -0.61064E+08         0.00000E+00
    0.00000E+00         0.00000E+00        -0.36762E+08
 
   -0.36171E+08         0.10015E+07         0.00000E+00
    0.10015E+07        -0.61101E+08         0.00000E+00
    0.00000E+00         0.00000E+00        -0.36814E+08
 
   -0.36262E+08         0.13880E+07         0.00000E+00
    0.13880E+07        -0.61122E+08         0.00000E+00
    0.00000E+00         0.00000E+00        -0.36825E+08
 
   -0.36404E+08         0.17874E+07         0.00000E+00
    0.17874E+07        -0.61127E+08         0.00000E+00
    0.00000E+00         0.00000E+00        -0.36798E+08
 
   -0.36592E+08         0.21862E+07         0.00000E+00
    0.21862E+07        -0.61114E+08         0.00000E+00
    0.00000E+00         0.00000E+00        -0.36736E+08
 
   -0.36740E+08        -0.20667E+06         0.00000E+00
   -0.20667E+06        -0.60029E+08         0.00000E+00
    0.00000E+00         0.00000E+00        -0.34495E+08
 
   -0.36699E+08        -0.51096E+06         0.00000E+00
   -0.51096E+06        -0.60101E+08         0.00000E+00
    0.00000E+00         0.00000E+00        -0.34503E+08
 
   -0.36547E+08        -0.68907E+06         0.00000E+00
   -0.68907E+06        -0.60213E+08         0.00000E+00
    0.00000E+00         0.00000E+00        -0.34566E+08
 
   -0.36435E+08        -0.75281E+06         0.00000E+00
   -0.75281E+06        -0.60326E+08         0.00000E+00
    0.00000E+00         0.00000E+00        -0.34790E+08
 
   -0.36322E+08        -0.74243E+06         0.00000E+00
   -0.74243E+06        -0.60453E+08         0.00000E+00
    0.00000E+00         0.00000E+00        -0.35050E+08
 
   -0.36204E+08        -0.66645E+06         0.00000E+00
   -0.66645E+06        -0.60578E+08         0.00000E+00
    0.00000E+00         0.00000E+00        -0.35307E+08
 
   -0.36084E+08        -0.52533E+06         0.00000E+00
   -0.52533E+06        -0.60694E+08         0.00000E+00
    0.00000E+00         0.00000E+00        -0.35553E+08
 
   -0.35971E+08        -0.32316E+06         0.00000E+00
   -0.32316E+06        -0.60800E+08         0.00000E+00
    0.00000E+00         0.00000E+00        -0.35783E+08
 
   -0.35874E+08        -0.65273E+05         0.00000E+00
   -0.65273E+05        -0.60891E+08         0.00000E+00
    0.00000E+00         0.00000E+00        -0.35988E+08
 
   -0.35804E+08         0.24132E+06         0.00000E+00
    0.24132E+06        -0.60968E+08         0.00000E+00
    0.00000E+00         0.00000E+00        -0.36162E+08
 
   -0.35771E+08         0.58899E+06         0.00000E+00
    0.58899E+06        -0.61029E+08         0.00000E+00
    0.00000E+00         0.00000E+00        -0.36299E+08
 
   -0.35787E+08         0.96950E+06         0.00000E+00
    0.96950E+06        -0.61074E+08         0.00000E+00
    0.00000E+00         0.00000E+00        -0.36392E+08
 
   -0.35860E+08         0.13744E+07         0.00000E+00
    0.13744E+07        -0.61100E+08         0.00000E+00
    0.00000E+00         0.00000E+00        -0.36435E+08
 
   -0.35995E+08         0.17935E+07         0.00000E+00
    0.17935E+07        -0.61107E+08         0.00000E+00
    0.00000E+00         0.00000E+00        -0.36422E+08
 
   -0.36192E+08         0.22132E+07         0.00000E+00
    0.22132E+07        -0.61091E+08         0.00000E+00
    0.00000E+00         0.00000E+00        -0.36354E+08
 
   -0.37146E+08        -0.24043E+06         0.00000E+00
   -0.24043E+06        -0.60010E+08         0.00000E+00
    0.00000E+00         0.00000E+00        -0.33846E+08
 
   -0.36967E+08        -0.59241E+06         0.00000E+00
   -0.59241E+06        -0.60061E+08         0.00000E+00
    0.00000E+00         0.00000E+00        -0.33824E+08
 
   -0.36676E+08        -0.80620E+06         0.00000E+00
   -0.80620E+06        -0.60165E+08         0.00000E+00
    0.00000E+00         0.00000E+00        -0.33809E+08
 
   -0.36449E+08        -0.88382E+06         0.00000E+00
   -0.88382E+06        -0.60274E+08         0.00000E+00
    0.00000E+00         0.00000E+00        -0.33983E+08
 
   -0.36277E+08        -0.86827E+06         0.00000E+00
   -0.86827E+06        -0.60398E+08         0.00000E+00
    0.00000E+00         0.00000E+00        -0.34279E+08
 
   -0.36091E+08        -0.78539E+06         0.00000E+00
   -0.78539E+06        -0.60515E+08         0.00000E+00
    0.00000E+00         0.00000E+00        -0.34575E+08
 
   -0.35907E+08        -0.63511E+06         0.00000E+00
   -0.63511E+06        -0.60624E+08         0.00000E+00
    0.00000E+00         0.00000E+00        -0.34862E+08
 
   -0.35734E+08        -0.42145E+06         0.00000E+00
   -0.42145E+06        -0.60724E+08         0.00000E+00
    0.00000E+00         0.00000E+00        -0.35131E+08
 
   -0.35584E+08        -0.15084E+06         0.00000E+00
   -0.15084E+06        -0.60813E+08         0.00000E+00
    0.00000E+00         0.00000E+00        -0.35378E+08
 
   -0.35468E+08         0.16949E+06         0.00000E+00
    0.16949E+06        -0.60891E+08         0.00000E+00
    0.00000E+00         0.00000E+00        -0.35594E+08
 
   -0.35398E+08         0.53198E+06         0.00000E+00
    0.53198E+06        -0.60957E+08         0.00000E+00
    0.00000E+00         0.00000E+00        -0.35774E+08
 
   -0.35384E+08         0.92955E+06         0.00000E+00
    0.92955E+06        -0.61009E+08         0.00000E+00
    0.00000E+00         0.00000E+00        -0.35908E+08
 
   -0.35437E+08         0.13544E+07         0.00000E+00
    0.13544E+07        -0.61044E+08         0.00000E+00
    0.00000E+00         0.00000E+00        -0.35986E+08
 
   -0.35563E+08         0.17969E+07         0.00000E+00
    0.17969E+07        -0.61058E+08         0.00000E+00
    0.00000E+00         0.00000E+00        -0.35998E+08
 
   -0.35766E+08         0.22428E+07         0.00000E+00
    0.22428E+07        -0.61046E+08         0.00000E+00
    0.00000E+00         0.00000E+00        -0.35938E+08
 
   -0.37606E+08        -0.26250E+06         0.00000E+00
   -0.26250E+06        -0.60009E+08         0.00000E+00
    0.00000E+00         0.00000E+00        -0.33190E+08
 
   -0.37266E+08        -0.65908E+06         0.00000E+00
   -0.65908E+06        -0.60049E+08         0.00000E+00
    0.00000E+00         0.00000E+00        -0.33135E+08
 
   -0.36841E+08        -0.90376E+06         0.00000E+00
   -0.90376E+06        -0.60124E+08         0.00000E+00
    0.00000E+00         0.00000E+00        -0.33074E+08
 
   -0.36470E+08        -0.10006E+07         0.00000E+00
   -0.10006E+07        -0.60222E+08         0.00000E+00
    0.00000E+00         0.00000E+00        -0.33173E+08
 
   -0.36224E+08        -0.98475E+06         0.00000E+00
   -0.98475E+06        -0.60326E+08         0.00000E+00
    0.00000E+00         0.00000E+00        -0.33491E+08
 
   -0.35970E+08        -0.89491E+06         0.00000E+00
   -0.89491E+06        -0.60431E+08         0.00000E+00
    0.00000E+00         0.00000E+00        -0.33816E+08
 
   -0.35719E+08        -0.73620E+06         0.00000E+00
   -0.73620E+06        -0.60528E+08         0.00000E+00
    0.00000E+00         0.00000E+00        -0.34132E+08
 
   -0.35486E+08        -0.51355E+06         0.00000E+00
   -0.51355E+06        -0.60617E+08         0.00000E+00
    0.00000E+00         0.00000E+00        -0.34432E+08
 
   -0.35282E+08        -0.23376E+06         0.00000E+00
   -0.23376E+06        -0.60699E+08         0.00000E+00
    0.00000E+00         0.00000E+00        -0.34711E+08
 
   -0.35120E+08         0.96052E+05         0.00000E+00
    0.96052E+05        -0.60774E+08         0.00000E+00
    0.00000E+00         0.00000E+00        -0.34962E+08
 
   -0.35010E+08         0.46952E+06         0.00000E+00
    0.46952E+06        -0.60841E+08         0.00000E+00
    0.00000E+00         0.00000E+00        -0.35180E+08
 
   -0.34963E+08         0.88092E+06         0.00000E+00
    0.88092E+06        -0.60900E+08         0.00000E+00
    0.00000E+00         0.00000E+00        -0.35354E+08
 
   -0.34992E+08         0.13242E+07         0.00000E+00
    0.13242E+07        -0.60946E+08         0.00000E+00
    0.00000E+00         0.00000E+00        -0.35472E+08
 
   -0.35105E+08         0.17907E+07         0.00000E+00
    0.17907E+07        -0.60972E+08         0.00000E+00
    0.00000E+00         0.00000E+00        -0.35520E+08
 
   -0.35312E+08         0.22666E+07         0.00000E+00
    0.22666E+07        -0.60972E+08         0.00000E+00
    0.00000E+00         0.00000E+00        -0.35482E+08
 
   -0.38106E+08        -0.28165E+06         0.00000E+00
   -0.28165E+06        -0.60008E+08         0.00000E+00
    0.00000E+00         0.00000E+00        -0.32522E+08
 
   -0.37598E+08        -0.71104E+06         0.00000E+00
   -0.71104E+06        -0.60040E+08         0.00000E+00
    0.00000E+00         0.00000E+00        -0.32432E+08
 
   -0.37026E+08        -0.97753E+06         0.00000E+00
   -0.97753E+06        -0.60094E+08         0.00000E+00
    0.00000E+00         0.00000E+00        -0.32339E+08
 
   -0.36504E+08        -0.10931E+07         0.00000E+00
   -0.10931E+07        -0.60168E+08         0.00000E+00
    0.00000E+00         0.00000E+00        -0.32374E+08
 
   -0.36169E+08        -0.10819E+07         0.00000E+00
   -0.10819E+07        -0.60247E+08         0.00000E+00
    0.00000E+00         0.00000E+00        -0.32693E+08
 
   -0.35842E+08        -0.98773E+06         0.00000E+00
   -0.98773E+06        -0.60329E+08         0.00000E+00
    0.00000E+00         0.00000E+00        -0.33033E+08
 
   -0.35524E+08        -0.82225E+06         0.00000E+00
   -0.82225E+06        -0.60406E+08         0.00000E+00
    0.00000E+00         0.00000E+00        -0.33365E+08
 
   -0.35230E+08        -0.59349E+06         0.00000E+00
   -0.59349E+06        -0.60477E+08         0.00000E+00
    0.00000E+00         0.00000E+00        -0.33683E+08
 
   -0.34973E+08        -0.30889E+06         0.00000E+00
   -0.30889E+06        -0.60545E+08         0.00000E+00
    0.00000E+00         0.00000E+00        -0.33983E+08
 
   -0.34764E+08         0.25167E+05         0.00000E+00
    0.25167E+05        -0.60613E+08         0.00000E+00
    0.00000E+00         0.00000E+00        -0.34260E+08
 
   -0.34612E+08         0.40372E+06         0.00000E+00
    0.40372E+06        -0.60679E+08         0.00000E+00
    0.00000E+00         0.00000E+00        -0.34509E+08
 
   -0.34529E+08         0.82321E+06         0.00000E+00
    0.82321E+06        -0.60743E+08         0.00000E+00
    0.00000E+00         0.00000E+00        -0.34723E+08
 
   -0.34526E+08         0.12802E+07         0.00000E+00
    0.12802E+07        -0.60800E+08         0.00000E+00
    0.00000E+00         0.00000E+00        -0.34887E+08
 
   -0.34619E+08         0.17686E+07         0.00000E+00
    0.17686E+07        -0.60844E+08         0.00000E+00
    0.00000E+00         0.00000E+00        -0.34982E+08
 
   -0.34823E+08         0.22758E+07         0.00000E+00
    0.22758E+07        -0.60864E+08         0.00000E+00
    0.00000E+00         0.00000E+00        -0.34982E+08
 
   -0.38639E+08        -0.29737E+06         0.00000E+00
   -0.29737E+06        -0.60007E+08         0.00000E+00
    0.00000E+00         0.00000E+00        -0.31844E+08
 
   -0.37952E+08        -0.75030E+06         0.00000E+00
   -0.75030E+06        -0.60031E+08         0.00000E+00
    0.00000E+00         0.00000E+00        -0.31717E+08
 
   -0.37225E+08        -0.10308E+07         0.00000E+00
   -0.10308E+07        -0.60069E+08         0.00000E+00
    0.00000E+00         0.00000E+00        -0.31591E+08
 
   -0.36551E+08        -0.11562E+07         0.00000E+00
   -0.11562E+07        -0.60117E+08         0.00000E+00
    0.00000E+00         0.00000E+00        -0.31573E+08
 
   -0.36115E+08        -0.11502E+07         0.00000E+00
   -0.11502E+07        -0.60164E+08         0.00000E+00
    0.00000E+00         0.00000E+00        -0.31885E+08
 
   -0.35709E+08        -0.10534E+07         0.00000E+00
   -0.10534E+07        -0.60213E+08         0.00000E+00
    0.00000E+00         0.00000E+00        -0.32228E+08
 
   -0.35324E+08        -0.88390E+06         0.00000E+00
   -0.88390E+06        -0.60258E+08         0.00000E+00
    0.00000E+00         0.00000E+00        -0.32561E+08
 
   -0.34972E+08        -0.65334E+06         0.00000E+00
   -0.65334E+06        -0.60303E+08         0.00000E+00
    0.00000E+00         0.00000E+00        -0.32881E+08
 
   -0.34663E+08        -0.37001E+06         0.00000E+00
   -0.37001E+06        -0.60350E+08         0.00000E+00
    0.00000E+00         0.00000E+00        -0.33188E+08
 
   -0.34407E+08        -0.39058E+05         0.00000E+00
   -0.39058E+05        -0.60404E+08         0.00000E+00
    0.00000E+00         0.00000E+00        -0.33481E+08
 
   -0.34212E+08         0.33679E+06         0.00000E+00
    0.33679E+06        -0.60466E+08         0.00000E+00
    0.00000E+00         0.00000E+00        -0.33757E+08
 
   -0.34086E+08         0.75639E+06         0.00000E+00
    0.75639E+06        -0.60534E+08         0.00000E+00
    0.00000E+00         0.00000E+00        -0.34009E+08
 
   -0.34045E+08         0.12194E+07         0.00000E+00
    0.12194E+07        -0.60605E+08         0.00000E+00
    0.00000E+00         0.00000E+00        -0.34225E+08
 
   -0.34107E+08         0.17241E+07         0.00000E+00
    0.17241E+07        -0.60671E+08         0.00000E+00
    0.00000E+00         0.00000E+00        -0.34378E+08
 
   -0.34300E+08         0.22612E+07         0.00000E+00
    0.22612E+07        -0.60717E+08         0.00000E+00
    0.00000E+00         0.00000E+00        -0.34432E+08
 
   -0.39198E+08        -0.31011E+06         0.00000E+00
   -0.31011E+06        -0.60005E+08         0.00000E+00
    0.00000E+00         0.00000E+00        -0.31156E+08
 
   -0.38321E+08        -0.77850E+06         0.00000E+00
   -0.77850E+06        -0.60023E+08         0.00000E+00
    0.00000E+00         0.00000E+00        -0.30990E+08
 
   -0.37429E+08        -0.10629E+07         0.00000E+00
   -0.10629E+07        -0.60045E+08         0.00000E+00
    0.00000E+00         0.00000E+00        -0.30829E+08
 
   -0.36604E+08        -0.11876E+07         0.00000E+00
   -0.11876E+07        -0.60064E+08         0.00000E+00
    0.00000E+00         0.00000E+00        -0.30763E+08
 
   -0.36060E+08        -0.11810E+07         0.00000E+00
   -0.11810E+07        -0.60074E+08         0.00000E+00
    0.00000E+00         0.00000E+00        -0.31066E+08
 
   -0.35574E+08        -0.10812E+07         0.00000E+00
   -0.10812E+07        -0.60080E+08         0.00000E+00
    0.00000E+00         0.00000E+00        -0.31399E+08
 
   -0.35123E+08        -0.91052E+06         0.00000E+00
   -0.91052E+06        -0.60084E+08         0.00000E+00
    0.00000E+00         0.00000E+00        -0.31717E+08
 
   -0.34717E+08        -0.68403E+06         0.00000E+00
   -0.68403E+06        -0.60091E+08         0.00000E+00
    0.00000E+00         0.00000E+00        -0.32022E+08
 
   -0.34360E+08        -0.41041E+06         0.00000E+00
   -0.41041E+06        -0.60110E+08         0.00000E+00
    0.00000E+00         0.00000E+00        -0.32322E+08
 
   -0.34058E+08        -0.92519E+05         0.00000E+00
   -0.92519E+05        -0.60146E+08         0.00000E+00
    0.00000E+00         0.00000E+00        -0.32620E+08
 
   -0.33818E+08         0.27028E+06         0.00000E+00
    0.27028E+06        -0.60201E+08         0.00000E+00
    0.00000E+00         0.00000E+00        -0.32917E+08
 
   -0.33646E+08         0.67996E+06         0.00000E+00
    0.67996E+06        -0.60274E+08         0.00000E+00
    0.00000E+00         0.00000E+00        -0.33207E+08
 
   -0.33557E+08         0.11392E+07         0.00000E+00
    0.11392E+07        -0.60359E+08         0.00000E+00
    0.00000E+00         0.00000E+00        -0.33478E+08
 
   -0.33575E+08         0.16512E+07         0.00000E+00
    0.16512E+07        -0.60450E+08         0.00000E+00
    0.00000E+00         0.00000E+00        -0.33702E+08
 
   -0.33742E+08         0.22146E+07         0.00000E+00
    0.22146E+07        -0.60531E+08         0.00000E+00
    0.00000E+00         0.00000E+00        -0.33829E+08
 
   -0.39775E+08        -0.32043E+06         0.00000E+00
   -0.32043E+06        -0.60004E+08         0.00000E+00
    0.00000E+00         0.00000E+00        -0.30460E+08
 
   -0.38693E+08        -0.79485E+06         0.00000E+00
   -0.79485E+06        -0.60014E+08         0.00000E+00
    0.00000E+00         0.00000E+00        -0.30253E+08
 
   -0.37626E+08        -0.10705E+07         0.00000E+00
   -0.10705E+07        -0.60016E+08         0.00000E+00
    0.00000E+00         0.00000E+00        -0.30053E+08
 
   -0.36653E+08        -0.11826E+07         0.00000E+00
   -0.11826E+07        -0.60001E+08         0.00000E+00
    0.00000E+00         0.00000E+00        -0.29944E+08
 
   -0.36001E+08        -0.11671E+07         0.00000E+00
   -0.11671E+07        -0.59966E+08         0.00000E+00
    0.00000E+00         0.00000E+00        -0.30228E+08
 
   -0.35436E+08        -0.10616E+07         0.00000E+00
   -0.10616E+07        -0.59922E+08         0.00000E+00
    0.00000E+00         0.00000E+00        -0.30538E+08
 
   -0.34926E+08        -0.89260E+06         0.00000E+00
   -0.89260E+06        -0.59876E+08         0.00000E+00
    0.00000E+00         0.00000E+00        -0.30825E+08
 
   -0.34473E+08        -0.67724E+06         0.00000E+00
   -0.67724E+06        -0.59839E+08         0.00000E+00
    0.00000E+00         0.00000E+00        -0.31100E+08
 
   -0.34074E+08        -0.42346E+06         0.00000E+00
   -0.42346E+06        -0.59822E+08         0.00000E+00
    0.00000E+00         0.00000E+00        -0.31378E+08
 
   -0.33729E+08        -0.13118E+06         0.00000E+00
   -0.13118E+06        -0.59834E+08         0.00000E+00
    0.00000E+00         0.00000E+00        -0.31670E+08
 
   -0.33441E+08         0.20513E+06         0.00000E+00
    0.20513E+06        -0.59880E+08         0.00000E+00
    0.00000E+00         0.00000E+00        -0.31982E+08
 
   -0.33218E+08         0.59262E+06         0.00000E+00
    0.59262E+06        -0.59958E+08         0.00000E+00
    0.00000E+00         0.00000E+00        -0.32310E+08
 
   -0.33072E+08         0.10373E+07         0.00000E+00
    0.10373E+07        -0.60062E+08         0.00000E+00
    0.00000E+00         0.00000E+00        -0.32642E+08
 
   -0.33029E+08         0.15450E+07         0.00000E+00
    0.15450E+07        -0.60180E+08         0.00000E+00
    0.00000E+00         0.00000E+00        -0.32949E+08
 
   -0.33151E+08         0.21208E+07         0.00000E+00
    0.21208E+07        -0.60304E+08         0.00000E+00
    0.00000E+00         0.00000E+00        -0.33169E+08
 
   -0.40365E+08        -0.32888E+06         0.00000E+00
   -0.32888E+06        -0.60004E+08         0.00000E+00
    0.00000E+00         0.00000E+00        -0.29759E+08
 
   -0.39055E+08        -0.79670E+06         0.00000E+00
   -0.79670E+06        -0.60005E+08         0.00000E+00
    0.00000E+00         0.00000E+00        -0.29505E+08
 
   -0.37803E+08        -0.10463E+07         0.00000E+00
   -0.10463E+07        -0.59979E+08         0.00000E+00
    0.00000E+00         0.00000E+00        -0.29262E+08
 
   -0.36687E+08        -0.11322E+07         0.00000E+00
   -0.11322E+07        -0.59918E+08         0.00000E+00
    0.00000E+00         0.00000E+00        -0.29111E+08
 
   -0.35931E+08        -0.10995E+07         0.00000E+00
   -0.10995E+07        -0.59828E+08         0.00000E+00
    0.00000E+00         0.00000E+00        -0.29364E+08
 
   -0.35296E+08        -0.98662E+06         0.00000E+00
   -0.98662E+06        -0.59725E+08         0.00000E+00
    0.00000E+00         0.00000E+00        -0.29633E+08
 
   -0.34739E+08        -0.82364E+06         0.00000E+00
   -0.82364E+06        -0.59623E+08         0.00000E+00
    0.00000E+00         0.00000E+00        -0.29874E+08
 
   -0.34250E+08        -0.62753E+06         0.00000E+00
   -0.62753E+06        -0.59538E+08         0.00000E+00
    0.00000E+00         0.00000E+00        -0.30107E+08
 
   -0.33818E+08        -0.40415E+06         0.00000E+00
   -0.40415E+06        -0.59483E+08         0.00000E+00
    0.00000E+00         0.00000E+00        -0.30352E+08
 
   -0.33435E+08        -0.15060E+06         0.00000E+00
   -0.15060E+06        -0.59468E+08         0.00000E+00
    0.00000E+00         0.00000E+00        -0.30626E+08
 
   -0.33098E+08         0.14318E+06         0.00000E+00
    0.14318E+06        -0.59500E+08         0.00000E+00
    0.00000E+00         0.00000E+00        -0.30943E+08
 
   -0.32817E+08         0.49150E+06         0.00000E+00
    0.49150E+06        -0.59582E+08         0.00000E+00
    0.00000E+00         0.00000E+00        -0.31307E+08
 
   -0.32604E+08         0.90733E+06         0.00000E+00
    0.90733E+06        -0.59709E+08         0.00000E+00
    0.00000E+00         0.00000E+00        -0.31706E+08
 
   -0.32486E+08         0.13991E+07         0.00000E+00
    0.13991E+07        -0.59867E+08         0.00000E+00
    0.00000E+00         0.00000E+00        -0.32113E+08
 
   -0.32532E+08         0.19776E+07         0.00000E+00
    0.19776E+07        -0.60036E+08         0.00000E+00
    0.00000E+00         0.00000E+00        -0.32450E+08
 
   -0.40958E+08        -0.33646E+06         0.00000E+00
   -0.33646E+06        -0.60004E+08         0.00000E+00
    0.00000E+00         0.00000E+00        -0.29054E+08
 
   -0.39386E+08        -0.77781E+06         0.00000E+00
   -0.77781E+06        -0.59992E+08         0.00000E+00
    0.00000E+00         0.00000E+00        -0.28744E+08
 
   -0.37941E+08        -0.97559E+06         0.00000E+00
   -0.97559E+06        -0.59924E+08         0.00000E+00
    0.00000E+00         0.00000E+00        -0.28454E+08
 
   -0.36696E+08        -0.10216E+07         0.00000E+00
   -0.10216E+07        -0.59798E+08         0.00000E+00
    0.00000E+00         0.00000E+00        -0.28256E+08
 
   -0.35848E+08        -0.96743E+06         0.00000E+00
   -0.96743E+06        -0.59636E+08         0.00000E+00
    0.00000E+00         0.00000E+00        -0.28455E+08
 
   -0.35157E+08        -0.85052E+06         0.00000E+00
   -0.85052E+06        -0.59467E+08         0.00000E+00
    0.00000E+00         0.00000E+00        -0.28666E+08
 
   -0.34568E+08        -0.70178E+06         0.00000E+00
   -0.70178E+06        -0.59309E+08         0.00000E+00
    0.00000E+00         0.00000E+00        -0.28851E+08
 
   -0.34057E+08        -0.53444E+06         0.00000E+00
   -0.53444E+06        -0.59178E+08         0.00000E+00
    0.00000E+00         0.00000E+00        -0.29034E+08
 
   -0.33602E+08        -0.35106E+06         0.00000E+00
   -0.35106E+06        -0.59087E+08         0.00000E+00
    0.00000E+00         0.00000E+00        -0.29239E+08
 
   -0.33188E+08        -0.14681E+06         0.00000E+00
   -0.14681E+06        -0.59044E+08         0.00000E+00
    0.00000E+00         0.00000E+00        -0.29487E+08
 
   -0.32807E+08         0.89374E+05         0.00000E+00
    0.89374E+05        -0.59058E+08         0.00000E+00
    0.00000E+00         0.00000E+00        -0.29796E+08
 
   -0.32460E+08         0.37667E+06         0.00000E+00
    0.37667E+06        -0.59138E+08         0.00000E+00
    0.00000E+00         0.00000E+00        -0.30183E+08
 
   -0.32168E+08         0.74118E+06         0.00000E+00
    0.74118E+06        -0.59290E+08         0.00000E+00
    0.00000E+00         0.00000E+00        -0.30651E+08
 
   -0.31954E+08         0.12034E+07         0.00000E+00
    0.12034E+07        -0.59496E+08         0.00000E+00
    0.00000E+00         0.00000E+00        -0.31177E+08
 
   -0.31887E+08         0.17790E+07         0.00000E+00
    0.17790E+07        -0.59726E+08         0.00000E+00
    0.00000E+00         0.00000E+00        -0.31675E+08
 
   -0.41545E+08        -0.34299E+06         0.00000E+00
   -0.34299E+06        -0.60003E+08         0.00000E+00
    0.00000E+00         0.00000E+00        -0.28347E+08
 
   -0.39653E+08        -0.72188E+06         0.00000E+00
   -0.72188E+06        -0.59963E+08         0.00000E+00
    0.00000E+00         0.00000E+00        -0.27967E+08
 
   -0.38018E+08        -0.83218E+06         0.00000E+00
   -0.83218E+06        -0.59821E+08         0.00000E+00
    0.00000E+00         0.00000E+00        -0.27622E+08
 
   -0.36678E+08        -0.82942E+06         0.00000E+00
   -0.82942E+06        -0.59604E+08         0.00000E+00
    0.00000E+00         0.00000E+00        -0.27366E+08
 
   -0.35754E+08        -0.76170E+06         0.00000E+00
   -0.76170E+06        -0.59356E+08         0.00000E+00
    0.00000E+00         0.00000E+00        -0.27472E+08
 
   -0.35031E+08        -0.65305E+06         0.00000E+00
   -0.65305E+06        -0.59121E+08         0.00000E+00
    0.00000E+00         0.00000E+00        -0.27615E+08
 
   -0.34426E+08        -0.53147E+06         0.00000E+00
   -0.53147E+06        -0.58913E+08         0.00000E+00
    0.00000E+00         0.00000E+00        -0.27740E+08
 
   -0.33903E+08        -0.40410E+06         0.00000E+00
   -0.40410E+06        -0.58746E+08         0.00000E+00
    0.00000E+00         0.00000E+00        -0.27875E+08
 
   -0.33435E+08        -0.26820E+06         0.00000E+00
   -0.26820E+06        -0.58627E+08         0.00000E+00
    0.00000E+00         0.00000E+00        -0.28041E+08
 
   -0.33000E+08        -0.11929E+06         0.00000E+00
   -0.11929E+06        -0.58561E+08         0.00000E+00
    0.00000E+00         0.00000E+00        -0.28257E+08
 
   -0.32583E+08         0.50583E+05         0.00000E+00
    0.50583E+05        -0.58556E+08         0.00000E+00
    0.00000E+00         0.00000E+00        -0.28544E+08
 
   -0.32177E+08         0.25807E+06         0.00000E+00
    0.25807E+06        -0.58626E+08         0.00000E+00
    0.00000E+00         0.00000E+00        -0.28933E+08
 
   -0.31786E+08         0.53689E+06         0.00000E+00
    0.53689E+06        -0.58786E+08         0.00000E+00
    0.00000E+00         0.00000E+00        -0.29451E+08
 
   -0.31450E+08         0.93973E+06         0.00000E+00
    0.93973E+06        -0.59052E+08         0.00000E+00
    0.00000E+00         0.00000E+00        -0.30111E+08
 
   -0.31223E+08         0.14948E+07         0.00000E+00
    0.14948E+07        -0.59376E+08         0.00000E+00
    0.00000E+00         0.00000E+00        -0.30840E+08
 
   -0.42093E+08        -0.33653E+06         0.00000E+00
   -0.33653E+06        -0.59990E+08         0.00000E+00
    0.00000E+00         0.00000E+00        -0.27633E+08
 
   -0.39807E+08        -0.57773E+06         0.00000E+00
   -0.57773E+06        -0.59859E+08         0.00000E+00
    0.00000E+00         0.00000E+00        -0.27154E+08
 
   -0.38019E+08        -0.58059E+06         0.00000E+00
   -0.58059E+06        -0.59581E+08         0.00000E+00
    0.00000E+00         0.00000E+00        -0.26749E+08
 
   -0.36647E+08        -0.54248E+06         0.00000E+00
   -0.54248E+06        -0.59266E+08         0.00000E+00
    0.00000E+00         0.00000E+00        -0.26437E+08
 
   -0.35664E+08        -0.48476E+06         0.00000E+00
   -0.48476E+06        -0.58944E+08         0.00000E+00
    0.00000E+00         0.00000E+00        -0.26382E+08
 
   -0.34930E+08        -0.40323E+06         0.00000E+00
   -0.40323E+06        -0.58652E+08         0.00000E+00
    0.00000E+00         0.00000E+00        -0.26451E+08
 
   -0.34324E+08        -0.32685E+06         0.00000E+00
   -0.32685E+06        -0.58414E+08         0.00000E+00
    0.00000E+00         0.00000E+00        -0.26527E+08
 
   -0.33797E+08        -0.24870E+06         0.00000E+00
   -0.24870E+06        -0.58227E+08         0.00000E+00
    0.00000E+00         0.00000E+00        -0.26625E+08
 
   -0.33321E+08        -0.16506E+06         0.00000E+00
   -0.16506E+06        -0.58092E+08         0.00000E+00
    0.00000E+00         0.00000E+00        -0.26758E+08
 
   -0.32873E+08        -0.74158E+05         0.00000E+00
   -0.74158E+05        -0.58013E+08         0.00000E+00
    0.00000E+00         0.00000E+00        -0.26944E+08
 
   -0.32436E+08         0.27833E+05         0.00000E+00
    0.27833E+05        -0.57998E+08         0.00000E+00
    0.00000E+00         0.00000E+00        -0.27206E+08
 
   -0.31988E+08         0.15002E+06         0.00000E+00
    0.15002E+06        -0.58057E+08         0.00000E+00
    0.00000E+00         0.00000E+00        -0.27575E+08
 
   -0.31510E+08         0.31537E+06         0.00000E+00
    0.31537E+06        -0.58212E+08         0.00000E+00
    0.00000E+00         0.00000E+00        -0.28105E+08
 
   -0.31001E+08         0.58564E+06         0.00000E+00
    0.58564E+06        -0.58499E+08         0.00000E+00
    0.00000E+00         0.00000E+00        -0.28870E+08
 
   -0.30553E+08         0.10875E+07         0.00000E+00
    0.10875E+07        -0.58976E+08         0.00000E+00
    0.00000E+00         0.00000E+00        -0.29929E+08
 
   -0.42493E+08        -0.21651E+06         0.00000E+00
   -0.21651E+06        -0.59844E+08         0.00000E+00
    0.00000E+00         0.00000E+00        -0.26873E+08
 
   -0.39820E+08        -0.24007E+06         0.00000E+00
   -0.24007E+06        -0.59457E+08         0.00000E+00
    0.00000E+00         0.00000E+00        -0.26261E+08
 
   -0.37989E+08        -0.21234E+06         0.00000E+00
   -0.21234E+06        -0.59034E+08         0.00000E+00
    0.00000E+00         0.00000E+00        -0.25813E+08
 
   -0.36624E+08        -0.18750E+06         0.00000E+00
   -0.18750E+06        -0.58647E+08         0.00000E+00
    0.00000E+00         0.00000E+00        -0.25467E+08
 
   -0.35606E+08        -0.16560E+06         0.00000E+00
   -0.16560E+06        -0.58321E+08         0.00000E+00
    0.00000E+00         0.00000E+00        -0.25211E+08
 
   -0.34874E+08        -0.13495E+06         0.00000E+00
   -0.13495E+06        -0.58035E+08         0.00000E+00
    0.00000E+00         0.00000E+00        -0.25166E+08
 
   -0.34274E+08        -0.10982E+06         0.00000E+00
   -0.10982E+06        -0.57795E+08         0.00000E+00
    0.00000E+00         0.00000E+00        -0.25211E+08
 
   -0.33743E+08        -0.83716E+05         0.00000E+00
   -0.83716E+05        -0.57605E+08         0.00000E+00
    0.00000E+00         0.00000E+00        -0.25283E+08
 
   -0.33262E+08        -0.55294E+05         0.00000E+00
   -0.55294E+05        -0.57470E+08         0.00000E+00
    0.00000E+00         0.00000E+00        -0.25393E+08
 
   -0.32810E+08        -0.24491E+05         0.00000E+00
   -0.24491E+05        -0.57394E+08         0.00000E+00
    0.00000E+00         0.00000E+00        -0.25558E+08
 
   -0.32363E+08         0.97328E+04         0.00000E+00
    0.97328E+04        -0.57384E+08         0.00000E+00
    0.00000E+00         0.00000E+00        -0.25799E+08
 
   -0.31897E+08         0.49811E+05         0.00000E+00
    0.49811E+05        -0.57448E+08         0.00000E+00
    0.00000E+00         0.00000E+00        -0.26148E+08
 
   -0.31374E+08         0.10252E+06         0.00000E+00
    0.10252E+06        -0.57608E+08         0.00000E+00
    0.00000E+00         0.00000E+00        -0.26663E+08
 
   -0.30736E+08         0.19084E+06         0.00000E+00
    0.19084E+06        -0.57909E+08         0.00000E+00
    0.00000E+00         0.00000E+00        -0.27469E+08
 
   -0.29895E+08         0.42465E+06         0.00000E+00
    0.42465E+06        -0.58463E+08         0.00000E+00
    0.00000E+00         0.00000E+00        -0.28865E+08
 
SCALARS stressS double 
LOOKUP_TABLE default
  -46564137.4308397     
  -46539054.2423939     
  -46492176.0748394     
  -46423145.4360957     
  -46332976.1630218     
  -46226878.8228704     
  -46110338.7054879     
  -46069484.0918421     
  -46303859.1915904     
  -46525139.7589550     
  -46726719.7186814     
  -46910674.4790282     
  -47078897.6509723     
  -47233162.7652231     
  -47375154.2352991     
  -46545300.7507759     
  -46520319.0655657     
  -46473462.6710292     
  -46404782.9078995     
  -46315820.4027975     
  -46211894.2490002     
  -46098246.1983821     
  -46060494.4446375     
  -46293795.4526090     
  -46513212.2205026     
  -46713172.2601312     
  -46895653.2418380     
  -47062502.2197147     
  -47215471.3123370     
  -47356233.2883222     
  -46507820.2176447     
  -46482931.7510553     
  -46436425.5780629     
  -46368568.4958254     
  -46282206.1752911     
  -46182423.8512317     
  -46074618.9868394     
  -46042956.4268314     
  -46273378.2578604     
  -46489233.4780465     
  -46686031.0919433     
  -46865595.3654839     
  -47029713.0763075     
  -47180099.7435791     
  -47318408.0624692     
  -46451812.1568482     
  -46427422.8950029     
  -46381817.6212529     
  -46315854.6842081     
  -46233498.8966404     
  -46139796.5528995     
  -46040187.7929145     
  -46017228.8907790     
  -46242181.0478057     
  -46453051.8356500     
  -46645225.4976852     
  -46820481.0601630     
  -46980539.1622801     
  -47127074.1228022     
  -47261713.8352176     
  -46377398.4456026     
  -46354301.3465832     
  -46310663.1061541     
  -46248176.3546947     
  -46171452.7864447     
  -46086015.6506399     
  -45996919.6519133     
  -45983058.3128922     
  -46200079.8830362     
  -46404525.9685273     
  -46590695.5007985     
  -46760300.2111750     
  -46915006.5381732     
  -47056441.6901971     
  -47186207.9478324     
  -46284250.8903053     
  -46263085.2852011     
  -46223370.9061105     
  -46167151.8628203     
  -46098923.9819603     
  -46023850.8790151     
  -45946774.0777401     
  -45939978.4082014     
  -46146945.8687369     
  -46343579.0911435     
  -46522398.5106364     
  -46685067.8014497     
  -46833171.5142268     
  -46968280.8329294     
  -47091974.5211662     
  -46172000.3527908     
  -46153515.9182716     
  -46119856.6920508     
  -46073587.2041475     
  -46017936.5863780     
  -45956096.2675408     
  -45892026.6820757     
  -45887769.7388696     
  -46082729.9945861     
  -46270111.0751740     
  -46440313.4455150     
  -46594839.2015373     
  -46735140.9607056     
  -46862716.0675300     
  -46979131.1138769     
  -46040210.9078773     
  -46024972.5793088     
  -45999419.5650750     
  -45966924.9343808     
  -45928827.6049627     
  -45884786.3028699     
  -45835742.8973957     
  -45828156.2019832     
  -46007137.2906924     
  -46183955.2589211     
  -46344442.9657058     
  -46489747.6170597     
  -46621102.0565389     
  -46739941.2569123     
  -46847840.9191813     
  -45888580.0190519     
  -45877169.2917952     
  -45861554.7037691     
  -45845743.6548024     
  -45829329.1013762     
  -45808733.0614204     
  -45779699.5770546     
  -45765520.3637607     
  -45919403.5584834     
  -46084849.2733922     
  -46234939.6733784     
  -46370046.4645127     
  -46491356.9465451     
  -46600267.5967957     
  -46698336.5266225     
  -45717823.3123756     
  -45710314.5119826     
  -45706126.4565647     
  -45708565.0810023     
  -45715743.5108653     
  -45722556.3644932     
  -45721661.3112148     
  -45710833.2580168     
  -45817975.7126323     
  -45973248.6485810     
  -46112159.1180399     
  -46236062.6019707     
  -46346416.6382245     
  -46444202.6997536     
  -46530993.4843134     
  -45526830.8608872     
  -45524382.7637398     
  -45533541.6203426     
  -45555142.4323988     
  -45585895.6346130     
  -45620124.5927636     
  -45649898.7174442     
  -45665842.4548227     
  -45713014.5872204     
  -45850281.5639358     
  -45975974.9331004     
  -46088436.4750601     
  -46186970.8983222     
  -46272696.2499149     
  -46346529.4879863     
  -45316906.9880505     
  -45320987.8097915     
  -45344894.6836135     
  -45386129.2480178     
  -45439437.5224726     
  -45498073.4520421     
  -45554299.4122629     
  -45599791.3821390     
  -45631887.6493569     
  -45716430.1568278     
  -45828036.7194130     
  -45926916.0538171     
  -46014184.4136837     
  -46087605.3949369     
  -46146676.1489754     
  -45088846.6922140     
  -45101981.7413341     
  -45142077.9384028     
  -45202935.1306369     
  -45277013.8859777     
  -45355731.5748249     
  -45430692.9416956     
  -45493667.1891144     
  -45542776.4036501     
  -45589182.5092728     
  -45671946.4520963     
  -45751475.3845494     
  -45828678.4022086     
  -45893048.9869465     
  -45936451.4078013     
  -44847087.4718343     
  -44870940.6784765     
  -44927605.2034723     
  -45007343.1641340     
  -45099208.2530580     
  -45192591.8403690     
  -45279009.4503167     
  -45352951.9512623     
  -45410496.7977059     
  -45455196.8159022     
  -45502770.4903052     
  -45560963.8756722     
  -45625489.3074300     
  -45687269.7576985     
  -45730964.6553284     
  -44596554.3291202     
  -44631807.1743606     
  -44704982.3564874     
  -44801409.7357080     
  -44905803.3533870     
  -45007536.9439020     
  -45100176.3109530     
  -45179154.3944041     
  -45241781.3132800     
  -45288162.5588873     
  -45323743.9041187     
  -45359824.1800073     
  -45405095.8144337     
  -45459715.2596079     
  -45527194.4509322     
  -44342377.4877167     
  -44389248.1328800     
  -44478930.7916415     
  -44586126.9764149     
  -44695228.9593160     
  -44799331.8715335     
  -44893641.7163090     
  -44974710.9702415     
  -45040000.3167177     
  -45088947.0139284     
  -45125110.5487047     
  -45156804.0172929     
  -45193531.7243208     
  -45242822.2936150     
  -45300566.1116288     
  -44093217.1942944     
  -44155057.2513037     
  -44252583.9925596     
  -44358764.5836297     
  -44465331.9706227     
  -44566798.9288749     
  -44659504.6755097     
  -44740362.5373550     
  -44807330.8179771     
  -44860423.8776410     
  -44902423.5287486     
  -44938686.5095966     
  -44976235.5049870     
  -45018680.0631344     
  -45063511.0036763     
  -43891584.4054375     
  -43947839.8493293     
  -44017476.4850766     
  -44114968.3917922     
  -44214365.7063392     
  -44309876.3488313     
  -44398274.4731259     
  -44476910.0324785     
  -44544637.6607413     
  -44602048.2147122     
  -44651252.6346557     
  -44695175.0131863     
  -44736482.7133176     
  -44776374.5067212     
  -44814156.0100597     
  -43754754.0160124     
  -43767728.7326523     
  -43775259.7512394     
  -43850547.2548150     
  -43941956.9987176     
  -44029509.1167072     
  -44110713.9482780     
  -44184562.0948012     
  -44251059.7970087     
  -44311215.3510269     
  -44366398.5575230     
  -44417613.4217313     
  -44464973.0064224     
  -44507882.8330340     
  -44545381.6879147     
  -43667622.5187992     
  -43617155.8914195     
  -43550242.7986604     
  -43568606.6145049     
  -43651108.9363260     
  -43727120.3059817     
  -43797503.4335921     
  -43862980.8906544     
  -43924787.9098890     
  -43984395.3061893     
  -44042853.5101515     
  -44100261.7179954     
  -44155433.6188584     
  -44206278.9717266     
  -44249985.2813930     
  -43601699.8083000     
  -43483245.9794715     
  -43346278.4448412     
  -43288345.8539097     
  -43347203.4239172     
  -43405360.2717251     
  -43459606.9704306     
  -43511652.1344434     
  -43563940.4948917     
  -43618648.9195358     
  -43677023.7173640     
  -43739067.8311637     
  -43803091.0791198     
  -43865692.0515061     
  -43921894.4682415     
  -43545359.2462742     
  -43356496.4100188     
  -43153107.7523272     
  -43015410.4859667     
  -43036508.8511502     
  -43067844.5187982     
  -43098283.8619752     
  -43130235.5087603     
  -43167159.4381744     
  -43212082.1846315     
  -43266822.3241267     
  -43331497.8972192     
  -43404520.1049428     
  -43481804.3186769     
  -43556411.3007932     
  -43496381.0294053     
  -43233390.8338550     
  -42961874.7995307     
  -42747202.3876874     
  -42721481.6618076     
  -42716793.3135580     
  -42714582.6876049     
  -42718681.8446348     
  -42733818.1533856     
  -42764054.9495580     
  -42811595.4319346     
  -42876756.0557450     
  -42958188.0250904     
  -43052013.6621584     
  -43149684.9810108     
  -43452862.4598680     
  -43111394.2950329     
  -42767541.5665967     
  -42476982.0633214     
  -42399878.9612723     
  -42350910.5305798     
  -42307987.7289420     
  -42276874.7343668     
  -42263957.7688610     
  -42274562.9626916     
  -42311686.5312153     
  -42375629.9054961     
  -42464516.4218422     
  -42575348.0946221     
  -42700875.9637060     
  -43413180.1779190     
  -42986850.0369808     
  -42565163.8382106     
  -42199025.2470328     
  -42065220.5757403     
  -41965196.7819451     
  -41875555.8704157     
  -41804062.2533142     
  -41758220.6628285     
  -41744542.2994594     
  -41767621.3575581     
  -41828690.7614932     
  -41925229.2664092     
  -42052753.9950470     
  -42208130.9420752     
  -43375777.2888950     
  -42855012.3062369     
  -42348119.5503109     
  -41905378.2760395     
  -41707762.1310353     
  -41551119.8032055     
  -41411836.8408406     
  -41298299.8946574     
  -41217581.8312975     
  -41176160.7022532     
  -41180323.2106662     
  -41235052.7345280     
  -41339995.8493299     
  -41488845.7055994     
  -41672975.7240336     
  -43338809.8850695     
  -42707728.9503808     
  -42106356.6687823     
  -41583352.5289889     
  -41313150.3594386     
  -41096956.8512190     
  -40909399.8172321     
  -40756472.4559686     
  -40642863.5142913     
  -40572943.1564512     
  -40553398.3657451     
  -40593755.5222146     
  -40702862.8741743     
  -40875704.6439808     
  -41096074.0913275     
  -43298040.8281498     
  -42527632.9299918     
  -41820364.2178109     
  -41216151.3709482     
  -40860759.3045206     
  -40588953.6666440     
  -40359419.2941743     
  -40174800.8086370     
  -40034202.1147068     
  -39939055.6598894     
  -39894614.5728016     
  -39911609.4966296     
  -40007817.4967122     
  -40204473.6527835     
  -40479607.1756161     
  -43238354.9343302     
  -42273158.4045362     
  -41449839.3405396     
  -40783186.4706988     
  -40330351.1194755     
  -40011005.4083176     
  -39755223.2807369     
  -39549548.0022264     
  -39390221.8719496     
  -39277079.9251121     
  -39213156.6440032     
  -39206478.6982910     
  -39275371.8149687     
  -39456729.9414850     
  -39819475.6078899     
  -43070119.2194781     
  -41845669.4226972     
  -40945402.0779848     
  -40245790.1923558     
  -39712753.7104222     
  -39358511.9162618     
  -39093202.4103280     
  -38877086.2496301     
  -38708562.6396725     
  -38587367.6918076     
  -38515270.4678093     
  -38497695.3188761     
  -38548405.1828670     
  -38704863.6415493     
  -39074441.9496785     
SCALARS 2waySource double 
LOOKUP_TABLE default
 -7.217855186163601E-005
 -7.138182707686664E-005
 -7.064720194292224E-005
 -6.959836906578403E-005
 -6.847672117582537E-005
 -6.702998311239660E-005
 -6.527604658628121E-005
 -1.021464906187676E-004
 -1.067343851988170E-004
 -1.089928417017464E-004
 -1.111799890984760E-004
 -1.132841963315807E-004
 -1.153008189157490E-004
 -1.172242268940443E-004
 -1.190477777335241E-004
 -7.145172751113593E-005
 -7.082326587875014E-005
 -7.016830327553093E-005
 -6.920531076975100E-005
 -6.813629716779154E-005
 -6.663231461529079E-005
 -6.490053476315919E-005
 -1.019195596570189E-004
 -1.064593349580343E-004
 -1.087306598309699E-004
 -1.109146570957282E-004
 -1.130165684036947E-004
 -1.150322596481807E-004
 -1.169562213224661E-004
 -1.187816791194267E-004
 -7.034468630499062E-005
 -6.989967498088560E-005
 -6.927254176693293E-005
 -6.845111113331430E-005
 -6.740665420454583E-005
 -6.598784518416184E-005
 -6.427460685128278E-005
 -1.015854487651020E-004
 -1.059924102239568E-004
 -1.082435302223648E-004
 -1.104174238227126E-004
 -1.125127970408500E-004
 -1.145264810832816E-004
 -1.164520279690812E-004
 -1.182823212600452E-004
 -6.898738372091020E-005
 -6.854462793965744E-005
 -6.789514551156973E-005
 -6.713756313232853E-005
 -6.615859643957831E-005
 -6.495214900848045E-005
 -6.385173159600906E-005
 -1.009990364304171E-004
 -1.052879494406490E-004
 -1.075195241239687E-004
 -1.096756199610071E-004
 -1.117630545149183E-004
 -1.137749598121077E-004
 -1.157040119734456E-004
 -1.175425979222755E-004
 -6.738067400880590E-005
 -6.677679499823846E-005
 -6.598287693783023E-005
 -6.518536283656204E-005
 -6.435798567296059E-005
 -6.345558667326621E-005
 -6.334479097135162E-005
 -9.961508185388948E-005
 -1.043555835299960E-004
 -1.065360154822597E-004
 -1.086743061635566E-004
 -1.107541184948859E-004
 -1.127660590504466E-004
 -1.147014215190301E-004
 -1.165525369854647E-004
 -6.570678082628731E-005
 -6.488272057217210E-005
 -6.378302243682487E-005
 -6.272067906832473E-005
 -6.194374781308160E-005
 -6.148975835134935E-005
 -6.258246856372053E-005
 -9.788732557251326E-005
 -1.031262467472670E-004
 -1.052723846678753E-004
 -1.073954076858488E-004
 -1.094710741648732E-004
 -1.114851532753367E-004
 -1.134303341449620E-004
 -1.152993908318684E-004
 -6.390656607647963E-005
 -6.294327500009387E-005
 -6.152604361528577E-005
 -6.003248895578473E-005
 -5.903557440910130E-005
 -5.891845476273084E-005
 -6.124080430342812E-005
 -9.567248956516406E-005
 -1.015568353476951E-004
 -1.037012129909556E-004
 -1.058249778073732E-004
 -1.078967023552685E-004
 -1.099135094025994E-004
 -1.118730496142787E-004
 -1.137674709154748E-004
 -6.209295108328700E-005
 -6.109389195697407E-005
 -5.952840579277807E-005
 -5.767801610698651E-005
 -5.614062312560228E-005
 -5.579898259348846E-005
 -5.896288737870736E-005
 -9.226089293600602E-005
 -9.964139022402096E-005
 -1.018346438354739E-004
 -1.039520674956307E-004
 -1.060055545639380E-004
 -1.080261062929639E-004
 -1.100076562614666E-004
 -1.119374960136112E-004
 -6.007556386595454E-005
 -5.912979249347983E-005
 -5.778825003907519E-005
 -5.607355923617303E-005
 -5.416081646833234E-005
 -5.287582062547262E-005
 -5.546935081585845E-005
 -8.683827305506670E-005
 -9.746186535397640E-005
 -9.971950074998474E-005
 -1.017313586115784E-004
 -1.037572829624775E-004
 -1.057938549026332E-004
 -1.078057534009028E-004
 -1.097859215730323E-004
 -5.774486156513697E-005
 -5.703178626943831E-005
 -5.617588278931483E-005
 -5.514347800642209E-005
 -5.371613413840461E-005
 -5.191565264003630E-005
 -5.166408544197645E-005
 -7.695980722217911E-005
 -9.551840146708869E-005
 -9.718837553976848E-005
 -9.906663001169722E-005
 -1.011259158845049E-004
 -1.031737967865877E-004
 -1.052354257622884E-004
 -1.072779543464277E-004
 -5.510714834187251E-005
 -5.467716035929532E-005
 -5.442274395306955E-005
 -5.439725371566733E-005
 -5.433326850700514E-005
 -5.352910521675937E-005
 -5.141452547848784E-005
 -6.377589112789011E-005
 -8.969774596342931E-005
 -9.383351466233697E-005
 -9.605264064782223E-005
 -9.801389118378504E-005
 -1.001590676875048E-004
 -1.022388383753550E-004
 -1.043491303103028E-004
 -5.212414733683057E-005
 -5.196244799598731E-005
 -5.240356301443116E-005
 -5.355050283509279E-005
 -5.507974321690821E-005
 -5.612378677504758E-005
 -5.541798371677755E-005
 -5.711741019453395E-005
 -7.460140942237134E-005
 -8.876818854867865E-005
 -9.216248197382366E-005
 -9.466000021637918E-005
 -9.668183301252459E-005
 -9.872096668629091E-005
 -1.008294923615790E-004
 -4.884245752949692E-005
 -4.893635858185442E-005
 -5.022559371448873E-005
 -5.270243659447842E-005
 -5.552672094514310E-005
 -5.779144040958591E-005
 -5.891544712315088E-005
 -5.957323777817579E-005
 -6.582227474061316E-005
 -7.615592810029267E-005
 -8.475101398612217E-005
 -9.092006559658424E-005
 -9.286813308394502E-005
 -9.452228009915603E-005
 -9.609870916873822E-005
 -4.531404714985755E-005
 -4.566176985166933E-005
 -4.831847774810896E-005
 -5.217837101363159E-005
 -5.544089546405460E-005
 -5.783273456940391E-005
 -5.947589752055817E-005
 -6.072719299467526E-005
 -6.374213297829386E-005
 -7.103528641854556E-005
 -7.894915052023117E-005
 -8.227266983450247E-005
 -8.605363404940984E-005
 -8.765634161303241E-005
 -8.839203507862887E-005
 -4.191619784202053E-005
 -4.307304002942515E-005
 -4.776971733345203E-005
 -5.164372451588966E-005
 -5.430614670093646E-005
 -5.621374939996797E-005
 -5.781272990840303E-005
 -5.917167768820998E-005
 -6.096424400446759E-005
 -6.489950595761590E-005
 -7.174992385260791E-005
 -7.857427263473091E-005
 -8.377606995752398E-005
 -8.693741983536034E-005
 -9.032090058794440E-005
 -3.942867141262250E-005
 -4.626034107943509E-005
 -4.787348836619667E-005
 -4.993106420608369E-005
 -5.147115558762187E-005
 -5.314362430263657E-005
 -5.465563749606381E-005
 -5.602239037604363E-005
 -5.749192719510343E-005
 -5.963047335013202E-005
 -6.329559998802698E-005
 -6.842187059597800E-005
 -7.391263575837880E-005
 -7.937436359619490E-005
 -8.507228277712192E-005
 -4.824379591658587E-005
 -5.353327407266544E-005
 -4.821703111273174E-005
 -4.517535557774013E-005
 -4.711924259516308E-005
 -4.888405304458222E-005
 -5.047788304354535E-005
 -5.188236670018145E-005
 -5.316772340084162E-005
 -5.461680439097613E-005
 -5.683512241847445E-005
 -6.047356863102685E-005
 -6.558578277810018E-005
 -7.158582971379553E-005
 -7.760383002841115E-005
 -5.375318570478983E-005
 -5.552867344398213E-005
 -4.826932840220964E-005
 -4.021094664907679E-005
 -4.145525430535617E-005
 -4.371962561175560E-005
 -4.558647254522748E-005
 -4.707840807700642E-005
 -4.831568345009319E-005
 -4.955544022521436E-005
 -5.127868174379028E-005
 -5.411322592202332E-005
 -5.836030436588009E-005
 -6.368959409235657E-005
 -6.953409020482964E-005
 -6.162332196293586E-005
 -6.157894899733049E-005
 -5.437381957264089E-005
 -3.836920455166461E-005
 -3.557989398934338E-005
 -3.820126491592639E-005
 -4.029560857903524E-005
 -4.188355598874462E-005
 -4.315676492987147E-005
 -4.439783815506089E-005
 -4.599528857099996E-005
 -4.836589123732942E-005
 -5.177152402538255E-005
 -5.621182423671624E-005
 -6.144700484883269E-005
 -6.348467677678528E-005
 -6.290463837069239E-005
 -6.129630147066719E-005
 -4.033355598423973E-005
 -3.115743176460503E-005
 -3.315432877912876E-005
 -3.505361265213072E-005
 -3.656162495126208E-005
 -3.782687887825073E-005
 -3.909158899094457E-005
 -4.062747289974278E-005
 -4.268198965964103E-005
 -4.548639660862844E-005
 -4.915652321189076E-005
 -5.366032034695246E-005
 -6.406046661603068E-005
 -6.345900617519480E-005
 -6.270054455888755E-005
 -4.374505280437594E-005
 -2.844347924711335E-005
 -2.917444664165760E-005
 -3.027824980824952E-005
 -3.136082517442565E-005
 -3.242329514253102E-005
 -3.358512349454580E-005
 -3.499983585797070E-005
 -3.681933923610252E-005
 -3.921635499770670E-005
 -4.232683724171228E-005
 -4.618907184512675E-005
 -6.477207335769791E-005
 -6.367203986419240E-005
 -6.245724682568285E-005
 -4.636288834659214E-005
 -2.642807809598141E-005
 -2.604432968253331E-005
 -2.610334174447230E-005
 -2.644776665207636E-005
 -2.703668919950719E-005
 -2.788832902168651E-005
 -2.906440823532391E-005
 -3.065278945352217E-005
 -3.276471752366070E-005
 -3.549950878056920E-005
 -3.889391682021228E-005
 -6.553976964338090E-005
 -6.370271532993474E-005
 -6.173660350733415E-005
 -4.749962749853917E-005
 -2.438978233287274E-005
 -2.314891584908709E-005
 -2.230467921667287E-005
 -2.179969792718509E-005
 -2.169467820256723E-005
 -2.201315036583483E-005
 -2.280851523502808E-005
 -2.412252865169659E-005
 -2.600386034634753E-005
 -2.849447874684238E-005
 -3.160850883909483E-005
 -6.635488804150269E-005
 -6.361760621217539E-005
 -6.075132102517261E-005
 -4.774330614567408E-005
 -2.199147371769908E-005
 -2.016130202628191E-005
 -1.855873119368462E-005
 -1.722948704125253E-005
 -1.631299278634308E-005
 -1.593602781846055E-005
 -1.621059217597202E-005
 -1.719118572847164E-005
 -1.886533042994496E-005
 -2.120655823451455E-005
 -2.420644467335925E-005
 -6.721963872596187E-005
 -6.348022024267401E-005
 -5.964470420457988E-005
 -4.716801604572792E-005
 -1.949596571991578E-005
 -1.696735839675073E-005
 -1.464420982245348E-005
 -1.248490862265527E-005
 -1.072086393227500E-005
 -9.574786162256442E-006
 -9.243320727996430E-006
 -9.830927294296879E-006
 -1.130576889882029E-005
 -1.358364141661368E-005
 -1.659569085255150E-005
 -6.816553385796635E-005
 -6.325078749728103E-005
 -5.838971181321959E-005
 -4.603143878384915E-005
 -1.692056061546636E-005
 -1.357990220836654E-005
 -1.036114489510983E-005
 -7.331243782635043E-006
 -4.723146392218211E-006
 -2.825860216474863E-006
 -1.895739613914154E-006
 -2.041968706538861E-006
 -3.295518653763273E-006
 -5.571567955113827E-006
 -8.735950824699462E-006
 -6.925387552757821E-005
 -6.273031080557480E-005
 -5.659709386130319E-005
 -4.478782688755038E-005
 -1.467440398488423E-005
 -9.692376573702264E-006
 -5.475971070756811E-006
 -1.536841850327788E-006
  1.896363304250152E-006
  4.336440425326336E-006
  5.774090415290637E-006
  6.129719019109943E-006
  5.199905018259086E-006
  2.912196956810809E-006
 -5.865445750102504E-007
 -7.047960000356867E-005
 -6.159225697895136E-005
 -5.355460485723065E-005
 -4.309608477927595E-005
 -1.348269437860368E-005
 -4.949684498455554E-006
  1.869539199563100E-007
  5.420663628671756E-006
  9.153615887327093E-006
  1.183341159475502E-005
  1.367453276852441E-005
  1.456838729927265E-005
  1.417258460523029E-005
  1.196379688149944E-005
  7.892385848154076E-006
 -7.159638628146127E-005
 -5.938878451870022E-005
 -4.872205847847473E-005
 -3.852509144318247E-005
 -1.550931231354044E-005
 -8.450968432876491E-007
  8.702067182312208E-006
  1.341184731528533E-005
  1.681349958105520E-005
  1.961794194740211E-005
  2.178095954376310E-005
  2.312892023250584E-005
  2.333706116070934E-005
  2.166746743774932E-005
  1.670766644709441E-005
 -7.125389724644567E-005
 -5.519000595646470E-005
 -4.282217962571306E-005
 -3.135921573434917E-005
 -1.879466260281681E-005
  4.192234471035955E-006
  1.830819860465357E-005
  2.145813393450914E-005
  2.477456705057972E-005
  2.777364432391810E-005
  3.016564199366745E-005
  3.176625522739922E-005
  3.231267882626287E-005
  3.116329056545668E-005
  2.612858780538069E-005
SCALARS poroP double 
LOOKUP_TABLE default
  1.079742833964338E-005
  9.171832562183145E-006
  7.518408688200578E-006
  5.859217417755378E-006
  4.220818731160804E-006
  2.637441184326314E-006
  1.140302796911030E-006
  3.261332680861961E-008
  0.000000000000000E+000
  0.000000000000000E+000
  0.000000000000000E+000
  0.000000000000000E+000
  0.000000000000000E+000
  0.000000000000000E+000
  0.000000000000000E+000
  1.074707372757988E-005
  9.115276847549815E-006
  7.458729769792306E-006
  5.800614803847696E-006
  4.169460775147313E-006
  2.599009701071710E-006
  1.118536330281305E-006
  2.933476468711381E-008
  0.000000000000000E+000
  0.000000000000000E+000
  0.000000000000000E+000
  0.000000000000000E+000
  0.000000000000000E+000
  0.000000000000000E+000
  0.000000000000000E+000
  1.065189997647444E-005
  9.004663500436380E-006
  7.340649047742227E-006
  5.685273348738900E-006
  4.070075820918798E-006
  2.525610277729893E-006
  1.078210924231412E-006
  2.410120260608471E-008
  0.000000000000000E+000
  0.000000000000000E+000
  0.000000000000000E+000
  0.000000000000000E+000
  0.000000000000000E+000
  0.000000000000000E+000
  0.000000000000000E+000
  1.050820810046407E-005
  8.843707569348327E-006
  7.169447268614446E-006
  5.519431899944438E-006
  3.928606525083635E-006
  2.423110584197744E-006
  1.026044572839269E-006
  2.433057040311167E-008
  0.000000000000000E+000
  0.000000000000000E+000
  0.000000000000000E+000
  0.000000000000000E+000
  0.000000000000000E+000
  0.000000000000000E+000
  0.000000000000000E+000
  1.030402703004712E-005
  8.627936673873786E-006
  6.953039932347332E-006
  5.318359973484508E-006
  3.758195103595304E-006
  2.301486104362499E-006
  9.689495997886976E-007
  2.790997320356827E-008
  0.000000000000000E+000
  0.000000000000000E+000
  0.000000000000000E+000
  0.000000000000000E+000
  0.000000000000000E+000
  0.000000000000000E+000
  0.000000000000000E+000
  1.002628533375289E-005
  8.354674653739489E-006
  6.697754445509516E-006
  5.092893587725826E-006
  3.576033989771574E-006
  2.177556079927195E-006
  9.174071876059892E-007
  3.404945737045738E-008
  0.000000000000000E+000
  0.000000000000000E+000
  0.000000000000000E+000
  0.000000000000000E+000
  0.000000000000000E+000
  0.000000000000000E+000
  0.000000000000000E+000
  9.651888276531983E-006
  8.009130898305427E-006
  6.399090409479589E-006
  4.855216084044967E-006
  3.404752864562778E-006
  2.073745425358060E-006
  8.851550901953071E-007
  4.412717985061949E-008
  0.000000000000000E+000
  0.000000000000000E+000
  0.000000000000000E+000
  0.000000000000000E+000
  0.000000000000000E+000
  0.000000000000000E+000
  0.000000000000000E+000
  9.161630263987375E-006
  7.576701215781654E-006
  6.054138140937670E-006
  4.612328118646020E-006
  3.260361842202795E-006
  2.011409910342503E-006
  8.898349553672487E-007
  6.095809152901809E-008
  0.000000000000000E+000
  0.000000000000000E+000
  0.000000000000000E+000
  0.000000000000000E+000
  0.000000000000000E+000
  0.000000000000000E+000
  0.000000000000000E+000
  8.546505913600928E-006
  7.052436161849906E-006
  5.656255886968081E-006
  4.355884575365659E-006
  3.141431895637260E-006
  2.007282632165996E-006
  9.624163307280761E-007
  1.221173323701826E-007
  0.000000000000000E+000
  0.000000000000000E+000
  0.000000000000000E+000
  0.000000000000000E+000
  0.000000000000000E+000
  0.000000000000000E+000
  0.000000000000000E+000
  7.812528132651468E-006
  6.439952387624955E-006
  5.198903918424146E-006
  4.069884910292950E-006
  3.030635860852569E-006
  2.056378991505232E-006
  1.125766790336666E-006
  2.779418600167858E-007
  0.000000000000000E+000
  0.000000000000000E+000
  0.000000000000000E+000
  0.000000000000000E+000
  0.000000000000000E+000
  0.000000000000000E+000
  0.000000000000000E+000
  6.983876670172233E-006
  5.751522794381692E-006
  4.680273127561025E-006
  3.739716596999835E-006
  2.899831331056728E-006
  2.124634410396858E-006
  1.370745984766587E-006
  5.948488291153868E-007
  5.471687464119724E-008
  0.000000000000000E+000
  0.000000000000000E+000
  0.000000000000000E+000
  0.000000000000000E+000
  0.000000000000000E+000
  0.000000000000000E+000
  6.079056956001984E-006
  4.998880061553450E-006
  4.105580897663551E-006
  3.362710444809632E-006
  2.734103440178480E-006
  2.176821501908077E-006
  1.636737924129174E-006
  1.041583493104148E-006
  3.761130311117260E-007
  3.495383181764248E-008
  0.000000000000000E+000
  0.000000000000000E+000
  0.000000000000000E+000
  0.000000000000000E+000
  0.000000000000000E+000
  5.123638908256779E-006
  4.195709874815569E-006
  3.485590138265041E-006
  2.948416003132811E-006
  2.538059386075994E-006
  2.200610860440721E-006
  1.875200361687249E-006
  1.500285237199005E-006
  1.020765429066428E-006
  4.674090362582874E-007
  1.280557252111928E-007
  0.000000000000000E+000
  0.000000000000000E+000
  0.000000000000000E+000
  0.000000000000000E+000
  4.121793599019653E-006
  3.357057027068948E-006
  2.840270227106003E-006
  2.517309984768136E-006
  2.328183138866783E-006
  2.205924799879728E-006
  2.086592844382008E-006
  1.915787999842306E-006
  1.649812279791050E-006
  1.272724311670802E-006
  8.381437013727060E-007
  4.543263662525200E-007
  2.269466883039859E-007
  1.696221704706367E-007
  2.031894530590472E-007
  3.086358031932161E-006
  2.502863149270153E-006
  2.194647334330186E-006
  2.095379429591495E-006
  2.125449837350573E-006
  2.207845228578823E-006
  2.281373713401145E-006
  2.299482152648734E-006
  2.227380760000173E-006
  2.044571103325098E-006
  1.766503998726161E-006
  1.461289062710287E-006
  1.213537054707576E-006
  1.091334438062172E-006
  1.093821669552081E-006
  2.043038019646346E-006
  1.655047213141591E-006
  1.579292111538640E-006
  1.709323864519279E-006
  1.943411961878814E-006
  2.211625812233444E-006
  2.464484968044252E-006
  2.663306777690338E-006
  2.776545225830897E-006
  2.785035981974467E-006
  2.691392431036703E-006
  2.526317370508230E-006
  2.343923057030825E-006
  2.191736786562638E-006
  2.074101848558651E-006
  1.026470062657219E-006
  8.519395781718870E-007
  1.028904703711036E-006
  1.370089074304821E-006
  1.780640252390954E-006
  2.214586924832032E-006
  2.635282668882197E-006
  3.009382570043965E-006
  3.307118490844838E-006
  3.507300494611310E-006
  3.600166924509827E-006
  3.588792122289387E-006
  3.489212051732526E-006
  3.321810040174939E-006
  3.107436909861599E-006
  1.715010349711151E-007
  1.856255953877539E-007
  5.429147518421544E-007
  1.060800998156885E-006
  1.626565136471438E-006
  2.211385409037079E-006
  2.790544371651898E-006
  3.333930035252274E-006
  3.812086369368457E-006
  4.198791799913921E-006
  4.471281611951758E-006
  4.610930382802486E-006
  4.606368848579160E-006
  4.459877290423716E-006
  4.189966613003229E-006
  0.000000000000000E+000
  0.000000000000000E+000
  1.771780942798862E-007
  7.702556586320597E-007
  1.473598406886663E-006
  2.199197068708810E-006
  2.926557288120402E-006
  3.627694905672435E-006
  4.273566205604251E-006
  4.833867516785775E-006
  5.275986980351139E-006
  5.566141063150754E-006
  5.675426255258349E-006
  5.588290702752746E-006
  5.307710425376552E-006
  0.000000000000000E+000
  0.000000000000000E+000
  3.844267802071639E-008
  5.337093366515766E-007
  1.336147722072249E-006
  2.183329994831233E-006
  3.039961291333720E-006
  3.878969922380826E-006
  4.671892127208473E-006
  5.386695105460681E-006
  5.986772347021675E-006
  6.431108873439912E-006
  6.677188769393375E-006
  6.688997328019350E-006
  6.446041842742886E-006
  0.000000000000000E+000
  0.000000000000000E+000
  0.000000000000000E+000
  3.631218793326462E-007
  1.236572351033875E-006
  2.171909747478378E-006
  3.128140561851774E-006
  4.075287697083585E-006
  4.985905567467832E-006
  5.830820739164033E-006
  6.575555673289985E-006
  7.177787093534229E-006
  7.585759729652043E-006
  7.741474582198402E-006
  7.592079964354636E-006
  0.000000000000000E+000
  0.000000000000000E+000
  0.000000000000000E+000
  2.735920877182444E-007
  1.176485378156710E-006
  2.170215194731274E-006
  3.189303642933150E-006
  4.205958789249314E-006
  5.197551495749228E-006
  6.142060677466461E-006
  7.012919262287718E-006
  7.772768998006331E-006
  8.367287326547644E-006
  8.718537966921929E-006
  8.731602942943276E-006
  0.000000000000000E+000
  0.000000000000000E+000
  0.000000000000000E+000
  2.196961859164534E-007
  1.145146930174767E-006
  2.172726644835048E-006
  3.216403222319837E-006
  4.258864980859108E-006
  5.289340914882121E-006
  6.298213160554757E-006
  7.270528716875836E-006
  8.180322182444800E-006
  8.980023709013059E-006
  9.582545920691598E-006
  9.845313924038008E-006
  0.000000000000000E+000
  0.000000000000000E+000
  0.000000000000000E+000
  1.826747564378751E-007
  1.128610991464147E-006
  2.165480125283248E-006
  3.195911834684713E-006
  4.219544583554941E-006
  5.244599565915214E-006
  6.279520755740800E-006
  7.324700703774620E-006
  8.367617968245860E-006
  9.376356584351845E-006
  1.027748411932712E-005
  1.089950918362948E-005
  0.000000000000000E+000
  0.000000000000000E+000
  0.000000000000000E+000
  1.607572115223096E-007
  1.113203743546751E-006
  2.128903516349306E-006
  3.108027616152266E-006
  4.070923404401753E-006
  5.047907468133741E-006
  6.069187560726703E-006
  7.155106220636968E-006
  8.309263777079741E-006
  9.518766896572878E-006
  1.074870201535905E-005
  1.185622465283524E-005
  0.000000000000000E+000
  0.000000000000000E+000
  0.000000000000000E+000
  1.488090915374688E-007
  1.080281601819073E-006
  2.037155827456206E-006
  2.928833321231158E-006
  3.796720286075328E-006
  4.690584900765253E-006
  5.660425550874920E-006
  6.749721090642701E-006
  7.986508011242347E-006
  9.379007349799517E-006
  1.092972782830462E-005
  1.261804492117857E-005
  0.000000000000000E+000
  0.000000000000000E+000
  0.000000000000000E+000
  1.310701119361024E-007
  9.969468419794243E-007
  1.855364113798927E-006
  2.631394254293772E-006
  3.384247279484068E-006
  4.174807860773350E-006
  5.063159985869461E-006
  6.112203604692186E-006
  7.385635100597494E-006
  8.931339833929863E-006
  1.079057739900365E-005
  1.311666523423164E-005
  0.000000000000000E+000
  0.000000000000000E+000
  0.000000000000000E+000
  8.865035648617420E-008
  8.084510082455592E-007
  1.539431393863186E-006
  2.188207699531946E-006
  2.826221021127379E-006
  3.512759432522915E-006
  4.305317470509353E-006
  5.274932167576493E-006
  6.516676481966978E-006
  8.152355533524483E-006
  1.031162421700857E-005
  1.332778171399714E-005
  0.000000000000000E+000
  0.000000000000000E+000
  0.000000000000000E+000
  3.075686048784763E-008
  4.552793206058127E-007
  1.041398245256748E-006
  1.579646931822873E-006
  2.124550041341712E-006
  2.722335716200934E-006
  3.423861561507170E-006
  4.297656443247943E-006
  5.448366179325199E-006
  7.053756444717661E-006
  9.431474177713735E-006
  1.325018829451291E-005
  3.991557844373531E-009
  0.000000000000000E+000
  0.000000000000000E+000
  0.000000000000000E+000
  1.837702793292584E-008
  3.509219918982607E-007
  8.130017220051264E-007
  1.291920832571053E-006
  1.821974885837092E-006
  2.450077355189756E-006
  3.239011010365320E-006
  4.286567096912701E-006
  5.776616709107483E-006
  8.136777981696622E-006
  1.283894616341800E-005
SCALARS elementIsPlast double 
LOOKUP_TABLE default
   1.00000000000000     
   1.00000000000000     
   1.00000000000000     
   1.00000000000000     
   1.00000000000000     
   1.00000000000000     
   1.00000000000000     
   1.00000000000000     
  0.000000000000000E+000
  0.000000000000000E+000
  0.000000000000000E+000
  0.000000000000000E+000
  0.000000000000000E+000
  0.000000000000000E+000
  0.000000000000000E+000
   1.00000000000000     
   1.00000000000000     
   1.00000000000000     
   1.00000000000000     
   1.00000000000000     
   1.00000000000000     
   1.00000000000000     
   1.00000000000000     
  0.000000000000000E+000
  0.000000000000000E+000
  0.000000000000000E+000
  0.000000000000000E+000
  0.000000000000000E+000
  0.000000000000000E+000
  0.000000000000000E+000
   1.00000000000000     
   1.00000000000000     
   1.00000000000000     
   1.00000000000000     
   1.00000000000000     
   1.00000000000000     
   1.00000000000000     
   1.00000000000000     
  0.000000000000000E+000
  0.000000000000000E+000
  0.000000000000000E+000
  0.000000000000000E+000
  0.000000000000000E+000
  0.000000000000000E+000
  0.000000000000000E+000
   1.00000000000000     
   1.00000000000000     
   1.00000000000000     
   1.00000000000000     
   1.00000000000000     
   1.00000000000000     
   1.00000000000000     
   1.00000000000000     
  0.000000000000000E+000
  0.000000000000000E+000
  0.000000000000000E+000
  0.000000000000000E+000
  0.000000000000000E+000
  0.000000000000000E+000
  0.000000000000000E+000
   1.00000000000000     
   1.00000000000000     
   1.00000000000000     
   1.00000000000000     
   1.00000000000000     
   1.00000000000000     
   1.00000000000000     
   1.00000000000000     
  0.000000000000000E+000
  0.000000000000000E+000
  0.000000000000000E+000
  0.000000000000000E+000
  0.000000000000000E+000
  0.000000000000000E+000
  0.000000000000000E+000
   1.00000000000000     
   1.00000000000000     
   1.00000000000000     
   1.00000000000000     
   1.00000000000000     
   1.00000000000000     
   1.00000000000000     
   1.00000000000000     
  0.000000000000000E+000
  0.000000000000000E+000
  0.000000000000000E+000
  0.000000000000000E+000
  0.000000000000000E+000
  0.000000000000000E+000
  0.000000000000000E+000
   1.00000000000000     
   1.00000000000000     
   1.00000000000000     
   1.00000000000000     
   1.00000000000000     
   1.00000000000000     
   1.00000000000000     
   1.00000000000000     
  0.000000000000000E+000
  0.000000000000000E+000
  0.000000000000000E+000
  0.000000000000000E+000
  0.000000000000000E+000
  0.000000000000000E+000
  0.000000000000000E+000
   1.00000000000000     
   1.00000000000000     
   1.00000000000000     
   1.00000000000000     
   1.00000000000000     
   1.00000000000000     
   1.00000000000000     
   1.00000000000000     
  0.000000000000000E+000
  0.000000000000000E+000
  0.000000000000000E+000
  0.000000000000000E+000
  0.000000000000000E+000
  0.000000000000000E+000
  0.000000000000000E+000
   1.00000000000000     
   1.00000000000000     
   1.00000000000000     
   1.00000000000000     
   1.00000000000000     
   1.00000000000000     
   1.00000000000000     
   1.00000000000000     
  0.000000000000000E+000
  0.000000000000000E+000
  0.000000000000000E+000
  0.000000000000000E+000
  0.000000000000000E+000
  0.000000000000000E+000
  0.000000000000000E+000
   1.00000000000000     
   1.00000000000000     
   1.00000000000000     
   1.00000000000000     
   1.00000000000000     
   1.00000000000000     
   1.00000000000000     
   1.00000000000000     
  0.000000000000000E+000
  0.000000000000000E+000
  0.000000000000000E+000
  0.000000000000000E+000
  0.000000000000000E+000
  0.000000000000000E+000
  0.000000000000000E+000
   1.00000000000000     
   1.00000000000000     
   1.00000000000000     
   1.00000000000000     
   1.00000000000000     
   1.00000000000000     
   1.00000000000000     
   1.00000000000000     
   1.00000000000000     
  0.000000000000000E+000
  0.000000000000000E+000
  0.000000000000000E+000
  0.000000000000000E+000
  0.000000000000000E+000
  0.000000000000000E+000
   1.00000000000000     
   1.00000000000000     
   1.00000000000000     
   1.00000000000000     
   1.00000000000000     
   1.00000000000000     
   1.00000000000000     
   1.00000000000000     
   1.00000000000000     
   1.00000000000000     
  0.000000000000000E+000
  0.000000000000000E+000
  0.000000000000000E+000
  0.000000000000000E+000
  0.000000000000000E+000
   1.00000000000000     
   1.00000000000000     
   1.00000000000000     
   1.00000000000000     
   1.00000000000000     
   1.00000000000000     
   1.00000000000000     
   1.00000000000000     
   1.00000000000000     
   1.00000000000000     
   1.00000000000000     
  0.000000000000000E+000
  0.000000000000000E+000
  0.000000000000000E+000
  0.000000000000000E+000
   1.00000000000000     
   1.00000000000000     
   1.00000000000000     
   1.00000000000000     
   1.00000000000000     
   1.00000000000000     
   1.00000000000000     
   1.00000000000000     
   1.00000000000000     
   1.00000000000000     
   1.00000000000000     
   1.00000000000000     
   1.00000000000000     
   1.00000000000000     
   1.00000000000000     
   1.00000000000000     
   1.00000000000000     
   1.00000000000000     
   1.00000000000000     
   1.00000000000000     
   1.00000000000000     
   1.00000000000000     
   1.00000000000000     
   1.00000000000000     
   1.00000000000000     
   1.00000000000000     
   1.00000000000000     
   1.00000000000000     
   1.00000000000000     
   1.00000000000000     
   1.00000000000000     
   1.00000000000000     
   1.00000000000000     
   1.00000000000000     
   1.00000000000000     
   1.00000000000000     
   1.00000000000000     
   1.00000000000000     
   1.00000000000000     
   1.00000000000000     
   1.00000000000000     
   1.00000000000000     
   1.00000000000000     
   1.00000000000000     
   1.00000000000000     
   1.00000000000000     
   1.00000000000000     
   1.00000000000000     
   1.00000000000000     
   1.00000000000000     
   1.00000000000000     
   1.00000000000000     
   1.00000000000000     
   1.00000000000000     
   1.00000000000000     
   1.00000000000000     
   1.00000000000000     
   1.00000000000000     
   1.00000000000000     
   1.00000000000000     
   1.00000000000000     
   1.00000000000000     
   1.00000000000000     
   1.00000000000000     
   1.00000000000000     
   1.00000000000000     
   1.00000000000000     
   1.00000000000000     
   1.00000000000000     
   1.00000000000000     
   1.00000000000000     
   1.00000000000000     
   1.00000000000000     
   1.00000000000000     
   1.00000000000000     
  0.000000000000000E+000
  0.000000000000000E+000
   1.00000000000000     
   1.00000000000000     
   1.00000000000000     
   1.00000000000000     
   1.00000000000000     
   1.00000000000000     
   1.00000000000000     
   1.00000000000000     
   1.00000000000000     
   1.00000000000000     
   1.00000000000000     
   1.00000000000000     
   1.00000000000000     
  0.000000000000000E+000
  0.000000000000000E+000
   1.00000000000000     
   1.00000000000000     
   1.00000000000000     
   1.00000000000000     
   1.00000000000000     
   1.00000000000000     
   1.00000000000000     
   1.00000000000000     
   1.00000000000000     
   1.00000000000000     
   1.00000000000000     
   1.00000000000000     
   1.00000000000000     
  0.000000000000000E+000
  0.000000000000000E+000
  0.000000000000000E+000
   1.00000000000000     
   1.00000000000000     
   1.00000000000000     
   1.00000000000000     
   1.00000000000000     
   1.00000000000000     
   1.00000000000000     
   1.00000000000000     
   1.00000000000000     
   1.00000000000000     
   1.00000000000000     
   1.00000000000000     
  0.000000000000000E+000
  0.000000000000000E+000
  0.000000000000000E+000
   1.00000000000000     
   1.00000000000000     
   1.00000000000000     
   1.00000000000000     
   1.00000000000000     
   1.00000000000000     
   1.00000000000000     
   1.00000000000000     
   1.00000000000000     
   1.00000000000000     
   1.00000000000000     
   1.00000000000000     
  0.000000000000000E+000
  0.000000000000000E+000
  0.000000000000000E+000
   1.00000000000000     
   1.00000000000000     
   1.00000000000000     
   1.00000000000000     
   1.00000000000000     
   1.00000000000000     
   1.00000000000000     
   1.00000000000000     
   1.00000000000000     
   1.00000000000000     
   1.00000000000000     
   1.00000000000000     
  0.000000000000000E+000
  0.000000000000000E+000
  0.000000000000000E+000
   1.00000000000000     
   1.00000000000000     
   1.00000000000000     
   1.00000000000000     
   1.00000000000000     
   1.00000000000000     
   1.00000000000000     
   1.00000000000000     
   1.00000000000000     
   1.00000000000000     
   1.00000000000000     
   1.00000000000000     
  0.000000000000000E+000
  0.000000000000000E+000
  0.000000000000000E+000
   1.00000000000000     
   1.00000000000000     
   1.00000000000000     
   1.00000000000000     
   1.00000000000000     
   1.00000000000000     
   1.00000000000000     
   1.00000000000000     
   1.00000000000000     
   1.00000000000000     
   1.00000000000000     
   1.00000000000000     
  0.000000000000000E+000
  0.000000000000000E+000
  0.000000000000000E+000
   1.00000000000000     
   1.00000000000000     
   1.00000000000000     
   1.00000000000000     
   1.00000000000000     
   1.00000000000000     
   1.00000000000000     
   1.00000000000000     
   1.00000000000000     
   1.00000000000000     
   1.00000000000000     
   1.00000000000000     
  0.000000000000000E+000
  0.000000000000000E+000
  0.000000000000000E+000
   1.00000000000000     
   1.00000000000000     
   1.00000000000000     
   1.00000000000000     
   1.00000000000000     
   1.00000000000000     
   1.00000000000000     
   1.00000000000000     
   1.00000000000000     
   1.00000000000000     
   1.00000000000000     
   1.00000000000000     
  0.000000000000000E+000
  0.000000000000000E+000
  0.000000000000000E+000
   1.00000000000000     
   1.00000000000000     
   1.00000000000000     
   1.00000000000000     
   1.00000000000000     
   1.00000000000000     
   1.00000000000000     
   1.00000000000000     
   1.00000000000000     
   1.00000000000000     
   1.00000000000000     
   1.00000000000000     
  0.000000000000000E+000
  0.000000000000000E+000
  0.000000000000000E+000
   1.00000000000000     
   1.00000000000000     
   1.00000000000000     
   1.00000000000000     
   1.00000000000000     
   1.00000000000000     
   1.00000000000000     
   1.00000000000000     
   1.00000000000000     
   1.00000000000000     
   1.00000000000000     
   1.00000000000000     
  0.000000000000000E+000
  0.000000000000000E+000
  0.000000000000000E+000
  0.000000000000000E+000
   1.00000000000000     
   1.00000000000000     
   1.00000000000000     
   1.00000000000000     
   1.00000000000000     
   1.00000000000000     
   1.00000000000000     
   1.00000000000000     
   1.00000000000000     
   1.00000000000000     
   1.00000000000000     
SCALARS poroL double 
LOOKUP_TABLE default
  0.155936961543316     
  0.155935455027385     
  0.155934013635316     
  0.155932660809524     
  0.155931414044794     
  0.155930266232813     
  0.155929204781772     
  0.155927899870279     
  0.155925568050271     
  0.155923423923870     
  0.155921492079789     
  0.155919761691208     
  0.155918223275636     
  0.155916868350881     
  0.155915689284750     
  0.155936503788394     
  0.155934990404884     
  0.155933545946650     
  0.155932191846559     
  0.155930943529261     
  0.155929792582986     
  0.155928726326409     
  0.155927417088052     
  0.155925098190356     
  0.155922969849727     
  0.155921051788497     
  0.155919333858969     
  0.155917806883884     
  0.155916462515046     
  0.155915293198086     
  0.155935593038646     
  0.155934063809790     
  0.155932609792356     
  0.155931252960315     
  0.155930001666073     
  0.155928846119810     
  0.155927769601870     
  0.155926450839314     
  0.155924162137038     
  0.155922064104411     
  0.155920173025113     
  0.155918479780977     
  0.155916975555728     
  0.155915652223663     
  0.155914502362952     
  0.155934225959438     
  0.155932676325676     
  0.155931206411801     
  0.155929842051125     
  0.155928586212389     
  0.155927424913023     
  0.155926338222814     
  0.155925008533122     
  0.155922766073886     
  0.155920710766904     
  0.155918859257119     
  0.155917202537581     
  0.155915732150180     
  0.155914440201269     
  0.155913319430500     
  0.155932391421240     
  0.155930821503445     
  0.155929338118982     
  0.155927965301380     
  0.155926699989652     
  0.155925527107126     
  0.155924427898423     
  0.155923094195568     
  0.155920915267705     
  0.155918915275171     
  0.155917115309971     
  0.155915506575547     
  0.155914080834188     
  0.155912830447008     
  0.155911748317805     
  0.155930081248287     
  0.155928502785786     
  0.155927010716380     
  0.155925624156792     
  0.155924341928783     
  0.155923152730602     
  0.155922039281556     
  0.155920716193086     
  0.155918616369391     
  0.155916683959725     
  0.155914947280496     
  0.155913397557995     
  0.155912026951774     
  0.155910828128180     
  0.155909794141438     
  0.155927278365688     
  0.155925710472866     
  0.155924223404897     
  0.155922827890529     
  0.155921523094709     
  0.155920307867873     
  0.155919174885078     
  0.155917884469558     
  0.155915876797185     
  0.155914024689599     
  0.155912362462279     
  0.155910882206697     
  0.155909576828899     
  0.155908439426250     
  0.155907463127112     
  0.155923971305379     
  0.155922438936700     
  0.155920982540139     
  0.155919591501646     
  0.155918261049345     
  0.155917003607734     
  0.155915835835721     
  0.155914596740349     
  0.155912707203679     
  0.155910947150439     
  0.155909369283742     
  0.155907967967188     
  0.155906737496961     
  0.155905671310969     
  0.155904762468613     
  0.155920159354456     
  0.155918691207207     
  0.155917290695647     
  0.155915922339847     
  0.155914576334334     
  0.155913271125885     
  0.155912046682327     
  0.155910865901519     
  0.155909123085392     
  0.155907463027879     
  0.155905976290905     
  0.155904662624194     
  0.155903516364703     
  0.155902531114256     
  0.155901700091513     
  0.155915850747566     
  0.155914476924838     
  0.155913149744185     
  0.155911822569127     
  0.155910485981610     
  0.155909152331906     
  0.155907854365545     
  0.155906667353700     
  0.155905147195861     
  0.155903579720306     
  0.155902191674723     
  0.155900974569051     
  0.155899920404818     
  0.155899025853452     
  0.155898284031114     
  0.155911087522931     
  0.155909817997905     
  0.155908564367098     
  0.155907289074209     
  0.155905987482812     
  0.155904667598203     
  0.155903346344601     
  0.155902062648218     
  0.155900767437506     
  0.155899300626265     
  0.155898028411169     
  0.155896910779110     
  0.155895956251228     
  0.155895160252734     
  0.155894520844160     
  0.155905888824719     
  0.155904724743981     
  0.155903542982995     
  0.155902326555717     
  0.155901081415648     
  0.155899819161494     
  0.155898547601524     
  0.155897263872623     
  0.155895996201092     
  0.155894670125258     
  0.155893486503818     
  0.155892485948000     
  0.155891627706733     
  0.155890933002702     
  0.155890410367536     
  0.155900285935497     
  0.155899208852581     
  0.155898094988662     
  0.155896948325915     
  0.155895783600395     
  0.155894616767658     
  0.155893455712124     
  0.155892307137306     
  0.155891142176137     
  0.155889929381517     
  0.155888681226291     
  0.155887713836758     
  0.155886943158509     
  0.155886325872047     
  0.155885928012794     
  0.155894261562044     
  0.155893271068651     
  0.155892235542923     
  0.155891177559318     
  0.155890124436647     
  0.155889094357403     
  0.155888092491234     
  0.155887111477376     
  0.155886145342105     
  0.155885163923509     
  0.155884118523780     
  0.155883075667359     
  0.155882185560960     
  0.155881538169815     
  0.155881176602060     
  0.155887803911034     
  0.155886915033260     
  0.155885978742527     
  0.155885042797091     
  0.155884146545637     
  0.155883296440094     
  0.155882483334506     
  0.155881699532261     
  0.155880936290313     
  0.155880180817428     
  0.155879419593783     
  0.155878648615571     
  0.155877898885204     
  0.155877247540076     
  0.155876674568699     
  0.155880913744246     
  0.155880142511510     
  0.155879337329940     
  0.155878583859977     
  0.155877896766564     
  0.155877258522421     
  0.155876657889235     
  0.155876085644563     
  0.155875534060059     
  0.155874994373479     
  0.155874450582680     
  0.155873880819190     
  0.155873278478923     
  0.155872644954104     
  0.155872027877498     
  0.155873578752093     
  0.155872923029294     
  0.155872344576164     
  0.155871855329166     
  0.155871412065985     
  0.155871007524766     
  0.155870634440031     
  0.155870285726575     
  0.155869950960979     
  0.155869613616215     
  0.155869248856872     
  0.155868826934624     
  0.155868320416573     
  0.155867734441055     
  0.155867123629545     
  0.155865643103767     
  0.155865239186130     
  0.155865092755432     
  0.155864896724098     
  0.155864716591441     
  0.155864559056633     
  0.155864425583268     
  0.155864309166061     
  0.155864192427221     
  0.155864048524761     
  0.155863843396038     
  0.155863542600011     
  0.155863123521902     
  0.155862591560135     
  0.155861985841304     
  0.155857537676132     
  0.155857470463169     
  0.155857655422233     
  0.155857753643201     
  0.155857827200740     
  0.155857923909438     
  0.155858042134249     
  0.155858165171819     
  0.155858267121262     
  0.155858313377485     
  0.155858265081053     
  0.155858086668345     
  0.155857756859588     
  0.155857276260538     
  0.155856669849555     
  0.155848903306225     
  0.155849338352256     
  0.155849985380837     
  0.155850466740134     
  0.155850760303152     
  0.155851119188741     
  0.155851497395626     
  0.155851866150866     
  0.155852190733670     
  0.155852431099938     
  0.155852546656195     
  0.155852501293652     
  0.155852269576362     
  0.155851842235606     
  0.155851233796655     
  0.155839821633395     
  0.155840791254574     
  0.155841961544165     
  0.155842933665926     
  0.155843526523692     
  0.155844158916314     
  0.155844805763989     
  0.155845427147670     
  0.155845979804483     
  0.155846421029598     
  0.155846710810337     
  0.155846812331092     
  0.155846694368585     
  0.155846334929316     
  0.155845731585457     
  0.155830412687917     
  0.155831934250157     
  0.155833634887735     
  0.155835160451562     
  0.155836111724613     
  0.155837050308496     
  0.155837983181392     
  0.155838865973950     
  0.155839651727315     
  0.155840298046242     
  0.155840768280279     
  0.155841029513188     
  0.155841046807963     
  0.155840782831469     
  0.155840207181255     
  0.155820726412050     
  0.155822827194927     
  0.155825068153393     
  0.155827155398355     
  0.155828519705323     
  0.155829802601987     
  0.155831044322534     
  0.155832198817479     
  0.155833220348844     
  0.155834070374968     
  0.155834720518935     
  0.155835147410770     
  0.155835320652508     
  0.155835191659271     
  0.155834694029744     
  0.155810812975468     
  0.155813524652566     
  0.155816334454677     
  0.155818985552422     
  0.155820787411421     
  0.155822444411373     
  0.155824010602849     
  0.155825441267541     
  0.155826696143338     
  0.155827744363741     
  0.155828566223874     
  0.155829151426917     
  0.155829488858975     
  0.155829536396774     
  0.155829188268563     
  0.155800723192750     
  0.155804092430583     
  0.155807508346102     
  0.155810728388056     
  0.155812984994549     
  0.155815027300237     
  0.155816916002024     
  0.155818611422164     
  0.155820086348436     
  0.155821322011449     
  0.155822305763501     
  0.155823035663105     
  0.155823524028748     
  0.155823778235712     
  0.155823689213048     
  0.155790510538211     
  0.155794607704851     
  0.155798679725889     
  0.155802476636107     
  0.155805203201966     
  0.155807623525940     
  0.155809809135208     
  0.155811736659023     
  0.155813401587831     
  0.155814804950738     
  0.155815943775521     
  0.155816811079228     
  0.155817422898718     
  0.155817837461804     
  0.155818109909350     
  0.155780234407693     
  0.155785177298627     
  0.155789967602345     
  0.155794350177502     
  0.155797554047777     
  0.155800320210553     
  0.155802749639450     
  0.155804855369081     
  0.155806662748725     
  0.155808199292372     
  0.155809478214112     
  0.155810492643986     
  0.155811226539465     
  0.155811765999189     
  0.155812397992860     
  0.155769977080334     
  0.155775982740892     
  0.155781566600757     
  0.155786498927233     
  0.155790175782736     
  0.155793209340080     
  0.155795805039508     
  0.155798013737389     
  0.155799903173015     
  0.155801521570492     
  0.155802901374930     
  0.155804057187302     
  0.155804976957507     
  0.155805631784578     
  0.155806532076435     
  0.155759910216449     
  0.155767395741873     
  0.155773833588866     
  0.155779131493739     
  0.155783198309430     
  0.155786394122024     
  0.155789030114866     
  0.155791262403251     
  0.155793169535284     
  0.155794806260771     
  0.155796219294149     
  0.155797452802896     
  0.155798545119332     
  0.155799532829859     
  0.155800560862590     
  0.155750791180754     
  0.155760230394897     
  0.155767195560728     
  0.155772629079195     
  0.155776807095900     
  0.155779922833696     
  0.155782475064250     
  0.155784655114123     
  0.155786511886545     
  0.155788095829539     
  0.155789456706667     
  0.155790650988384     
  0.155791757111529     
  0.155792915295149     
  0.155794774183666     
