# vtk DataFile Version 3.0
vtk output
ASCII
DATASET UNSTRUCTURED_GRID
POINTS       496 double 
  0.00000000E+00  3.00000000E+02  0.00000000E+00
  0.00000000E+00  2.80000000E+02  0.00000000E+00
  0.00000000E+00  2.60000000E+02  0.00000000E+00
  0.00000000E+00  2.40000000E+02  0.00000000E+00
  0.00000000E+00  2.20000000E+02  0.00000000E+00
  0.00000000E+00  2.00000000E+02  0.00000000E+00
  0.00000000E+00  1.80000000E+02  0.00000000E+00
  0.00000000E+00  1.60000000E+02  0.00000000E+00
  0.00000000E+00  1.40000000E+02  0.00000000E+00
  0.00000000E+00  1.20000000E+02  0.00000000E+00
  0.00000000E+00  1.00000000E+02  0.00000000E+00
  0.00000000E+00  8.00000000E+01  0.00000000E+00
  0.00000000E+00  6.00000000E+01  0.00000000E+00
  0.00000000E+00  4.00000000E+01  0.00000000E+00
  0.00000000E+00  2.00000000E+01  0.00000000E+00
  0.00000000E+00  4.99600361E-14  0.00000000E+00
  2.00000000E+01  3.00000000E+02  0.00000000E+00
  2.00000000E+01  2.80000000E+02  0.00000000E+00
  2.00000000E+01  2.60000000E+02  0.00000000E+00
  2.00000000E+01  2.40000000E+02  0.00000000E+00
  2.00000000E+01  2.20000000E+02  0.00000000E+00
  2.00000000E+01  2.00000000E+02  0.00000000E+00
  2.00000000E+01  1.80000000E+02  0.00000000E+00
  2.00000000E+01  1.60000000E+02  0.00000000E+00
  2.00000000E+01  1.40000000E+02  0.00000000E+00
  2.00000000E+01  1.20000000E+02  0.00000000E+00
  2.00000000E+01  1.00000000E+02  0.00000000E+00
  2.00000000E+01  8.00000000E+01  0.00000000E+00
  2.00000000E+01  6.00000000E+01  0.00000000E+00
  2.00000000E+01  4.00000000E+01  0.00000000E+00
  2.00000000E+01  2.00000000E+01  0.00000000E+00
  2.00000000E+01  4.99600361E-14  0.00000000E+00
  4.00000000E+01  3.00000000E+02  0.00000000E+00
  4.00000000E+01  2.80000000E+02  0.00000000E+00
  4.00000000E+01  2.60000000E+02  0.00000000E+00
  4.00000000E+01  2.40000000E+02  0.00000000E+00
  4.00000000E+01  2.20000000E+02  0.00000000E+00
  4.00000000E+01  2.00000000E+02  0.00000000E+00
  4.00000000E+01  1.80000000E+02  0.00000000E+00
  4.00000000E+01  1.60000000E+02  0.00000000E+00
  4.00000000E+01  1.40000000E+02  0.00000000E+00
  4.00000000E+01  1.20000000E+02  0.00000000E+00
  4.00000000E+01  1.00000000E+02  0.00000000E+00
  4.00000000E+01  8.00000000E+01  0.00000000E+00
  4.00000000E+01  6.00000000E+01  0.00000000E+00
  4.00000000E+01  4.00000000E+01  0.00000000E+00
  4.00000000E+01  2.00000000E+01  0.00000000E+00
  4.00000000E+01  4.99600361E-14  0.00000000E+00
  6.00000000E+01  3.00000000E+02  0.00000000E+00
  6.00000000E+01  2.80000000E+02  0.00000000E+00
  6.00000000E+01  2.60000000E+02  0.00000000E+00
  6.00000000E+01  2.40000000E+02  0.00000000E+00
  6.00000000E+01  2.20000000E+02  0.00000000E+00
  6.00000000E+01  2.00000000E+02  0.00000000E+00
  6.00000000E+01  1.80000000E+02  0.00000000E+00
  6.00000000E+01  1.60000000E+02  0.00000000E+00
  6.00000000E+01  1.40000000E+02  0.00000000E+00
  6.00000000E+01  1.20000000E+02  0.00000000E+00
  6.00000000E+01  1.00000000E+02  0.00000000E+00
  6.00000000E+01  8.00000000E+01  0.00000000E+00
  6.00000000E+01  6.00000000E+01  0.00000000E+00
  6.00000000E+01  4.00000000E+01  0.00000000E+00
  6.00000000E+01  2.00000000E+01  0.00000000E+00
  6.00000000E+01  4.99600361E-14  0.00000000E+00
  8.00000000E+01  3.00000000E+02  0.00000000E+00
  8.00000000E+01  2.80000000E+02  0.00000000E+00
  8.00000000E+01  2.60000000E+02  0.00000000E+00
  8.00000000E+01  2.40000000E+02  0.00000000E+00
  8.00000000E+01  2.20000000E+02  0.00000000E+00
  8.00000000E+01  2.00000000E+02  0.00000000E+00
  8.00000000E+01  1.80000000E+02  0.00000000E+00
  8.00000000E+01  1.60000000E+02  0.00000000E+00
  8.00000000E+01  1.40000000E+02  0.00000000E+00
  8.00000000E+01  1.20000000E+02  0.00000000E+00
  8.00000000E+01  1.00000000E+02  0.00000000E+00
  8.00000000E+01  8.00000000E+01  0.00000000E+00
  8.00000000E+01  6.00000000E+01  0.00000000E+00
  8.00000000E+01  4.00000000E+01  0.00000000E+00
  8.00000000E+01  2.00000000E+01  0.00000000E+00
  8.00000000E+01  4.99600361E-14  0.00000000E+00
  1.00000000E+02  3.00000000E+02  0.00000000E+00
  1.00000000E+02  2.80000000E+02  0.00000000E+00
  1.00000000E+02  2.60000000E+02  0.00000000E+00
  1.00000000E+02  2.40000000E+02  0.00000000E+00
  1.00000000E+02  2.20000000E+02  0.00000000E+00
  1.00000000E+02  2.00000000E+02  0.00000000E+00
  1.00000000E+02  1.80000000E+02  0.00000000E+00
  1.00000000E+02  1.60000000E+02  0.00000000E+00
  1.00000000E+02  1.40000000E+02  0.00000000E+00
  1.00000000E+02  1.20000000E+02  0.00000000E+00
  1.00000000E+02  1.00000000E+02  0.00000000E+00
  1.00000000E+02  8.00000000E+01  0.00000000E+00
  1.00000000E+02  6.00000000E+01  0.00000000E+00
  1.00000000E+02  4.00000000E+01  0.00000000E+00
  1.00000000E+02  2.00000000E+01  0.00000000E+00
  1.00000000E+02  4.99600361E-14  0.00000000E+00
  1.20000000E+02  3.00000000E+02  0.00000000E+00
  1.20000000E+02  2.80000000E+02  0.00000000E+00
  1.20000000E+02  2.60000000E+02  0.00000000E+00
  1.20000000E+02  2.40000000E+02  0.00000000E+00
  1.20000000E+02  2.20000000E+02  0.00000000E+00
  1.20000000E+02  2.00000000E+02  0.00000000E+00
  1.20000000E+02  1.80000000E+02  0.00000000E+00
  1.20000000E+02  1.60000000E+02  0.00000000E+00
  1.20000000E+02  1.40000000E+02  0.00000000E+00
  1.20000000E+02  1.20000000E+02  0.00000000E+00
  1.20000000E+02  1.00000000E+02  0.00000000E+00
  1.20000000E+02  8.00000000E+01  0.00000000E+00
  1.20000000E+02  6.00000000E+01  0.00000000E+00
  1.20000000E+02  4.00000000E+01  0.00000000E+00
  1.20000000E+02  2.00000000E+01  0.00000000E+00
  1.20000000E+02  4.99600361E-14  0.00000000E+00
  1.40000000E+02  3.00000000E+02  0.00000000E+00
  1.40000000E+02  2.80000000E+02  0.00000000E+00
  1.40000000E+02  2.60000000E+02  0.00000000E+00
  1.40000000E+02  2.40000000E+02  0.00000000E+00
  1.40000000E+02  2.20000000E+02  0.00000000E+00
  1.40000000E+02  2.00000000E+02  0.00000000E+00
  1.40000000E+02  1.80000000E+02  0.00000000E+00
  1.40000000E+02  1.60000000E+02  0.00000000E+00
  1.40000000E+02  1.40000000E+02  0.00000000E+00
  1.40000000E+02  1.20000000E+02  0.00000000E+00
  1.40000000E+02  1.00000000E+02  0.00000000E+00
  1.40000000E+02  8.00000000E+01  0.00000000E+00
  1.40000000E+02  6.00000000E+01  0.00000000E+00
  1.40000000E+02  4.00000000E+01  0.00000000E+00
  1.40000000E+02  2.00000000E+01  0.00000000E+00
  1.40000000E+02  4.99600361E-14  0.00000000E+00
  1.60000000E+02  3.00000000E+02  0.00000000E+00
  1.60000000E+02  2.80000000E+02  0.00000000E+00
  1.60000000E+02  2.60000000E+02  0.00000000E+00
  1.60000000E+02  2.40000000E+02  0.00000000E+00
  1.60000000E+02  2.20000000E+02  0.00000000E+00
  1.60000000E+02  2.00000000E+02  0.00000000E+00
  1.60000000E+02  1.80000000E+02  0.00000000E+00
  1.60000000E+02  1.60000000E+02  0.00000000E+00
  1.60000000E+02  1.40000000E+02  0.00000000E+00
  1.60000000E+02  1.20000000E+02  0.00000000E+00
  1.60000000E+02  1.00000000E+02  0.00000000E+00
  1.60000000E+02  8.00000000E+01  0.00000000E+00
  1.60000000E+02  6.00000000E+01  0.00000000E+00
  1.60000000E+02  4.00000000E+01  0.00000000E+00
  1.60000000E+02  2.00000000E+01  0.00000000E+00
  1.60000000E+02  4.99600361E-14  0.00000000E+00
  1.80000000E+02  3.00000000E+02  0.00000000E+00
  1.80000000E+02  2.80000000E+02  0.00000000E+00
  1.80000000E+02  2.60000000E+02  0.00000000E+00
  1.80000000E+02  2.40000000E+02  0.00000000E+00
  1.80000000E+02  2.20000000E+02  0.00000000E+00
  1.80000000E+02  2.00000000E+02  0.00000000E+00
  1.80000000E+02  1.80000000E+02  0.00000000E+00
  1.80000000E+02  1.60000000E+02  0.00000000E+00
  1.80000000E+02  1.40000000E+02  0.00000000E+00
  1.80000000E+02  1.20000000E+02  0.00000000E+00
  1.80000000E+02  1.00000000E+02  0.00000000E+00
  1.80000000E+02  8.00000000E+01  0.00000000E+00
  1.80000000E+02  6.00000000E+01  0.00000000E+00
  1.80000000E+02  4.00000000E+01  0.00000000E+00
  1.80000000E+02  2.00000000E+01  0.00000000E+00
  1.80000000E+02  4.99600361E-14  0.00000000E+00
  2.00000000E+02  3.00000000E+02  0.00000000E+00
  2.00000000E+02  2.80000000E+02  0.00000000E+00
  2.00000000E+02  2.60000000E+02  0.00000000E+00
  2.00000000E+02  2.40000000E+02  0.00000000E+00
  2.00000000E+02  2.20000000E+02  0.00000000E+00
  2.00000000E+02  2.00000000E+02  0.00000000E+00
  2.00000000E+02  1.80000000E+02  0.00000000E+00
  2.00000000E+02  1.60000000E+02  0.00000000E+00
  2.00000000E+02  1.40000000E+02  0.00000000E+00
  2.00000000E+02  1.20000000E+02  0.00000000E+00
  2.00000000E+02  1.00000000E+02  0.00000000E+00
  2.00000000E+02  8.00000000E+01  0.00000000E+00
  2.00000000E+02  6.00000000E+01  0.00000000E+00
  2.00000000E+02  4.00000000E+01  0.00000000E+00
  2.00000000E+02  2.00000000E+01  0.00000000E+00
  2.00000000E+02  4.99600361E-14  0.00000000E+00
  2.20000000E+02  3.00000000E+02  0.00000000E+00
  2.20000000E+02  2.80000000E+02  0.00000000E+00
  2.20000000E+02  2.60000000E+02  0.00000000E+00
  2.20000000E+02  2.40000000E+02  0.00000000E+00
  2.20000000E+02  2.20000000E+02  0.00000000E+00
  2.20000000E+02  2.00000000E+02  0.00000000E+00
  2.20000000E+02  1.80000000E+02  0.00000000E+00
  2.20000000E+02  1.60000000E+02  0.00000000E+00
  2.20000000E+02  1.40000000E+02  0.00000000E+00
  2.20000000E+02  1.20000000E+02  0.00000000E+00
  2.20000000E+02  1.00000000E+02  0.00000000E+00
  2.20000000E+02  8.00000000E+01  0.00000000E+00
  2.20000000E+02  6.00000000E+01  0.00000000E+00
  2.20000000E+02  4.00000000E+01  0.00000000E+00
  2.20000000E+02  2.00000000E+01  0.00000000E+00
  2.20000000E+02  4.99600361E-14  0.00000000E+00
  2.40000000E+02  3.00000000E+02  0.00000000E+00
  2.40000000E+02  2.80000000E+02  0.00000000E+00
  2.40000000E+02  2.60000000E+02  0.00000000E+00
  2.40000000E+02  2.40000000E+02  0.00000000E+00
  2.40000000E+02  2.20000000E+02  0.00000000E+00
  2.40000000E+02  2.00000000E+02  0.00000000E+00
  2.40000000E+02  1.80000000E+02  0.00000000E+00
  2.40000000E+02  1.60000000E+02  0.00000000E+00
  2.40000000E+02  1.40000000E+02  0.00000000E+00
  2.40000000E+02  1.20000000E+02  0.00000000E+00
  2.40000000E+02  1.00000000E+02  0.00000000E+00
  2.40000000E+02  8.00000000E+01  0.00000000E+00
  2.40000000E+02  6.00000000E+01  0.00000000E+00
  2.40000000E+02  4.00000000E+01  0.00000000E+00
  2.40000000E+02  2.00000000E+01  0.00000000E+00
  2.40000000E+02  4.99600361E-14  0.00000000E+00
  2.60000000E+02  3.00000000E+02  0.00000000E+00
  2.60000000E+02  2.80000000E+02  0.00000000E+00
  2.60000000E+02  2.60000000E+02  0.00000000E+00
  2.60000000E+02  2.40000000E+02  0.00000000E+00
  2.60000000E+02  2.20000000E+02  0.00000000E+00
  2.60000000E+02  2.00000000E+02  0.00000000E+00
  2.60000000E+02  1.80000000E+02  0.00000000E+00
  2.60000000E+02  1.60000000E+02  0.00000000E+00
  2.60000000E+02  1.40000000E+02  0.00000000E+00
  2.60000000E+02  1.20000000E+02  0.00000000E+00
  2.60000000E+02  1.00000000E+02  0.00000000E+00
  2.60000000E+02  8.00000000E+01  0.00000000E+00
  2.60000000E+02  6.00000000E+01  0.00000000E+00
  2.60000000E+02  4.00000000E+01  0.00000000E+00
  2.60000000E+02  2.00000000E+01  0.00000000E+00
  2.60000000E+02  4.99600361E-14  0.00000000E+00
  2.80000000E+02  3.00000000E+02  0.00000000E+00
  2.80000000E+02  2.80000000E+02  0.00000000E+00
  2.80000000E+02  2.60000000E+02  0.00000000E+00
  2.80000000E+02  2.40000000E+02  0.00000000E+00
  2.80000000E+02  2.20000000E+02  0.00000000E+00
  2.80000000E+02  2.00000000E+02  0.00000000E+00
  2.80000000E+02  1.80000000E+02  0.00000000E+00
  2.80000000E+02  1.60000000E+02  0.00000000E+00
  2.80000000E+02  1.40000000E+02  0.00000000E+00
  2.80000000E+02  1.20000000E+02  0.00000000E+00
  2.80000000E+02  1.00000000E+02  0.00000000E+00
  2.80000000E+02  8.00000000E+01  0.00000000E+00
  2.80000000E+02  6.00000000E+01  0.00000000E+00
  2.80000000E+02  4.00000000E+01  0.00000000E+00
  2.80000000E+02  2.00000000E+01  0.00000000E+00
  2.80000000E+02  4.99600361E-14  0.00000000E+00
  3.00000000E+02  3.00000000E+02  0.00000000E+00
  3.00000000E+02  2.80000000E+02  0.00000000E+00
  3.00000000E+02  2.60000000E+02  0.00000000E+00
  3.00000000E+02  2.40000000E+02  0.00000000E+00
  3.00000000E+02  2.20000000E+02  0.00000000E+00
  3.00000000E+02  2.00000000E+02  0.00000000E+00
  3.00000000E+02  1.80000000E+02  0.00000000E+00
  3.00000000E+02  1.60000000E+02  0.00000000E+00
  3.00000000E+02  1.40000000E+02  0.00000000E+00
  3.00000000E+02  1.20000000E+02  0.00000000E+00
  3.00000000E+02  1.00000000E+02  0.00000000E+00
  3.00000000E+02  8.00000000E+01  0.00000000E+00
  3.00000000E+02  6.00000000E+01  0.00000000E+00
  3.00000000E+02  4.00000000E+01  0.00000000E+00
  3.00000000E+02  2.00000000E+01  0.00000000E+00
  3.00000000E+02  4.99600361E-14  0.00000000E+00
  3.20000000E+02  3.00000000E+02  0.00000000E+00
  3.20000000E+02  2.80000000E+02  0.00000000E+00
  3.20000000E+02  2.60000000E+02  0.00000000E+00
  3.20000000E+02  2.40000000E+02  0.00000000E+00
  3.20000000E+02  2.20000000E+02  0.00000000E+00
  3.20000000E+02  2.00000000E+02  0.00000000E+00
  3.20000000E+02  1.80000000E+02  0.00000000E+00
  3.20000000E+02  1.60000000E+02  0.00000000E+00
  3.20000000E+02  1.40000000E+02  0.00000000E+00
  3.20000000E+02  1.20000000E+02  0.00000000E+00
  3.20000000E+02  1.00000000E+02  0.00000000E+00
  3.20000000E+02  8.00000000E+01  0.00000000E+00
  3.20000000E+02  6.00000000E+01  0.00000000E+00
  3.20000000E+02  4.00000000E+01  0.00000000E+00
  3.20000000E+02  2.00000000E+01  0.00000000E+00
  3.20000000E+02  4.99600361E-14  0.00000000E+00
  3.40000000E+02  3.00000000E+02  0.00000000E+00
  3.40000000E+02  2.80000000E+02  0.00000000E+00
  3.40000000E+02  2.60000000E+02  0.00000000E+00
  3.40000000E+02  2.40000000E+02  0.00000000E+00
  3.40000000E+02  2.20000000E+02  0.00000000E+00
  3.40000000E+02  2.00000000E+02  0.00000000E+00
  3.40000000E+02  1.80000000E+02  0.00000000E+00
  3.40000000E+02  1.60000000E+02  0.00000000E+00
  3.40000000E+02  1.40000000E+02  0.00000000E+00
  3.40000000E+02  1.20000000E+02  0.00000000E+00
  3.40000000E+02  1.00000000E+02  0.00000000E+00
  3.40000000E+02  8.00000000E+01  0.00000000E+00
  3.40000000E+02  6.00000000E+01  0.00000000E+00
  3.40000000E+02  4.00000000E+01  0.00000000E+00
  3.40000000E+02  2.00000000E+01  0.00000000E+00
  3.40000000E+02  4.99600361E-14  0.00000000E+00
  3.60000000E+02  3.00000000E+02  0.00000000E+00
  3.60000000E+02  2.80000000E+02  0.00000000E+00
  3.60000000E+02  2.60000000E+02  0.00000000E+00
  3.60000000E+02  2.40000000E+02  0.00000000E+00
  3.60000000E+02  2.20000000E+02  0.00000000E+00
  3.60000000E+02  2.00000000E+02  0.00000000E+00
  3.60000000E+02  1.80000000E+02  0.00000000E+00
  3.60000000E+02  1.60000000E+02  0.00000000E+00
  3.60000000E+02  1.40000000E+02  0.00000000E+00
  3.60000000E+02  1.20000000E+02  0.00000000E+00
  3.60000000E+02  1.00000000E+02  0.00000000E+00
  3.60000000E+02  8.00000000E+01  0.00000000E+00
  3.60000000E+02  6.00000000E+01  0.00000000E+00
  3.60000000E+02  4.00000000E+01  0.00000000E+00
  3.60000000E+02  2.00000000E+01  0.00000000E+00
  3.60000000E+02  4.99600361E-14  0.00000000E+00
  3.80000000E+02  3.00000000E+02  0.00000000E+00
  3.80000000E+02  2.80000000E+02  0.00000000E+00
  3.80000000E+02  2.60000000E+02  0.00000000E+00
  3.80000000E+02  2.40000000E+02  0.00000000E+00
  3.80000000E+02  2.20000000E+02  0.00000000E+00
  3.80000000E+02  2.00000000E+02  0.00000000E+00
  3.80000000E+02  1.80000000E+02  0.00000000E+00
  3.80000000E+02  1.60000000E+02  0.00000000E+00
  3.80000000E+02  1.40000000E+02  0.00000000E+00
  3.80000000E+02  1.20000000E+02  0.00000000E+00
  3.80000000E+02  1.00000000E+02  0.00000000E+00
  3.80000000E+02  8.00000000E+01  0.00000000E+00
  3.80000000E+02  6.00000000E+01  0.00000000E+00
  3.80000000E+02  4.00000000E+01  0.00000000E+00
  3.80000000E+02  2.00000000E+01  0.00000000E+00
  3.80000000E+02  4.99600361E-14  0.00000000E+00
  4.00000000E+02  3.00000000E+02  0.00000000E+00
  4.00000000E+02  2.80000000E+02  0.00000000E+00
  4.00000000E+02  2.60000000E+02  0.00000000E+00
  4.00000000E+02  2.40000000E+02  0.00000000E+00
  4.00000000E+02  2.20000000E+02  0.00000000E+00
  4.00000000E+02  2.00000000E+02  0.00000000E+00
  4.00000000E+02  1.80000000E+02  0.00000000E+00
  4.00000000E+02  1.60000000E+02  0.00000000E+00
  4.00000000E+02  1.40000000E+02  0.00000000E+00
  4.00000000E+02  1.20000000E+02  0.00000000E+00
  4.00000000E+02  1.00000000E+02  0.00000000E+00
  4.00000000E+02  8.00000000E+01  0.00000000E+00
  4.00000000E+02  6.00000000E+01  0.00000000E+00
  4.00000000E+02  4.00000000E+01  0.00000000E+00
  4.00000000E+02  2.00000000E+01  0.00000000E+00
  4.00000000E+02  4.99600361E-14  0.00000000E+00
  4.20000000E+02  3.00000000E+02  0.00000000E+00
  4.20000000E+02  2.80000000E+02  0.00000000E+00
  4.20000000E+02  2.60000000E+02  0.00000000E+00
  4.20000000E+02  2.40000000E+02  0.00000000E+00
  4.20000000E+02  2.20000000E+02  0.00000000E+00
  4.20000000E+02  2.00000000E+02  0.00000000E+00
  4.20000000E+02  1.80000000E+02  0.00000000E+00
  4.20000000E+02  1.60000000E+02  0.00000000E+00
  4.20000000E+02  1.40000000E+02  0.00000000E+00
  4.20000000E+02  1.20000000E+02  0.00000000E+00
  4.20000000E+02  1.00000000E+02  0.00000000E+00
  4.20000000E+02  8.00000000E+01  0.00000000E+00
  4.20000000E+02  6.00000000E+01  0.00000000E+00
  4.20000000E+02  4.00000000E+01  0.00000000E+00
  4.20000000E+02  2.00000000E+01  0.00000000E+00
  4.20000000E+02  4.99600361E-14  0.00000000E+00
  4.40000000E+02  3.00000000E+02  0.00000000E+00
  4.40000000E+02  2.80000000E+02  0.00000000E+00
  4.40000000E+02  2.60000000E+02  0.00000000E+00
  4.40000000E+02  2.40000000E+02  0.00000000E+00
  4.40000000E+02  2.20000000E+02  0.00000000E+00
  4.40000000E+02  2.00000000E+02  0.00000000E+00
  4.40000000E+02  1.80000000E+02  0.00000000E+00
  4.40000000E+02  1.60000000E+02  0.00000000E+00
  4.40000000E+02  1.40000000E+02  0.00000000E+00
  4.40000000E+02  1.20000000E+02  0.00000000E+00
  4.40000000E+02  1.00000000E+02  0.00000000E+00
  4.40000000E+02  8.00000000E+01  0.00000000E+00
  4.40000000E+02  6.00000000E+01  0.00000000E+00
  4.40000000E+02  4.00000000E+01  0.00000000E+00
  4.40000000E+02  2.00000000E+01  0.00000000E+00
  4.40000000E+02  4.99600361E-14  0.00000000E+00
  4.60000000E+02  3.00000000E+02  0.00000000E+00
  4.60000000E+02  2.80000000E+02  0.00000000E+00
  4.60000000E+02  2.60000000E+02  0.00000000E+00
  4.60000000E+02  2.40000000E+02  0.00000000E+00
  4.60000000E+02  2.20000000E+02  0.00000000E+00
  4.60000000E+02  2.00000000E+02  0.00000000E+00
  4.60000000E+02  1.80000000E+02  0.00000000E+00
  4.60000000E+02  1.60000000E+02  0.00000000E+00
  4.60000000E+02  1.40000000E+02  0.00000000E+00
  4.60000000E+02  1.20000000E+02  0.00000000E+00
  4.60000000E+02  1.00000000E+02  0.00000000E+00
  4.60000000E+02  8.00000000E+01  0.00000000E+00
  4.60000000E+02  6.00000000E+01  0.00000000E+00
  4.60000000E+02  4.00000000E+01  0.00000000E+00
  4.60000000E+02  2.00000000E+01  0.00000000E+00
  4.60000000E+02  4.99600361E-14  0.00000000E+00
  4.80000000E+02  3.00000000E+02  0.00000000E+00
  4.80000000E+02  2.80000000E+02  0.00000000E+00
  4.80000000E+02  2.60000000E+02  0.00000000E+00
  4.80000000E+02  2.40000000E+02  0.00000000E+00
  4.80000000E+02  2.20000000E+02  0.00000000E+00
  4.80000000E+02  2.00000000E+02  0.00000000E+00
  4.80000000E+02  1.80000000E+02  0.00000000E+00
  4.80000000E+02  1.60000000E+02  0.00000000E+00
  4.80000000E+02  1.40000000E+02  0.00000000E+00
  4.80000000E+02  1.20000000E+02  0.00000000E+00
  4.80000000E+02  1.00000000E+02  0.00000000E+00
  4.80000000E+02  8.00000000E+01  0.00000000E+00
  4.80000000E+02  6.00000000E+01  0.00000000E+00
  4.80000000E+02  4.00000000E+01  0.00000000E+00
  4.80000000E+02  2.00000000E+01  0.00000000E+00
  4.80000000E+02  4.99600361E-14  0.00000000E+00
  5.00000000E+02  3.00000000E+02  0.00000000E+00
  5.00000000E+02  2.80000000E+02  0.00000000E+00
  5.00000000E+02  2.60000000E+02  0.00000000E+00
  5.00000000E+02  2.40000000E+02  0.00000000E+00
  5.00000000E+02  2.20000000E+02  0.00000000E+00
  5.00000000E+02  2.00000000E+02  0.00000000E+00
  5.00000000E+02  1.80000000E+02  0.00000000E+00
  5.00000000E+02  1.60000000E+02  0.00000000E+00
  5.00000000E+02  1.40000000E+02  0.00000000E+00
  5.00000000E+02  1.20000000E+02  0.00000000E+00
  5.00000000E+02  1.00000000E+02  0.00000000E+00
  5.00000000E+02  8.00000000E+01  0.00000000E+00
  5.00000000E+02  6.00000000E+01  0.00000000E+00
  5.00000000E+02  4.00000000E+01  0.00000000E+00
  5.00000000E+02  2.00000000E+01  0.00000000E+00
  5.00000000E+02  4.99600361E-14  0.00000000E+00
  5.20000000E+02  3.00000000E+02  0.00000000E+00
  5.20000000E+02  2.80000000E+02  0.00000000E+00
  5.20000000E+02  2.60000000E+02  0.00000000E+00
  5.20000000E+02  2.40000000E+02  0.00000000E+00
  5.20000000E+02  2.20000000E+02  0.00000000E+00
  5.20000000E+02  2.00000000E+02  0.00000000E+00
  5.20000000E+02  1.80000000E+02  0.00000000E+00
  5.20000000E+02  1.60000000E+02  0.00000000E+00
  5.20000000E+02  1.40000000E+02  0.00000000E+00
  5.20000000E+02  1.20000000E+02  0.00000000E+00
  5.20000000E+02  1.00000000E+02  0.00000000E+00
  5.20000000E+02  8.00000000E+01  0.00000000E+00
  5.20000000E+02  6.00000000E+01  0.00000000E+00
  5.20000000E+02  4.00000000E+01  0.00000000E+00
  5.20000000E+02  2.00000000E+01  0.00000000E+00
  5.20000000E+02  4.99600361E-14  0.00000000E+00
  5.40000000E+02  3.00000000E+02  0.00000000E+00
  5.40000000E+02  2.80000000E+02  0.00000000E+00
  5.40000000E+02  2.60000000E+02  0.00000000E+00
  5.40000000E+02  2.40000000E+02  0.00000000E+00
  5.40000000E+02  2.20000000E+02  0.00000000E+00
  5.40000000E+02  2.00000000E+02  0.00000000E+00
  5.40000000E+02  1.80000000E+02  0.00000000E+00
  5.40000000E+02  1.60000000E+02  0.00000000E+00
  5.40000000E+02  1.40000000E+02  0.00000000E+00
  5.40000000E+02  1.20000000E+02  0.00000000E+00
  5.40000000E+02  1.00000000E+02  0.00000000E+00
  5.40000000E+02  8.00000000E+01  0.00000000E+00
  5.40000000E+02  6.00000000E+01  0.00000000E+00
  5.40000000E+02  4.00000000E+01  0.00000000E+00
  5.40000000E+02  2.00000000E+01  0.00000000E+00
  5.40000000E+02  4.99600361E-14  0.00000000E+00
  5.60000000E+02  3.00000000E+02  0.00000000E+00
  5.60000000E+02  2.80000000E+02  0.00000000E+00
  5.60000000E+02  2.60000000E+02  0.00000000E+00
  5.60000000E+02  2.40000000E+02  0.00000000E+00
  5.60000000E+02  2.20000000E+02  0.00000000E+00
  5.60000000E+02  2.00000000E+02  0.00000000E+00
  5.60000000E+02  1.80000000E+02  0.00000000E+00
  5.60000000E+02  1.60000000E+02  0.00000000E+00
  5.60000000E+02  1.40000000E+02  0.00000000E+00
  5.60000000E+02  1.20000000E+02  0.00000000E+00
  5.60000000E+02  1.00000000E+02  0.00000000E+00
  5.60000000E+02  8.00000000E+01  0.00000000E+00
  5.60000000E+02  6.00000000E+01  0.00000000E+00
  5.60000000E+02  4.00000000E+01  0.00000000E+00
  5.60000000E+02  2.00000000E+01  0.00000000E+00
  5.60000000E+02  4.99600361E-14  0.00000000E+00
  5.80000000E+02  3.00000000E+02  0.00000000E+00
  5.80000000E+02  2.80000000E+02  0.00000000E+00
  5.80000000E+02  2.60000000E+02  0.00000000E+00
  5.80000000E+02  2.40000000E+02  0.00000000E+00
  5.80000000E+02  2.20000000E+02  0.00000000E+00
  5.80000000E+02  2.00000000E+02  0.00000000E+00
  5.80000000E+02  1.80000000E+02  0.00000000E+00
  5.80000000E+02  1.60000000E+02  0.00000000E+00
  5.80000000E+02  1.40000000E+02  0.00000000E+00
  5.80000000E+02  1.20000000E+02  0.00000000E+00
  5.80000000E+02  1.00000000E+02  0.00000000E+00
  5.80000000E+02  8.00000000E+01  0.00000000E+00
  5.80000000E+02  6.00000000E+01  0.00000000E+00
  5.80000000E+02  4.00000000E+01  0.00000000E+00
  5.80000000E+02  2.00000000E+01  0.00000000E+00
  5.80000000E+02  4.99600361E-14  0.00000000E+00
  6.00000000E+02  3.00000000E+02  0.00000000E+00
  6.00000000E+02  2.80000000E+02  0.00000000E+00
  6.00000000E+02  2.60000000E+02  0.00000000E+00
  6.00000000E+02  2.40000000E+02  0.00000000E+00
  6.00000000E+02  2.20000000E+02  0.00000000E+00
  6.00000000E+02  2.00000000E+02  0.00000000E+00
  6.00000000E+02  1.80000000E+02  0.00000000E+00
  6.00000000E+02  1.60000000E+02  0.00000000E+00
  6.00000000E+02  1.40000000E+02  0.00000000E+00
  6.00000000E+02  1.20000000E+02  0.00000000E+00
  6.00000000E+02  1.00000000E+02  0.00000000E+00
  6.00000000E+02  8.00000000E+01  0.00000000E+00
  6.00000000E+02  6.00000000E+01  0.00000000E+00
  6.00000000E+02  4.00000000E+01  0.00000000E+00
  6.00000000E+02  2.00000000E+01  0.00000000E+00
  6.00000000E+02  4.99600361E-14  0.00000000E+00
CELLS       450      2250
         4           0           1          17          16
         4           1           2          18          17
         4           2           3          19          18
         4           3           4          20          19
         4           4           5          21          20
         4           5           6          22          21
         4           6           7          23          22
         4           7           8          24          23
         4           8           9          25          24
         4           9          10          26          25
         4          10          11          27          26
         4          11          12          28          27
         4          12          13          29          28
         4          13          14          30          29
         4          14          15          31          30
         4          16          17          33          32
         4          17          18          34          33
         4          18          19          35          34
         4          19          20          36          35
         4          20          21          37          36
         4          21          22          38          37
         4          22          23          39          38
         4          23          24          40          39
         4          24          25          41          40
         4          25          26          42          41
         4          26          27          43          42
         4          27          28          44          43
         4          28          29          45          44
         4          29          30          46          45
         4          30          31          47          46
         4          32          33          49          48
         4          33          34          50          49
         4          34          35          51          50
         4          35          36          52          51
         4          36          37          53          52
         4          37          38          54          53
         4          38          39          55          54
         4          39          40          56          55
         4          40          41          57          56
         4          41          42          58          57
         4          42          43          59          58
         4          43          44          60          59
         4          44          45          61          60
         4          45          46          62          61
         4          46          47          63          62
         4          48          49          65          64
         4          49          50          66          65
         4          50          51          67          66
         4          51          52          68          67
         4          52          53          69          68
         4          53          54          70          69
         4          54          55          71          70
         4          55          56          72          71
         4          56          57          73          72
         4          57          58          74          73
         4          58          59          75          74
         4          59          60          76          75
         4          60          61          77          76
         4          61          62          78          77
         4          62          63          79          78
         4          64          65          81          80
         4          65          66          82          81
         4          66          67          83          82
         4          67          68          84          83
         4          68          69          85          84
         4          69          70          86          85
         4          70          71          87          86
         4          71          72          88          87
         4          72          73          89          88
         4          73          74          90          89
         4          74          75          91          90
         4          75          76          92          91
         4          76          77          93          92
         4          77          78          94          93
         4          78          79          95          94
         4          80          81          97          96
         4          81          82          98          97
         4          82          83          99          98
         4          83          84         100          99
         4          84          85         101         100
         4          85          86         102         101
         4          86          87         103         102
         4          87          88         104         103
         4          88          89         105         104
         4          89          90         106         105
         4          90          91         107         106
         4          91          92         108         107
         4          92          93         109         108
         4          93          94         110         109
         4          94          95         111         110
         4          96          97         113         112
         4          97          98         114         113
         4          98          99         115         114
         4          99         100         116         115
         4         100         101         117         116
         4         101         102         118         117
         4         102         103         119         118
         4         103         104         120         119
         4         104         105         121         120
         4         105         106         122         121
         4         106         107         123         122
         4         107         108         124         123
         4         108         109         125         124
         4         109         110         126         125
         4         110         111         127         126
         4         112         113         129         128
         4         113         114         130         129
         4         114         115         131         130
         4         115         116         132         131
         4         116         117         133         132
         4         117         118         134         133
         4         118         119         135         134
         4         119         120         136         135
         4         120         121         137         136
         4         121         122         138         137
         4         122         123         139         138
         4         123         124         140         139
         4         124         125         141         140
         4         125         126         142         141
         4         126         127         143         142
         4         128         129         145         144
         4         129         130         146         145
         4         130         131         147         146
         4         131         132         148         147
         4         132         133         149         148
         4         133         134         150         149
         4         134         135         151         150
         4         135         136         152         151
         4         136         137         153         152
         4         137         138         154         153
         4         138         139         155         154
         4         139         140         156         155
         4         140         141         157         156
         4         141         142         158         157
         4         142         143         159         158
         4         144         145         161         160
         4         145         146         162         161
         4         146         147         163         162
         4         147         148         164         163
         4         148         149         165         164
         4         149         150         166         165
         4         150         151         167         166
         4         151         152         168         167
         4         152         153         169         168
         4         153         154         170         169
         4         154         155         171         170
         4         155         156         172         171
         4         156         157         173         172
         4         157         158         174         173
         4         158         159         175         174
         4         160         161         177         176
         4         161         162         178         177
         4         162         163         179         178
         4         163         164         180         179
         4         164         165         181         180
         4         165         166         182         181
         4         166         167         183         182
         4         167         168         184         183
         4         168         169         185         184
         4         169         170         186         185
         4         170         171         187         186
         4         171         172         188         187
         4         172         173         189         188
         4         173         174         190         189
         4         174         175         191         190
         4         176         177         193         192
         4         177         178         194         193
         4         178         179         195         194
         4         179         180         196         195
         4         180         181         197         196
         4         181         182         198         197
         4         182         183         199         198
         4         183         184         200         199
         4         184         185         201         200
         4         185         186         202         201
         4         186         187         203         202
         4         187         188         204         203
         4         188         189         205         204
         4         189         190         206         205
         4         190         191         207         206
         4         192         193         209         208
         4         193         194         210         209
         4         194         195         211         210
         4         195         196         212         211
         4         196         197         213         212
         4         197         198         214         213
         4         198         199         215         214
         4         199         200         216         215
         4         200         201         217         216
         4         201         202         218         217
         4         202         203         219         218
         4         203         204         220         219
         4         204         205         221         220
         4         205         206         222         221
         4         206         207         223         222
         4         208         209         225         224
         4         209         210         226         225
         4         210         211         227         226
         4         211         212         228         227
         4         212         213         229         228
         4         213         214         230         229
         4         214         215         231         230
         4         215         216         232         231
         4         216         217         233         232
         4         217         218         234         233
         4         218         219         235         234
         4         219         220         236         235
         4         220         221         237         236
         4         221         222         238         237
         4         222         223         239         238
         4         224         225         241         240
         4         225         226         242         241
         4         226         227         243         242
         4         227         228         244         243
         4         228         229         245         244
         4         229         230         246         245
         4         230         231         247         246
         4         231         232         248         247
         4         232         233         249         248
         4         233         234         250         249
         4         234         235         251         250
         4         235         236         252         251
         4         236         237         253         252
         4         237         238         254         253
         4         238         239         255         254
         4         240         241         257         256
         4         241         242         258         257
         4         242         243         259         258
         4         243         244         260         259
         4         244         245         261         260
         4         245         246         262         261
         4         246         247         263         262
         4         247         248         264         263
         4         248         249         265         264
         4         249         250         266         265
         4         250         251         267         266
         4         251         252         268         267
         4         252         253         269         268
         4         253         254         270         269
         4         254         255         271         270
         4         256         257         273         272
         4         257         258         274         273
         4         258         259         275         274
         4         259         260         276         275
         4         260         261         277         276
         4         261         262         278         277
         4         262         263         279         278
         4         263         264         280         279
         4         264         265         281         280
         4         265         266         282         281
         4         266         267         283         282
         4         267         268         284         283
         4         268         269         285         284
         4         269         270         286         285
         4         270         271         287         286
         4         272         273         289         288
         4         273         274         290         289
         4         274         275         291         290
         4         275         276         292         291
         4         276         277         293         292
         4         277         278         294         293
         4         278         279         295         294
         4         279         280         296         295
         4         280         281         297         296
         4         281         282         298         297
         4         282         283         299         298
         4         283         284         300         299
         4         284         285         301         300
         4         285         286         302         301
         4         286         287         303         302
         4         288         289         305         304
         4         289         290         306         305
         4         290         291         307         306
         4         291         292         308         307
         4         292         293         309         308
         4         293         294         310         309
         4         294         295         311         310
         4         295         296         312         311
         4         296         297         313         312
         4         297         298         314         313
         4         298         299         315         314
         4         299         300         316         315
         4         300         301         317         316
         4         301         302         318         317
         4         302         303         319         318
         4         304         305         321         320
         4         305         306         322         321
         4         306         307         323         322
         4         307         308         324         323
         4         308         309         325         324
         4         309         310         326         325
         4         310         311         327         326
         4         311         312         328         327
         4         312         313         329         328
         4         313         314         330         329
         4         314         315         331         330
         4         315         316         332         331
         4         316         317         333         332
         4         317         318         334         333
         4         318         319         335         334
         4         320         321         337         336
         4         321         322         338         337
         4         322         323         339         338
         4         323         324         340         339
         4         324         325         341         340
         4         325         326         342         341
         4         326         327         343         342
         4         327         328         344         343
         4         328         329         345         344
         4         329         330         346         345
         4         330         331         347         346
         4         331         332         348         347
         4         332         333         349         348
         4         333         334         350         349
         4         334         335         351         350
         4         336         337         353         352
         4         337         338         354         353
         4         338         339         355         354
         4         339         340         356         355
         4         340         341         357         356
         4         341         342         358         357
         4         342         343         359         358
         4         343         344         360         359
         4         344         345         361         360
         4         345         346         362         361
         4         346         347         363         362
         4         347         348         364         363
         4         348         349         365         364
         4         349         350         366         365
         4         350         351         367         366
         4         352         353         369         368
         4         353         354         370         369
         4         354         355         371         370
         4         355         356         372         371
         4         356         357         373         372
         4         357         358         374         373
         4         358         359         375         374
         4         359         360         376         375
         4         360         361         377         376
         4         361         362         378         377
         4         362         363         379         378
         4         363         364         380         379
         4         364         365         381         380
         4         365         366         382         381
         4         366         367         383         382
         4         368         369         385         384
         4         369         370         386         385
         4         370         371         387         386
         4         371         372         388         387
         4         372         373         389         388
         4         373         374         390         389
         4         374         375         391         390
         4         375         376         392         391
         4         376         377         393         392
         4         377         378         394         393
         4         378         379         395         394
         4         379         380         396         395
         4         380         381         397         396
         4         381         382         398         397
         4         382         383         399         398
         4         384         385         401         400
         4         385         386         402         401
         4         386         387         403         402
         4         387         388         404         403
         4         388         389         405         404
         4         389         390         406         405
         4         390         391         407         406
         4         391         392         408         407
         4         392         393         409         408
         4         393         394         410         409
         4         394         395         411         410
         4         395         396         412         411
         4         396         397         413         412
         4         397         398         414         413
         4         398         399         415         414
         4         400         401         417         416
         4         401         402         418         417
         4         402         403         419         418
         4         403         404         420         419
         4         404         405         421         420
         4         405         406         422         421
         4         406         407         423         422
         4         407         408         424         423
         4         408         409         425         424
         4         409         410         426         425
         4         410         411         427         426
         4         411         412         428         427
         4         412         413         429         428
         4         413         414         430         429
         4         414         415         431         430
         4         416         417         433         432
         4         417         418         434         433
         4         418         419         435         434
         4         419         420         436         435
         4         420         421         437         436
         4         421         422         438         437
         4         422         423         439         438
         4         423         424         440         439
         4         424         425         441         440
         4         425         426         442         441
         4         426         427         443         442
         4         427         428         444         443
         4         428         429         445         444
         4         429         430         446         445
         4         430         431         447         446
         4         432         433         449         448
         4         433         434         450         449
         4         434         435         451         450
         4         435         436         452         451
         4         436         437         453         452
         4         437         438         454         453
         4         438         439         455         454
         4         439         440         456         455
         4         440         441         457         456
         4         441         442         458         457
         4         442         443         459         458
         4         443         444         460         459
         4         444         445         461         460
         4         445         446         462         461
         4         446         447         463         462
         4         448         449         465         464
         4         449         450         466         465
         4         450         451         467         466
         4         451         452         468         467
         4         452         453         469         468
         4         453         454         470         469
         4         454         455         471         470
         4         455         456         472         471
         4         456         457         473         472
         4         457         458         474         473
         4         458         459         475         474
         4         459         460         476         475
         4         460         461         477         476
         4         461         462         478         477
         4         462         463         479         478
         4         464         465         481         480
         4         465         466         482         481
         4         466         467         483         482
         4         467         468         484         483
         4         468         469         485         484
         4         469         470         486         485
         4         470         471         487         486
         4         471         472         488         487
         4         472         473         489         488
         4         473         474         490         489
         4         474         475         491         490
         4         475         476         492         491
         4         476         477         493         492
         4         477         478         494         493
         4         478         479         495         494
CELL_TYPES        450
9
9
9
9
9
9
9
9
9
9
9
9
9
9
9
9
9
9
9
9
9
9
9
9
9
9
9
9
9
9
9
9
9
9
9
9
9
9
9
9
9
9
9
9
9
9
9
9
9
9
9
9
9
9
9
9
9
9
9
9
9
9
9
9
9
9
9
9
9
9
9
9
9
9
9
9
9
9
9
9
9
9
9
9
9
9
9
9
9
9
9
9
9
9
9
9
9
9
9
9
9
9
9
9
9
9
9
9
9
9
9
9
9
9
9
9
9
9
9
9
9
9
9
9
9
9
9
9
9
9
9
9
9
9
9
9
9
9
9
9
9
9
9
9
9
9
9
9
9
9
9
9
9
9
9
9
9
9
9
9
9
9
9
9
9
9
9
9
9
9
9
9
9
9
9
9
9
9
9
9
9
9
9
9
9
9
9
9
9
9
9
9
9
9
9
9
9
9
9
9
9
9
9
9
9
9
9
9
9
9
9
9
9
9
9
9
9
9
9
9
9
9
9
9
9
9
9
9
9
9
9
9
9
9
9
9
9
9
9
9
9
9
9
9
9
9
9
9
9
9
9
9
9
9
9
9
9
9
9
9
9
9
9
9
9
9
9
9
9
9
9
9
9
9
9
9
9
9
9
9
9
9
9
9
9
9
9
9
9
9
9
9
9
9
9
9
9
9
9
9
9
9
9
9
9
9
9
9
9
9
9
9
9
9
9
9
9
9
9
9
9
9
9
9
9
9
9
9
9
9
9
9
9
9
9
9
9
9
9
9
9
9
9
9
9
9
9
9
9
9
9
9
9
9
9
9
9
9
9
9
9
9
9
9
9
9
9
9
9
9
9
9
9
9
9
9
9
9
9
9
9
9
9
9
9
9
9
9
9
9
9
9
9
9
9
9
9
9
9
9
9
9
9
9
9
9
9
9
9
9
9
9
9
9
9
9
9
9
9
9
9
9
9
9
9
9
9
9
9
9
9
9
9
9
9
9
9
9
9
9
9
9
9
9
9
9
9
9
9
9
POINT_DATA       496
SCALARS p double 
LOOKUP_TABLE default
   10000122.7390165     
   10000122.7390163     
   10000122.7390159     
   10000122.7390153     
   10000122.7390146     
   10000122.7390138     
   10000122.7390131     
   10000122.7390125     
   10000122.7390121     
   10000122.7390118     
   10000122.7390117     
   10000122.7390118     
   10000122.7390121     
   10000122.7390124     
   10000122.7390126     
   10000122.7390128     
   10000122.5708088     
   10000122.5708087     
   10000122.5708082     
   10000122.5708076     
   10000122.5708069     
   10000122.5708061     
   10000122.5708054     
   10000122.5708048     
   10000122.5708043     
   10000122.5708040     
   10000122.5708039     
   10000122.5708040     
   10000122.5708042     
   10000122.5708045     
   10000122.5708048     
   10000122.5708049     
   10000122.0666469     
   10000122.0666468     
   10000122.0666463     
   10000122.0666457     
   10000122.0666449     
   10000122.0666440     
   10000122.0666432     
   10000122.0666425     
   10000122.0666420     
   10000122.0666416     
   10000122.0666415     
   10000122.0666415     
   10000122.0666417     
   10000122.0666419     
   10000122.0666422     
   10000122.0666423     
   10000121.2279127     
   10000121.2279125     
   10000121.2279120     
   10000121.2279112     
   10000121.2279103     
   10000121.2279094     
   10000121.2279085     
   10000121.2279077     
   10000121.2279070     
   10000121.2279065     
   10000121.2279063     
   10000121.2279062     
   10000121.2279063     
   10000121.2279065     
   10000121.2279067     
   10000121.2279068     
   10000120.0569048     
   10000120.0569046     
   10000120.0569040     
   10000120.0569032     
   10000120.0569022     
   10000120.0569011     
   10000120.0569000     
   10000120.0568991     
   10000120.0568982     
   10000120.0568976     
   10000120.0568972     
   10000120.0568970     
   10000120.0568970     
   10000120.0568971     
   10000120.0568973     
   10000120.0568974     
   10000118.5568329     
   10000118.5568326     
   10000118.5568320     
   10000118.5568311     
   10000118.5568299     
   10000118.5568287     
   10000118.5568274     
   10000118.5568263     
   10000118.5568252     
   10000118.5568244     
   10000118.5568238     
   10000118.5568235     
   10000118.5568234     
   10000118.5568234     
   10000118.5568235     
   10000118.5568236     
   10000116.7318084     
   10000116.7318081     
   10000116.7318074     
   10000116.7318063     
   10000116.7318050     
   10000116.7318036     
   10000116.7318022     
   10000116.7318008     
   10000116.7317995     
   10000116.7317985     
   10000116.7317978     
   10000116.7317973     
   10000116.7317970     
   10000116.7317970     
   10000116.7317970     
   10000116.7317971     
   10000114.5868333     
   10000114.5868331     
   10000114.5868323     
   10000114.5868311     
   10000114.5868296     
   10000114.5868280     
   10000114.5868263     
   10000114.5868247     
   10000114.5868233     
   10000114.5868221     
   10000114.5868211     
   10000114.5868205     
   10000114.5868201     
   10000114.5868199     
   10000114.5868199     
   10000114.5868200     
   10000112.1277868     
   10000112.1277865     
   10000112.1277856     
   10000112.1277843     
   10000112.1277827     
   10000112.1277809     
   10000112.1277791     
   10000112.1277772     
   10000112.1277756     
   10000112.1277741     
   10000112.1277730     
   10000112.1277722     
   10000112.1277717     
   10000112.1277715     
   10000112.1277714     
   10000112.1277714     
   10000109.3614085     
   10000109.3614082     
   10000109.3614073     
   10000109.3614059     
   10000109.3614041     
   10000109.3614022     
   10000109.3614001     
   10000109.3613981     
   10000109.3613963     
   10000109.3613947     
   10000109.3613934     
   10000109.3613925     
   10000109.3613919     
   10000109.3613916     
   10000109.3613915     
   10000109.3613915     
   10000106.2952805     
   10000106.2952802     
   10000106.2952792     
   10000106.2952778     
   10000106.2952759     
   10000106.2952739     
   10000106.2952717     
   10000106.2952696     
   10000106.2952676     
   10000106.2952659     
   10000106.2952645     
   10000106.2952635     
   10000106.2952628     
   10000106.2952625     
   10000106.2952624     
   10000106.2952624     
   10000102.9378064     
   10000102.9378061     
   10000102.9378052     
   10000102.9378037     
   10000102.9378019     
   10000102.9377998     
   10000102.9377975     
   10000102.9377954     
   10000102.9377933     
   10000102.9377916     
   10000102.9377901     
   10000102.9377890     
   10000102.9377884     
   10000102.9377880     
   10000102.9377879     
   10000102.9377879     
   10000099.2981884     
   10000099.2981881     
   10000099.2981872     
   10000099.2981858     
   10000099.2981840     
   10000099.2981820     
   10000099.2981798     
   10000099.2981777     
   10000099.2981757     
   10000099.2981740     
   10000099.2981726     
   10000099.2981715     
   10000099.2981709     
   10000099.2981706     
   10000099.2981705     
   10000099.2981705     
   10000095.3864016     
   10000095.3864014     
   10000095.3864006     
   10000095.3863993     
   10000095.3863977     
   10000095.3863959     
   10000095.3863940     
   10000095.3863921     
   10000095.3863903     
   10000095.3863887     
   10000095.3863874     
   10000095.3863865     
   10000095.3863859     
   10000095.3863857     
   10000095.3863856     
   10000095.3863856     
   10000091.2131675     
   10000091.2131673     
   10000091.2131667     
   10000091.2131657     
   10000091.2131644     
   10000091.2131630     
   10000091.2131614     
   10000091.2131599     
   10000091.2131584     
   10000091.2131571     
   10000091.2131561     
   10000091.2131554     
   10000091.2131550     
   10000091.2131548     
   10000091.2131548     
   10000091.2131549     
   10000086.7899236     
   10000086.7899235     
   10000086.7899232     
   10000086.7899226     
   10000086.7899219     
   10000086.7899210     
   10000086.7899201     
   10000086.7899191     
   10000086.7899182     
   10000086.7899173     
   10000086.7899167     
   10000086.7899163     
   10000086.7899161     
   10000086.7899160     
   10000086.7899161     
   10000086.7899162     
   10000082.1287930     
   10000082.1287930     
   10000082.1287931     
   10000082.1287931     
   10000082.1287931     
   10000082.1287931     
   10000082.1287930     
   10000082.1287928     
   10000082.1287927     
   10000082.1287925     
   10000082.1287923     
   10000082.1287923     
   10000082.1287923     
   10000082.1287924     
   10000082.1287926     
   10000082.1287927     
   10000077.2425505     
   10000077.2425507     
   10000077.2425513     
   10000077.2425521     
   10000077.2425531     
   10000077.2425541     
   10000077.2425552     
   10000077.2425561     
   10000077.2425569     
   10000077.2425576     
   10000077.2425581     
   10000077.2425585     
   10000077.2425588     
   10000077.2425590     
   10000077.2425592     
   10000077.2425593     
   10000072.1445881     
   10000072.1445885     
   10000072.1445897     
   10000072.1445915     
   10000072.1445937     
   10000072.1445961     
   10000072.1445986     
   10000072.1446010     
   10000072.1446030     
   10000072.1446047     
   10000072.1446060     
   10000072.1446068     
   10000072.1446074     
   10000072.1446077     
   10000072.1446078     
   10000072.1446079     
   10000066.8488778     
   10000066.8488784     
   10000066.8488804     
   10000066.8488834     
   10000066.8488871     
   10000066.8488912     
   10000066.8488955     
   10000066.8488995     
   10000066.8489030     
   10000066.8489059     
   10000066.8489080     
   10000066.8489093     
   10000066.8489101     
   10000066.8489104     
   10000066.8489104     
   10000066.8489104     
   10000061.3699339     
   10000061.3699348     
   10000061.3699377     
   10000061.3699420     
   10000061.3699474     
   10000061.3699535     
   10000061.3699598     
   10000061.3699658     
   10000061.3699710     
   10000061.3699752     
   10000061.3699782     
   10000061.3699800     
   10000061.3699808     
   10000061.3699809     
   10000061.3699808     
   10000061.3699807     
   10000055.7227729     
   10000055.7227742     
   10000055.7227780     
   10000055.7227838     
   10000055.7227912     
   10000055.7227994     
   10000055.7228079     
   10000055.7228159     
   10000055.7228230     
   10000055.7228286     
   10000055.7228324     
   10000055.7228346     
   10000055.7228354     
   10000055.7228352     
   10000055.7228347     
   10000055.7228345     
   10000049.9228725     
   10000049.9228742     
   10000049.9228790     
   10000049.9228864     
   10000049.9228957     
   10000049.9229062     
   10000049.9229169     
   10000049.9229271     
   10000049.9229360     
   10000049.9229429     
   10000049.9229475     
   10000049.9229500     
   10000049.9229506     
   10000049.9229500     
   10000049.9229490     
   10000049.9229486     
   10000043.9861292     
   10000043.9861313     
   10000043.9861371     
   10000043.9861460     
   10000043.9861573     
   10000043.9861698     
   10000043.9861827     
   10000043.9861948     
   10000043.9862053     
   10000043.9862134     
   10000043.9862187     
   10000043.9862213     
   10000043.9862217     
   10000043.9862205     
   10000043.9862189     
   10000043.9862182     
   10000037.9288146     
   10000037.9288170     
   10000037.9288237     
   10000037.9288341     
   10000037.9288471     
   10000037.9288614     
   10000037.9288760     
   10000037.9288895     
   10000037.9289011     
   10000037.9289100     
   10000037.9289159     
   10000037.9289187     
   10000037.9289187     
   10000037.9289169     
   10000037.9289146     
   10000037.9289136     
   10000031.7675308     
   10000031.7675335     
   10000031.7675412     
   10000031.7675527     
   10000031.7675669     
   10000031.7675823     
   10000031.7675976     
   10000031.7676117     
   10000031.7676238     
   10000031.7676332     
   10000031.7676395     
   10000031.7676424     
   10000031.7676422     
   10000031.7676398     
   10000031.7676368     
   10000031.7676354     
   10000025.5191653     
   10000025.5191683     
   10000025.5191765     
   10000025.5191888     
   10000025.5192034     
   10000025.5192187     
   10000025.5192336     
   10000025.5192472     
   10000025.5192589     
   10000025.5192681     
   10000025.5192744     
   10000025.5192775     
   10000025.5192774     
   10000025.5192747     
   10000025.5192710     
   10000025.5192693     
   10000019.2008442     
   10000019.2008473     
   10000019.2008558     
   10000019.2008678     
   10000019.2008813     
   10000019.2008951     
   10000019.2009082     
   10000019.2009201     
   10000019.2009304     
   10000019.2009386     
   10000019.2009446     
   10000019.2009478     
   10000019.2009480     
   10000019.2009454     
   10000019.2009414     
   10000019.2009394     
   10000012.8298854     
   10000012.8298885     
   10000012.8298963     
   10000012.8299064     
   10000012.8299171     
   10000012.8299276     
   10000012.8299376     
   10000012.8299466     
   10000012.8299544     
   10000012.8299609     
   10000012.8299657     
   10000012.8299687     
   10000012.8299694     
   10000012.8299676     
   10000012.8299638     
   10000012.8299617     
   10000006.4237516     
   10000006.4237538     
   10000006.4237590     
   10000006.4237650     
   10000006.4237710     
   10000006.4237769     
   10000006.4237824     
   10000006.4237874     
   10000006.4237918     
   10000006.4237955     
   10000006.4237984     
   10000006.4238003     
   10000006.4238012     
   10000006.4238007     
   10000006.4237980     
   10000006.4237960     
   10000000.0000000     
   10000000.0000000     
   10000000.0000000     
   10000000.0000000     
   10000000.0000000     
   10000000.0000000     
   10000000.0000000     
   10000000.0000000     
   10000000.0000000     
   10000000.0000000     
   10000000.0000000     
   10000000.0000000     
   10000000.0000000     
  10000000.00000000     
   10000000.0000000     
   10000000.0000000     
VECTORS u double 
    0.00000E+00        -0.64182E-01         0.00000E+00
    0.00000E+00        -0.59898E-01         0.00000E+00
    0.00000E+00        -0.55614E-01         0.00000E+00
    0.00000E+00        -0.51329E-01         0.00000E+00
    0.00000E+00        -0.47045E-01         0.00000E+00
    0.00000E+00        -0.42761E-01         0.00000E+00
    0.00000E+00        -0.38478E-01         0.00000E+00
    0.00000E+00        -0.34196E-01         0.00000E+00
    0.00000E+00        -0.29915E-01         0.00000E+00
    0.00000E+00        -0.25636E-01         0.00000E+00
    0.00000E+00        -0.21358E-01         0.00000E+00
    0.00000E+00        -0.17082E-01         0.00000E+00
    0.00000E+00        -0.12808E-01         0.00000E+00
    0.00000E+00        -0.85363E-02         0.00000E+00
    0.00000E+00        -0.42669E-02         0.00000E+00
    0.00000E+00         0.00000E+00         0.00000E+00
    0.19682E-04        -0.64181E-01         0.00000E+00
    0.20425E-04        -0.59897E-01         0.00000E+00
    0.20861E-04        -0.55613E-01         0.00000E+00
    0.20994E-04        -0.51329E-01         0.00000E+00
    0.20823E-04        -0.47045E-01         0.00000E+00
    0.20350E-04        -0.42761E-01         0.00000E+00
    0.19576E-04        -0.38478E-01         0.00000E+00
    0.18502E-04        -0.34196E-01         0.00000E+00
    0.17130E-04        -0.29915E-01         0.00000E+00
    0.15468E-04        -0.25636E-01         0.00000E+00
    0.13522E-04        -0.21358E-01         0.00000E+00
    0.11303E-04        -0.17082E-01         0.00000E+00
    0.88230E-05        -0.12808E-01         0.00000E+00
    0.60989E-05        -0.85363E-02         0.00000E+00
    0.31501E-05        -0.42669E-02         0.00000E+00
    0.00000E+00         0.00000E+00         0.00000E+00
    0.39261E-04        -0.64180E-01         0.00000E+00
    0.40747E-04        -0.59896E-01         0.00000E+00
    0.41622E-04        -0.55612E-01         0.00000E+00
    0.41888E-04        -0.51328E-01         0.00000E+00
    0.41548E-04        -0.47044E-01         0.00000E+00
    0.40606E-04        -0.42760E-01         0.00000E+00
    0.39063E-04        -0.38477E-01         0.00000E+00
    0.36921E-04        -0.34196E-01         0.00000E+00
    0.34187E-04        -0.29915E-01         0.00000E+00
    0.30871E-04        -0.25635E-01         0.00000E+00
    0.26989E-04        -0.21358E-01         0.00000E+00
    0.22561E-04        -0.17082E-01         0.00000E+00
    0.17613E-04        -0.12808E-01         0.00000E+00
    0.12176E-04        -0.85362E-02         0.00000E+00
    0.62897E-05        -0.42668E-02         0.00000E+00
    0.00000E+00         0.00000E+00         0.00000E+00
    0.58634E-04        -0.64178E-01         0.00000E+00
    0.60864E-04        -0.59894E-01         0.00000E+00
    0.62177E-04        -0.55610E-01         0.00000E+00
    0.62581E-04        -0.51326E-01         0.00000E+00
    0.62079E-04        -0.47042E-01         0.00000E+00
    0.60675E-04        -0.42759E-01         0.00000E+00
    0.58373E-04        -0.38476E-01         0.00000E+00
    0.55177E-04        -0.34195E-01         0.00000E+00
    0.51095E-04        -0.29914E-01         0.00000E+00
    0.46144E-04        -0.25635E-01         0.00000E+00
    0.40347E-04        -0.21357E-01         0.00000E+00
    0.33732E-04        -0.17081E-01         0.00000E+00
    0.26338E-04        -0.12808E-01         0.00000E+00
    0.18211E-04        -0.85360E-02         0.00000E+00
    0.94086E-05        -0.42668E-02         0.00000E+00
    0.00000E+00         0.00000E+00         0.00000E+00
    0.77693E-04        -0.64175E-01         0.00000E+00
    0.80666E-04        -0.59891E-01         0.00000E+00
    0.82422E-04        -0.55607E-01         0.00000E+00
    0.82968E-04        -0.51324E-01         0.00000E+00
    0.82312E-04        -0.47040E-01         0.00000E+00
    0.80458E-04        -0.42757E-01         0.00000E+00
    0.77414E-04        -0.38475E-01         0.00000E+00
    0.73185E-04        -0.34193E-01         0.00000E+00
    0.67780E-04        -0.29913E-01         0.00000E+00
    0.61222E-04        -0.25634E-01         0.00000E+00
    0.53540E-04        -0.21357E-01         0.00000E+00
    0.44771E-04        -0.17081E-01         0.00000E+00
    0.34965E-04        -0.12807E-01         0.00000E+00
    0.24181E-04        -0.85359E-02         0.00000E+00
    0.12496E-04        -0.42667E-02         0.00000E+00
    0.00000E+00         0.00000E+00         0.00000E+00
    0.96323E-04        -0.64170E-01         0.00000E+00
    0.10004E-03        -0.59887E-01         0.00000E+00
    0.10224E-03        -0.55604E-01         0.00000E+00
    0.10294E-03        -0.51321E-01         0.00000E+00
    0.10214E-03        -0.47037E-01         0.00000E+00
    0.99855E-04        -0.42755E-01         0.00000E+00
    0.96091E-04        -0.38473E-01         0.00000E+00
    0.90857E-04        -0.34191E-01         0.00000E+00
    0.84163E-04        -0.29911E-01         0.00000E+00
    0.76037E-04        -0.25633E-01         0.00000E+00
    0.66512E-04        -0.21356E-01         0.00000E+00
    0.55634E-04        -0.17080E-01         0.00000E+00
    0.43461E-04        -0.12807E-01         0.00000E+00
    0.30067E-04        -0.85357E-02         0.00000E+00
    0.15543E-04        -0.42666E-02         0.00000E+00
    0.00000E+00         0.00000E+00         0.00000E+00
    0.11440E-03        -0.64166E-01         0.00000E+00
    0.11886E-03        -0.59883E-01         0.00000E+00
    0.12151E-03        -0.55600E-01         0.00000E+00
    0.12238E-03        -0.51317E-01         0.00000E+00
    0.12145E-03        -0.47034E-01         0.00000E+00
    0.11876E-03        -0.42752E-01         0.00000E+00
    0.11430E-03        -0.38470E-01         0.00000E+00
    0.10810E-03        -0.34189E-01         0.00000E+00
    0.10017E-03        -0.29910E-01         0.00000E+00
    0.90520E-04        -0.25632E-01         0.00000E+00
    0.79207E-04        -0.21355E-01         0.00000E+00
    0.66276E-04        -0.17080E-01         0.00000E+00
    0.51794E-04        -0.12807E-01         0.00000E+00
    0.35846E-04        -0.85354E-02         0.00000E+00
    0.18538E-04        -0.42665E-02         0.00000E+00
    0.00000E+00         0.00000E+00         0.00000E+00
    0.13180E-03        -0.64160E-01         0.00000E+00
    0.13700E-03        -0.59878E-01         0.00000E+00
    0.14011E-03        -0.55595E-01         0.00000E+00
    0.14115E-03        -0.51313E-01         0.00000E+00
    0.14013E-03        -0.47030E-01         0.00000E+00
    0.13706E-03        -0.42748E-01         0.00000E+00
    0.13195E-03        -0.38467E-01         0.00000E+00
    0.12483E-03        -0.34187E-01         0.00000E+00
    0.11570E-03        -0.29908E-01         0.00000E+00
    0.10460E-03        -0.25630E-01         0.00000E+00
    0.91567E-04        -0.21354E-01         0.00000E+00
    0.76652E-04        -0.17079E-01         0.00000E+00
    0.59931E-04        -0.12806E-01         0.00000E+00
    0.41498E-04        -0.85352E-02         0.00000E+00
    0.21472E-04        -0.42665E-02         0.00000E+00
    0.00000E+00         0.00000E+00         0.00000E+00
    0.14837E-03        -0.64153E-01         0.00000E+00
    0.15431E-03        -0.59871E-01         0.00000E+00
    0.15789E-03        -0.55590E-01         0.00000E+00
    0.15912E-03        -0.51308E-01         0.00000E+00
    0.15803E-03        -0.47026E-01         0.00000E+00
    0.15462E-03        -0.42745E-01         0.00000E+00
    0.14892E-03        -0.38464E-01         0.00000E+00
    0.14094E-03        -0.34184E-01         0.00000E+00
    0.13069E-03        -0.29906E-01         0.00000E+00
    0.11821E-03        -0.25628E-01         0.00000E+00
    0.10353E-03        -0.21353E-01         0.00000E+00
    0.86716E-04        -0.17078E-01         0.00000E+00
    0.67838E-04        -0.12806E-01         0.00000E+00
    0.47001E-04        -0.85350E-02         0.00000E+00
    0.24334E-04        -0.42664E-02         0.00000E+00
    0.00000E+00         0.00000E+00         0.00000E+00
    0.16396E-03        -0.64146E-01         0.00000E+00
    0.17064E-03        -0.59865E-01         0.00000E+00
    0.17469E-03        -0.55583E-01         0.00000E+00
    0.17615E-03        -0.51302E-01         0.00000E+00
    0.17502E-03        -0.47021E-01         0.00000E+00
    0.17133E-03        -0.42741E-01         0.00000E+00
    0.16509E-03        -0.38461E-01         0.00000E+00
    0.15632E-03        -0.34182E-01         0.00000E+00
    0.14504E-03        -0.29904E-01         0.00000E+00
    0.13127E-03        -0.25627E-01         0.00000E+00
    0.11504E-03        -0.21351E-01         0.00000E+00
    0.96421E-04        -0.17077E-01         0.00000E+00
    0.75483E-04        -0.12805E-01         0.00000E+00
    0.52334E-04        -0.85348E-02         0.00000E+00
    0.27114E-04        -0.42663E-02         0.00000E+00
    0.00000E+00         0.00000E+00         0.00000E+00
    0.17840E-03        -0.64137E-01         0.00000E+00
    0.18580E-03        -0.59857E-01         0.00000E+00
    0.19035E-03        -0.55577E-01         0.00000E+00
    0.19206E-03        -0.51296E-01         0.00000E+00
    0.19095E-03        -0.47016E-01         0.00000E+00
    0.18704E-03        -0.42736E-01         0.00000E+00
    0.18034E-03        -0.38457E-01         0.00000E+00
    0.17088E-03        -0.34179E-01         0.00000E+00
    0.15866E-03        -0.29901E-01         0.00000E+00
    0.14370E-03        -0.25625E-01         0.00000E+00
    0.12603E-03        -0.21350E-01         0.00000E+00
    0.10572E-03        -0.17077E-01         0.00000E+00
    0.82828E-04        -0.12805E-01         0.00000E+00
    0.57473E-04        -0.85346E-02         0.00000E+00
    0.29801E-04        -0.42663E-02         0.00000E+00
    0.00000E+00         0.00000E+00         0.00000E+00
    0.19149E-03        -0.64128E-01         0.00000E+00
    0.19962E-03        -0.59849E-01         0.00000E+00
    0.20468E-03        -0.55569E-01         0.00000E+00
    0.20669E-03        -0.51290E-01         0.00000E+00
    0.20566E-03        -0.47010E-01         0.00000E+00
    0.20160E-03        -0.42732E-01         0.00000E+00
    0.19454E-03        -0.38453E-01         0.00000E+00
    0.18448E-03        -0.34176E-01         0.00000E+00
    0.17143E-03        -0.29899E-01         0.00000E+00
    0.15541E-03        -0.25623E-01         0.00000E+00
    0.13644E-03        -0.21349E-01         0.00000E+00
    0.11455E-03        -0.17076E-01         0.00000E+00
    0.89835E-04        -0.12804E-01         0.00000E+00
    0.62394E-04        -0.85345E-02         0.00000E+00
    0.32382E-04        -0.42663E-02         0.00000E+00
    0.00000E+00         0.00000E+00         0.00000E+00
    0.20303E-03        -0.64118E-01         0.00000E+00
    0.21188E-03        -0.59840E-01         0.00000E+00
    0.21748E-03        -0.55561E-01         0.00000E+00
    0.21983E-03        -0.51283E-01         0.00000E+00
    0.21896E-03        -0.47005E-01         0.00000E+00
    0.21486E-03        -0.42727E-01         0.00000E+00
    0.20755E-03        -0.38449E-01         0.00000E+00
    0.19702E-03        -0.34173E-01         0.00000E+00
    0.18327E-03        -0.29897E-01         0.00000E+00
    0.16633E-03        -0.25622E-01         0.00000E+00
    0.14618E-03        -0.21348E-01         0.00000E+00
    0.12287E-03        -0.17075E-01         0.00000E+00
    0.96461E-04        -0.12804E-01         0.00000E+00
    0.67068E-04        -0.85345E-02         0.00000E+00
    0.34844E-04        -0.42664E-02         0.00000E+00
    0.00000E+00         0.00000E+00         0.00000E+00
    0.21281E-03        -0.64107E-01         0.00000E+00
    0.22237E-03        -0.59830E-01         0.00000E+00
    0.22854E-03        -0.55553E-01         0.00000E+00
    0.23130E-03        -0.51276E-01         0.00000E+00
    0.23067E-03        -0.46999E-01         0.00000E+00
    0.22664E-03        -0.42722E-01         0.00000E+00
    0.21920E-03        -0.38445E-01         0.00000E+00
    0.20835E-03        -0.34170E-01         0.00000E+00
    0.19406E-03        -0.29895E-01         0.00000E+00
    0.17634E-03        -0.25620E-01         0.00000E+00
    0.15518E-03        -0.21347E-01         0.00000E+00
    0.13060E-03        -0.17075E-01         0.00000E+00
    0.10266E-03        -0.12804E-01         0.00000E+00
    0.71463E-04        -0.85346E-02         0.00000E+00
    0.37171E-04        -0.42665E-02         0.00000E+00
    0.00000E+00         0.00000E+00         0.00000E+00
    0.22060E-03        -0.64095E-01         0.00000E+00
    0.23087E-03        -0.59820E-01         0.00000E+00
    0.23764E-03        -0.55544E-01         0.00000E+00
    0.24088E-03        -0.51268E-01         0.00000E+00
    0.24060E-03        -0.46992E-01         0.00000E+00
    0.23676E-03        -0.42717E-01         0.00000E+00
    0.22935E-03        -0.38441E-01         0.00000E+00
    0.21832E-03        -0.34167E-01         0.00000E+00
    0.20366E-03        -0.29892E-01         0.00000E+00
    0.18534E-03        -0.25619E-01         0.00000E+00
    0.16333E-03        -0.21346E-01         0.00000E+00
    0.13766E-03        -0.17075E-01         0.00000E+00
    0.10837E-03        -0.12804E-01         0.00000E+00
    0.75541E-04        -0.85349E-02         0.00000E+00
    0.39345E-04        -0.42668E-02         0.00000E+00
    0.00000E+00         0.00000E+00         0.00000E+00
    0.22618E-03        -0.64083E-01         0.00000E+00
    0.23714E-03        -0.59809E-01         0.00000E+00
    0.24455E-03        -0.55535E-01         0.00000E+00
    0.24836E-03        -0.51260E-01         0.00000E+00
    0.24853E-03        -0.46986E-01         0.00000E+00
    0.24503E-03        -0.42712E-01         0.00000E+00
    0.23780E-03        -0.38437E-01         0.00000E+00
    0.22679E-03        -0.34164E-01         0.00000E+00
    0.21194E-03        -0.29891E-01         0.00000E+00
    0.19320E-03        -0.25618E-01         0.00000E+00
    0.17055E-03        -0.21346E-01         0.00000E+00
    0.14398E-03        -0.17075E-01         0.00000E+00
    0.11352E-03        -0.12805E-01         0.00000E+00
    0.79259E-04        -0.85353E-02         0.00000E+00
    0.41344E-04        -0.42671E-02         0.00000E+00
    0.00000E+00         0.00000E+00         0.00000E+00
    0.22933E-03        -0.64070E-01         0.00000E+00
    0.24096E-03        -0.59798E-01         0.00000E+00
    0.24905E-03        -0.55525E-01         0.00000E+00
    0.25350E-03        -0.51252E-01         0.00000E+00
    0.25426E-03        -0.46979E-01         0.00000E+00
    0.25124E-03        -0.42706E-01         0.00000E+00
    0.24437E-03        -0.38434E-01         0.00000E+00
    0.23356E-03        -0.34161E-01         0.00000E+00
    0.21872E-03        -0.29889E-01         0.00000E+00
    0.19978E-03        -0.25617E-01         0.00000E+00
    0.17669E-03        -0.21346E-01         0.00000E+00
    0.14944E-03        -0.17075E-01         0.00000E+00
    0.11804E-03        -0.12805E-01         0.00000E+00
    0.82562E-04        -0.85360E-02         0.00000E+00
    0.43142E-04        -0.42675E-02         0.00000E+00
    0.00000E+00         0.00000E+00         0.00000E+00
    0.22986E-03        -0.64056E-01         0.00000E+00
    0.24214E-03        -0.59786E-01         0.00000E+00
    0.25093E-03        -0.55515E-01         0.00000E+00
    0.25611E-03        -0.51244E-01         0.00000E+00
    0.25757E-03        -0.46973E-01         0.00000E+00
    0.25518E-03        -0.42701E-01         0.00000E+00
    0.24884E-03        -0.38430E-01         0.00000E+00
    0.23842E-03        -0.34159E-01         0.00000E+00
    0.22381E-03        -0.29888E-01         0.00000E+00
    0.20490E-03        -0.25617E-01         0.00000E+00
    0.18162E-03        -0.21346E-01         0.00000E+00
    0.15393E-03        -0.17076E-01         0.00000E+00
    0.12183E-03        -0.12806E-01         0.00000E+00
    0.85387E-04        -0.85369E-02         0.00000E+00
    0.44710E-04        -0.42681E-02         0.00000E+00
    0.00000E+00         0.00000E+00         0.00000E+00
    0.22761E-03        -0.64042E-01         0.00000E+00
    0.24049E-03        -0.59773E-01         0.00000E+00
    0.25000E-03        -0.55504E-01         0.00000E+00
    0.25597E-03        -0.51235E-01         0.00000E+00
    0.25823E-03        -0.46966E-01         0.00000E+00
    0.25662E-03        -0.42696E-01         0.00000E+00
    0.25098E-03        -0.38426E-01         0.00000E+00
    0.24116E-03        -0.34156E-01         0.00000E+00
    0.22699E-03        -0.29886E-01         0.00000E+00
    0.20835E-03        -0.25617E-01         0.00000E+00
    0.18514E-03        -0.21347E-01         0.00000E+00
    0.15729E-03        -0.17077E-01         0.00000E+00
    0.12479E-03        -0.12807E-01         0.00000E+00
    0.87664E-04        -0.85380E-02         0.00000E+00
    0.46013E-04        -0.42688E-02         0.00000E+00
    0.00000E+00         0.00000E+00         0.00000E+00
    0.22248E-03        -0.64027E-01         0.00000E+00
    0.23588E-03        -0.59761E-01         0.00000E+00
    0.24610E-03        -0.55494E-01         0.00000E+00
    0.25289E-03        -0.51226E-01         0.00000E+00
    0.25603E-03        -0.46959E-01         0.00000E+00
    0.25532E-03        -0.42691E-01         0.00000E+00
    0.25054E-03        -0.38423E-01         0.00000E+00
    0.24149E-03        -0.34154E-01         0.00000E+00
    0.22798E-03        -0.29886E-01         0.00000E+00
    0.20987E-03        -0.25617E-01         0.00000E+00
    0.18702E-03        -0.21348E-01         0.00000E+00
    0.15933E-03        -0.17079E-01         0.00000E+00
    0.12677E-03        -0.12809E-01         0.00000E+00
    0.89308E-04        -0.85395E-02         0.00000E+00
    0.47010E-04        -0.42697E-02         0.00000E+00
    0.00000E+00         0.00000E+00         0.00000E+00
    0.21441E-03        -0.64012E-01         0.00000E+00
    0.22825E-03        -0.59748E-01         0.00000E+00
    0.23912E-03        -0.55483E-01         0.00000E+00
    0.24672E-03        -0.51217E-01         0.00000E+00
    0.25078E-03        -0.46952E-01         0.00000E+00
    0.25104E-03        -0.42686E-01         0.00000E+00
    0.24722E-03        -0.38419E-01         0.00000E+00
    0.23911E-03        -0.34153E-01         0.00000E+00
    0.22649E-03        -0.29885E-01         0.00000E+00
    0.20917E-03        -0.25618E-01         0.00000E+00
    0.18700E-03        -0.21349E-01         0.00000E+00
    0.15985E-03        -0.17081E-01         0.00000E+00
    0.12760E-03        -0.12811E-01         0.00000E+00
    0.90211E-04        -0.85412E-02         0.00000E+00
    0.47656E-04        -0.42708E-02         0.00000E+00
    0.00000E+00         0.00000E+00         0.00000E+00
    0.20345E-03        -0.63997E-01         0.00000E+00
    0.21757E-03        -0.59734E-01         0.00000E+00
    0.22898E-03        -0.55471E-01         0.00000E+00
    0.23733E-03        -0.51208E-01         0.00000E+00
    0.24228E-03        -0.46945E-01         0.00000E+00
    0.24352E-03        -0.42681E-01         0.00000E+00
    0.24075E-03        -0.38416E-01         0.00000E+00
    0.23370E-03        -0.34151E-01         0.00000E+00
    0.22216E-03        -0.29885E-01         0.00000E+00
    0.20592E-03        -0.25619E-01         0.00000E+00
    0.18478E-03        -0.21351E-01         0.00000E+00
    0.15857E-03        -0.17083E-01         0.00000E+00
    0.12710E-03        -0.12814E-01         0.00000E+00
    0.90245E-04        -0.85433E-02         0.00000E+00
    0.47889E-04        -0.42720E-02         0.00000E+00
    0.00000E+00         0.00000E+00         0.00000E+00
    0.18967E-03        -0.63982E-01         0.00000E+00
    0.20391E-03        -0.59721E-01         0.00000E+00
    0.21570E-03        -0.55460E-01         0.00000E+00
    0.22465E-03        -0.51199E-01         0.00000E+00
    0.23038E-03        -0.46937E-01         0.00000E+00
    0.23253E-03        -0.42675E-01         0.00000E+00
    0.23079E-03        -0.38413E-01         0.00000E+00
    0.22489E-03        -0.34150E-01         0.00000E+00
    0.21461E-03        -0.29886E-01         0.00000E+00
    0.19972E-03        -0.25620E-01         0.00000E+00
    0.18000E-03        -0.21354E-01         0.00000E+00
    0.15518E-03        -0.17086E-01         0.00000E+00
    0.12502E-03        -0.12816E-01         0.00000E+00
    0.89248E-04        -0.85456E-02         0.00000E+00
    0.47633E-04        -0.42734E-02         0.00000E+00
    0.00000E+00         0.00000E+00         0.00000E+00
    0.17321E-03        -0.63967E-01         0.00000E+00
    0.18734E-03        -0.59708E-01         0.00000E+00
    0.19930E-03        -0.55449E-01         0.00000E+00
    0.20863E-03        -0.51189E-01         0.00000E+00
    0.21493E-03        -0.46930E-01         0.00000E+00
    0.21783E-03        -0.42670E-01         0.00000E+00
    0.21703E-03        -0.38410E-01         0.00000E+00
    0.21230E-03        -0.34149E-01         0.00000E+00
    0.20342E-03        -0.29886E-01         0.00000E+00
    0.19017E-03        -0.25622E-01         0.00000E+00
    0.17225E-03        -0.21357E-01         0.00000E+00
    0.14934E-03        -0.17089E-01         0.00000E+00
    0.12107E-03        -0.12820E-01         0.00000E+00
    0.87016E-04        -0.85481E-02         0.00000E+00
    0.46785E-04        -0.42749E-02         0.00000E+00
    0.00000E+00         0.00000E+00         0.00000E+00
    0.15424E-03        -0.63952E-01         0.00000E+00
    0.16800E-03        -0.59694E-01         0.00000E+00
    0.17984E-03        -0.55437E-01         0.00000E+00
    0.18926E-03        -0.51180E-01         0.00000E+00
    0.19583E-03        -0.46923E-01         0.00000E+00
    0.19922E-03        -0.42666E-01         0.00000E+00
    0.19919E-03        -0.38407E-01         0.00000E+00
    0.19558E-03        -0.34148E-01         0.00000E+00
    0.18820E-03        -0.29887E-01         0.00000E+00
    0.17682E-03        -0.25624E-01         0.00000E+00
    0.16110E-03        -0.21359E-01         0.00000E+00
    0.14062E-03        -0.17092E-01         0.00000E+00
    0.11488E-03        -0.12823E-01         0.00000E+00
    0.83284E-04        -0.85509E-02         0.00000E+00
    0.45206E-04        -0.42765E-02         0.00000E+00
    0.00000E+00         0.00000E+00         0.00000E+00
    0.13301E-03        -0.63938E-01         0.00000E+00
    0.14605E-03        -0.59682E-01         0.00000E+00
    0.15739E-03        -0.55427E-01         0.00000E+00
    0.16650E-03        -0.51172E-01         0.00000E+00
    0.17296E-03        -0.46917E-01         0.00000E+00
    0.17652E-03        -0.42661E-01         0.00000E+00
    0.17704E-03        -0.38405E-01         0.00000E+00
    0.17445E-03        -0.34147E-01         0.00000E+00
    0.16860E-03        -0.29888E-01         0.00000E+00
    0.15925E-03        -0.25626E-01         0.00000E+00
    0.14606E-03        -0.21362E-01         0.00000E+00
    0.12853E-03        -0.17096E-01         0.00000E+00
    0.10600E-03        -0.12826E-01         0.00000E+00
    0.77703E-04        -0.85537E-02         0.00000E+00
    0.42705E-04        -0.42782E-02         0.00000E+00
    0.00000E+00         0.00000E+00         0.00000E+00
    0.10973E-03        -0.63924E-01         0.00000E+00
    0.12163E-03        -0.59670E-01         0.00000E+00
    0.13201E-03        -0.55417E-01         0.00000E+00
    0.14032E-03        -0.51164E-01         0.00000E+00
    0.14621E-03        -0.46911E-01         0.00000E+00
    0.14959E-03        -0.42657E-01         0.00000E+00
    0.15044E-03        -0.38402E-01         0.00000E+00
    0.14873E-03        -0.34146E-01         0.00000E+00
    0.14436E-03        -0.29888E-01         0.00000E+00
    0.13712E-03        -0.25628E-01         0.00000E+00
    0.12667E-03        -0.21365E-01         0.00000E+00
    0.11251E-03        -0.17099E-01         0.00000E+00
    0.93884E-04        -0.12829E-01         0.00000E+00
    0.69806E-04        -0.85565E-02         0.00000E+00
    0.39013E-04        -0.42800E-02         0.00000E+00
    0.00000E+00         0.00000E+00         0.00000E+00
    0.84664E-04        -0.63913E-01         0.00000E+00
    0.94851E-04        -0.59660E-01         0.00000E+00
    0.10367E-03        -0.55408E-01         0.00000E+00
    0.11060E-03        -0.51157E-01         0.00000E+00
    0.11550E-03        -0.46906E-01         0.00000E+00
    0.11841E-03        -0.42654E-01         0.00000E+00
    0.11937E-03        -0.38400E-01         0.00000E+00
    0.11837E-03        -0.34145E-01         0.00000E+00
    0.11535E-03        -0.29888E-01         0.00000E+00
    0.11016E-03        -0.25629E-01         0.00000E+00
    0.10253E-03        -0.21367E-01         0.00000E+00
    0.92001E-04        -0.17101E-01         0.00000E+00
    0.77853E-04        -0.12832E-01         0.00000E+00
    0.58970E-04        -0.85592E-02         0.00000E+00
    0.33738E-04        -0.42818E-02         0.00000E+00
    0.00000E+00         0.00000E+00         0.00000E+00
    0.58005E-04        -0.63903E-01         0.00000E+00
    0.65728E-04        -0.59652E-01         0.00000E+00
    0.72258E-04        -0.55402E-01         0.00000E+00
    0.77282E-04        -0.51152E-01         0.00000E+00
    0.80837E-04        -0.46902E-01         0.00000E+00
    0.83015E-04        -0.42651E-01         0.00000E+00
    0.83862E-04        -0.38399E-01         0.00000E+00
    0.83387E-04        -0.34145E-01         0.00000E+00
    0.81555E-04        -0.29888E-01         0.00000E+00
    0.78275E-04        -0.25630E-01         0.00000E+00
    0.73369E-04        -0.21368E-01         0.00000E+00
    0.66523E-04        -0.17103E-01         0.00000E+00
    0.57180E-04        -0.12835E-01         0.00000E+00
    0.44366E-04        -0.85616E-02         0.00000E+00
    0.26287E-04        -0.42836E-02         0.00000E+00
    0.00000E+00         0.00000E+00         0.00000E+00
    0.29814E-04        -0.63897E-01         0.00000E+00
    0.34106E-04        -0.59647E-01         0.00000E+00
    0.37700E-04        -0.55398E-01         0.00000E+00
    0.40393E-04        -0.51149E-01         0.00000E+00
    0.42307E-04        -0.46899E-01         0.00000E+00
    0.43507E-04        -0.42649E-01         0.00000E+00
    0.44028E-04        -0.38397E-01         0.00000E+00
    0.43879E-04        -0.34144E-01         0.00000E+00
    0.43050E-04        -0.29888E-01         0.00000E+00
    0.41500E-04        -0.25630E-01         0.00000E+00
    0.39147E-04        -0.21369E-01         0.00000E+00
    0.35836E-04        -0.17104E-01         0.00000E+00
    0.31285E-04        -0.12836E-01         0.00000E+00
    0.24933E-04        -0.85634E-02         0.00000E+00
    0.15657E-04        -0.42853E-02         0.00000E+00
    0.00000E+00         0.00000E+00         0.00000E+00
    0.00000E+00        -0.63895E-01         0.00000E+00
    0.00000E+00        -0.59645E-01         0.00000E+00
    0.00000E+00        -0.55396E-01         0.00000E+00
    0.00000E+00        -0.51148E-01         0.00000E+00
    0.00000E+00        -0.46898E-01         0.00000E+00
    0.00000E+00        -0.42648E-01         0.00000E+00
    0.00000E+00        -0.38397E-01         0.00000E+00
    0.00000E+00        -0.34143E-01         0.00000E+00
    0.00000E+00        -0.29888E-01         0.00000E+00
    0.00000E+00        -0.25630E-01         0.00000E+00
    0.00000E+00        -0.21369E-01         0.00000E+00
    0.00000E+00        -0.17105E-01         0.00000E+00
    0.00000E+00        -0.12837E-01         0.00000E+00
    0.00000E+00        -0.85642E-02         0.00000E+00
    0.00000E+00        -0.42862E-02         0.00000E+00
    0.00000E+00         0.00000E+00         0.00000E+00
CELL_DATA        450
VECTORS vDarcy double 
    0.95781E-13        -0.90526E-19         0.00000E+00
    0.95781E-13        -0.24428E-18         0.00000E+00
    0.95781E-13        -0.35117E-18         0.00000E+00
    0.95781E-13        -0.41365E-18         0.00000E+00
    0.95781E-13        -0.43303E-18         0.00000E+00
    0.95781E-13        -0.40714E-18         0.00000E+00
    0.95781E-13        -0.34562E-18         0.00000E+00
    0.95781E-13        -0.25820E-18         0.00000E+00
    0.95781E-13        -0.15354E-18         0.00000E+00
    0.95781E-13        -0.46651E-19         0.00000E+00
    0.95781E-13         0.53114E-19         0.00000E+00
    0.95781E-13         0.13134E-18         0.00000E+00
    0.95781E-13         0.16597E-18         0.00000E+00
    0.95781E-13         0.14882E-18         0.00000E+00
    0.95781E-13         0.61732E-19         0.00000E+00
    0.28708E-12        -0.93468E-19         0.00000E+00
    0.28708E-12        -0.25459E-18         0.00000E+00
    0.28708E-12        -0.36687E-18         0.00000E+00
    0.28708E-12        -0.43627E-18         0.00000E+00
    0.28708E-12        -0.45665E-18         0.00000E+00
    0.28708E-12        -0.43262E-18         0.00000E+00
    0.28708E-12        -0.37536E-18         0.00000E+00
    0.28708E-12        -0.28703E-18         0.00000E+00
    0.28708E-12        -0.18163E-18         0.00000E+00
    0.28708E-12        -0.71095E-19         0.00000E+00
    0.28708E-12         0.31405E-19         0.00000E+00
    0.28708E-12         0.11244E-18         0.00000E+00
    0.28708E-12         0.15263E-18         0.00000E+00
    0.28708E-12         0.14086E-18         0.00000E+00
    0.28708E-12         0.57340E-19         0.00000E+00
    0.47759E-12        -0.10022E-18         0.00000E+00
    0.47759E-12        -0.27435E-18         0.00000E+00
    0.47759E-12        -0.39985E-18         0.00000E+00
    0.47759E-12        -0.47790E-18         0.00000E+00
    0.47759E-12        -0.50363E-18         0.00000E+00
    0.47759E-12        -0.48772E-18         0.00000E+00
    0.47759E-12        -0.43138E-18         0.00000E+00
    0.47759E-12        -0.34205E-18         0.00000E+00
    0.47759E-12        -0.23607E-18         0.00000E+00
    0.47759E-12        -0.11783E-18         0.00000E+00
    0.47759E-12        -0.12429E-19         0.00000E+00
    0.47759E-12         0.77558E-19         0.00000E+00
    0.47759E-12         0.12711E-18         0.00000E+00
    0.47759E-12         0.12355E-18         0.00000E+00
    0.47759E-12         0.50711E-19         0.00000E+00
    0.66680E-12        -0.10975E-18         0.00000E+00
    0.66680E-12        -0.30145E-18         0.00000E+00
    0.66680E-12        -0.44687E-18         0.00000E+00
    0.66680E-12        -0.53765E-18         0.00000E+00
    0.66680E-12        -0.57307E-18         0.00000E+00
    0.66680E-12        -0.56408E-18         0.00000E+00
    0.66680E-12        -0.51258E-18         0.00000E+00
    0.66680E-12        -0.42259E-18         0.00000E+00
    0.66680E-12        -0.31173E-18         0.00000E+00
    0.66680E-12        -0.18959E-18         0.00000E+00
    0.66680E-12        -0.72504E-19         0.00000E+00
    0.66680E-12         0.28173E-19         0.00000E+00
    0.66680E-12         0.90153E-19         0.00000E+00
    0.66680E-12         0.10084E-18         0.00000E+00
    0.66680E-12         0.45160E-19         0.00000E+00
    0.85417E-12        -0.12139E-18         0.00000E+00
    0.85417E-12        -0.33605E-18         0.00000E+00
    0.85417E-12        -0.50189E-18         0.00000E+00
    0.85417E-12        -0.61189E-18         0.00000E+00
    0.85417E-12        -0.66140E-18         0.00000E+00
    0.85417E-12        -0.66090E-18         0.00000E+00
    0.85417E-12        -0.61284E-18         0.00000E+00
    0.85417E-12        -0.52418E-18         0.00000E+00
    0.85417E-12        -0.40760E-18         0.00000E+00
    0.85417E-12        -0.28115E-18         0.00000E+00
    0.85417E-12        -0.14725E-18         0.00000E+00
    0.85417E-12        -0.32813E-19         0.00000E+00
    0.85417E-12         0.45657E-19         0.00000E+00
    0.85417E-12         0.74161E-19         0.00000E+00
    0.85417E-12         0.36790E-19         0.00000E+00
    0.10392E-11        -0.13564E-18         0.00000E+00
    0.10392E-11        -0.37719E-18         0.00000E+00
    0.10392E-11        -0.56657E-18         0.00000E+00
    0.10392E-11        -0.69691E-18         0.00000E+00
    0.10392E-11        -0.76316E-18         0.00000E+00
    0.10392E-11        -0.77086E-18         0.00000E+00
    0.10392E-11        -0.72939E-18         0.00000E+00
    0.10392E-11        -0.63878E-18         0.00000E+00
    0.10392E-11        -0.51900E-18         0.00000E+00
    0.10392E-11        -0.38212E-18         0.00000E+00
    0.10392E-11        -0.23326E-18         0.00000E+00
    0.10392E-11        -0.10291E-18         0.00000E+00
    0.10392E-11        -0.38116E-20         0.00000E+00
    0.10392E-11         0.43834E-19         0.00000E+00
    0.10392E-11         0.26143E-19         0.00000E+00
    0.12214E-11        -0.14998E-18         0.00000E+00
    0.12214E-11        -0.42015E-18         0.00000E+00
    0.12214E-11        -0.63571E-18         0.00000E+00
    0.12214E-11        -0.78893E-18         0.00000E+00
    0.12214E-11        -0.86922E-18         0.00000E+00
    0.12214E-11        -0.88836E-18         0.00000E+00
    0.12214E-11        -0.85364E-18         0.00000E+00
    0.12214E-11        -0.76357E-18         0.00000E+00
    0.12214E-11        -0.63870E-18         0.00000E+00
    0.12214E-11        -0.48706E-18         0.00000E+00
    0.12214E-11        -0.32515E-18         0.00000E+00
    0.12214E-11        -0.17625E-18         0.00000E+00
    0.12214E-11        -0.56014E-19         0.00000E+00
    0.12214E-11         0.14086E-19         0.00000E+00
    0.12214E-11         0.16945E-19         0.00000E+00
    0.14002E-11        -0.16353E-18         0.00000E+00
    0.14002E-11        -0.46378E-18         0.00000E+00
    0.14002E-11        -0.70225E-18         0.00000E+00
    0.14002E-11        -0.87759E-18         0.00000E+00
    0.14002E-11        -0.97619E-18         0.00000E+00
    0.14002E-11        -0.10065E-17         0.00000E+00
    0.14002E-11        -0.97429E-18         0.00000E+00
    0.14002E-11        -0.88720E-18         0.00000E+00
    0.14002E-11        -0.75611E-18         0.00000E+00
    0.14002E-11        -0.59296E-18         0.00000E+00
    0.14002E-11        -0.41713E-18         0.00000E+00
    0.14002E-11        -0.24552E-18         0.00000E+00
    0.14002E-11        -0.10581E-18         0.00000E+00
    0.14002E-11        -0.13424E-19         0.00000E+00
    0.14002E-11         0.85347E-20         0.00000E+00
    0.15752E-11        -0.17579E-18         0.00000E+00
    0.15752E-11        -0.50135E-18         0.00000E+00
    0.15752E-11        -0.76199E-18         0.00000E+00
    0.15752E-11        -0.95635E-18         0.00000E+00
    0.15752E-11        -0.10736E-17         0.00000E+00
    0.15752E-11        -0.11130E-17         0.00000E+00
    0.15752E-11        -0.10857E-17         0.00000E+00
    0.15752E-11        -0.99989E-18         0.00000E+00
    0.15752E-11        -0.86101E-18         0.00000E+00
    0.15752E-11        -0.68775E-18         0.00000E+00
    0.15752E-11        -0.49725E-18         0.00000E+00
    0.15752E-11        -0.30899E-18         0.00000E+00
    0.15752E-11        -0.14724E-18         0.00000E+00
    0.15752E-11        -0.36542E-19         0.00000E+00
    0.15752E-11        -0.82861E-22         0.00000E+00
    0.17459E-11        -0.18466E-18         0.00000E+00
    0.17459E-11        -0.52522E-18         0.00000E+00
    0.17459E-11        -0.80786E-18         0.00000E+00
    0.17459E-11        -0.10165E-17         0.00000E+00
    0.17459E-11        -0.11488E-17         0.00000E+00
    0.17459E-11        -0.11975E-17         0.00000E+00
    0.17459E-11        -0.11746E-17         0.00000E+00
    0.17459E-11        -0.10894E-17         0.00000E+00
    0.17459E-11        -0.94479E-18         0.00000E+00
    0.17459E-11        -0.76216E-18         0.00000E+00
    0.17459E-11        -0.55998E-18         0.00000E+00
    0.17459E-11        -0.35597E-18         0.00000E+00
    0.17459E-11        -0.17940E-18         0.00000E+00
    0.17459E-11        -0.50711E-19         0.00000E+00
    0.17459E-11        -0.53860E-20         0.00000E+00
    0.19118E-11        -0.18681E-18         0.00000E+00
    0.19118E-11        -0.53512E-18         0.00000E+00
    0.19118E-11        -0.82779E-18         0.00000E+00
    0.19118E-11        -0.10470E-17         0.00000E+00
    0.19118E-11        -0.11874E-17         0.00000E+00
    0.19118E-11        -0.12445E-17         0.00000E+00
    0.19118E-11        -0.12279E-17         0.00000E+00
    0.19118E-11        -0.11410E-17         0.00000E+00
    0.19118E-11        -0.99583E-18         0.00000E+00
    0.19118E-11        -0.80732E-18         0.00000E+00
    0.19118E-11        -0.59685E-18         0.00000E+00
    0.19118E-11        -0.38091E-18         0.00000E+00
    0.19118E-11        -0.19497E-18         0.00000E+00
    0.19118E-11        -0.59163E-19         0.00000E+00
    0.19118E-11        -0.37288E-20         0.00000E+00
    0.20725E-11        -0.18147E-18         0.00000E+00
    0.20725E-11        -0.52460E-18         0.00000E+00
    0.20725E-11        -0.81370E-18         0.00000E+00
    0.20725E-11        -0.10304E-17         0.00000E+00
    0.20725E-11        -0.11731E-17         0.00000E+00
    0.20725E-11        -0.12402E-17         0.00000E+00
    0.20725E-11        -0.12275E-17         0.00000E+00
    0.20725E-11        -0.11416E-17         0.00000E+00
    0.20725E-11        -0.10017E-17         0.00000E+00
    0.20725E-11        -0.81047E-18         0.00000E+00
    0.20725E-11        -0.59822E-18         0.00000E+00
    0.20725E-11        -0.37988E-18         0.00000E+00
    0.20725E-11        -0.18934E-18         0.00000E+00
    0.20725E-11        -0.54854E-19         0.00000E+00
    0.20725E-11         0.11601E-20         0.00000E+00
    0.22274E-11        -0.16531E-18         0.00000E+00
    0.22274E-11        -0.48134E-18         0.00000E+00
    0.22274E-11        -0.75230E-18         0.00000E+00
    0.22274E-11        -0.95746E-18         0.00000E+00
    0.22274E-11        -0.10934E-17         0.00000E+00
    0.22274E-11        -0.11643E-17         0.00000E+00
    0.22274E-11        -0.11563E-17         0.00000E+00
    0.22274E-11        -0.10781E-17         0.00000E+00
    0.22274E-11        -0.94346E-18         0.00000E+00
    0.22274E-11        -0.76365E-18         0.00000E+00
    0.22274E-11        -0.55658E-18         0.00000E+00
    0.22274E-11        -0.34694E-18         0.00000E+00
    0.22274E-11        -0.16431E-18         0.00000E+00
    0.22274E-11        -0.34636E-19         0.00000E+00
    0.22274E-11         0.71261E-20         0.00000E+00
    0.23763E-11        -0.13540E-18         0.00000E+00
    0.23763E-11        -0.39595E-18         0.00000E+00
    0.23763E-11        -0.63041E-18         0.00000E+00
    0.23763E-11        -0.80902E-18         0.00000E+00
    0.23763E-11        -0.92946E-18         0.00000E+00
    0.23763E-11        -0.99620E-18         0.00000E+00
    0.23763E-11        -0.99492E-18         0.00000E+00
    0.23763E-11        -0.93161E-18         0.00000E+00
    0.23763E-11        -0.81445E-18         0.00000E+00
    0.23763E-11        -0.65386E-18         0.00000E+00
    0.23763E-11        -0.46788E-18         0.00000E+00
    0.23763E-11        -0.27866E-18         0.00000E+00
    0.23763E-11        -0.11617E-18         0.00000E+00
    0.23763E-11        -0.39774E-20         0.00000E+00
    0.23763E-11         0.14666E-19         0.00000E+00
    0.25187E-11        -0.89573E-19         0.00000E+00
    0.25187E-11        -0.26586E-18         0.00000E+00
    0.25187E-11        -0.43046E-18         0.00000E+00
    0.25187E-11        -0.56404E-18         0.00000E+00
    0.25187E-11        -0.65701E-18         0.00000E+00
    0.25187E-11        -0.71679E-18         0.00000E+00
    0.25187E-11        -0.72462E-18         0.00000E+00
    0.25187E-11        -0.68377E-18         0.00000E+00
    0.25187E-11        -0.59884E-18         0.00000E+00
    0.25187E-11        -0.47670E-18         0.00000E+00
    0.25187E-11        -0.32859E-18         0.00000E+00
    0.25187E-11        -0.17637E-18         0.00000E+00
    0.25187E-11        -0.47148E-19         0.00000E+00
    0.25187E-11         0.32316E-19         0.00000E+00
    0.25187E-11         0.28256E-19         0.00000E+00
    0.26541E-11        -0.24693E-19         0.00000E+00
    0.26541E-11        -0.79961E-19         0.00000E+00
    0.26541E-11        -0.14252E-18         0.00000E+00
    0.26541E-11        -0.20504E-18         0.00000E+00
    0.26541E-11        -0.25712E-18         0.00000E+00
    0.26541E-11        -0.30323E-18         0.00000E+00
    0.26541E-11        -0.32109E-18         0.00000E+00
    0.26541E-11        -0.31898E-18         0.00000E+00
    0.26541E-11        -0.28413E-18         0.00000E+00
    0.26541E-11        -0.22472E-18         0.00000E+00
    0.26541E-11        -0.14219E-18         0.00000E+00
    0.26541E-11        -0.47397E-19         0.00000E+00
    0.26541E-11         0.30037E-19         0.00000E+00
    0.26541E-11         0.72918E-19         0.00000E+00
    0.26541E-11         0.42176E-19         0.00000E+00
    0.27823E-11         0.61856E-19         0.00000E+00
    0.27823E-11         0.17301E-18         0.00000E+00
    0.27823E-11         0.24601E-18         0.00000E+00
    0.27823E-11         0.28562E-18         0.00000E+00
    0.27823E-11         0.28720E-18         0.00000E+00
    0.27823E-11         0.26383E-18         0.00000E+00
    0.27823E-11         0.23006E-18         0.00000E+00
    0.27823E-11         0.17898E-18         0.00000E+00
    0.27823E-11         0.13672E-18         0.00000E+00
    0.27823E-11         0.10374E-18         0.00000E+00
    0.27823E-11         0.88413E-19         0.00000E+00
    0.27823E-11         0.94131E-19         0.00000E+00
    0.27823E-11         0.10424E-18         0.00000E+00
    0.27823E-11         0.10383E-18         0.00000E+00
    0.27823E-11         0.47355E-19         0.00000E+00
    0.29029E-11         0.17525E-18         0.00000E+00
    0.29029E-11         0.49816E-18         0.00000E+00
    0.29029E-11         0.74579E-18         0.00000E+00
    0.29029E-11         0.91354E-18         0.00000E+00
    0.29029E-11         0.99657E-18         0.00000E+00
    0.29029E-11         0.10009E-17         0.00000E+00
    0.29029E-11         0.93782E-18         0.00000E+00
    0.29029E-11         0.82008E-18         0.00000E+00
    0.29029E-11         0.66463E-18         0.00000E+00
    0.29029E-11         0.50214E-18         0.00000E+00
    0.29029E-11         0.35390E-18         0.00000E+00
    0.29029E-11         0.23574E-18         0.00000E+00
    0.29029E-11         0.15818E-18         0.00000E+00
    0.29029E-11         0.10693E-18         0.00000E+00
    0.29029E-11         0.42135E-19         0.00000E+00
    0.30155E-11         0.31483E-18         0.00000E+00
    0.30155E-11         0.89631E-18         0.00000E+00
    0.30155E-11         0.13594E-17         0.00000E+00
    0.30155E-11         0.16886E-17         0.00000E+00
    0.30155E-11         0.18727E-17         0.00000E+00
    0.30155E-11         0.19130E-17         0.00000E+00
    0.30155E-11         0.18123E-17         0.00000E+00
    0.30155E-11         0.15964E-17         0.00000E+00
    0.30155E-11         0.12951E-17         0.00000E+00
    0.30155E-11         0.95721E-18         0.00000E+00
    0.30155E-11         0.63248E-18         0.00000E+00
    0.30155E-11         0.35879E-18         0.00000E+00
    0.30155E-11         0.17227E-18         0.00000E+00
    0.30155E-11         0.69396E-19         0.00000E+00
    0.30155E-11         0.20342E-19         0.00000E+00
    0.31198E-11         0.47753E-18         0.00000E+00
    0.31198E-11         0.13643E-17         0.00000E+00
    0.31198E-11         0.20796E-17         0.00000E+00
    0.31198E-11         0.26029E-17         0.00000E+00
    0.31198E-11         0.29090E-17         0.00000E+00
    0.31198E-11         0.29892E-17         0.00000E+00
    0.31198E-11         0.28444E-17         0.00000E+00
    0.31198E-11         0.25003E-17         0.00000E+00
    0.31198E-11         0.20096E-17         0.00000E+00
    0.31198E-11         0.14469E-17         0.00000E+00
    0.31198E-11         0.90054E-18         0.00000E+00
    0.31198E-11         0.43883E-18         0.00000E+00
    0.31198E-11         0.12694E-18         0.00000E+00
    0.31198E-11        -0.21130E-19         0.00000E+00
    0.31198E-11        -0.26018E-19         0.00000E+00
    0.32156E-11         0.66028E-18         0.00000E+00
    0.32156E-11         0.18850E-17         0.00000E+00
    0.32156E-11         0.28899E-17         0.00000E+00
    0.32156E-11         0.36325E-17         0.00000E+00
    0.32156E-11         0.40771E-17         0.00000E+00
    0.32156E-11         0.42001E-17         0.00000E+00
    0.32156E-11         0.39951E-17         0.00000E+00
    0.32156E-11         0.34972E-17         0.00000E+00
    0.32156E-11         0.27764E-17         0.00000E+00
    0.32156E-11         0.19465E-17         0.00000E+00
    0.32156E-11         0.11344E-17         0.00000E+00
    0.32156E-11         0.45342E-18         0.00000E+00
    0.32156E-11         0.11601E-20         0.00000E+00
    0.32156E-11        -0.17997E-18         0.00000E+00
    0.32156E-11        -0.97942E-19         0.00000E+00
    0.33025E-11         0.85599E-18         0.00000E+00
    0.33025E-11         0.24434E-17         0.00000E+00
    0.33025E-11         0.37592E-17         0.00000E+00
    0.33025E-11         0.47368E-17         0.00000E+00
    0.33025E-11         0.53233E-17         0.00000E+00
    0.33025E-11         0.54825E-17         0.00000E+00
    0.33025E-11         0.52007E-17         0.00000E+00
    0.33025E-11         0.45219E-17         0.00000E+00
    0.33025E-11         0.35499E-17         0.00000E+00
    0.33025E-11         0.24245E-17         0.00000E+00
    0.33025E-11         0.13186E-17         0.00000E+00
    0.33025E-11         0.39218E-18         0.00000E+00
    0.33026E-11        -0.21130E-18         0.00000E+00
    0.33025E-11        -0.41505E-18         0.00000E+00
    0.33025E-11        -0.20243E-18         0.00000E+00
    0.33805E-11         0.10569E-17         0.00000E+00
    0.33805E-11         0.30198E-17         0.00000E+00
    0.33805E-11         0.46467E-17         0.00000E+00
    0.33805E-11         0.58537E-17         0.00000E+00
    0.33805E-11         0.65632E-17         0.00000E+00
    0.33805E-11         0.67321E-17         0.00000E+00
    0.33805E-11         0.63523E-17         0.00000E+00
    0.33805E-11         0.54880E-17         0.00000E+00
    0.33805E-11         0.42673E-17         0.00000E+00
    0.33805E-11         0.28514E-17         0.00000E+00
    0.33805E-11         0.14477E-17         0.00000E+00
    0.33805E-11         0.26370E-18         0.00000E+00
    0.33805E-11        -0.50611E-18         0.00000E+00
    0.33805E-11        -0.72379E-18         0.00000E+00
    0.33805E-11        -0.34226E-18         0.00000E+00
    0.34491E-11         0.12582E-17         0.00000E+00
    0.34491E-11         0.35895E-17         0.00000E+00
    0.34491E-11         0.55019E-17         0.00000E+00
    0.34491E-11         0.68928E-17         0.00000E+00
    0.34491E-11         0.76704E-17         0.00000E+00
    0.34491E-11         0.77969E-17         0.00000E+00
    0.34491E-11         0.72984E-17         0.00000E+00
    0.34491E-11         0.62738E-17         0.00000E+00
    0.34491E-11         0.48557E-17         0.00000E+00
    0.34491E-11         0.32055E-17         0.00000E+00
    0.34491E-11         0.15362E-17         0.00000E+00
    0.34491E-11         0.99350E-19         0.00000E+00
    0.34491E-11        -0.85347E-18         0.00000E+00
    0.34491E-11        -0.10953E-17         0.00000E+00
    0.34491E-11        -0.50980E-18         0.00000E+00
    0.35083E-11         0.14477E-17         0.00000E+00
    0.35083E-11         0.41139E-17         0.00000E+00
    0.35083E-11         0.62537E-17         0.00000E+00
    0.35083E-11         0.77318E-17         0.00000E+00
    0.35083E-11         0.84724E-17         0.00000E+00
    0.35083E-11         0.84859E-17         0.00000E+00
    0.35083E-11         0.78656E-17         0.00000E+00
    0.35083E-11         0.67395E-17         0.00000E+00
    0.35083E-11         0.52298E-17         0.00000E+00
    0.35083E-11         0.34634E-17         0.00000E+00
    0.35083E-11         0.16214E-17         0.00000E+00
    0.35083E-11        -0.42715E-19         0.00000E+00
    0.35083E-11        -0.12012E-17         0.00000E+00
    0.35083E-11        -0.15009E-17         0.00000E+00
    0.35083E-11        -0.69988E-18         0.00000E+00
    0.35579E-11         0.16126E-17         0.00000E+00
    0.35579E-11         0.45413E-17         0.00000E+00
    0.35579E-11         0.67832E-17         0.00000E+00
    0.35579E-11         0.81884E-17         0.00000E+00
    0.35579E-11         0.87490E-17         0.00000E+00
    0.35579E-11         0.85967E-17         0.00000E+00
    0.35579E-11         0.78894E-17         0.00000E+00
    0.35579E-11         0.67611E-17         0.00000E+00
    0.35579E-11         0.53031E-17         0.00000E+00
    0.35579E-11         0.35846E-17         0.00000E+00
    0.35579E-11         0.17208E-17         0.00000E+00
    0.35579E-11        -0.89448E-19         0.00000E+00
    0.35579E-11        -0.14614E-17         0.00000E+00
    0.35579E-11        -0.18886E-17         0.00000E+00
    0.35579E-11        -0.89812E-18         0.00000E+00
    0.35977E-11         0.17315E-17         0.00000E+00
    0.35977E-11         0.47861E-17         0.00000E+00
    0.35977E-11         0.69014E-17         0.00000E+00
    0.35977E-11         0.80019E-17         0.00000E+00
    0.35977E-11         0.82751E-17         0.00000E+00
    0.35977E-11         0.79741E-17         0.00000E+00
    0.35977E-11         0.72643E-17         0.00000E+00
    0.35977E-11         0.62498E-17         0.00000E+00
    0.35977E-11         0.49833E-17         0.00000E+00
    0.35977E-11         0.34884E-17         0.00000E+00
    0.35977E-11         0.18042E-17         0.00000E+00
    0.35977E-11         0.24278E-19         0.00000E+00
    0.35977E-11        -0.15189E-17         0.00000E+00
    0.35977E-11        -0.21689E-17         0.00000E+00
    0.35977E-11        -0.10830E-17         0.00000E+00
    0.36277E-11         0.17692E-17         0.00000E+00
    0.36277E-11         0.46543E-17         0.00000E+00
    0.36277E-11         0.62773E-17         0.00000E+00
    0.36277E-11         0.69021E-17         0.00000E+00
    0.36277E-11         0.69128E-17         0.00000E+00
    0.36277E-11         0.65596E-17         0.00000E+00
    0.36277E-11         0.59548E-17         0.00000E+00
    0.36277E-11         0.51588E-17         0.00000E+00
    0.36277E-11         0.41940E-17         0.00000E+00
    0.36277E-11         0.30628E-17         0.00000E+00
    0.36277E-11         0.17587E-17         0.00000E+00
    0.36277E-11         0.27551E-18         0.00000E+00
    0.36277E-11        -0.12668E-17         0.00000E+00
    0.36277E-11        -0.21970E-17         0.00000E+00
    0.36277E-11        -0.11889E-17         0.00000E+00
    0.36477E-11         0.15182E-17         0.00000E+00
    0.36477E-11         0.36967E-17         0.00000E+00
    0.36477E-11         0.45623E-17         0.00000E+00
    0.36477E-11         0.47749E-17         0.00000E+00
    0.36477E-11         0.46739E-17         0.00000E+00
    0.36477E-11         0.43914E-17         0.00000E+00
    0.36477E-11         0.39834E-17         0.00000E+00
    0.36477E-11         0.34801E-17         0.00000E+00
    0.36477E-11         0.28881E-17         0.00000E+00
    0.36477E-11         0.22018E-17         0.00000E+00
    0.36477E-11         0.14016E-17         0.00000E+00
    0.36477E-11         0.45415E-18         0.00000E+00
    0.36477E-11        -0.67539E-18         0.00000E+00
    0.36477E-11        -0.18114E-17         0.00000E+00
    0.36477E-11        -0.11699E-17         0.00000E+00
    0.36578E-11         0.63670E-18         0.00000E+00
    0.36578E-11         0.14675E-17         0.00000E+00
    0.36577E-11         0.16987E-17         0.00000E+00
    0.36577E-11         0.17279E-17         0.00000E+00
    0.36577E-11         0.16731E-17         0.00000E+00
    0.36577E-11         0.15644E-17         0.00000E+00
    0.36577E-11         0.14182E-17         0.00000E+00
    0.36577E-11         0.12479E-17         0.00000E+00
    0.36577E-11         0.10506E-17         0.00000E+00
    0.36577E-11         0.82461E-18         0.00000E+00
    0.36577E-11         0.56154E-18         0.00000E+00
    0.36577E-11         0.24170E-18         0.00000E+00
    0.36577E-11        -0.15118E-18         0.00000E+00
    0.36577E-11        -0.74764E-18         0.00000E+00
    0.36578E-11        -0.56477E-18         0.00000E+00
POINT_DATA        496
VECTORS vDarcyNodal double 
    0.95781E-13        -0.88828E-19         0.00000E+00
    0.95781E-13        -0.16605E-18         0.00000E+00
    0.95781E-13        -0.29499E-18         0.00000E+00
    0.95781E-13        -0.37752E-18         0.00000E+00
    0.95781E-13        -0.41663E-18         0.00000E+00
    0.95781E-13        -0.41398E-18         0.00000E+00
    0.95781E-13        -0.37023E-18         0.00000E+00
    0.95781E-13        -0.29399E-18         0.00000E+00
    0.95781E-13        -0.19854E-18         0.00000E+00
    0.95781E-13        -0.93136E-19         0.00000E+00
    0.95781E-13         0.92805E-20         0.00000E+00
    0.95781E-13         0.97114E-19         0.00000E+00
    0.95781E-13         0.15280E-18         0.00000E+00
    0.95781E-13         0.16009E-18         0.00000E+00
    0.95781E-13         0.10606E-18         0.00000E+00
    0.95781E-13         0.61649E-19         0.00000E+00
    0.19143E-12        -0.92631E-19         0.00000E+00
    0.19143E-12        -0.16837E-18         0.00000E+00
    0.19143E-12        -0.30079E-18         0.00000E+00
    0.19143E-12        -0.38796E-18         0.00000E+00
    0.19143E-12        -0.42948E-18         0.00000E+00
    0.19143E-12        -0.42599E-18         0.00000E+00
    0.19143E-12        -0.38290E-18         0.00000E+00
    0.19143E-12        -0.30990E-18         0.00000E+00
    0.19143E-12        -0.21279E-18         0.00000E+00
    0.19143E-12        -0.10639E-18         0.00000E+00
    0.19143E-12        -0.26516E-20         0.00000E+00
    0.19143E-12         0.87170E-19         0.00000E+00
    0.19143E-12         0.14418E-18         0.00000E+00
    0.19143E-12         0.15479E-18         0.00000E+00
    0.19143E-12         0.10531E-18         0.00000E+00
    0.19143E-12         0.63132E-19         0.00000E+00
    0.38234E-12        -0.94445E-19         0.00000E+00
    0.38234E-12        -0.17931E-18         0.00000E+00
    0.38234E-12        -0.32067E-18         0.00000E+00
    0.38234E-12        -0.41597E-18         0.00000E+00
    0.38234E-12        -0.46321E-18         0.00000E+00
    0.38234E-12        -0.46319E-18         0.00000E+00
    0.38234E-12        -0.42540E-18         0.00000E+00
    0.38234E-12        -0.35216E-18         0.00000E+00
    0.38234E-12        -0.25571E-18         0.00000E+00
    0.38234E-12        -0.14617E-18         0.00000E+00
    0.38234E-12        -0.36956E-19         0.00000E+00
    0.38234E-12         0.56843E-19         0.00000E+00
    0.38234E-12         0.12098E-18         0.00000E+00
    0.38234E-12         0.13921E-18         0.00000E+00
    0.38234E-12         0.93625E-19         0.00000E+00
    0.38234E-12         0.52020E-19         0.00000E+00
    0.57219E-12        -0.10606E-18         0.00000E+00
    0.57219E-12        -0.19522E-18         0.00000E+00
    0.57219E-12        -0.35365E-18         0.00000E+00
    0.57219E-12        -0.46237E-18         0.00000E+00
    0.57219E-12        -0.51756E-18         0.00000E+00
    0.57219E-12        -0.52766E-18         0.00000E+00
    0.57219E-12        -0.49352E-18         0.00000E+00
    0.57219E-12        -0.42094E-18         0.00000E+00
    0.57219E-12        -0.32232E-18         0.00000E+00
    0.57219E-12        -0.20782E-18         0.00000E+00
    0.57219E-12        -0.93311E-19         0.00000E+00
    0.57219E-12         0.86176E-20         0.00000E+00
    0.57219E-12         0.83856E-19         0.00000E+00
    0.57219E-12         0.11203E-18         0.00000E+00
    0.57219E-12         0.81379E-19         0.00000E+00
    0.57219E-12         0.49734E-19         0.00000E+00
    0.76048E-12        -0.11365E-18         0.00000E+00
    0.76048E-12        -0.21577E-18         0.00000E+00
    0.76048E-12        -0.39442E-18         0.00000E+00
    0.76048E-12        -0.52170E-18         0.00000E+00
    0.76048E-12        -0.59297E-18         0.00000E+00
    0.76048E-12        -0.60984E-18         0.00000E+00
    0.76048E-12        -0.58333E-18         0.00000E+00
    0.76048E-12        -0.51440E-18         0.00000E+00
    0.76048E-12        -0.41166E-18         0.00000E+00
    0.76048E-12        -0.29333E-18         0.00000E+00
    0.76048E-12        -0.16904E-18         0.00000E+00
    0.76048E-12        -0.53031E-19         0.00000E+00
    0.76048E-12         0.34470E-19         0.00000E+00
    0.76048E-12         0.78884E-19         0.00000E+00
    0.76048E-12         0.64946E-19         0.00000E+00
    0.76048E-12         0.41065E-19         0.00000E+00
    0.94669E-12        -0.12926E-18         0.00000E+00
    0.94669E-12        -0.24164E-18         0.00000E+00
    0.94669E-12        -0.44348E-18         0.00000E+00
    0.94669E-12        -0.59196E-18         0.00000E+00
    0.94669E-12        -0.68079E-18         0.00000E+00
    0.94669E-12        -0.71259E-18         0.00000E+00
    0.94669E-12        -0.69040E-18         0.00000E+00
    0.94669E-12        -0.62279E-18         0.00000E+00
    0.94669E-12        -0.51971E-18         0.00000E+00
    0.94669E-12        -0.39508E-18         0.00000E+00
    0.94669E-12        -0.25886E-18         0.00000E+00
    0.94669E-12        -0.12661E-18         0.00000E+00
    0.94669E-12        -0.21875E-19         0.00000E+00
    0.94669E-12         0.40436E-19         0.00000E+00
    0.94669E-12         0.45408E-19         0.00000E+00
    0.94669E-12         0.31819E-19         0.00000E+00
    0.11303E-11        -0.14252E-18         0.00000E+00
    0.11303E-11        -0.27112E-18         0.00000E+00
    0.11303E-11        -0.49982E-18         0.00000E+00
    0.11303E-11        -0.67118E-18         0.00000E+00
    0.11303E-11        -0.77925E-18         0.00000E+00
    0.11303E-11        -0.82166E-18         0.00000E+00
    0.11303E-11        -0.80971E-18         0.00000E+00
    0.11303E-11        -0.74542E-18         0.00000E+00
    0.11303E-11        -0.63818E-18         0.00000E+00
    0.11303E-11        -0.50628E-18         0.00000E+00
    0.11303E-11        -0.35599E-18         0.00000E+00
    0.11303E-11        -0.20881E-18         0.00000E+00
    0.11303E-11        -0.84850E-19         0.00000E+00
    0.11303E-11        -0.66290E-21         0.00000E+00
    0.11303E-11         0.24213E-19         0.00000E+00
    0.11303E-11         0.19921E-19         0.00000E+00
    0.13108E-11        -0.15704E-18         0.00000E+00
    0.13108E-11        -0.29930E-18         0.00000E+00
    0.13108E-11        -0.55604E-18         0.00000E+00
    0.13108E-11        -0.75285E-18         0.00000E+00
    0.13108E-11        -0.87896E-18         0.00000E+00
    0.13108E-11        -0.93604E-18         0.00000E+00
    0.13108E-11        -0.93173E-18         0.00000E+00
    0.13108E-11        -0.87068E-18         0.00000E+00
    0.13108E-11        -0.76296E-18         0.00000E+00
    0.13108E-11        -0.61980E-18         0.00000E+00
    0.13108E-11        -0.45710E-18         0.00000E+00
    0.13108E-11        -0.29270E-18         0.00000E+00
    0.13108E-11        -0.14683E-18         0.00000E+00
    0.13108E-11        -0.40734E-19         0.00000E+00
    0.13108E-11         0.62975E-20         0.00000E+00
    0.13108E-11         0.12526E-19         0.00000E+00
    0.14877E-11        -0.16963E-18         0.00000E+00
    0.14877E-11        -0.32846E-18         0.00000E+00
    0.14877E-11        -0.60986E-18         0.00000E+00
    0.14877E-11        -0.82630E-18         0.00000E+00
    0.14877E-11        -0.97482E-18         0.00000E+00
    0.14877E-11        -0.10467E-17         0.00000E+00
    0.14877E-11        -0.10490E-17         0.00000E+00
    0.14877E-11        -0.99069E-18         0.00000E+00
    0.14877E-11        -0.88032E-18         0.00000E+00
    0.14877E-11        -0.72918E-18         0.00000E+00
    0.14877E-11        -0.55252E-18         0.00000E+00
    0.14877E-11        -0.36956E-18         0.00000E+00
    0.14877E-11        -0.20417E-18         0.00000E+00
    0.14877E-11        -0.78553E-19         0.00000E+00
    0.14877E-11        -0.11801E-19         0.00000E+00
    0.14877E-11         0.45716E-20         0.00000E+00
    0.16606E-11        -0.18156E-18         0.00000E+00
    0.16606E-11        -0.34901E-18         0.00000E+00
    0.16606E-11        -0.65328E-18         0.00000E+00
    0.16606E-11        -0.89156E-18         0.00000E+00
    0.16606E-11        -0.10553E-17         0.00000E+00
    0.16606E-11        -0.11402E-17         0.00000E+00
    0.16606E-11        -0.11498E-17         0.00000E+00
    0.16606E-11        -0.10951E-17         0.00000E+00
    0.16606E-11        -0.98108E-18         0.00000E+00
    0.16606E-11        -0.81967E-18         0.00000E+00
    0.16606E-11        -0.63207E-18         0.00000E+00
    0.16606E-11        -0.43651E-18         0.00000E+00
    0.16606E-11        -0.25226E-18         0.00000E+00
    0.16606E-11        -0.10490E-18         0.00000E+00
    0.16606E-11        -0.24161E-19         0.00000E+00
    0.16606E-11        -0.39774E-20         0.00000E+00
    0.18289E-11        -0.18760E-18         0.00000E+00
    0.18289E-11        -0.36131E-18         0.00000E+00
    0.18289E-11        -0.68013E-18         0.00000E+00
    0.18289E-11        -0.93335E-18         0.00000E+00
    0.18289E-11        -0.11103E-17         0.00000E+00
    0.18289E-11        -0.12058E-17         0.00000E+00
    0.18289E-11        -0.12224E-17         0.00000E+00
    0.18289E-11        -0.11690E-17         0.00000E+00
    0.18289E-11        -0.10527E-17         0.00000E+00
    0.18289E-11        -0.88662E-18         0.00000E+00
    0.18289E-11        -0.69007E-18         0.00000E+00
    0.18289E-11        -0.47993E-18         0.00000E+00
    0.18289E-11        -0.28306E-18         0.00000E+00
    0.18289E-11        -0.12496E-18         0.00000E+00
    0.18289E-11        -0.31819E-19         0.00000E+00
    0.18289E-11        -0.66289E-20         0.00000E+00
    0.19921E-11        -0.18561E-18         0.00000E+00
    0.19921E-11        -0.36061E-18         0.00000E+00
    0.19921E-11        -0.68278E-18         0.00000E+00
    0.19921E-11        -0.94131E-18         0.00000E+00
    0.19921E-11        -0.11239E-17         0.00000E+00
    0.19921E-11        -0.12260E-17         0.00000E+00
    0.19921E-11        -0.12499E-17         0.00000E+00
    0.19921E-11        -0.11995E-17         0.00000E+00
    0.19921E-11        -0.10838E-17         0.00000E+00
    0.19921E-11        -0.91645E-18         0.00000E+00
    0.19921E-11        -0.71463E-18         0.00000E+00
    0.19921E-11        -0.49800E-18         0.00000E+00
    0.19921E-11        -0.29230E-18         0.00000E+00
    0.19921E-11        -0.12893E-18         0.00000E+00
    0.19921E-11        -0.31156E-19         0.00000E+00
    0.19921E-11        -0.66289E-21         0.00000E+00
    0.21500E-11        -0.17699E-18         0.00000E+00
    0.21500E-11        -0.34503E-18         0.00000E+00
    0.21500E-11        -0.65494E-18         0.00000E+00
    0.21500E-11        -0.90253E-18         0.00000E+00
    0.21500E-11        -0.10802E-17         0.00000E+00
    0.21500E-11        -0.11876E-17         0.00000E+00
    0.21500E-11        -0.12177E-17         0.00000E+00
    0.21500E-11        -0.11697E-17         0.00000E+00
    0.21500E-11        -0.10589E-17         0.00000E+00
    0.21500E-11        -0.89590E-18         0.00000E+00
    0.21500E-11        -0.69475E-18         0.00000E+00
    0.21500E-11        -0.47993E-18         0.00000E+00
    0.21500E-11        -0.27709E-18         0.00000E+00
    0.21500E-11        -0.11567E-18         0.00000E+00
    0.21500E-11        -0.22835E-19         0.00000E+00
    0.21500E-11         0.30517E-20         0.00000E+00
    0.23019E-11        -0.15246E-18         0.00000E+00
    0.23019E-11        -0.30095E-18         0.00000E+00
    0.23019E-11        -0.57904E-18         0.00000E+00
    0.23019E-11        -0.80740E-18         0.00000E+00
    0.23019E-11        -0.97014E-18         0.00000E+00
    0.23019E-11        -0.10699E-17         0.00000E+00
    0.23019E-11        -0.11031E-17         0.00000E+00
    0.23019E-11        -0.10640E-17         0.00000E+00
    0.23019E-11        -0.96252E-18         0.00000E+00
    0.23019E-11        -0.81195E-18         0.00000E+00
    0.23019E-11        -0.62577E-18         0.00000E+00
    0.23019E-11        -0.42359E-18         0.00000E+00
    0.23019E-11        -0.23433E-18         0.00000E+00
    0.23019E-11        -0.83193E-19         0.00000E+00
    0.23019E-11        -0.46402E-20         0.00000E+00
    0.23019E-11         0.10606E-19         0.00000E+00
    0.24475E-11        -0.11719E-18         0.00000E+00
    0.24475E-11        -0.23002E-18         0.00000E+00
    0.24475E-11        -0.44719E-18         0.00000E+00
    0.24475E-11        -0.63167E-18         0.00000E+00
    0.24475E-11        -0.76789E-18         0.00000E+00
    0.24475E-11        -0.85553E-18         0.00000E+00
    0.24475E-11        -0.88818E-18         0.00000E+00
    0.24475E-11        -0.86269E-18         0.00000E+00
    0.24475E-11        -0.78380E-18         0.00000E+00
    0.24475E-11        -0.65659E-18         0.00000E+00
    0.24475E-11        -0.49641E-18         0.00000E+00
    0.24475E-11        -0.32290E-18         0.00000E+00
    0.24475E-11        -0.16042E-18         0.00000E+00
    0.24475E-11        -0.36722E-19         0.00000E+00
    0.24475E-11         0.15247E-19         0.00000E+00
    0.24475E-11         0.17761E-19         0.00000E+00
    0.25864E-11        -0.61649E-19         0.00000E+00
    0.25864E-11        -0.12529E-18         0.00000E+00
    0.25864E-11        -0.24934E-18         0.00000E+00
    0.25864E-11        -0.36326E-18         0.00000E+00
    0.25864E-11        -0.45332E-18         0.00000E+00
    0.25864E-11        -0.51805E-18         0.00000E+00
    0.25864E-11        -0.55252E-18         0.00000E+00
    0.25864E-11        -0.54549E-18         0.00000E+00
    0.25864E-11        -0.49942E-18         0.00000E+00
    0.25864E-11        -0.41968E-18         0.00000E+00
    0.25864E-11        -0.30931E-18         0.00000E+00
    0.25864E-11        -0.18190E-18         0.00000E+00
    0.25864E-11        -0.62975E-19         0.00000E+00
    0.25864E-11         0.21807E-19         0.00000E+00
    0.25864E-11         0.45077E-19         0.00000E+00
    0.25864E-11         0.38448E-19         0.00000E+00
    0.27182E-11         0.12732E-19         0.00000E+00
    0.27182E-11         0.20550E-19         0.00000E+00
    0.27182E-11         0.26516E-19         0.00000E+00
    0.27182E-11         0.15578E-19         0.00000E+00
    0.27182E-11        -0.91834E-20         0.00000E+00
    0.27182E-11        -0.42356E-19         0.00000E+00
    0.27182E-11        -0.72186E-19         0.00000E+00
    0.27182E-11        -0.95125E-19         0.00000E+00
    0.27182E-11        -0.10341E-18         0.00000E+00
    0.27182E-11        -0.89159E-19         0.00000E+00
    0.27182E-11        -0.57672E-19         0.00000E+00
    0.27182E-11        -0.79547E-20         0.00000E+00
    0.27182E-11         0.45408E-19         0.00000E+00
    0.27182E-11         0.81536E-19         0.00000E+00
    0.27182E-11         0.69866E-19         0.00000E+00
    0.27182E-11         0.45602E-19         0.00000E+00
    0.28426E-11         0.11150E-18         0.00000E+00
    0.28426E-11         0.21451E-18         0.00000E+00
    0.28426E-11         0.39243E-18         0.00000E+00
    0.28426E-11         0.51566E-18         0.00000E+00
    0.28426E-11         0.58169E-18         0.00000E+00
    0.28426E-11         0.59385E-18         0.00000E+00
    0.28426E-11         0.56538E-18         0.00000E+00
    0.28426E-11         0.50380E-18         0.00000E+00
    0.28426E-11         0.41968E-18         0.00000E+00
    0.28426E-11         0.32979E-18         0.00000E+00
    0.28426E-11         0.25024E-18         0.00000E+00
    0.28426E-11         0.19091E-18         0.00000E+00
    0.28426E-11         0.15346E-18         0.00000E+00
    0.28426E-11         0.12711E-18         0.00000E+00
    0.28426E-11         0.81135E-19         0.00000E+00
    0.28426E-11         0.48254E-19         0.00000E+00
    0.29592E-11         0.23878E-18         0.00000E+00
    0.29592E-11         0.45872E-18         0.00000E+00
    0.29592E-11         0.85148E-18         0.00000E+00
    0.29592E-11         0.11440E-17         0.00000E+00
    0.29592E-11         0.13284E-17         0.00000E+00
    0.29592E-11         0.14037E-17         0.00000E+00
    0.29592E-11         0.13735E-17         0.00000E+00
    0.29592E-11         0.12542E-17         0.00000E+00
    0.29592E-11         0.10649E-17         0.00000E+00
    0.29592E-11         0.83690E-18         0.00000E+00
    0.29592E-11         0.60555E-18         0.00000E+00
    0.29592E-11         0.39873E-18         0.00000E+00
    0.29592E-11         0.24056E-18         0.00000E+00
    0.29592E-11         0.13838E-18         0.00000E+00
    0.29592E-11         0.68346E-19         0.00000E+00
    0.29592E-11         0.35796E-19         0.00000E+00
    0.30676E-11         0.39044E-18         0.00000E+00
    0.30676E-11         0.75245E-18         0.00000E+00
    0.30676E-11         0.14046E-17         0.00000E+00
    0.30676E-11         0.19038E-17         0.00000E+00
    0.30676E-11         0.22329E-17         0.00000E+00
    0.30676E-11         0.23824E-17         0.00000E+00
    0.30676E-11         0.23519E-17         0.00000E+00
    0.30676E-11         0.21551E-17         0.00000E+00
    0.30676E-11         0.18269E-17         0.00000E+00
    0.30676E-11         0.14153E-17         0.00000E+00
    0.30676E-11         0.98373E-18         0.00000E+00
    0.30676E-11         0.59229E-18         0.00000E+00
    0.30676E-11         0.29035E-18         0.00000E+00
    0.30676E-11         0.10348E-18         0.00000E+00
    0.30676E-11         0.21212E-19         0.00000E+00
    0.30676E-11         0.38400E-20         0.00000E+00
    0.31677E-11         0.56412E-18         0.00000E+00
    0.31677E-11         0.10887E-17         0.00000E+00
    0.31677E-11         0.20397E-17         0.00000E+00
    0.31677E-11         0.27790E-17         0.00000E+00
    0.31677E-11         0.32786E-17         0.00000E+00
    0.31677E-11         0.35162E-17         0.00000E+00
    0.31677E-11         0.34812E-17         0.00000E+00
    0.31677E-11         0.31885E-17         0.00000E+00
    0.31677E-11         0.26827E-17         0.00000E+00
    0.31677E-11         0.20414E-17         0.00000E+00
    0.31677E-11         0.13636E-17         0.00000E+00
    0.31677E-11         0.74674E-18         0.00000E+00
    0.31677E-11         0.27477E-18         0.00000E+00
    0.31677E-11         0.19887E-20         0.00000E+00
    0.31677E-11        -0.68609E-19         0.00000E+00
    0.31677E-11        -0.56346E-19         0.00000E+00
    0.32591E-11         0.75622E-18         0.00000E+00
    0.32591E-11         0.14566E-17         0.00000E+00
    0.32591E-11         0.27355E-17         0.00000E+00
    0.32591E-11         0.37438E-17         0.00000E+00
    0.32591E-11         0.44307E-17         0.00000E+00
    0.32591E-11         0.47608E-17         0.00000E+00
    0.32591E-11         0.47138E-17         0.00000E+00
    0.32591E-11         0.43031E-17         0.00000E+00
    0.32591E-11         0.35902E-17         0.00000E+00
    0.32591E-11         0.26817E-17         0.00000E+00
    0.32591E-11         0.17175E-17         0.00000E+00
    0.32591E-11         0.84087E-18         0.00000E+00
    0.32591E-11         0.17964E-18         0.00000E+00
    0.32591E-11        -0.18090E-18         0.00000E+00
    0.32591E-11        -0.20947E-18         0.00000E+00
    0.32591E-11        -0.14001E-18         0.00000E+00
    0.33415E-11         0.95654E-18         0.00000E+00
    0.33415E-11         0.18428E-17         0.00000E+00
    0.33415E-11         0.34672E-17         0.00000E+00
    0.33415E-11         0.47532E-17         0.00000E+00
    0.33415E-11         0.56299E-17         0.00000E+00
    0.33415E-11         0.60445E-17         0.00000E+00
    0.33415E-11         0.59690E-17         0.00000E+00
    0.33415E-11         0.54198E-17         0.00000E+00
    0.33415E-11         0.44818E-17         0.00000E+00
    0.33415E-11         0.32926E-17         0.00000E+00
    0.33415E-11         0.20251E-17         0.00000E+00
    0.33415E-11         0.86987E-18         0.00000E+00
    0.33415E-11         0.10630E-20         0.00000E+00
    0.33415E-11        -0.44612E-18         0.00000E+00
    0.33415E-11        -0.40801E-18         0.00000E+00
    0.33415E-11        -0.26449E-18         0.00000E+00
    0.34148E-11         0.11573E-17         0.00000E+00
    0.34148E-11         0.22343E-17         0.00000E+00
    0.34148E-11         0.41994E-17         0.00000E+00
    0.34148E-11         0.57469E-17         0.00000E+00
    0.34148E-11         0.67870E-17         0.00000E+00
    0.34148E-11         0.72510E-17         0.00000E+00
    0.34148E-11         0.71151E-17         0.00000E+00
    0.34148E-11         0.64204E-17         0.00000E+00
    0.34148E-11         0.52741E-17         0.00000E+00
    0.34148E-11         0.38262E-17         0.00000E+00
    0.34148E-11         0.22741E-17         0.00000E+00
    0.34148E-11         0.84163E-18         0.00000E+00
    0.34148E-11        -0.24354E-18         0.00000E+00
    0.34148E-11        -0.78393E-18         0.00000E+00
    0.34148E-11        -0.65834E-18         0.00000E+00
    0.34148E-11        -0.42033E-18         0.00000E+00
    0.34787E-11         0.13583E-17         0.00000E+00
    0.34787E-11         0.26128E-17         0.00000E+00
    0.34787E-11         0.48918E-17         0.00000E+00
    0.34787E-11         0.66477E-17         0.00000E+00
    0.34787E-11         0.77761E-17         0.00000E+00
    0.34787E-11         0.82168E-17         0.00000E+00
    0.34787E-11         0.79805E-17         0.00000E+00
    0.34787E-11         0.71515E-17         0.00000E+00
    0.34787E-11         0.58552E-17         0.00000E+00
    0.34787E-11         0.42352E-17         0.00000E+00
    0.34787E-11         0.24678E-17         0.00000E+00
    0.34787E-11         0.79447E-18         0.00000E+00
    0.34787E-11        -0.51009E-18         0.00000E+00
    0.34787E-11        -0.11647E-17         0.00000E+00
    0.34787E-11        -0.94719E-18         0.00000E+00
    0.34787E-11        -0.60044E-18         0.00000E+00
    0.35331E-11         0.15372E-17         0.00000E+00
    0.35331E-11         0.29485E-17         0.00000E+00
    0.35331E-11         0.54754E-17         0.00000E+00
    0.35331E-11         0.73369E-17         0.00000E+00
    0.35331E-11         0.84275E-17         0.00000E+00
    0.35331E-11         0.87417E-17         0.00000E+00
    0.35331E-11         0.83700E-17         0.00000E+00
    0.35331E-11         0.74535E-17         0.00000E+00
    0.35331E-11         0.61145E-17         0.00000E+00
    0.35331E-11         0.44582E-17         0.00000E+00
    0.35331E-11         0.26167E-17         0.00000E+00
    0.35331E-11         0.78436E-18         0.00000E+00
    0.35331E-11        -0.73348E-18         0.00000E+00
    0.35331E-11        -0.15375E-17         0.00000E+00
    0.35331E-11        -0.12531E-17         0.00000E+00
    0.35331E-11        -0.79864E-18         0.00000E+00
    0.35778E-11         0.16884E-17         0.00000E+00
    0.35778E-11         0.32057E-17         0.00000E+00
    0.35778E-11         0.58493E-17         0.00000E+00
    0.35778E-11         0.76348E-17         0.00000E+00
    0.35778E-11         0.85098E-17         0.00000E+00
    0.35778E-11         0.86042E-17         0.00000E+00
    0.35778E-11         0.81157E-17         0.00000E+00
    0.35778E-11         0.71964E-17         0.00000E+00
    0.35778E-11         0.59497E-17         0.00000E+00
    0.35778E-11         0.44297E-17         0.00000E+00
    0.35778E-11         0.26890E-17         0.00000E+00
    0.35778E-11         0.84683E-18         0.00000E+00
    0.35778E-11        -0.81700E-18         0.00000E+00
    0.35778E-11        -0.18123E-17         0.00000E+00
    0.35778E-11        -0.15342E-17         0.00000E+00
    0.35778E-11        -0.99830E-18         0.00000E+00
    0.36127E-11         0.17752E-17         0.00000E+00
    0.36127E-11         0.33122E-17         0.00000E+00
    0.36127E-11         0.58385E-17         0.00000E+00
    0.36127E-11         0.72682E-17         0.00000E+00
    0.36127E-11         0.77666E-17         0.00000E+00
    0.36127E-11         0.76451E-17         0.00000E+00
    0.36127E-11         0.71226E-17         0.00000E+00
    0.36127E-11         0.63169E-17         0.00000E+00
    0.36127E-11         0.52838E-17         0.00000E+00
    0.36127E-11         0.40427E-17         0.00000E+00
    0.36127E-11         0.26038E-17         0.00000E+00
    0.36127E-11         0.98139E-18         0.00000E+00
    0.36127E-11        -0.67763E-18         0.00000E+00
    0.36127E-11        -0.18751E-17         0.00000E+00
    0.36127E-11        -0.17176E-17         0.00000E+00
    0.36127E-11        -0.11680E-17         0.00000E+00
    0.36377E-11         0.17626E-17         0.00000E+00
    0.36377E-11         0.31106E-17         0.00000E+00
    0.36377E-11         0.50930E-17         0.00000E+00
    0.36377E-11         0.59109E-17         0.00000E+00
    0.36377E-11         0.60481E-17         0.00000E+00
    0.36377E-11         0.58281E-17         0.00000E+00
    0.36377E-11         0.53922E-17         0.00000E+00
    0.36377E-11         0.47969E-17         0.00000E+00
    0.36377E-11         0.40694E-17         0.00000E+00
    0.36377E-11         0.32149E-17         0.00000E+00
    0.36377E-11         0.22180E-17         0.00000E+00
    0.36377E-11         0.10527E-17         0.00000E+00
    0.36377E-11        -0.31354E-18         0.00000E+00
    0.36377E-11        -0.15889E-17         0.00000E+00
    0.36377E-11        -0.16681E-17         0.00000E+00
    0.36377E-11        -0.12097E-17         0.00000E+00
    0.36527E-11         0.12741E-17         0.00000E+00
    0.36527E-11         0.21043E-17         0.00000E+00
    0.36527E-11         0.31659E-17         0.00000E+00
    0.36527E-11         0.34264E-17         0.00000E+00
    0.36527E-11         0.34009E-17         0.00000E+00
    0.36527E-11         0.32375E-17         0.00000E+00
    0.36527E-11         0.29829E-17         0.00000E+00
    0.36527E-11         0.26664E-17         0.00000E+00
    0.36527E-11         0.22982E-17         0.00000E+00
    0.36527E-11         0.18749E-17         0.00000E+00
    0.36527E-11         0.13864E-17         0.00000E+00
    0.36527E-11         0.80337E-18         0.00000E+00
    0.36527E-11         0.91476E-19         0.00000E+00
    0.36527E-11        -0.89853E-18         0.00000E+00
    0.36527E-11        -0.13132E-17         0.00000E+00
    0.36527E-11        -0.11295E-17         0.00000E+00
    0.36578E-11         0.00000E+00         0.00000E+00
    0.36578E-11         0.00000E+00         0.00000E+00
    0.36578E-11         0.00000E+00         0.00000E+00
    0.36577E-11         0.00000E+00         0.00000E+00
    0.36577E-11         0.33144E-21         0.00000E+00
    0.36577E-11         0.00000E+00         0.00000E+00
    0.36577E-11         0.00000E+00         0.00000E+00
    0.36577E-11         0.00000E+00         0.00000E+00
    0.36577E-11         0.00000E+00         0.00000E+00
    0.36577E-11         0.00000E+00         0.00000E+00
    0.36577E-11         0.33144E-21         0.00000E+00
    0.36577E-11        -0.33144E-21         0.00000E+00
    0.36577E-11        -0.33144E-21         0.00000E+00
    0.36577E-11         0.33144E-21         0.00000E+00
    0.36577E-11         0.66287E-21         0.00000E+00
    0.36578E-11         0.00000E+00         0.00000E+00
CELL_DATA        450
TENSORS stressef double 
   -0.20302E+08         0.19339E+03         0.00000E+00
    0.19339E+03        -0.50000E+08         0.00000E+00
    0.00000E+00         0.00000E+00        -0.19935E+08
 
   -0.20270E+08         0.55122E+03         0.00000E+00
    0.55122E+03        -0.49999E+08         0.00000E+00
    0.00000E+00         0.00000E+00        -0.19966E+08
 
   -0.20240E+08         0.87218E+03         0.00000E+00
    0.87218E+03        -0.49997E+08         0.00000E+00
    0.00000E+00         0.00000E+00        -0.19993E+08
 
   -0.20213E+08         0.11587E+04         0.00000E+00
    0.11587E+04        -0.49995E+08         0.00000E+00
    0.00000E+00         0.00000E+00        -0.20017E+08
 
   -0.20189E+08         0.14131E+04         0.00000E+00
    0.14131E+04        -0.49993E+08         0.00000E+00
    0.00000E+00         0.00000E+00        -0.20037E+08
 
   -0.20167E+08         0.16381E+04         0.00000E+00
    0.16381E+04        -0.49990E+08         0.00000E+00
    0.00000E+00         0.00000E+00        -0.20055E+08
 
   -0.20148E+08         0.18362E+04         0.00000E+00
    0.18362E+04        -0.49986E+08         0.00000E+00
    0.00000E+00         0.00000E+00        -0.20069E+08
 
   -0.20132E+08         0.20092E+04         0.00000E+00
    0.20092E+04        -0.49982E+08         0.00000E+00
    0.00000E+00         0.00000E+00        -0.20080E+08
 
   -0.20117E+08         0.21591E+04         0.00000E+00
    0.21591E+04        -0.49978E+08         0.00000E+00
    0.00000E+00         0.00000E+00        -0.20089E+08
 
   -0.20106E+08         0.22883E+04         0.00000E+00
    0.22883E+04        -0.49974E+08         0.00000E+00
    0.00000E+00         0.00000E+00        -0.20095E+08
 
   -0.20096E+08         0.23990E+04         0.00000E+00
    0.23990E+04        -0.49969E+08         0.00000E+00
    0.00000E+00         0.00000E+00        -0.20098E+08
 
   -0.20089E+08         0.24933E+04         0.00000E+00
    0.24933E+04        -0.49964E+08         0.00000E+00
    0.00000E+00         0.00000E+00        -0.20099E+08
 
   -0.20085E+08         0.25732E+04         0.00000E+00
    0.25732E+04        -0.49959E+08         0.00000E+00
    0.00000E+00         0.00000E+00        -0.20097E+08
 
   -0.20082E+08         0.26409E+04         0.00000E+00
    0.26409E+04        -0.49954E+08         0.00000E+00
    0.00000E+00         0.00000E+00        -0.20093E+08
 
   -0.20082E+08         0.26982E+04         0.00000E+00
    0.26982E+04        -0.49949E+08         0.00000E+00
    0.00000E+00         0.00000E+00        -0.20086E+08
 
   -0.20301E+08         0.58438E+03         0.00000E+00
    0.58438E+03        -0.49999E+08         0.00000E+00
    0.00000E+00         0.00000E+00        -0.19936E+08
 
   -0.20269E+08         0.16644E+04         0.00000E+00
    0.16644E+04        -0.49999E+08         0.00000E+00
    0.00000E+00         0.00000E+00        -0.19967E+08
 
   -0.20240E+08         0.26317E+04         0.00000E+00
    0.26317E+04        -0.49997E+08         0.00000E+00
    0.00000E+00         0.00000E+00        -0.19993E+08
 
   -0.20213E+08         0.34936E+04         0.00000E+00
    0.34936E+04        -0.49995E+08         0.00000E+00
    0.00000E+00         0.00000E+00        -0.20017E+08
 
   -0.20189E+08         0.42577E+04         0.00000E+00
    0.42577E+04        -0.49993E+08         0.00000E+00
    0.00000E+00         0.00000E+00        -0.20037E+08
 
   -0.20167E+08         0.49317E+04         0.00000E+00
    0.49317E+04        -0.49990E+08         0.00000E+00
    0.00000E+00         0.00000E+00        -0.20055E+08
 
   -0.20148E+08         0.55240E+04         0.00000E+00
    0.55240E+04        -0.49986E+08         0.00000E+00
    0.00000E+00         0.00000E+00        -0.20069E+08
 
   -0.20131E+08         0.60398E+04         0.00000E+00
    0.60398E+04        -0.49982E+08         0.00000E+00
    0.00000E+00         0.00000E+00        -0.20081E+08
 
   -0.20117E+08         0.64859E+04         0.00000E+00
    0.64859E+04        -0.49978E+08         0.00000E+00
    0.00000E+00         0.00000E+00        -0.20089E+08
 
   -0.20106E+08         0.68694E+04         0.00000E+00
    0.68694E+04        -0.49973E+08         0.00000E+00
    0.00000E+00         0.00000E+00        -0.20095E+08
 
   -0.20096E+08         0.71968E+04         0.00000E+00
    0.71968E+04        -0.49969E+08         0.00000E+00
    0.00000E+00         0.00000E+00        -0.20098E+08
 
   -0.20089E+08         0.74749E+04         0.00000E+00
    0.74749E+04        -0.49964E+08         0.00000E+00
    0.00000E+00         0.00000E+00        -0.20099E+08
 
   -0.20084E+08         0.77099E+04         0.00000E+00
    0.77099E+04        -0.49959E+08         0.00000E+00
    0.00000E+00         0.00000E+00        -0.20097E+08
 
   -0.20082E+08         0.79082E+04         0.00000E+00
    0.79082E+04        -0.49954E+08         0.00000E+00
    0.00000E+00         0.00000E+00        -0.20093E+08
 
   -0.20082E+08         0.80758E+04         0.00000E+00
    0.80758E+04        -0.49948E+08         0.00000E+00
    0.00000E+00         0.00000E+00        -0.20086E+08
 
   -0.20300E+08         0.98794E+03         0.00000E+00
    0.98794E+03        -0.49999E+08         0.00000E+00
    0.00000E+00         0.00000E+00        -0.19938E+08
 
   -0.20268E+08         0.28096E+04         0.00000E+00
    0.28096E+04        -0.49999E+08         0.00000E+00
    0.00000E+00         0.00000E+00        -0.19968E+08
 
   -0.20238E+08         0.44363E+04         0.00000E+00
    0.44363E+04        -0.49997E+08         0.00000E+00
    0.00000E+00         0.00000E+00        -0.19994E+08
 
   -0.20212E+08         0.58809E+04         0.00000E+00
    0.58809E+04        -0.49995E+08         0.00000E+00
    0.00000E+00         0.00000E+00        -0.20018E+08
 
   -0.20188E+08         0.71568E+04         0.00000E+00
    0.71568E+04        -0.49992E+08         0.00000E+00
    0.00000E+00         0.00000E+00        -0.20038E+08
 
   -0.20166E+08         0.82773E+04         0.00000E+00
    0.82773E+04        -0.49989E+08         0.00000E+00
    0.00000E+00         0.00000E+00        -0.20055E+08
 
   -0.20147E+08         0.92571E+04         0.00000E+00
    0.92571E+04        -0.49986E+08         0.00000E+00
    0.00000E+00         0.00000E+00        -0.20069E+08
 
   -0.20131E+08         0.10107E+05         0.00000E+00
    0.10107E+05        -0.49982E+08         0.00000E+00
    0.00000E+00         0.00000E+00        -0.20081E+08
 
   -0.20117E+08         0.10838E+05         0.00000E+00
    0.10838E+05        -0.49977E+08         0.00000E+00
    0.00000E+00         0.00000E+00        -0.20089E+08
 
   -0.20105E+08         0.11463E+05         0.00000E+00
    0.11463E+05        -0.49973E+08         0.00000E+00
    0.00000E+00         0.00000E+00        -0.20095E+08
 
   -0.20096E+08         0.11994E+05         0.00000E+00
    0.11994E+05        -0.49968E+08         0.00000E+00
    0.00000E+00         0.00000E+00        -0.20098E+08
 
   -0.20089E+08         0.12441E+05         0.00000E+00
    0.12441E+05        -0.49963E+08         0.00000E+00
    0.00000E+00         0.00000E+00        -0.20098E+08
 
   -0.20084E+08         0.12817E+05         0.00000E+00
    0.12817E+05        -0.49958E+08         0.00000E+00
    0.00000E+00         0.00000E+00        -0.20097E+08
 
   -0.20082E+08         0.13132E+05         0.00000E+00
    0.13132E+05        -0.49953E+08         0.00000E+00
    0.00000E+00         0.00000E+00        -0.20092E+08
 
   -0.20081E+08         0.13396E+05         0.00000E+00
    0.13396E+05        -0.49948E+08         0.00000E+00
    0.00000E+00         0.00000E+00        -0.20086E+08
 
   -0.20297E+08         0.14122E+04         0.00000E+00
    0.14122E+04        -0.49999E+08         0.00000E+00
    0.00000E+00         0.00000E+00        -0.19940E+08
 
   -0.20265E+08         0.40076E+04         0.00000E+00
    0.40076E+04        -0.49999E+08         0.00000E+00
    0.00000E+00         0.00000E+00        -0.19970E+08
 
   -0.20236E+08         0.63150E+04         0.00000E+00
    0.63150E+04        -0.49997E+08         0.00000E+00
    0.00000E+00         0.00000E+00        -0.19996E+08
 
   -0.20210E+08         0.83541E+04         0.00000E+00
    0.83541E+04        -0.49995E+08         0.00000E+00
    0.00000E+00         0.00000E+00        -0.20019E+08
 
   -0.20186E+08         0.10145E+05         0.00000E+00
    0.10145E+05        -0.49992E+08         0.00000E+00
    0.00000E+00         0.00000E+00        -0.20039E+08
 
   -0.20165E+08         0.11708E+05         0.00000E+00
    0.11708E+05        -0.49989E+08         0.00000E+00
    0.00000E+00         0.00000E+00        -0.20056E+08
 
   -0.20146E+08         0.13064E+05         0.00000E+00
    0.13064E+05        -0.49985E+08         0.00000E+00
    0.00000E+00         0.00000E+00        -0.20070E+08
 
   -0.20130E+08         0.14233E+05         0.00000E+00
    0.14233E+05        -0.49981E+08         0.00000E+00
    0.00000E+00         0.00000E+00        -0.20081E+08
 
   -0.20116E+08         0.15231E+05         0.00000E+00
    0.15231E+05        -0.49977E+08         0.00000E+00
    0.00000E+00         0.00000E+00        -0.20089E+08
 
   -0.20104E+08         0.16076E+05         0.00000E+00
    0.16076E+05        -0.49972E+08         0.00000E+00
    0.00000E+00         0.00000E+00        -0.20095E+08
 
   -0.20095E+08         0.16787E+05         0.00000E+00
    0.16787E+05        -0.49968E+08         0.00000E+00
    0.00000E+00         0.00000E+00        -0.20098E+08
 
   -0.20088E+08         0.17381E+05         0.00000E+00
    0.17381E+05        -0.49963E+08         0.00000E+00
    0.00000E+00         0.00000E+00        -0.20098E+08
 
   -0.20084E+08         0.17874E+05         0.00000E+00
    0.17874E+05        -0.49958E+08         0.00000E+00
    0.00000E+00         0.00000E+00        -0.20096E+08
 
   -0.20081E+08         0.18282E+05         0.00000E+00
    0.18282E+05        -0.49953E+08         0.00000E+00
    0.00000E+00         0.00000E+00        -0.20092E+08
 
   -0.20081E+08         0.18620E+05         0.00000E+00
    0.18620E+05        -0.49948E+08         0.00000E+00
    0.00000E+00         0.00000E+00        -0.20085E+08
 
   -0.20294E+08         0.18649E+04         0.00000E+00
    0.18649E+04        -0.49999E+08         0.00000E+00
    0.00000E+00         0.00000E+00        -0.19943E+08
 
   -0.20263E+08         0.52778E+04         0.00000E+00
    0.52778E+04        -0.49999E+08         0.00000E+00
    0.00000E+00         0.00000E+00        -0.19972E+08
 
   -0.20234E+08         0.82953E+04         0.00000E+00
    0.82953E+04        -0.49997E+08         0.00000E+00
    0.00000E+00         0.00000E+00        -0.19998E+08
 
   -0.20208E+08         0.10945E+05         0.00000E+00
    0.10945E+05        -0.49995E+08         0.00000E+00
    0.00000E+00         0.00000E+00        -0.20021E+08
 
   -0.20184E+08         0.13254E+05         0.00000E+00
    0.13254E+05        -0.49992E+08         0.00000E+00
    0.00000E+00         0.00000E+00        -0.20040E+08
 
   -0.20163E+08         0.15253E+05         0.00000E+00
    0.15253E+05        -0.49988E+08         0.00000E+00
    0.00000E+00         0.00000E+00        -0.20057E+08
 
   -0.20145E+08         0.16971E+05         0.00000E+00
    0.16971E+05        -0.49984E+08         0.00000E+00
    0.00000E+00         0.00000E+00        -0.20070E+08
 
   -0.20129E+08         0.18438E+05         0.00000E+00
    0.18438E+05        -0.49980E+08         0.00000E+00
    0.00000E+00         0.00000E+00        -0.20081E+08
 
   -0.20115E+08         0.19676E+05         0.00000E+00
    0.19676E+05        -0.49976E+08         0.00000E+00
    0.00000E+00         0.00000E+00        -0.20089E+08
 
   -0.20103E+08         0.20713E+05         0.00000E+00
    0.20713E+05        -0.49971E+08         0.00000E+00
    0.00000E+00         0.00000E+00        -0.20094E+08
 
   -0.20094E+08         0.21573E+05         0.00000E+00
    0.21573E+05        -0.49967E+08         0.00000E+00
    0.00000E+00         0.00000E+00        -0.20097E+08
 
   -0.20088E+08         0.22280E+05         0.00000E+00
    0.22280E+05        -0.49962E+08         0.00000E+00
    0.00000E+00         0.00000E+00        -0.20097E+08
 
   -0.20083E+08         0.22857E+05         0.00000E+00
    0.22857E+05        -0.49957E+08         0.00000E+00
    0.00000E+00         0.00000E+00        -0.20096E+08
 
   -0.20081E+08         0.23325E+05         0.00000E+00
    0.23325E+05        -0.49952E+08         0.00000E+00
    0.00000E+00         0.00000E+00        -0.20091E+08
 
   -0.20081E+08         0.23706E+05         0.00000E+00
    0.23706E+05        -0.49947E+08         0.00000E+00
    0.00000E+00         0.00000E+00        -0.20085E+08
 
   -0.20290E+08         0.23529E+04         0.00000E+00
    0.23529E+04        -0.49999E+08         0.00000E+00
    0.00000E+00         0.00000E+00        -0.19947E+08
 
   -0.20259E+08         0.66382E+04         0.00000E+00
    0.66382E+04        -0.49998E+08         0.00000E+00
    0.00000E+00         0.00000E+00        -0.19976E+08
 
   -0.20231E+08         0.10402E+05         0.00000E+00
    0.10402E+05        -0.49997E+08         0.00000E+00
    0.00000E+00         0.00000E+00        -0.20001E+08
 
   -0.20205E+08         0.13680E+05         0.00000E+00
    0.13680E+05        -0.49994E+08         0.00000E+00
    0.00000E+00         0.00000E+00        -0.20023E+08
 
   -0.20182E+08         0.16513E+05         0.00000E+00
    0.16513E+05        -0.49991E+08         0.00000E+00
    0.00000E+00         0.00000E+00        -0.20042E+08
 
   -0.20161E+08         0.18939E+05         0.00000E+00
    0.18939E+05        -0.49988E+08         0.00000E+00
    0.00000E+00         0.00000E+00        -0.20058E+08
 
   -0.20143E+08         0.21000E+05         0.00000E+00
    0.21000E+05        -0.49984E+08         0.00000E+00
    0.00000E+00         0.00000E+00        -0.20071E+08
 
   -0.20127E+08         0.22737E+05         0.00000E+00
    0.22737E+05        -0.49979E+08         0.00000E+00
    0.00000E+00         0.00000E+00        -0.20081E+08
 
   -0.20114E+08         0.24183E+05         0.00000E+00
    0.24183E+05        -0.49975E+08         0.00000E+00
    0.00000E+00         0.00000E+00        -0.20089E+08
 
   -0.20102E+08         0.25373E+05         0.00000E+00
    0.25373E+05        -0.49970E+08         0.00000E+00
    0.00000E+00         0.00000E+00        -0.20094E+08
 
   -0.20094E+08         0.26342E+05         0.00000E+00
    0.26342E+05        -0.49966E+08         0.00000E+00
    0.00000E+00         0.00000E+00        -0.20097E+08
 
   -0.20087E+08         0.27121E+05         0.00000E+00
    0.27121E+05        -0.49961E+08         0.00000E+00
    0.00000E+00         0.00000E+00        -0.20097E+08
 
   -0.20083E+08         0.27739E+05         0.00000E+00
    0.27739E+05        -0.49956E+08         0.00000E+00
    0.00000E+00         0.00000E+00        -0.20095E+08
 
   -0.20080E+08         0.28226E+05         0.00000E+00
    0.28226E+05        -0.49951E+08         0.00000E+00
    0.00000E+00         0.00000E+00        -0.20091E+08
 
   -0.20080E+08         0.28608E+05         0.00000E+00
    0.28608E+05        -0.49946E+08         0.00000E+00
    0.00000E+00         0.00000E+00        -0.20085E+08
 
   -0.20285E+08         0.28831E+04         0.00000E+00
    0.28831E+04        -0.49999E+08         0.00000E+00
    0.00000E+00         0.00000E+00        -0.19952E+08
 
   -0.20255E+08         0.81041E+04         0.00000E+00
    0.81041E+04        -0.49998E+08         0.00000E+00
    0.00000E+00         0.00000E+00        -0.19980E+08
 
   -0.20227E+08         0.12655E+05         0.00000E+00
    0.12655E+05        -0.49996E+08         0.00000E+00
    0.00000E+00         0.00000E+00        -0.20005E+08
 
   -0.20202E+08         0.16585E+05         0.00000E+00
    0.16585E+05        -0.49994E+08         0.00000E+00
    0.00000E+00         0.00000E+00        -0.20026E+08
 
   -0.20179E+08         0.19944E+05         0.00000E+00
    0.19944E+05        -0.49991E+08         0.00000E+00
    0.00000E+00         0.00000E+00        -0.20044E+08
 
   -0.20159E+08         0.22787E+05         0.00000E+00
    0.22787E+05        -0.49987E+08         0.00000E+00
    0.00000E+00         0.00000E+00        -0.20059E+08
 
   -0.20141E+08         0.25168E+05         0.00000E+00
    0.25168E+05        -0.49983E+08         0.00000E+00
    0.00000E+00         0.00000E+00        -0.20072E+08
 
   -0.20125E+08         0.27142E+05         0.00000E+00
    0.27142E+05        -0.49978E+08         0.00000E+00
    0.00000E+00         0.00000E+00        -0.20082E+08
 
   -0.20112E+08         0.28756E+05         0.00000E+00
    0.28756E+05        -0.49974E+08         0.00000E+00
    0.00000E+00         0.00000E+00        -0.20089E+08
 
   -0.20101E+08         0.30055E+05         0.00000E+00
    0.30055E+05        -0.49969E+08         0.00000E+00
    0.00000E+00         0.00000E+00        -0.20093E+08
 
   -0.20093E+08         0.31084E+05         0.00000E+00
    0.31084E+05        -0.49964E+08         0.00000E+00
    0.00000E+00         0.00000E+00        -0.20096E+08
 
   -0.20086E+08         0.31884E+05         0.00000E+00
    0.31884E+05        -0.49960E+08         0.00000E+00
    0.00000E+00         0.00000E+00        -0.20096E+08
 
   -0.20082E+08         0.32492E+05         0.00000E+00
    0.32492E+05        -0.49955E+08         0.00000E+00
    0.00000E+00         0.00000E+00        -0.20094E+08
 
   -0.20080E+08         0.32945E+05         0.00000E+00
    0.32945E+05        -0.49950E+08         0.00000E+00
    0.00000E+00         0.00000E+00        -0.20090E+08
 
   -0.20080E+08         0.33279E+05         0.00000E+00
    0.33279E+05        -0.49946E+08         0.00000E+00
    0.00000E+00         0.00000E+00        -0.20084E+08
 
   -0.20279E+08         0.34607E+04         0.00000E+00
    0.34607E+04        -0.49999E+08         0.00000E+00
    0.00000E+00         0.00000E+00        -0.19958E+08
 
   -0.20249E+08         0.96882E+04         0.00000E+00
    0.96882E+04        -0.49998E+08         0.00000E+00
    0.00000E+00         0.00000E+00        -0.19985E+08
 
   -0.20222E+08         0.15072E+05         0.00000E+00
    0.15072E+05        -0.49996E+08         0.00000E+00
    0.00000E+00         0.00000E+00        -0.20009E+08
 
   -0.20198E+08         0.19676E+05         0.00000E+00
    0.19676E+05        -0.49993E+08         0.00000E+00
    0.00000E+00         0.00000E+00        -0.20029E+08
 
   -0.20176E+08         0.23566E+05         0.00000E+00
    0.23566E+05        -0.49990E+08         0.00000E+00
    0.00000E+00         0.00000E+00        -0.20047E+08
 
   -0.20156E+08         0.26813E+05         0.00000E+00
    0.26813E+05        -0.49986E+08         0.00000E+00
    0.00000E+00         0.00000E+00        -0.20061E+08
 
   -0.20139E+08         0.29487E+05         0.00000E+00
    0.29487E+05        -0.49982E+08         0.00000E+00
    0.00000E+00         0.00000E+00        -0.20073E+08
 
   -0.20123E+08         0.31659E+05         0.00000E+00
    0.31659E+05        -0.49977E+08         0.00000E+00
    0.00000E+00         0.00000E+00        -0.20082E+08
 
   -0.20111E+08         0.33395E+05         0.00000E+00
    0.33395E+05        -0.49973E+08         0.00000E+00
    0.00000E+00         0.00000E+00        -0.20089E+08
 
   -0.20100E+08         0.34751E+05         0.00000E+00
    0.34751E+05        -0.49968E+08         0.00000E+00
    0.00000E+00         0.00000E+00        -0.20093E+08
 
   -0.20092E+08         0.35782E+05         0.00000E+00
    0.35782E+05        -0.49963E+08         0.00000E+00
    0.00000E+00         0.00000E+00        -0.20095E+08
 
   -0.20086E+08         0.36542E+05         0.00000E+00
    0.36542E+05        -0.49959E+08         0.00000E+00
    0.00000E+00         0.00000E+00        -0.20095E+08
 
   -0.20082E+08         0.37078E+05         0.00000E+00
    0.37078E+05        -0.49954E+08         0.00000E+00
    0.00000E+00         0.00000E+00        -0.20093E+08
 
   -0.20080E+08         0.37437E+05         0.00000E+00
    0.37437E+05        -0.49950E+08         0.00000E+00
    0.00000E+00         0.00000E+00        -0.20090E+08
 
   -0.20080E+08         0.37664E+05         0.00000E+00
    0.37664E+05        -0.49945E+08         0.00000E+00
    0.00000E+00         0.00000E+00        -0.20084E+08
 
   -0.20272E+08         0.40880E+04         0.00000E+00
    0.40880E+04        -0.49999E+08         0.00000E+00
    0.00000E+00         0.00000E+00        -0.19965E+08
 
   -0.20243E+08         0.11399E+05         0.00000E+00
    0.11399E+05        -0.49998E+08         0.00000E+00
    0.00000E+00         0.00000E+00        -0.19991E+08
 
   -0.20217E+08         0.17662E+05         0.00000E+00
    0.17662E+05        -0.49996E+08         0.00000E+00
    0.00000E+00         0.00000E+00        -0.20014E+08
 
   -0.20193E+08         0.22964E+05         0.00000E+00
    0.22964E+05        -0.49993E+08         0.00000E+00
    0.00000E+00         0.00000E+00        -0.20033E+08
 
   -0.20172E+08         0.27388E+05         0.00000E+00
    0.27388E+05        -0.49989E+08         0.00000E+00
    0.00000E+00         0.00000E+00        -0.20050E+08
 
   -0.20153E+08         0.31024E+05         0.00000E+00
    0.31024E+05        -0.49985E+08         0.00000E+00
    0.00000E+00         0.00000E+00        -0.20063E+08
 
   -0.20136E+08         0.33961E+05         0.00000E+00
    0.33961E+05        -0.49981E+08         0.00000E+00
    0.00000E+00         0.00000E+00        -0.20074E+08
 
   -0.20121E+08         0.36290E+05         0.00000E+00
    0.36290E+05        -0.49976E+08         0.00000E+00
    0.00000E+00         0.00000E+00        -0.20082E+08
 
   -0.20109E+08         0.38094E+05         0.00000E+00
    0.38094E+05        -0.49971E+08         0.00000E+00
    0.00000E+00         0.00000E+00        -0.20089E+08
 
   -0.20099E+08         0.39446E+05         0.00000E+00
    0.39446E+05        -0.49967E+08         0.00000E+00
    0.00000E+00         0.00000E+00        -0.20093E+08
 
   -0.20091E+08         0.40415E+05         0.00000E+00
    0.40415E+05        -0.49962E+08         0.00000E+00
    0.00000E+00         0.00000E+00        -0.20095E+08
 
   -0.20085E+08         0.41066E+05         0.00000E+00
    0.41066E+05        -0.49958E+08         0.00000E+00
    0.00000E+00         0.00000E+00        -0.20094E+08
 
   -0.20081E+08         0.41459E+05         0.00000E+00
    0.41459E+05        -0.49953E+08         0.00000E+00
    0.00000E+00         0.00000E+00        -0.20093E+08
 
   -0.20079E+08         0.41651E+05         0.00000E+00
    0.41651E+05        -0.49949E+08         0.00000E+00
    0.00000E+00         0.00000E+00        -0.20089E+08
 
   -0.20080E+08         0.41702E+05         0.00000E+00
    0.41702E+05        -0.49945E+08         0.00000E+00
    0.00000E+00         0.00000E+00        -0.20084E+08
 
   -0.20263E+08         0.47658E+04         0.00000E+00
    0.47658E+04        -0.49999E+08         0.00000E+00
    0.00000E+00         0.00000E+00        -0.19973E+08
 
   -0.20236E+08         0.13236E+05         0.00000E+00
    0.13236E+05        -0.49998E+08         0.00000E+00
    0.00000E+00         0.00000E+00        -0.19998E+08
 
   -0.20211E+08         0.20430E+05         0.00000E+00
    0.20430E+05        -0.49996E+08         0.00000E+00
    0.00000E+00         0.00000E+00        -0.20020E+08
 
   -0.20188E+08         0.26452E+05         0.00000E+00
    0.26452E+05        -0.49992E+08         0.00000E+00
    0.00000E+00         0.00000E+00        -0.20038E+08
 
   -0.20168E+08         0.31412E+05         0.00000E+00
    0.31412E+05        -0.49989E+08         0.00000E+00
    0.00000E+00         0.00000E+00        -0.20053E+08
 
   -0.20149E+08         0.35420E+05         0.00000E+00
    0.35420E+05        -0.49984E+08         0.00000E+00
    0.00000E+00         0.00000E+00        -0.20065E+08
 
   -0.20133E+08         0.38588E+05         0.00000E+00
    0.38588E+05        -0.49980E+08         0.00000E+00
    0.00000E+00         0.00000E+00        -0.20075E+08
 
   -0.20119E+08         0.41027E+05         0.00000E+00
    0.41027E+05        -0.49975E+08         0.00000E+00
    0.00000E+00         0.00000E+00        -0.20083E+08
 
   -0.20108E+08         0.42841E+05         0.00000E+00
    0.42841E+05        -0.49970E+08         0.00000E+00
    0.00000E+00         0.00000E+00        -0.20089E+08
 
   -0.20098E+08         0.44123E+05         0.00000E+00
    0.44123E+05        -0.49965E+08         0.00000E+00
    0.00000E+00         0.00000E+00        -0.20092E+08
 
   -0.20090E+08         0.44955E+05         0.00000E+00
    0.44955E+05        -0.49961E+08         0.00000E+00
    0.00000E+00         0.00000E+00        -0.20094E+08
 
   -0.20085E+08         0.45418E+05         0.00000E+00
    0.45418E+05        -0.49957E+08         0.00000E+00
    0.00000E+00         0.00000E+00        -0.20094E+08
 
   -0.20081E+08         0.45586E+05         0.00000E+00
    0.45586E+05        -0.49952E+08         0.00000E+00
    0.00000E+00         0.00000E+00        -0.20092E+08
 
   -0.20079E+08         0.45532E+05         0.00000E+00
    0.45532E+05        -0.49949E+08         0.00000E+00
    0.00000E+00         0.00000E+00        -0.20088E+08
 
   -0.20080E+08         0.45327E+05         0.00000E+00
    0.45327E+05        -0.49945E+08         0.00000E+00
    0.00000E+00         0.00000E+00        -0.20083E+08
 
   -0.20253E+08         0.54922E+04         0.00000E+00
    0.54922E+04        -0.49999E+08         0.00000E+00
    0.00000E+00         0.00000E+00        -0.19983E+08
 
   -0.20227E+08         0.15194E+05         0.00000E+00
    0.15194E+05        -0.49998E+08         0.00000E+00
    0.00000E+00         0.00000E+00        -0.20006E+08
 
   -0.20204E+08         0.23366E+05         0.00000E+00
    0.23366E+05        -0.49995E+08         0.00000E+00
    0.00000E+00         0.00000E+00        -0.20026E+08
 
   -0.20182E+08         0.30133E+05         0.00000E+00
    0.30133E+05        -0.49992E+08         0.00000E+00
    0.00000E+00         0.00000E+00        -0.20043E+08
 
   -0.20163E+08         0.35630E+05         0.00000E+00
    0.35630E+05        -0.49988E+08         0.00000E+00
    0.00000E+00         0.00000E+00        -0.20057E+08
 
   -0.20146E+08         0.39994E+05         0.00000E+00
    0.39994E+05        -0.49983E+08         0.00000E+00
    0.00000E+00         0.00000E+00        -0.20068E+08
 
   -0.20130E+08         0.43359E+05         0.00000E+00
    0.43359E+05        -0.49979E+08         0.00000E+00
    0.00000E+00         0.00000E+00        -0.20077E+08
 
   -0.20117E+08         0.45858E+05         0.00000E+00
    0.45858E+05        -0.49974E+08         0.00000E+00
    0.00000E+00         0.00000E+00        -0.20084E+08
 
   -0.20106E+08         0.47619E+05         0.00000E+00
    0.47619E+05        -0.49969E+08         0.00000E+00
    0.00000E+00         0.00000E+00        -0.20089E+08
 
   -0.20097E+08         0.48756E+05         0.00000E+00
    0.48756E+05        -0.49964E+08         0.00000E+00
    0.00000E+00         0.00000E+00        -0.20092E+08
 
   -0.20090E+08         0.49369E+05         0.00000E+00
    0.49369E+05        -0.49960E+08         0.00000E+00
    0.00000E+00         0.00000E+00        -0.20093E+08
 
   -0.20084E+08         0.49555E+05         0.00000E+00
    0.49555E+05        -0.49956E+08         0.00000E+00
    0.00000E+00         0.00000E+00        -0.20093E+08
 
   -0.20081E+08         0.49406E+05         0.00000E+00
    0.49406E+05        -0.49952E+08         0.00000E+00
    0.00000E+00         0.00000E+00        -0.20091E+08
 
   -0.20080E+08         0.49011E+05         0.00000E+00
    0.49011E+05        -0.49949E+08         0.00000E+00
    0.00000E+00         0.00000E+00        -0.20088E+08
 
   -0.20080E+08         0.48462E+05         0.00000E+00
    0.48462E+05        -0.49945E+08         0.00000E+00
    0.00000E+00         0.00000E+00        -0.20084E+08
 
   -0.20242E+08         0.62617E+04         0.00000E+00
    0.62617E+04        -0.49999E+08         0.00000E+00
    0.00000E+00         0.00000E+00        -0.19994E+08
 
   -0.20218E+08         0.17260E+05         0.00000E+00
    0.17260E+05        -0.49998E+08         0.00000E+00
    0.00000E+00         0.00000E+00        -0.20015E+08
 
   -0.20196E+08         0.26452E+05         0.00000E+00
    0.26452E+05        -0.49995E+08         0.00000E+00
    0.00000E+00         0.00000E+00        -0.20034E+08
 
   -0.20176E+08         0.33988E+05         0.00000E+00
    0.33988E+05        -0.49992E+08         0.00000E+00
    0.00000E+00         0.00000E+00        -0.20049E+08
 
   -0.20158E+08         0.40024E+05         0.00000E+00
    0.40024E+05        -0.49987E+08         0.00000E+00
    0.00000E+00         0.00000E+00        -0.20061E+08
 
   -0.20142E+08         0.44726E+05         0.00000E+00
    0.44726E+05        -0.49983E+08         0.00000E+00
    0.00000E+00         0.00000E+00        -0.20071E+08
 
   -0.20127E+08         0.48254E+05         0.00000E+00
    0.48254E+05        -0.49978E+08         0.00000E+00
    0.00000E+00         0.00000E+00        -0.20079E+08
 
   -0.20115E+08         0.50762E+05         0.00000E+00
    0.50762E+05        -0.49973E+08         0.00000E+00
    0.00000E+00         0.00000E+00        -0.20085E+08
 
   -0.20105E+08         0.52403E+05         0.00000E+00
    0.52403E+05        -0.49968E+08         0.00000E+00
    0.00000E+00         0.00000E+00        -0.20089E+08
 
   -0.20096E+08         0.53312E+05         0.00000E+00
    0.53312E+05        -0.49964E+08         0.00000E+00
    0.00000E+00         0.00000E+00        -0.20091E+08
 
   -0.20090E+08         0.53614E+05         0.00000E+00
    0.53614E+05        -0.49959E+08         0.00000E+00
    0.00000E+00         0.00000E+00        -0.20092E+08
 
   -0.20085E+08         0.53424E+05         0.00000E+00
    0.53424E+05        -0.49955E+08         0.00000E+00
    0.00000E+00         0.00000E+00        -0.20092E+08
 
   -0.20082E+08         0.52854E+05         0.00000E+00
    0.52854E+05        -0.49952E+08         0.00000E+00
    0.00000E+00         0.00000E+00        -0.20090E+08
 
   -0.20080E+08         0.52016E+05         0.00000E+00
    0.52016E+05        -0.49949E+08         0.00000E+00
    0.00000E+00         0.00000E+00        -0.20088E+08
 
   -0.20081E+08         0.51023E+05         0.00000E+00
    0.51023E+05        -0.49946E+08         0.00000E+00
    0.00000E+00         0.00000E+00        -0.20084E+08
 
   -0.20229E+08         0.70650E+04         0.00000E+00
    0.70650E+04        -0.49999E+08         0.00000E+00
    0.00000E+00         0.00000E+00        -0.20006E+08
 
   -0.20207E+08         0.19411E+05         0.00000E+00
    0.19411E+05        -0.49998E+08         0.00000E+00
    0.00000E+00         0.00000E+00        -0.20026E+08
 
   -0.20187E+08         0.29661E+05         0.00000E+00
    0.29661E+05        -0.49995E+08         0.00000E+00
    0.00000E+00         0.00000E+00        -0.20042E+08
 
   -0.20169E+08         0.37985E+05         0.00000E+00
    0.37985E+05        -0.49991E+08         0.00000E+00
    0.00000E+00         0.00000E+00        -0.20056E+08
 
   -0.20152E+08         0.44566E+05         0.00000E+00
    0.44566E+05        -0.49987E+08         0.00000E+00
    0.00000E+00         0.00000E+00        -0.20066E+08
 
   -0.20137E+08         0.49590E+05         0.00000E+00
    0.49590E+05        -0.49982E+08         0.00000E+00
    0.00000E+00         0.00000E+00        -0.20075E+08
 
   -0.20124E+08         0.53246E+05         0.00000E+00
    0.53246E+05        -0.49977E+08         0.00000E+00
    0.00000E+00         0.00000E+00        -0.20081E+08
 
   -0.20113E+08         0.55712E+05         0.00000E+00
    0.55712E+05        -0.49972E+08         0.00000E+00
    0.00000E+00         0.00000E+00        -0.20086E+08
 
   -0.20104E+08         0.57158E+05         0.00000E+00
    0.57158E+05        -0.49968E+08         0.00000E+00
    0.00000E+00         0.00000E+00        -0.20089E+08
 
   -0.20096E+08         0.57751E+05         0.00000E+00
    0.57751E+05        -0.49963E+08         0.00000E+00
    0.00000E+00         0.00000E+00        -0.20091E+08
 
   -0.20090E+08         0.57638E+05         0.00000E+00
    0.57638E+05        -0.49959E+08         0.00000E+00
    0.00000E+00         0.00000E+00        -0.20092E+08
 
   -0.20085E+08         0.56961E+05         0.00000E+00
    0.56961E+05        -0.49955E+08         0.00000E+00
    0.00000E+00         0.00000E+00        -0.20091E+08
 
   -0.20083E+08         0.55856E+05         0.00000E+00
    0.55856E+05        -0.49952E+08         0.00000E+00
    0.00000E+00         0.00000E+00        -0.20090E+08
 
   -0.20082E+08         0.54461E+05         0.00000E+00
    0.54461E+05        -0.49950E+08         0.00000E+00
    0.00000E+00         0.00000E+00        -0.20088E+08
 
   -0.20082E+08         0.52915E+05         0.00000E+00
    0.52915E+05        -0.49948E+08         0.00000E+00
    0.00000E+00         0.00000E+00        -0.20085E+08
 
   -0.20215E+08         0.78886E+04         0.00000E+00
    0.78886E+04        -0.49999E+08         0.00000E+00
    0.00000E+00         0.00000E+00        -0.20020E+08
 
   -0.20195E+08         0.21616E+05         0.00000E+00
    0.21616E+05        -0.49998E+08         0.00000E+00
    0.00000E+00         0.00000E+00        -0.20038E+08
 
   -0.20177E+08         0.32950E+05         0.00000E+00
    0.32950E+05        -0.49995E+08         0.00000E+00
    0.00000E+00         0.00000E+00        -0.20052E+08
 
   -0.20161E+08         0.42081E+05         0.00000E+00
    0.42081E+05        -0.49991E+08         0.00000E+00
    0.00000E+00         0.00000E+00        -0.20063E+08
 
   -0.20146E+08         0.49210E+05         0.00000E+00
    0.49210E+05        -0.49987E+08         0.00000E+00
    0.00000E+00         0.00000E+00        -0.20072E+08
 
   -0.20133E+08         0.54546E+05         0.00000E+00
    0.54546E+05        -0.49982E+08         0.00000E+00
    0.00000E+00         0.00000E+00        -0.20079E+08
 
   -0.20121E+08         0.58296E+05         0.00000E+00
    0.58296E+05        -0.49977E+08         0.00000E+00
    0.00000E+00         0.00000E+00        -0.20084E+08
 
   -0.20111E+08         0.60663E+05         0.00000E+00
    0.60663E+05        -0.49972E+08         0.00000E+00
    0.00000E+00         0.00000E+00        -0.20087E+08
 
   -0.20103E+08         0.61841E+05         0.00000E+00
    0.61841E+05        -0.49967E+08         0.00000E+00
    0.00000E+00         0.00000E+00        -0.20090E+08
 
   -0.20096E+08         0.62019E+05         0.00000E+00
    0.62019E+05        -0.49963E+08         0.00000E+00
    0.00000E+00         0.00000E+00        -0.20091E+08
 
   -0.20090E+08         0.61378E+05         0.00000E+00
    0.61378E+05        -0.49959E+08         0.00000E+00
    0.00000E+00         0.00000E+00        -0.20091E+08
 
   -0.20087E+08         0.60092E+05         0.00000E+00
    0.60092E+05        -0.49956E+08         0.00000E+00
    0.00000E+00         0.00000E+00        -0.20091E+08
 
   -0.20084E+08         0.58327E+05         0.00000E+00
    0.58327E+05        -0.49953E+08         0.00000E+00
    0.00000E+00         0.00000E+00        -0.20090E+08
 
   -0.20083E+08         0.56253E+05         0.00000E+00
    0.56253E+05        -0.49951E+08         0.00000E+00
    0.00000E+00         0.00000E+00        -0.20088E+08
 
   -0.20084E+08         0.54038E+05         0.00000E+00
    0.54038E+05        -0.49950E+08         0.00000E+00
    0.00000E+00         0.00000E+00        -0.20086E+08
 
   -0.20199E+08         0.87152E+04         0.00000E+00
    0.87152E+04        -0.49999E+08         0.00000E+00
    0.00000E+00         0.00000E+00        -0.20036E+08
 
   -0.20182E+08         0.23832E+05         0.00000E+00
    0.23832E+05        -0.49998E+08         0.00000E+00
    0.00000E+00         0.00000E+00        -0.20051E+08
 
   -0.20167E+08         0.36265E+05         0.00000E+00
    0.36265E+05        -0.49995E+08         0.00000E+00
    0.00000E+00         0.00000E+00        -0.20063E+08
 
   -0.20152E+08         0.46219E+05         0.00000E+00
    0.46219E+05        -0.49991E+08         0.00000E+00
    0.00000E+00         0.00000E+00        -0.20072E+08
 
   -0.20140E+08         0.53904E+05         0.00000E+00
    0.53904E+05        -0.49987E+08         0.00000E+00
    0.00000E+00         0.00000E+00        -0.20079E+08
 
   -0.20128E+08         0.59542E+05         0.00000E+00
    0.59542E+05        -0.49982E+08         0.00000E+00
    0.00000E+00         0.00000E+00        -0.20084E+08
 
   -0.20118E+08         0.63354E+05         0.00000E+00
    0.63354E+05        -0.49977E+08         0.00000E+00
    0.00000E+00         0.00000E+00        -0.20087E+08
 
   -0.20110E+08         0.65563E+05         0.00000E+00
    0.65563E+05        -0.49972E+08         0.00000E+00
    0.00000E+00         0.00000E+00        -0.20089E+08
 
   -0.20102E+08         0.66390E+05         0.00000E+00
    0.66390E+05        -0.49967E+08         0.00000E+00
    0.00000E+00         0.00000E+00        -0.20090E+08
 
   -0.20096E+08         0.66049E+05         0.00000E+00
    0.66049E+05        -0.49963E+08         0.00000E+00
    0.00000E+00         0.00000E+00        -0.20091E+08
 
   -0.20092E+08         0.64757E+05         0.00000E+00
    0.64757E+05        -0.49960E+08         0.00000E+00
    0.00000E+00         0.00000E+00        -0.20091E+08
 
   -0.20088E+08         0.62727E+05         0.00000E+00
    0.62727E+05        -0.49957E+08         0.00000E+00
    0.00000E+00         0.00000E+00        -0.20091E+08
 
   -0.20087E+08         0.60171E+05         0.00000E+00
    0.60171E+05        -0.49955E+08         0.00000E+00
    0.00000E+00         0.00000E+00        -0.20090E+08
 
   -0.20086E+08         0.57291E+05         0.00000E+00
    0.57291E+05        -0.49954E+08         0.00000E+00
    0.00000E+00         0.00000E+00        -0.20089E+08
 
   -0.20087E+08         0.54287E+05         0.00000E+00
    0.54287E+05        -0.49954E+08         0.00000E+00
    0.00000E+00         0.00000E+00        -0.20088E+08
 
   -0.20182E+08         0.95242E+04         0.00000E+00
    0.95242E+04        -0.49999E+08         0.00000E+00
    0.00000E+00         0.00000E+00        -0.20053E+08
 
   -0.20168E+08         0.26010E+05         0.00000E+00
    0.26010E+05        -0.49998E+08         0.00000E+00
    0.00000E+00         0.00000E+00        -0.20065E+08
 
   -0.20155E+08         0.39544E+05         0.00000E+00
    0.39544E+05        -0.49995E+08         0.00000E+00
    0.00000E+00         0.00000E+00        -0.20074E+08
 
   -0.20143E+08         0.50329E+05         0.00000E+00
    0.50329E+05        -0.49992E+08         0.00000E+00
    0.00000E+00         0.00000E+00        -0.20081E+08
 
   -0.20133E+08         0.58578E+05         0.00000E+00
    0.58578E+05        -0.49987E+08         0.00000E+00
    0.00000E+00         0.00000E+00        -0.20086E+08
 
   -0.20124E+08         0.64510E+05         0.00000E+00
    0.64510E+05        -0.49982E+08         0.00000E+00
    0.00000E+00         0.00000E+00        -0.20089E+08
 
   -0.20115E+08         0.68353E+05         0.00000E+00
    0.68353E+05        -0.49977E+08         0.00000E+00
    0.00000E+00         0.00000E+00        -0.20091E+08
 
   -0.20108E+08         0.70344E+05         0.00000E+00
    0.70344E+05        -0.49973E+08         0.00000E+00
    0.00000E+00         0.00000E+00        -0.20091E+08
 
   -0.20102E+08         0.70726E+05         0.00000E+00
    0.70726E+05        -0.49968E+08         0.00000E+00
    0.00000E+00         0.00000E+00        -0.20091E+08
 
   -0.20097E+08         0.69751E+05         0.00000E+00
    0.69751E+05        -0.49964E+08         0.00000E+00
    0.00000E+00         0.00000E+00        -0.20091E+08
 
   -0.20094E+08         0.67677E+05         0.00000E+00
    0.67677E+05        -0.49961E+08         0.00000E+00
    0.00000E+00         0.00000E+00        -0.20091E+08
 
   -0.20091E+08         0.64769E+05         0.00000E+00
    0.64769E+05        -0.49959E+08         0.00000E+00
    0.00000E+00         0.00000E+00        -0.20091E+08
 
   -0.20090E+08         0.61283E+05         0.00000E+00
    0.61283E+05        -0.49958E+08         0.00000E+00
    0.00000E+00         0.00000E+00        -0.20090E+08
 
   -0.20089E+08         0.57471E+05         0.00000E+00
    0.57471E+05        -0.49958E+08         0.00000E+00
    0.00000E+00         0.00000E+00        -0.20091E+08
 
   -0.20090E+08         0.53562E+05         0.00000E+00
    0.53562E+05        -0.49959E+08         0.00000E+00
    0.00000E+00         0.00000E+00        -0.20091E+08
 
   -0.20163E+08         0.10294E+05         0.00000E+00
    0.10294E+05        -0.49999E+08         0.00000E+00
    0.00000E+00         0.00000E+00        -0.20072E+08
 
   -0.20152E+08         0.28097E+05         0.00000E+00
    0.28097E+05        -0.49998E+08         0.00000E+00
    0.00000E+00         0.00000E+00        -0.20081E+08
 
   -0.20142E+08         0.42713E+05         0.00000E+00
    0.42713E+05        -0.49995E+08         0.00000E+00
    0.00000E+00         0.00000E+00        -0.20087E+08
 
   -0.20133E+08         0.54331E+05         0.00000E+00
    0.54331E+05        -0.49992E+08         0.00000E+00
    0.00000E+00         0.00000E+00        -0.20092E+08
 
   -0.20126E+08         0.63145E+05         0.00000E+00
    0.63145E+05        -0.49988E+08         0.00000E+00
    0.00000E+00         0.00000E+00        -0.20094E+08
 
   -0.20119E+08         0.69362E+05         0.00000E+00
    0.69362E+05        -0.49983E+08         0.00000E+00
    0.00000E+00         0.00000E+00        -0.20095E+08
 
   -0.20113E+08         0.73202E+05         0.00000E+00
    0.73202E+05        -0.49978E+08         0.00000E+00
    0.00000E+00         0.00000E+00        -0.20095E+08
 
   -0.20107E+08         0.74909E+05         0.00000E+00
    0.74909E+05        -0.49974E+08         0.00000E+00
    0.00000E+00         0.00000E+00        -0.20094E+08
 
   -0.20103E+08         0.74749E+05         0.00000E+00
    0.74749E+05        -0.49970E+08         0.00000E+00
    0.00000E+00         0.00000E+00        -0.20093E+08
 
   -0.20099E+08         0.73016E+05         0.00000E+00
    0.73016E+05        -0.49966E+08         0.00000E+00
    0.00000E+00         0.00000E+00        -0.20092E+08
 
   -0.20097E+08         0.70025E+05         0.00000E+00
    0.70025E+05        -0.49964E+08         0.00000E+00
    0.00000E+00         0.00000E+00        -0.20091E+08
 
   -0.20095E+08         0.66097E+05         0.00000E+00
    0.66097E+05        -0.49962E+08         0.00000E+00
    0.00000E+00         0.00000E+00        -0.20091E+08
 
   -0.20094E+08         0.61558E+05         0.00000E+00
    0.61558E+05        -0.49962E+08         0.00000E+00
    0.00000E+00         0.00000E+00        -0.20092E+08
 
   -0.20094E+08         0.56695E+05         0.00000E+00
    0.56695E+05        -0.49963E+08         0.00000E+00
    0.00000E+00         0.00000E+00        -0.20093E+08
 
   -0.20095E+08         0.51777E+05         0.00000E+00
    0.51777E+05        -0.49965E+08         0.00000E+00
    0.00000E+00         0.00000E+00        -0.20094E+08
 
   -0.20143E+08         0.11004E+05         0.00000E+00
    0.11004E+05        -0.50000E+08         0.00000E+00
    0.00000E+00         0.00000E+00        -0.20092E+08
 
   -0.20135E+08         0.30040E+05         0.00000E+00
    0.30040E+05        -0.49998E+08         0.00000E+00
    0.00000E+00         0.00000E+00        -0.20098E+08
 
   -0.20129E+08         0.45695E+05         0.00000E+00
    0.45695E+05        -0.49996E+08         0.00000E+00
    0.00000E+00         0.00000E+00        -0.20101E+08
 
   -0.20123E+08         0.58127E+05         0.00000E+00
    0.58127E+05        -0.49993E+08         0.00000E+00
    0.00000E+00         0.00000E+00        -0.20103E+08
 
   -0.20118E+08         0.67499E+05         0.00000E+00
    0.67499E+05        -0.49989E+08         0.00000E+00
    0.00000E+00         0.00000E+00        -0.20103E+08
 
   -0.20114E+08         0.73984E+05         0.00000E+00
    0.73984E+05        -0.49984E+08         0.00000E+00
    0.00000E+00         0.00000E+00        -0.20101E+08
 
   -0.20110E+08         0.77781E+05         0.00000E+00
    0.77781E+05        -0.49980E+08         0.00000E+00
    0.00000E+00         0.00000E+00        -0.20099E+08
 
   -0.20107E+08         0.79130E+05         0.00000E+00
    0.79130E+05        -0.49976E+08         0.00000E+00
    0.00000E+00         0.00000E+00        -0.20097E+08
 
   -0.20104E+08         0.78324E+05         0.00000E+00
    0.78324E+05        -0.49972E+08         0.00000E+00
    0.00000E+00         0.00000E+00        -0.20095E+08
 
   -0.20102E+08         0.75708E+05         0.00000E+00
    0.75708E+05        -0.49969E+08         0.00000E+00
    0.00000E+00         0.00000E+00        -0.20093E+08
 
   -0.20101E+08         0.71666E+05         0.00000E+00
    0.71666E+05        -0.49967E+08         0.00000E+00
    0.00000E+00         0.00000E+00        -0.20092E+08
 
   -0.20100E+08         0.66598E+05         0.00000E+00
    0.66598E+05        -0.49967E+08         0.00000E+00
    0.00000E+00         0.00000E+00        -0.20092E+08
 
   -0.20099E+08         0.60890E+05         0.00000E+00
    0.60890E+05        -0.49967E+08         0.00000E+00
    0.00000E+00         0.00000E+00        -0.20093E+08
 
   -0.20099E+08         0.54892E+05         0.00000E+00
    0.54892E+05        -0.49969E+08         0.00000E+00
    0.00000E+00         0.00000E+00        -0.20096E+08
 
   -0.20100E+08         0.48875E+05         0.00000E+00
    0.48875E+05        -0.49972E+08         0.00000E+00
    0.00000E+00         0.00000E+00        -0.20099E+08
 
   -0.20122E+08         0.11636E+05         0.00000E+00
    0.11636E+05        -0.50000E+08         0.00000E+00
    0.00000E+00         0.00000E+00        -0.20113E+08
 
   -0.20117E+08         0.31792E+05         0.00000E+00
    0.31792E+05        -0.49998E+08         0.00000E+00
    0.00000E+00         0.00000E+00        -0.20116E+08
 
   -0.20114E+08         0.48412E+05         0.00000E+00
    0.48412E+05        -0.49996E+08         0.00000E+00
    0.00000E+00         0.00000E+00        -0.20116E+08
 
   -0.20112E+08         0.61612E+05         0.00000E+00
    0.61612E+05        -0.49993E+08         0.00000E+00
    0.00000E+00         0.00000E+00        -0.20115E+08
 
   -0.20110E+08         0.71509E+05         0.00000E+00
    0.71509E+05        -0.49990E+08         0.00000E+00
    0.00000E+00         0.00000E+00        -0.20112E+08
 
   -0.20108E+08         0.78226E+05         0.00000E+00
    0.78226E+05        -0.49986E+08         0.00000E+00
    0.00000E+00         0.00000E+00        -0.20109E+08
 
   -0.20108E+08         0.81924E+05         0.00000E+00
    0.81924E+05        -0.49982E+08         0.00000E+00
    0.00000E+00         0.00000E+00        -0.20105E+08
 
   -0.20107E+08         0.82834E+05         0.00000E+00
    0.82834E+05        -0.49978E+08         0.00000E+00
    0.00000E+00         0.00000E+00        -0.20100E+08
 
   -0.20106E+08         0.81276E+05         0.00000E+00
    0.81276E+05        -0.49975E+08         0.00000E+00
    0.00000E+00         0.00000E+00        -0.20097E+08
 
   -0.20106E+08         0.77660E+05         0.00000E+00
    0.77660E+05        -0.49973E+08         0.00000E+00
    0.00000E+00         0.00000E+00        -0.20095E+08
 
   -0.20106E+08         0.72456E+05         0.00000E+00
    0.72456E+05        -0.49972E+08         0.00000E+00
    0.00000E+00         0.00000E+00        -0.20094E+08
 
   -0.20106E+08         0.66152E+05         0.00000E+00
    0.66152E+05        -0.49973E+08         0.00000E+00
    0.00000E+00         0.00000E+00        -0.20094E+08
 
   -0.20106E+08         0.59207E+05         0.00000E+00
    0.59207E+05        -0.49974E+08         0.00000E+00
    0.00000E+00         0.00000E+00        -0.20096E+08
 
   -0.20106E+08         0.52008E+05         0.00000E+00
    0.52008E+05        -0.49977E+08         0.00000E+00
    0.00000E+00         0.00000E+00        -0.20100E+08
 
   -0.20106E+08         0.44838E+05         0.00000E+00
    0.44838E+05        -0.49981E+08         0.00000E+00
    0.00000E+00         0.00000E+00        -0.20104E+08
 
   -0.20099E+08         0.12187E+05         0.00000E+00
    0.12187E+05        -0.50000E+08         0.00000E+00
    0.00000E+00         0.00000E+00        -0.20136E+08
 
   -0.20099E+08         0.33312E+05         0.00000E+00
    0.33312E+05        -0.49999E+08         0.00000E+00
    0.00000E+00         0.00000E+00        -0.20135E+08
 
   -0.20099E+08         0.50785E+05         0.00000E+00
    0.50785E+05        -0.49997E+08         0.00000E+00
    0.00000E+00         0.00000E+00        -0.20133E+08
 
   -0.20100E+08         0.64668E+05         0.00000E+00
    0.64668E+05        -0.49994E+08         0.00000E+00
    0.00000E+00         0.00000E+00        -0.20128E+08
 
   -0.20101E+08         0.75014E+05         0.00000E+00
    0.75014E+05        -0.49991E+08         0.00000E+00
    0.00000E+00         0.00000E+00        -0.20123E+08
 
   -0.20103E+08         0.81888E+05         0.00000E+00
    0.81888E+05        -0.49988E+08         0.00000E+00
    0.00000E+00         0.00000E+00        -0.20117E+08
 
   -0.20105E+08         0.85407E+05         0.00000E+00
    0.85407E+05        -0.49985E+08         0.00000E+00
    0.00000E+00         0.00000E+00        -0.20111E+08
 
   -0.20108E+08         0.85787E+05         0.00000E+00
    0.85787E+05        -0.49982E+08         0.00000E+00
    0.00000E+00         0.00000E+00        -0.20105E+08
 
   -0.20110E+08         0.83383E+05         0.00000E+00
    0.83383E+05        -0.49980E+08         0.00000E+00
    0.00000E+00         0.00000E+00        -0.20100E+08
 
   -0.20111E+08         0.78681E+05         0.00000E+00
    0.78681E+05        -0.49979E+08         0.00000E+00
    0.00000E+00         0.00000E+00        -0.20097E+08
 
   -0.20112E+08         0.72249E+05         0.00000E+00
    0.72249E+05        -0.49979E+08         0.00000E+00
    0.00000E+00         0.00000E+00        -0.20096E+08
 
   -0.20113E+08         0.64668E+05         0.00000E+00
    0.64668E+05        -0.49981E+08         0.00000E+00
    0.00000E+00         0.00000E+00        -0.20097E+08
 
   -0.20113E+08         0.56461E+05         0.00000E+00
    0.56461E+05        -0.49983E+08         0.00000E+00
    0.00000E+00         0.00000E+00        -0.20100E+08
 
   -0.20114E+08         0.48046E+05         0.00000E+00
    0.48046E+05        -0.49987E+08         0.00000E+00
    0.00000E+00         0.00000E+00        -0.20105E+08
 
   -0.20114E+08         0.39707E+05         0.00000E+00
    0.39707E+05        -0.49992E+08         0.00000E+00
    0.00000E+00         0.00000E+00        -0.20111E+08
 
   -0.20076E+08         0.12655E+05         0.00000E+00
    0.12655E+05        -0.50000E+08         0.00000E+00
    0.00000E+00         0.00000E+00        -0.20160E+08
 
   -0.20079E+08         0.34577E+05         0.00000E+00
    0.34577E+05        -0.49999E+08         0.00000E+00
    0.00000E+00         0.00000E+00        -0.20155E+08
 
   -0.20083E+08         0.52743E+05         0.00000E+00
    0.52743E+05        -0.49997E+08         0.00000E+00
    0.00000E+00         0.00000E+00        -0.20149E+08
 
   -0.20087E+08         0.67163E+05         0.00000E+00
    0.67163E+05        -0.49995E+08         0.00000E+00
    0.00000E+00         0.00000E+00        -0.20142E+08
 
   -0.20093E+08         0.77817E+05         0.00000E+00
    0.77817E+05        -0.49993E+08         0.00000E+00
    0.00000E+00         0.00000E+00        -0.20134E+08
 
   -0.20098E+08         0.84712E+05         0.00000E+00
    0.84712E+05        -0.49991E+08         0.00000E+00
    0.00000E+00         0.00000E+00        -0.20126E+08
 
   -0.20104E+08         0.87927E+05         0.00000E+00
    0.87927E+05        -0.49989E+08         0.00000E+00
    0.00000E+00         0.00000E+00        -0.20117E+08
 
   -0.20109E+08         0.87681E+05         0.00000E+00
    0.87681E+05        -0.49987E+08         0.00000E+00
    0.00000E+00         0.00000E+00        -0.20110E+08
 
   -0.20114E+08         0.84373E+05         0.00000E+00
    0.84373E+05        -0.49986E+08         0.00000E+00
    0.00000E+00         0.00000E+00        -0.20104E+08
 
   -0.20117E+08         0.78567E+05         0.00000E+00
    0.78567E+05        -0.49987E+08         0.00000E+00
    0.00000E+00         0.00000E+00        -0.20101E+08
 
   -0.20120E+08         0.70922E+05         0.00000E+00
    0.70922E+05        -0.49988E+08         0.00000E+00
    0.00000E+00         0.00000E+00        -0.20100E+08
 
   -0.20122E+08         0.62097E+05         0.00000E+00
    0.62097E+05        -0.49990E+08         0.00000E+00
    0.00000E+00         0.00000E+00        -0.20101E+08
 
   -0.20122E+08         0.52667E+05         0.00000E+00
    0.52667E+05        -0.49994E+08         0.00000E+00
    0.00000E+00         0.00000E+00        -0.20105E+08
 
   -0.20123E+08         0.43071E+05         0.00000E+00
    0.43071E+05        -0.49999E+08         0.00000E+00
    0.00000E+00         0.00000E+00        -0.20112E+08
 
   -0.20123E+08         0.33583E+05         0.00000E+00
    0.33583E+05        -0.50005E+08         0.00000E+00
    0.00000E+00         0.00000E+00        -0.20119E+08
 
   -0.20052E+08         0.13029E+05         0.00000E+00
    0.13029E+05        -0.50000E+08         0.00000E+00
    0.00000E+00         0.00000E+00        -0.20184E+08
 
   -0.20059E+08         0.35576E+05         0.00000E+00
    0.35576E+05        -0.49999E+08         0.00000E+00
    0.00000E+00         0.00000E+00        -0.20176E+08
 
   -0.20066E+08         0.54232E+05         0.00000E+00
    0.54232E+05        -0.49998E+08         0.00000E+00
    0.00000E+00         0.00000E+00        -0.20167E+08
 
   -0.20075E+08         0.68949E+05         0.00000E+00
    0.68949E+05        -0.49997E+08         0.00000E+00
    0.00000E+00         0.00000E+00        -0.20157E+08
 
   -0.20084E+08         0.79675E+05         0.00000E+00
    0.79675E+05        -0.49995E+08         0.00000E+00
    0.00000E+00         0.00000E+00        -0.20146E+08
 
   -0.20093E+08         0.86358E+05         0.00000E+00
    0.86358E+05        -0.49994E+08         0.00000E+00
    0.00000E+00         0.00000E+00        -0.20135E+08
 
   -0.20102E+08         0.89087E+05         0.00000E+00
    0.89087E+05        -0.49994E+08         0.00000E+00
    0.00000E+00         0.00000E+00        -0.20125E+08
 
   -0.20111E+08         0.88125E+05         0.00000E+00
    0.88125E+05        -0.49994E+08         0.00000E+00
    0.00000E+00         0.00000E+00        -0.20116E+08
 
   -0.20119E+08         0.83933E+05         0.00000E+00
    0.83933E+05        -0.49995E+08         0.00000E+00
    0.00000E+00         0.00000E+00        -0.20110E+08
 
   -0.20125E+08         0.77122E+05         0.00000E+00
    0.77122E+05        -0.49996E+08         0.00000E+00
    0.00000E+00         0.00000E+00        -0.20106E+08
 
   -0.20129E+08         0.68398E+05         0.00000E+00
    0.68398E+05        -0.49999E+08         0.00000E+00
    0.00000E+00         0.00000E+00        -0.20105E+08
 
   -0.20131E+08         0.58459E+05         0.00000E+00
    0.58459E+05        -0.50003E+08         0.00000E+00
    0.00000E+00         0.00000E+00        -0.20108E+08
 
   -0.20133E+08         0.47915E+05         0.00000E+00
    0.47915E+05        -0.50007E+08         0.00000E+00
    0.00000E+00         0.00000E+00        -0.20113E+08
 
   -0.20133E+08         0.37218E+05         0.00000E+00
    0.37218E+05        -0.50013E+08         0.00000E+00
    0.00000E+00         0.00000E+00        -0.20120E+08
 
   -0.20133E+08         0.26635E+05         0.00000E+00
    0.26635E+05        -0.50020E+08         0.00000E+00
    0.00000E+00         0.00000E+00        -0.20128E+08
 
   -0.20027E+08         0.13311E+05         0.00000E+00
    0.13311E+05        -0.50000E+08         0.00000E+00
    0.00000E+00         0.00000E+00        -0.20209E+08
 
   -0.20038E+08         0.36266E+05         0.00000E+00
    0.36266E+05        -0.50000E+08         0.00000E+00
    0.00000E+00         0.00000E+00        -0.20198E+08
 
   -0.20050E+08         0.55170E+05         0.00000E+00
    0.55170E+05        -0.49999E+08         0.00000E+00
    0.00000E+00         0.00000E+00        -0.20185E+08
 
   -0.20062E+08         0.69881E+05         0.00000E+00
    0.69881E+05        -0.49998E+08         0.00000E+00
    0.00000E+00         0.00000E+00        -0.20172E+08
 
   -0.20075E+08         0.80282E+05         0.00000E+00
    0.80282E+05        -0.49998E+08         0.00000E+00
    0.00000E+00         0.00000E+00        -0.20158E+08
 
   -0.20089E+08         0.86396E+05         0.00000E+00
    0.86396E+05        -0.49999E+08         0.00000E+00
    0.00000E+00         0.00000E+00        -0.20145E+08
 
   -0.20102E+08         0.88394E+05         0.00000E+00
    0.88394E+05        -0.50000E+08         0.00000E+00
    0.00000E+00         0.00000E+00        -0.20134E+08
 
   -0.20114E+08         0.86667E+05         0.00000E+00
    0.86667E+05        -0.50002E+08         0.00000E+00
    0.00000E+00         0.00000E+00        -0.20125E+08
 
   -0.20125E+08         0.81734E+05         0.00000E+00
    0.81734E+05        -0.50005E+08         0.00000E+00
    0.00000E+00         0.00000E+00        -0.20118E+08
 
   -0.20133E+08         0.74189E+05         0.00000E+00
    0.74189E+05        -0.50009E+08         0.00000E+00
    0.00000E+00         0.00000E+00        -0.20114E+08
 
   -0.20139E+08         0.64674E+05         0.00000E+00
    0.64674E+05        -0.50013E+08         0.00000E+00
    0.00000E+00         0.00000E+00        -0.20114E+08
 
   -0.20142E+08         0.53863E+05         0.00000E+00
    0.53863E+05        -0.50017E+08         0.00000E+00
    0.00000E+00         0.00000E+00        -0.20116E+08
 
   -0.20144E+08         0.42377E+05         0.00000E+00
    0.42377E+05        -0.50023E+08         0.00000E+00
    0.00000E+00         0.00000E+00        -0.20122E+08
 
   -0.20144E+08         0.30699E+05         0.00000E+00
    0.30699E+05        -0.50029E+08         0.00000E+00
    0.00000E+00         0.00000E+00        -0.20130E+08
 
   -0.20144E+08         0.19106E+05         0.00000E+00
    0.19106E+05        -0.50036E+08         0.00000E+00
    0.00000E+00         0.00000E+00        -0.20139E+08
 
   -0.20002E+08         0.13504E+05         0.00000E+00
    0.13504E+05        -0.50000E+08         0.00000E+00
    0.00000E+00         0.00000E+00        -0.20235E+08
 
   -0.20017E+08         0.36615E+05         0.00000E+00
    0.36615E+05        -0.50000E+08         0.00000E+00
    0.00000E+00         0.00000E+00        -0.20219E+08
 
   -0.20033E+08         0.55424E+05         0.00000E+00
    0.55424E+05        -0.50000E+08         0.00000E+00
    0.00000E+00         0.00000E+00        -0.20203E+08
 
   -0.20050E+08         0.69679E+05         0.00000E+00
    0.69679E+05        -0.50000E+08         0.00000E+00
    0.00000E+00         0.00000E+00        -0.20187E+08
 
   -0.20067E+08         0.79256E+05         0.00000E+00
    0.79256E+05        -0.50002E+08         0.00000E+00
    0.00000E+00         0.00000E+00        -0.20171E+08
 
   -0.20085E+08         0.84307E+05         0.00000E+00
    0.84307E+05        -0.50004E+08         0.00000E+00
    0.00000E+00         0.00000E+00        -0.20157E+08
 
   -0.20102E+08         0.85311E+05         0.00000E+00
    0.85311E+05        -0.50008E+08         0.00000E+00
    0.00000E+00         0.00000E+00        -0.20145E+08
 
   -0.20118E+08         0.82853E+05         0.00000E+00
    0.82853E+05        -0.50013E+08         0.00000E+00
    0.00000E+00         0.00000E+00        -0.20135E+08
 
   -0.20131E+08         0.77483E+05         0.00000E+00
    0.77483E+05        -0.50018E+08         0.00000E+00
    0.00000E+00         0.00000E+00        -0.20129E+08
 
   -0.20142E+08         0.69658E+05         0.00000E+00
    0.69658E+05        -0.50024E+08         0.00000E+00
    0.00000E+00         0.00000E+00        -0.20125E+08
 
   -0.20149E+08         0.59819E+05         0.00000E+00
    0.59819E+05        -0.50029E+08         0.00000E+00
    0.00000E+00         0.00000E+00        -0.20125E+08
 
   -0.20154E+08         0.48502E+05         0.00000E+00
    0.48502E+05        -0.50035E+08         0.00000E+00
    0.00000E+00         0.00000E+00        -0.20127E+08
 
   -0.20156E+08         0.36317E+05         0.00000E+00
    0.36317E+05        -0.50040E+08         0.00000E+00
    0.00000E+00         0.00000E+00        -0.20133E+08
 
   -0.20156E+08         0.23807E+05         0.00000E+00
    0.23807E+05        -0.50047E+08         0.00000E+00
    0.00000E+00         0.00000E+00        -0.20141E+08
 
   -0.20156E+08         0.11303E+05         0.00000E+00
    0.11303E+05        -0.50054E+08         0.00000E+00
    0.00000E+00         0.00000E+00        -0.20151E+08
 
   -0.19977E+08         0.13605E+05         0.00000E+00
    0.13605E+05        -0.50000E+08         0.00000E+00
    0.00000E+00         0.00000E+00        -0.20260E+08
 
   -0.19996E+08         0.36558E+05         0.00000E+00
    0.36558E+05        -0.50000E+08         0.00000E+00
    0.00000E+00         0.00000E+00        -0.20241E+08
 
   -0.20017E+08         0.54780E+05         0.00000E+00
    0.54780E+05        -0.50001E+08         0.00000E+00
    0.00000E+00         0.00000E+00        -0.20221E+08
 
   -0.20038E+08         0.67920E+05         0.00000E+00
    0.67920E+05        -0.50003E+08         0.00000E+00
    0.00000E+00         0.00000E+00        -0.20201E+08
 
   -0.20061E+08         0.75988E+05         0.00000E+00
    0.75988E+05        -0.50006E+08         0.00000E+00
    0.00000E+00         0.00000E+00        -0.20184E+08
 
   -0.20083E+08         0.79524E+05         0.00000E+00
    0.79524E+05        -0.50012E+08         0.00000E+00
    0.00000E+00         0.00000E+00        -0.20169E+08
 
   -0.20103E+08         0.79381E+05         0.00000E+00
    0.79381E+05        -0.50019E+08         0.00000E+00
    0.00000E+00         0.00000E+00        -0.20157E+08
 
   -0.20122E+08         0.76363E+05         0.00000E+00
    0.76363E+05        -0.50027E+08         0.00000E+00
    0.00000E+00         0.00000E+00        -0.20149E+08
 
   -0.20138E+08         0.70976E+05         0.00000E+00
    0.70976E+05        -0.50034E+08         0.00000E+00
    0.00000E+00         0.00000E+00        -0.20143E+08
 
   -0.20150E+08         0.63455E+05         0.00000E+00
    0.63455E+05        -0.50042E+08         0.00000E+00
    0.00000E+00         0.00000E+00        -0.20140E+08
 
   -0.20160E+08         0.53925E+05         0.00000E+00
    0.53925E+05        -0.50048E+08         0.00000E+00
    0.00000E+00         0.00000E+00        -0.20140E+08
 
   -0.20165E+08         0.42629E+05         0.00000E+00
    0.42629E+05        -0.50055E+08         0.00000E+00
    0.00000E+00         0.00000E+00        -0.20142E+08
 
   -0.20168E+08         0.30080E+05         0.00000E+00
    0.30080E+05        -0.50061E+08         0.00000E+00
    0.00000E+00         0.00000E+00        -0.20147E+08
 
   -0.20169E+08         0.16918E+05         0.00000E+00
    0.16918E+05        -0.50067E+08         0.00000E+00
    0.00000E+00         0.00000E+00        -0.20155E+08
 
   -0.20169E+08         0.36126E+04         0.00000E+00
    0.36126E+04        -0.50074E+08         0.00000E+00
    0.00000E+00         0.00000E+00        -0.20164E+08
 
   -0.19952E+08         0.13609E+05         0.00000E+00
    0.13609E+05        -0.50000E+08         0.00000E+00
    0.00000E+00         0.00000E+00        -0.20286E+08
 
   -0.19976E+08         0.35952E+05         0.00000E+00
    0.35952E+05        -0.50001E+08         0.00000E+00
    0.00000E+00         0.00000E+00        -0.20262E+08
 
   -0.20002E+08         0.52823E+05         0.00000E+00
    0.52823E+05        -0.50002E+08         0.00000E+00
    0.00000E+00         0.00000E+00        -0.20238E+08
 
   -0.20029E+08         0.63899E+05         0.00000E+00
    0.63899E+05        -0.50007E+08         0.00000E+00
    0.00000E+00         0.00000E+00        -0.20216E+08
 
   -0.20056E+08         0.69722E+05         0.00000E+00
    0.69722E+05        -0.50013E+08         0.00000E+00
    0.00000E+00         0.00000E+00        -0.20198E+08
 
   -0.20082E+08         0.71497E+05         0.00000E+00
    0.71497E+05        -0.50022E+08         0.00000E+00
    0.00000E+00         0.00000E+00        -0.20184E+08
 
   -0.20105E+08         0.70388E+05         0.00000E+00
    0.70388E+05        -0.50033E+08         0.00000E+00
    0.00000E+00         0.00000E+00        -0.20173E+08
 
   -0.20126E+08         0.67152E+05         0.00000E+00
    0.67152E+05        -0.50043E+08         0.00000E+00
    0.00000E+00         0.00000E+00        -0.20166E+08
 
   -0.20144E+08         0.62168E+05         0.00000E+00
    0.62168E+05        -0.50053E+08         0.00000E+00
    0.00000E+00         0.00000E+00        -0.20162E+08
 
   -0.20158E+08         0.55511E+05         0.00000E+00
    0.55511E+05        -0.50063E+08         0.00000E+00
    0.00000E+00         0.00000E+00        -0.20160E+08
 
   -0.20170E+08         0.47005E+05         0.00000E+00
    0.47005E+05        -0.50071E+08         0.00000E+00
    0.00000E+00         0.00000E+00        -0.20159E+08
 
   -0.20177E+08         0.36469E+05         0.00000E+00
    0.36469E+05        -0.50078E+08         0.00000E+00
    0.00000E+00         0.00000E+00        -0.20160E+08
 
   -0.20181E+08         0.24075E+05         0.00000E+00
    0.24075E+05        -0.50083E+08         0.00000E+00
    0.00000E+00         0.00000E+00        -0.20164E+08
 
   -0.20183E+08         0.10508E+05         0.00000E+00
    0.10508E+05        -0.50089E+08         0.00000E+00
    0.00000E+00         0.00000E+00        -0.20170E+08
 
   -0.20183E+08        -0.34880E+04         0.00000E+00
   -0.34880E+04        -0.50096E+08         0.00000E+00
    0.00000E+00         0.00000E+00        -0.20178E+08
 
   -0.19927E+08         0.13486E+05         0.00000E+00
    0.13486E+05        -0.50000E+08         0.00000E+00
    0.00000E+00         0.00000E+00        -0.20311E+08
 
   -0.19957E+08         0.34453E+05         0.00000E+00
    0.34453E+05        -0.50001E+08         0.00000E+00
    0.00000E+00         0.00000E+00        -0.20282E+08
 
   -0.19989E+08         0.48706E+05         0.00000E+00
    0.48706E+05        -0.50005E+08         0.00000E+00
    0.00000E+00         0.00000E+00        -0.20255E+08
 
   -0.20022E+08         0.56561E+05         0.00000E+00
    0.56561E+05        -0.50013E+08         0.00000E+00
    0.00000E+00         0.00000E+00        -0.20232E+08
 
   -0.20053E+08         0.59758E+05         0.00000E+00
    0.59758E+05        -0.50024E+08         0.00000E+00
    0.00000E+00         0.00000E+00        -0.20214E+08
 
   -0.20082E+08         0.60039E+05         0.00000E+00
    0.60039E+05        -0.50036E+08         0.00000E+00
    0.00000E+00         0.00000E+00        -0.20202E+08
 
   -0.20108E+08         0.58428E+05         0.00000E+00
    0.58428E+05        -0.50049E+08         0.00000E+00
    0.00000E+00         0.00000E+00        -0.20193E+08
 
   -0.20130E+08         0.55426E+05         0.00000E+00
    0.55426E+05        -0.50063E+08         0.00000E+00
    0.00000E+00         0.00000E+00        -0.20188E+08
 
   -0.20149E+08         0.51227E+05         0.00000E+00
    0.51227E+05        -0.50075E+08         0.00000E+00
    0.00000E+00         0.00000E+00        -0.20185E+08
 
   -0.20165E+08         0.45801E+05         0.00000E+00
    0.45801E+05        -0.50086E+08         0.00000E+00
    0.00000E+00         0.00000E+00        -0.20183E+08
 
   -0.20178E+08         0.38906E+05         0.00000E+00
    0.38906E+05        -0.50096E+08         0.00000E+00
    0.00000E+00         0.00000E+00        -0.20183E+08
 
   -0.20188E+08         0.30034E+05         0.00000E+00
    0.30034E+05        -0.50103E+08         0.00000E+00
    0.00000E+00         0.00000E+00        -0.20183E+08
 
   -0.20194E+08         0.18702E+05         0.00000E+00
    0.18702E+05        -0.50109E+08         0.00000E+00
    0.00000E+00         0.00000E+00        -0.20185E+08
 
   -0.20196E+08         0.51924E+04         0.00000E+00
    0.51924E+04        -0.50114E+08         0.00000E+00
    0.00000E+00         0.00000E+00        -0.20189E+08
 
   -0.20197E+08        -0.93803E+04         0.00000E+00
   -0.93803E+04        -0.50118E+08         0.00000E+00
    0.00000E+00         0.00000E+00        -0.20194E+08
 
   -0.19904E+08         0.13127E+05         0.00000E+00
    0.13127E+05        -0.50000E+08         0.00000E+00
    0.00000E+00         0.00000E+00        -0.20335E+08
 
   -0.19941E+08         0.31131E+05         0.00000E+00
    0.31131E+05        -0.50003E+08         0.00000E+00
    0.00000E+00         0.00000E+00        -0.20301E+08
 
   -0.19980E+08         0.40843E+05         0.00000E+00
    0.40843E+05        -0.50011E+08         0.00000E+00
    0.00000E+00         0.00000E+00        -0.20272E+08
 
   -0.20018E+08         0.44857E+05         0.00000E+00
    0.44857E+05        -0.50023E+08         0.00000E+00
    0.00000E+00         0.00000E+00        -0.20249E+08
 
   -0.20052E+08         0.45974E+05         0.00000E+00
    0.45974E+05        -0.50038E+08         0.00000E+00
    0.00000E+00         0.00000E+00        -0.20234E+08
 
   -0.20083E+08         0.45480E+05         0.00000E+00
    0.45480E+05        -0.50054E+08         0.00000E+00
    0.00000E+00         0.00000E+00        -0.20224E+08
 
   -0.20110E+08         0.43925E+05         0.00000E+00
    0.43925E+05        -0.50069E+08         0.00000E+00
    0.00000E+00         0.00000E+00        -0.20217E+08
 
   -0.20133E+08         0.41543E+05         0.00000E+00
    0.41543E+05        -0.50085E+08         0.00000E+00
    0.00000E+00         0.00000E+00        -0.20214E+08
 
   -0.20153E+08         0.38402E+05         0.00000E+00
    0.38402E+05        -0.50099E+08         0.00000E+00
    0.00000E+00         0.00000E+00        -0.20212E+08
 
   -0.20171E+08         0.34437E+05         0.00000E+00
    0.34437E+05        -0.50112E+08         0.00000E+00
    0.00000E+00         0.00000E+00        -0.20212E+08
 
   -0.20185E+08         0.29434E+05         0.00000E+00
    0.29434E+05        -0.50123E+08         0.00000E+00
    0.00000E+00         0.00000E+00        -0.20212E+08
 
   -0.20197E+08         0.22929E+05         0.00000E+00
    0.22929E+05        -0.50132E+08         0.00000E+00
    0.00000E+00         0.00000E+00        -0.20212E+08
 
   -0.20205E+08         0.14031E+05         0.00000E+00
    0.14031E+05        -0.50138E+08         0.00000E+00
    0.00000E+00         0.00000E+00        -0.20211E+08
 
   -0.20210E+08         0.17444E+04         0.00000E+00
    0.17444E+04        -0.50141E+08         0.00000E+00
    0.00000E+00         0.00000E+00        -0.20211E+08
 
   -0.20212E+08        -0.13147E+05         0.00000E+00
   -0.13147E+05        -0.50143E+08         0.00000E+00
    0.00000E+00         0.00000E+00        -0.20212E+08
 
   -0.19883E+08         0.11910E+05         0.00000E+00
    0.11910E+05        -0.50001E+08         0.00000E+00
    0.00000E+00         0.00000E+00        -0.20358E+08
 
   -0.19930E+08         0.23536E+05         0.00000E+00
    0.23536E+05        -0.50008E+08         0.00000E+00
    0.00000E+00         0.00000E+00        -0.20320E+08
 
   -0.19975E+08         0.27511E+05         0.00000E+00
    0.27511E+05        -0.50022E+08         0.00000E+00
    0.00000E+00         0.00000E+00        -0.20291E+08
 
   -0.20016E+08         0.28885E+05         0.00000E+00
    0.28885E+05        -0.50039E+08         0.00000E+00
    0.00000E+00         0.00000E+00        -0.20271E+08
 
   -0.20053E+08         0.29053E+05         0.00000E+00
    0.29053E+05        -0.50057E+08         0.00000E+00
    0.00000E+00         0.00000E+00        -0.20258E+08
 
   -0.20084E+08         0.28490E+05         0.00000E+00
    0.28490E+05        -0.50075E+08         0.00000E+00
    0.00000E+00         0.00000E+00        -0.20250E+08
 
   -0.20112E+08         0.27408E+05         0.00000E+00
    0.27408E+05        -0.50092E+08         0.00000E+00
    0.00000E+00         0.00000E+00        -0.20246E+08
 
   -0.20135E+08         0.25898E+05         0.00000E+00
    0.25898E+05        -0.50109E+08         0.00000E+00
    0.00000E+00         0.00000E+00        -0.20244E+08
 
   -0.20156E+08         0.23976E+05         0.00000E+00
    0.23976E+05        -0.50125E+08         0.00000E+00
    0.00000E+00         0.00000E+00        -0.20244E+08
 
   -0.20174E+08         0.21583E+05         0.00000E+00
    0.21583E+05        -0.50139E+08         0.00000E+00
    0.00000E+00         0.00000E+00        -0.20245E+08
 
   -0.20190E+08         0.18576E+05         0.00000E+00
    0.18576E+05        -0.50152E+08         0.00000E+00
    0.00000E+00         0.00000E+00        -0.20245E+08
 
   -0.20203E+08         0.14664E+05         0.00000E+00
    0.14664E+05        -0.50162E+08         0.00000E+00
    0.00000E+00         0.00000E+00        -0.20245E+08
 
   -0.20214E+08         0.92108E+04         0.00000E+00
    0.92108E+04        -0.50169E+08         0.00000E+00
    0.00000E+00         0.00000E+00        -0.20243E+08
 
   -0.20222E+08         0.70615E+03         0.00000E+00
    0.70615E+03        -0.50171E+08         0.00000E+00
    0.00000E+00         0.00000E+00        -0.20238E+08
 
   -0.20227E+08        -0.13304E+05         0.00000E+00
   -0.13304E+05        -0.50171E+08         0.00000E+00
    0.00000E+00         0.00000E+00        -0.20232E+08
 
   -0.19870E+08         0.60884E+04         0.00000E+00
    0.60884E+04        -0.50008E+08         0.00000E+00
    0.00000E+00         0.00000E+00        -0.20381E+08
 
   -0.19925E+08         0.85369E+04         0.00000E+00
    0.85369E+04        -0.50022E+08         0.00000E+00
    0.00000E+00         0.00000E+00        -0.20342E+08
 
   -0.19974E+08         0.96161E+04         0.00000E+00
    0.96161E+04        -0.50040E+08         0.00000E+00
    0.00000E+00         0.00000E+00        -0.20316E+08
 
   -0.20016E+08         0.99789E+04         0.00000E+00
    0.99789E+04        -0.50059E+08         0.00000E+00
    0.00000E+00         0.00000E+00        -0.20299E+08
 
   -0.20053E+08         0.99678E+04         0.00000E+00
    0.99678E+04        -0.50079E+08         0.00000E+00
    0.00000E+00         0.00000E+00        -0.20288E+08
 
   -0.20085E+08         0.97397E+04         0.00000E+00
    0.97397E+04        -0.50099E+08         0.00000E+00
    0.00000E+00         0.00000E+00        -0.20281E+08
 
   -0.20112E+08         0.93557E+04         0.00000E+00
    0.93557E+04        -0.50118E+08         0.00000E+00
    0.00000E+00         0.00000E+00        -0.20279E+08
 
   -0.20137E+08         0.88412E+04         0.00000E+00
    0.88412E+04        -0.50136E+08         0.00000E+00
    0.00000E+00         0.00000E+00        -0.20278E+08
 
   -0.20158E+08         0.81974E+04         0.00000E+00
    0.81974E+04        -0.50153E+08         0.00000E+00
    0.00000E+00         0.00000E+00        -0.20279E+08
 
   -0.20176E+08         0.74027E+04         0.00000E+00
    0.74027E+04        -0.50169E+08         0.00000E+00
    0.00000E+00         0.00000E+00        -0.20281E+08
 
   -0.20192E+08         0.64042E+04         0.00000E+00
    0.64042E+04        -0.50182E+08         0.00000E+00
    0.00000E+00         0.00000E+00        -0.20283E+08
 
   -0.20206E+08         0.50952E+04         0.00000E+00
    0.50952E+04        -0.50194E+08         0.00000E+00
    0.00000E+00         0.00000E+00        -0.20285E+08
 
   -0.20219E+08         0.32827E+04         0.00000E+00
    0.32827E+04        -0.50202E+08         0.00000E+00
    0.00000E+00         0.00000E+00        -0.20283E+08
 
   -0.20230E+08         0.40154E+03         0.00000E+00
    0.40154E+03        -0.50206E+08         0.00000E+00
    0.00000E+00         0.00000E+00        -0.20276E+08
 
   -0.20239E+08        -0.60407E+04         0.00000E+00
   -0.60407E+04        -0.50200E+08         0.00000E+00
    0.00000E+00         0.00000E+00        -0.20259E+08
 
TENSORS stresstot double 
   -0.30302E+08         0.19339E+03         0.00000E+00
    0.19339E+03        -0.60000E+08         0.00000E+00
    0.00000E+00         0.00000E+00        -0.29936E+08
 
   -0.30270E+08         0.55122E+03         0.00000E+00
    0.55122E+03        -0.59999E+08         0.00000E+00
    0.00000E+00         0.00000E+00        -0.29966E+08
 
   -0.30240E+08         0.87218E+03         0.00000E+00
    0.87218E+03        -0.59997E+08         0.00000E+00
    0.00000E+00         0.00000E+00        -0.29993E+08
 
   -0.30213E+08         0.11587E+04         0.00000E+00
    0.11587E+04        -0.59995E+08         0.00000E+00
    0.00000E+00         0.00000E+00        -0.30017E+08
 
   -0.30189E+08         0.14131E+04         0.00000E+00
    0.14131E+04        -0.59993E+08         0.00000E+00
    0.00000E+00         0.00000E+00        -0.30037E+08
 
   -0.30167E+08         0.16381E+04         0.00000E+00
    0.16381E+04        -0.59990E+08         0.00000E+00
    0.00000E+00         0.00000E+00        -0.30055E+08
 
   -0.30148E+08         0.18362E+04         0.00000E+00
    0.18362E+04        -0.59986E+08         0.00000E+00
    0.00000E+00         0.00000E+00        -0.30069E+08
 
   -0.30132E+08         0.20092E+04         0.00000E+00
    0.20092E+04        -0.59982E+08         0.00000E+00
    0.00000E+00         0.00000E+00        -0.30081E+08
 
   -0.30118E+08         0.21591E+04         0.00000E+00
    0.21591E+04        -0.59978E+08         0.00000E+00
    0.00000E+00         0.00000E+00        -0.30089E+08
 
   -0.30106E+08         0.22883E+04         0.00000E+00
    0.22883E+04        -0.59974E+08         0.00000E+00
    0.00000E+00         0.00000E+00        -0.30095E+08
 
   -0.30096E+08         0.23990E+04         0.00000E+00
    0.23990E+04        -0.59969E+08         0.00000E+00
    0.00000E+00         0.00000E+00        -0.30098E+08
 
   -0.30089E+08         0.24933E+04         0.00000E+00
    0.24933E+04        -0.59964E+08         0.00000E+00
    0.00000E+00         0.00000E+00        -0.30099E+08
 
   -0.30085E+08         0.25732E+04         0.00000E+00
    0.25732E+04        -0.59959E+08         0.00000E+00
    0.00000E+00         0.00000E+00        -0.30097E+08
 
   -0.30082E+08         0.26409E+04         0.00000E+00
    0.26409E+04        -0.59954E+08         0.00000E+00
    0.00000E+00         0.00000E+00        -0.30093E+08
 
   -0.30082E+08         0.26982E+04         0.00000E+00
    0.26982E+04        -0.59949E+08         0.00000E+00
    0.00000E+00         0.00000E+00        -0.30086E+08
 
   -0.30301E+08         0.58438E+03         0.00000E+00
    0.58438E+03        -0.60000E+08         0.00000E+00
    0.00000E+00         0.00000E+00        -0.29936E+08
 
   -0.30269E+08         0.16644E+04         0.00000E+00
    0.16644E+04        -0.59999E+08         0.00000E+00
    0.00000E+00         0.00000E+00        -0.29967E+08
 
   -0.30240E+08         0.26317E+04         0.00000E+00
    0.26317E+04        -0.59997E+08         0.00000E+00
    0.00000E+00         0.00000E+00        -0.29994E+08
 
   -0.30213E+08         0.34936E+04         0.00000E+00
    0.34936E+04        -0.59995E+08         0.00000E+00
    0.00000E+00         0.00000E+00        -0.30017E+08
 
   -0.30189E+08         0.42577E+04         0.00000E+00
    0.42577E+04        -0.59993E+08         0.00000E+00
    0.00000E+00         0.00000E+00        -0.30038E+08
 
   -0.30167E+08         0.49317E+04         0.00000E+00
    0.49317E+04        -0.59990E+08         0.00000E+00
    0.00000E+00         0.00000E+00        -0.30055E+08
 
   -0.30148E+08         0.55240E+04         0.00000E+00
    0.55240E+04        -0.59986E+08         0.00000E+00
    0.00000E+00         0.00000E+00        -0.30069E+08
 
   -0.30131E+08         0.60398E+04         0.00000E+00
    0.60398E+04        -0.59982E+08         0.00000E+00
    0.00000E+00         0.00000E+00        -0.30081E+08
 
   -0.30117E+08         0.64859E+04         0.00000E+00
    0.64859E+04        -0.59978E+08         0.00000E+00
    0.00000E+00         0.00000E+00        -0.30089E+08
 
   -0.30106E+08         0.68694E+04         0.00000E+00
    0.68694E+04        -0.59974E+08         0.00000E+00
    0.00000E+00         0.00000E+00        -0.30095E+08
 
   -0.30096E+08         0.71968E+04         0.00000E+00
    0.71968E+04        -0.59969E+08         0.00000E+00
    0.00000E+00         0.00000E+00        -0.30098E+08
 
   -0.30089E+08         0.74749E+04         0.00000E+00
    0.74749E+04        -0.59964E+08         0.00000E+00
    0.00000E+00         0.00000E+00        -0.30099E+08
 
   -0.30084E+08         0.77099E+04         0.00000E+00
    0.77099E+04        -0.59959E+08         0.00000E+00
    0.00000E+00         0.00000E+00        -0.30097E+08
 
   -0.30082E+08         0.79082E+04         0.00000E+00
    0.79082E+04        -0.59954E+08         0.00000E+00
    0.00000E+00         0.00000E+00        -0.30093E+08
 
   -0.30082E+08         0.80758E+04         0.00000E+00
    0.80758E+04        -0.59949E+08         0.00000E+00
    0.00000E+00         0.00000E+00        -0.30086E+08
 
   -0.30300E+08         0.98794E+03         0.00000E+00
    0.98794E+03        -0.60000E+08         0.00000E+00
    0.00000E+00         0.00000E+00        -0.29938E+08
 
   -0.30268E+08         0.28096E+04         0.00000E+00
    0.28096E+04        -0.59999E+08         0.00000E+00
    0.00000E+00         0.00000E+00        -0.29968E+08
 
   -0.30238E+08         0.44363E+04         0.00000E+00
    0.44363E+04        -0.59997E+08         0.00000E+00
    0.00000E+00         0.00000E+00        -0.29995E+08
 
   -0.30212E+08         0.58809E+04         0.00000E+00
    0.58809E+04        -0.59995E+08         0.00000E+00
    0.00000E+00         0.00000E+00        -0.30018E+08
 
   -0.30188E+08         0.71568E+04         0.00000E+00
    0.71568E+04        -0.59992E+08         0.00000E+00
    0.00000E+00         0.00000E+00        -0.30038E+08
 
   -0.30166E+08         0.82773E+04         0.00000E+00
    0.82773E+04        -0.59989E+08         0.00000E+00
    0.00000E+00         0.00000E+00        -0.30055E+08
 
   -0.30147E+08         0.92571E+04         0.00000E+00
    0.92571E+04        -0.59986E+08         0.00000E+00
    0.00000E+00         0.00000E+00        -0.30070E+08
 
   -0.30131E+08         0.10107E+05         0.00000E+00
    0.10107E+05        -0.59982E+08         0.00000E+00
    0.00000E+00         0.00000E+00        -0.30081E+08
 
   -0.30117E+08         0.10838E+05         0.00000E+00
    0.10838E+05        -0.59978E+08         0.00000E+00
    0.00000E+00         0.00000E+00        -0.30089E+08
 
   -0.30105E+08         0.11463E+05         0.00000E+00
    0.11463E+05        -0.59973E+08         0.00000E+00
    0.00000E+00         0.00000E+00        -0.30095E+08
 
   -0.30096E+08         0.11994E+05         0.00000E+00
    0.11994E+05        -0.59968E+08         0.00000E+00
    0.00000E+00         0.00000E+00        -0.30098E+08
 
   -0.30089E+08         0.12441E+05         0.00000E+00
    0.12441E+05        -0.59964E+08         0.00000E+00
    0.00000E+00         0.00000E+00        -0.30099E+08
 
   -0.30084E+08         0.12817E+05         0.00000E+00
    0.12817E+05        -0.59959E+08         0.00000E+00
    0.00000E+00         0.00000E+00        -0.30097E+08
 
   -0.30082E+08         0.13132E+05         0.00000E+00
    0.13132E+05        -0.59953E+08         0.00000E+00
    0.00000E+00         0.00000E+00        -0.30092E+08
 
   -0.30081E+08         0.13396E+05         0.00000E+00
    0.13396E+05        -0.59948E+08         0.00000E+00
    0.00000E+00         0.00000E+00        -0.30086E+08
 
   -0.30297E+08         0.14122E+04         0.00000E+00
    0.14122E+04        -0.60000E+08         0.00000E+00
    0.00000E+00         0.00000E+00        -0.29940E+08
 
   -0.30266E+08         0.40076E+04         0.00000E+00
    0.40076E+04        -0.59999E+08         0.00000E+00
    0.00000E+00         0.00000E+00        -0.29970E+08
 
   -0.30237E+08         0.63150E+04         0.00000E+00
    0.63150E+04        -0.59997E+08         0.00000E+00
    0.00000E+00         0.00000E+00        -0.29996E+08
 
   -0.30210E+08         0.83541E+04         0.00000E+00
    0.83541E+04        -0.59995E+08         0.00000E+00
    0.00000E+00         0.00000E+00        -0.30019E+08
 
   -0.30186E+08         0.10145E+05         0.00000E+00
    0.10145E+05        -0.59992E+08         0.00000E+00
    0.00000E+00         0.00000E+00        -0.30039E+08
 
   -0.30165E+08         0.11708E+05         0.00000E+00
    0.11708E+05        -0.59989E+08         0.00000E+00
    0.00000E+00         0.00000E+00        -0.30056E+08
 
   -0.30146E+08         0.13064E+05         0.00000E+00
    0.13064E+05        -0.59985E+08         0.00000E+00
    0.00000E+00         0.00000E+00        -0.30070E+08
 
   -0.30130E+08         0.14233E+05         0.00000E+00
    0.14233E+05        -0.59981E+08         0.00000E+00
    0.00000E+00         0.00000E+00        -0.30081E+08
 
   -0.30116E+08         0.15231E+05         0.00000E+00
    0.15231E+05        -0.59977E+08         0.00000E+00
    0.00000E+00         0.00000E+00        -0.30089E+08
 
   -0.30104E+08         0.16076E+05         0.00000E+00
    0.16076E+05        -0.59972E+08         0.00000E+00
    0.00000E+00         0.00000E+00        -0.30095E+08
 
   -0.30095E+08         0.16787E+05         0.00000E+00
    0.16787E+05        -0.59968E+08         0.00000E+00
    0.00000E+00         0.00000E+00        -0.30098E+08
 
   -0.30088E+08         0.17381E+05         0.00000E+00
    0.17381E+05        -0.59963E+08         0.00000E+00
    0.00000E+00         0.00000E+00        -0.30098E+08
 
   -0.30084E+08         0.17874E+05         0.00000E+00
    0.17874E+05        -0.59958E+08         0.00000E+00
    0.00000E+00         0.00000E+00        -0.30096E+08
 
   -0.30081E+08         0.18282E+05         0.00000E+00
    0.18282E+05        -0.59953E+08         0.00000E+00
    0.00000E+00         0.00000E+00        -0.30092E+08
 
   -0.30081E+08         0.18620E+05         0.00000E+00
    0.18620E+05        -0.59948E+08         0.00000E+00
    0.00000E+00         0.00000E+00        -0.30085E+08
 
   -0.30294E+08         0.18649E+04         0.00000E+00
    0.18649E+04        -0.60000E+08         0.00000E+00
    0.00000E+00         0.00000E+00        -0.29943E+08
 
   -0.30263E+08         0.52778E+04         0.00000E+00
    0.52778E+04        -0.59999E+08         0.00000E+00
    0.00000E+00         0.00000E+00        -0.29973E+08
 
   -0.30234E+08         0.82953E+04         0.00000E+00
    0.82953E+04        -0.59997E+08         0.00000E+00
    0.00000E+00         0.00000E+00        -0.29998E+08
 
   -0.30208E+08         0.10945E+05         0.00000E+00
    0.10945E+05        -0.59995E+08         0.00000E+00
    0.00000E+00         0.00000E+00        -0.30021E+08
 
   -0.30184E+08         0.13254E+05         0.00000E+00
    0.13254E+05        -0.59992E+08         0.00000E+00
    0.00000E+00         0.00000E+00        -0.30041E+08
 
   -0.30163E+08         0.15253E+05         0.00000E+00
    0.15253E+05        -0.59988E+08         0.00000E+00
    0.00000E+00         0.00000E+00        -0.30057E+08
 
   -0.30145E+08         0.16971E+05         0.00000E+00
    0.16971E+05        -0.59985E+08         0.00000E+00
    0.00000E+00         0.00000E+00        -0.30070E+08
 
   -0.30129E+08         0.18438E+05         0.00000E+00
    0.18438E+05        -0.59980E+08         0.00000E+00
    0.00000E+00         0.00000E+00        -0.30081E+08
 
   -0.30115E+08         0.19676E+05         0.00000E+00
    0.19676E+05        -0.59976E+08         0.00000E+00
    0.00000E+00         0.00000E+00        -0.30089E+08
 
   -0.30104E+08         0.20713E+05         0.00000E+00
    0.20713E+05        -0.59972E+08         0.00000E+00
    0.00000E+00         0.00000E+00        -0.30094E+08
 
   -0.30095E+08         0.21573E+05         0.00000E+00
    0.21573E+05        -0.59967E+08         0.00000E+00
    0.00000E+00         0.00000E+00        -0.30097E+08
 
   -0.30088E+08         0.22280E+05         0.00000E+00
    0.22280E+05        -0.59962E+08         0.00000E+00
    0.00000E+00         0.00000E+00        -0.30098E+08
 
   -0.30083E+08         0.22857E+05         0.00000E+00
    0.22857E+05        -0.59957E+08         0.00000E+00
    0.00000E+00         0.00000E+00        -0.30096E+08
 
   -0.30081E+08         0.23325E+05         0.00000E+00
    0.23325E+05        -0.59952E+08         0.00000E+00
    0.00000E+00         0.00000E+00        -0.30092E+08
 
   -0.30081E+08         0.23706E+05         0.00000E+00
    0.23706E+05        -0.59947E+08         0.00000E+00
    0.00000E+00         0.00000E+00        -0.30085E+08
 
   -0.30290E+08         0.23529E+04         0.00000E+00
    0.23529E+04        -0.60000E+08         0.00000E+00
    0.00000E+00         0.00000E+00        -0.29947E+08
 
   -0.30259E+08         0.66382E+04         0.00000E+00
    0.66382E+04        -0.59999E+08         0.00000E+00
    0.00000E+00         0.00000E+00        -0.29976E+08
 
   -0.30231E+08         0.10402E+05         0.00000E+00
    0.10402E+05        -0.59997E+08         0.00000E+00
    0.00000E+00         0.00000E+00        -0.30001E+08
 
   -0.30205E+08         0.13680E+05         0.00000E+00
    0.13680E+05        -0.59994E+08         0.00000E+00
    0.00000E+00         0.00000E+00        -0.30023E+08
 
   -0.30182E+08         0.16513E+05         0.00000E+00
    0.16513E+05        -0.59991E+08         0.00000E+00
    0.00000E+00         0.00000E+00        -0.30042E+08
 
   -0.30161E+08         0.18939E+05         0.00000E+00
    0.18939E+05        -0.59988E+08         0.00000E+00
    0.00000E+00         0.00000E+00        -0.30058E+08
 
   -0.30143E+08         0.21000E+05         0.00000E+00
    0.21000E+05        -0.59984E+08         0.00000E+00
    0.00000E+00         0.00000E+00        -0.30071E+08
 
   -0.30127E+08         0.22737E+05         0.00000E+00
    0.22737E+05        -0.59980E+08         0.00000E+00
    0.00000E+00         0.00000E+00        -0.30081E+08
 
   -0.30114E+08         0.24183E+05         0.00000E+00
    0.24183E+05        -0.59975E+08         0.00000E+00
    0.00000E+00         0.00000E+00        -0.30089E+08
 
   -0.30103E+08         0.25373E+05         0.00000E+00
    0.25373E+05        -0.59970E+08         0.00000E+00
    0.00000E+00         0.00000E+00        -0.30094E+08
 
   -0.30094E+08         0.26342E+05         0.00000E+00
    0.26342E+05        -0.59966E+08         0.00000E+00
    0.00000E+00         0.00000E+00        -0.30097E+08
 
   -0.30087E+08         0.27121E+05         0.00000E+00
    0.27121E+05        -0.59961E+08         0.00000E+00
    0.00000E+00         0.00000E+00        -0.30097E+08
 
   -0.30083E+08         0.27739E+05         0.00000E+00
    0.27739E+05        -0.59956E+08         0.00000E+00
    0.00000E+00         0.00000E+00        -0.30095E+08
 
   -0.30081E+08         0.28226E+05         0.00000E+00
    0.28226E+05        -0.59951E+08         0.00000E+00
    0.00000E+00         0.00000E+00        -0.30091E+08
 
   -0.30080E+08         0.28608E+05         0.00000E+00
    0.28608E+05        -0.59947E+08         0.00000E+00
    0.00000E+00         0.00000E+00        -0.30085E+08
 
   -0.30285E+08         0.28831E+04         0.00000E+00
    0.28831E+04        -0.60000E+08         0.00000E+00
    0.00000E+00         0.00000E+00        -0.29952E+08
 
   -0.30255E+08         0.81041E+04         0.00000E+00
    0.81041E+04        -0.59998E+08         0.00000E+00
    0.00000E+00         0.00000E+00        -0.29980E+08
 
   -0.30227E+08         0.12655E+05         0.00000E+00
    0.12655E+05        -0.59997E+08         0.00000E+00
    0.00000E+00         0.00000E+00        -0.30005E+08
 
   -0.30202E+08         0.16585E+05         0.00000E+00
    0.16585E+05        -0.59994E+08         0.00000E+00
    0.00000E+00         0.00000E+00        -0.30026E+08
 
   -0.30179E+08         0.19944E+05         0.00000E+00
    0.19944E+05        -0.59991E+08         0.00000E+00
    0.00000E+00         0.00000E+00        -0.30044E+08
 
   -0.30159E+08         0.22787E+05         0.00000E+00
    0.22787E+05        -0.59987E+08         0.00000E+00
    0.00000E+00         0.00000E+00        -0.30060E+08
 
   -0.30141E+08         0.25168E+05         0.00000E+00
    0.25168E+05        -0.59983E+08         0.00000E+00
    0.00000E+00         0.00000E+00        -0.30072E+08
 
   -0.30125E+08         0.27142E+05         0.00000E+00
    0.27142E+05        -0.59978E+08         0.00000E+00
    0.00000E+00         0.00000E+00        -0.30082E+08
 
   -0.30112E+08         0.28756E+05         0.00000E+00
    0.28756E+05        -0.59974E+08         0.00000E+00
    0.00000E+00         0.00000E+00        -0.30089E+08
 
   -0.30101E+08         0.30055E+05         0.00000E+00
    0.30055E+05        -0.59969E+08         0.00000E+00
    0.00000E+00         0.00000E+00        -0.30094E+08
 
   -0.30093E+08         0.31084E+05         0.00000E+00
    0.31084E+05        -0.59965E+08         0.00000E+00
    0.00000E+00         0.00000E+00        -0.30096E+08
 
   -0.30086E+08         0.31884E+05         0.00000E+00
    0.31884E+05        -0.59960E+08         0.00000E+00
    0.00000E+00         0.00000E+00        -0.30096E+08
 
   -0.30082E+08         0.32492E+05         0.00000E+00
    0.32492E+05        -0.59955E+08         0.00000E+00
    0.00000E+00         0.00000E+00        -0.30094E+08
 
   -0.30080E+08         0.32945E+05         0.00000E+00
    0.32945E+05        -0.59951E+08         0.00000E+00
    0.00000E+00         0.00000E+00        -0.30090E+08
 
   -0.30080E+08         0.33279E+05         0.00000E+00
    0.33279E+05        -0.59946E+08         0.00000E+00
    0.00000E+00         0.00000E+00        -0.30084E+08
 
   -0.30279E+08         0.34607E+04         0.00000E+00
    0.34607E+04        -0.60000E+08         0.00000E+00
    0.00000E+00         0.00000E+00        -0.29958E+08
 
   -0.30249E+08         0.96882E+04         0.00000E+00
    0.96882E+04        -0.59998E+08         0.00000E+00
    0.00000E+00         0.00000E+00        -0.29985E+08
 
   -0.30222E+08         0.15072E+05         0.00000E+00
    0.15072E+05        -0.59996E+08         0.00000E+00
    0.00000E+00         0.00000E+00        -0.30009E+08
 
   -0.30198E+08         0.19676E+05         0.00000E+00
    0.19676E+05        -0.59993E+08         0.00000E+00
    0.00000E+00         0.00000E+00        -0.30029E+08
 
   -0.30176E+08         0.23566E+05         0.00000E+00
    0.23566E+05        -0.59990E+08         0.00000E+00
    0.00000E+00         0.00000E+00        -0.30047E+08
 
   -0.30156E+08         0.26813E+05         0.00000E+00
    0.26813E+05        -0.59986E+08         0.00000E+00
    0.00000E+00         0.00000E+00        -0.30061E+08
 
   -0.30139E+08         0.29487E+05         0.00000E+00
    0.29487E+05        -0.59982E+08         0.00000E+00
    0.00000E+00         0.00000E+00        -0.30073E+08
 
   -0.30124E+08         0.31659E+05         0.00000E+00
    0.31659E+05        -0.59977E+08         0.00000E+00
    0.00000E+00         0.00000E+00        -0.30082E+08
 
   -0.30111E+08         0.33395E+05         0.00000E+00
    0.33395E+05        -0.59973E+08         0.00000E+00
    0.00000E+00         0.00000E+00        -0.30089E+08
 
   -0.30100E+08         0.34751E+05         0.00000E+00
    0.34751E+05        -0.59968E+08         0.00000E+00
    0.00000E+00         0.00000E+00        -0.30093E+08
 
   -0.30092E+08         0.35782E+05         0.00000E+00
    0.35782E+05        -0.59963E+08         0.00000E+00
    0.00000E+00         0.00000E+00        -0.30095E+08
 
   -0.30086E+08         0.36542E+05         0.00000E+00
    0.36542E+05        -0.59959E+08         0.00000E+00
    0.00000E+00         0.00000E+00        -0.30095E+08
 
   -0.30082E+08         0.37078E+05         0.00000E+00
    0.37078E+05        -0.59954E+08         0.00000E+00
    0.00000E+00         0.00000E+00        -0.30094E+08
 
   -0.30080E+08         0.37437E+05         0.00000E+00
    0.37437E+05        -0.59950E+08         0.00000E+00
    0.00000E+00         0.00000E+00        -0.30090E+08
 
   -0.30080E+08         0.37664E+05         0.00000E+00
    0.37664E+05        -0.59946E+08         0.00000E+00
    0.00000E+00         0.00000E+00        -0.30084E+08
 
   -0.30272E+08         0.40880E+04         0.00000E+00
    0.40880E+04        -0.59999E+08         0.00000E+00
    0.00000E+00         0.00000E+00        -0.29965E+08
 
   -0.30243E+08         0.11399E+05         0.00000E+00
    0.11399E+05        -0.59998E+08         0.00000E+00
    0.00000E+00         0.00000E+00        -0.29991E+08
 
   -0.30217E+08         0.17662E+05         0.00000E+00
    0.17662E+05        -0.59996E+08         0.00000E+00
    0.00000E+00         0.00000E+00        -0.30014E+08
 
   -0.30193E+08         0.22964E+05         0.00000E+00
    0.22964E+05        -0.59993E+08         0.00000E+00
    0.00000E+00         0.00000E+00        -0.30033E+08
 
   -0.30172E+08         0.27388E+05         0.00000E+00
    0.27388E+05        -0.59989E+08         0.00000E+00
    0.00000E+00         0.00000E+00        -0.30050E+08
 
   -0.30153E+08         0.31024E+05         0.00000E+00
    0.31024E+05        -0.59985E+08         0.00000E+00
    0.00000E+00         0.00000E+00        -0.30063E+08
 
   -0.30136E+08         0.33961E+05         0.00000E+00
    0.33961E+05        -0.59981E+08         0.00000E+00
    0.00000E+00         0.00000E+00        -0.30074E+08
 
   -0.30122E+08         0.36290E+05         0.00000E+00
    0.36290E+05        -0.59976E+08         0.00000E+00
    0.00000E+00         0.00000E+00        -0.30083E+08
 
   -0.30109E+08         0.38094E+05         0.00000E+00
    0.38094E+05        -0.59971E+08         0.00000E+00
    0.00000E+00         0.00000E+00        -0.30089E+08
 
   -0.30099E+08         0.39446E+05         0.00000E+00
    0.39446E+05        -0.59967E+08         0.00000E+00
    0.00000E+00         0.00000E+00        -0.30093E+08
 
   -0.30091E+08         0.40415E+05         0.00000E+00
    0.40415E+05        -0.59962E+08         0.00000E+00
    0.00000E+00         0.00000E+00        -0.30095E+08
 
   -0.30085E+08         0.41066E+05         0.00000E+00
    0.41066E+05        -0.59958E+08         0.00000E+00
    0.00000E+00         0.00000E+00        -0.30095E+08
 
   -0.30081E+08         0.41459E+05         0.00000E+00
    0.41459E+05        -0.59953E+08         0.00000E+00
    0.00000E+00         0.00000E+00        -0.30093E+08
 
   -0.30080E+08         0.41651E+05         0.00000E+00
    0.41651E+05        -0.59949E+08         0.00000E+00
    0.00000E+00         0.00000E+00        -0.30089E+08
 
   -0.30080E+08         0.41702E+05         0.00000E+00
    0.41702E+05        -0.59945E+08         0.00000E+00
    0.00000E+00         0.00000E+00        -0.30084E+08
 
   -0.30263E+08         0.47658E+04         0.00000E+00
    0.47658E+04        -0.59999E+08         0.00000E+00
    0.00000E+00         0.00000E+00        -0.29973E+08
 
   -0.30236E+08         0.13236E+05         0.00000E+00
    0.13236E+05        -0.59998E+08         0.00000E+00
    0.00000E+00         0.00000E+00        -0.29998E+08
 
   -0.30211E+08         0.20430E+05         0.00000E+00
    0.20430E+05        -0.59996E+08         0.00000E+00
    0.00000E+00         0.00000E+00        -0.30020E+08
 
   -0.30188E+08         0.26452E+05         0.00000E+00
    0.26452E+05        -0.59993E+08         0.00000E+00
    0.00000E+00         0.00000E+00        -0.30038E+08
 
   -0.30168E+08         0.31412E+05         0.00000E+00
    0.31412E+05        -0.59989E+08         0.00000E+00
    0.00000E+00         0.00000E+00        -0.30053E+08
 
   -0.30149E+08         0.35420E+05         0.00000E+00
    0.35420E+05        -0.59984E+08         0.00000E+00
    0.00000E+00         0.00000E+00        -0.30066E+08
 
   -0.30133E+08         0.38588E+05         0.00000E+00
    0.38588E+05        -0.59980E+08         0.00000E+00
    0.00000E+00         0.00000E+00        -0.30076E+08
 
   -0.30119E+08         0.41027E+05         0.00000E+00
    0.41027E+05        -0.59975E+08         0.00000E+00
    0.00000E+00         0.00000E+00        -0.30083E+08
 
   -0.30108E+08         0.42841E+05         0.00000E+00
    0.42841E+05        -0.59970E+08         0.00000E+00
    0.00000E+00         0.00000E+00        -0.30089E+08
 
   -0.30098E+08         0.44123E+05         0.00000E+00
    0.44123E+05        -0.59966E+08         0.00000E+00
    0.00000E+00         0.00000E+00        -0.30092E+08
 
   -0.30090E+08         0.44955E+05         0.00000E+00
    0.44955E+05        -0.59961E+08         0.00000E+00
    0.00000E+00         0.00000E+00        -0.30094E+08
 
   -0.30085E+08         0.45418E+05         0.00000E+00
    0.45418E+05        -0.59957E+08         0.00000E+00
    0.00000E+00         0.00000E+00        -0.30094E+08
 
   -0.30081E+08         0.45586E+05         0.00000E+00
    0.45586E+05        -0.59953E+08         0.00000E+00
    0.00000E+00         0.00000E+00        -0.30092E+08
 
   -0.30080E+08         0.45532E+05         0.00000E+00
    0.45532E+05        -0.59949E+08         0.00000E+00
    0.00000E+00         0.00000E+00        -0.30088E+08
 
   -0.30080E+08         0.45327E+05         0.00000E+00
    0.45327E+05        -0.59945E+08         0.00000E+00
    0.00000E+00         0.00000E+00        -0.30084E+08
 
   -0.30253E+08         0.54922E+04         0.00000E+00
    0.54922E+04        -0.59999E+08         0.00000E+00
    0.00000E+00         0.00000E+00        -0.29983E+08
 
   -0.30227E+08         0.15194E+05         0.00000E+00
    0.15194E+05        -0.59998E+08         0.00000E+00
    0.00000E+00         0.00000E+00        -0.30006E+08
 
   -0.30204E+08         0.23366E+05         0.00000E+00
    0.23366E+05        -0.59996E+08         0.00000E+00
    0.00000E+00         0.00000E+00        -0.30026E+08
 
   -0.30182E+08         0.30133E+05         0.00000E+00
    0.30133E+05        -0.59992E+08         0.00000E+00
    0.00000E+00         0.00000E+00        -0.30043E+08
 
   -0.30163E+08         0.35630E+05         0.00000E+00
    0.35630E+05        -0.59988E+08         0.00000E+00
    0.00000E+00         0.00000E+00        -0.30057E+08
 
   -0.30146E+08         0.39994E+05         0.00000E+00
    0.39994E+05        -0.59984E+08         0.00000E+00
    0.00000E+00         0.00000E+00        -0.30068E+08
 
   -0.30131E+08         0.43359E+05         0.00000E+00
    0.43359E+05        -0.59979E+08         0.00000E+00
    0.00000E+00         0.00000E+00        -0.30077E+08
 
   -0.30117E+08         0.45858E+05         0.00000E+00
    0.45858E+05        -0.59974E+08         0.00000E+00
    0.00000E+00         0.00000E+00        -0.30084E+08
 
   -0.30106E+08         0.47619E+05         0.00000E+00
    0.47619E+05        -0.59969E+08         0.00000E+00
    0.00000E+00         0.00000E+00        -0.30089E+08
 
   -0.30097E+08         0.48756E+05         0.00000E+00
    0.48756E+05        -0.59964E+08         0.00000E+00
    0.00000E+00         0.00000E+00        -0.30092E+08
 
   -0.30090E+08         0.49369E+05         0.00000E+00
    0.49369E+05        -0.59960E+08         0.00000E+00
    0.00000E+00         0.00000E+00        -0.30093E+08
 
   -0.30085E+08         0.49555E+05         0.00000E+00
    0.49555E+05        -0.59956E+08         0.00000E+00
    0.00000E+00         0.00000E+00        -0.30093E+08
 
   -0.30081E+08         0.49406E+05         0.00000E+00
    0.49406E+05        -0.59952E+08         0.00000E+00
    0.00000E+00         0.00000E+00        -0.30091E+08
 
   -0.30080E+08         0.49011E+05         0.00000E+00
    0.49011E+05        -0.59949E+08         0.00000E+00
    0.00000E+00         0.00000E+00        -0.30088E+08
 
   -0.30080E+08         0.48462E+05         0.00000E+00
    0.48462E+05        -0.59946E+08         0.00000E+00
    0.00000E+00         0.00000E+00        -0.30084E+08
 
   -0.30242E+08         0.62617E+04         0.00000E+00
    0.62617E+04        -0.59999E+08         0.00000E+00
    0.00000E+00         0.00000E+00        -0.29994E+08
 
   -0.30218E+08         0.17260E+05         0.00000E+00
    0.17260E+05        -0.59998E+08         0.00000E+00
    0.00000E+00         0.00000E+00        -0.30016E+08
 
   -0.30196E+08         0.26452E+05         0.00000E+00
    0.26452E+05        -0.59995E+08         0.00000E+00
    0.00000E+00         0.00000E+00        -0.30034E+08
 
   -0.30176E+08         0.33988E+05         0.00000E+00
    0.33988E+05        -0.59992E+08         0.00000E+00
    0.00000E+00         0.00000E+00        -0.30049E+08
 
   -0.30158E+08         0.40024E+05         0.00000E+00
    0.40024E+05        -0.59988E+08         0.00000E+00
    0.00000E+00         0.00000E+00        -0.30061E+08
 
   -0.30142E+08         0.44726E+05         0.00000E+00
    0.44726E+05        -0.59983E+08         0.00000E+00
    0.00000E+00         0.00000E+00        -0.30071E+08
 
   -0.30128E+08         0.48254E+05         0.00000E+00
    0.48254E+05        -0.59978E+08         0.00000E+00
    0.00000E+00         0.00000E+00        -0.30079E+08
 
   -0.30115E+08         0.50762E+05         0.00000E+00
    0.50762E+05        -0.59973E+08         0.00000E+00
    0.00000E+00         0.00000E+00        -0.30085E+08
 
   -0.30105E+08         0.52403E+05         0.00000E+00
    0.52403E+05        -0.59968E+08         0.00000E+00
    0.00000E+00         0.00000E+00        -0.30089E+08
 
   -0.30096E+08         0.53312E+05         0.00000E+00
    0.53312E+05        -0.59964E+08         0.00000E+00
    0.00000E+00         0.00000E+00        -0.30091E+08
 
   -0.30090E+08         0.53614E+05         0.00000E+00
    0.53614E+05        -0.59959E+08         0.00000E+00
    0.00000E+00         0.00000E+00        -0.30092E+08
 
   -0.30085E+08         0.53424E+05         0.00000E+00
    0.53424E+05        -0.59955E+08         0.00000E+00
    0.00000E+00         0.00000E+00        -0.30092E+08
 
   -0.30082E+08         0.52854E+05         0.00000E+00
    0.52854E+05        -0.59952E+08         0.00000E+00
    0.00000E+00         0.00000E+00        -0.30091E+08
 
   -0.30081E+08         0.52016E+05         0.00000E+00
    0.52016E+05        -0.59949E+08         0.00000E+00
    0.00000E+00         0.00000E+00        -0.30088E+08
 
   -0.30081E+08         0.51023E+05         0.00000E+00
    0.51023E+05        -0.59946E+08         0.00000E+00
    0.00000E+00         0.00000E+00        -0.30084E+08
 
   -0.30229E+08         0.70650E+04         0.00000E+00
    0.70650E+04        -0.59999E+08         0.00000E+00
    0.00000E+00         0.00000E+00        -0.30006E+08
 
   -0.30207E+08         0.19411E+05         0.00000E+00
    0.19411E+05        -0.59998E+08         0.00000E+00
    0.00000E+00         0.00000E+00        -0.30026E+08
 
   -0.30187E+08         0.29661E+05         0.00000E+00
    0.29661E+05        -0.59995E+08         0.00000E+00
    0.00000E+00         0.00000E+00        -0.30042E+08
 
   -0.30169E+08         0.37985E+05         0.00000E+00
    0.37985E+05        -0.59992E+08         0.00000E+00
    0.00000E+00         0.00000E+00        -0.30056E+08
 
   -0.30152E+08         0.44566E+05         0.00000E+00
    0.44566E+05        -0.59987E+08         0.00000E+00
    0.00000E+00         0.00000E+00        -0.30066E+08
 
   -0.30138E+08         0.49590E+05         0.00000E+00
    0.49590E+05        -0.59982E+08         0.00000E+00
    0.00000E+00         0.00000E+00        -0.30075E+08
 
   -0.30125E+08         0.53246E+05         0.00000E+00
    0.53246E+05        -0.59977E+08         0.00000E+00
    0.00000E+00         0.00000E+00        -0.30081E+08
 
   -0.30113E+08         0.55712E+05         0.00000E+00
    0.55712E+05        -0.59972E+08         0.00000E+00
    0.00000E+00         0.00000E+00        -0.30086E+08
 
   -0.30104E+08         0.57158E+05         0.00000E+00
    0.57158E+05        -0.59968E+08         0.00000E+00
    0.00000E+00         0.00000E+00        -0.30089E+08
 
   -0.30096E+08         0.57751E+05         0.00000E+00
    0.57751E+05        -0.59963E+08         0.00000E+00
    0.00000E+00         0.00000E+00        -0.30091E+08
 
   -0.30090E+08         0.57638E+05         0.00000E+00
    0.57638E+05        -0.59959E+08         0.00000E+00
    0.00000E+00         0.00000E+00        -0.30092E+08
 
   -0.30085E+08         0.56961E+05         0.00000E+00
    0.56961E+05        -0.59955E+08         0.00000E+00
    0.00000E+00         0.00000E+00        -0.30091E+08
 
   -0.30083E+08         0.55856E+05         0.00000E+00
    0.55856E+05        -0.59952E+08         0.00000E+00
    0.00000E+00         0.00000E+00        -0.30090E+08
 
   -0.30082E+08         0.54461E+05         0.00000E+00
    0.54461E+05        -0.59950E+08         0.00000E+00
    0.00000E+00         0.00000E+00        -0.30088E+08
 
   -0.30082E+08         0.52915E+05         0.00000E+00
    0.52915E+05        -0.59948E+08         0.00000E+00
    0.00000E+00         0.00000E+00        -0.30085E+08
 
   -0.30215E+08         0.78886E+04         0.00000E+00
    0.78886E+04        -0.59999E+08         0.00000E+00
    0.00000E+00         0.00000E+00        -0.30020E+08
 
   -0.30195E+08         0.21616E+05         0.00000E+00
    0.21616E+05        -0.59998E+08         0.00000E+00
    0.00000E+00         0.00000E+00        -0.30038E+08
 
   -0.30177E+08         0.32950E+05         0.00000E+00
    0.32950E+05        -0.59995E+08         0.00000E+00
    0.00000E+00         0.00000E+00        -0.30052E+08
 
   -0.30161E+08         0.42081E+05         0.00000E+00
    0.42081E+05        -0.59991E+08         0.00000E+00
    0.00000E+00         0.00000E+00        -0.30063E+08
 
   -0.30146E+08         0.49210E+05         0.00000E+00
    0.49210E+05        -0.59987E+08         0.00000E+00
    0.00000E+00         0.00000E+00        -0.30072E+08
 
   -0.30133E+08         0.54546E+05         0.00000E+00
    0.54546E+05        -0.59982E+08         0.00000E+00
    0.00000E+00         0.00000E+00        -0.30079E+08
 
   -0.30122E+08         0.58296E+05         0.00000E+00
    0.58296E+05        -0.59977E+08         0.00000E+00
    0.00000E+00         0.00000E+00        -0.30084E+08
 
   -0.30111E+08         0.60663E+05         0.00000E+00
    0.60663E+05        -0.59972E+08         0.00000E+00
    0.00000E+00         0.00000E+00        -0.30088E+08
 
   -0.30103E+08         0.61841E+05         0.00000E+00
    0.61841E+05        -0.59967E+08         0.00000E+00
    0.00000E+00         0.00000E+00        -0.30090E+08
 
   -0.30096E+08         0.62019E+05         0.00000E+00
    0.62019E+05        -0.59963E+08         0.00000E+00
    0.00000E+00         0.00000E+00        -0.30091E+08
 
   -0.30090E+08         0.61378E+05         0.00000E+00
    0.61378E+05        -0.59959E+08         0.00000E+00
    0.00000E+00         0.00000E+00        -0.30091E+08
 
   -0.30087E+08         0.60092E+05         0.00000E+00
    0.60092E+05        -0.59956E+08         0.00000E+00
    0.00000E+00         0.00000E+00        -0.30091E+08
 
   -0.30084E+08         0.58327E+05         0.00000E+00
    0.58327E+05        -0.59953E+08         0.00000E+00
    0.00000E+00         0.00000E+00        -0.30090E+08
 
   -0.30084E+08         0.56253E+05         0.00000E+00
    0.56253E+05        -0.59952E+08         0.00000E+00
    0.00000E+00         0.00000E+00        -0.30088E+08
 
   -0.30084E+08         0.54038E+05         0.00000E+00
    0.54038E+05        -0.59951E+08         0.00000E+00
    0.00000E+00         0.00000E+00        -0.30086E+08
 
   -0.30199E+08         0.87152E+04         0.00000E+00
    0.87152E+04        -0.59999E+08         0.00000E+00
    0.00000E+00         0.00000E+00        -0.30036E+08
 
   -0.30182E+08         0.23832E+05         0.00000E+00
    0.23832E+05        -0.59998E+08         0.00000E+00
    0.00000E+00         0.00000E+00        -0.30051E+08
 
   -0.30167E+08         0.36265E+05         0.00000E+00
    0.36265E+05        -0.59995E+08         0.00000E+00
    0.00000E+00         0.00000E+00        -0.30063E+08
 
   -0.30153E+08         0.46219E+05         0.00000E+00
    0.46219E+05        -0.59991E+08         0.00000E+00
    0.00000E+00         0.00000E+00        -0.30072E+08
 
   -0.30140E+08         0.53904E+05         0.00000E+00
    0.53904E+05        -0.59987E+08         0.00000E+00
    0.00000E+00         0.00000E+00        -0.30079E+08
 
   -0.30129E+08         0.59542E+05         0.00000E+00
    0.59542E+05        -0.59982E+08         0.00000E+00
    0.00000E+00         0.00000E+00        -0.30084E+08
 
   -0.30118E+08         0.63354E+05         0.00000E+00
    0.63354E+05        -0.59977E+08         0.00000E+00
    0.00000E+00         0.00000E+00        -0.30087E+08
 
   -0.30110E+08         0.65563E+05         0.00000E+00
    0.65563E+05        -0.59972E+08         0.00000E+00
    0.00000E+00         0.00000E+00        -0.30089E+08
 
   -0.30102E+08         0.66390E+05         0.00000E+00
    0.66390E+05        -0.59967E+08         0.00000E+00
    0.00000E+00         0.00000E+00        -0.30091E+08
 
   -0.30096E+08         0.66049E+05         0.00000E+00
    0.66049E+05        -0.59963E+08         0.00000E+00
    0.00000E+00         0.00000E+00        -0.30091E+08
 
   -0.30092E+08         0.64757E+05         0.00000E+00
    0.64757E+05        -0.59960E+08         0.00000E+00
    0.00000E+00         0.00000E+00        -0.30091E+08
 
   -0.30089E+08         0.62727E+05         0.00000E+00
    0.62727E+05        -0.59957E+08         0.00000E+00
    0.00000E+00         0.00000E+00        -0.30091E+08
 
   -0.30087E+08         0.60171E+05         0.00000E+00
    0.60171E+05        -0.59955E+08         0.00000E+00
    0.00000E+00         0.00000E+00        -0.30090E+08
 
   -0.30086E+08         0.57291E+05         0.00000E+00
    0.57291E+05        -0.59954E+08         0.00000E+00
    0.00000E+00         0.00000E+00        -0.30089E+08
 
   -0.30087E+08         0.54287E+05         0.00000E+00
    0.54287E+05        -0.59954E+08         0.00000E+00
    0.00000E+00         0.00000E+00        -0.30088E+08
 
   -0.30182E+08         0.95242E+04         0.00000E+00
    0.95242E+04        -0.59999E+08         0.00000E+00
    0.00000E+00         0.00000E+00        -0.30053E+08
 
   -0.30168E+08         0.26010E+05         0.00000E+00
    0.26010E+05        -0.59998E+08         0.00000E+00
    0.00000E+00         0.00000E+00        -0.30065E+08
 
   -0.30155E+08         0.39544E+05         0.00000E+00
    0.39544E+05        -0.59995E+08         0.00000E+00
    0.00000E+00         0.00000E+00        -0.30074E+08
 
   -0.30143E+08         0.50329E+05         0.00000E+00
    0.50329E+05        -0.59992E+08         0.00000E+00
    0.00000E+00         0.00000E+00        -0.30081E+08
 
   -0.30133E+08         0.58578E+05         0.00000E+00
    0.58578E+05        -0.59987E+08         0.00000E+00
    0.00000E+00         0.00000E+00        -0.30086E+08
 
   -0.30124E+08         0.64510E+05         0.00000E+00
    0.64510E+05        -0.59982E+08         0.00000E+00
    0.00000E+00         0.00000E+00        -0.30089E+08
 
   -0.30116E+08         0.68353E+05         0.00000E+00
    0.68353E+05        -0.59978E+08         0.00000E+00
    0.00000E+00         0.00000E+00        -0.30091E+08
 
   -0.30108E+08         0.70344E+05         0.00000E+00
    0.70344E+05        -0.59973E+08         0.00000E+00
    0.00000E+00         0.00000E+00        -0.30091E+08
 
   -0.30102E+08         0.70726E+05         0.00000E+00
    0.70726E+05        -0.59968E+08         0.00000E+00
    0.00000E+00         0.00000E+00        -0.30092E+08
 
   -0.30098E+08         0.69751E+05         0.00000E+00
    0.69751E+05        -0.59964E+08         0.00000E+00
    0.00000E+00         0.00000E+00        -0.30091E+08
 
   -0.30094E+08         0.67677E+05         0.00000E+00
    0.67677E+05        -0.59961E+08         0.00000E+00
    0.00000E+00         0.00000E+00        -0.30091E+08
 
   -0.30091E+08         0.64769E+05         0.00000E+00
    0.64769E+05        -0.59959E+08         0.00000E+00
    0.00000E+00         0.00000E+00        -0.30091E+08
 
   -0.30090E+08         0.61283E+05         0.00000E+00
    0.61283E+05        -0.59958E+08         0.00000E+00
    0.00000E+00         0.00000E+00        -0.30091E+08
 
   -0.30090E+08         0.57471E+05         0.00000E+00
    0.57471E+05        -0.59958E+08         0.00000E+00
    0.00000E+00         0.00000E+00        -0.30091E+08
 
   -0.30090E+08         0.53562E+05         0.00000E+00
    0.53562E+05        -0.59959E+08         0.00000E+00
    0.00000E+00         0.00000E+00        -0.30091E+08
 
   -0.30163E+08         0.10294E+05         0.00000E+00
    0.10294E+05        -0.60000E+08         0.00000E+00
    0.00000E+00         0.00000E+00        -0.30072E+08
 
   -0.30152E+08         0.28097E+05         0.00000E+00
    0.28097E+05        -0.59998E+08         0.00000E+00
    0.00000E+00         0.00000E+00        -0.30081E+08
 
   -0.30142E+08         0.42713E+05         0.00000E+00
    0.42713E+05        -0.59996E+08         0.00000E+00
    0.00000E+00         0.00000E+00        -0.30087E+08
 
   -0.30134E+08         0.54331E+05         0.00000E+00
    0.54331E+05        -0.59992E+08         0.00000E+00
    0.00000E+00         0.00000E+00        -0.30092E+08
 
   -0.30126E+08         0.63145E+05         0.00000E+00
    0.63145E+05        -0.59988E+08         0.00000E+00
    0.00000E+00         0.00000E+00        -0.30094E+08
 
   -0.30119E+08         0.69362E+05         0.00000E+00
    0.69362E+05        -0.59983E+08         0.00000E+00
    0.00000E+00         0.00000E+00        -0.30095E+08
 
   -0.30113E+08         0.73202E+05         0.00000E+00
    0.73202E+05        -0.59978E+08         0.00000E+00
    0.00000E+00         0.00000E+00        -0.30095E+08
 
   -0.30107E+08         0.74909E+05         0.00000E+00
    0.74909E+05        -0.59974E+08         0.00000E+00
    0.00000E+00         0.00000E+00        -0.30094E+08
 
   -0.30103E+08         0.74749E+05         0.00000E+00
    0.74749E+05        -0.59970E+08         0.00000E+00
    0.00000E+00         0.00000E+00        -0.30093E+08
 
   -0.30100E+08         0.73016E+05         0.00000E+00
    0.73016E+05        -0.59966E+08         0.00000E+00
    0.00000E+00         0.00000E+00        -0.30092E+08
 
   -0.30097E+08         0.70025E+05         0.00000E+00
    0.70025E+05        -0.59964E+08         0.00000E+00
    0.00000E+00         0.00000E+00        -0.30091E+08
 
   -0.30095E+08         0.66097E+05         0.00000E+00
    0.66097E+05        -0.59962E+08         0.00000E+00
    0.00000E+00         0.00000E+00        -0.30091E+08
 
   -0.30094E+08         0.61558E+05         0.00000E+00
    0.61558E+05        -0.59962E+08         0.00000E+00
    0.00000E+00         0.00000E+00        -0.30092E+08
 
   -0.30094E+08         0.56695E+05         0.00000E+00
    0.56695E+05        -0.59963E+08         0.00000E+00
    0.00000E+00         0.00000E+00        -0.30093E+08
 
   -0.30095E+08         0.51777E+05         0.00000E+00
    0.51777E+05        -0.59965E+08         0.00000E+00
    0.00000E+00         0.00000E+00        -0.30094E+08
 
   -0.30143E+08         0.11004E+05         0.00000E+00
    0.11004E+05        -0.60000E+08         0.00000E+00
    0.00000E+00         0.00000E+00        -0.30092E+08
 
   -0.30135E+08         0.30040E+05         0.00000E+00
    0.30040E+05        -0.59998E+08         0.00000E+00
    0.00000E+00         0.00000E+00        -0.30098E+08
 
   -0.30129E+08         0.45695E+05         0.00000E+00
    0.45695E+05        -0.59996E+08         0.00000E+00
    0.00000E+00         0.00000E+00        -0.30101E+08
 
   -0.30123E+08         0.58127E+05         0.00000E+00
    0.58127E+05        -0.59993E+08         0.00000E+00
    0.00000E+00         0.00000E+00        -0.30103E+08
 
   -0.30118E+08         0.67499E+05         0.00000E+00
    0.67499E+05        -0.59989E+08         0.00000E+00
    0.00000E+00         0.00000E+00        -0.30103E+08
 
   -0.30114E+08         0.73984E+05         0.00000E+00
    0.73984E+05        -0.59984E+08         0.00000E+00
    0.00000E+00         0.00000E+00        -0.30101E+08
 
   -0.30110E+08         0.77781E+05         0.00000E+00
    0.77781E+05        -0.59980E+08         0.00000E+00
    0.00000E+00         0.00000E+00        -0.30099E+08
 
   -0.30107E+08         0.79130E+05         0.00000E+00
    0.79130E+05        -0.59976E+08         0.00000E+00
    0.00000E+00         0.00000E+00        -0.30097E+08
 
   -0.30104E+08         0.78324E+05         0.00000E+00
    0.78324E+05        -0.59972E+08         0.00000E+00
    0.00000E+00         0.00000E+00        -0.30095E+08
 
   -0.30102E+08         0.75708E+05         0.00000E+00
    0.75708E+05        -0.59969E+08         0.00000E+00
    0.00000E+00         0.00000E+00        -0.30093E+08
 
   -0.30101E+08         0.71666E+05         0.00000E+00
    0.71666E+05        -0.59967E+08         0.00000E+00
    0.00000E+00         0.00000E+00        -0.30092E+08
 
   -0.30100E+08         0.66598E+05         0.00000E+00
    0.66598E+05        -0.59967E+08         0.00000E+00
    0.00000E+00         0.00000E+00        -0.30092E+08
 
   -0.30099E+08         0.60890E+05         0.00000E+00
    0.60890E+05        -0.59967E+08         0.00000E+00
    0.00000E+00         0.00000E+00        -0.30093E+08
 
   -0.30099E+08         0.54892E+05         0.00000E+00
    0.54892E+05        -0.59969E+08         0.00000E+00
    0.00000E+00         0.00000E+00        -0.30096E+08
 
   -0.30100E+08         0.48875E+05         0.00000E+00
    0.48875E+05        -0.59972E+08         0.00000E+00
    0.00000E+00         0.00000E+00        -0.30099E+08
 
   -0.30122E+08         0.11636E+05         0.00000E+00
    0.11636E+05        -0.60000E+08         0.00000E+00
    0.00000E+00         0.00000E+00        -0.30113E+08
 
   -0.30118E+08         0.31792E+05         0.00000E+00
    0.31792E+05        -0.59999E+08         0.00000E+00
    0.00000E+00         0.00000E+00        -0.30116E+08
 
   -0.30114E+08         0.48412E+05         0.00000E+00
    0.48412E+05        -0.59996E+08         0.00000E+00
    0.00000E+00         0.00000E+00        -0.30117E+08
 
   -0.30112E+08         0.61612E+05         0.00000E+00
    0.61612E+05        -0.59993E+08         0.00000E+00
    0.00000E+00         0.00000E+00        -0.30115E+08
 
   -0.30110E+08         0.71509E+05         0.00000E+00
    0.71509E+05        -0.59990E+08         0.00000E+00
    0.00000E+00         0.00000E+00        -0.30113E+08
 
   -0.30109E+08         0.78226E+05         0.00000E+00
    0.78226E+05        -0.59986E+08         0.00000E+00
    0.00000E+00         0.00000E+00        -0.30109E+08
 
   -0.30108E+08         0.81924E+05         0.00000E+00
    0.81924E+05        -0.59982E+08         0.00000E+00
    0.00000E+00         0.00000E+00        -0.30105E+08
 
   -0.30107E+08         0.82834E+05         0.00000E+00
    0.82834E+05        -0.59978E+08         0.00000E+00
    0.00000E+00         0.00000E+00        -0.30101E+08
 
   -0.30107E+08         0.81276E+05         0.00000E+00
    0.81276E+05        -0.59975E+08         0.00000E+00
    0.00000E+00         0.00000E+00        -0.30097E+08
 
   -0.30106E+08         0.77660E+05         0.00000E+00
    0.77660E+05        -0.59973E+08         0.00000E+00
    0.00000E+00         0.00000E+00        -0.30095E+08
 
   -0.30106E+08         0.72456E+05         0.00000E+00
    0.72456E+05        -0.59972E+08         0.00000E+00
    0.00000E+00         0.00000E+00        -0.30094E+08
 
   -0.30106E+08         0.66152E+05         0.00000E+00
    0.66152E+05        -0.59973E+08         0.00000E+00
    0.00000E+00         0.00000E+00        -0.30094E+08
 
   -0.30106E+08         0.59207E+05         0.00000E+00
    0.59207E+05        -0.59974E+08         0.00000E+00
    0.00000E+00         0.00000E+00        -0.30096E+08
 
   -0.30106E+08         0.52008E+05         0.00000E+00
    0.52008E+05        -0.59977E+08         0.00000E+00
    0.00000E+00         0.00000E+00        -0.30100E+08
 
   -0.30107E+08         0.44838E+05         0.00000E+00
    0.44838E+05        -0.59981E+08         0.00000E+00
    0.00000E+00         0.00000E+00        -0.30104E+08
 
   -0.30099E+08         0.12187E+05         0.00000E+00
    0.12187E+05        -0.60000E+08         0.00000E+00
    0.00000E+00         0.00000E+00        -0.30136E+08
 
   -0.30099E+08         0.33312E+05         0.00000E+00
    0.33312E+05        -0.59999E+08         0.00000E+00
    0.00000E+00         0.00000E+00        -0.30135E+08
 
   -0.30099E+08         0.50785E+05         0.00000E+00
    0.50785E+05        -0.59997E+08         0.00000E+00
    0.00000E+00         0.00000E+00        -0.30133E+08
 
   -0.30100E+08         0.64668E+05         0.00000E+00
    0.64668E+05        -0.59994E+08         0.00000E+00
    0.00000E+00         0.00000E+00        -0.30128E+08
 
   -0.30101E+08         0.75014E+05         0.00000E+00
    0.75014E+05        -0.59991E+08         0.00000E+00
    0.00000E+00         0.00000E+00        -0.30123E+08
 
   -0.30103E+08         0.81888E+05         0.00000E+00
    0.81888E+05        -0.59988E+08         0.00000E+00
    0.00000E+00         0.00000E+00        -0.30117E+08
 
   -0.30105E+08         0.85407E+05         0.00000E+00
    0.85407E+05        -0.59985E+08         0.00000E+00
    0.00000E+00         0.00000E+00        -0.30111E+08
 
   -0.30108E+08         0.85787E+05         0.00000E+00
    0.85787E+05        -0.59982E+08         0.00000E+00
    0.00000E+00         0.00000E+00        -0.30105E+08
 
   -0.30110E+08         0.83383E+05         0.00000E+00
    0.83383E+05        -0.59980E+08         0.00000E+00
    0.00000E+00         0.00000E+00        -0.30100E+08
 
   -0.30111E+08         0.78681E+05         0.00000E+00
    0.78681E+05        -0.59979E+08         0.00000E+00
    0.00000E+00         0.00000E+00        -0.30097E+08
 
   -0.30112E+08         0.72249E+05         0.00000E+00
    0.72249E+05        -0.59979E+08         0.00000E+00
    0.00000E+00         0.00000E+00        -0.30096E+08
 
   -0.30113E+08         0.64668E+05         0.00000E+00
    0.64668E+05        -0.59981E+08         0.00000E+00
    0.00000E+00         0.00000E+00        -0.30097E+08
 
   -0.30114E+08         0.56461E+05         0.00000E+00
    0.56461E+05        -0.59983E+08         0.00000E+00
    0.00000E+00         0.00000E+00        -0.30100E+08
 
   -0.30114E+08         0.48046E+05         0.00000E+00
    0.48046E+05        -0.59987E+08         0.00000E+00
    0.00000E+00         0.00000E+00        -0.30105E+08
 
   -0.30114E+08         0.39707E+05         0.00000E+00
    0.39707E+05        -0.59992E+08         0.00000E+00
    0.00000E+00         0.00000E+00        -0.30111E+08
 
   -0.30076E+08         0.12655E+05         0.00000E+00
    0.12655E+05        -0.60000E+08         0.00000E+00
    0.00000E+00         0.00000E+00        -0.30160E+08
 
   -0.30079E+08         0.34577E+05         0.00000E+00
    0.34577E+05        -0.59999E+08         0.00000E+00
    0.00000E+00         0.00000E+00        -0.30155E+08
 
   -0.30083E+08         0.52743E+05         0.00000E+00
    0.52743E+05        -0.59998E+08         0.00000E+00
    0.00000E+00         0.00000E+00        -0.30150E+08
 
   -0.30088E+08         0.67163E+05         0.00000E+00
    0.67163E+05        -0.59996E+08         0.00000E+00
    0.00000E+00         0.00000E+00        -0.30142E+08
 
   -0.30093E+08         0.77817E+05         0.00000E+00
    0.77817E+05        -0.59993E+08         0.00000E+00
    0.00000E+00         0.00000E+00        -0.30134E+08
 
   -0.30098E+08         0.84712E+05         0.00000E+00
    0.84712E+05        -0.59991E+08         0.00000E+00
    0.00000E+00         0.00000E+00        -0.30126E+08
 
   -0.30104E+08         0.87927E+05         0.00000E+00
    0.87927E+05        -0.59989E+08         0.00000E+00
    0.00000E+00         0.00000E+00        -0.30117E+08
 
   -0.30109E+08         0.87681E+05         0.00000E+00
    0.87681E+05        -0.59987E+08         0.00000E+00
    0.00000E+00         0.00000E+00        -0.30110E+08
 
   -0.30114E+08         0.84373E+05         0.00000E+00
    0.84373E+05        -0.59986E+08         0.00000E+00
    0.00000E+00         0.00000E+00        -0.30104E+08
 
   -0.30117E+08         0.78567E+05         0.00000E+00
    0.78567E+05        -0.59987E+08         0.00000E+00
    0.00000E+00         0.00000E+00        -0.30101E+08
 
   -0.30120E+08         0.70922E+05         0.00000E+00
    0.70922E+05        -0.59988E+08         0.00000E+00
    0.00000E+00         0.00000E+00        -0.30100E+08
 
   -0.30122E+08         0.62097E+05         0.00000E+00
    0.62097E+05        -0.59991E+08         0.00000E+00
    0.00000E+00         0.00000E+00        -0.30102E+08
 
   -0.30122E+08         0.52667E+05         0.00000E+00
    0.52667E+05        -0.59994E+08         0.00000E+00
    0.00000E+00         0.00000E+00        -0.30106E+08
 
   -0.30123E+08         0.43071E+05         0.00000E+00
    0.43071E+05        -0.59999E+08         0.00000E+00
    0.00000E+00         0.00000E+00        -0.30112E+08
 
   -0.30123E+08         0.33583E+05         0.00000E+00
    0.33583E+05        -0.60005E+08         0.00000E+00
    0.00000E+00         0.00000E+00        -0.30119E+08
 
   -0.30052E+08         0.13029E+05         0.00000E+00
    0.13029E+05        -0.60000E+08         0.00000E+00
    0.00000E+00         0.00000E+00        -0.30184E+08
 
   -0.30059E+08         0.35576E+05         0.00000E+00
    0.35576E+05        -0.59999E+08         0.00000E+00
    0.00000E+00         0.00000E+00        -0.30176E+08
 
   -0.30066E+08         0.54232E+05         0.00000E+00
    0.54232E+05        -0.59998E+08         0.00000E+00
    0.00000E+00         0.00000E+00        -0.30167E+08
 
   -0.30075E+08         0.68949E+05         0.00000E+00
    0.68949E+05        -0.59997E+08         0.00000E+00
    0.00000E+00         0.00000E+00        -0.30157E+08
 
   -0.30084E+08         0.79675E+05         0.00000E+00
    0.79675E+05        -0.59995E+08         0.00000E+00
    0.00000E+00         0.00000E+00        -0.30146E+08
 
   -0.30093E+08         0.86358E+05         0.00000E+00
    0.86358E+05        -0.59994E+08         0.00000E+00
    0.00000E+00         0.00000E+00        -0.30135E+08
 
   -0.30103E+08         0.89087E+05         0.00000E+00
    0.89087E+05        -0.59994E+08         0.00000E+00
    0.00000E+00         0.00000E+00        -0.30125E+08
 
   -0.30111E+08         0.88125E+05         0.00000E+00
    0.88125E+05        -0.59994E+08         0.00000E+00
    0.00000E+00         0.00000E+00        -0.30117E+08
 
   -0.30119E+08         0.83933E+05         0.00000E+00
    0.83933E+05        -0.59995E+08         0.00000E+00
    0.00000E+00         0.00000E+00        -0.30110E+08
 
   -0.30125E+08         0.77122E+05         0.00000E+00
    0.77122E+05        -0.59996E+08         0.00000E+00
    0.00000E+00         0.00000E+00        -0.30106E+08
 
   -0.30129E+08         0.68398E+05         0.00000E+00
    0.68398E+05        -0.59999E+08         0.00000E+00
    0.00000E+00         0.00000E+00        -0.30106E+08
 
   -0.30131E+08         0.58459E+05         0.00000E+00
    0.58459E+05        -0.60003E+08         0.00000E+00
    0.00000E+00         0.00000E+00        -0.30108E+08
 
   -0.30133E+08         0.47915E+05         0.00000E+00
    0.47915E+05        -0.60007E+08         0.00000E+00
    0.00000E+00         0.00000E+00        -0.30113E+08
 
   -0.30133E+08         0.37218E+05         0.00000E+00
    0.37218E+05        -0.60013E+08         0.00000E+00
    0.00000E+00         0.00000E+00        -0.30120E+08
 
   -0.30133E+08         0.26635E+05         0.00000E+00
    0.26635E+05        -0.60020E+08         0.00000E+00
    0.00000E+00         0.00000E+00        -0.30128E+08
 
   -0.30027E+08         0.13311E+05         0.00000E+00
    0.13311E+05        -0.60000E+08         0.00000E+00
    0.00000E+00         0.00000E+00        -0.30209E+08
 
   -0.30038E+08         0.36266E+05         0.00000E+00
    0.36266E+05        -0.60000E+08         0.00000E+00
    0.00000E+00         0.00000E+00        -0.30198E+08
 
   -0.30050E+08         0.55170E+05         0.00000E+00
    0.55170E+05        -0.59999E+08         0.00000E+00
    0.00000E+00         0.00000E+00        -0.30185E+08
 
   -0.30062E+08         0.69881E+05         0.00000E+00
    0.69881E+05        -0.59998E+08         0.00000E+00
    0.00000E+00         0.00000E+00        -0.30172E+08
 
   -0.30075E+08         0.80282E+05         0.00000E+00
    0.80282E+05        -0.59998E+08         0.00000E+00
    0.00000E+00         0.00000E+00        -0.30158E+08
 
   -0.30089E+08         0.86396E+05         0.00000E+00
    0.86396E+05        -0.59999E+08         0.00000E+00
    0.00000E+00         0.00000E+00        -0.30146E+08
 
   -0.30102E+08         0.88394E+05         0.00000E+00
    0.88394E+05        -0.60000E+08         0.00000E+00
    0.00000E+00         0.00000E+00        -0.30134E+08
 
   -0.30114E+08         0.86667E+05         0.00000E+00
    0.86667E+05        -0.60002E+08         0.00000E+00
    0.00000E+00         0.00000E+00        -0.30125E+08
 
   -0.30125E+08         0.81734E+05         0.00000E+00
    0.81734E+05        -0.60005E+08         0.00000E+00
    0.00000E+00         0.00000E+00        -0.30118E+08
 
   -0.30133E+08         0.74189E+05         0.00000E+00
    0.74189E+05        -0.60009E+08         0.00000E+00
    0.00000E+00         0.00000E+00        -0.30114E+08
 
   -0.30139E+08         0.64674E+05         0.00000E+00
    0.64674E+05        -0.60013E+08         0.00000E+00
    0.00000E+00         0.00000E+00        -0.30114E+08
 
   -0.30142E+08         0.53863E+05         0.00000E+00
    0.53863E+05        -0.60017E+08         0.00000E+00
    0.00000E+00         0.00000E+00        -0.30116E+08
 
   -0.30144E+08         0.42377E+05         0.00000E+00
    0.42377E+05        -0.60023E+08         0.00000E+00
    0.00000E+00         0.00000E+00        -0.30122E+08
 
   -0.30144E+08         0.30699E+05         0.00000E+00
    0.30699E+05        -0.60029E+08         0.00000E+00
    0.00000E+00         0.00000E+00        -0.30130E+08
 
   -0.30144E+08         0.19106E+05         0.00000E+00
    0.19106E+05        -0.60036E+08         0.00000E+00
    0.00000E+00         0.00000E+00        -0.30139E+08
 
   -0.30002E+08         0.13504E+05         0.00000E+00
    0.13504E+05        -0.60000E+08         0.00000E+00
    0.00000E+00         0.00000E+00        -0.30235E+08
 
   -0.30017E+08         0.36615E+05         0.00000E+00
    0.36615E+05        -0.60000E+08         0.00000E+00
    0.00000E+00         0.00000E+00        -0.30219E+08
 
   -0.30033E+08         0.55424E+05         0.00000E+00
    0.55424E+05        -0.60000E+08         0.00000E+00
    0.00000E+00         0.00000E+00        -0.30203E+08
 
   -0.30050E+08         0.69679E+05         0.00000E+00
    0.69679E+05        -0.60000E+08         0.00000E+00
    0.00000E+00         0.00000E+00        -0.30187E+08
 
   -0.30067E+08         0.79256E+05         0.00000E+00
    0.79256E+05        -0.60002E+08         0.00000E+00
    0.00000E+00         0.00000E+00        -0.30171E+08
 
   -0.30085E+08         0.84307E+05         0.00000E+00
    0.84307E+05        -0.60004E+08         0.00000E+00
    0.00000E+00         0.00000E+00        -0.30157E+08
 
   -0.30102E+08         0.85311E+05         0.00000E+00
    0.85311E+05        -0.60008E+08         0.00000E+00
    0.00000E+00         0.00000E+00        -0.30145E+08
 
   -0.30118E+08         0.82853E+05         0.00000E+00
    0.82853E+05        -0.60013E+08         0.00000E+00
    0.00000E+00         0.00000E+00        -0.30135E+08
 
   -0.30131E+08         0.77483E+05         0.00000E+00
    0.77483E+05        -0.60018E+08         0.00000E+00
    0.00000E+00         0.00000E+00        -0.30129E+08
 
   -0.30142E+08         0.69658E+05         0.00000E+00
    0.69658E+05        -0.60024E+08         0.00000E+00
    0.00000E+00         0.00000E+00        -0.30125E+08
 
   -0.30149E+08         0.59819E+05         0.00000E+00
    0.59819E+05        -0.60029E+08         0.00000E+00
    0.00000E+00         0.00000E+00        -0.30125E+08
 
   -0.30154E+08         0.48502E+05         0.00000E+00
    0.48502E+05        -0.60035E+08         0.00000E+00
    0.00000E+00         0.00000E+00        -0.30127E+08
 
   -0.30156E+08         0.36317E+05         0.00000E+00
    0.36317E+05        -0.60040E+08         0.00000E+00
    0.00000E+00         0.00000E+00        -0.30133E+08
 
   -0.30156E+08         0.23807E+05         0.00000E+00
    0.23807E+05        -0.60047E+08         0.00000E+00
    0.00000E+00         0.00000E+00        -0.30141E+08
 
   -0.30156E+08         0.11303E+05         0.00000E+00
    0.11303E+05        -0.60054E+08         0.00000E+00
    0.00000E+00         0.00000E+00        -0.30151E+08
 
   -0.29977E+08         0.13605E+05         0.00000E+00
    0.13605E+05        -0.60000E+08         0.00000E+00
    0.00000E+00         0.00000E+00        -0.30260E+08
 
   -0.29996E+08         0.36558E+05         0.00000E+00
    0.36558E+05        -0.60000E+08         0.00000E+00
    0.00000E+00         0.00000E+00        -0.30241E+08
 
   -0.30017E+08         0.54780E+05         0.00000E+00
    0.54780E+05        -0.60001E+08         0.00000E+00
    0.00000E+00         0.00000E+00        -0.30221E+08
 
   -0.30038E+08         0.67920E+05         0.00000E+00
    0.67920E+05        -0.60003E+08         0.00000E+00
    0.00000E+00         0.00000E+00        -0.30201E+08
 
   -0.30061E+08         0.75988E+05         0.00000E+00
    0.75988E+05        -0.60007E+08         0.00000E+00
    0.00000E+00         0.00000E+00        -0.30184E+08
 
   -0.30083E+08         0.79524E+05         0.00000E+00
    0.79524E+05        -0.60012E+08         0.00000E+00
    0.00000E+00         0.00000E+00        -0.30169E+08
 
   -0.30103E+08         0.79381E+05         0.00000E+00
    0.79381E+05        -0.60019E+08         0.00000E+00
    0.00000E+00         0.00000E+00        -0.30158E+08
 
   -0.30122E+08         0.76363E+05         0.00000E+00
    0.76363E+05        -0.60027E+08         0.00000E+00
    0.00000E+00         0.00000E+00        -0.30149E+08
 
   -0.30138E+08         0.70976E+05         0.00000E+00
    0.70976E+05        -0.60034E+08         0.00000E+00
    0.00000E+00         0.00000E+00        -0.30143E+08
 
   -0.30150E+08         0.63455E+05         0.00000E+00
    0.63455E+05        -0.60042E+08         0.00000E+00
    0.00000E+00         0.00000E+00        -0.30140E+08
 
   -0.30160E+08         0.53925E+05         0.00000E+00
    0.53925E+05        -0.60048E+08         0.00000E+00
    0.00000E+00         0.00000E+00        -0.30140E+08
 
   -0.30166E+08         0.42629E+05         0.00000E+00
    0.42629E+05        -0.60055E+08         0.00000E+00
    0.00000E+00         0.00000E+00        -0.30142E+08
 
   -0.30168E+08         0.30080E+05         0.00000E+00
    0.30080E+05        -0.60061E+08         0.00000E+00
    0.00000E+00         0.00000E+00        -0.30147E+08
 
   -0.30169E+08         0.16918E+05         0.00000E+00
    0.16918E+05        -0.60067E+08         0.00000E+00
    0.00000E+00         0.00000E+00        -0.30155E+08
 
   -0.30169E+08         0.36126E+04         0.00000E+00
    0.36126E+04        -0.60074E+08         0.00000E+00
    0.00000E+00         0.00000E+00        -0.30164E+08
 
   -0.29952E+08         0.13609E+05         0.00000E+00
    0.13609E+05        -0.60000E+08         0.00000E+00
    0.00000E+00         0.00000E+00        -0.30286E+08
 
   -0.29976E+08         0.35952E+05         0.00000E+00
    0.35952E+05        -0.60001E+08         0.00000E+00
    0.00000E+00         0.00000E+00        -0.30262E+08
 
   -0.30002E+08         0.52823E+05         0.00000E+00
    0.52823E+05        -0.60002E+08         0.00000E+00
    0.00000E+00         0.00000E+00        -0.30238E+08
 
   -0.30029E+08         0.63899E+05         0.00000E+00
    0.63899E+05        -0.60007E+08         0.00000E+00
    0.00000E+00         0.00000E+00        -0.30216E+08
 
   -0.30056E+08         0.69722E+05         0.00000E+00
    0.69722E+05        -0.60014E+08         0.00000E+00
    0.00000E+00         0.00000E+00        -0.30198E+08
 
   -0.30082E+08         0.71497E+05         0.00000E+00
    0.71497E+05        -0.60022E+08         0.00000E+00
    0.00000E+00         0.00000E+00        -0.30184E+08
 
   -0.30105E+08         0.70388E+05         0.00000E+00
    0.70388E+05        -0.60033E+08         0.00000E+00
    0.00000E+00         0.00000E+00        -0.30173E+08
 
   -0.30126E+08         0.67152E+05         0.00000E+00
    0.67152E+05        -0.60043E+08         0.00000E+00
    0.00000E+00         0.00000E+00        -0.30166E+08
 
   -0.30144E+08         0.62168E+05         0.00000E+00
    0.62168E+05        -0.60053E+08         0.00000E+00
    0.00000E+00         0.00000E+00        -0.30162E+08
 
   -0.30158E+08         0.55511E+05         0.00000E+00
    0.55511E+05        -0.60063E+08         0.00000E+00
    0.00000E+00         0.00000E+00        -0.30160E+08
 
   -0.30170E+08         0.47005E+05         0.00000E+00
    0.47005E+05        -0.60071E+08         0.00000E+00
    0.00000E+00         0.00000E+00        -0.30159E+08
 
   -0.30177E+08         0.36469E+05         0.00000E+00
    0.36469E+05        -0.60078E+08         0.00000E+00
    0.00000E+00         0.00000E+00        -0.30160E+08
 
   -0.30181E+08         0.24075E+05         0.00000E+00
    0.24075E+05        -0.60083E+08         0.00000E+00
    0.00000E+00         0.00000E+00        -0.30164E+08
 
   -0.30183E+08         0.10508E+05         0.00000E+00
    0.10508E+05        -0.60089E+08         0.00000E+00
    0.00000E+00         0.00000E+00        -0.30170E+08
 
   -0.30183E+08        -0.34880E+04         0.00000E+00
   -0.34880E+04        -0.60096E+08         0.00000E+00
    0.00000E+00         0.00000E+00        -0.30178E+08
 
   -0.29927E+08         0.13486E+05         0.00000E+00
    0.13486E+05        -0.60000E+08         0.00000E+00
    0.00000E+00         0.00000E+00        -0.30311E+08
 
   -0.29957E+08         0.34453E+05         0.00000E+00
    0.34453E+05        -0.60001E+08         0.00000E+00
    0.00000E+00         0.00000E+00        -0.30282E+08
 
   -0.29989E+08         0.48706E+05         0.00000E+00
    0.48706E+05        -0.60005E+08         0.00000E+00
    0.00000E+00         0.00000E+00        -0.30255E+08
 
   -0.30022E+08         0.56561E+05         0.00000E+00
    0.56561E+05        -0.60013E+08         0.00000E+00
    0.00000E+00         0.00000E+00        -0.30232E+08
 
   -0.30053E+08         0.59758E+05         0.00000E+00
    0.59758E+05        -0.60024E+08         0.00000E+00
    0.00000E+00         0.00000E+00        -0.30214E+08
 
   -0.30082E+08         0.60039E+05         0.00000E+00
    0.60039E+05        -0.60036E+08         0.00000E+00
    0.00000E+00         0.00000E+00        -0.30202E+08
 
   -0.30108E+08         0.58428E+05         0.00000E+00
    0.58428E+05        -0.60050E+08         0.00000E+00
    0.00000E+00         0.00000E+00        -0.30193E+08
 
   -0.30130E+08         0.55426E+05         0.00000E+00
    0.55426E+05        -0.60063E+08         0.00000E+00
    0.00000E+00         0.00000E+00        -0.30188E+08
 
   -0.30149E+08         0.51227E+05         0.00000E+00
    0.51227E+05        -0.60075E+08         0.00000E+00
    0.00000E+00         0.00000E+00        -0.30185E+08
 
   -0.30165E+08         0.45801E+05         0.00000E+00
    0.45801E+05        -0.60086E+08         0.00000E+00
    0.00000E+00         0.00000E+00        -0.30183E+08
 
   -0.30178E+08         0.38906E+05         0.00000E+00
    0.38906E+05        -0.60096E+08         0.00000E+00
    0.00000E+00         0.00000E+00        -0.30183E+08
 
   -0.30188E+08         0.30034E+05         0.00000E+00
    0.30034E+05        -0.60103E+08         0.00000E+00
    0.00000E+00         0.00000E+00        -0.30183E+08
 
   -0.30194E+08         0.18702E+05         0.00000E+00
    0.18702E+05        -0.60109E+08         0.00000E+00
    0.00000E+00         0.00000E+00        -0.30185E+08
 
   -0.30196E+08         0.51924E+04         0.00000E+00
    0.51924E+04        -0.60114E+08         0.00000E+00
    0.00000E+00         0.00000E+00        -0.30189E+08
 
   -0.30197E+08        -0.93803E+04         0.00000E+00
   -0.93803E+04        -0.60119E+08         0.00000E+00
    0.00000E+00         0.00000E+00        -0.30194E+08
 
   -0.29904E+08         0.13127E+05         0.00000E+00
    0.13127E+05        -0.60000E+08         0.00000E+00
    0.00000E+00         0.00000E+00        -0.30335E+08
 
   -0.29941E+08         0.31131E+05         0.00000E+00
    0.31131E+05        -0.60003E+08         0.00000E+00
    0.00000E+00         0.00000E+00        -0.30301E+08
 
   -0.29980E+08         0.40843E+05         0.00000E+00
    0.40843E+05        -0.60011E+08         0.00000E+00
    0.00000E+00         0.00000E+00        -0.30272E+08
 
   -0.30018E+08         0.44857E+05         0.00000E+00
    0.44857E+05        -0.60023E+08         0.00000E+00
    0.00000E+00         0.00000E+00        -0.30249E+08
 
   -0.30052E+08         0.45974E+05         0.00000E+00
    0.45974E+05        -0.60038E+08         0.00000E+00
    0.00000E+00         0.00000E+00        -0.30234E+08
 
   -0.30083E+08         0.45480E+05         0.00000E+00
    0.45480E+05        -0.60054E+08         0.00000E+00
    0.00000E+00         0.00000E+00        -0.30224E+08
 
   -0.30110E+08         0.43925E+05         0.00000E+00
    0.43925E+05        -0.60070E+08         0.00000E+00
    0.00000E+00         0.00000E+00        -0.30217E+08
 
   -0.30133E+08         0.41543E+05         0.00000E+00
    0.41543E+05        -0.60085E+08         0.00000E+00
    0.00000E+00         0.00000E+00        -0.30214E+08
 
   -0.30153E+08         0.38402E+05         0.00000E+00
    0.38402E+05        -0.60099E+08         0.00000E+00
    0.00000E+00         0.00000E+00        -0.30212E+08
 
   -0.30171E+08         0.34437E+05         0.00000E+00
    0.34437E+05        -0.60112E+08         0.00000E+00
    0.00000E+00         0.00000E+00        -0.30212E+08
 
   -0.30185E+08         0.29434E+05         0.00000E+00
    0.29434E+05        -0.60123E+08         0.00000E+00
    0.00000E+00         0.00000E+00        -0.30212E+08
 
   -0.30197E+08         0.22929E+05         0.00000E+00
    0.22929E+05        -0.60132E+08         0.00000E+00
    0.00000E+00         0.00000E+00        -0.30212E+08
 
   -0.30205E+08         0.14031E+05         0.00000E+00
    0.14031E+05        -0.60138E+08         0.00000E+00
    0.00000E+00         0.00000E+00        -0.30211E+08
 
   -0.30210E+08         0.17444E+04         0.00000E+00
    0.17444E+04        -0.60141E+08         0.00000E+00
    0.00000E+00         0.00000E+00        -0.30211E+08
 
   -0.30212E+08        -0.13147E+05         0.00000E+00
   -0.13147E+05        -0.60143E+08         0.00000E+00
    0.00000E+00         0.00000E+00        -0.30212E+08
 
   -0.29883E+08         0.11910E+05         0.00000E+00
    0.11910E+05        -0.60001E+08         0.00000E+00
    0.00000E+00         0.00000E+00        -0.30358E+08
 
   -0.29930E+08         0.23536E+05         0.00000E+00
    0.23536E+05        -0.60008E+08         0.00000E+00
    0.00000E+00         0.00000E+00        -0.30320E+08
 
   -0.29975E+08         0.27511E+05         0.00000E+00
    0.27511E+05        -0.60022E+08         0.00000E+00
    0.00000E+00         0.00000E+00        -0.30291E+08
 
   -0.30016E+08         0.28885E+05         0.00000E+00
    0.28885E+05        -0.60039E+08         0.00000E+00
    0.00000E+00         0.00000E+00        -0.30271E+08
 
   -0.30053E+08         0.29053E+05         0.00000E+00
    0.29053E+05        -0.60057E+08         0.00000E+00
    0.00000E+00         0.00000E+00        -0.30258E+08
 
   -0.30084E+08         0.28490E+05         0.00000E+00
    0.28490E+05        -0.60075E+08         0.00000E+00
    0.00000E+00         0.00000E+00        -0.30250E+08
 
   -0.30112E+08         0.27408E+05         0.00000E+00
    0.27408E+05        -0.60092E+08         0.00000E+00
    0.00000E+00         0.00000E+00        -0.30246E+08
 
   -0.30135E+08         0.25898E+05         0.00000E+00
    0.25898E+05        -0.60109E+08         0.00000E+00
    0.00000E+00         0.00000E+00        -0.30244E+08
 
   -0.30156E+08         0.23976E+05         0.00000E+00
    0.23976E+05        -0.60125E+08         0.00000E+00
    0.00000E+00         0.00000E+00        -0.30244E+08
 
   -0.30174E+08         0.21583E+05         0.00000E+00
    0.21583E+05        -0.60139E+08         0.00000E+00
    0.00000E+00         0.00000E+00        -0.30245E+08
 
   -0.30190E+08         0.18576E+05         0.00000E+00
    0.18576E+05        -0.60152E+08         0.00000E+00
    0.00000E+00         0.00000E+00        -0.30245E+08
 
   -0.30203E+08         0.14664E+05         0.00000E+00
    0.14664E+05        -0.60162E+08         0.00000E+00
    0.00000E+00         0.00000E+00        -0.30245E+08
 
   -0.30214E+08         0.92108E+04         0.00000E+00
    0.92108E+04        -0.60169E+08         0.00000E+00
    0.00000E+00         0.00000E+00        -0.30243E+08
 
   -0.30222E+08         0.70615E+03         0.00000E+00
    0.70615E+03        -0.60171E+08         0.00000E+00
    0.00000E+00         0.00000E+00        -0.30238E+08
 
   -0.30227E+08        -0.13304E+05         0.00000E+00
   -0.13304E+05        -0.60171E+08         0.00000E+00
    0.00000E+00         0.00000E+00        -0.30232E+08
 
   -0.29870E+08         0.60884E+04         0.00000E+00
    0.60884E+04        -0.60008E+08         0.00000E+00
    0.00000E+00         0.00000E+00        -0.30381E+08
 
   -0.29925E+08         0.85369E+04         0.00000E+00
    0.85369E+04        -0.60022E+08         0.00000E+00
    0.00000E+00         0.00000E+00        -0.30342E+08
 
   -0.29974E+08         0.96161E+04         0.00000E+00
    0.96161E+04        -0.60040E+08         0.00000E+00
    0.00000E+00         0.00000E+00        -0.30316E+08
 
   -0.30016E+08         0.99789E+04         0.00000E+00
    0.99789E+04        -0.60059E+08         0.00000E+00
    0.00000E+00         0.00000E+00        -0.30299E+08
 
   -0.30053E+08         0.99678E+04         0.00000E+00
    0.99678E+04        -0.60079E+08         0.00000E+00
    0.00000E+00         0.00000E+00        -0.30288E+08
 
   -0.30085E+08         0.97397E+04         0.00000E+00
    0.97397E+04        -0.60099E+08         0.00000E+00
    0.00000E+00         0.00000E+00        -0.30281E+08
 
   -0.30112E+08         0.93557E+04         0.00000E+00
    0.93557E+04        -0.60118E+08         0.00000E+00
    0.00000E+00         0.00000E+00        -0.30279E+08
 
   -0.30137E+08         0.88412E+04         0.00000E+00
    0.88412E+04        -0.60136E+08         0.00000E+00
    0.00000E+00         0.00000E+00        -0.30278E+08
 
   -0.30158E+08         0.81974E+04         0.00000E+00
    0.81974E+04        -0.60153E+08         0.00000E+00
    0.00000E+00         0.00000E+00        -0.30279E+08
 
   -0.30176E+08         0.74027E+04         0.00000E+00
    0.74027E+04        -0.60169E+08         0.00000E+00
    0.00000E+00         0.00000E+00        -0.30281E+08
 
   -0.30192E+08         0.64042E+04         0.00000E+00
    0.64042E+04        -0.60182E+08         0.00000E+00
    0.00000E+00         0.00000E+00        -0.30284E+08
 
   -0.30206E+08         0.50952E+04         0.00000E+00
    0.50952E+04        -0.60194E+08         0.00000E+00
    0.00000E+00         0.00000E+00        -0.30285E+08
 
   -0.30219E+08         0.32827E+04         0.00000E+00
    0.32827E+04        -0.60202E+08         0.00000E+00
    0.00000E+00         0.00000E+00        -0.30283E+08
 
   -0.30230E+08         0.40154E+03         0.00000E+00
    0.40154E+03        -0.60206E+08         0.00000E+00
    0.00000E+00         0.00000E+00        -0.30276E+08
 
   -0.30239E+08        -0.60407E+04         0.00000E+00
   -0.60407E+04        -0.60200E+08         0.00000E+00
    0.00000E+00         0.00000E+00        -0.30259E+08
 
SCALARS stressS double 
LOOKUP_TABLE default
  -40079049.0608097     
  -40078200.2409336     
  -40076896.2928439     
  -40075179.0655400     
  -40073088.5292417     
  -40070662.6584983     
  -40067936.5173843     
  -40064943.1435896     
  -40061714.0145551     
  -40058278.2413387     
  -40054662.6607728     
  -40050891.7802893     
  -40046987.7868867     
  -40042970.5546573     
  -40038857.6443326     
  -40079038.3721939     
  -40078179.7612780     
  -40076857.3709880     
  -40075116.2051597     
  -40072999.0507456     
  -40070546.2289249     
  -40067795.5438844     
  -40064781.5115496     
  -40061536.5388576     
  -40058091.0200390     
  -40054472.4546260     
  -40050705.7363045     
  -40046813.2003436     
  -40042814.7116493     
  -40038727.6800011     
  -40079016.9951490     
  -40078139.0676142     
  -40076780.2096331     
  -40074991.7075795     
  -40072822.0800561     
  -40070316.7899695     
  -40067517.7726155     
  -40064462.5003265     
  -40061186.8517196     
  -40057722.7447641     
  -40054099.0407159     
  -40050341.3791533     
  -40046472.4406475     
  -40042512.0956818     
  -40038477.4443221     
  -40078984.9598839     
  -40078078.7568609     
  -40076666.3309696     
  -40074808.2331413     
  -40072561.4569255     
  -40069978.8266573     
  -40067109.3030853     
  -40063995.2032269     
  -40060675.7466414     
  -40057185.9059629     
  -40053556.4153602     
  -40049814.1158674     
  -40045982.3003682     
  -40042080.8632811     
  -40038126.4025069     
  -40078942.3477106     
  -40077999.8990097     
  -40076518.1216066     
  -40074570.1534417     
  -40072224.2743612     
  -40069542.6673378     
  -40066582.5523248     
  -40063393.9051707     
  -40060019.9401935     
  -40056499.3880229     
  -40052865.5445632     
  -40049146.9730653     
  -40045367.8112809     
  -40041548.1032831     
  -40037703.7139765     
  -40078890.4278422     
  -40077903.6897351     
  -40076338.9252893     
  -40074283.8026280     
  -40071819.8416242     
  -40069021.7461588     
  -40065954.8072051     
  -40062678.2577473     
  -40059241.9802771     
  -40055688.4189606     
  -40052054.3873417     
  -40048370.5848769     
  -40044662.2676945     
  -40040949.6117086     
  -40037247.9092120     
  -40078826.8164962     
  -40077792.0246179     
  -40076133.6259592     
  -40073957.4869583     
  -40071360.6211951     
  -40068430.5040329     
  -40065245.0992098     
  -40061873.1602905     
  -40058369.9320759     
  -40054784.7112876     
  -40051158.0117806     
  -40047523.2379302     
  -40043907.1382336     
  -40040330.3537749     
  -40036807.3801164     
  -40078754.2254486     
  -40077667.6563226     
  -40075908.7767822     
  -40073602.4654390     
  -40070862.7179600     
  -40067791.9955584     
  -40064480.7211077     
  -40061008.0243708     
  -40057438.3628787     
  -40053826.8093167     
  -40050218.6986694     
  -40046650.8109845     
  -40043152.1425657     
  -40039744.0152184     
  -40036440.0783226     
  -40078674.1729026     
  -40077535.8348743     
  -40075673.7708583     
  -40073233.5603886     
  -40070347.0955586     
  -40067132.6627716     
  -40063694.0009889     
  -40060120.4435135     
  -40056488.7500310     
  -40052860.2591707     
  -40049285.7291461     
  -40045806.8728409     
  -40042455.3655458     
  -40039253.4941908     
  -40036214.0091622     
  -40078588.2311276     
  -40077401.6334196     
  -40075440.0314095     
  -40072868.7724754     
  -40069838.7443800     
  -40066483.6002587     
  -40062921.5531397     
  -40059253.8335630     
  -40055569.1555792     
  -40051936.4241008     
  -40048415.6707788     
  -40045053.0096457     
  -40041883.6569688     
  -40038931.2925041     
  -40036207.5929493     
  -40078499.0266536     
  -40077271.6824311     
  -40075220.6514244     
  -40072529.4851385     
  -40069366.0655918     
  -40065880.6834902     
  -40062205.2027525     
  -40058455.1506130     
  -40054730.5699764     
  -40051114.2805873     
  -40047672.8237707     
  -40044459.1679539     
  -40041513.2631114     
  -40038860.1958296     
  -40036510.3488192     
  -40078410.1361432     
  -40077153.6815299     
  -40075030.7771513     
  -40072239.2886334     
  -40068961.7669438     
  -40065363.9359548     
  -40061593.1577917     
  -40057780.3002812     
  -40054036.2351770     
  -40050460.2837290     
  -40047128.8796870     
  -40044104.5886221     
  -40041430.7939324     
  -40039134.1562720     
  -40037223.3248970     
  -40078325.9448984     
  -40077056.7024706     
  -40074886.7726723     
  -40072023.3988923     
  -40068660.3568049     
  -40064976.7468439     
  -40061135.7140828     
  -40057282.8803529     
  -40053549.5069507     
  -40050045.8804104     
  -40046865.5611110     
  -40044078.7818839     
  -40041734.2768505     
  -40039859.2464150     
  -40038459.1655086     
  -40078251.6127664     
  -40076990.2361932     
  -40074805.8584494     
  -40071907.9453578     
  -40068496.7078352     
  -40064762.6257852     
  -40060884.9698083     
  -40057028.4451445     
  -40053341.6453932     
  -40049955.0968837     
  -40046975.0588583     
  -40044483.1609092     
  -40042534.6042730     
  -40041153.5809141     
  -40040341.6518979     
  -40078192.7150639     
  -40076963.4130287     
  -40074804.0181867     
  -40071917.5094730     
  -40068505.1860814     
  -40064766.3103822     
  -40060895.8022060     
  -40057080.3205370     
  -40053490.1158254     
  -40050275.6373203     
  -40047561.0043208     
  -40045435.2308426     
  -40043955.5660125     
  -40043147.5945925     
  -40043003.6445247     
  -40078154.7781712     
  -40076983.6296343     
  -40074893.6648906     
  -40072072.4139420     
  -40068716.3992958     
  -40065030.9186684     
  -40061226.3741335     
  -40057510.9153872     
  -40054081.4171067     
  -40051110.5165649     
  -40048738.1437967     
  -40047063.6344973     
  -40046138.8805724     
  -40045981.2633008     
  -40046581.0165189     
  -40078142.5163154     
  -40077055.1301109     
  -40075080.9996048     
  -40072385.4110959     
  -40069154.7819480     
  -40065596.6403445     
  -40061935.5517173     
  -40058402.9204244     
  -40055221.0599789     
  -40052585.6241343     
  -40050649.4802236     
  -40049515.3853503     
  -40049233.0183671     
  -40049804.6274001     
  -40051206.6807553     
  -40078159.6802462     
  -40077176.8383271     
  -40075363.9851674     
  -40072859.8373219     
  -40069836.4135498     
  -40066499.8988152     
  -40063086.1654368     
  -40059847.6059886     
  -40057030.4046091     
  -40054848.5212836     
  -40053462.5543300     
  -40052969.1354937     
  -40053406.9011101     
  -40054766.4059160     
  -40057012.6386971     
  -40078204.6093947     
  -40077343.1230626     
  -40075732.8670910     
  -40073488.8332990     
  -40070769.0495202     
  -40067774.3738263     
  -40064747.6433234     
  -40061954.8942635     
  -40059656.6992573     
  -40058074.3011817     
  -40057364.1840642     
  -40057610.2351904     
  -40058832.7916814     
  -40061011.6436849     
  -40064108.6081156     
  -40078287.8956954     
  -40077544.5204254     
  -40076169.6133282     
  -40074259.4008488     
  -40071954.4355485     
  -40069455.8680449     
  -40067003.9036930     
  -40064862.2883104     
  -40063283.1621452     
  -40062472.6900607     
  -40062567.8974129     
  -40063633.2790586     
  -40065675.7086270     
  -40068668.7133619     
  -40072575.5545609     
  -40078379.7088161     
  -40077775.2346146     
  -40076664.3279149     
  -40075153.8164993     
  -40073399.7808306     
  -40071593.3224935     
  -40069966.2916175     
  -40068747.2104266     
  -40068136.8885098     
  -40068289.5705632     
  -40069305.7511718     
  -40071234.2399621     
  -40074082.0827690     
  -40077832.1412997     
  -40082461.9577326     
  -40078511.9817067     
  -40078027.6368751     
  -40077209.4863576     
  -40076183.7530612     
  -40075132.9101593     
  -40074273.3188540     
  -40073793.9812894     
  -40073837.8019700     
  -40074487.6656872     
  -40075796.2815958     
  -40077815.0231896     
  -40080594.3857828     
  -40084170.7586728     
  -40088559.8055663     
  -40093768.6408181     
  -40078670.2481645     
  -40078315.7287235     
  -40077824.1924486     
  -40077387.7023956     
  -40077256.7691723     
  -40077660.6511933     
  -40078721.8919448     
  -40080413.5767840     
  -40082624.4714320     
  -40085260.9724505     
  -40088316.1570886     
  -40091869.9411975     
  -40096029.3425848     
  -40100877.8341169     
  -40106464.1712237     
  -40078854.6122581     
  -40078630.0807857     
  -40078540.0728868     
  -40078882.5866648     
  -40079988.2318721     
  -40082069.4824225     
  -40085087.6297338     
  -40088778.7408366     
  -40092802.8314609     
  -40096896.8695864     
  -40100986.7305466     
  -40105188.5767138     
  -40109721.5351174     
  -40114782.4655673     
  -40120488.2952086     
  -40079062.1507536     
  -40078987.2309952     
  -40079435.8651766     
  -40080887.8352493     
  -40083728.9650629     
  -40087986.2305985     
  -40093320.4001347     
  -40099215.1817101     
  -40105166.7030463     
  -40110798.5581608     
  -40115928.0144724     
  -40120653.3615006     
  -40125309.2989377     
  -40130267.8175503     
  -40135769.0433722     
  -40079289.8770737     
  -40079428.3188992     
  -40080728.8757010     
  -40083888.9882064     
  -40089128.2353174     
  -40096008.7904209     
  -40103815.0250438     
  -40111894.8378471     
  -40119724.2471792     
  -40126888.3105991     
  -40133111.0512499     
  -40138340.4439880     
  -40142889.8595045     
  -40147366.2904547     
  -40152244.6871783     
  -40079531.2599367     
  -40080103.0334922     
  -40082968.9778631     
  -40088805.5174145     
  -40097044.4228204     
  -40106657.6267732     
  -40116789.0342924     
  -40126828.5220605     
  -40136335.5653143     
  -40144951.5677520     
  -40152334.8060264     
  -40158215.7426099     
  -40162641.3458544     
  -40166212.5762658     
  -40169921.4359018     
  -40079846.8582582     
  -40081544.0253612     
  -40087494.3984073     
  -40096891.9085413     
  -40108152.1820313     
  -40120151.7514704     
  -40132212.8887483     
  -40143884.7193704     
  -40154823.4552963     
  -40164723.9268600     
  -40173267.4180452     
  -40180054.2757211     
  -40184644.3806262     
  -40187240.7527359     
  -40188911.3569541     
  -40080514.2618841     
  -40085936.6696380     
  -40096245.2599254     
  -40108947.8725742     
  -40122561.8274469     
  -40136360.3807032     
  -40149897.5569914     
  -40162859.4939951     
  -40174983.9636856     
  -40186011.3122147     
  -40195638.2543524     
  -40203454.5141908     
  -40208824.8442811     
  -40210672.8812976     
  -40210077.1674837     
  -40086380.2160638     
  -40096461.7061296     
  -40110024.7026893     
  -40124807.4356296     
  -40139959.3868969     
  -40154998.8405370     
  -40169613.8928237     
  -40183567.7780844     
  -40196652.4638494     
  -40208650.2781383     
  -40219290.7236562     
  -40228184.9779093     
  -40234684.5490563     
  -40237534.7262783     
  -40232751.6940591     
SCALARS 2waySource double 
LOOKUP_TABLE default
  0.000000000000000E+000
  0.000000000000000E+000
  0.000000000000000E+000
  0.000000000000000E+000
  0.000000000000000E+000
  0.000000000000000E+000
  0.000000000000000E+000
  0.000000000000000E+000
  0.000000000000000E+000
  0.000000000000000E+000
  0.000000000000000E+000
  0.000000000000000E+000
  0.000000000000000E+000
  0.000000000000000E+000
  0.000000000000000E+000
  0.000000000000000E+000
  0.000000000000000E+000
  0.000000000000000E+000
  0.000000000000000E+000
  0.000000000000000E+000
  0.000000000000000E+000
  0.000000000000000E+000
  0.000000000000000E+000
  0.000000000000000E+000
  0.000000000000000E+000
  0.000000000000000E+000
  0.000000000000000E+000
  0.000000000000000E+000
  0.000000000000000E+000
  0.000000000000000E+000
  0.000000000000000E+000
  0.000000000000000E+000
  0.000000000000000E+000
  0.000000000000000E+000
  0.000000000000000E+000
  0.000000000000000E+000
  0.000000000000000E+000
  0.000000000000000E+000
  0.000000000000000E+000
  0.000000000000000E+000
  0.000000000000000E+000
  0.000000000000000E+000
  0.000000000000000E+000
  0.000000000000000E+000
  0.000000000000000E+000
  0.000000000000000E+000
  0.000000000000000E+000
  0.000000000000000E+000
  0.000000000000000E+000
  0.000000000000000E+000
  0.000000000000000E+000
  0.000000000000000E+000
  0.000000000000000E+000
  0.000000000000000E+000
  0.000000000000000E+000
  0.000000000000000E+000
  0.000000000000000E+000
  0.000000000000000E+000
  0.000000000000000E+000
  0.000000000000000E+000
  0.000000000000000E+000
  0.000000000000000E+000
  0.000000000000000E+000
  0.000000000000000E+000
  0.000000000000000E+000
  0.000000000000000E+000
  0.000000000000000E+000
  0.000000000000000E+000
  0.000000000000000E+000
  0.000000000000000E+000
  0.000000000000000E+000
  0.000000000000000E+000
  0.000000000000000E+000
  0.000000000000000E+000
  0.000000000000000E+000
  0.000000000000000E+000
  0.000000000000000E+000
  0.000000000000000E+000
  0.000000000000000E+000
  0.000000000000000E+000
  0.000000000000000E+000
  0.000000000000000E+000
  0.000000000000000E+000
  0.000000000000000E+000
  0.000000000000000E+000
  0.000000000000000E+000
  0.000000000000000E+000
  0.000000000000000E+000
  0.000000000000000E+000
  0.000000000000000E+000
  0.000000000000000E+000
  0.000000000000000E+000
  0.000000000000000E+000
  0.000000000000000E+000
  0.000000000000000E+000
  0.000000000000000E+000
  0.000000000000000E+000
  0.000000000000000E+000
  0.000000000000000E+000
  0.000000000000000E+000
  0.000000000000000E+000
  0.000000000000000E+000
  0.000000000000000E+000
  0.000000000000000E+000
  0.000000000000000E+000
  0.000000000000000E+000
  0.000000000000000E+000
  0.000000000000000E+000
  0.000000000000000E+000
  0.000000000000000E+000
  0.000000000000000E+000
  0.000000000000000E+000
  0.000000000000000E+000
  0.000000000000000E+000
  0.000000000000000E+000
  0.000000000000000E+000
  0.000000000000000E+000
  0.000000000000000E+000
  0.000000000000000E+000
  0.000000000000000E+000
  0.000000000000000E+000
  0.000000000000000E+000
  0.000000000000000E+000
  0.000000000000000E+000
  0.000000000000000E+000
  0.000000000000000E+000
  0.000000000000000E+000
  0.000000000000000E+000
  0.000000000000000E+000
  0.000000000000000E+000
  0.000000000000000E+000
  0.000000000000000E+000
  0.000000000000000E+000
  0.000000000000000E+000
  0.000000000000000E+000
  0.000000000000000E+000
  0.000000000000000E+000
  0.000000000000000E+000
  0.000000000000000E+000
  0.000000000000000E+000
  0.000000000000000E+000
  0.000000000000000E+000
  0.000000000000000E+000
  0.000000000000000E+000
  0.000000000000000E+000
  0.000000000000000E+000
  0.000000000000000E+000
  0.000000000000000E+000
  0.000000000000000E+000
  0.000000000000000E+000
  0.000000000000000E+000
  0.000000000000000E+000
  0.000000000000000E+000
  0.000000000000000E+000
  0.000000000000000E+000
  0.000000000000000E+000
  0.000000000000000E+000
  0.000000000000000E+000
  0.000000000000000E+000
  0.000000000000000E+000
  0.000000000000000E+000
  0.000000000000000E+000
  0.000000000000000E+000
  0.000000000000000E+000
  0.000000000000000E+000
  0.000000000000000E+000
  0.000000000000000E+000
  0.000000000000000E+000
  0.000000000000000E+000
  0.000000000000000E+000
  0.000000000000000E+000
  0.000000000000000E+000
  0.000000000000000E+000
  0.000000000000000E+000
  0.000000000000000E+000
  0.000000000000000E+000
  0.000000000000000E+000
  0.000000000000000E+000
  0.000000000000000E+000
  0.000000000000000E+000
  0.000000000000000E+000
  0.000000000000000E+000
  0.000000000000000E+000
  0.000000000000000E+000
  0.000000000000000E+000
  0.000000000000000E+000
  0.000000000000000E+000
  0.000000000000000E+000
  0.000000000000000E+000
  0.000000000000000E+000
  0.000000000000000E+000
  0.000000000000000E+000
  0.000000000000000E+000
  0.000000000000000E+000
  0.000000000000000E+000
  0.000000000000000E+000
  0.000000000000000E+000
  0.000000000000000E+000
  0.000000000000000E+000
  0.000000000000000E+000
  0.000000000000000E+000
  0.000000000000000E+000
  0.000000000000000E+000
  0.000000000000000E+000
  0.000000000000000E+000
  0.000000000000000E+000
  0.000000000000000E+000
  0.000000000000000E+000
  0.000000000000000E+000
  0.000000000000000E+000
  0.000000000000000E+000
  0.000000000000000E+000
  0.000000000000000E+000
  0.000000000000000E+000
  0.000000000000000E+000
  0.000000000000000E+000
  0.000000000000000E+000
  0.000000000000000E+000
  0.000000000000000E+000
  0.000000000000000E+000
  0.000000000000000E+000
  0.000000000000000E+000
  0.000000000000000E+000
  0.000000000000000E+000
  0.000000000000000E+000
  0.000000000000000E+000
  0.000000000000000E+000
  0.000000000000000E+000
  0.000000000000000E+000
  0.000000000000000E+000
  0.000000000000000E+000
  0.000000000000000E+000
  0.000000000000000E+000
  0.000000000000000E+000
  0.000000000000000E+000
  0.000000000000000E+000
  0.000000000000000E+000
  0.000000000000000E+000
  0.000000000000000E+000
  0.000000000000000E+000
  0.000000000000000E+000
  0.000000000000000E+000
  0.000000000000000E+000
  0.000000000000000E+000
  0.000000000000000E+000
  0.000000000000000E+000
  0.000000000000000E+000
  0.000000000000000E+000
  0.000000000000000E+000
  0.000000000000000E+000
  0.000000000000000E+000
  0.000000000000000E+000
  0.000000000000000E+000
  0.000000000000000E+000
  0.000000000000000E+000
  0.000000000000000E+000
  0.000000000000000E+000
  0.000000000000000E+000
  0.000000000000000E+000
  0.000000000000000E+000
  0.000000000000000E+000
  0.000000000000000E+000
  0.000000000000000E+000
  0.000000000000000E+000
  0.000000000000000E+000
  0.000000000000000E+000
  0.000000000000000E+000
  0.000000000000000E+000
  0.000000000000000E+000
  0.000000000000000E+000
  0.000000000000000E+000
  0.000000000000000E+000
  0.000000000000000E+000
  0.000000000000000E+000
  0.000000000000000E+000
  0.000000000000000E+000
  0.000000000000000E+000
  0.000000000000000E+000
  0.000000000000000E+000
  0.000000000000000E+000
  0.000000000000000E+000
  0.000000000000000E+000
  0.000000000000000E+000
  0.000000000000000E+000
  0.000000000000000E+000
  0.000000000000000E+000
  0.000000000000000E+000
  0.000000000000000E+000
  0.000000000000000E+000
  0.000000000000000E+000
  0.000000000000000E+000
  0.000000000000000E+000
  0.000000000000000E+000
  0.000000000000000E+000
  0.000000000000000E+000
  0.000000000000000E+000
  0.000000000000000E+000
  0.000000000000000E+000
  0.000000000000000E+000
  0.000000000000000E+000
  0.000000000000000E+000
  0.000000000000000E+000
  0.000000000000000E+000
  0.000000000000000E+000
  0.000000000000000E+000
  0.000000000000000E+000
  0.000000000000000E+000
  0.000000000000000E+000
  0.000000000000000E+000
  0.000000000000000E+000
  0.000000000000000E+000
  0.000000000000000E+000
  0.000000000000000E+000
  0.000000000000000E+000
  0.000000000000000E+000
  0.000000000000000E+000
  0.000000000000000E+000
  0.000000000000000E+000
  0.000000000000000E+000
  0.000000000000000E+000
  0.000000000000000E+000
  0.000000000000000E+000
  0.000000000000000E+000
  0.000000000000000E+000
  0.000000000000000E+000
  0.000000000000000E+000
  0.000000000000000E+000
  0.000000000000000E+000
  0.000000000000000E+000
  0.000000000000000E+000
  0.000000000000000E+000
  0.000000000000000E+000
  0.000000000000000E+000
  0.000000000000000E+000
  0.000000000000000E+000
  0.000000000000000E+000
  0.000000000000000E+000
  0.000000000000000E+000
  0.000000000000000E+000
  0.000000000000000E+000
  0.000000000000000E+000
  0.000000000000000E+000
  0.000000000000000E+000
  0.000000000000000E+000
  0.000000000000000E+000
  0.000000000000000E+000
  0.000000000000000E+000
  0.000000000000000E+000
  0.000000000000000E+000
  0.000000000000000E+000
  0.000000000000000E+000
  0.000000000000000E+000
  0.000000000000000E+000
  0.000000000000000E+000
  0.000000000000000E+000
  0.000000000000000E+000
  0.000000000000000E+000
  0.000000000000000E+000
  0.000000000000000E+000
  0.000000000000000E+000
  0.000000000000000E+000
  0.000000000000000E+000
  0.000000000000000E+000
  0.000000000000000E+000
  0.000000000000000E+000
  0.000000000000000E+000
  0.000000000000000E+000
  0.000000000000000E+000
  0.000000000000000E+000
  0.000000000000000E+000
  0.000000000000000E+000
  0.000000000000000E+000
  0.000000000000000E+000
  0.000000000000000E+000
  0.000000000000000E+000
  0.000000000000000E+000
  0.000000000000000E+000
  0.000000000000000E+000
  0.000000000000000E+000
  0.000000000000000E+000
  0.000000000000000E+000
  0.000000000000000E+000
  0.000000000000000E+000
  0.000000000000000E+000
  0.000000000000000E+000
  0.000000000000000E+000
  0.000000000000000E+000
  0.000000000000000E+000
  0.000000000000000E+000
  0.000000000000000E+000
  0.000000000000000E+000
  0.000000000000000E+000
  0.000000000000000E+000
  0.000000000000000E+000
  0.000000000000000E+000
  0.000000000000000E+000
  0.000000000000000E+000
  0.000000000000000E+000
  0.000000000000000E+000
  0.000000000000000E+000
  0.000000000000000E+000
  0.000000000000000E+000
  0.000000000000000E+000
  0.000000000000000E+000
  0.000000000000000E+000
  0.000000000000000E+000
  0.000000000000000E+000
  0.000000000000000E+000
  0.000000000000000E+000
  0.000000000000000E+000
  0.000000000000000E+000
  0.000000000000000E+000
  0.000000000000000E+000
  0.000000000000000E+000
  0.000000000000000E+000
  0.000000000000000E+000
  0.000000000000000E+000
  0.000000000000000E+000
  0.000000000000000E+000
  0.000000000000000E+000
  0.000000000000000E+000
  0.000000000000000E+000
  0.000000000000000E+000
  0.000000000000000E+000
  0.000000000000000E+000
  0.000000000000000E+000
  0.000000000000000E+000
  0.000000000000000E+000
  0.000000000000000E+000
  0.000000000000000E+000
  0.000000000000000E+000
  0.000000000000000E+000
  0.000000000000000E+000
  0.000000000000000E+000
  0.000000000000000E+000
  0.000000000000000E+000
  0.000000000000000E+000
  0.000000000000000E+000
  0.000000000000000E+000
  0.000000000000000E+000
  0.000000000000000E+000
  0.000000000000000E+000
  0.000000000000000E+000
  0.000000000000000E+000
  0.000000000000000E+000
  0.000000000000000E+000
  0.000000000000000E+000
  0.000000000000000E+000
  0.000000000000000E+000
  0.000000000000000E+000
SCALARS poroP double 
LOOKUP_TABLE default
  1.818460643396455E-005
  1.819045530308138E-005
  1.819103849046738E-005
  1.818636858955144E-005
  1.817645342672933E-005
  1.816130540113616E-005
  1.814093057089524E-005
  1.811535547524038E-005
  1.808465982367657E-005
  1.804896050030860E-005
  1.800841438266173E-005
  1.796322461681935E-005
  1.791364760792881E-005
  1.786000047177863E-005
  1.780266660998337E-005
  1.818270332415167E-005
  1.818857165091628E-005
  1.818917570475458E-005
  1.818453302964258E-005
  1.817465612178870E-005
  1.815956360786570E-005
  1.813927146563750E-005
  1.811380785288855E-005
  1.808324870510260E-005
  1.804771060588845E-005
  1.800734862702364E-005
  1.796236234065930E-005
  1.791300349636546E-005
  1.785958383855355E-005
  1.780248114429217E-005
  1.817886190944997E-005
  1.818476969656527E-005
  1.818541766769362E-005
  1.818083331671826E-005
  1.817103858904927E-005
  1.815606212142504E-005
  1.813594080051088E-005
  1.811070507988943E-005
  1.808042313376463E-005
  1.804521247279755E-005
  1.800522289790270E-005
  1.796064652600862E-005
  1.791172583971237E-005
  1.785876211738871E-005
  1.780212197429786E-005
  1.817301181039072E-005
  1.817898048968388E-005
  1.817970027314415E-005
  1.817521249307352E-005
  1.816555454589800E-005
  1.815077228769912E-005
  1.813091753376488E-005
  1.810603033558492E-005
  1.807617792248251E-005
  1.804147042234603E-005
  1.800204904458583E-005
  1.795809444647835E-005
  1.790983544229466E-005
  1.785755782104129E-005
  1.780161228882850E-005
  1.816504722172780E-005
  1.817110155889103E-005
  1.817192884522195E-005
  1.816758779668157E-005
  1.815813593287149E-005
  1.814363624876586E-005
  1.812416012162705E-005
  1.809976371826833E-005
  1.807050832429072E-005
  1.803649227861299E-005
  1.799784475963805E-005
  1.795473115667159E-005
  1.790736243052697E-005
  1.785600419186154E-005
  1.780098686513115E-005
  1.815483323733807E-005
  1.816099699718138E-005
  1.816197714818233E-005
  1.815784943419774E-005
  1.814869333652889E-005
  1.813458398632377E-005
  1.811562028704199E-005
  1.809188098430330E-005
  1.806340937257077E-005
  1.803028827972062E-005
  1.799263262834526E-005
  1.795058868452737E-005
  1.790434527560572E-005
  1.785414456395212E-005
  1.780029197953900E-005
  1.814221710095378E-005
  1.814850376680005E-005
  1.814968986825679E-005
  1.814586261025647E-005
  1.813711642479531E-005
  1.812354601107864E-005
  1.810525825767288E-005
  1.808235425022593E-005
  1.805487386992905E-005
  1.802286967033601E-005
  1.798643923357099E-005
  1.794570491511295E-005
  1.790082990666802E-005
  1.785203003878537E-005
  1.779958322761442E-005
  1.812699064572300E-005
  1.813343807386140E-005
  1.813489366774113E-005
  1.813147512645938E-005
  1.812328548277827E-005
  1.811043106769393E-005
  1.809301841468468E-005
  1.807115758872735E-005
  1.804489351513459E-005
  1.801424969944621E-005
  1.797929411149857E-005
  1.794012137435847E-005
  1.789686698298953E-005
  1.784971896277814E-005
  1.779892681346819E-005
  1.810891341964160E-005
  1.811557907900870E-005
  1.811740163630622E-005
  1.811452495831118E-005
  1.810707141851204E-005
  1.809514373726702E-005
  1.807883639202653E-005
  1.805825619355196E-005
  1.803346107900453E-005
  1.800444222040677E-005
  1.797122597151444E-005
  1.793387943772869E-005
  1.789250937284490E-005
  1.784727521151389E-005
  1.779839871527237E-005
  1.808773721378630E-005
  1.809468413043521E-005
  1.809700804143804E-005
  1.809484625713804E-005
  1.808833853968850E-005
  1.807758378283397E-005
  1.806265019980797E-005
  1.804362076248724E-005
  1.802056575052017E-005
  1.799345231704221E-005
  1.796225603782252E-005
  1.792701623016967E-005
  1.788780914792131E-005
  1.784476671710721E-005
  1.779808472151020E-005
  1.806321916929621E-005
  1.807051474643454E-005
  1.807349577192510E-005
  1.807226765619242E-005
  1.806695367074560E-005
  1.805764921761789E-005
  1.804439665523121E-005
  1.802722503989881E-005
  1.800618860115319E-005
  1.798126915233019E-005
  1.795239460067743E-005
  1.791955953964753E-005
  1.788281389756275E-005
  1.784226376436750E-005
  1.779808050411262E-005
  1.803514066706709E-005
  1.804285748055432E-005
  1.804666436550128E-005
  1.804661692934157E-005
  1.804278702961004E-005
  1.803523880749026E-005
  1.802399024152481E-005
  1.800900695070264E-005
  1.799029434347207E-005
  1.796786739272712E-005
  1.794163083380134E-005
  1.791152104984928E-005
  1.787756339490926E-005
  1.783983760325852E-005
  1.779849140181766E-005
  1.800333686710224E-005
  1.801154436308119E-005
  1.801635354917719E-005
  1.801774167587109E-005
  1.801570704664992E-005
  1.801024331782840E-005
  1.800132530753551E-005
  1.798888538350743E-005
  1.797284555399826E-005
  1.795320353763047E-005
  1.792992205971038E-005
  1.790289124878338E-005
  1.787208587414110E-005
  1.783755962671286E-005
  1.779943207124574E-005
  1.796773274836867E-005
  1.797648293370167E-005
  1.798245977977555E-005
  1.798552710463940E-005
  1.798558493869062E-005
  1.798253654742933E-005
  1.797628157248552E-005
  1.796671656861318E-005
  1.795372008279398E-005
  1.793721248461078E-005
  1.791720438688995E-005
  1.789363159506095E-005
  1.786639508839993E-005
  1.783549974123465E-005
  1.780102600663111E-005
  1.792838340934915E-005
  1.793768915791990E-005
  1.794495831512875E-005
  1.794990748302203E-005
  1.795230978094904E-005
  1.795196499843146E-005
  1.794868975788797E-005
  1.794231985911829E-005
  1.793271661712964E-005
  1.791976387692432E-005
  1.790341312824630E-005
  1.788368093390751E-005
  1.786048568444747E-005
  1.783372347317139E-005
  1.780340282161171E-005
  1.788551441779712E-005
  1.789532001748676E-005
  1.790392590909994E-005
  1.791087546375413E-005
  1.791579323736701E-005
  1.791836258680308E-005
  1.791831784739469E-005
  1.791544400790475E-005
  1.790957701494588E-005
  1.790059694166721E-005
  1.788841567596858E-005
  1.787300325920964E-005
  1.785434525383927E-005
  1.783229235877399E-005
  1.780668860531124E-005
  1.783955501849247E-005
  1.784970174929488E-005
  1.785956029852048E-005
  1.786849271334505E-005
  1.787596790760521E-005
  1.788155013052225E-005
  1.788489714492800E-005
  1.788575719814449E-005
  1.788395712992462E-005
  1.787937955720676E-005
  1.787193045671882E-005
  1.786150255095214E-005
  1.784799669837244E-005
  1.783126014233623E-005
  1.781100137799681E-005
  1.779115818124228E-005
  1.780134478317536E-005
  1.781219529337292E-005
  1.782290335202874E-005
  1.783279482758479E-005
  1.784133061583983E-005
  1.784811046969966E-005
  1.785286897251414E-005
  1.785544633839153E-005
  1.785573645284572E-005
  1.785362402846196E-005
  1.784893042560419E-005
  1.784138640451653E-005
  1.783069205323138E-005
  1.781644520291034E-005
  1.774117937475016E-005
  1.775094418890891E-005
  1.776231398977988E-005
  1.777434751530334E-005
  1.778627832756694E-005
  1.779750037274024E-005
  1.780759690635876E-005
  1.781632861045924E-005
  1.782357483159601E-005
  1.782924022247364E-005
  1.783315780218742E-005
  1.783502076589298E-005
  1.783436065406745E-005
  1.783060043642710E-005
  1.782311010187385E-005
  1.769077802654847E-005
  1.769938332702031E-005
  1.771053145066088E-005
  1.772317191382605E-005
  1.773648523100555E-005
  1.774987573769609E-005
  1.776298471303770E-005
  1.777565826033154E-005
  1.778784136613134E-005
  1.779943095302381E-005
  1.781015172091354E-005
  1.781949294638921E-005
  1.782671089322772E-005
  1.783088203744026E-005
  1.783101229363141E-005
  1.764132564375432E-005
  1.764780106714797E-005
  1.765762111548205E-005
  1.766982363433368E-005
  1.768356699450361E-005
  1.769833935970806E-005
  1.771395506265295E-005
  1.773042763137276E-005
  1.774777921784681E-005
  1.776585143428257E-005
  1.778418223268762E-005
  1.780197598386832E-005
  1.781813623020946E-005
  1.783132231892879E-005
  1.784007056858639E-005
  1.759369152107852E-005
  1.759725941471535E-005
  1.760457871229043E-005
  1.761492689396491E-005
  1.762779204052067E-005
  1.764290960621522E-005
  1.766035676318649E-005
  1.768038001686035E-005
  1.770305512328051E-005
  1.772809084478935E-005
  1.775476805380764E-005
  1.778195640611228E-005
  1.780816079383831E-005
  1.783156622771119E-005
  1.785011175312133E-005
  1.754870767452670E-005
  1.754839316204388E-005
  1.755210381310551E-005
  1.755923901147909E-005
  1.756968595569227E-005
  1.758387750169350E-005
  1.760238894742550E-005
  1.762561649930474E-005
  1.765359216563952E-005
  1.768582975288093E-005
  1.772135033855617E-005
  1.775872318193540E-005
  1.779606648376379E-005
  1.783103366117143E-005
  1.786082962627328E-005
  1.750716183612787E-005
  1.750175406085097E-005
  1.750051144572913E-005
  1.750310025557168E-005
  1.750992424680058E-005
  1.752210667230581E-005
  1.754087482744983E-005
  1.756679855715188E-005
  1.759969429830413E-005
  1.763889095124199E-005
  1.768329272543513E-005
  1.773132647444950E-005
  1.778081815669202E-005
  1.782886922217033E-005
  1.787178618675723E-005
  1.746955756582199E-005
  1.745762883898471E-005
  1.744992354251629E-005
  1.744665734418830E-005
  1.744911580030821E-005
  1.745900332046173E-005
  1.747756339796623E-005
  1.750532904355400E-005
  1.754213408810052E-005
  1.758732971350758E-005
  1.763996008784904E-005
  1.769859862937679E-005
  1.776102749628586E-005
  1.782386965486309E-005
  1.788236751260495E-005
  1.743601457790102E-005
  1.741579799598203E-005
  1.740010480788776E-005
  1.739022425259216E-005
  1.738843657710796E-005
  1.739641648505866E-005
  1.741471474842091E-005
  1.744334064261411E-005
  1.748232432527027E-005
  1.753164308352327E-005
  1.759093180873347E-005
  1.765931182206709E-005
  1.773495931929179E-005
  1.781440435386574E-005
  1.789175093389804E-005
  1.740609987390930E-005
  1.737542604983591E-005
  1.735071522606840E-005
  1.733484550679810E-005
  1.733003094505924E-005
  1.733669125184073E-005
  1.735441825444066E-005
  1.738291679839055E-005
  1.742232803860393E-005
  1.747325472770654E-005
  1.753650185025564E-005
  1.761250502095453E-005
  1.770067533523262E-005
  1.779827684238238E-005
  1.789882998526969E-005
  1.737862644930196E-005
  1.733532063603090E-005
  1.730266254996883E-005
  1.728302278975528E-005
  1.727643650941123E-005
  1.728183395625905E-005
  1.729835388749100E-005
  1.732570697050977E-005
  1.736416306704499E-005
  1.741459166539705E-005
  1.747857295075093E-005
  1.755833492115573E-005
  1.765622060499616E-005
  1.777271136599852E-005
  1.790200718339140E-005
  1.735104899520246E-005
  1.729679772974122E-005
  1.725949003122954E-005
  1.723754000693013E-005
  1.722914433054833E-005
  1.723275326798962E-005
  1.724751794506273E-005
  1.727312922475267E-005
  1.730980896447015E-005
  1.735841996316924E-005
  1.742072208158148E-005
  1.749990596374032E-005
  1.760118037387501E-005
  1.773288492741414E-005
  1.789900526385034E-005
  1.732920122196977E-005
  1.726606803678745E-005
  1.722385847192384E-005
  1.719899317880417E-005
  1.718821595377133E-005
  1.718974897887020E-005
  1.720260993707398E-005
  1.722636496070508E-005
  1.726108421289022E-005
  1.730745733397954E-005
  1.736710441772849E-005
  1.744323301521682E-005
  1.754222100191425E-005
  1.767701161046950E-005
  1.788257132252375E-005
SCALARS elementIsPlast double 
LOOKUP_TABLE default
   1.00000000000000     
   1.00000000000000     
   1.00000000000000     
   1.00000000000000     
   1.00000000000000     
   1.00000000000000     
   1.00000000000000     
   1.00000000000000     
   1.00000000000000     
   1.00000000000000     
   1.00000000000000     
   1.00000000000000     
   1.00000000000000     
   1.00000000000000     
   1.00000000000000     
   1.00000000000000     
   1.00000000000000     
   1.00000000000000     
   1.00000000000000     
   1.00000000000000     
   1.00000000000000     
   1.00000000000000     
   1.00000000000000     
   1.00000000000000     
   1.00000000000000     
   1.00000000000000     
   1.00000000000000     
   1.00000000000000     
   1.00000000000000     
   1.00000000000000     
   1.00000000000000     
   1.00000000000000     
   1.00000000000000     
   1.00000000000000     
   1.00000000000000     
   1.00000000000000     
   1.00000000000000     
   1.00000000000000     
   1.00000000000000     
   1.00000000000000     
   1.00000000000000     
   1.00000000000000     
   1.00000000000000     
   1.00000000000000     
   1.00000000000000     
   1.00000000000000     
   1.00000000000000     
   1.00000000000000     
   1.00000000000000     
   1.00000000000000     
   1.00000000000000     
   1.00000000000000     
   1.00000000000000     
   1.00000000000000     
   1.00000000000000     
   1.00000000000000     
   1.00000000000000     
   1.00000000000000     
   1.00000000000000     
   1.00000000000000     
   1.00000000000000     
   1.00000000000000     
   1.00000000000000     
   1.00000000000000     
   1.00000000000000     
   1.00000000000000     
   1.00000000000000     
   1.00000000000000     
   1.00000000000000     
   1.00000000000000     
   1.00000000000000     
   1.00000000000000     
   1.00000000000000     
   1.00000000000000     
   1.00000000000000     
   1.00000000000000     
   1.00000000000000     
   1.00000000000000     
   1.00000000000000     
   1.00000000000000     
   1.00000000000000     
   1.00000000000000     
   1.00000000000000     
   1.00000000000000     
   1.00000000000000     
   1.00000000000000     
   1.00000000000000     
   1.00000000000000     
   1.00000000000000     
   1.00000000000000     
   1.00000000000000     
   1.00000000000000     
   1.00000000000000     
   1.00000000000000     
   1.00000000000000     
   1.00000000000000     
   1.00000000000000     
   1.00000000000000     
   1.00000000000000     
   1.00000000000000     
   1.00000000000000     
   1.00000000000000     
   1.00000000000000     
   1.00000000000000     
   1.00000000000000     
   1.00000000000000     
   1.00000000000000     
   1.00000000000000     
   1.00000000000000     
   1.00000000000000     
   1.00000000000000     
   1.00000000000000     
   1.00000000000000     
   1.00000000000000     
   1.00000000000000     
   1.00000000000000     
   1.00000000000000     
   1.00000000000000     
   1.00000000000000     
   1.00000000000000     
   1.00000000000000     
   1.00000000000000     
   1.00000000000000     
   1.00000000000000     
   1.00000000000000     
   1.00000000000000     
   1.00000000000000     
   1.00000000000000     
   1.00000000000000     
   1.00000000000000     
   1.00000000000000     
   1.00000000000000     
   1.00000000000000     
   1.00000000000000     
   1.00000000000000     
   1.00000000000000     
   1.00000000000000     
   1.00000000000000     
   1.00000000000000     
   1.00000000000000     
   1.00000000000000     
   1.00000000000000     
   1.00000000000000     
   1.00000000000000     
   1.00000000000000     
   1.00000000000000     
   1.00000000000000     
   1.00000000000000     
   1.00000000000000     
   1.00000000000000     
   1.00000000000000     
   1.00000000000000     
   1.00000000000000     
   1.00000000000000     
   1.00000000000000     
   1.00000000000000     
   1.00000000000000     
   1.00000000000000     
   1.00000000000000     
   1.00000000000000     
   1.00000000000000     
   1.00000000000000     
   1.00000000000000     
   1.00000000000000     
   1.00000000000000     
   1.00000000000000     
   1.00000000000000     
   1.00000000000000     
   1.00000000000000     
   1.00000000000000     
   1.00000000000000     
   1.00000000000000     
   1.00000000000000     
   1.00000000000000     
   1.00000000000000     
   1.00000000000000     
   1.00000000000000     
   1.00000000000000     
   1.00000000000000     
   1.00000000000000     
   1.00000000000000     
   1.00000000000000     
   1.00000000000000     
   1.00000000000000     
   1.00000000000000     
   1.00000000000000     
   1.00000000000000     
   1.00000000000000     
   1.00000000000000     
   1.00000000000000     
   1.00000000000000     
   1.00000000000000     
   1.00000000000000     
   1.00000000000000     
   1.00000000000000     
   1.00000000000000     
   1.00000000000000     
   1.00000000000000     
   1.00000000000000     
   1.00000000000000     
   1.00000000000000     
   1.00000000000000     
   1.00000000000000     
   1.00000000000000     
   1.00000000000000     
   1.00000000000000     
   1.00000000000000     
   1.00000000000000     
   1.00000000000000     
   1.00000000000000     
   1.00000000000000     
   1.00000000000000     
   1.00000000000000     
   1.00000000000000     
   1.00000000000000     
   1.00000000000000     
   1.00000000000000     
   1.00000000000000     
   1.00000000000000     
   1.00000000000000     
   1.00000000000000     
   1.00000000000000     
   1.00000000000000     
   1.00000000000000     
   1.00000000000000     
   1.00000000000000     
   1.00000000000000     
   1.00000000000000     
   1.00000000000000     
   1.00000000000000     
   1.00000000000000     
   1.00000000000000     
   1.00000000000000     
   1.00000000000000     
   1.00000000000000     
   1.00000000000000     
   1.00000000000000     
   1.00000000000000     
   1.00000000000000     
   1.00000000000000     
   1.00000000000000     
   1.00000000000000     
   1.00000000000000     
   1.00000000000000     
   1.00000000000000     
   1.00000000000000     
   1.00000000000000     
   1.00000000000000     
   1.00000000000000     
   1.00000000000000     
   1.00000000000000     
   1.00000000000000     
   1.00000000000000     
   1.00000000000000     
   1.00000000000000     
   1.00000000000000     
   1.00000000000000     
   1.00000000000000     
   1.00000000000000     
   1.00000000000000     
   1.00000000000000     
   1.00000000000000     
   1.00000000000000     
   1.00000000000000     
   1.00000000000000     
   1.00000000000000     
   1.00000000000000     
   1.00000000000000     
   1.00000000000000     
   1.00000000000000     
   1.00000000000000     
   1.00000000000000     
   1.00000000000000     
   1.00000000000000     
   1.00000000000000     
   1.00000000000000     
   1.00000000000000     
   1.00000000000000     
   1.00000000000000     
   1.00000000000000     
   1.00000000000000     
   1.00000000000000     
   1.00000000000000     
   1.00000000000000     
   1.00000000000000     
   1.00000000000000     
   1.00000000000000     
   1.00000000000000     
   1.00000000000000     
   1.00000000000000     
   1.00000000000000     
   1.00000000000000     
   1.00000000000000     
   1.00000000000000     
   1.00000000000000     
   1.00000000000000     
   1.00000000000000     
   1.00000000000000     
   1.00000000000000     
   1.00000000000000     
   1.00000000000000     
   1.00000000000000     
   1.00000000000000     
   1.00000000000000     
   1.00000000000000     
   1.00000000000000     
   1.00000000000000     
   1.00000000000000     
   1.00000000000000     
   1.00000000000000     
   1.00000000000000     
   1.00000000000000     
   1.00000000000000     
   1.00000000000000     
   1.00000000000000     
   1.00000000000000     
   1.00000000000000     
   1.00000000000000     
   1.00000000000000     
   1.00000000000000     
   1.00000000000000     
   1.00000000000000     
   1.00000000000000     
   1.00000000000000     
   1.00000000000000     
   1.00000000000000     
   1.00000000000000     
   1.00000000000000     
   1.00000000000000     
   1.00000000000000     
   1.00000000000000     
   1.00000000000000     
   1.00000000000000     
   1.00000000000000     
   1.00000000000000     
   1.00000000000000     
   1.00000000000000     
   1.00000000000000     
   1.00000000000000     
   1.00000000000000     
   1.00000000000000     
   1.00000000000000     
   1.00000000000000     
   1.00000000000000     
   1.00000000000000     
   1.00000000000000     
   1.00000000000000     
   1.00000000000000     
   1.00000000000000     
   1.00000000000000     
   1.00000000000000     
   1.00000000000000     
   1.00000000000000     
   1.00000000000000     
   1.00000000000000     
   1.00000000000000     
   1.00000000000000     
   1.00000000000000     
   1.00000000000000     
   1.00000000000000     
   1.00000000000000     
   1.00000000000000     
   1.00000000000000     
   1.00000000000000     
   1.00000000000000     
   1.00000000000000     
   1.00000000000000     
   1.00000000000000     
   1.00000000000000     
   1.00000000000000     
   1.00000000000000     
   1.00000000000000     
   1.00000000000000     
   1.00000000000000     
   1.00000000000000     
   1.00000000000000     
   1.00000000000000     
   1.00000000000000     
   1.00000000000000     
   1.00000000000000     
   1.00000000000000     
   1.00000000000000     
   1.00000000000000     
   1.00000000000000     
   1.00000000000000     
   1.00000000000000     
   1.00000000000000     
   1.00000000000000     
   1.00000000000000     
   1.00000000000000     
   1.00000000000000     
   1.00000000000000     
   1.00000000000000     
   1.00000000000000     
   1.00000000000000     
   1.00000000000000     
   1.00000000000000     
   1.00000000000000     
   1.00000000000000     
   1.00000000000000     
   1.00000000000000     
   1.00000000000000     
   1.00000000000000     
   1.00000000000000     
   1.00000000000000     
   1.00000000000000     
   1.00000000000000     
   1.00000000000000     
   1.00000000000000     
   1.00000000000000     
   1.00000000000000     
   1.00000000000000     
   1.00000000000000     
   1.00000000000000     
   1.00000000000000     
   1.00000000000000     
   1.00000000000000     
   1.00000000000000     
   1.00000000000000     
   1.00000000000000     
   1.00000000000000     
   1.00000000000000     
   1.00000000000000     
   1.00000000000000     
   1.00000000000000     
   1.00000000000000     
   1.00000000000000     
   1.00000000000000     
   1.00000000000000     
   1.00000000000000     
   1.00000000000000     
   1.00000000000000     
   1.00000000000000     
   1.00000000000000     
   1.00000000000000     
   1.00000000000000     
   1.00000000000000     
   1.00000000000000     
   1.00000000000000     
   1.00000000000000     
   1.00000000000000     
   1.00000000000000     
   1.00000000000000     
   1.00000000000000     
   1.00000000000000     
   1.00000000000000     
   1.00000000000000     
   1.00000000000000     
   1.00000000000000     
   1.00000000000000     
SCALARS poroL double 
LOOKUP_TABLE default
  0.155786808249466     
  0.155786820627718     
  0.155786831241276     
  0.155786839780815     
  0.155786845946701     
  0.155786849459220     
  0.155786850054706     
  0.155786847505562     
  0.155786841649365     
  0.155786832379066     
  0.155786819645107     
  0.155786803462114     
  0.155786783915823     
  0.155786761170474     
  0.155786735474384     
  0.155786806425990     
  0.155786818899016     
  0.155786829675303     
  0.155786838426211     
  0.155786844835106     
  0.155786848610452     
  0.155786849477426     
  0.155786847198677     
  0.155786841600858     
  0.155786832566750     
  0.155786820039889     
  0.155786804028359     
  0.155786784612099     
  0.155786761950047     
  0.155786736286058     
  0.155786802743849     
  0.155786815404925     
  0.155786826505650     
  0.155786835679007     
  0.155786842573722     
  0.155786846868716     
  0.155786848278298     
  0.155786846544672     
  0.155786841460023     
  0.155786832896338     
  0.155786820781410     
  0.155786805110127     
  0.155786785950506     
  0.155786763450976     
  0.155786737846612     
  0.155786797132445     
  0.155786810071917     
  0.155786821656515     
  0.155786831461795     
  0.155786839086742     
  0.155786844170870     
  0.155786846389375     
  0.155786845456791     
  0.155786841138659     
  0.155786833276087     
  0.155786821773868     
  0.155786806606189     
  0.155786787822689     
  0.155786765556122     
  0.155786740029519     
  0.155786789485369     
  0.155786802789312     
  0.155786815014886     
  0.155786825658208     
  0.155786834251568     
  0.155786840379630     
  0.155786843673618     
  0.155786843805270     
  0.155786840503452     
  0.155786833568577     
  0.155786822873700     
  0.155786808364494     
  0.155786790066243     
  0.155786768090373     
  0.155786742645272     
  0.155786779657979     
  0.155786793412032     
  0.155786806428833     
  0.155786818109755     
  0.155786827907203     
  0.155786835321664     
  0.155786839949803     
  0.155786841414727     
  0.155786839376019     
  0.155786833590013     
  0.155786823888451     
  0.155786810181449     
  0.155786792463557     
  0.155786770821738     
  0.155786745443788     
  0.155786767515892     
  0.155786781762495     
  0.155786795705509     
  0.155786808617782     
  0.155786819847487     
  0.155786828816436     
  0.155786835031797     
  0.155786838065781     
  0.155786837533310     
  0.155786833107732     
  0.155786824574984     
  0.155786811800464     
  0.155786794741607     
  0.155786773455466     
  0.155786748108452     
  0.155786752830122     
  0.155786767635774     
  0.155786782621210     
  0.155786796943525     
  0.155786809828862     
  0.155786820595389     
  0.155786828654078     
  0.155786833506304     
  0.155786834701165     
  0.155786831838530     
  0.155786824637639     
  0.155786812910192     
  0.155786796568635     
  0.155786775636979     
  0.155786750259729     
  0.155786735348587     
  0.155786750770692     
  0.155786766916819     
  0.155786782810991     
  0.155786797561026     
  0.155786810359751     
  0.155786820503650     
  0.155786827412356     
  0.155786830553345     
  0.155786829445954     
  0.155786823726090     
  0.155786813139990     
  0.155786797550750     
  0.155786776946368     
  0.155786751450526     
  0.155786714811039     
  0.155786730885630     
  0.155786748298787     
  0.155786765915918     
  0.155786782716109     
  0.155786797770153     
  0.155786810236932     
  0.155786819420722     
  0.155786824709387     
  0.155786825540042     
  0.155786821426481     
  0.155786812053297     
  0.155786797225851     
  0.155786776893916     
  0.155786751163455     
  0.155786690954476     
  0.155786707691163     
  0.155786726449350     
  0.155786745922513     
  0.155786764942524     
  0.155786782448703     
  0.155786797469069     
  0.155786809144008     
  0.155786816758190     
  0.155786819656352     
  0.155786817254545     
  0.155786809139913     
  0.155786795055078     
  0.155786774913154     
  0.155786748805640     
  0.155786663532835     
  0.155786680914684     
  0.155786701051603     
  0.155786722477155     
  0.155786743858961     
  0.155786763986362     
  0.155786781743781     
  0.155786796090164     
  0.155786806178057     
  0.155786811258425     
  0.155786810648051     
  0.155786803802045     
  0.155786790412041     
  0.155786770352693     
  0.155786743705195     
  0.155786632347616     
  0.155786650318516     
  0.155786671819469     
  0.155786695233548     
  0.155786719068473     
  0.155786741940206     
  0.155786762568601     
  0.155786779765860     
  0.155786792444287     
  0.155786799753244     
  0.155786800935761     
  0.155786795341713     
  0.155786782570993     
  0.155786762468056     
  0.155786735110354     
  0.155786597284187     
  0.155786615737269     
  0.155786638517021     
  0.155786663875985     
  0.155786690174107     
  0.155786715849424     
  0.155786739422572     
  0.155786759523143     
  0.155786774886655     
  0.155786784429430     
  0.155786787344702     
  0.155786782940356     
  0.155786770692746     
  0.155786750420656     
  0.155786722192529     
  0.155786558354844     
  0.155786577116762     
  0.155786600996649     
  0.155786628149730     
  0.155786656800669     
  0.155786685216469     
  0.155786711714368     
  0.155786734694328     
  0.155786752708046     
  0.155786764482063     
  0.155786769013107     
  0.155786765633016     
  0.155786753819804     
  0.155786733272757     
  0.155786704059414     
  0.155786515742735     
  0.155786534557169     
  0.155786559239713     
  0.155786587891198     
  0.155786618624469     
  0.155786649543669     
  0.155786678764657     
  0.155786704471269     
  0.155786724985032     
  0.155786738858040     
  0.155786744925796     
  0.155786742394220     
  0.155786730849706     
  0.155786710009251     
  0.155786679792012     
  0.155786469840937     
  0.155786488352177     
  0.155786513396345     
  0.155786543064056     
  0.155786575390244     
  0.155786608342787     
  0.155786639852022     
  0.155786667886162     
  0.155786690561943     
  0.155786706256954     
  0.155786713701268     
  0.155786711997169     
  0.155786700663370     
  0.155786679529821     
  0.155786648486031     
  0.155786421273668     
  0.155786439020593     
  0.155786463816127     
  0.155786493786862     
  0.155786526935443     
  0.155786561136729     
  0.155786594176071     
  0.155786623846569     
  0.155786648094715     
  0.155786665168547     
  0.155786673717407     
  0.155786672819334     
  0.155786661907885     
  0.155786640755805     
  0.155786609230240     
  0.155786370909277     
  0.155786387300909     
  0.155786411057295     
  0.155786440352619     
  0.155786473204845     
  0.155786507462857     
  0.155786540841933     
  0.155786571056322     
  0.155786595980966     
  0.155786613818650     
  0.155786623198669     
  0.155786623168932     
  0.155786613104539     
  0.155786592583922     
  0.155786561270784     
  0.155786319825824     
  0.155786334149396     
  0.155786355873728     
  0.155786383208134     
  0.155786414251953     
  0.155786446862210     
  0.155786478832449     
  0.155786507979961     
  0.155786532310191     
  0.155786550134179     
  0.155786560122583     
  0.155786561268565     
  0.155786552775515     
  0.155786533923546     
  0.155786504001177     
  0.155786269624394     
  0.155786280749619     
  0.155786299115103     
  0.155786322936941     
  0.155786350172883     
  0.155786378841082     
  0.155786406972407     
  0.155786432822523     
  0.155786454868894     
  0.155786471766633     
  0.155786482280658     
  0.155786485239880     
  0.155786479493643     
  0.155786463833127     
  0.155786436967405     
  0.155786220928760     
  0.155786228222384     
  0.155786241835147     
  0.155786260073585     
  0.155786281022138     
  0.155786302751945     
  0.155786323886314     
  0.155786343572485     
  0.155786361248640     
  0.155786376218085     
  0.155786387366513     
  0.155786393175153     
  0.155786391868980     
  0.155786381512515     
  0.155786359990077     
  0.155786174682339     
  0.155786177094899     
  0.155786184586598     
  0.155786195079412     
  0.155786206533535     
  0.155786217618297     
  0.155786227966352     
  0.155786238180944     
  0.155786249149728     
  0.155786261106539     
  0.155786273125704     
  0.155786283161746     
  0.155786288509653     
  0.155786286180742     
  0.155786273004883     
  0.155786131672184     
  0.155786127991574     
  0.155786127441327     
  0.155786127395416     
  0.155786125714444     
  0.155786121887250     
  0.155786117438887     
  0.155786114969455     
  0.155786116910653     
  0.155786124614705     
  0.155786137556010     
  0.155786153267866     
  0.155786167890637     
  0.155786177011468     
  0.155786176037436     
  0.155786092424469     
  0.155786081072048     
  0.155786069915720     
  0.155786055480521     
  0.155786036084132     
  0.155786013223456     
  0.155785990751460     
  0.155785973172632     
  0.155785964196744     
  0.155785966070407     
  0.155785979243425     
  0.155786001533143     
  0.155786028147107     
  0.155786052846814     
  0.155786069027550     
  0.155786057082011     
  0.155786035800492     
  0.155786010103021     
  0.155785975913908     
  0.155785933824332     
  0.155785888876893     
  0.155785847127197     
  0.155785813600686     
  0.155785792358143     
  0.155785786568721     
  0.155785797990210     
  0.155785826144126     
  0.155785866796119     
  0.155785911807069     
  0.155785951627521     
  0.155786025262182     
  0.155785990190100     
  0.155785943433550     
  0.155785882667373     
  0.155785814476616     
  0.155785747189200     
  0.155785686982299     
  0.155785638254014     
  0.155785604534152     
  0.155785589183900     
  0.155785595636882     
  0.155785626402079     
  0.155785680529291     
  0.155785750659795     
  0.155785822683248     
  0.155785995312273     
  0.155785938951328     
  0.155785860521142     
  0.155785768592842     
  0.155785675389074     
  0.155785588482140     
  0.155785512224093     
  0.155785449793863     
  0.155785404105837     
  0.155785378376962     
  0.155785376639085     
  0.155785404194458     
  0.155785466771642     
  0.155785563290310     
  0.155785679735326     
  0.155785962551802     
  0.155785866589708     
  0.155785749985161     
  0.155785630322732     
  0.155785517204326     
  0.155785414670546     
  0.155785325303098     
  0.155785251207170     
  0.155785194621758     
  0.155785158406999     
  0.155785146655716     
  0.155785165714523     
  0.155785225678702     
  0.155785343167586     
  0.155785513870336     
  0.155785895531959     
  0.155785754848850     
  0.155785608308543     
  0.155785469729919     
  0.155785342399223     
  0.155785228244143     
  0.155785128681622     
  0.155785045099067     
  0.155784979166890     
  0.155784933249132     
  0.155784911046635     
  0.155784918757892     
  0.155784967749178     
  0.155785080615346     
  0.155785322967614     
