# vtk DataFile Version 3.0
vtk output
ASCII
DATASET UNSTRUCTURED_GRID
POINTS       496 double 
  0.00000000E+00  3.00000000E+02  0.00000000E+00
  0.00000000E+00  2.80000000E+02  0.00000000E+00
  0.00000000E+00  2.60000000E+02  0.00000000E+00
  0.00000000E+00  2.40000000E+02  0.00000000E+00
  0.00000000E+00  2.20000000E+02  0.00000000E+00
  0.00000000E+00  2.00000000E+02  0.00000000E+00
  0.00000000E+00  1.80000000E+02  0.00000000E+00
  0.00000000E+00  1.60000000E+02  0.00000000E+00
  0.00000000E+00  1.40000000E+02  0.00000000E+00
  0.00000000E+00  1.20000000E+02  0.00000000E+00
  0.00000000E+00  1.00000000E+02  0.00000000E+00
  0.00000000E+00  8.00000000E+01  0.00000000E+00
  0.00000000E+00  6.00000000E+01  0.00000000E+00
  0.00000000E+00  4.00000000E+01  0.00000000E+00
  0.00000000E+00  2.00000000E+01  0.00000000E+00
  0.00000000E+00  4.99600361E-14  0.00000000E+00
  2.00000000E+01  3.00000000E+02  0.00000000E+00
  2.00000000E+01  2.80000000E+02  0.00000000E+00
  2.00000000E+01  2.60000000E+02  0.00000000E+00
  2.00000000E+01  2.40000000E+02  0.00000000E+00
  2.00000000E+01  2.20000000E+02  0.00000000E+00
  2.00000000E+01  2.00000000E+02  0.00000000E+00
  2.00000000E+01  1.80000000E+02  0.00000000E+00
  2.00000000E+01  1.60000000E+02  0.00000000E+00
  2.00000000E+01  1.40000000E+02  0.00000000E+00
  2.00000000E+01  1.20000000E+02  0.00000000E+00
  2.00000000E+01  1.00000000E+02  0.00000000E+00
  2.00000000E+01  8.00000000E+01  0.00000000E+00
  2.00000000E+01  6.00000000E+01  0.00000000E+00
  2.00000000E+01  4.00000000E+01  0.00000000E+00
  2.00000000E+01  2.00000000E+01  0.00000000E+00
  2.00000000E+01  4.99600361E-14  0.00000000E+00
  4.00000000E+01  3.00000000E+02  0.00000000E+00
  4.00000000E+01  2.80000000E+02  0.00000000E+00
  4.00000000E+01  2.60000000E+02  0.00000000E+00
  4.00000000E+01  2.40000000E+02  0.00000000E+00
  4.00000000E+01  2.20000000E+02  0.00000000E+00
  4.00000000E+01  2.00000000E+02  0.00000000E+00
  4.00000000E+01  1.80000000E+02  0.00000000E+00
  4.00000000E+01  1.60000000E+02  0.00000000E+00
  4.00000000E+01  1.40000000E+02  0.00000000E+00
  4.00000000E+01  1.20000000E+02  0.00000000E+00
  4.00000000E+01  1.00000000E+02  0.00000000E+00
  4.00000000E+01  8.00000000E+01  0.00000000E+00
  4.00000000E+01  6.00000000E+01  0.00000000E+00
  4.00000000E+01  4.00000000E+01  0.00000000E+00
  4.00000000E+01  2.00000000E+01  0.00000000E+00
  4.00000000E+01  4.99600361E-14  0.00000000E+00
  6.00000000E+01  3.00000000E+02  0.00000000E+00
  6.00000000E+01  2.80000000E+02  0.00000000E+00
  6.00000000E+01  2.60000000E+02  0.00000000E+00
  6.00000000E+01  2.40000000E+02  0.00000000E+00
  6.00000000E+01  2.20000000E+02  0.00000000E+00
  6.00000000E+01  2.00000000E+02  0.00000000E+00
  6.00000000E+01  1.80000000E+02  0.00000000E+00
  6.00000000E+01  1.60000000E+02  0.00000000E+00
  6.00000000E+01  1.40000000E+02  0.00000000E+00
  6.00000000E+01  1.20000000E+02  0.00000000E+00
  6.00000000E+01  1.00000000E+02  0.00000000E+00
  6.00000000E+01  8.00000000E+01  0.00000000E+00
  6.00000000E+01  6.00000000E+01  0.00000000E+00
  6.00000000E+01  4.00000000E+01  0.00000000E+00
  6.00000000E+01  2.00000000E+01  0.00000000E+00
  6.00000000E+01  4.99600361E-14  0.00000000E+00
  8.00000000E+01  3.00000000E+02  0.00000000E+00
  8.00000000E+01  2.80000000E+02  0.00000000E+00
  8.00000000E+01  2.60000000E+02  0.00000000E+00
  8.00000000E+01  2.40000000E+02  0.00000000E+00
  8.00000000E+01  2.20000000E+02  0.00000000E+00
  8.00000000E+01  2.00000000E+02  0.00000000E+00
  8.00000000E+01  1.80000000E+02  0.00000000E+00
  8.00000000E+01  1.60000000E+02  0.00000000E+00
  8.00000000E+01  1.40000000E+02  0.00000000E+00
  8.00000000E+01  1.20000000E+02  0.00000000E+00
  8.00000000E+01  1.00000000E+02  0.00000000E+00
  8.00000000E+01  8.00000000E+01  0.00000000E+00
  8.00000000E+01  6.00000000E+01  0.00000000E+00
  8.00000000E+01  4.00000000E+01  0.00000000E+00
  8.00000000E+01  2.00000000E+01  0.00000000E+00
  8.00000000E+01  4.99600361E-14  0.00000000E+00
  1.00000000E+02  3.00000000E+02  0.00000000E+00
  1.00000000E+02  2.80000000E+02  0.00000000E+00
  1.00000000E+02  2.60000000E+02  0.00000000E+00
  1.00000000E+02  2.40000000E+02  0.00000000E+00
  1.00000000E+02  2.20000000E+02  0.00000000E+00
  1.00000000E+02  2.00000000E+02  0.00000000E+00
  1.00000000E+02  1.80000000E+02  0.00000000E+00
  1.00000000E+02  1.60000000E+02  0.00000000E+00
  1.00000000E+02  1.40000000E+02  0.00000000E+00
  1.00000000E+02  1.20000000E+02  0.00000000E+00
  1.00000000E+02  1.00000000E+02  0.00000000E+00
  1.00000000E+02  8.00000000E+01  0.00000000E+00
  1.00000000E+02  6.00000000E+01  0.00000000E+00
  1.00000000E+02  4.00000000E+01  0.00000000E+00
  1.00000000E+02  2.00000000E+01  0.00000000E+00
  1.00000000E+02  4.99600361E-14  0.00000000E+00
  1.20000000E+02  3.00000000E+02  0.00000000E+00
  1.20000000E+02  2.80000000E+02  0.00000000E+00
  1.20000000E+02  2.60000000E+02  0.00000000E+00
  1.20000000E+02  2.40000000E+02  0.00000000E+00
  1.20000000E+02  2.20000000E+02  0.00000000E+00
  1.20000000E+02  2.00000000E+02  0.00000000E+00
  1.20000000E+02  1.80000000E+02  0.00000000E+00
  1.20000000E+02  1.60000000E+02  0.00000000E+00
  1.20000000E+02  1.40000000E+02  0.00000000E+00
  1.20000000E+02  1.20000000E+02  0.00000000E+00
  1.20000000E+02  1.00000000E+02  0.00000000E+00
  1.20000000E+02  8.00000000E+01  0.00000000E+00
  1.20000000E+02  6.00000000E+01  0.00000000E+00
  1.20000000E+02  4.00000000E+01  0.00000000E+00
  1.20000000E+02  2.00000000E+01  0.00000000E+00
  1.20000000E+02  4.99600361E-14  0.00000000E+00
  1.40000000E+02  3.00000000E+02  0.00000000E+00
  1.40000000E+02  2.80000000E+02  0.00000000E+00
  1.40000000E+02  2.60000000E+02  0.00000000E+00
  1.40000000E+02  2.40000000E+02  0.00000000E+00
  1.40000000E+02  2.20000000E+02  0.00000000E+00
  1.40000000E+02  2.00000000E+02  0.00000000E+00
  1.40000000E+02  1.80000000E+02  0.00000000E+00
  1.40000000E+02  1.60000000E+02  0.00000000E+00
  1.40000000E+02  1.40000000E+02  0.00000000E+00
  1.40000000E+02  1.20000000E+02  0.00000000E+00
  1.40000000E+02  1.00000000E+02  0.00000000E+00
  1.40000000E+02  8.00000000E+01  0.00000000E+00
  1.40000000E+02  6.00000000E+01  0.00000000E+00
  1.40000000E+02  4.00000000E+01  0.00000000E+00
  1.40000000E+02  2.00000000E+01  0.00000000E+00
  1.40000000E+02  4.99600361E-14  0.00000000E+00
  1.60000000E+02  3.00000000E+02  0.00000000E+00
  1.60000000E+02  2.80000000E+02  0.00000000E+00
  1.60000000E+02  2.60000000E+02  0.00000000E+00
  1.60000000E+02  2.40000000E+02  0.00000000E+00
  1.60000000E+02  2.20000000E+02  0.00000000E+00
  1.60000000E+02  2.00000000E+02  0.00000000E+00
  1.60000000E+02  1.80000000E+02  0.00000000E+00
  1.60000000E+02  1.60000000E+02  0.00000000E+00
  1.60000000E+02  1.40000000E+02  0.00000000E+00
  1.60000000E+02  1.20000000E+02  0.00000000E+00
  1.60000000E+02  1.00000000E+02  0.00000000E+00
  1.60000000E+02  8.00000000E+01  0.00000000E+00
  1.60000000E+02  6.00000000E+01  0.00000000E+00
  1.60000000E+02  4.00000000E+01  0.00000000E+00
  1.60000000E+02  2.00000000E+01  0.00000000E+00
  1.60000000E+02  4.99600361E-14  0.00000000E+00
  1.80000000E+02  3.00000000E+02  0.00000000E+00
  1.80000000E+02  2.80000000E+02  0.00000000E+00
  1.80000000E+02  2.60000000E+02  0.00000000E+00
  1.80000000E+02  2.40000000E+02  0.00000000E+00
  1.80000000E+02  2.20000000E+02  0.00000000E+00
  1.80000000E+02  2.00000000E+02  0.00000000E+00
  1.80000000E+02  1.80000000E+02  0.00000000E+00
  1.80000000E+02  1.60000000E+02  0.00000000E+00
  1.80000000E+02  1.40000000E+02  0.00000000E+00
  1.80000000E+02  1.20000000E+02  0.00000000E+00
  1.80000000E+02  1.00000000E+02  0.00000000E+00
  1.80000000E+02  8.00000000E+01  0.00000000E+00
  1.80000000E+02  6.00000000E+01  0.00000000E+00
  1.80000000E+02  4.00000000E+01  0.00000000E+00
  1.80000000E+02  2.00000000E+01  0.00000000E+00
  1.80000000E+02  4.99600361E-14  0.00000000E+00
  2.00000000E+02  3.00000000E+02  0.00000000E+00
  2.00000000E+02  2.80000000E+02  0.00000000E+00
  2.00000000E+02  2.60000000E+02  0.00000000E+00
  2.00000000E+02  2.40000000E+02  0.00000000E+00
  2.00000000E+02  2.20000000E+02  0.00000000E+00
  2.00000000E+02  2.00000000E+02  0.00000000E+00
  2.00000000E+02  1.80000000E+02  0.00000000E+00
  2.00000000E+02  1.60000000E+02  0.00000000E+00
  2.00000000E+02  1.40000000E+02  0.00000000E+00
  2.00000000E+02  1.20000000E+02  0.00000000E+00
  2.00000000E+02  1.00000000E+02  0.00000000E+00
  2.00000000E+02  8.00000000E+01  0.00000000E+00
  2.00000000E+02  6.00000000E+01  0.00000000E+00
  2.00000000E+02  4.00000000E+01  0.00000000E+00
  2.00000000E+02  2.00000000E+01  0.00000000E+00
  2.00000000E+02  4.99600361E-14  0.00000000E+00
  2.20000000E+02  3.00000000E+02  0.00000000E+00
  2.20000000E+02  2.80000000E+02  0.00000000E+00
  2.20000000E+02  2.60000000E+02  0.00000000E+00
  2.20000000E+02  2.40000000E+02  0.00000000E+00
  2.20000000E+02  2.20000000E+02  0.00000000E+00
  2.20000000E+02  2.00000000E+02  0.00000000E+00
  2.20000000E+02  1.80000000E+02  0.00000000E+00
  2.20000000E+02  1.60000000E+02  0.00000000E+00
  2.20000000E+02  1.40000000E+02  0.00000000E+00
  2.20000000E+02  1.20000000E+02  0.00000000E+00
  2.20000000E+02  1.00000000E+02  0.00000000E+00
  2.20000000E+02  8.00000000E+01  0.00000000E+00
  2.20000000E+02  6.00000000E+01  0.00000000E+00
  2.20000000E+02  4.00000000E+01  0.00000000E+00
  2.20000000E+02  2.00000000E+01  0.00000000E+00
  2.20000000E+02  4.99600361E-14  0.00000000E+00
  2.40000000E+02  3.00000000E+02  0.00000000E+00
  2.40000000E+02  2.80000000E+02  0.00000000E+00
  2.40000000E+02  2.60000000E+02  0.00000000E+00
  2.40000000E+02  2.40000000E+02  0.00000000E+00
  2.40000000E+02  2.20000000E+02  0.00000000E+00
  2.40000000E+02  2.00000000E+02  0.00000000E+00
  2.40000000E+02  1.80000000E+02  0.00000000E+00
  2.40000000E+02  1.60000000E+02  0.00000000E+00
  2.40000000E+02  1.40000000E+02  0.00000000E+00
  2.40000000E+02  1.20000000E+02  0.00000000E+00
  2.40000000E+02  1.00000000E+02  0.00000000E+00
  2.40000000E+02  8.00000000E+01  0.00000000E+00
  2.40000000E+02  6.00000000E+01  0.00000000E+00
  2.40000000E+02  4.00000000E+01  0.00000000E+00
  2.40000000E+02  2.00000000E+01  0.00000000E+00
  2.40000000E+02  4.99600361E-14  0.00000000E+00
  2.60000000E+02  3.00000000E+02  0.00000000E+00
  2.60000000E+02  2.80000000E+02  0.00000000E+00
  2.60000000E+02  2.60000000E+02  0.00000000E+00
  2.60000000E+02  2.40000000E+02  0.00000000E+00
  2.60000000E+02  2.20000000E+02  0.00000000E+00
  2.60000000E+02  2.00000000E+02  0.00000000E+00
  2.60000000E+02  1.80000000E+02  0.00000000E+00
  2.60000000E+02  1.60000000E+02  0.00000000E+00
  2.60000000E+02  1.40000000E+02  0.00000000E+00
  2.60000000E+02  1.20000000E+02  0.00000000E+00
  2.60000000E+02  1.00000000E+02  0.00000000E+00
  2.60000000E+02  8.00000000E+01  0.00000000E+00
  2.60000000E+02  6.00000000E+01  0.00000000E+00
  2.60000000E+02  4.00000000E+01  0.00000000E+00
  2.60000000E+02  2.00000000E+01  0.00000000E+00
  2.60000000E+02  4.99600361E-14  0.00000000E+00
  2.80000000E+02  3.00000000E+02  0.00000000E+00
  2.80000000E+02  2.80000000E+02  0.00000000E+00
  2.80000000E+02  2.60000000E+02  0.00000000E+00
  2.80000000E+02  2.40000000E+02  0.00000000E+00
  2.80000000E+02  2.20000000E+02  0.00000000E+00
  2.80000000E+02  2.00000000E+02  0.00000000E+00
  2.80000000E+02  1.80000000E+02  0.00000000E+00
  2.80000000E+02  1.60000000E+02  0.00000000E+00
  2.80000000E+02  1.40000000E+02  0.00000000E+00
  2.80000000E+02  1.20000000E+02  0.00000000E+00
  2.80000000E+02  1.00000000E+02  0.00000000E+00
  2.80000000E+02  8.00000000E+01  0.00000000E+00
  2.80000000E+02  6.00000000E+01  0.00000000E+00
  2.80000000E+02  4.00000000E+01  0.00000000E+00
  2.80000000E+02  2.00000000E+01  0.00000000E+00
  2.80000000E+02  4.99600361E-14  0.00000000E+00
  3.00000000E+02  3.00000000E+02  0.00000000E+00
  3.00000000E+02  2.80000000E+02  0.00000000E+00
  3.00000000E+02  2.60000000E+02  0.00000000E+00
  3.00000000E+02  2.40000000E+02  0.00000000E+00
  3.00000000E+02  2.20000000E+02  0.00000000E+00
  3.00000000E+02  2.00000000E+02  0.00000000E+00
  3.00000000E+02  1.80000000E+02  0.00000000E+00
  3.00000000E+02  1.60000000E+02  0.00000000E+00
  3.00000000E+02  1.40000000E+02  0.00000000E+00
  3.00000000E+02  1.20000000E+02  0.00000000E+00
  3.00000000E+02  1.00000000E+02  0.00000000E+00
  3.00000000E+02  8.00000000E+01  0.00000000E+00
  3.00000000E+02  6.00000000E+01  0.00000000E+00
  3.00000000E+02  4.00000000E+01  0.00000000E+00
  3.00000000E+02  2.00000000E+01  0.00000000E+00
  3.00000000E+02  4.99600361E-14  0.00000000E+00
  3.20000000E+02  3.00000000E+02  0.00000000E+00
  3.20000000E+02  2.80000000E+02  0.00000000E+00
  3.20000000E+02  2.60000000E+02  0.00000000E+00
  3.20000000E+02  2.40000000E+02  0.00000000E+00
  3.20000000E+02  2.20000000E+02  0.00000000E+00
  3.20000000E+02  2.00000000E+02  0.00000000E+00
  3.20000000E+02  1.80000000E+02  0.00000000E+00
  3.20000000E+02  1.60000000E+02  0.00000000E+00
  3.20000000E+02  1.40000000E+02  0.00000000E+00
  3.20000000E+02  1.20000000E+02  0.00000000E+00
  3.20000000E+02  1.00000000E+02  0.00000000E+00
  3.20000000E+02  8.00000000E+01  0.00000000E+00
  3.20000000E+02  6.00000000E+01  0.00000000E+00
  3.20000000E+02  4.00000000E+01  0.00000000E+00
  3.20000000E+02  2.00000000E+01  0.00000000E+00
  3.20000000E+02  4.99600361E-14  0.00000000E+00
  3.40000000E+02  3.00000000E+02  0.00000000E+00
  3.40000000E+02  2.80000000E+02  0.00000000E+00
  3.40000000E+02  2.60000000E+02  0.00000000E+00
  3.40000000E+02  2.40000000E+02  0.00000000E+00
  3.40000000E+02  2.20000000E+02  0.00000000E+00
  3.40000000E+02  2.00000000E+02  0.00000000E+00
  3.40000000E+02  1.80000000E+02  0.00000000E+00
  3.40000000E+02  1.60000000E+02  0.00000000E+00
  3.40000000E+02  1.40000000E+02  0.00000000E+00
  3.40000000E+02  1.20000000E+02  0.00000000E+00
  3.40000000E+02  1.00000000E+02  0.00000000E+00
  3.40000000E+02  8.00000000E+01  0.00000000E+00
  3.40000000E+02  6.00000000E+01  0.00000000E+00
  3.40000000E+02  4.00000000E+01  0.00000000E+00
  3.40000000E+02  2.00000000E+01  0.00000000E+00
  3.40000000E+02  4.99600361E-14  0.00000000E+00
  3.60000000E+02  3.00000000E+02  0.00000000E+00
  3.60000000E+02  2.80000000E+02  0.00000000E+00
  3.60000000E+02  2.60000000E+02  0.00000000E+00
  3.60000000E+02  2.40000000E+02  0.00000000E+00
  3.60000000E+02  2.20000000E+02  0.00000000E+00
  3.60000000E+02  2.00000000E+02  0.00000000E+00
  3.60000000E+02  1.80000000E+02  0.00000000E+00
  3.60000000E+02  1.60000000E+02  0.00000000E+00
  3.60000000E+02  1.40000000E+02  0.00000000E+00
  3.60000000E+02  1.20000000E+02  0.00000000E+00
  3.60000000E+02  1.00000000E+02  0.00000000E+00
  3.60000000E+02  8.00000000E+01  0.00000000E+00
  3.60000000E+02  6.00000000E+01  0.00000000E+00
  3.60000000E+02  4.00000000E+01  0.00000000E+00
  3.60000000E+02  2.00000000E+01  0.00000000E+00
  3.60000000E+02  4.99600361E-14  0.00000000E+00
  3.80000000E+02  3.00000000E+02  0.00000000E+00
  3.80000000E+02  2.80000000E+02  0.00000000E+00
  3.80000000E+02  2.60000000E+02  0.00000000E+00
  3.80000000E+02  2.40000000E+02  0.00000000E+00
  3.80000000E+02  2.20000000E+02  0.00000000E+00
  3.80000000E+02  2.00000000E+02  0.00000000E+00
  3.80000000E+02  1.80000000E+02  0.00000000E+00
  3.80000000E+02  1.60000000E+02  0.00000000E+00
  3.80000000E+02  1.40000000E+02  0.00000000E+00
  3.80000000E+02  1.20000000E+02  0.00000000E+00
  3.80000000E+02  1.00000000E+02  0.00000000E+00
  3.80000000E+02  8.00000000E+01  0.00000000E+00
  3.80000000E+02  6.00000000E+01  0.00000000E+00
  3.80000000E+02  4.00000000E+01  0.00000000E+00
  3.80000000E+02  2.00000000E+01  0.00000000E+00
  3.80000000E+02  4.99600361E-14  0.00000000E+00
  4.00000000E+02  3.00000000E+02  0.00000000E+00
  4.00000000E+02  2.80000000E+02  0.00000000E+00
  4.00000000E+02  2.60000000E+02  0.00000000E+00
  4.00000000E+02  2.40000000E+02  0.00000000E+00
  4.00000000E+02  2.20000000E+02  0.00000000E+00
  4.00000000E+02  2.00000000E+02  0.00000000E+00
  4.00000000E+02  1.80000000E+02  0.00000000E+00
  4.00000000E+02  1.60000000E+02  0.00000000E+00
  4.00000000E+02  1.40000000E+02  0.00000000E+00
  4.00000000E+02  1.20000000E+02  0.00000000E+00
  4.00000000E+02  1.00000000E+02  0.00000000E+00
  4.00000000E+02  8.00000000E+01  0.00000000E+00
  4.00000000E+02  6.00000000E+01  0.00000000E+00
  4.00000000E+02  4.00000000E+01  0.00000000E+00
  4.00000000E+02  2.00000000E+01  0.00000000E+00
  4.00000000E+02  4.99600361E-14  0.00000000E+00
  4.20000000E+02  3.00000000E+02  0.00000000E+00
  4.20000000E+02  2.80000000E+02  0.00000000E+00
  4.20000000E+02  2.60000000E+02  0.00000000E+00
  4.20000000E+02  2.40000000E+02  0.00000000E+00
  4.20000000E+02  2.20000000E+02  0.00000000E+00
  4.20000000E+02  2.00000000E+02  0.00000000E+00
  4.20000000E+02  1.80000000E+02  0.00000000E+00
  4.20000000E+02  1.60000000E+02  0.00000000E+00
  4.20000000E+02  1.40000000E+02  0.00000000E+00
  4.20000000E+02  1.20000000E+02  0.00000000E+00
  4.20000000E+02  1.00000000E+02  0.00000000E+00
  4.20000000E+02  8.00000000E+01  0.00000000E+00
  4.20000000E+02  6.00000000E+01  0.00000000E+00
  4.20000000E+02  4.00000000E+01  0.00000000E+00
  4.20000000E+02  2.00000000E+01  0.00000000E+00
  4.20000000E+02  4.99600361E-14  0.00000000E+00
  4.40000000E+02  3.00000000E+02  0.00000000E+00
  4.40000000E+02  2.80000000E+02  0.00000000E+00
  4.40000000E+02  2.60000000E+02  0.00000000E+00
  4.40000000E+02  2.40000000E+02  0.00000000E+00
  4.40000000E+02  2.20000000E+02  0.00000000E+00
  4.40000000E+02  2.00000000E+02  0.00000000E+00
  4.40000000E+02  1.80000000E+02  0.00000000E+00
  4.40000000E+02  1.60000000E+02  0.00000000E+00
  4.40000000E+02  1.40000000E+02  0.00000000E+00
  4.40000000E+02  1.20000000E+02  0.00000000E+00
  4.40000000E+02  1.00000000E+02  0.00000000E+00
  4.40000000E+02  8.00000000E+01  0.00000000E+00
  4.40000000E+02  6.00000000E+01  0.00000000E+00
  4.40000000E+02  4.00000000E+01  0.00000000E+00
  4.40000000E+02  2.00000000E+01  0.00000000E+00
  4.40000000E+02  4.99600361E-14  0.00000000E+00
  4.60000000E+02  3.00000000E+02  0.00000000E+00
  4.60000000E+02  2.80000000E+02  0.00000000E+00
  4.60000000E+02  2.60000000E+02  0.00000000E+00
  4.60000000E+02  2.40000000E+02  0.00000000E+00
  4.60000000E+02  2.20000000E+02  0.00000000E+00
  4.60000000E+02  2.00000000E+02  0.00000000E+00
  4.60000000E+02  1.80000000E+02  0.00000000E+00
  4.60000000E+02  1.60000000E+02  0.00000000E+00
  4.60000000E+02  1.40000000E+02  0.00000000E+00
  4.60000000E+02  1.20000000E+02  0.00000000E+00
  4.60000000E+02  1.00000000E+02  0.00000000E+00
  4.60000000E+02  8.00000000E+01  0.00000000E+00
  4.60000000E+02  6.00000000E+01  0.00000000E+00
  4.60000000E+02  4.00000000E+01  0.00000000E+00
  4.60000000E+02  2.00000000E+01  0.00000000E+00
  4.60000000E+02  4.99600361E-14  0.00000000E+00
  4.80000000E+02  3.00000000E+02  0.00000000E+00
  4.80000000E+02  2.80000000E+02  0.00000000E+00
  4.80000000E+02  2.60000000E+02  0.00000000E+00
  4.80000000E+02  2.40000000E+02  0.00000000E+00
  4.80000000E+02  2.20000000E+02  0.00000000E+00
  4.80000000E+02  2.00000000E+02  0.00000000E+00
  4.80000000E+02  1.80000000E+02  0.00000000E+00
  4.80000000E+02  1.60000000E+02  0.00000000E+00
  4.80000000E+02  1.40000000E+02  0.00000000E+00
  4.80000000E+02  1.20000000E+02  0.00000000E+00
  4.80000000E+02  1.00000000E+02  0.00000000E+00
  4.80000000E+02  8.00000000E+01  0.00000000E+00
  4.80000000E+02  6.00000000E+01  0.00000000E+00
  4.80000000E+02  4.00000000E+01  0.00000000E+00
  4.80000000E+02  2.00000000E+01  0.00000000E+00
  4.80000000E+02  4.99600361E-14  0.00000000E+00
  5.00000000E+02  3.00000000E+02  0.00000000E+00
  5.00000000E+02  2.80000000E+02  0.00000000E+00
  5.00000000E+02  2.60000000E+02  0.00000000E+00
  5.00000000E+02  2.40000000E+02  0.00000000E+00
  5.00000000E+02  2.20000000E+02  0.00000000E+00
  5.00000000E+02  2.00000000E+02  0.00000000E+00
  5.00000000E+02  1.80000000E+02  0.00000000E+00
  5.00000000E+02  1.60000000E+02  0.00000000E+00
  5.00000000E+02  1.40000000E+02  0.00000000E+00
  5.00000000E+02  1.20000000E+02  0.00000000E+00
  5.00000000E+02  1.00000000E+02  0.00000000E+00
  5.00000000E+02  8.00000000E+01  0.00000000E+00
  5.00000000E+02  6.00000000E+01  0.00000000E+00
  5.00000000E+02  4.00000000E+01  0.00000000E+00
  5.00000000E+02  2.00000000E+01  0.00000000E+00
  5.00000000E+02  4.99600361E-14  0.00000000E+00
  5.20000000E+02  3.00000000E+02  0.00000000E+00
  5.20000000E+02  2.80000000E+02  0.00000000E+00
  5.20000000E+02  2.60000000E+02  0.00000000E+00
  5.20000000E+02  2.40000000E+02  0.00000000E+00
  5.20000000E+02  2.20000000E+02  0.00000000E+00
  5.20000000E+02  2.00000000E+02  0.00000000E+00
  5.20000000E+02  1.80000000E+02  0.00000000E+00
  5.20000000E+02  1.60000000E+02  0.00000000E+00
  5.20000000E+02  1.40000000E+02  0.00000000E+00
  5.20000000E+02  1.20000000E+02  0.00000000E+00
  5.20000000E+02  1.00000000E+02  0.00000000E+00
  5.20000000E+02  8.00000000E+01  0.00000000E+00
  5.20000000E+02  6.00000000E+01  0.00000000E+00
  5.20000000E+02  4.00000000E+01  0.00000000E+00
  5.20000000E+02  2.00000000E+01  0.00000000E+00
  5.20000000E+02  4.99600361E-14  0.00000000E+00
  5.40000000E+02  3.00000000E+02  0.00000000E+00
  5.40000000E+02  2.80000000E+02  0.00000000E+00
  5.40000000E+02  2.60000000E+02  0.00000000E+00
  5.40000000E+02  2.40000000E+02  0.00000000E+00
  5.40000000E+02  2.20000000E+02  0.00000000E+00
  5.40000000E+02  2.00000000E+02  0.00000000E+00
  5.40000000E+02  1.80000000E+02  0.00000000E+00
  5.40000000E+02  1.60000000E+02  0.00000000E+00
  5.40000000E+02  1.40000000E+02  0.00000000E+00
  5.40000000E+02  1.20000000E+02  0.00000000E+00
  5.40000000E+02  1.00000000E+02  0.00000000E+00
  5.40000000E+02  8.00000000E+01  0.00000000E+00
  5.40000000E+02  6.00000000E+01  0.00000000E+00
  5.40000000E+02  4.00000000E+01  0.00000000E+00
  5.40000000E+02  2.00000000E+01  0.00000000E+00
  5.40000000E+02  4.99600361E-14  0.00000000E+00
  5.60000000E+02  3.00000000E+02  0.00000000E+00
  5.60000000E+02  2.80000000E+02  0.00000000E+00
  5.60000000E+02  2.60000000E+02  0.00000000E+00
  5.60000000E+02  2.40000000E+02  0.00000000E+00
  5.60000000E+02  2.20000000E+02  0.00000000E+00
  5.60000000E+02  2.00000000E+02  0.00000000E+00
  5.60000000E+02  1.80000000E+02  0.00000000E+00
  5.60000000E+02  1.60000000E+02  0.00000000E+00
  5.60000000E+02  1.40000000E+02  0.00000000E+00
  5.60000000E+02  1.20000000E+02  0.00000000E+00
  5.60000000E+02  1.00000000E+02  0.00000000E+00
  5.60000000E+02  8.00000000E+01  0.00000000E+00
  5.60000000E+02  6.00000000E+01  0.00000000E+00
  5.60000000E+02  4.00000000E+01  0.00000000E+00
  5.60000000E+02  2.00000000E+01  0.00000000E+00
  5.60000000E+02  4.99600361E-14  0.00000000E+00
  5.80000000E+02  3.00000000E+02  0.00000000E+00
  5.80000000E+02  2.80000000E+02  0.00000000E+00
  5.80000000E+02  2.60000000E+02  0.00000000E+00
  5.80000000E+02  2.40000000E+02  0.00000000E+00
  5.80000000E+02  2.20000000E+02  0.00000000E+00
  5.80000000E+02  2.00000000E+02  0.00000000E+00
  5.80000000E+02  1.80000000E+02  0.00000000E+00
  5.80000000E+02  1.60000000E+02  0.00000000E+00
  5.80000000E+02  1.40000000E+02  0.00000000E+00
  5.80000000E+02  1.20000000E+02  0.00000000E+00
  5.80000000E+02  1.00000000E+02  0.00000000E+00
  5.80000000E+02  8.00000000E+01  0.00000000E+00
  5.80000000E+02  6.00000000E+01  0.00000000E+00
  5.80000000E+02  4.00000000E+01  0.00000000E+00
  5.80000000E+02  2.00000000E+01  0.00000000E+00
  5.80000000E+02  4.99600361E-14  0.00000000E+00
  6.00000000E+02  3.00000000E+02  0.00000000E+00
  6.00000000E+02  2.80000000E+02  0.00000000E+00
  6.00000000E+02  2.60000000E+02  0.00000000E+00
  6.00000000E+02  2.40000000E+02  0.00000000E+00
  6.00000000E+02  2.20000000E+02  0.00000000E+00
  6.00000000E+02  2.00000000E+02  0.00000000E+00
  6.00000000E+02  1.80000000E+02  0.00000000E+00
  6.00000000E+02  1.60000000E+02  0.00000000E+00
  6.00000000E+02  1.40000000E+02  0.00000000E+00
  6.00000000E+02  1.20000000E+02  0.00000000E+00
  6.00000000E+02  1.00000000E+02  0.00000000E+00
  6.00000000E+02  8.00000000E+01  0.00000000E+00
  6.00000000E+02  6.00000000E+01  0.00000000E+00
  6.00000000E+02  4.00000000E+01  0.00000000E+00
  6.00000000E+02  2.00000000E+01  0.00000000E+00
  6.00000000E+02  4.99600361E-14  0.00000000E+00
CELLS       450      2250
         4           0           1          17          16
         4           1           2          18          17
         4           2           3          19          18
         4           3           4          20          19
         4           4           5          21          20
         4           5           6          22          21
         4           6           7          23          22
         4           7           8          24          23
         4           8           9          25          24
         4           9          10          26          25
         4          10          11          27          26
         4          11          12          28          27
         4          12          13          29          28
         4          13          14          30          29
         4          14          15          31          30
         4          16          17          33          32
         4          17          18          34          33
         4          18          19          35          34
         4          19          20          36          35
         4          20          21          37          36
         4          21          22          38          37
         4          22          23          39          38
         4          23          24          40          39
         4          24          25          41          40
         4          25          26          42          41
         4          26          27          43          42
         4          27          28          44          43
         4          28          29          45          44
         4          29          30          46          45
         4          30          31          47          46
         4          32          33          49          48
         4          33          34          50          49
         4          34          35          51          50
         4          35          36          52          51
         4          36          37          53          52
         4          37          38          54          53
         4          38          39          55          54
         4          39          40          56          55
         4          40          41          57          56
         4          41          42          58          57
         4          42          43          59          58
         4          43          44          60          59
         4          44          45          61          60
         4          45          46          62          61
         4          46          47          63          62
         4          48          49          65          64
         4          49          50          66          65
         4          50          51          67          66
         4          51          52          68          67
         4          52          53          69          68
         4          53          54          70          69
         4          54          55          71          70
         4          55          56          72          71
         4          56          57          73          72
         4          57          58          74          73
         4          58          59          75          74
         4          59          60          76          75
         4          60          61          77          76
         4          61          62          78          77
         4          62          63          79          78
         4          64          65          81          80
         4          65          66          82          81
         4          66          67          83          82
         4          67          68          84          83
         4          68          69          85          84
         4          69          70          86          85
         4          70          71          87          86
         4          71          72          88          87
         4          72          73          89          88
         4          73          74          90          89
         4          74          75          91          90
         4          75          76          92          91
         4          76          77          93          92
         4          77          78          94          93
         4          78          79          95          94
         4          80          81          97          96
         4          81          82          98          97
         4          82          83          99          98
         4          83          84         100          99
         4          84          85         101         100
         4          85          86         102         101
         4          86          87         103         102
         4          87          88         104         103
         4          88          89         105         104
         4          89          90         106         105
         4          90          91         107         106
         4          91          92         108         107
         4          92          93         109         108
         4          93          94         110         109
         4          94          95         111         110
         4          96          97         113         112
         4          97          98         114         113
         4          98          99         115         114
         4          99         100         116         115
         4         100         101         117         116
         4         101         102         118         117
         4         102         103         119         118
         4         103         104         120         119
         4         104         105         121         120
         4         105         106         122         121
         4         106         107         123         122
         4         107         108         124         123
         4         108         109         125         124
         4         109         110         126         125
         4         110         111         127         126
         4         112         113         129         128
         4         113         114         130         129
         4         114         115         131         130
         4         115         116         132         131
         4         116         117         133         132
         4         117         118         134         133
         4         118         119         135         134
         4         119         120         136         135
         4         120         121         137         136
         4         121         122         138         137
         4         122         123         139         138
         4         123         124         140         139
         4         124         125         141         140
         4         125         126         142         141
         4         126         127         143         142
         4         128         129         145         144
         4         129         130         146         145
         4         130         131         147         146
         4         131         132         148         147
         4         132         133         149         148
         4         133         134         150         149
         4         134         135         151         150
         4         135         136         152         151
         4         136         137         153         152
         4         137         138         154         153
         4         138         139         155         154
         4         139         140         156         155
         4         140         141         157         156
         4         141         142         158         157
         4         142         143         159         158
         4         144         145         161         160
         4         145         146         162         161
         4         146         147         163         162
         4         147         148         164         163
         4         148         149         165         164
         4         149         150         166         165
         4         150         151         167         166
         4         151         152         168         167
         4         152         153         169         168
         4         153         154         170         169
         4         154         155         171         170
         4         155         156         172         171
         4         156         157         173         172
         4         157         158         174         173
         4         158         159         175         174
         4         160         161         177         176
         4         161         162         178         177
         4         162         163         179         178
         4         163         164         180         179
         4         164         165         181         180
         4         165         166         182         181
         4         166         167         183         182
         4         167         168         184         183
         4         168         169         185         184
         4         169         170         186         185
         4         170         171         187         186
         4         171         172         188         187
         4         172         173         189         188
         4         173         174         190         189
         4         174         175         191         190
         4         176         177         193         192
         4         177         178         194         193
         4         178         179         195         194
         4         179         180         196         195
         4         180         181         197         196
         4         181         182         198         197
         4         182         183         199         198
         4         183         184         200         199
         4         184         185         201         200
         4         185         186         202         201
         4         186         187         203         202
         4         187         188         204         203
         4         188         189         205         204
         4         189         190         206         205
         4         190         191         207         206
         4         192         193         209         208
         4         193         194         210         209
         4         194         195         211         210
         4         195         196         212         211
         4         196         197         213         212
         4         197         198         214         213
         4         198         199         215         214
         4         199         200         216         215
         4         200         201         217         216
         4         201         202         218         217
         4         202         203         219         218
         4         203         204         220         219
         4         204         205         221         220
         4         205         206         222         221
         4         206         207         223         222
         4         208         209         225         224
         4         209         210         226         225
         4         210         211         227         226
         4         211         212         228         227
         4         212         213         229         228
         4         213         214         230         229
         4         214         215         231         230
         4         215         216         232         231
         4         216         217         233         232
         4         217         218         234         233
         4         218         219         235         234
         4         219         220         236         235
         4         220         221         237         236
         4         221         222         238         237
         4         222         223         239         238
         4         224         225         241         240
         4         225         226         242         241
         4         226         227         243         242
         4         227         228         244         243
         4         228         229         245         244
         4         229         230         246         245
         4         230         231         247         246
         4         231         232         248         247
         4         232         233         249         248
         4         233         234         250         249
         4         234         235         251         250
         4         235         236         252         251
         4         236         237         253         252
         4         237         238         254         253
         4         238         239         255         254
         4         240         241         257         256
         4         241         242         258         257
         4         242         243         259         258
         4         243         244         260         259
         4         244         245         261         260
         4         245         246         262         261
         4         246         247         263         262
         4         247         248         264         263
         4         248         249         265         264
         4         249         250         266         265
         4         250         251         267         266
         4         251         252         268         267
         4         252         253         269         268
         4         253         254         270         269
         4         254         255         271         270
         4         256         257         273         272
         4         257         258         274         273
         4         258         259         275         274
         4         259         260         276         275
         4         260         261         277         276
         4         261         262         278         277
         4         262         263         279         278
         4         263         264         280         279
         4         264         265         281         280
         4         265         266         282         281
         4         266         267         283         282
         4         267         268         284         283
         4         268         269         285         284
         4         269         270         286         285
         4         270         271         287         286
         4         272         273         289         288
         4         273         274         290         289
         4         274         275         291         290
         4         275         276         292         291
         4         276         277         293         292
         4         277         278         294         293
         4         278         279         295         294
         4         279         280         296         295
         4         280         281         297         296
         4         281         282         298         297
         4         282         283         299         298
         4         283         284         300         299
         4         284         285         301         300
         4         285         286         302         301
         4         286         287         303         302
         4         288         289         305         304
         4         289         290         306         305
         4         290         291         307         306
         4         291         292         308         307
         4         292         293         309         308
         4         293         294         310         309
         4         294         295         311         310
         4         295         296         312         311
         4         296         297         313         312
         4         297         298         314         313
         4         298         299         315         314
         4         299         300         316         315
         4         300         301         317         316
         4         301         302         318         317
         4         302         303         319         318
         4         304         305         321         320
         4         305         306         322         321
         4         306         307         323         322
         4         307         308         324         323
         4         308         309         325         324
         4         309         310         326         325
         4         310         311         327         326
         4         311         312         328         327
         4         312         313         329         328
         4         313         314         330         329
         4         314         315         331         330
         4         315         316         332         331
         4         316         317         333         332
         4         317         318         334         333
         4         318         319         335         334
         4         320         321         337         336
         4         321         322         338         337
         4         322         323         339         338
         4         323         324         340         339
         4         324         325         341         340
         4         325         326         342         341
         4         326         327         343         342
         4         327         328         344         343
         4         328         329         345         344
         4         329         330         346         345
         4         330         331         347         346
         4         331         332         348         347
         4         332         333         349         348
         4         333         334         350         349
         4         334         335         351         350
         4         336         337         353         352
         4         337         338         354         353
         4         338         339         355         354
         4         339         340         356         355
         4         340         341         357         356
         4         341         342         358         357
         4         342         343         359         358
         4         343         344         360         359
         4         344         345         361         360
         4         345         346         362         361
         4         346         347         363         362
         4         347         348         364         363
         4         348         349         365         364
         4         349         350         366         365
         4         350         351         367         366
         4         352         353         369         368
         4         353         354         370         369
         4         354         355         371         370
         4         355         356         372         371
         4         356         357         373         372
         4         357         358         374         373
         4         358         359         375         374
         4         359         360         376         375
         4         360         361         377         376
         4         361         362         378         377
         4         362         363         379         378
         4         363         364         380         379
         4         364         365         381         380
         4         365         366         382         381
         4         366         367         383         382
         4         368         369         385         384
         4         369         370         386         385
         4         370         371         387         386
         4         371         372         388         387
         4         372         373         389         388
         4         373         374         390         389
         4         374         375         391         390
         4         375         376         392         391
         4         376         377         393         392
         4         377         378         394         393
         4         378         379         395         394
         4         379         380         396         395
         4         380         381         397         396
         4         381         382         398         397
         4         382         383         399         398
         4         384         385         401         400
         4         385         386         402         401
         4         386         387         403         402
         4         387         388         404         403
         4         388         389         405         404
         4         389         390         406         405
         4         390         391         407         406
         4         391         392         408         407
         4         392         393         409         408
         4         393         394         410         409
         4         394         395         411         410
         4         395         396         412         411
         4         396         397         413         412
         4         397         398         414         413
         4         398         399         415         414
         4         400         401         417         416
         4         401         402         418         417
         4         402         403         419         418
         4         403         404         420         419
         4         404         405         421         420
         4         405         406         422         421
         4         406         407         423         422
         4         407         408         424         423
         4         408         409         425         424
         4         409         410         426         425
         4         410         411         427         426
         4         411         412         428         427
         4         412         413         429         428
         4         413         414         430         429
         4         414         415         431         430
         4         416         417         433         432
         4         417         418         434         433
         4         418         419         435         434
         4         419         420         436         435
         4         420         421         437         436
         4         421         422         438         437
         4         422         423         439         438
         4         423         424         440         439
         4         424         425         441         440
         4         425         426         442         441
         4         426         427         443         442
         4         427         428         444         443
         4         428         429         445         444
         4         429         430         446         445
         4         430         431         447         446
         4         432         433         449         448
         4         433         434         450         449
         4         434         435         451         450
         4         435         436         452         451
         4         436         437         453         452
         4         437         438         454         453
         4         438         439         455         454
         4         439         440         456         455
         4         440         441         457         456
         4         441         442         458         457
         4         442         443         459         458
         4         443         444         460         459
         4         444         445         461         460
         4         445         446         462         461
         4         446         447         463         462
         4         448         449         465         464
         4         449         450         466         465
         4         450         451         467         466
         4         451         452         468         467
         4         452         453         469         468
         4         453         454         470         469
         4         454         455         471         470
         4         455         456         472         471
         4         456         457         473         472
         4         457         458         474         473
         4         458         459         475         474
         4         459         460         476         475
         4         460         461         477         476
         4         461         462         478         477
         4         462         463         479         478
         4         464         465         481         480
         4         465         466         482         481
         4         466         467         483         482
         4         467         468         484         483
         4         468         469         485         484
         4         469         470         486         485
         4         470         471         487         486
         4         471         472         488         487
         4         472         473         489         488
         4         473         474         490         489
         4         474         475         491         490
         4         475         476         492         491
         4         476         477         493         492
         4         477         478         494         493
         4         478         479         495         494
CELL_TYPES        450
9
9
9
9
9
9
9
9
9
9
9
9
9
9
9
9
9
9
9
9
9
9
9
9
9
9
9
9
9
9
9
9
9
9
9
9
9
9
9
9
9
9
9
9
9
9
9
9
9
9
9
9
9
9
9
9
9
9
9
9
9
9
9
9
9
9
9
9
9
9
9
9
9
9
9
9
9
9
9
9
9
9
9
9
9
9
9
9
9
9
9
9
9
9
9
9
9
9
9
9
9
9
9
9
9
9
9
9
9
9
9
9
9
9
9
9
9
9
9
9
9
9
9
9
9
9
9
9
9
9
9
9
9
9
9
9
9
9
9
9
9
9
9
9
9
9
9
9
9
9
9
9
9
9
9
9
9
9
9
9
9
9
9
9
9
9
9
9
9
9
9
9
9
9
9
9
9
9
9
9
9
9
9
9
9
9
9
9
9
9
9
9
9
9
9
9
9
9
9
9
9
9
9
9
9
9
9
9
9
9
9
9
9
9
9
9
9
9
9
9
9
9
9
9
9
9
9
9
9
9
9
9
9
9
9
9
9
9
9
9
9
9
9
9
9
9
9
9
9
9
9
9
9
9
9
9
9
9
9
9
9
9
9
9
9
9
9
9
9
9
9
9
9
9
9
9
9
9
9
9
9
9
9
9
9
9
9
9
9
9
9
9
9
9
9
9
9
9
9
9
9
9
9
9
9
9
9
9
9
9
9
9
9
9
9
9
9
9
9
9
9
9
9
9
9
9
9
9
9
9
9
9
9
9
9
9
9
9
9
9
9
9
9
9
9
9
9
9
9
9
9
9
9
9
9
9
9
9
9
9
9
9
9
9
9
9
9
9
9
9
9
9
9
9
9
9
9
9
9
9
9
9
9
9
9
9
9
9
9
9
9
9
9
9
9
9
9
9
9
9
9
9
9
9
9
9
9
9
9
9
9
9
9
9
9
9
9
9
9
9
9
9
9
9
9
9
9
9
9
9
9
9
9
9
9
9
9
9
9
9
9
9
9
9
9
9
9
9
9
9
POINT_DATA       496
SCALARS p double 
LOOKUP_TABLE default
   49557222.4581699     
   49547690.5974030     
   49526488.7965233     
   49514952.1121990     
   49519049.1050437     
   49534275.0383243     
   49556994.2253176     
   49584274.1498112     
   49613731.5672333     
   49643405.9278908     
   49671661.3702051     
   49697112.7312823     
   49718570.1164665     
   49734997.3299373     
   49745480.6647227     
   49749205.8317815     
   49524518.2987441     
   49514982.5633976     
   49493821.3458750     
   49482283.3661065     
   49486205.6534468     
   49501118.9555829     
   49523433.5362015     
   49550259.6333557     
   49579248.5777167     
   49608466.5513742     
   49636298.3828064     
   49661375.3898974     
   49682521.4399175     
   49698712.4573010     
   49709045.9013344     
   49712718.0077067     
   49426027.3567345     
   49416469.7718314     
   49395441.8721848     
   49383920.4875270     
   49387319.0684139     
   49401290.3773545     
   49422391.2757965     
   49447860.9767245     
   49475452.8639125     
   49503311.5429364     
   49529882.5193428     
   49553845.5721460     
   49574065.1780234     
   49589553.1819552     
   49599440.3010155     
   49602954.2949690     
   49260618.7807850     
   49251011.2285928     
   49230246.7389845     
   49218804.1300146     
   49221318.9935945     
   49233706.8184417     
   49252788.8521488     
   49276017.7654760     
   49301310.9840489     
   49326938.1217870     
   49351441.5393297     
   49373578.7169020     
   49392279.6750157     
   49406614.7157072     
   49415769.2048438     
   49419023.2762859     
   49026450.8788475     
   49016774.9390813     
   48996447.8883676     
   48985175.9045187     
   48986409.7779507     
   48996561.6504118     
   49012838.3691647     
   49032981.2102291     
   49055124.2880996     
   49077701.7191942     
   49099383.4884848     
   49119030.0271321     
   49135658.9599382     
   49148419.6321306     
   49156572.3390031     
   49159470.1843446     
   48721075.8841957     
   48711305.1378231     
   48691622.0934819     
   48680541.2515455     
   48680055.0372658     
   48687334.9972408     
   48700068.7388719     
   48716348.2285520     
   48734567.7564528     
   48753357.6136724     
   48771540.0115136     
   48788098.8353773     
   48802157.8257361     
   48812963.4558037     
   48819869.7454881     
   48822322.9715769     
   48341365.1540657     
   48331540.5243616     
   48312734.5941542     
   48301637.1748187     
   48299016.9815910     
   48302843.2362887     
   48311378.3458529     
   48323117.5653371     
   48336748.6273112     
   48351121.2279100     
   48365227.7289907     
   48378190.7397151     
   48389254.5670336     
   48397777.9022920     
   48403225.3994820     
   48405156.0951558     
   47883550.5647619     
   47873833.0452956     
   47856154.8563573     
   47844691.3098185     
   47839472.5951629     
   47839325.3185469     
   47843115.3930953     
   47849769.1225604     
   47858285.6178580     
   47867747.3254344     
   47877327.4704840     
   47886297.0047621     
   47894030.6946618     
   47900010.9904040     
   47903827.6869389     
   47905171.1754793     
   47343377.6593963     
   47334233.9893822     
   47317837.5765732     
   47305411.2519574     
   47297101.8699417     
   47292541.5331728     
   47291179.7478624     
   47292364.6407161     
   47295407.7401335     
   47299627.1685522     
   47304380.3262106     
   47309090.1032608     
   47313266.4564380     
   47316522.8380080     
   47318585.5442858     
   47319293.3228896     
   46716256.2250395     
   46708016.2086553     
   46692900.2014619     
   46678952.4965377     
   46667152.8402719     
   46657889.1414235     
   46651144.7465805     
   46646667.6968118     
   46644070.6076939     
   46642901.6309610     
   46642698.6082272     
   46643033.5858225     
   46643550.4477773     
   46643995.5062912     
   46644238.6709273     
   46644281.5494073     
   45997714.2122066     
   45990565.8538466     
   45976057.1255556     
   45960124.6153661     
   45944618.2970725     
   45930553.9506779     
   45918401.8016037     
   45908280.7394517     
   45900087.2411637     
   45893587.3292050     
   45888489.0021140     
   45884503.7868195     
   45881401.0426479     
   45879054.8141649     
   45877479.8535145     
   45876851.3300185     
   45183293.2442648     
   45176638.6525319     
   45161939.8774926     
   45143711.3038533     
   45124453.4949897     
   45105693.2307336     
   45088321.8683605     
   45072794.5441640     
   45059269.2003920     
   45047712.0471850     
   45037984.4930294     
   45029920.2323988     
   45023396.8243617     
   45018401.6166836     
   45015087.1133801     
   45013807.0810992     
   44267193.2600714     
   44260837.5291095     
   44245299.8788256     
   44224649.1986669     
   44201777.6485239     
   44178617.7307740     
   44156421.9810482     
   44135943.2250345     
   44117573.2563276     
   44101455.3217147     
   44087581.1361812     
   44075880.9820465     
   44066312.5813299     
   44058949.5831963     
   44054063.0973003     
   44052182.0874908     
   43244676.4834904     
   43238070.9110537     
   43221285.6991220     
   43198246.3094517     
   43172051.8036665     
   43144960.7731448     
   43118527.6330395     
   43093759.6102907     
   43071249.6734504     
   43051290.3652361     
   43033975.4521005     
   43019298.3863223     
   43007256.5590376     
   42997965.8667814     
   42991778.8128747     
   42989383.2005192     
   42111001.7459884     
   42103854.7162031     
   42085626.2389710     
   42060324.2679907     
   42031229.7927606     
   42000835.0119701     
   41970930.8309382     
   41942730.0563851     
   41916990.5198570     
   41894124.5728917     
   41874298.1686053     
   41857529.6765558     
   41843803.1009300     
   41833209.8400946     
   41826118.2869502     
   41823337.3638646     
   40861900.2183183     
   40854180.4030506     
   40834559.7417654     
   40807310.4001483     
   40775895.6743527     
   40742987.9740443     
   40710550.6964301     
   40679952.2096253     
   40652079.2390989     
   40627437.6365983     
   40606240.5241037     
   40588495.3295833     
   40574111.8191125     
   40563062.3102634     
   40555619.5461549     
   40552636.3833901     
   39493981.2013558     
   39485776.8507990     
   39465055.0397056     
   39436392.0821046     
   39403430.4369025     
   39368974.8175350     
   39335106.0113108     
   39303301.2954269     
   39274545.0860063     
   39249419.0831368     
   39228171.5680699     
   39210777.6603012     
   39197018.8461050     
   39186630.7019966     
   39179604.0346271     
   39176675.0609027     
   38004937.2824194     
   37996424.6198794     
   37975086.1673562     
   37945760.5239025     
   37912223.9036701     
   37877357.9043426     
   37843305.2116063     
   37811609.0664225     
   37783327.1054467     
   37759111.2252514     
   37739251.9863568     
   37723697.9336630     
   37712079.3381902     
   37703797.2091835     
   37698275.2265674     
   37695770.9470011     
   36393803.7497727     
   36385228.6630667     
   36363919.8137440     
   36334874.1125638     
   36301915.1498369     
   36267926.3559130     
   36235050.7155282     
   36204854.7282319     
   36178450.5135958     
   36156567.0497416     
   36139563.5846947     
   36127395.8093823     
   36119565.5998742     
   36115110.1554896     
   36112739.7168670     
   36111234.2315346     
   34661220.8011961     
   34652887.4315659     
   34632387.3625022     
   34604720.6017231     
   34573634.7953633     
   34541919.0793645     
   34511645.6851745     
   34484359.5764545     
   34461212.0389384     
   34443027.0150645     
   34430281.3149833     
   34422983.8405023     
   34420527.4889387     
   34421616.5005634     
   34424243.1427198     
   34425530.1169401     
   32809691.2182978     
   32801950.8557620     
   32783139.8667238     
   32758060.7548848     
   32730230.8632034     
   32702231.3190617     
   32675984.7787643     
   32652967.5394502     
   32634357.5761785     
   32621103.6834851     
   32613874.2874174     
   32612844.1008921     
   32617226.9104545     
   32625021.0596468     
   32633909.4669000     
   32638460.9785616     
   30843820.9579220     
   30837058.1859032     
   30820876.9077377     
   30799641.3505335     
   30776460.7079890     
   30753584.4473837     
   30732705.4365492     
   30715186.0504790     
   30702219.5805141     
   30694923.8717762     
   30694303.0853002     
   30700842.8942210     
   30713999.3774699     
   30729876.2901866     
   30739834.7373755     
   30742393.8511968     
   28770530.0633997     
   28765143.7900693     
   28752538.1005366     
   28736364.5659407     
   28719132.9876293     
   28702639.0932510     
   28688275.2835861     
   28677254.4707531     
   28670778.9552735     
   28670172.2691725     
   28676965.5852741     
   28692705.4879992     
   28716083.5882999     
   28735308.1616774     
   28743814.3994927     
   28745613.2644897     
   26599220.9981892     
   26595598.4825365     
   26587445.0478166     
   26577400.8231069     
   26567185.3205177     
   26558035.4755603     
   26550996.1882199     
   26547115.4887572     
   26547602.6837816     
   26554012.8729387     
   26568490.4519715     
   26594427.0473435     
   26625121.8615727     
   26645443.9765457     
   26653926.8778429     
   26655555.2690965     
   24341892.9051736     
   24340375.0403024     
   24337381.9090851     
   24334232.4483602     
   24331685.3725862     
   24330351.2128115     
   24330919.2373995     
   24334285.5222898     
   24341668.1131038     
   24354804.9179676     
   24376456.8203946     
   24410489.5305108     
   24446181.2906848     
   24468170.8006765     
   24477501.4865046     
   24479393.1909838     
   22013194.5693321     
   22014029.9136153     
   22016603.2822319     
   22020613.6874221     
   22025742.2692850     
   22031971.7588672     
   22039680.8228051     
   22049655.7056317     
   22063122.7937089     
   22081893.9741324     
   22108767.3697734     
   22147420.5745444     
   22186740.5741871     
   22211354.4681011     
   22222138.1444804     
   22224480.8228725     
   19630418.6477303     
   19633699.9324685     
   19641756.5260272     
   19652423.9284487     
   19664306.0135452     
   19676864.7893088     
   19690275.8458841     
   19705274.8191787     
   19723084.6102853     
   19745438.5912648     
   19774707.1144755     
   19813772.6753022     
   19855014.2482111     
   19882971.2854712     
   19895429.4734277     
   19898300.9640078     
   17213461.4564349     
   17219025.7816567     
   17231694.7964020     
   17247366.2745619     
   17263810.0808154     
   17280234.7733430     
   17296770.1317097     
   17314147.6455092     
   17333541.5193303     
   17356497.6618766     
   17384804.6990331     
   17420184.4331579     
   17460120.0552831     
   17490559.4136544     
   17504629.4475842     
   17508129.6208676     
   14784832.9320893     
   14792051.4784878     
   14807112.9489591     
   14824400.7959164     
   14841582.0720731     
   14858018.8471036     
   14873932.9658697     
   14890028.9093616     
   14907326.9991152     
   14927062.7267924     
   14950531.2607004     
   14978582.2703956     
   15011472.3933806     
   15040948.2699625     
   15056234.5337718     
   15060091.3112281     
   12369937.6681465     
   12377189.5732569     
   12389692.8870128     
   12402708.8322478     
   12414940.1581412     
   12426201.5037241     
   12436772.5523404     
   12447169.8542128     
   12458057.5088038     
   12470190.2777681     
   12484310.8037574     
   12500978.4552964     
   12520354.2625134     
   12541614.5230397     
   12554405.1837204     
   12557578.3332082     
   10000000.0000000     
   10000000.0000000     
   10000000.0000000     
   10000000.0000000     
   10000000.0000000     
   10000000.0000000     
   10000000.0000000     
   10000000.0000000     
   10000000.0000000     
   10000000.0000000     
   10000000.0000000     
   10000000.0000000     
   10000000.0000000     
  10000000.00000000     
   10000000.0000000     
   10000000.0000000     
VECTORS u double 
    0.00000E+00        -0.13487E-01         0.00000E+00
    0.00000E+00        -0.12351E-01         0.00000E+00
    0.00000E+00        -0.11273E-01         0.00000E+00
    0.00000E+00        -0.10243E-01         0.00000E+00
    0.00000E+00        -0.92387E-02         0.00000E+00
    0.00000E+00        -0.82591E-02         0.00000E+00
    0.00000E+00        -0.73045E-02         0.00000E+00
    0.00000E+00        -0.63751E-02         0.00000E+00
    0.00000E+00        -0.54712E-02         0.00000E+00
    0.00000E+00        -0.45940E-02         0.00000E+00
    0.00000E+00        -0.37449E-02         0.00000E+00
    0.00000E+00        -0.29258E-02         0.00000E+00
    0.00000E+00        -0.21389E-02         0.00000E+00
    0.00000E+00        -0.13870E-02         0.00000E+00
    0.00000E+00        -0.67294E-03         0.00000E+00
    0.00000E+00         0.00000E+00         0.00000E+00
    0.11431E-02        -0.13533E-01         0.00000E+00
    0.10519E-02        -0.12394E-01         0.00000E+00
    0.95987E-03        -0.11315E-01         0.00000E+00
    0.86978E-03        -0.10283E-01         0.00000E+00
    0.78406E-03        -0.92759E-02         0.00000E+00
    0.70276E-03        -0.82940E-02         0.00000E+00
    0.62545E-03        -0.73367E-02         0.00000E+00
    0.55152E-03        -0.64044E-02         0.00000E+00
    0.48024E-03        -0.54975E-02         0.00000E+00
    0.41088E-03        -0.46170E-02         0.00000E+00
    0.34273E-03        -0.37644E-02         0.00000E+00
    0.27515E-03        -0.29416E-02         0.00000E+00
    0.20754E-03        -0.21509E-02         0.00000E+00
    0.13939E-03        -0.13950E-02         0.00000E+00
    0.70310E-04        -0.67700E-03         0.00000E+00
    0.00000E+00         0.00000E+00         0.00000E+00
    0.22829E-02        -0.13668E-01         0.00000E+00
    0.21003E-02        -0.12524E-01         0.00000E+00
    0.19158E-02        -0.11439E-01         0.00000E+00
    0.17354E-02        -0.10401E-01         0.00000E+00
    0.15642E-02        -0.93879E-02         0.00000E+00
    0.14020E-02        -0.83987E-02         0.00000E+00
    0.12479E-02        -0.74335E-02         0.00000E+00
    0.11006E-02        -0.64925E-02         0.00000E+00
    0.95846E-03        -0.55763E-02         0.00000E+00
    0.82018E-03        -0.46858E-02         0.00000E+00
    0.68429E-03        -0.38227E-02         0.00000E+00
    0.54948E-03        -0.29889E-02         0.00000E+00
    0.41456E-03        -0.21868E-02         0.00000E+00
    0.27851E-03        -0.14192E-02         0.00000E+00
    0.14052E-03        -0.68918E-03         0.00000E+00
    0.00000E+00         0.00000E+00         0.00000E+00
    0.34157E-02        -0.13895E-01         0.00000E+00
    0.31414E-02        -0.12742E-01         0.00000E+00
    0.28637E-02        -0.11648E-01         0.00000E+00
    0.25927E-02        -0.10600E-01         0.00000E+00
    0.23365E-02        -0.95752E-02         0.00000E+00
    0.20943E-02        -0.85738E-02         0.00000E+00
    0.18644E-02        -0.75952E-02         0.00000E+00
    0.16446E-02        -0.66397E-02         0.00000E+00
    0.14326E-02        -0.57078E-02         0.00000E+00
    0.12263E-02        -0.48007E-02         0.00000E+00
    0.10235E-02        -0.39201E-02         0.00000E+00
    0.82215E-03        -0.30680E-02         0.00000E+00
    0.62054E-03        -0.22468E-02         0.00000E+00
    0.41708E-03        -0.14596E-02         0.00000E+00
    0.21054E-03        -0.70950E-03         0.00000E+00
    0.00000E+00         0.00000E+00         0.00000E+00
    0.45369E-02        -0.14213E-01         0.00000E+00
    0.41702E-02        -0.13047E-01         0.00000E+00
    0.37985E-02        -0.11943E-01         0.00000E+00
    0.34368E-02        -0.10880E-01         0.00000E+00
    0.30969E-02        -0.98391E-02         0.00000E+00
    0.27762E-02        -0.88201E-02         0.00000E+00
    0.24720E-02        -0.78224E-02         0.00000E+00
    0.21811E-02        -0.68463E-02         0.00000E+00
    0.19007E-02        -0.58924E-02         0.00000E+00
    0.16276E-02        -0.49620E-02         0.00000E+00
    0.13590E-02        -0.40567E-02         0.00000E+00
    0.10923E-02        -0.31788E-02         0.00000E+00
    0.82490E-03        -0.23310E-02         0.00000E+00
    0.55479E-03        -0.15163E-02         0.00000E+00
    0.28024E-03        -0.73802E-03         0.00000E+00
    0.00000E+00         0.00000E+00         0.00000E+00
    0.56416E-02        -0.14622E-01         0.00000E+00
    0.51800E-02        -0.13442E-01         0.00000E+00
    0.47138E-02        -0.12325E-01         0.00000E+00
    0.42632E-02        -0.11242E-01         0.00000E+00
    0.38415E-02        -0.10180E-01         0.00000E+00
    0.34442E-02        -0.91383E-02         0.00000E+00
    0.30675E-02        -0.81157E-02         0.00000E+00
    0.27075E-02        -0.71128E-02         0.00000E+00
    0.23604E-02        -0.61304E-02         0.00000E+00
    0.20224E-02        -0.51697E-02         0.00000E+00
    0.16897E-02        -0.42327E-02         0.00000E+00
    0.13589E-02        -0.33217E-02         0.00000E+00
    0.10270E-02        -0.24394E-02         0.00000E+00
    0.69129E-03        -0.15893E-02         0.00000E+00
    0.34949E-03        -0.77478E-03         0.00000E+00
    0.00000E+00         0.00000E+00         0.00000E+00
    0.67238E-02        -0.15128E-01         0.00000E+00
    0.61640E-02        -0.13930E-01         0.00000E+00
    0.56021E-02        -0.12795E-01         0.00000E+00
    0.50672E-02        -0.11688E-01         0.00000E+00
    0.45660E-02        -0.10600E-01         0.00000E+00
    0.40945E-02        -0.95289E-02         0.00000E+00
    0.36478E-02        -0.84755E-02         0.00000E+00
    0.32211E-02        -0.74396E-02         0.00000E+00
    0.28096E-02        -0.64221E-02         0.00000E+00
    0.24088E-02        -0.54244E-02         0.00000E+00
    0.20140E-02        -0.44484E-02         0.00000E+00
    0.16211E-02        -0.34967E-02         0.00000E+00
    0.12263E-02        -0.25723E-02         0.00000E+00
    0.82620E-03        -0.16787E-02         0.00000E+00
    0.41813E-03        -0.81984E-03         0.00000E+00
    0.00000E+00         0.00000E+00         0.00000E+00
    0.77757E-02        -0.15731E-01         0.00000E+00
    0.71171E-02        -0.14514E-01         0.00000E+00
    0.64608E-02        -0.13355E-01         0.00000E+00
    0.58436E-02        -0.12218E-01         0.00000E+00
    0.52663E-02        -0.11098E-01         0.00000E+00
    0.47234E-02        -0.99926E-02         0.00000E+00
    0.42095E-02        -0.89022E-02         0.00000E+00
    0.37189E-02        -0.78269E-02         0.00000E+00
    0.32459E-02        -0.67677E-02         0.00000E+00
    0.27848E-02        -0.57260E-02         0.00000E+00
    0.23304E-02        -0.47039E-02         0.00000E+00
    0.18776E-02        -0.37040E-02         0.00000E+00
    0.14218E-02        -0.27297E-02         0.00000E+00
    0.95906E-03        -0.17847E-02         0.00000E+00
    0.48597E-03        -0.87324E-03         0.00000E+00
    0.00000E+00         0.00000E+00         0.00000E+00
    0.87893E-02        -0.16434E-01         0.00000E+00
    0.80298E-02        -0.15195E-01         0.00000E+00
    0.72842E-02        -0.14006E-01         0.00000E+00
    0.65879E-02        -0.12834E-01         0.00000E+00
    0.59376E-02        -0.11675E-01         0.00000E+00
    0.53268E-02        -0.10530E-01         0.00000E+00
    0.47491E-02        -0.93961E-02         0.00000E+00
    0.41979E-02        -0.82752E-02         0.00000E+00
    0.36665E-02        -0.71676E-02         0.00000E+00
    0.31484E-02        -0.60749E-02         0.00000E+00
    0.26373E-02        -0.49993E-02         0.00000E+00
    0.21272E-02        -0.39437E-02         0.00000E+00
    0.16128E-02        -0.29117E-02         0.00000E+00
    0.10893E-02        -0.19073E-02         0.00000E+00
    0.55278E-03        -0.93504E-03         0.00000E+00
    0.00000E+00         0.00000E+00         0.00000E+00
    0.97554E-02        -0.17237E-01         0.00000E+00
    0.88956E-02        -0.15974E-01         0.00000E+00
    0.80662E-02        -0.14748E-01         0.00000E+00
    0.72951E-02        -0.13534E-01         0.00000E+00
    0.65754E-02        -0.12332E-01         0.00000E+00
    0.59003E-02        -0.11140E-01         0.00000E+00
    0.52625E-02        -0.99574E-02         0.00000E+00
    0.46546E-02        -0.87843E-02         0.00000E+00
    0.40687E-02        -0.76216E-02         0.00000E+00
    0.34972E-02        -0.64710E-02         0.00000E+00
    0.29328E-02        -0.53347E-02         0.00000E+00
    0.23686E-02        -0.42159E-02         0.00000E+00
    0.17983E-02        -0.31184E-02         0.00000E+00
    0.12165E-02        -0.20466E-02         0.00000E+00
    0.61827E-03        -0.10053E-02         0.00000E+00
    0.00000E+00         0.00000E+00         0.00000E+00
    0.10664E-01        -0.18145E-01         0.00000E+00
    0.97085E-02        -0.16850E-01         0.00000E+00
    0.88021E-02        -0.15579E-01         0.00000E+00
    0.79594E-02        -0.14319E-01         0.00000E+00
    0.71741E-02        -0.13068E-01         0.00000E+00
    0.64389E-02        -0.11824E-01         0.00000E+00
    0.57456E-02        -0.10586E-01         0.00000E+00
    0.50854E-02        -0.93543E-02         0.00000E+00
    0.44493E-02        -0.81298E-02         0.00000E+00
    0.38287E-02        -0.69142E-02         0.00000E+00
    0.32149E-02        -0.57100E-02         0.00000E+00
    0.26002E-02        -0.45204E-02         0.00000E+00
    0.19772E-02        -0.33497E-02         0.00000E+00
    0.13397E-02        -0.22024E-02         0.00000E+00
    0.68213E-03        -0.10839E-02         0.00000E+00
    0.00000E+00         0.00000E+00         0.00000E+00
    0.11512E-01        -0.19159E-01         0.00000E+00
    0.10466E-01        -0.17821E-01         0.00000E+00
    0.94853E-02        -0.16500E-01         0.00000E+00
    0.85746E-02        -0.15188E-01         0.00000E+00
    0.77280E-02        -0.13882E-01         0.00000E+00
    0.69375E-02        -0.12580E-01         0.00000E+00
    0.61936E-02        -0.11281E-01         0.00000E+00
    0.54862E-02        -0.99848E-02         0.00000E+00
    0.48050E-02        -0.86919E-02         0.00000E+00
    0.41400E-02        -0.74043E-02         0.00000E+00
    0.34814E-02        -0.61248E-02         0.00000E+00
    0.28202E-02        -0.48571E-02         0.00000E+00
    0.21483E-02        -0.36054E-02         0.00000E+00
    0.14583E-02        -0.23748E-02         0.00000E+00
    0.74397E-03        -0.11709E-02         0.00000E+00
    0.00000E+00         0.00000E+00         0.00000E+00
    0.12294E-01        -0.20275E-01         0.00000E+00
    0.11162E-01        -0.18886E-01         0.00000E+00
    0.10109E-01        -0.17510E-01         0.00000E+00
    0.91334E-02        -0.16141E-01         0.00000E+00
    0.82304E-02        -0.14775E-01         0.00000E+00
    0.73901E-02        -0.13410E-01         0.00000E+00
    0.66015E-02        -0.12043E-01         0.00000E+00
    0.58528E-02        -0.10675E-01         0.00000E+00
    0.51323E-02        -0.93071E-02         0.00000E+00
    0.44283E-02        -0.79406E-02         0.00000E+00
    0.37299E-02        -0.65787E-02         0.00000E+00
    0.30270E-02        -0.52254E-02         0.00000E+00
    0.23102E-02        -0.38852E-02         0.00000E+00
    0.15714E-02        -0.25635E-02         0.00000E+00
    0.80335E-03        -0.12662E-02         0.00000E+00
    0.00000E+00         0.00000E+00         0.00000E+00
    0.13010E-01        -0.21494E-01         0.00000E+00
    0.11789E-01        -0.20045E-01         0.00000E+00
    0.10664E-01        -0.18609E-01         0.00000E+00
    0.96283E-02        -0.17177E-01         0.00000E+00
    0.86746E-02        -0.15746E-01         0.00000E+00
    0.77908E-02        -0.14311E-01         0.00000E+00
    0.69640E-02        -0.12871E-01         0.00000E+00
    0.61807E-02        -0.11425E-01         0.00000E+00
    0.54272E-02        -0.99746E-02         0.00000E+00
    0.46904E-02        -0.85222E-02         0.00000E+00
    0.39580E-02        -0.70708E-02         0.00000E+00
    0.32184E-02        -0.56246E-02         0.00000E+00
    0.24614E-02        -0.41884E-02         0.00000E+00
    0.16779E-02        -0.27680E-02         0.00000E+00
    0.85976E-03        -0.13696E-02         0.00000E+00
    0.00000E+00         0.00000E+00         0.00000E+00
    0.13646E-01        -0.22815E-01         0.00000E+00
    0.12336E-01        -0.21300E-01         0.00000E+00
    0.11141E-01        -0.19797E-01         0.00000E+00
    0.10051E-01        -0.18297E-01         0.00000E+00
    0.90532E-02        -0.16793E-01         0.00000E+00
    0.81331E-02        -0.15282E-01         0.00000E+00
    0.72757E-02        -0.13762E-01         0.00000E+00
    0.64651E-02        -0.12232E-01         0.00000E+00
    0.56859E-02        -0.10693E-01         0.00000E+00
    0.49232E-02        -0.91477E-02         0.00000E+00
    0.41629E-02        -0.75999E-02         0.00000E+00
    0.33924E-02        -0.60537E-02         0.00000E+00
    0.26003E-02        -0.45145E-02         0.00000E+00
    0.17767E-02        -0.29880E-02         0.00000E+00
    0.91256E-03        -0.14809E-02         0.00000E+00
    0.00000E+00         0.00000E+00         0.00000E+00
    0.14187E-01        -0.24235E-01         0.00000E+00
    0.12791E-01        -0.22649E-01         0.00000E+00
    0.11532E-01        -0.21073E-01         0.00000E+00
    0.10393E-01        -0.19498E-01         0.00000E+00
    0.93586E-02        -0.17915E-01         0.00000E+00
    0.84104E-02        -0.16322E-01         0.00000E+00
    0.75307E-02        -0.14714E-01         0.00000E+00
    0.67011E-02        -0.13093E-01         0.00000E+00
    0.59042E-02        -0.11459E-01         0.00000E+00
    0.51230E-02        -0.98152E-02         0.00000E+00
    0.43419E-02        -0.81642E-02         0.00000E+00
    0.35467E-02        -0.65114E-02         0.00000E+00
    0.27251E-02        -0.48622E-02         0.00000E+00
    0.18663E-02        -0.32228E-02         0.00000E+00
    0.96096E-03        -0.15997E-02         0.00000E+00
    0.00000E+00         0.00000E+00         0.00000E+00
    0.14616E-01        -0.25749E-01         0.00000E+00
    0.13141E-01        -0.24087E-01         0.00000E+00
    0.11825E-01        -0.22432E-01         0.00000E+00
    0.10646E-01        -0.20775E-01         0.00000E+00
    0.95829E-02        -0.19107E-01         0.00000E+00
    0.86157E-02        -0.17424E-01         0.00000E+00
    0.77228E-02        -0.15724E-01         0.00000E+00
    0.68835E-02        -0.14006E-01         0.00000E+00
    0.60776E-02        -0.12271E-01         0.00000E+00
    0.52863E-02        -0.10522E-01         0.00000E+00
    0.44920E-02        -0.87618E-02         0.00000E+00
    0.36790E-02        -0.69960E-02         0.00000E+00
    0.28338E-02        -0.52304E-02         0.00000E+00
    0.19453E-02        -0.34714E-02         0.00000E+00
    0.10039E-02        -0.17258E-02         0.00000E+00
    0.00000E+00         0.00000E+00         0.00000E+00
    0.14917E-01        -0.27351E-01         0.00000E+00
    0.13373E-01        -0.25607E-01         0.00000E+00
    0.12008E-01        -0.23868E-01         0.00000E+00
    0.10798E-01        -0.22122E-01         0.00000E+00
    0.97177E-02        -0.20363E-01         0.00000E+00
    0.87417E-02        -0.18585E-01         0.00000E+00
    0.78458E-02        -0.16786E-01         0.00000E+00
    0.70066E-02        -0.14965E-01         0.00000E+00
    0.62014E-02        -0.13124E-01         0.00000E+00
    0.54092E-02        -0.11264E-01         0.00000E+00
    0.46102E-02        -0.93901E-02         0.00000E+00
    0.37870E-02        -0.75059E-02         0.00000E+00
    0.29246E-02        -0.56180E-02         0.00000E+00
    0.20117E-02        -0.37334E-02         0.00000E+00
    0.10398E-02        -0.18589E-02         0.00000E+00
    0.00000E+00         0.00000E+00         0.00000E+00
    0.15075E-01        -0.29032E-01         0.00000E+00
    0.13471E-01        -0.27200E-01         0.00000E+00
    0.12070E-01        -0.25370E-01         0.00000E+00
    0.10841E-01        -0.23530E-01         0.00000E+00
    0.97542E-02        -0.21673E-01         0.00000E+00
    0.87808E-02        -0.19794E-01         0.00000E+00
    0.78929E-02        -0.17891E-01         0.00000E+00
    0.70643E-02        -0.15964E-01         0.00000E+00
    0.62702E-02        -0.14012E-01         0.00000E+00
    0.54871E-02        -0.12038E-01         0.00000E+00
    0.46929E-02        -0.10046E-01         0.00000E+00
    0.38679E-02        -0.80395E-02         0.00000E+00
    0.29954E-02        -0.60248E-02         0.00000E+00
    0.20635E-02        -0.40091E-02         0.00000E+00
    0.10662E-02        -0.19993E-02         0.00000E+00
    0.00000E+00         0.00000E+00         0.00000E+00
    0.15071E-01        -0.30779E-01         0.00000E+00
    0.13422E-01        -0.28854E-01         0.00000E+00
    0.11998E-01        -0.26928E-01         0.00000E+00
    0.10764E-01        -0.24988E-01         0.00000E+00
    0.96838E-02        -0.23027E-01         0.00000E+00
    0.87252E-02        -0.21042E-01         0.00000E+00
    0.78569E-02        -0.19031E-01         0.00000E+00
    0.70503E-02        -0.16993E-01         0.00000E+00
    0.62782E-02        -0.14928E-01         0.00000E+00
    0.55147E-02        -0.12838E-01         0.00000E+00
    0.47357E-02        -0.10726E-01         0.00000E+00
    0.39184E-02        -0.85957E-02         0.00000E+00
    0.30437E-02        -0.64524E-02         0.00000E+00
    0.20988E-02        -0.43025E-02         0.00000E+00
    0.10789E-02        -0.21529E-02         0.00000E+00
    0.00000E+00         0.00000E+00         0.00000E+00
    0.14889E-01        -0.32577E-01         0.00000E+00
    0.13211E-01        -0.30555E-01         0.00000E+00
    0.11781E-01        -0.28526E-01         0.00000E+00
    0.10557E-01        -0.26480E-01         0.00000E+00
    0.94979E-02        -0.24411E-01         0.00000E+00
    0.85671E-02        -0.22315E-01         0.00000E+00
    0.77307E-02        -0.20192E-01         0.00000E+00
    0.69574E-02        -0.18040E-01         0.00000E+00
    0.62183E-02        -0.15861E-01         0.00000E+00
    0.54857E-02        -0.13655E-01         0.00000E+00
    0.47328E-02        -0.11425E-01         0.00000E+00
    0.39338E-02        -0.91724E-02         0.00000E+00
    0.30653E-02        -0.69032E-02         0.00000E+00
    0.21121E-02        -0.46243E-02         0.00000E+00
    0.10817E-02        -0.23295E-02         0.00000E+00
    0.00000E+00         0.00000E+00         0.00000E+00
    0.14512E-01        -0.34408E-01         0.00000E+00
    0.12825E-01        -0.32283E-01         0.00000E+00
    0.11408E-01        -0.30146E-01         0.00000E+00
    0.10211E-01        -0.27989E-01         0.00000E+00
    0.91882E-02        -0.25806E-01         0.00000E+00
    0.82991E-02        -0.23596E-01         0.00000E+00
    0.75068E-02        -0.21357E-01         0.00000E+00
    0.67781E-02        -0.19090E-01         0.00000E+00
    0.60829E-02        -0.16797E-01         0.00000E+00
    0.53923E-02        -0.14478E-01         0.00000E+00
    0.46773E-02        -0.12133E-01         0.00000E+00
    0.39078E-02        -0.97642E-02         0.00000E+00
    0.30549E-02        -0.73776E-02         0.00000E+00
    0.21142E-02        -0.49610E-02         0.00000E+00
    0.10975E-02        -0.24964E-02         0.00000E+00
    0.00000E+00         0.00000E+00         0.00000E+00
    0.13922E-01        -0.36249E-01         0.00000E+00
    0.12250E-01        -0.34017E-01         0.00000E+00
    0.10868E-01        -0.31767E-01         0.00000E+00
    0.97169E-02        -0.29494E-01         0.00000E+00
    0.87475E-02        -0.27193E-01         0.00000E+00
    0.79142E-02        -0.24864E-01         0.00000E+00
    0.71782E-02        -0.22508E-01         0.00000E+00
    0.65049E-02        -0.20126E-01         0.00000E+00
    0.58639E-02        -0.17720E-01         0.00000E+00
    0.52258E-02        -0.15290E-01         0.00000E+00
    0.45609E-02        -0.12836E-01         0.00000E+00
    0.38333E-02        -0.10359E-01         0.00000E+00
    0.30207E-02        -0.78501E-02         0.00000E+00
    0.21229E-02        -0.52797E-02         0.00000E+00
    0.11230E-02        -0.26547E-02         0.00000E+00
    0.00000E+00         0.00000E+00         0.00000E+00
    0.13105E-01        -0.38074E-01         0.00000E+00
    0.11475E-01        -0.35730E-01         0.00000E+00
    0.10151E-01        -0.33363E-01         0.00000E+00
    0.90682E-02        -0.30969E-01         0.00000E+00
    0.81695E-02        -0.28546E-01         0.00000E+00
    0.74065E-02        -0.26096E-01         0.00000E+00
    0.67383E-02        -0.23621E-01         0.00000E+00
    0.61304E-02        -0.21125E-01         0.00000E+00
    0.55525E-02        -0.18608E-01         0.00000E+00
    0.49767E-02        -0.16071E-01         0.00000E+00
    0.43737E-02        -0.13514E-01         0.00000E+00
    0.37091E-02        -0.10932E-01         0.00000E+00
    0.29664E-02        -0.82934E-02         0.00000E+00
    0.21251E-02        -0.55820E-02         0.00000E+00
    0.11480E-02        -0.28083E-02         0.00000E+00
    0.00000E+00         0.00000E+00         0.00000E+00
    0.12044E-01        -0.39853E-01         0.00000E+00
    0.10488E-01        -0.37393E-01         0.00000E+00
    0.92515E-02        -0.34905E-01         0.00000E+00
    0.82594E-02        -0.32385E-01         0.00000E+00
    0.74496E-02        -0.29837E-01         0.00000E+00
    0.67707E-02        -0.27264E-01         0.00000E+00
    0.61813E-02        -0.24671E-01         0.00000E+00
    0.56474E-02        -0.22062E-01         0.00000E+00
    0.51406E-02        -0.19438E-01         0.00000E+00
    0.46352E-02        -0.16799E-01         0.00000E+00
    0.41064E-02        -0.14142E-01         0.00000E+00
    0.35279E-02        -0.11457E-01         0.00000E+00
    0.28726E-02        -0.87034E-02         0.00000E+00
    0.21017E-02        -0.58679E-02         0.00000E+00
    0.11638E-02        -0.29577E-02         0.00000E+00
    0.00000E+00         0.00000E+00         0.00000E+00
    0.10727E-01        -0.41548E-01         0.00000E+00
    0.92824E-02        -0.38970E-01         0.00000E+00
    0.81639E-02        -0.36357E-01         0.00000E+00
    0.72873E-02        -0.33709E-01         0.00000E+00
    0.65846E-02        -0.31034E-01         0.00000E+00
    0.60029E-02        -0.28340E-01         0.00000E+00
    0.55016E-02        -0.25632E-01         0.00000E+00
    0.50491E-02        -0.22913E-01         0.00000E+00
    0.46197E-02        -0.20186E-01         0.00000E+00
    0.41916E-02        -0.17449E-01         0.00000E+00
    0.37463E-02        -0.14698E-01         0.00000E+00
    0.32667E-02        -0.11920E-01         0.00000E+00
    0.27137E-02        -0.90722E-02         0.00000E+00
    0.20322E-02        -0.61326E-02         0.00000E+00
    0.11593E-02        -0.31003E-02         0.00000E+00
    0.00000E+00         0.00000E+00         0.00000E+00
    0.91422E-02        -0.43119E-01         0.00000E+00
    0.78519E-02        -0.40421E-01         0.00000E+00
    0.68870E-02        -0.37679E-01         0.00000E+00
    0.61515E-02        -0.34902E-01         0.00000E+00
    0.55728E-02        -0.32102E-01         0.00000E+00
    0.50992E-02        -0.29290E-01         0.00000E+00
    0.46934E-02        -0.26473E-01         0.00000E+00
    0.43278E-02        -0.23653E-01         0.00000E+00
    0.39808E-02        -0.20831E-01         0.00000E+00
    0.36351E-02        -0.18004E-01         0.00000E+00
    0.32775E-02        -0.15166E-01         0.00000E+00
    0.29000E-02        -0.12308E-01         0.00000E+00
    0.24618E-02        -0.93893E-02         0.00000E+00
    0.18925E-02        -0.63696E-02         0.00000E+00
    0.11167E-02        -0.32347E-02         0.00000E+00
    0.00000E+00         0.00000E+00         0.00000E+00
    0.72801E-02        -0.44515E-01         0.00000E+00
    0.61960E-02        -0.41695E-01         0.00000E+00
    0.54239E-02        -0.38823E-01         0.00000E+00
    0.48539E-02        -0.35918E-01         0.00000E+00
    0.44131E-02        -0.33000E-01         0.00000E+00
    0.40553E-02        -0.30080E-01         0.00000E+00
    0.37497E-02        -0.27166E-01         0.00000E+00
    0.34746E-02        -0.24259E-01         0.00000E+00
    0.32133E-02        -0.21355E-01         0.00000E+00
    0.29530E-02        -0.18451E-01         0.00000E+00
    0.26845E-02        -0.15538E-01         0.00000E+00
    0.24036E-02        -0.12610E-01         0.00000E+00
    0.20872E-02        -0.96415E-02         0.00000E+00
    0.16545E-02        -0.65704E-02         0.00000E+00
    0.10145E-02        -0.33591E-02         0.00000E+00
    0.00000E+00         0.00000E+00         0.00000E+00
    0.51336E-02        -0.45672E-01         0.00000E+00
    0.43212E-02        -0.42730E-01         0.00000E+00
    0.37830E-02        -0.39729E-01         0.00000E+00
    0.33977E-02        -0.36706E-01         0.00000E+00
    0.31029E-02        -0.33685E-01         0.00000E+00
    0.28646E-02        -0.30677E-01         0.00000E+00
    0.26614E-02        -0.27686E-01         0.00000E+00
    0.24782E-02        -0.24709E-01         0.00000E+00
    0.23041E-02        -0.21742E-01         0.00000E+00
    0.21307E-02        -0.18779E-01         0.00000E+00
    0.19520E-02        -0.15809E-01         0.00000E+00
    0.17631E-02        -0.12824E-01         0.00000E+00
    0.15598E-02        -0.98130E-02         0.00000E+00
    0.12847E-02        -0.67232E-02         0.00000E+00
    0.82546E-03        -0.34694E-02         0.00000E+00
    0.00000E+00         0.00000E+00         0.00000E+00
    0.27003E-02        -0.46506E-01         0.00000E+00
    0.22463E-02        -0.43441E-01         0.00000E+00
    0.19751E-02        -0.40325E-01         0.00000E+00
    0.17826E-02        -0.37211E-01         0.00000E+00
    0.16359E-02        -0.34118E-01         0.00000E+00
    0.15174E-02        -0.31050E-01         0.00000E+00
    0.14163E-02        -0.28008E-01         0.00000E+00
    0.13251E-02        -0.24987E-01         0.00000E+00
    0.12384E-02        -0.21980E-01         0.00000E+00
    0.11520E-02        -0.18979E-01         0.00000E+00
    0.10628E-02        -0.15974E-01         0.00000E+00
    0.96840E-03        -0.12954E-01         0.00000E+00
    0.86591E-03        -0.99067E-02         0.00000E+00
    0.74126E-03        -0.68077E-02         0.00000E+00
    0.51145E-03        -0.35597E-02         0.00000E+00
    0.00000E+00         0.00000E+00         0.00000E+00
    0.00000E+00        -0.46866E-01         0.00000E+00
    0.00000E+00        -0.43705E-01         0.00000E+00
    0.00000E+00        -0.40534E-01         0.00000E+00
    0.00000E+00        -0.37385E-01         0.00000E+00
    0.00000E+00        -0.34266E-01         0.00000E+00
    0.00000E+00        -0.31177E-01         0.00000E+00
    0.00000E+00        -0.28117E-01         0.00000E+00
    0.00000E+00        -0.25081E-01         0.00000E+00
    0.00000E+00        -0.22060E-01         0.00000E+00
    0.00000E+00        -0.19047E-01         0.00000E+00
    0.00000E+00        -0.16030E-01         0.00000E+00
    0.00000E+00        -0.12998E-01         0.00000E+00
    0.00000E+00        -0.99366E-02         0.00000E+00
    0.00000E+00        -0.68302E-02         0.00000E+00
    0.00000E+00        -0.36008E-02         0.00000E+00
    0.00000E+00         0.00000E+00         0.00000E+00
CELL_DATA        450
VECTORS vDarcy double 
    0.23361E-09        -0.68096E-10         0.00000E+00
    0.23347E-09        -0.15129E-09         0.00000E+00
    0.23332E-09        -0.82402E-10         0.00000E+00
    0.23394E-09         0.28636E-10         0.00000E+00
    0.23567E-09         0.10762E-09         0.00000E+00
    0.23822E-09         0.16080E-09         0.00000E+00
    0.24127E-09         0.19318E-09         0.00000E+00
    0.24456E-09         0.20867E-09         0.00000E+00
    0.24785E-09         0.21025E-09         0.00000E+00
    0.25098E-09         0.20023E-09         0.00000E+00
    0.25382E-09         0.18038E-09         0.00000E+00
    0.25626E-09         0.15209E-09         0.00000E+00
    0.25821E-09         0.11644E-09         0.00000E+00
    0.25958E-09         0.74308E-10         0.00000E+00
    0.26030E-09         0.26405E-10         0.00000E+00
    0.70356E-09        -0.68188E-10         0.00000E+00
    0.70314E-09        -0.15067E-09         0.00000E+00
    0.70258E-09        -0.82346E-10         0.00000E+00
    0.70435E-09         0.26142E-10         0.00000E+00
    0.70955E-09         0.10314E-09         0.00000E+00
    0.71722E-09         0.15502E-09         0.00000E+00
    0.72636E-09         0.18672E-09         0.00000E+00
    0.73617E-09         0.20201E-09         0.00000E+00
    0.74598E-09         0.20377E-09         0.00000E+00
    0.75531E-09         0.19422E-09         0.00000E+00
    0.76376E-09         0.17507E-09         0.00000E+00
    0.77103E-09         0.14767E-09         0.00000E+00
    0.77682E-09         0.11308E-09         0.00000E+00
    0.78090E-09         0.72179E-10         0.00000E+00
    0.78304E-09         0.25651E-10         0.00000E+00
    0.11816E-08        -0.68443E-10         0.00000E+00
    0.11808E-08        -0.14925E-09         0.00000E+00
    0.11795E-08        -0.82005E-10         0.00000E+00
    0.11824E-08         0.21116E-10         0.00000E+00
    0.11911E-08         0.94119E-10         0.00000E+00
    0.12039E-08         0.14347E-09         0.00000E+00
    0.12191E-08         0.17387E-09         0.00000E+00
    0.12352E-08         0.18881E-09         0.00000E+00
    0.12514E-08         0.19095E-09         0.00000E+00
    0.12667E-08         0.18233E-09         0.00000E+00
    0.12805E-08         0.16457E-09         0.00000E+00
    0.12924E-08         0.13894E-09         0.00000E+00
    0.13019E-08         0.10646E-09         0.00000E+00
    0.13086E-08         0.67970E-10         0.00000E+00
    0.13121E-08         0.24158E-10         0.00000E+00
    0.16728E-08        -0.68865E-10         0.00000E+00
    0.16714E-08        -0.14674E-09         0.00000E+00
    0.16692E-08        -0.81112E-10         0.00000E+00
    0.16730E-08         0.13386E-10         0.00000E+00
    0.16855E-08         0.80480E-10         0.00000E+00
    0.17034E-08         0.12625E-09         0.00000E+00
    0.17244E-08         0.15485E-09         0.00000E+00
    0.17466E-08         0.16935E-09         0.00000E+00
    0.17687E-08         0.17209E-09         0.00000E+00
    0.17896E-08         0.16488E-09         0.00000E+00
    0.18085E-08         0.14916E-09         0.00000E+00
    0.18247E-08         0.12612E-09         0.00000E+00
    0.18377E-08         0.96720E-10         0.00000E+00
    0.18468E-08         0.61778E-10         0.00000E+00
    0.18516E-08         0.21959E-10         0.00000E+00
    0.21814E-08        -0.69446E-10         0.00000E+00
    0.21794E-08        -0.14288E-09         0.00000E+00
    0.21763E-08        -0.79818E-10         0.00000E+00
    0.21816E-08         0.26696E-11         0.00000E+00
    0.21979E-08         0.62240E-10         0.00000E+00
    0.22207E-08         0.10358E-09         0.00000E+00
    0.22471E-08         0.13003E-09         0.00000E+00
    0.22748E-08         0.14410E-09         0.00000E+00
    0.23022E-08         0.14768E-09         0.00000E+00
    0.23282E-08         0.14231E-09         0.00000E+00
    0.23516E-08         0.12924E-09         0.00000E+00
    0.23717E-08         0.10954E-09         0.00000E+00
    0.23878E-08         0.84119E-10         0.00000E+00
    0.23992E-08         0.53751E-10         0.00000E+00
    0.24052E-08         0.19100E-10         0.00000E+00
    0.27121E-08        -0.69974E-10         0.00000E+00
    0.27090E-08        -0.13744E-09         0.00000E+00
    0.27058E-08        -0.79192E-10         0.00000E+00
    0.27134E-08        -0.11091E-10         0.00000E+00
    0.27332E-08         0.39653E-10         0.00000E+00
    0.27604E-08         0.75934E-10         0.00000E+00
    0.27915E-08         0.10003E-09         0.00000E+00
    0.28240E-08         0.11370E-09         0.00000E+00
    0.28560E-08         0.11838E-09         0.00000E+00
    0.28862E-08         0.11526E-09         0.00000E+00
    0.29135E-08         0.10538E-09         0.00000E+00
    0.29370E-08         0.89675E-10         0.00000E+00
    0.29557E-08         0.68992E-10         0.00000E+00
    0.29690E-08         0.44094E-10         0.00000E+00
    0.29760E-08         0.15647E-10         0.00000E+00
    0.32692E-08        -0.69782E-10         0.00000E+00
    0.32647E-08        -0.13027E-09         0.00000E+00
    0.32618E-08        -0.80555E-10         0.00000E+00
    0.32722E-08        -0.27988E-10         0.00000E+00
    0.32955E-08         0.13135E-10         0.00000E+00
    0.33265E-08         0.44001E-10         0.00000E+00
    0.33614E-08         0.65661E-10         0.00000E+00
    0.33977E-08         0.79061E-10         0.00000E+00
    0.34334E-08         0.85079E-10         0.00000E+00
    0.34670E-08         0.84550E-10         0.00000E+00
    0.34973E-08         0.78286E-10         0.00000E+00
    0.35233E-08         0.67094E-10         0.00000E+00
    0.35442E-08         0.51766E-10         0.00000E+00
    0.35590E-08         0.33065E-10         0.00000E+00
    0.35668E-08         0.11686E-10         0.00000E+00
    0.38555E-08        -0.67347E-10         0.00000E+00
    0.38487E-08        -0.12166E-09         0.00000E+00
    0.38474E-08        -0.85295E-10         0.00000E+00
    0.38617E-08        -0.48297E-10         0.00000E+00
    0.38883E-08        -0.16806E-10         0.00000E+00
    0.39222E-08         0.86686E-11         0.00000E+00
    0.39600E-08         0.27981E-10         0.00000E+00
    0.39989E-08         0.41263E-10         0.00000E+00
    0.40370E-08         0.48834E-10         0.00000E+00
    0.40728E-08         0.51160E-10         0.00000E+00
    0.41052E-08         0.48824E-10         0.00000E+00
    0.41329E-08         0.42508E-10         0.00000E+00
    0.41553E-08         0.32966E-10         0.00000E+00
    0.41711E-08         0.20983E-10         0.00000E+00
    0.41796E-08         0.73207E-11         0.00000E+00
    0.44750E-08        -0.62067E-10         0.00000E+00
    0.44670E-08        -0.11251E-09         0.00000E+00
    0.44676E-08        -0.94158E-10         0.00000E+00
    0.44853E-08        -0.71788E-10         0.00000E+00
    0.45143E-08        -0.49349E-10         0.00000E+00
    0.45501E-08        -0.28936E-10         0.00000E+00
    0.45894E-08        -0.11751E-10         0.00000E+00
    0.46296E-08         0.15920E-11         0.00000E+00
    0.46688E-08         0.10888E-10         0.00000E+00
    0.47056E-08         0.16240E-10         0.00000E+00
    0.47387E-08         0.18005E-10         0.00000E+00
    0.47673E-08         0.16750E-10         0.00000E+00
    0.47902E-08         0.13210E-10         0.00000E+00
    0.48067E-08         0.82291E-11         0.00000E+00
    0.48154E-08         0.26788E-11         0.00000E+00
    0.51268E-08        -0.54940E-10         0.00000E+00
    0.51205E-08        -0.10576E-09         0.00000E+00
    0.51251E-08        -0.10667E-09         0.00000E+00
    0.51452E-08        -0.97473E-10         0.00000E+00
    0.51753E-08        -0.83270E-10         0.00000E+00
    0.52116E-08        -0.67449E-10         0.00000E+00
    0.52508E-08        -0.52104E-10         0.00000E+00
    0.52907E-08        -0.38513E-10         0.00000E+00
    0.53296E-08        -0.27370E-10         0.00000E+00
    0.53659E-08        -0.18920E-10         0.00000E+00
    0.53986E-08        -0.13027E-10         0.00000E+00
    0.54268E-08        -0.92282E-11         0.00000E+00
    0.54496E-08        -0.67845E-11         0.00000E+00
    0.54659E-08        -0.47525E-11         0.00000E+00
    0.54747E-08        -0.20898E-11         0.00000E+00
    0.58131E-08        -0.49275E-10         0.00000E+00
    0.58117E-08        -0.10426E-09         0.00000E+00
    0.58203E-08        -0.12194E-09         0.00000E+00
    0.58416E-08        -0.12409E-09         0.00000E+00
    0.58715E-08        -0.11716E-09         0.00000E+00
    0.59066E-08        -0.10537E-09         0.00000E+00
    0.59443E-08        -0.91538E-10         0.00000E+00
    0.59825E-08        -0.77511E-10         0.00000E+00
    0.60193E-08        -0.64441E-10         0.00000E+00
    0.60537E-08        -0.52908E-10         0.00000E+00
    0.60847E-08        -0.42999E-10         0.00000E+00
    0.61113E-08        -0.34350E-10         0.00000E+00
    0.61328E-08        -0.26197E-10         0.00000E+00
    0.61483E-08        -0.17447E-10         0.00000E+00
    0.61567E-08        -0.68101E-11         0.00000E+00
    0.65391E-08        -0.46442E-10         0.00000E+00
    0.65407E-08        -0.10793E-09         0.00000E+00
    0.65520E-08        -0.13877E-09         0.00000E+00
    0.65733E-08        -0.15036E-09         0.00000E+00
    0.66016E-08        -0.14961E-09         0.00000E+00
    0.66343E-08        -0.14121E-09         0.00000E+00
    0.66689E-08        -0.12849E-09         0.00000E+00
    0.67037E-08        -0.11382E-09         0.00000E+00
    0.67370E-08        -0.98756E-10         0.00000E+00
    0.67679E-08        -0.84219E-10         0.00000E+00
    0.67955E-08        -0.70524E-10         0.00000E+00
    0.68192E-08        -0.57418E-10         0.00000E+00
    0.68383E-08        -0.44095E-10         0.00000E+00
    0.68523E-08        -0.29261E-10         0.00000E+00
    0.68599E-08        -0.11278E-10         0.00000E+00
    0.73001E-08        -0.46262E-10         0.00000E+00
    0.73050E-08        -0.11536E-09         0.00000E+00
    0.73176E-08        -0.15592E-09         0.00000E+00
    0.73377E-08        -0.17510E-09         0.00000E+00
    0.73633E-08        -0.17932E-09         0.00000E+00
    0.73922E-08        -0.17353E-09         0.00000E+00
    0.74223E-08        -0.16145E-09         0.00000E+00
    0.74522E-08        -0.14587E-09         0.00000E+00
    0.74805E-08        -0.12873E-09         0.00000E+00
    0.75063E-08        -0.11128E-09         0.00000E+00
    0.75290E-08        -0.94112E-10         0.00000E+00
    0.75483E-08        -0.77102E-10         0.00000E+00
    0.75638E-08        -0.59417E-10         0.00000E+00
    0.75752E-08        -0.39507E-10         0.00000E+00
    0.75815E-08        -0.15257E-10         0.00000E+00
    0.80937E-08        -0.49080E-10         0.00000E+00
    0.81003E-08        -0.12495E-09         0.00000E+00
    0.81131E-08        -0.17250E-09         0.00000E+00
    0.81312E-08        -0.19729E-09         0.00000E+00
    0.81530E-08        -0.20512E-09         0.00000E+00
    0.81769E-08        -0.20101E-09         0.00000E+00
    0.82013E-08        -0.18899E-09         0.00000E+00
    0.82249E-08        -0.17215E-09         0.00000E+00
    0.82466E-08        -0.15279E-09         0.00000E+00
    0.82657E-08        -0.13251E-09         0.00000E+00
    0.82819E-08        -0.11218E-09         0.00000E+00
    0.82952E-08        -0.91929E-10         0.00000E+00
    0.83057E-08        -0.70935E-10         0.00000E+00
    0.83135E-08        -0.47370E-10         0.00000E+00
    0.83179E-08        -0.18466E-10         0.00000E+00
    0.89164E-08        -0.53050E-10         0.00000E+00
    0.89230E-08        -0.13505E-09         0.00000E+00
    0.89345E-08        -0.18750E-09         0.00000E+00
    0.89494E-08        -0.21589E-09         0.00000E+00
    0.89663E-08        -0.22585E-09         0.00000E+00
    0.89840E-08        -0.22241E-09         0.00000E+00
    0.90014E-08        -0.20977E-09         0.00000E+00
    0.90173E-08        -0.19126E-09         0.00000E+00
    0.90311E-08        -0.16948E-09         0.00000E+00
    0.90421E-08        -0.14634E-09         0.00000E+00
    0.90503E-08        -0.12312E-09         0.00000E+00
    0.90560E-08        -0.10027E-09         0.00000E+00
    0.90598E-08        -0.77202E-10         0.00000E+00
    0.90625E-08        -0.51844E-10         0.00000E+00
    0.90644E-08        -0.20560E-10         0.00000E+00
    0.97626E-08        -0.56814E-10         0.00000E+00
    0.97678E-08        -0.14393E-09         0.00000E+00
    0.97764E-08        -0.19947E-09         0.00000E+00
    0.97866E-08        -0.22965E-09         0.00000E+00
    0.97973E-08        -0.24030E-09         0.00000E+00
    0.98077E-08        -0.23652E-09         0.00000E+00
    0.98169E-08        -0.22260E-09         0.00000E+00
    0.98242E-08        -0.20200E-09         0.00000E+00
    0.98289E-08        -0.17752E-09         0.00000E+00
    0.98306E-08        -0.15139E-09         0.00000E+00
    0.98294E-08        -0.12533E-09         0.00000E+00
    0.98257E-08        -0.10038E-09         0.00000E+00
    0.98210E-08        -0.76462E-10         0.00000E+00
    0.98170E-08        -0.51607E-10         0.00000E+00
    0.98152E-08        -0.21086E-10         0.00000E+00
    0.10625E-07        -0.59633E-10         0.00000E+00
    0.10627E-07        -0.15003E-09         0.00000E+00
    0.10632E-07        -0.20684E-09         0.00000E+00
    0.10636E-07        -0.23719E-09         0.00000E+00
    0.10639E-07        -0.24725E-09         0.00000E+00
    0.10641E-07        -0.24225E-09         0.00000E+00
    0.10641E-07        -0.22648E-09         0.00000E+00
    0.10639E-07        -0.20343E-09         0.00000E+00
    0.10634E-07        -0.17598E-09         0.00000E+00
    0.10625E-07        -0.14660E-09         0.00000E+00
    0.10614E-07        -0.11751E-09         0.00000E+00
    0.10599E-07        -0.90504E-10         0.00000E+00
    0.10584E-07        -0.66584E-10         0.00000E+00
    0.10571E-07        -0.44752E-10         0.00000E+00
    0.10564E-07        -0.19376E-10         0.00000E+00
    0.11493E-07        -0.60944E-10         0.00000E+00
    0.11492E-07        -0.15210E-09         0.00000E+00
    0.11491E-07        -0.20817E-09         0.00000E+00
    0.11487E-07        -0.23714E-09         0.00000E+00
    0.11482E-07        -0.24555E-09         0.00000E+00
    0.11475E-07        -0.23867E-09         0.00000E+00
    0.11465E-07        -0.22071E-09         0.00000E+00
    0.11453E-07        -0.19501E-09         0.00000E+00
    0.11438E-07        -0.16439E-09         0.00000E+00
    0.11419E-07        -0.13145E-09         0.00000E+00
    0.11397E-07        -0.98854E-10         0.00000E+00
    0.11371E-07        -0.69353E-10         0.00000E+00
    0.11344E-07        -0.45420E-10         0.00000E+00
    0.11319E-07        -0.28143E-10         0.00000E+00
    0.11304E-07        -0.14298E-10         0.00000E+00
    0.12355E-07        -0.60293E-10         0.00000E+00
    0.12351E-07        -0.14908E-09         0.00000E+00
    0.12343E-07        -0.20222E-09         0.00000E+00
    0.12331E-07        -0.22836E-09         0.00000E+00
    0.12316E-07        -0.23427E-09         0.00000E+00
    0.12299E-07        -0.22516E-09         0.00000E+00
    0.12279E-07        -0.20495E-09         0.00000E+00
    0.12257E-07        -0.17668E-09         0.00000E+00
    0.12232E-07        -0.14286E-09         0.00000E+00
    0.12204E-07        -0.10607E-09         0.00000E+00
    0.12171E-07        -0.69403E-10         0.00000E+00
    0.12135E-07        -0.36676E-10         0.00000E+00
    0.12096E-07        -0.12003E-10         0.00000E+00
    0.12058E-07         0.91346E-12         0.00000E+00
    0.12030E-07        -0.77906E-12         0.00000E+00
    0.13199E-07        -0.57303E-10         0.00000E+00
    0.13191E-07        -0.14014E-09         0.00000E+00
    0.13176E-07        -0.18804E-09         0.00000E+00
    0.13155E-07        -0.21003E-09         0.00000E+00
    0.13130E-07        -0.21288E-09         0.00000E+00
    0.13102E-07        -0.20149E-09         0.00000E+00
    0.13073E-07        -0.17933E-09         0.00000E+00
    0.13041E-07        -0.14886E-09         0.00000E+00
    0.13008E-07        -0.11208E-09         0.00000E+00
    0.12971E-07        -0.71211E-10         0.00000E+00
    0.12929E-07        -0.29688E-10         0.00000E+00
    0.12882E-07         0.68678E-11         0.00000E+00
    0.12833E-07         0.31668E-10         0.00000E+00
    0.12787E-07         0.41050E-10         0.00000E+00
    0.12753E-07         0.20813E-10         0.00000E+00
    0.14010E-07        -0.51692E-10         0.00000E+00
    0.13997E-07        -0.12472E-09         0.00000E+00
    0.13974E-07        -0.16507E-09         0.00000E+00
    0.13944E-07        -0.18181E-09         0.00000E+00
    0.13909E-07        -0.18133E-09         0.00000E+00
    0.13872E-07        -0.16797E-09         0.00000E+00
    0.13833E-07        -0.14449E-09         0.00000E+00
    0.13794E-07        -0.11255E-09         0.00000E+00
    0.13753E-07        -0.73248E-10         0.00000E+00
    0.13708E-07        -0.27982E-10         0.00000E+00
    0.13658E-07         0.19639E-10         0.00000E+00
    0.13599E-07         0.62519E-10         0.00000E+00
    0.13539E-07         0.84376E-10         0.00000E+00
    0.13506E-07         0.67179E-10         0.00000E+00
    0.13509E-07         0.25345E-10         0.00000E+00
    0.14771E-07        -0.43291E-10         0.00000E+00
    0.14753E-07        -0.10258E-09         0.00000E+00
    0.14723E-07        -0.13330E-09         0.00000E+00
    0.14684E-07        -0.14401E-09         0.00000E+00
    0.14640E-07        -0.14030E-09         0.00000E+00
    0.14594E-07        -0.12559E-09         0.00000E+00
    0.14548E-07        -0.10171E-09         0.00000E+00
    0.14502E-07        -0.69287E-10         0.00000E+00
    0.14456E-07        -0.28163E-10         0.00000E+00
    0.14406E-07         0.21999E-10         0.00000E+00
    0.14347E-07         0.79405E-10         0.00000E+00
    0.14278E-07         0.13021E-09         0.00000E+00
    0.14229E-07         0.12510E-09         0.00000E+00
    0.14222E-07         0.65808E-10         0.00000E+00
    0.14230E-07         0.15531E-10         0.00000E+00
    0.15464E-07        -0.32092E-10         0.00000E+00
    0.15442E-07        -0.73953E-10         0.00000E+00
    0.15405E-07        -0.93402E-10         0.00000E+00
    0.15358E-07        -0.97785E-10         0.00000E+00
    0.15308E-07        -0.91363E-10         0.00000E+00
    0.15256E-07        -0.76258E-10         0.00000E+00
    0.15205E-07        -0.53095E-10         0.00000E+00
    0.15155E-07        -0.21337E-10         0.00000E+00
    0.15106E-07         0.20680E-10         0.00000E+00
    0.15054E-07         0.75797E-10         0.00000E+00
    0.14991E-07         0.14852E-09         0.00000E+00
    0.14929E-07         0.19269E-09         0.00000E+00
    0.14899E-07         0.14093E-09         0.00000E+00
    0.14895E-07         0.60541E-10         0.00000E+00
    0.14895E-07         0.12213E-10         0.00000E+00
    0.16071E-07        -0.18307E-10         0.00000E+00
    0.16046E-07        -0.39699E-10         0.00000E+00
    0.16003E-07        -0.46992E-10         0.00000E+00
    0.15952E-07        -0.45459E-10         0.00000E+00
    0.15898E-07        -0.37344E-10         0.00000E+00
    0.15844E-07        -0.23052E-10         0.00000E+00
    0.15792E-07        -0.18325E-11         0.00000E+00
    0.15742E-07         0.28036E-10         0.00000E+00
    0.15694E-07         0.69640E-10         0.00000E+00
    0.15645E-07         0.12872E-09         0.00000E+00
    0.15592E-07         0.21367E-09         0.00000E+00
    0.15545E-07         0.23654E-09         0.00000E+00
    0.15522E-07         0.15076E-09         0.00000E+00
    0.15512E-07         0.63471E-10         0.00000E+00
    0.15508E-07         0.12542E-10         0.00000E+00
    0.16573E-07        -0.24300E-11         0.00000E+00
    0.16546E-07        -0.14946E-11         0.00000E+00
    0.16502E-07         0.30656E-11         0.00000E+00
    0.16450E-07         0.91928E-11         0.00000E+00
    0.16397E-07         0.17434E-10         0.00000E+00
    0.16346E-07         0.29479E-10         0.00000E+00
    0.16298E-07         0.47517E-10         0.00000E+00
    0.16254E-07         0.74265E-10         0.00000E+00
    0.16213E-07         0.11366E-09         0.00000E+00
    0.16175E-07         0.17286E-09         0.00000E+00
    0.16141E-07         0.25894E-09         0.00000E+00
    0.16112E-07         0.26723E-09         0.00000E+00
    0.16090E-07         0.16603E-09         0.00000E+00
    0.16075E-07         0.71659E-10         0.00000E+00
    0.16068E-07         0.15085E-10         0.00000E+00
    0.16953E-07         0.14652E-10         0.00000E+00
    0.16926E-07         0.37838E-10         0.00000E+00
    0.16885E-07         0.52251E-10         0.00000E+00
    0.16838E-07         0.60562E-10         0.00000E+00
    0.16793E-07         0.66896E-10         0.00000E+00
    0.16752E-07         0.75204E-10         0.00000E+00
    0.16715E-07         0.88933E-10         0.00000E+00
    0.16682E-07         0.11139E-09         0.00000E+00
    0.16655E-07         0.14647E-09         0.00000E+00
    0.16635E-07         0.19996E-09         0.00000E+00
    0.16626E-07         0.27683E-09         0.00000E+00
    0.16618E-07         0.28696E-09         0.00000E+00
    0.16600E-07         0.18726E-09         0.00000E+00
    0.16582E-07         0.82789E-10         0.00000E+00
    0.16574E-07         0.18573E-10         0.00000E+00
    0.17192E-07         0.31474E-10         0.00000E+00
    0.17169E-07         0.73754E-10         0.00000E+00
    0.17137E-07         0.93740E-10         0.00000E+00
    0.17105E-07         0.10082E-09         0.00000E+00
    0.17077E-07         0.10317E-09         0.00000E+00
    0.17053E-07         0.10661E-09         0.00000E+00
    0.17035E-07         0.11527E-09         0.00000E+00
    0.17022E-07         0.13247E-09         0.00000E+00
    0.17016E-07         0.16134E-09         0.00000E+00
    0.17018E-07         0.20503E-09         0.00000E+00
    0.17035E-07         0.26512E-09         0.00000E+00
    0.17054E-07         0.28911E-09         0.00000E+00
    0.17050E-07         0.20798E-09         0.00000E+00
    0.17036E-07         0.94483E-10         0.00000E+00
    0.17028E-07         0.22693E-10         0.00000E+00
    0.17272E-07         0.45469E-10         0.00000E+00
    0.17260E-07         0.98654E-10         0.00000E+00
    0.17248E-07         0.11727E-09         0.00000E+00
    0.17242E-07         0.11966E-09         0.00000E+00
    0.17241E-07         0.11695E-09         0.00000E+00
    0.17245E-07         0.11550E-09         0.00000E+00
    0.17254E-07         0.11916E-09         0.00000E+00
    0.17267E-07         0.13062E-09         0.00000E+00
    0.17287E-07         0.15199E-09         0.00000E+00
    0.17317E-07         0.18435E-09         0.00000E+00
    0.17362E-07         0.22586E-09         0.00000E+00
    0.17414E-07         0.25933E-09         0.00000E+00
    0.17443E-07         0.21336E-09         0.00000E+00
    0.17442E-07         0.10454E-09         0.00000E+00
    0.17437E-07         0.26199E-10         0.00000E+00
    0.17174E-07         0.51456E-10         0.00000E+00
    0.17187E-07         0.98040E-10         0.00000E+00
    0.17214E-07         0.10780E-09         0.00000E+00
    0.17250E-07         0.10465E-09         0.00000E+00
    0.17288E-07         0.98559E-10         0.00000E+00
    0.17327E-07         0.94254E-10         0.00000E+00
    0.17368E-07         0.94291E-10         0.00000E+00
    0.17413E-07         0.10032E-09         0.00000E+00
    0.17464E-07         0.11344E-09         0.00000E+00
    0.17526E-07         0.13381E-09         0.00000E+00
    0.17601E-07         0.15920E-09         0.00000E+00
    0.17690E-07         0.18608E-09         0.00000E+00
    0.17768E-07         0.18065E-09         0.00000E+00
    0.17807E-07         0.99971E-10         0.00000E+00
    0.17819E-07         0.25031E-10         0.00000E+00
    0.16876E-07         0.25780E-10         0.00000E+00
    0.16951E-07         0.44461E-10         0.00000E+00
    0.17045E-07         0.46294E-10         0.00000E+00
    0.17138E-07         0.43510E-10         0.00000E+00
    0.17223E-07         0.40065E-10         0.00000E+00
    0.17303E-07         0.37613E-10         0.00000E+00
    0.17379E-07         0.36999E-10         0.00000E+00
    0.17457E-07         0.38747E-10         0.00000E+00
    0.17540E-07         0.43181E-10         0.00000E+00
    0.17635E-07         0.50259E-10         0.00000E+00
    0.17745E-07         0.59329E-10         0.00000E+00
    0.17875E-07         0.68973E-10         0.00000E+00
    0.18020E-07         0.75685E-10         0.00000E+00
    0.18142E-07         0.45535E-10         0.00000E+00
    0.18199E-07         0.11297E-10         0.00000E+00
POINT_DATA        496
VECTORS vDarcyNodal double 
    0.23359E-09        -0.68082E-10         0.00000E+00
    0.23362E-09        -0.10976E-09         0.00000E+00
    0.23332E-09        -0.11691E-09         0.00000E+00
    0.23332E-09        -0.26569E-10         0.00000E+00
    0.23456E-09         0.68998E-10         0.00000E+00
    0.23678E-09         0.13549E-09         0.00000E+00
    0.23966E-09         0.17852E-09         0.00000E+00
    0.24289E-09         0.20257E-09         0.00000E+00
    0.24622E-09         0.21111E-09         0.00000E+00
    0.24947E-09         0.20681E-09         0.00000E+00
    0.25249E-09         0.19173E-09         0.00000E+00
    0.25516E-09         0.16746E-09         0.00000E+00
    0.25737E-09         0.13524E-09         0.00000E+00
    0.25905E-09         0.96062E-10         0.00000E+00
    0.26011E-09         0.50719E-10         0.00000E+00
    0.26049E-09         0.26594E-10         0.00000E+00
    0.46854E-09        -0.68110E-10         0.00000E+00
    0.46862E-09        -0.10963E-09         0.00000E+00
    0.46799E-09        -0.11677E-09         0.00000E+00
    0.46791E-09        -0.27197E-10         0.00000E+00
    0.47038E-09         0.67257E-10         0.00000E+00
    0.47484E-09         0.13293E-09         0.00000E+00
    0.48060E-09         0.17546E-09         0.00000E+00
    0.48704E-09         0.19928E-09         0.00000E+00
    0.49368E-09         0.20781E-09         0.00000E+00
    0.50015E-09         0.20367E-09         0.00000E+00
    0.50614E-09         0.18888E-09         0.00000E+00
    0.51144E-09         0.16501E-09         0.00000E+00
    0.51585E-09         0.13328E-09         0.00000E+00
    0.51919E-09         0.94684E-10         0.00000E+00
    0.52130E-09         0.49994E-10         0.00000E+00
    0.52205E-09         0.26215E-10         0.00000E+00
    0.94245E-09        -0.68265E-10         0.00000E+00
    0.94270E-09        -0.10923E-09         0.00000E+00
    0.94125E-09        -0.11624E-09         0.00000E+00
    0.94087E-09        -0.29007E-10         0.00000E+00
    0.94585E-09         0.62023E-10         0.00000E+00
    0.95482E-09         0.12523E-09         0.00000E+00
    0.96632E-09         0.16628E-09         0.00000E+00
    0.97912E-09         0.18945E-09         0.00000E+00
    0.99228E-09         0.19797E-09         0.00000E+00
    0.10051E-08         0.19432E-09         0.00000E+00
    0.10169E-08         0.18040E-09         0.00000E+00
    0.10274E-08         0.15772E-09         0.00000E+00
    0.10361E-08         0.12747E-09         0.00000E+00
    0.10427E-08         0.90580E-10         0.00000E+00
    0.10469E-08         0.47836E-10         0.00000E+00
    0.10483E-08         0.25086E-10         0.00000E+00
    0.14270E-08        -0.68621E-10         0.00000E+00
    0.14274E-08        -0.10846E-09         0.00000E+00
    0.14248E-08        -0.11501E-09         0.00000E+00
    0.14239E-08        -0.31881E-10         0.00000E+00
    0.14315E-08         0.53212E-10         0.00000E+00
    0.14451E-08         0.11236E-09         0.00000E+00
    0.14623E-08         0.15107E-09         0.00000E+00
    0.14812E-08         0.17324E-09         0.00000E+00
    0.15006E-08         0.18179E-09         0.00000E+00
    0.15194E-08         0.17897E-09         0.00000E+00
    0.15368E-08         0.16650E-09         0.00000E+00
    0.15522E-08         0.14578E-09         0.00000E+00
    0.15650E-08         0.11793E-09         0.00000E+00
    0.15747E-08         0.83848E-10         0.00000E+00
    0.15808E-08         0.44292E-10         0.00000E+00
    0.15830E-08         0.23230E-10         0.00000E+00
    0.19268E-08        -0.69108E-10         0.00000E+00
    0.19273E-08        -0.10714E-09         0.00000E+00
    0.19234E-08        -0.11284E-09         0.00000E+00
    0.19220E-08        -0.35845E-10         0.00000E+00
    0.19326E-08         0.40653E-10         0.00000E+00
    0.19508E-08         0.94361E-10         0.00000E+00
    0.19734E-08         0.13003E-09         0.00000E+00
    0.19981E-08         0.15097E-09         0.00000E+00
    0.20233E-08         0.15965E-09         0.00000E+00
    0.20476E-08         0.15800E-09         0.00000E+00
    0.20701E-08         0.14753E-09         0.00000E+00
    0.20900E-08         0.12949E-09         0.00000E+00
    0.21065E-08         0.10491E-09         0.00000E+00
    0.21190E-08         0.74650E-10         0.00000E+00
    0.21270E-08         0.39444E-10         0.00000E+00
    0.21298E-08         0.20687E-10         0.00000E+00
    0.24465E-08        -0.69783E-10         0.00000E+00
    0.24470E-08        -0.10518E-09         0.00000E+00
    0.24414E-08        -0.10985E-09         0.00000E+00
    0.24407E-08        -0.41303E-10         0.00000E+00
    0.24543E-08         0.24256E-10         0.00000E+00
    0.24768E-08         0.71455E-10         0.00000E+00
    0.25043E-08         0.10358E-09         0.00000E+00
    0.25342E-08         0.12316E-09         0.00000E+00
    0.25645E-08         0.13212E-09         0.00000E+00
    0.25937E-08         0.13198E-09         0.00000E+00
    0.26207E-08         0.12401E-09         0.00000E+00
    0.26445E-08         0.10929E-09         0.00000E+00
    0.26643E-08         0.88753E-10         0.00000E+00
    0.26793E-08         0.63221E-10         0.00000E+00
    0.26889E-08         0.33407E-10         0.00000E+00
    0.26923E-08         0.17512E-10         0.00000E+00
    0.29907E-08        -0.70165E-10         0.00000E+00
    0.29905E-08        -0.10223E-09         0.00000E+00
    0.29832E-08        -0.10678E-09         0.00000E+00
    0.29844E-08        -0.48980E-10         0.00000E+00
    0.30012E-08         0.43055E-11         0.00000E+00
    0.30275E-08         0.44132E-10         0.00000E+00
    0.30593E-08         0.72380E-10         0.00000E+00
    0.30936E-08         0.90569E-10         0.00000E+00
    0.31281E-08         0.99966E-10         0.00000E+00
    0.31613E-08         0.10166E-09         0.00000E+00
    0.31919E-08         0.96625E-10         0.00000E+00
    0.32189E-08         0.85762E-10         0.00000E+00
    0.32414E-08         0.69913E-10         0.00000E+00
    0.32585E-08         0.49865E-10         0.00000E+00
    0.32695E-08         0.26334E-10         0.00000E+00
    0.32734E-08         0.13782E-10         0.00000E+00
    0.35635E-08        -0.69397E-10         0.00000E+00
    0.35611E-08        -0.97821E-10         0.00000E+00
    0.35523E-08        -0.10405E-09         0.00000E+00
    0.35569E-08        -0.59562E-10         0.00000E+00
    0.35770E-08        -0.19158E-10         0.00000E+00
    0.36068E-08         0.13005E-10         0.00000E+00
    0.36420E-08         0.37283E-10         0.00000E+00
    0.36795E-08         0.54153E-10         0.00000E+00
    0.37172E-08         0.64175E-10         0.00000E+00
    0.37533E-08         0.67969E-10         0.00000E+00
    0.37865E-08         0.66211E-10         0.00000E+00
    0.38159E-08         0.59618E-10         0.00000E+00
    0.38404E-08         0.48948E-10         0.00000E+00
    0.38591E-08         0.34966E-10         0.00000E+00
    0.38711E-08         0.18417E-10         0.00000E+00
    0.38754E-08         0.95897E-11         0.00000E+00
    0.41679E-08        -0.65296E-10         0.00000E+00
    0.41625E-08        -0.91190E-10         0.00000E+00
    0.41532E-08        -0.10291E-09         0.00000E+00
    0.41618E-08        -0.74030E-10         0.00000E+00
    0.41851E-08        -0.45945E-10         0.00000E+00
    0.42175E-08        -0.21141E-10         0.00000E+00
    0.42549E-08        -0.63162E-12         0.00000E+00
    0.42945E-08         0.15092E-10         0.00000E+00
    0.43340E-08         0.25923E-10         0.00000E+00
    0.43718E-08         0.32026E-10         0.00000E+00
    0.44066E-08         0.33775E-10         0.00000E+00
    0.44373E-08         0.31715E-10         0.00000E+00
    0.44629E-08         0.26527E-10         0.00000E+00
    0.44826E-08         0.18983E-10         0.00000E+00
    0.44952E-08         0.98874E-11         0.00000E+00
    0.44998E-08         0.50518E-11         0.00000E+00
    0.48044E-08        -0.58839E-10         0.00000E+00
    0.47972E-08        -0.83386E-10         0.00000E+00
    0.47902E-08        -0.10376E-09         0.00000E+00
    0.48025E-08        -0.91915E-10         0.00000E+00
    0.48280E-08        -0.75191E-10         0.00000E+00
    0.48617E-08        -0.57142E-10         0.00000E+00
    0.49000E-08        -0.40054E-10         0.00000E+00
    0.49402E-08        -0.25250E-10         0.00000E+00
    0.49801E-08        -0.13442E-10         0.00000E+00
    0.50182E-08        -0.48968E-11         0.00000E+00
    0.50532E-08         0.47091E-12         0.00000E+00
    0.50841E-08         0.30401E-11         0.00000E+00
    0.51100E-08         0.34329E-11         0.00000E+00
    0.51298E-08         0.24561E-11         0.00000E+00
    0.51427E-08         0.10208E-11         0.00000E+00
    0.51474E-08         0.30603E-12         0.00000E+00
    0.54727E-08        -0.51040E-10         0.00000E+00
    0.54670E-08        -0.77314E-10         0.00000E+00
    0.54652E-08        -0.10867E-09         0.00000E+00
    0.54802E-08        -0.11222E-09         0.00000E+00
    0.55066E-08        -0.10555E-09         0.00000E+00
    0.55402E-08        -0.93575E-10         0.00000E+00
    0.55780E-08        -0.79497E-10         0.00000E+00
    0.56172E-08        -0.65365E-10         0.00000E+00
    0.56560E-08        -0.52440E-10         0.00000E+00
    0.56929E-08        -0.41392E-10         0.00000E+00
    0.57267E-08        -0.32417E-10         0.00000E+00
    0.57566E-08        -0.25294E-10         0.00000E+00
    0.57815E-08        -0.19445E-10         0.00000E+00
    0.58008E-08        -0.13993E-10         0.00000E+00
    0.58134E-08        -0.78629E-11         0.00000E+00
    0.58180E-08        -0.44855E-11         0.00000E+00
    0.61775E-08        -0.47510E-10         0.00000E+00
    0.61745E-08        -0.76223E-10         0.00000E+00
    0.61779E-08        -0.11753E-09         0.00000E+00
    0.61944E-08        -0.13380E-09         0.00000E+00
    0.62204E-08        -0.13569E-09         0.00000E+00
    0.62526E-08        -0.12895E-09         0.00000E+00
    0.62883E-08        -0.11741E-09         0.00000E+00
    0.63250E-08        -0.10368E-09         0.00000E+00
    0.63611E-08        -0.89510E-10         0.00000E+00
    0.63953E-08        -0.75955E-10         0.00000E+00
    0.64264E-08        -0.63489E-10         0.00000E+00
    0.64538E-08        -0.52054E-10         0.00000E+00
    0.64767E-08        -0.41101E-10         0.00000E+00
    0.64944E-08        -0.29651E-10         0.00000E+00
    0.65061E-08        -0.16394E-10         0.00000E+00
    0.65105E-08        -0.91345E-11         0.00000E+00
    0.69197E-08        -0.45372E-10         0.00000E+00
    0.69193E-08        -0.78143E-10         0.00000E+00
    0.69264E-08        -0.12916E-09         0.00000E+00
    0.69433E-08        -0.15533E-09         0.00000E+00
    0.69677E-08        -0.16428E-09         0.00000E+00
    0.69972E-08        -0.16186E-09         0.00000E+00
    0.70293E-08        -0.15229E-09         0.00000E+00
    0.70620E-08        -0.13863E-09         0.00000E+00
    0.70939E-08        -0.12306E-09         0.00000E+00
    0.71236E-08        -0.10702E-09         0.00000E+00
    0.71505E-08        -0.91253E-10         0.00000E+00
    0.71740E-08        -0.75887E-10         0.00000E+00
    0.71935E-08        -0.60411E-10         0.00000E+00
    0.72087E-08        -0.43705E-10         0.00000E+00
    0.72188E-08        -0.24145E-10         0.00000E+00
    0.72227E-08        -0.13422E-10         0.00000E+00
    0.76955E-08        -0.47151E-10         0.00000E+00
    0.76981E-08        -0.83479E-10         0.00000E+00
    0.77073E-08        -0.14212E-09         0.00000E+00
    0.77235E-08        -0.17569E-09         0.00000E+00
    0.77454E-08        -0.19015E-09         0.00000E+00
    0.77709E-08        -0.19099E-09         0.00000E+00
    0.77982E-08        -0.18269E-09         0.00000E+00
    0.78255E-08        -0.16869E-09         0.00000E+00
    0.78516E-08        -0.15153E-09         0.00000E+00
    0.78755E-08        -0.13299E-09         0.00000E+00
    0.78965E-08        -0.11414E-09         0.00000E+00
    0.79144E-08        -0.95325E-10         0.00000E+00
    0.79291E-08        -0.76107E-10         0.00000E+00
    0.79405E-08        -0.55218E-10         0.00000E+00
    0.79482E-08        -0.30619E-10         0.00000E+00
    0.79513E-08        -0.17093E-10         0.00000E+00
    0.85031E-08        -0.51009E-10         0.00000E+00
    0.85068E-08        -0.90551E-10         0.00000E+00
    0.85165E-08        -0.15533E-09         0.00000E+00
    0.85312E-08        -0.19409E-09         0.00000E+00
    0.85495E-08        -0.21226E-09         0.00000E+00
    0.85699E-08        -0.21514E-09         0.00000E+00
    0.85911E-08        -0.20731E-09         0.00000E+00
    0.86116E-08        -0.19244E-09         0.00000E+00
    0.86306E-08        -0.17340E-09         0.00000E+00
    0.86471E-08        -0.15231E-09         0.00000E+00
    0.86608E-08        -0.13055E-09         0.00000E+00
    0.86715E-08        -0.10879E-09         0.00000E+00
    0.86797E-08        -0.86756E-10         0.00000E+00
    0.86858E-08        -0.63086E-10         0.00000E+00
    0.86902E-08        -0.35217E-10         0.00000E+00
    0.86922E-08        -0.19840E-10         0.00000E+00
    0.93377E-08        -0.55090E-10         0.00000E+00
    0.93412E-08        -0.97549E-10         0.00000E+00
    0.93496E-08        -0.16722E-09         0.00000E+00
    0.93613E-08        -0.20929E-09         0.00000E+00
    0.93747E-08        -0.22947E-09         0.00000E+00
    0.93889E-08        -0.23311E-09         0.00000E+00
    0.94028E-08        -0.22487E-09         0.00000E+00
    0.94155E-08        -0.20858E-09         0.00000E+00
    0.94260E-08        -0.18733E-09         0.00000E+00
    0.94339E-08        -0.16351E-09         0.00000E+00
    0.94388E-08        -0.13891E-09         0.00000E+00
    0.94409E-08        -0.11460E-09         0.00000E+00
    0.94408E-08        -0.90718E-10         0.00000E+00
    0.94400E-08        -0.65960E-10         0.00000E+00
    0.94396E-08        -0.37187E-10         0.00000E+00
    0.94400E-08        -0.21281E-10         0.00000E+00
    0.10192E-07        -0.58538E-10         0.00000E+00
    0.10195E-07        -0.10319E-09         0.00000E+00
    0.10200E-07        -0.17617E-09         0.00000E+00
    0.10207E-07        -0.21982E-09         0.00000E+00
    0.10215E-07        -0.24048E-09         0.00000E+00
    0.10221E-07        -0.24371E-09         0.00000E+00
    0.10227E-07        -0.23425E-09         0.00000E+00
    0.10231E-07        -0.21601E-09         0.00000E+00
    0.10232E-07        -0.19218E-09         0.00000E+00
    0.10230E-07        -0.16540E-09         0.00000E+00
    0.10225E-07        -0.13782E-09         0.00000E+00
    0.10217E-07        -0.11111E-09         0.00000E+00
    0.10207E-07        -0.86121E-10         0.00000E+00
    0.10197E-07        -0.62110E-10         0.00000E+00
    0.10190E-07        -0.35506E-10         0.00000E+00
    0.10189E-07        -0.20892E-10         0.00000E+00
    0.11058E-07        -0.60727E-10         0.00000E+00
    0.11059E-07        -0.10647E-09         0.00000E+00
    0.11061E-07        -0.18070E-09         0.00000E+00
    0.11062E-07        -0.22420E-09         0.00000E+00
    0.11061E-07        -0.24396E-09         0.00000E+00
    0.11060E-07        -0.24579E-09         0.00000E+00
    0.11056E-07        -0.23448E-09         0.00000E+00
    0.11050E-07        -0.21390E-09         0.00000E+00
    0.11041E-07        -0.18722E-09         0.00000E+00
    0.11030E-07        -0.15718E-09         0.00000E+00
    0.11015E-07        -0.12629E-09         0.00000E+00
    0.10996E-07        -0.96902E-10         0.00000E+00
    0.10974E-07        -0.70968E-10         0.00000E+00
    0.10953E-07        -0.49226E-10         0.00000E+00
    0.10936E-07        -0.28622E-10         0.00000E+00
    0.10931E-07        -0.17860E-10         0.00000E+00
    0.11924E-07        -0.61161E-10         0.00000E+00
    0.11923E-07        -0.10657E-09         0.00000E+00
    0.11920E-07        -0.17956E-09         0.00000E+00
    0.11914E-07        -0.22110E-09         0.00000E+00
    0.11905E-07        -0.23873E-09         0.00000E+00
    0.11894E-07        -0.23843E-09         0.00000E+00
    0.11880E-07        -0.22490E-09         0.00000E+00
    0.11864E-07        -0.20182E-09         0.00000E+00
    0.11846E-07        -0.17218E-09         0.00000E+00
    0.11824E-07        -0.13866E-09         0.00000E+00
    0.11799E-07        -0.10402E-09         0.00000E+00
    0.11769E-07        -0.71307E-10         0.00000E+00
    0.11737E-07        -0.43807E-10         0.00000E+00
    0.11703E-07        -0.24339E-10         0.00000E+00
    0.11674E-07        -0.13820E-10         0.00000E+00
    0.11660E-07        -0.10736E-10         0.00000E+00
    0.12779E-07        -0.59424E-10         0.00000E+00
    0.12776E-07        -0.10280E-09         0.00000E+00
    0.12767E-07        -0.17173E-09         0.00000E+00
    0.12752E-07        -0.20947E-09         0.00000E+00
    0.12734E-07        -0.22390E-09         0.00000E+00
    0.12712E-07        -0.22101E-09         0.00000E+00
    0.12689E-07        -0.20521E-09         0.00000E+00
    0.12663E-07        -0.17981E-09         0.00000E+00
    0.12635E-07        -0.14736E-09         0.00000E+00
    0.12605E-07        -0.11028E-09         0.00000E+00
    0.12570E-07        -0.71459E-10         0.00000E+00
    0.12530E-07        -0.34775E-10         0.00000E+00
    0.12487E-07        -0.48749E-11         0.00000E+00
    0.12443E-07         0.13247E-10         0.00000E+00
    0.12402E-07         0.13953E-10         0.00000E+00
    0.12381E-07         0.91763E-11         0.00000E+00
    0.13608E-07        -0.55183E-10         0.00000E+00
    0.13602E-07        -0.94645E-10         0.00000E+00
    0.13586E-07        -0.15645E-09         0.00000E+00
    0.13563E-07        -0.18860E-09         0.00000E+00
    0.13535E-07        -0.19901E-09         0.00000E+00
    0.13504E-07        -0.19336E-09         0.00000E+00
    0.13470E-07        -0.17561E-09         0.00000E+00
    0.13436E-07        -0.14839E-09         0.00000E+00
    0.13400E-07        -0.11358E-09         0.00000E+00
    0.13361E-07        -0.73017E-10         0.00000E+00
    0.13318E-07        -0.29443E-10         0.00000E+00
    0.13268E-07         0.11951E-10         0.00000E+00
    0.13213E-07         0.43408E-10         0.00000E+00
    0.13160E-07         0.59468E-10         0.00000E+00
    0.13134E-07         0.47909E-10         0.00000E+00
    0.13129E-07         0.32449E-10         0.00000E+00
    0.14395E-07        -0.48202E-10         0.00000E+00
    0.14386E-07        -0.81767E-10         0.00000E+00
    0.14364E-07        -0.13334E-09         0.00000E+00
    0.14332E-07        -0.15829E-09         0.00000E+00
    0.14295E-07        -0.16414E-09         0.00000E+00
    0.14254E-07        -0.15594E-09         0.00000E+00
    0.14212E-07        -0.13685E-09         0.00000E+00
    0.14170E-07        -0.10865E-09         0.00000E+00
    0.14127E-07        -0.72217E-10         0.00000E+00
    0.14082E-07        -0.28216E-10         0.00000E+00
    0.14032E-07         0.21097E-10         0.00000E+00
    0.13972E-07         0.70203E-10         0.00000E+00
    0.13905E-07         0.10348E-09         0.00000E+00
    0.13864E-07         0.92084E-10         0.00000E+00
    0.13865E-07         0.44615E-10         0.00000E+00
    0.13875E-07         0.18242E-10         0.00000E+00
    0.15123E-07        -0.38381E-10         0.00000E+00
    0.15112E-07        -0.64103E-10         0.00000E+00
    0.15083E-07        -0.10254E-09         0.00000E+00
    0.15044E-07        -0.11902E-09         0.00000E+00
    0.14998E-07        -0.12017E-09         0.00000E+00
    0.14950E-07        -0.10995E-09         0.00000E+00
    0.14901E-07        -0.90453E-10         0.00000E+00
    0.14853E-07        -0.62347E-10         0.00000E+00
    0.14805E-07        -0.25237E-10         0.00000E+00
    0.14757E-07         0.22047E-10         0.00000E+00
    0.14703E-07         0.80303E-10         0.00000E+00
    0.14634E-07         0.13941E-09         0.00000E+00
    0.14572E-07         0.15183E-09         0.00000E+00
    0.14556E-07         0.98827E-10         0.00000E+00
    0.14561E-07         0.36725E-10         0.00000E+00
    0.14564E-07         0.12821E-10         0.00000E+00
    0.15774E-07        -0.25806E-10         0.00000E+00
    0.15761E-07        -0.41945E-10         0.00000E+00
    0.15727E-07        -0.64821E-10         0.00000E+00
    0.15681E-07        -0.72169E-10         0.00000E+00
    0.15630E-07        -0.68986E-10         0.00000E+00
    0.15576E-07        -0.57673E-10         0.00000E+00
    0.15524E-07        -0.38904E-10         0.00000E+00
    0.15473E-07        -0.12090E-10         0.00000E+00
    0.15424E-07         0.24575E-10         0.00000E+00
    0.15376E-07         0.74425E-10         0.00000E+00
    0.15324E-07         0.14400E-09         0.00000E+00
    0.15259E-07         0.20179E-09         0.00000E+00
    0.15215E-07         0.18179E-09         0.00000E+00
    0.15205E-07         0.10264E-09         0.00000E+00
    0.15202E-07         0.36029E-10         0.00000E+00
    0.15201E-07         0.11605E-10         0.00000E+00
    0.16330E-07        -0.10810E-10         0.00000E+00
    0.16315E-07        -0.16063E-10         0.00000E+00
    0.16277E-07        -0.21875E-10         0.00000E+00
    0.16228E-07        -0.20287E-10         0.00000E+00
    0.16175E-07        -0.13823E-10         0.00000E+00
    0.16121E-07        -0.27286E-11         0.00000E+00
    0.16069E-07         0.14014E-10         0.00000E+00
    0.16021E-07         0.38289E-10         0.00000E+00
    0.15975E-07         0.73097E-10         0.00000E+00
    0.15932E-07         0.12393E-09         0.00000E+00
    0.15888E-07         0.19839E-09         0.00000E+00
    0.15844E-07         0.24841E-09         0.00000E+00
    0.15813E-07         0.20551E-09         0.00000E+00
    0.15798E-07         0.11159E-09         0.00000E+00
    0.15789E-07         0.39983E-10         0.00000E+00
    0.15787E-07         0.13479E-10         0.00000E+00
    0.16772E-07         0.59473E-11         0.00000E+00
    0.16755E-07         0.12135E-10         0.00000E+00
    0.16717E-07         0.23440E-10         0.00000E+00
    0.16669E-07         0.32539E-10         0.00000E+00
    0.16619E-07         0.40443E-10         0.00000E+00
    0.16571E-07         0.49636E-10         0.00000E+00
    0.16526E-07         0.62977E-10         0.00000E+00
    0.16486E-07         0.83488E-10         0.00000E+00
    0.16450E-07         0.11482E-09         0.00000E+00
    0.16418E-07         0.16258E-09         0.00000E+00
    0.16392E-07         0.23341E-09         0.00000E+00
    0.16375E-07         0.27776E-09         0.00000E+00
    0.16355E-07         0.22775E-09         0.00000E+00
    0.16334E-07         0.12610E-09         0.00000E+00
    0.16323E-07         0.46760E-10         0.00000E+00
    0.16319E-07         0.16691E-10         0.00000E+00
    0.17081E-07         0.23354E-10         0.00000E+00
    0.17065E-07         0.40351E-10         0.00000E+00
    0.17031E-07         0.66644E-10         0.00000E+00
    0.16991E-07         0.80268E-10         0.00000E+00
    0.16952E-07         0.87009E-10         0.00000E+00
    0.16917E-07         0.92460E-10         0.00000E+00
    0.16887E-07         0.10116E-09         0.00000E+00
    0.16862E-07         0.11683E-09         0.00000E+00
    0.16842E-07         0.14303E-09         0.00000E+00
    0.16828E-07         0.18384E-09         0.00000E+00
    0.16824E-07         0.24337E-09         0.00000E+00
    0.16837E-07         0.28603E-09         0.00000E+00
    0.16835E-07         0.24647E-09         0.00000E+00
    0.16815E-07         0.14395E-09         0.00000E+00
    0.16803E-07         0.54602E-10         0.00000E+00
    0.16799E-07         0.20455E-10         0.00000E+00
    0.17239E-07         0.39591E-10         0.00000E+00
    0.17226E-07         0.64873E-10         0.00000E+00
    0.17203E-07         0.10085E-09         0.00000E+00
    0.17182E-07         0.11429E-09         0.00000E+00
    0.17165E-07         0.11699E-09         0.00000E+00
    0.17153E-07         0.11732E-09         0.00000E+00
    0.17146E-07         0.12073E-09         0.00000E+00
    0.17143E-07         0.13091E-09         0.00000E+00
    0.17146E-07         0.15078E-09         0.00000E+00
    0.17157E-07         0.18253E-09         0.00000E+00
    0.17178E-07         0.22678E-09         0.00000E+00
    0.17219E-07         0.26821E-09         0.00000E+00
    0.17249E-07         0.25062E-09         0.00000E+00
    0.17244E-07         0.15851E-09         0.00000E+00
    0.17234E-07         0.62573E-10         0.00000E+00
    0.17230E-07         0.24931E-10         0.00000E+00
    0.17226E-07         0.51345E-10         0.00000E+00
    0.17222E-07         0.79249E-10         0.00000E+00
    0.17225E-07         0.11508E-09         0.00000E+00
    0.17237E-07         0.12264E-09         0.00000E+00
    0.17255E-07         0.11963E-09         0.00000E+00
    0.17275E-07         0.11513E-09         0.00000E+00
    0.17298E-07         0.11393E-09         0.00000E+00
    0.17324E-07         0.11887E-09         0.00000E+00
    0.17356E-07         0.13183E-09         0.00000E+00
    0.17396E-07         0.15381E-09         0.00000E+00
    0.17447E-07         0.18343E-09         0.00000E+00
    0.17515E-07         0.21698E-09         0.00000E+00
    0.17589E-07         0.22207E-09         0.00000E+00
    0.17622E-07         0.15939E-09         0.00000E+00
    0.17627E-07         0.68165E-10         0.00000E+00
    0.17628E-07         0.27467E-10         0.00000E+00
    0.17012E-07         0.51568E-10         0.00000E+00
    0.17040E-07         0.70250E-10         0.00000E+00
    0.17097E-07         0.90764E-10         0.00000E+00
    0.17162E-07         0.89812E-10         0.00000E+00
    0.17225E-07         0.83582E-10         0.00000E+00
    0.17286E-07         0.77685E-10         0.00000E+00
    0.17344E-07         0.74618E-10         0.00000E+00
    0.17403E-07         0.75752E-10         0.00000E+00
    0.17466E-07         0.81935E-10         0.00000E+00
    0.17538E-07         0.93448E-10         0.00000E+00
    0.17622E-07         0.10960E-09         0.00000E+00
    0.17723E-07         0.12831E-09         0.00000E+00
    0.17841E-07         0.14467E-09         0.00000E+00
    0.17947E-07         0.12123E-09         0.00000E+00
    0.18002E-07         0.56836E-10         0.00000E+00
    0.18016E-07         0.22595E-10         0.00000E+00
    0.16850E-07         0.00000E+00         0.00000E+00
    0.16904E-07         0.00000E+00         0.00000E+00
    0.16997E-07        -0.45546E-22         0.00000E+00
    0.17093E-07         0.79892E-26         0.00000E+00
    0.17182E-07         0.53835E-22         0.00000E+00
    0.17265E-07         0.00000E+00         0.00000E+00
    0.17342E-07         0.00000E+00         0.00000E+00
    0.17417E-07        -0.49716E-22         0.00000E+00
    0.17496E-07        -0.49716E-22         0.00000E+00
    0.17584E-07         0.49723E-22         0.00000E+00
    0.17685E-07         0.53866E-22         0.00000E+00
    0.17805E-07        -0.53873E-22         0.00000E+00
    0.17944E-07        -0.41416E-23         0.00000E+00
    0.18096E-07         0.53876E-22         0.00000E+00
    0.18188E-07         0.82889E-23         0.00000E+00
    0.18211E-07         0.00000E+00         0.00000E+00
CELL_DATA        450
TENSORS stressef double 
    0.89826E+07         0.59511E+04         0.00000E+00
    0.59511E+04        -0.10457E+08         0.00000E+00
    0.00000E+00         0.00000E+00        -0.51439E+06
 
    0.89688E+07         0.16972E+05         0.00000E+00
    0.16972E+05        -0.10450E+08         0.00000E+00
    0.00000E+00         0.00000E+00        -0.39206E+06
 
    0.85424E+07         0.22373E+05         0.00000E+00
    0.22373E+05        -0.10428E+08         0.00000E+00
    0.00000E+00         0.00000E+00        -0.37716E+06
 
    0.74812E+07         0.22139E+05         0.00000E+00
    0.22139E+05        -0.10388E+08         0.00000E+00
    0.00000E+00         0.00000E+00        -0.58130E+06
 
    0.64768E+07         0.22504E+05         0.00000E+00
    0.22504E+05        -0.10334E+08         0.00000E+00
    0.00000E+00         0.00000E+00        -0.77146E+06
 
    0.55267E+07         0.24968E+05         0.00000E+00
    0.24968E+05        -0.10268E+08         0.00000E+00
    0.00000E+00         0.00000E+00        -0.94836E+06
 
    0.46249E+07         0.30175E+05         0.00000E+00
    0.30175E+05        -0.10189E+08         0.00000E+00
    0.00000E+00         0.00000E+00        -0.11129E+07
 
    0.37640E+07         0.38277E+05         0.00000E+00
    0.38277E+05        -0.10093E+08         0.00000E+00
    0.00000E+00         0.00000E+00        -0.12658E+07
 
    0.29360E+07         0.49211E+05         0.00000E+00
    0.49211E+05        -0.99769E+07         0.00000E+00
    0.00000E+00         0.00000E+00        -0.14082E+07
 
    0.21332E+07         0.62823E+05         0.00000E+00
    0.62823E+05        -0.98366E+07         0.00000E+00
    0.00000E+00         0.00000E+00        -0.15407E+07
 
    0.13481E+07         0.78891E+05         0.00000E+00
    0.78891E+05        -0.96687E+07         0.00000E+00
    0.00000E+00         0.00000E+00        -0.16641E+07
 
    0.57395E+06         0.97146E+05         0.00000E+00
    0.97146E+05        -0.94697E+07         0.00000E+00
    0.00000E+00         0.00000E+00        -0.17792E+07
 
   -0.19509E+06         0.11726E+06         0.00000E+00
    0.11726E+06        -0.92368E+07         0.00000E+00
    0.00000E+00         0.00000E+00        -0.18864E+07
 
   -0.96402E+06         0.13885E+06         0.00000E+00
    0.13885E+06        -0.89676E+07         0.00000E+00
    0.00000E+00         0.00000E+00        -0.19863E+07
 
   -0.17366E+07         0.16149E+06         0.00000E+00
    0.16149E+06        -0.86603E+07         0.00000E+00
    0.00000E+00         0.00000E+00        -0.20794E+07
 
    0.89398E+07         0.17465E+05         0.00000E+00
    0.17465E+05        -0.10523E+08         0.00000E+00
    0.00000E+00         0.00000E+00        -0.53700E+06
 
    0.89245E+07         0.50792E+05         0.00000E+00
    0.50792E+05        -0.10516E+08         0.00000E+00
    0.00000E+00         0.00000E+00        -0.41299E+06
 
    0.84769E+07         0.66437E+05         0.00000E+00
    0.66437E+05        -0.10495E+08         0.00000E+00
    0.00000E+00         0.00000E+00        -0.40367E+06
 
    0.74148E+07         0.64625E+05         0.00000E+00
    0.64625E+05        -0.10458E+08         0.00000E+00
    0.00000E+00         0.00000E+00        -0.60855E+06
 
    0.64131E+07         0.65376E+05         0.00000E+00
    0.65376E+05        -0.10408E+08         0.00000E+00
    0.00000E+00         0.00000E+00        -0.79907E+06
 
    0.54674E+07         0.72887E+05         0.00000E+00
    0.72887E+05        -0.10348E+08         0.00000E+00
    0.00000E+00         0.00000E+00        -0.97606E+06
 
    0.45705E+07         0.88742E+05         0.00000E+00
    0.88742E+05        -0.10273E+08         0.00000E+00
    0.00000E+00         0.00000E+00        -0.11405E+07
 
    0.37145E+07         0.11326E+06         0.00000E+00
    0.11326E+06        -0.10181E+08         0.00000E+00
    0.00000E+00         0.00000E+00        -0.12934E+07
 
    0.28911E+07         0.14625E+06         0.00000E+00
    0.14625E+06        -0.10069E+08         0.00000E+00
    0.00000E+00         0.00000E+00        -0.14356E+07
 
    0.20925E+07         0.18726E+06         0.00000E+00
    0.18726E+06        -0.99320E+07         0.00000E+00
    0.00000E+00         0.00000E+00        -0.15679E+07
 
    0.13113E+07         0.23563E+06         0.00000E+00
    0.23563E+06        -0.97671E+07         0.00000E+00
    0.00000E+00         0.00000E+00        -0.16912E+07
 
    0.54054E+06         0.29056E+06         0.00000E+00
    0.29056E+06        -0.95708E+07         0.00000E+00
    0.00000E+00         0.00000E+00        -0.18060E+07
 
   -0.22568E+06         0.35108E+06         0.00000E+00
    0.35108E+06        -0.93400E+07         0.00000E+00
    0.00000E+00         0.00000E+00        -0.19131E+07
 
   -0.99244E+06         0.41607E+06         0.00000E+00
    0.41607E+06        -0.90723E+07         0.00000E+00
    0.00000E+00         0.00000E+00        -0.20130E+07
 
   -0.17636E+07         0.48422E+06         0.00000E+00
    0.48422E+06        -0.87660E+07         0.00000E+00
    0.00000E+00         0.00000E+00        -0.21059E+07
 
    0.88528E+07         0.28574E+05         0.00000E+00
    0.28574E+05        -0.10654E+08         0.00000E+00
    0.00000E+00         0.00000E+00        -0.58214E+06
 
    0.88355E+07         0.84144E+05         0.00000E+00
    0.84144E+05        -0.10647E+08         0.00000E+00
    0.00000E+00         0.00000E+00        -0.45421E+06
 
    0.83425E+07         0.10769E+06         0.00000E+00
    0.10769E+06        -0.10630E+08         0.00000E+00
    0.00000E+00         0.00000E+00        -0.45747E+06
 
    0.72800E+07         0.10133E+06         0.00000E+00
    0.10133E+06        -0.10599E+08         0.00000E+00
    0.00000E+00         0.00000E+00        -0.66376E+06
 
    0.62851E+07         0.10190E+06         0.00000E+00
    0.10190E+06        -0.10559E+08         0.00000E+00
    0.00000E+00         0.00000E+00        -0.85477E+06
 
    0.53487E+07         0.11496E+06         0.00000E+00
    0.11496E+06        -0.10508E+08         0.00000E+00
    0.00000E+00         0.00000E+00        -0.10318E+07
 
    0.44616E+07         0.14213E+06         0.00000E+00
    0.14213E+06        -0.10442E+08         0.00000E+00
    0.00000E+00         0.00000E+00        -0.11960E+07
 
    0.36151E+07         0.18366E+06         0.00000E+00
    0.18366E+06        -0.10358E+08         0.00000E+00
    0.00000E+00         0.00000E+00        -0.13486E+07
 
    0.28009E+07         0.23922E+06         0.00000E+00
    0.23922E+06        -0.10253E+08         0.00000E+00
    0.00000E+00         0.00000E+00        -0.14905E+07
 
    0.20109E+07         0.30809E+06         0.00000E+00
    0.30809E+06        -0.10123E+08         0.00000E+00
    0.00000E+00         0.00000E+00        -0.16225E+07
 
    0.12374E+07         0.38924E+06         0.00000E+00
    0.38924E+06        -0.99643E+07         0.00000E+00
    0.00000E+00         0.00000E+00        -0.17454E+07
 
    0.47345E+06         0.48135E+06         0.00000E+00
    0.48135E+06        -0.97732E+07         0.00000E+00
    0.00000E+00         0.00000E+00        -0.18599E+07
 
   -0.28709E+06         0.58283E+06         0.00000E+00
    0.58283E+06        -0.95466E+07         0.00000E+00
    0.00000E+00         0.00000E+00        -0.19667E+07
 
   -0.10495E+07         0.69182E+06         0.00000E+00
    0.69182E+06        -0.92820E+07         0.00000E+00
    0.00000E+00         0.00000E+00        -0.20663E+07
 
   -0.18178E+07         0.80616E+06         0.00000E+00
    0.80616E+06        -0.89776E+07         0.00000E+00
    0.00000E+00         0.00000E+00        -0.21591E+07
 
    0.87198E+07         0.39988E+05         0.00000E+00
    0.39988E+05        -0.10853E+08         0.00000E+00
    0.00000E+00         0.00000E+00        -0.64871E+06
 
    0.86998E+07         0.11622E+06         0.00000E+00
    0.11622E+06        -0.10846E+08         0.00000E+00
    0.00000E+00         0.00000E+00        -0.51433E+06
 
    0.81317E+07         0.14254E+06         0.00000E+00
    0.14254E+06        -0.10835E+08         0.00000E+00
    0.00000E+00         0.00000E+00        -0.54064E+06
 
    0.70740E+07         0.12779E+06         0.00000E+00
    0.12779E+06        -0.10815E+08         0.00000E+00
    0.00000E+00         0.00000E+00        -0.74827E+06
 
    0.60919E+07         0.12845E+06         0.00000E+00
    0.12845E+06        -0.10789E+08         0.00000E+00
    0.00000E+00         0.00000E+00        -0.93939E+06
 
    0.51698E+07         0.14801E+06         0.00000E+00
    0.14801E+06        -0.10750E+08         0.00000E+00
    0.00000E+00         0.00000E+00        -0.11161E+07
 
    0.42973E+07         0.18736E+06         0.00000E+00
    0.18736E+06        -0.10697E+08         0.00000E+00
    0.00000E+00         0.00000E+00        -0.12799E+07
 
    0.34652E+07         0.24671E+06         0.00000E+00
    0.24671E+06        -0.10625E+08         0.00000E+00
    0.00000E+00         0.00000E+00        -0.14320E+07
 
    0.26647E+07         0.32559E+06         0.00000E+00
    0.32559E+06        -0.10531E+08         0.00000E+00
    0.00000E+00         0.00000E+00        -0.15733E+07
 
    0.18875E+07         0.42306E+06         0.00000E+00
    0.42306E+06        -0.10411E+08         0.00000E+00
    0.00000E+00         0.00000E+00        -0.17047E+07
 
    0.11257E+07         0.53772E+06         0.00000E+00
    0.53772E+06        -0.10261E+08         0.00000E+00
    0.00000E+00         0.00000E+00        -0.18270E+07
 
    0.37212E+06         0.66779E+06         0.00000E+00
    0.66779E+06        -0.10077E+08         0.00000E+00
    0.00000E+00         0.00000E+00        -0.19410E+07
 
   -0.37976E+06         0.81110E+06         0.00000E+00
    0.81110E+06        -0.98570E+07         0.00000E+00
    0.00000E+00         0.00000E+00        -0.20473E+07
 
   -0.11354E+07         0.96508E+06         0.00000E+00
    0.96508E+06        -0.95971E+07         0.00000E+00
    0.00000E+00         0.00000E+00        -0.21465E+07
 
   -0.18992E+07         0.11268E+07         0.00000E+00
    0.11268E+07        -0.92957E+07         0.00000E+00
    0.00000E+00         0.00000E+00        -0.22390E+07
 
    0.85374E+07         0.52647E+05         0.00000E+00
    0.52647E+05        -0.11123E+08         0.00000E+00
    0.00000E+00         0.00000E+00        -0.73643E+06
 
    0.85135E+07         0.14450E+06         0.00000E+00
    0.14450E+06        -0.11116E+08         0.00000E+00
    0.00000E+00         0.00000E+00        -0.59137E+06
 
    0.78339E+07         0.16510E+06         0.00000E+00
    0.16510E+06        -0.11117E+08         0.00000E+00
    0.00000E+00         0.00000E+00        -0.65657E+06
 
    0.67946E+07         0.14070E+06         0.00000E+00
    0.14070E+06        -0.11113E+08         0.00000E+00
    0.00000E+00         0.00000E+00        -0.86364E+06
 
    0.58321E+07         0.14277E+06         0.00000E+00
    0.14277E+06        -0.11101E+08         0.00000E+00
    0.00000E+00         0.00000E+00        -0.10539E+07
 
    0.49295E+07         0.16961E+06         0.00000E+00
    0.16961E+06        -0.11079E+08         0.00000E+00
    0.00000E+00         0.00000E+00        -0.12298E+07
 
    0.40765E+07         0.22201E+06         0.00000E+00
    0.22201E+06        -0.11041E+08         0.00000E+00
    0.00000E+00         0.00000E+00        -0.13928E+07
 
    0.32635E+07         0.30002E+06         0.00000E+00
    0.30002E+06        -0.10983E+08         0.00000E+00
    0.00000E+00         0.00000E+00        -0.15440E+07
 
    0.24814E+07         0.40307E+06         0.00000E+00
    0.40307E+06        -0.10903E+08         0.00000E+00
    0.00000E+00         0.00000E+00        -0.16844E+07
 
    0.17214E+07         0.53001E+06         0.00000E+00
    0.53001E+06        -0.10796E+08         0.00000E+00
    0.00000E+00         0.00000E+00        -0.18149E+07
 
    0.97537E+06         0.67912E+06         0.00000E+00
    0.67912E+06        -0.10657E+08         0.00000E+00
    0.00000E+00         0.00000E+00        -0.19364E+07
 
    0.23572E+06         0.84820E+06         0.00000E+00
    0.84820E+06        -0.10484E+08         0.00000E+00
    0.00000E+00         0.00000E+00        -0.20496E+07
 
   -0.50436E+06         0.10345E+07         0.00000E+00
    0.10345E+07        -0.10272E+08         0.00000E+00
    0.00000E+00         0.00000E+00        -0.21552E+07
 
   -0.12507E+07         0.12348E+07         0.00000E+00
    0.12348E+07        -0.10018E+08         0.00000E+00
    0.00000E+00         0.00000E+00        -0.22538E+07
 
   -0.20082E+07         0.14454E+07         0.00000E+00
    0.14454E+07        -0.97207E+07         0.00000E+00
    0.00000E+00         0.00000E+00        -0.23458E+07
 
    0.83027E+07         0.62637E+05         0.00000E+00
    0.62637E+05        -0.11467E+08         0.00000E+00
    0.00000E+00         0.00000E+00        -0.84520E+06
 
    0.82624E+07         0.16749E+06         0.00000E+00
    0.16749E+06        -0.11476E+08         0.00000E+00
    0.00000E+00         0.00000E+00        -0.68995E+06
 
    0.74423E+07         0.16934E+06         0.00000E+00
    0.16934E+06        -0.11480E+08         0.00000E+00
    0.00000E+00         0.00000E+00        -0.80748E+06
 
    0.64413E+07         0.13995E+06         0.00000E+00
    0.13995E+06        -0.11493E+08         0.00000E+00
    0.00000E+00         0.00000E+00        -0.10104E+07
 
    0.55034E+07         0.14324E+06         0.00000E+00
    0.14324E+06        -0.11500E+08         0.00000E+00
    0.00000E+00         0.00000E+00        -0.11992E+07
 
    0.46256E+07         0.17791E+06         0.00000E+00
    0.17791E+06        -0.11495E+08         0.00000E+00
    0.00000E+00         0.00000E+00        -0.13738E+07
 
    0.37972E+07         0.24402E+06         0.00000E+00
    0.24402E+06        -0.11475E+08         0.00000E+00
    0.00000E+00         0.00000E+00        -0.15355E+07
 
    0.30082E+07         0.34146E+06         0.00000E+00
    0.34146E+06        -0.11435E+08         0.00000E+00
    0.00000E+00         0.00000E+00        -0.16853E+07
 
    0.22492E+07         0.46955E+06         0.00000E+00
    0.46955E+06        -0.11371E+08         0.00000E+00
    0.00000E+00         0.00000E+00        -0.18244E+07
 
    0.15110E+07         0.62693E+06         0.00000E+00
    0.62693E+06        -0.11279E+08         0.00000E+00
    0.00000E+00         0.00000E+00        -0.19537E+07
 
    0.78499E+06         0.81160E+06         0.00000E+00
    0.81160E+06        -0.11155E+08         0.00000E+00
    0.00000E+00         0.00000E+00        -0.20740E+07
 
    0.63146E+05         0.10209E+07         0.00000E+00
    0.10209E+07        -0.10994E+08         0.00000E+00
    0.00000E+00         0.00000E+00        -0.21861E+07
 
   -0.66178E+06         0.12517E+07         0.00000E+00
    0.12517E+07        -0.10792E+08         0.00000E+00
    0.00000E+00         0.00000E+00        -0.22907E+07
 
   -0.13961E+07         0.14999E+07         0.00000E+00
    0.14999E+07        -0.10546E+08         0.00000E+00
    0.00000E+00         0.00000E+00        -0.23884E+07
 
   -0.21451E+07         0.17613E+07         0.00000E+00
    0.17613E+07        -0.10253E+08         0.00000E+00
    0.00000E+00         0.00000E+00        -0.24797E+07
 
    0.80159E+07         0.72501E+05         0.00000E+00
    0.72501E+05        -0.11882E+08         0.00000E+00
    0.00000E+00         0.00000E+00        -0.97305E+06
 
    0.78955E+07         0.17992E+06         0.00000E+00
    0.17992E+06        -0.11892E+08         0.00000E+00
    0.00000E+00         0.00000E+00        -0.83155E+06
 
    0.69838E+07         0.15094E+06         0.00000E+00
    0.15094E+06        -0.11923E+08         0.00000E+00
    0.00000E+00         0.00000E+00        -0.98778E+06
 
    0.60088E+07         0.12208E+06         0.00000E+00
    0.12208E+06        -0.11958E+08         0.00000E+00
    0.00000E+00         0.00000E+00        -0.11899E+07
 
    0.51031E+07         0.12802E+06         0.00000E+00
    0.12802E+06        -0.11985E+08         0.00000E+00
    0.00000E+00         0.00000E+00        -0.13764E+07
 
    0.42554E+07         0.17120E+06         0.00000E+00
    0.17120E+06        -0.12001E+08         0.00000E+00
    0.00000E+00         0.00000E+00        -0.15490E+07
 
    0.34567E+07         0.25159E+06         0.00000E+00
    0.25159E+06        -0.12001E+08         0.00000E+00
    0.00000E+00         0.00000E+00        -0.17088E+07
 
    0.26968E+07         0.36912E+06         0.00000E+00
    0.36912E+06        -0.11981E+08         0.00000E+00
    0.00000E+00         0.00000E+00        -0.18568E+07
 
    0.19660E+07         0.52305E+06         0.00000E+00
    0.52305E+06        -0.11936E+08         0.00000E+00
    0.00000E+00         0.00000E+00        -0.19941E+07
 
    0.12544E+07         0.71190E+06         0.00000E+00
    0.71190E+06        -0.11862E+08         0.00000E+00
    0.00000E+00         0.00000E+00        -0.21216E+07
 
    0.55296E+06         0.93334E+06         0.00000E+00
    0.93334E+06        -0.11754E+08         0.00000E+00
    0.00000E+00         0.00000E+00        -0.22402E+07
 
   -0.14693E+06         0.11843E+07         0.00000E+00
    0.11843E+07        -0.11607E+08         0.00000E+00
    0.00000E+00         0.00000E+00        -0.23508E+07
 
   -0.85304E+06         0.14611E+07         0.00000E+00
    0.14611E+07        -0.11417E+08         0.00000E+00
    0.00000E+00         0.00000E+00        -0.24541E+07
 
   -0.15722E+07         0.17593E+07         0.00000E+00
    0.17593E+07        -0.11181E+08         0.00000E+00
    0.00000E+00         0.00000E+00        -0.25506E+07
 
   -0.23103E+07         0.20736E+07         0.00000E+00
    0.20736E+07        -0.10895E+08         0.00000E+00
    0.00000E+00         0.00000E+00        -0.26410E+07
 
    0.76640E+07         0.81803E+05         0.00000E+00
    0.81803E+05        -0.12384E+08         0.00000E+00
    0.00000E+00         0.00000E+00        -0.11181E+07
 
    0.74123E+07         0.17035E+06         0.00000E+00
    0.17035E+06        -0.12412E+08         0.00000E+00
    0.00000E+00         0.00000E+00        -0.10133E+07
 
    0.64383E+07         0.11477E+06         0.00000E+00
    0.11477E+06        -0.12458E+08         0.00000E+00
    0.00000E+00         0.00000E+00        -0.12039E+07
 
    0.54986E+07         0.84933E+05         0.00000E+00
    0.84933E+05        -0.12513E+08         0.00000E+00
    0.00000E+00         0.00000E+00        -0.14028E+07
 
    0.46279E+07         0.95786E+05         0.00000E+00
    0.95786E+05        -0.12561E+08         0.00000E+00
    0.00000E+00         0.00000E+00        -0.15866E+07
 
    0.38155E+07         0.14798E+06         0.00000E+00
    0.14798E+06        -0.12598E+08         0.00000E+00
    0.00000E+00         0.00000E+00        -0.17565E+07
 
    0.30517E+07         0.24298E+06         0.00000E+00
    0.24298E+06        -0.12620E+08         0.00000E+00
    0.00000E+00         0.00000E+00        -0.19137E+07
 
    0.23265E+07         0.38110E+06         0.00000E+00
    0.38110E+06        -0.12622E+08         0.00000E+00
    0.00000E+00         0.00000E+00        -0.20592E+07
 
    0.16292E+07         0.56169E+06         0.00000E+00
    0.56169E+06        -0.12599E+08         0.00000E+00
    0.00000E+00         0.00000E+00        -0.21940E+07
 
    0.94945E+06         0.78305E+06         0.00000E+00
    0.78305E+06        -0.12546E+08         0.00000E+00
    0.00000E+00         0.00000E+00        -0.23192E+07
 
    0.27744E+06         0.10426E+07         0.00000E+00
    0.10426E+07        -0.12456E+08         0.00000E+00
    0.00000E+00         0.00000E+00        -0.24357E+07
 
   -0.39604E+06         0.13368E+07         0.00000E+00
    0.13368E+07        -0.12325E+08         0.00000E+00
    0.00000E+00         0.00000E+00        -0.25442E+07
 
   -0.10793E+07         0.16614E+07         0.00000E+00
    0.16614E+07        -0.12149E+08         0.00000E+00
    0.00000E+00         0.00000E+00        -0.26457E+07
 
   -0.17799E+07         0.20115E+07         0.00000E+00
    0.20115E+07        -0.11924E+08         0.00000E+00
    0.00000E+00         0.00000E+00        -0.27408E+07
 
   -0.25042E+07         0.23813E+07         0.00000E+00
    0.23813E+07        -0.11645E+08         0.00000E+00
    0.00000E+00         0.00000E+00        -0.28299E+07
 
    0.72454E+07         0.86829E+05         0.00000E+00
    0.86829E+05        -0.12969E+08         0.00000E+00
    0.00000E+00         0.00000E+00        -0.12776E+07
 
    0.67861E+07         0.13157E+06         0.00000E+00
    0.13157E+06        -0.13022E+08         0.00000E+00
    0.00000E+00         0.00000E+00        -0.12471E+07
 
    0.58031E+07         0.61094E+05         0.00000E+00
    0.61094E+05        -0.13087E+08         0.00000E+00
    0.00000E+00         0.00000E+00        -0.14567E+07
 
    0.49059E+07         0.31652E+05         0.00000E+00
    0.31652E+05        -0.13159E+08         0.00000E+00
    0.00000E+00         0.00000E+00        -0.16506E+07
 
    0.40737E+07         0.46023E+05         0.00000E+00
    0.46023E+05        -0.13228E+08         0.00000E+00
    0.00000E+00         0.00000E+00        -0.18308E+07
 
    0.33013E+07         0.10685E+06         0.00000E+00
    0.10685E+06        -0.13288E+08         0.00000E+00
    0.00000E+00         0.00000E+00        -0.19973E+07
 
    0.25784E+07         0.21640E+06         0.00000E+00
    0.21640E+06        -0.13334E+08         0.00000E+00
    0.00000E+00         0.00000E+00        -0.21512E+07
 
    0.18937E+07         0.37551E+06         0.00000E+00
    0.37551E+06        -0.13361E+08         0.00000E+00
    0.00000E+00         0.00000E+00        -0.22935E+07
 
    0.12359E+07         0.58354E+06         0.00000E+00
    0.58354E+06        -0.13362E+08         0.00000E+00
    0.00000E+00         0.00000E+00        -0.24251E+07
 
    0.59370E+06         0.83857E+06         0.00000E+00
    0.83857E+06        -0.13330E+08         0.00000E+00
    0.00000E+00         0.00000E+00        -0.25473E+07
 
   -0.43594E+05         0.11376E+07         0.00000E+00
    0.11376E+07        -0.13261E+08         0.00000E+00
    0.00000E+00         0.00000E+00        -0.26608E+07
 
   -0.68581E+06         0.14767E+07         0.00000E+00
    0.14767E+07        -0.13148E+08         0.00000E+00
    0.00000E+00         0.00000E+00        -0.27668E+07
 
   -0.13419E+07         0.18511E+07         0.00000E+00
    0.18511E+07        -0.12988E+08         0.00000E+00
    0.00000E+00         0.00000E+00        -0.28660E+07
 
   -0.20201E+07         0.22554E+07         0.00000E+00
    0.22554E+07        -0.12775E+08         0.00000E+00
    0.00000E+00         0.00000E+00        -0.29590E+07
 
   -0.27273E+07         0.26833E+07         0.00000E+00
    0.26833E+07        -0.12506E+08         0.00000E+00
    0.00000E+00         0.00000E+00        -0.30466E+07
 
    0.67362E+07         0.75554E+05         0.00000E+00
    0.75554E+05        -0.13668E+08         0.00000E+00
    0.00000E+00         0.00000E+00        -0.14608E+07
 
    0.60088E+07         0.68139E+05         0.00000E+00
    0.68139E+05        -0.13716E+08         0.00000E+00
    0.00000E+00         0.00000E+00        -0.15414E+07
 
    0.50815E+07        -0.64134E+04         0.00000E+00
   -0.64134E+04        -0.13805E+08         0.00000E+00
    0.00000E+00         0.00000E+00        -0.17447E+07
 
    0.42230E+07        -0.37705E+05         0.00000E+00
   -0.37705E+05        -0.13896E+08         0.00000E+00
    0.00000E+00         0.00000E+00        -0.19345E+07
 
    0.34345E+07        -0.22066E+05         0.00000E+00
   -0.22066E+05        -0.13987E+08         0.00000E+00
    0.00000E+00         0.00000E+00        -0.21104E+07
 
    0.27080E+07         0.46130E+05         0.00000E+00
    0.46130E+05        -0.14072E+08         0.00000E+00
    0.00000E+00         0.00000E+00        -0.22728E+07
 
    0.20324E+07         0.16994E+06         0.00000E+00
    0.16994E+06        -0.14145E+08         0.00000E+00
    0.00000E+00         0.00000E+00        -0.24225E+07
 
    0.13950E+07         0.35040E+06         0.00000E+00
    0.35040E+06        -0.14198E+08         0.00000E+00
    0.00000E+00         0.00000E+00        -0.25606E+07
 
    0.78322E+06         0.58673E+06         0.00000E+00
    0.58673E+06        -0.14224E+08         0.00000E+00
    0.00000E+00         0.00000E+00        -0.26881E+07
 
    0.18464E+06         0.87665E+06         0.00000E+00
    0.87665E+06        -0.14216E+08         0.00000E+00
    0.00000E+00         0.00000E+00        -0.28063E+07
 
   -0.41222E+06         0.12167E+07         0.00000E+00
    0.12167E+07        -0.14169E+08         0.00000E+00
    0.00000E+00         0.00000E+00        -0.29163E+07
 
   -0.10179E+07         0.16024E+07         0.00000E+00
    0.16024E+07        -0.14077E+08         0.00000E+00
    0.00000E+00         0.00000E+00        -0.30189E+07
 
   -0.16421E+07         0.20286E+07         0.00000E+00
    0.20286E+07        -0.13933E+08         0.00000E+00
    0.00000E+00         0.00000E+00        -0.31151E+07
 
   -0.22935E+07         0.24894E+07         0.00000E+00
    0.24894E+07        -0.13735E+08         0.00000E+00
    0.00000E+00         0.00000E+00        -0.32056E+07
 
   -0.29798E+07         0.29780E+07         0.00000E+00
    0.29780E+07        -0.13476E+08         0.00000E+00
    0.00000E+00         0.00000E+00        -0.32911E+07
 
    0.60485E+07         0.44171E+05         0.00000E+00
    0.44171E+05        -0.14443E+08         0.00000E+00
    0.00000E+00         0.00000E+00        -0.17090E+07
 
    0.51509E+07        -0.11928E+05         0.00000E+00
   -0.11928E+05        -0.14509E+08         0.00000E+00
    0.00000E+00         0.00000E+00        -0.18717E+07
 
    0.42592E+07        -0.88041E+05         0.00000E+00
   -0.88041E+05        -0.14611E+08         0.00000E+00
    0.00000E+00         0.00000E+00        -0.20704E+07
 
    0.34430E+07        -0.12545E+06         0.00000E+00
   -0.12545E+06        -0.14722E+08         0.00000E+00
    0.00000E+00         0.00000E+00        -0.22558E+07
 
    0.27034E+07        -0.11074E+06         0.00000E+00
   -0.11074E+06        -0.14838E+08         0.00000E+00
    0.00000E+00         0.00000E+00        -0.24269E+07
 
    0.20301E+07        -0.36383E+05         0.00000E+00
   -0.36383E+05        -0.14951E+08         0.00000E+00
    0.00000E+00         0.00000E+00        -0.25842E+07
 
    0.14093E+07         0.10146E+06         0.00000E+00
    0.10146E+06        -0.15052E+08         0.00000E+00
    0.00000E+00         0.00000E+00        -0.27286E+07
 
    0.82677E+06         0.30377E+06         0.00000E+00
    0.30377E+06        -0.15134E+08         0.00000E+00
    0.00000E+00         0.00000E+00        -0.28614E+07
 
    0.26812E+06         0.56943E+06         0.00000E+00
    0.56943E+06        -0.15187E+08         0.00000E+00
    0.00000E+00         0.00000E+00        -0.29838E+07
 
   -0.28013E+06         0.89562E+06         0.00000E+00
    0.89562E+06        -0.15205E+08         0.00000E+00
    0.00000E+00         0.00000E+00        -0.30971E+07
 
   -0.83044E+06         0.12783E+07         0.00000E+00
    0.12783E+07        -0.15181E+08         0.00000E+00
    0.00000E+00         0.00000E+00        -0.32024E+07
 
   -0.13941E+07         0.17124E+07         0.00000E+00
    0.17124E+07        -0.15110E+08         0.00000E+00
    0.00000E+00         0.00000E+00        -0.33008E+07
 
   -0.19812E+07         0.21924E+07         0.00000E+00
    0.21924E+07        -0.14985E+08         0.00000E+00
    0.00000E+00         0.00000E+00        -0.33933E+07
 
   -0.26010E+07         0.27119E+07         0.00000E+00
    0.27119E+07        -0.14802E+08         0.00000E+00
    0.00000E+00         0.00000E+00        -0.34807E+07
 
   -0.32621E+07         0.32640E+07         0.00000E+00
    0.32640E+07        -0.14556E+08         0.00000E+00
    0.00000E+00         0.00000E+00        -0.35636E+07
 
    0.51752E+07        -0.77194E+04         0.00000E+00
   -0.77194E+04        -0.15319E+08         0.00000E+00
    0.00000E+00         0.00000E+00        -0.20297E+07
 
    0.41953E+07        -0.97341E+05         0.00000E+00
   -0.97341E+05        -0.15389E+08         0.00000E+00
    0.00000E+00         0.00000E+00        -0.22388E+07
 
    0.33271E+07        -0.18644E+06         0.00000E+00
   -0.18644E+06        -0.15506E+08         0.00000E+00
    0.00000E+00         0.00000E+00        -0.24357E+07
 
    0.25573E+07        -0.23436E+06         0.00000E+00
   -0.23436E+06        -0.15641E+08         0.00000E+00
    0.00000E+00         0.00000E+00        -0.26166E+07
 
    0.18741E+07        -0.22286E+06         0.00000E+00
   -0.22286E+06        -0.15785E+08         0.00000E+00
    0.00000E+00         0.00000E+00        -0.27821E+07
 
    0.12623E+07        -0.14310E+06         0.00000E+00
   -0.14310E+06        -0.15927E+08         0.00000E+00
    0.00000E+00         0.00000E+00        -0.29330E+07
 
    0.70503E+06         0.88780E+04         0.00000E+00
    0.88780E+04        -0.16059E+08         0.00000E+00
    0.00000E+00         0.00000E+00        -0.30708E+07
 
    0.18560E+06         0.23380E+06         0.00000E+00
    0.23380E+06        -0.16170E+08         0.00000E+00
    0.00000E+00         0.00000E+00        -0.31969E+07
 
   -0.31208E+06         0.52999E+06         0.00000E+00
    0.52999E+06        -0.16252E+08         0.00000E+00
    0.00000E+00         0.00000E+00        -0.33128E+07
 
   -0.80285E+06         0.89399E+06         0.00000E+00
    0.89399E+06        -0.16296E+08         0.00000E+00
    0.00000E+00         0.00000E+00        -0.34199E+07
 
   -0.13001E+07         0.13210E+07         0.00000E+00
    0.13210E+07        -0.16297E+08         0.00000E+00
    0.00000E+00         0.00000E+00        -0.35195E+07
 
   -0.18158E+07         0.18053E+07         0.00000E+00
    0.18053E+07        -0.16248E+08         0.00000E+00
    0.00000E+00         0.00000E+00        -0.36128E+07
 
   -0.23603E+07         0.23409E+07         0.00000E+00
    0.23409E+07        -0.16143E+08         0.00000E+00
    0.00000E+00         0.00000E+00        -0.37007E+07
 
   -0.29435E+07         0.29212E+07         0.00000E+00
    0.29212E+07        -0.15977E+08         0.00000E+00
    0.00000E+00         0.00000E+00        -0.37842E+07
 
   -0.35743E+07         0.35394E+07         0.00000E+00
    0.35394E+07        -0.15745E+08         0.00000E+00
    0.00000E+00         0.00000E+00        -0.38638E+07
 
    0.41201E+07        -0.62671E+05         0.00000E+00
   -0.62671E+05        -0.16269E+08         0.00000E+00
    0.00000E+00         0.00000E+00        -0.24298E+07
 
    0.31125E+07        -0.19191E+06         0.00000E+00
   -0.19191E+06        -0.16360E+08         0.00000E+00
    0.00000E+00         0.00000E+00        -0.26495E+07
 
    0.22744E+07        -0.30537E+06         0.00000E+00
   -0.30537E+06        -0.16495E+08         0.00000E+00
    0.00000E+00         0.00000E+00        -0.28441E+07
 
    0.15583E+07        -0.36753E+06         0.00000E+00
   -0.36753E+06        -0.16656E+08         0.00000E+00
    0.00000E+00         0.00000E+00        -0.30196E+07
 
    0.94080E+06        -0.36069E+06         0.00000E+00
   -0.36069E+06        -0.16830E+08         0.00000E+00
    0.00000E+00         0.00000E+00        -0.31778E+07
 
    0.40014E+06        -0.27588E+06         0.00000E+00
   -0.27588E+06        -0.17004E+08         0.00000E+00
    0.00000E+00         0.00000E+00        -0.33207E+07
 
   -0.84128E+05        -0.10939E+06         0.00000E+00
   -0.10939E+06        -0.17166E+08         0.00000E+00
    0.00000E+00         0.00000E+00        -0.34500E+07
 
   -0.53141E+06         0.13905E+06         0.00000E+00
    0.13905E+06        -0.17307E+08         0.00000E+00
    0.00000E+00         0.00000E+00        -0.35677E+07
 
   -0.95973E+06         0.46711E+06         0.00000E+00
    0.46711E+06        -0.17418E+08         0.00000E+00
    0.00000E+00         0.00000E+00        -0.36756E+07
 
   -0.13854E+07         0.87052E+06         0.00000E+00
    0.87052E+06        -0.17490E+08         0.00000E+00
    0.00000E+00         0.00000E+00        -0.37751E+07
 
   -0.18228E+07         0.13436E+07         0.00000E+00
    0.13436E+07        -0.17516E+08         0.00000E+00
    0.00000E+00         0.00000E+00        -0.38677E+07
 
   -0.22844E+07         0.18799E+07         0.00000E+00
    0.18799E+07        -0.17489E+08         0.00000E+00
    0.00000E+00         0.00000E+00        -0.39547E+07
 
   -0.27808E+07         0.24727E+07         0.00000E+00
    0.24727E+07        -0.17405E+08         0.00000E+00
    0.00000E+00         0.00000E+00        -0.40372E+07
 
   -0.33217E+07         0.31155E+07         0.00000E+00
    0.31155E+07        -0.17257E+08         0.00000E+00
    0.00000E+00         0.00000E+00        -0.41158E+07
 
   -0.39165E+07         0.38018E+07         0.00000E+00
    0.38018E+07        -0.17041E+08         0.00000E+00
    0.00000E+00         0.00000E+00        -0.41915E+07
 
    0.28732E+07        -0.10859E+06         0.00000E+00
   -0.10859E+06        -0.17347E+08         0.00000E+00
    0.00000E+00         0.00000E+00        -0.28947E+07
 
    0.18859E+07        -0.30033E+06         0.00000E+00
   -0.30033E+06        -0.17438E+08         0.00000E+00
    0.00000E+00         0.00000E+00        -0.31104E+07
 
    0.10903E+07        -0.44564E+06         0.00000E+00
   -0.44564E+06        -0.17591E+08         0.00000E+00
    0.00000E+00         0.00000E+00        -0.33001E+07
 
    0.43955E+06        -0.52562E+06         0.00000E+00
   -0.52562E+06        -0.17777E+08         0.00000E+00
    0.00000E+00         0.00000E+00        -0.34674E+07
 
   -0.10151E+06        -0.52487E+06         0.00000E+00
   -0.52487E+06        -0.17979E+08         0.00000E+00
    0.00000E+00         0.00000E+00        -0.36160E+07
 
   -0.56033E+06        -0.43537E+06         0.00000E+00
   -0.43537E+06        -0.18182E+08         0.00000E+00
    0.00000E+00         0.00000E+00        -0.37485E+07
 
   -0.96137E+06        -0.25402E+06         0.00000E+00
   -0.25402E+06        -0.18375E+08         0.00000E+00
    0.00000E+00         0.00000E+00        -0.38673E+07
 
   -0.13268E+07         0.18743E+05         0.00000E+00
    0.18743E+05        -0.18546E+08         0.00000E+00
    0.00000E+00         0.00000E+00        -0.39745E+07
 
   -0.16768E+07         0.37990E+06         0.00000E+00
    0.37990E+06        -0.18685E+08         0.00000E+00
    0.00000E+00         0.00000E+00        -0.40724E+07
 
   -0.20293E+07         0.82431E+06         0.00000E+00
    0.82431E+06        -0.18784E+08         0.00000E+00
    0.00000E+00         0.00000E+00        -0.41627E+07
 
   -0.23998E+07         0.13453E+07         0.00000E+00
    0.13453E+07        -0.18835E+08         0.00000E+00
    0.00000E+00         0.00000E+00        -0.42470E+07
 
   -0.28012E+07         0.19352E+07         0.00000E+00
    0.19352E+07        -0.18831E+08         0.00000E+00
    0.00000E+00         0.00000E+00        -0.43265E+07
 
   -0.32438E+07         0.25866E+07         0.00000E+00
    0.25866E+07        -0.18768E+08         0.00000E+00
    0.00000E+00         0.00000E+00        -0.44024E+07
 
   -0.37365E+07         0.32929E+07         0.00000E+00
    0.32929E+07        -0.18640E+08         0.00000E+00
    0.00000E+00         0.00000E+00        -0.44754E+07
 
   -0.42888E+07         0.40488E+07         0.00000E+00
    0.40488E+07        -0.18442E+08         0.00000E+00
    0.00000E+00         0.00000E+00        -0.45462E+07
 
    0.14303E+07        -0.15414E+06         0.00000E+00
   -0.15414E+06        -0.18539E+08         0.00000E+00
    0.00000E+00         0.00000E+00        -0.34217E+07
 
    0.49493E+06        -0.41546E+06         0.00000E+00
   -0.41546E+06        -0.18635E+08         0.00000E+00
    0.00000E+00         0.00000E+00        -0.36281E+07
 
   -0.23475E+06        -0.60360E+06         0.00000E+00
   -0.60360E+06        -0.18801E+08         0.00000E+00
    0.00000E+00         0.00000E+00        -0.38071E+07
 
   -0.80576E+06        -0.70635E+06         0.00000E+00
   -0.70635E+06        -0.19008E+08         0.00000E+00
    0.00000E+00         0.00000E+00        -0.39627E+07
 
   -0.12575E+07        -0.71391E+06         0.00000E+00
   -0.71391E+06        -0.19235E+08         0.00000E+00
    0.00000E+00         0.00000E+00        -0.40984E+07
 
   -0.16228E+07        -0.62055E+06         0.00000E+00
   -0.62055E+06        -0.19465E+08         0.00000E+00
    0.00000E+00         0.00000E+00        -0.42176E+07
 
   -0.19296E+07        -0.42449E+06         0.00000E+00
   -0.42449E+06        -0.19686E+08         0.00000E+00
    0.00000E+00         0.00000E+00        -0.43230E+07
 
   -0.22029E+07        -0.12705E+06         0.00000E+00
   -0.12705E+06        -0.19884E+08         0.00000E+00
    0.00000E+00         0.00000E+00        -0.44175E+07
 
   -0.24649E+07         0.26798E+06         0.00000E+00
    0.26798E+06        -0.20051E+08         0.00000E+00
    0.00000E+00         0.00000E+00        -0.45032E+07
 
   -0.27356E+07         0.75465E+06         0.00000E+00
    0.75465E+06        -0.20177E+08         0.00000E+00
    0.00000E+00         0.00000E+00        -0.45824E+07
 
   -0.30318E+07         0.13251E+07         0.00000E+00
    0.13251E+07        -0.20252E+08         0.00000E+00
    0.00000E+00         0.00000E+00        -0.46568E+07
 
   -0.33669E+07         0.19703E+07         0.00000E+00
    0.19703E+07        -0.20271E+08         0.00000E+00
    0.00000E+00         0.00000E+00        -0.47277E+07
 
   -0.37504E+07         0.26812E+07         0.00000E+00
    0.26812E+07        -0.20229E+08         0.00000E+00
    0.00000E+00         0.00000E+00        -0.47959E+07
 
   -0.41892E+07         0.34512E+07         0.00000E+00
    0.34512E+07        -0.20122E+08         0.00000E+00
    0.00000E+00         0.00000E+00        -0.48623E+07
 
   -0.46913E+07         0.42770E+07         0.00000E+00
    0.42770E+07        -0.19945E+08         0.00000E+00
    0.00000E+00         0.00000E+00        -0.49273E+07
 
   -0.21603E+06        -0.20183E+06         0.00000E+00
   -0.20183E+06        -0.19849E+08         0.00000E+00
    0.00000E+00         0.00000E+00        -0.40130E+07
 
   -0.10717E+07        -0.53810E+06         0.00000E+00
   -0.53810E+06        -0.19951E+08         0.00000E+00
    0.00000E+00         0.00000E+00        -0.42046E+07
 
   -0.17116E+07        -0.77542E+06         0.00000E+00
   -0.77542E+06        -0.20128E+08         0.00000E+00
    0.00000E+00         0.00000E+00        -0.43680E+07
 
   -0.21842E+07        -0.90598E+06         0.00000E+00
   -0.90598E+06        -0.20352E+08         0.00000E+00
    0.00000E+00         0.00000E+00        -0.45072E+07
 
   -0.25319E+07        -0.92456E+06         0.00000E+00
   -0.92456E+06        -0.20599E+08         0.00000E+00
    0.00000E+00         0.00000E+00        -0.46262E+07
 
   -0.27908E+07        -0.82878E+06         0.00000E+00
   -0.82878E+06        -0.20852E+08         0.00000E+00
    0.00000E+00         0.00000E+00        -0.47285E+07
 
   -0.29918E+07        -0.61887E+06         0.00000E+00
   -0.61887E+06        -0.21096E+08         0.00000E+00
    0.00000E+00         0.00000E+00        -0.48175E+07
 
   -0.31620E+07        -0.29730E+06         0.00000E+00
   -0.29730E+06        -0.21319E+08         0.00000E+00
    0.00000E+00         0.00000E+00        -0.48963E+07
 
   -0.33258E+07         0.13145E+06         0.00000E+00
    0.13145E+06        -0.21511E+08         0.00000E+00
    0.00000E+00         0.00000E+00        -0.49674E+07
 
   -0.35051E+07         0.66086E+06         0.00000E+00
    0.66086E+06        -0.21662E+08         0.00000E+00
    0.00000E+00         0.00000E+00        -0.50335E+07
 
   -0.37190E+07         0.12821E+07         0.00000E+00
    0.12821E+07        -0.21762E+08         0.00000E+00
    0.00000E+00         0.00000E+00        -0.50963E+07
 
   -0.39819E+07         0.19841E+07         0.00000E+00
    0.19841E+07        -0.21805E+08         0.00000E+00
    0.00000E+00         0.00000E+00        -0.51573E+07
 
   -0.43019E+07         0.27554E+07         0.00000E+00
    0.27554E+07        -0.21784E+08         0.00000E+00
    0.00000E+00         0.00000E+00        -0.52172E+07
 
   -0.46818E+07         0.35880E+07         0.00000E+00
    0.35880E+07        -0.21699E+08         0.00000E+00
    0.00000E+00         0.00000E+00        -0.52761E+07
 
   -0.51248E+07         0.44820E+07         0.00000E+00
    0.44820E+07        -0.21546E+08         0.00000E+00
    0.00000E+00         0.00000E+00        -0.53341E+07
 
   -0.20735E+07        -0.25237E+06         0.00000E+00
   -0.25237E+06        -0.21279E+08         0.00000E+00
    0.00000E+00         0.00000E+00        -0.46704E+07
 
   -0.28218E+07        -0.66812E+06         0.00000E+00
   -0.66812E+06        -0.21387E+08         0.00000E+00
    0.00000E+00         0.00000E+00        -0.48418E+07
 
   -0.33473E+07        -0.95864E+06         0.00000E+00
   -0.95864E+06        -0.21573E+08         0.00000E+00
    0.00000E+00         0.00000E+00        -0.49841E+07
 
   -0.37014E+07        -0.11203E+07         0.00000E+00
   -0.11203E+07        -0.21809E+08         0.00000E+00
    0.00000E+00         0.00000E+00        -0.51020E+07
 
   -0.39287E+07        -0.11523E+07         0.00000E+00
   -0.11523E+07        -0.22070E+08         0.00000E+00
    0.00000E+00         0.00000E+00        -0.51998E+07
 
   -0.40676E+07        -0.10558E+07         0.00000E+00
   -0.10558E+07        -0.22339E+08         0.00000E+00
    0.00000E+00         0.00000E+00        -0.52814E+07
 
   -0.41507E+07        -0.83365E+06         0.00000E+00
   -0.83365E+06        -0.22601E+08         0.00000E+00
    0.00000E+00         0.00000E+00        -0.53503E+07
 
   -0.42067E+07        -0.48972E+06         0.00000E+00
   -0.48972E+06        -0.22844E+08         0.00000E+00
    0.00000E+00         0.00000E+00        -0.54101E+07
 
   -0.42615E+07        -0.28954E+05         0.00000E+00
   -0.28954E+05        -0.23058E+08         0.00000E+00
    0.00000E+00         0.00000E+00        -0.54639E+07
 
   -0.43391E+07         0.54208E+06         0.00000E+00
    0.54208E+06        -0.23232E+08         0.00000E+00
    0.00000E+00         0.00000E+00        -0.55143E+07
 
   -0.44613E+07         0.12142E+07         0.00000E+00
    0.12142E+07        -0.23358E+08         0.00000E+00
    0.00000E+00         0.00000E+00        -0.55638E+07
 
   -0.46452E+07         0.19746E+07         0.00000E+00
    0.19746E+07        -0.23425E+08         0.00000E+00
    0.00000E+00         0.00000E+00        -0.56140E+07
 
   -0.48992E+07         0.28078E+07         0.00000E+00
    0.28078E+07        -0.23427E+08         0.00000E+00
    0.00000E+00         0.00000E+00        -0.56653E+07
 
   -0.52178E+07         0.37007E+07         0.00000E+00
    0.37007E+07        -0.23365E+08         0.00000E+00
    0.00000E+00         0.00000E+00        -0.57166E+07
 
   -0.55916E+07         0.46571E+07         0.00000E+00
    0.46571E+07        -0.23242E+08         0.00000E+00
    0.00000E+00         0.00000E+00        -0.57667E+07
 
   -0.41486E+07        -0.30554E+06         0.00000E+00
   -0.30554E+06        -0.22830E+08         0.00000E+00
    0.00000E+00         0.00000E+00        -0.53957E+07
 
   -0.47603E+07        -0.80426E+06         0.00000E+00
   -0.80426E+06        -0.22942E+08         0.00000E+00
    0.00000E+00         0.00000E+00        -0.55405E+07
 
   -0.51460E+07        -0.11502E+07         0.00000E+00
   -0.11502E+07        -0.23134E+08         0.00000E+00
    0.00000E+00         0.00000E+00        -0.56561E+07
 
   -0.53604E+07        -0.13444E+07         0.00000E+00
   -0.13444E+07        -0.23377E+08         0.00000E+00
    0.00000E+00         0.00000E+00        -0.57474E+07
 
   -0.54505E+07        -0.13911E+07         0.00000E+00
   -0.13911E+07        -0.23645E+08         0.00000E+00
    0.00000E+00         0.00000E+00        -0.58192E+07
 
   -0.54556E+07        -0.12954E+07         0.00000E+00
   -0.12954E+07        -0.23922E+08         0.00000E+00
    0.00000E+00         0.00000E+00        -0.58755E+07
 
   -0.54093E+07        -0.10633E+07         0.00000E+00
   -0.10633E+07        -0.24193E+08         0.00000E+00
    0.00000E+00         0.00000E+00        -0.59205E+07
 
   -0.53403E+07        -0.70012E+06         0.00000E+00
   -0.70012E+06        -0.24448E+08         0.00000E+00
    0.00000E+00         0.00000E+00        -0.59577E+07
 
   -0.52752E+07        -0.21123E+06         0.00000E+00
   -0.21123E+06        -0.24678E+08         0.00000E+00
    0.00000E+00         0.00000E+00        -0.59906E+07
 
   -0.52399E+07         0.39761E+06         0.00000E+00
    0.39761E+06        -0.24873E+08         0.00000E+00
    0.00000E+00         0.00000E+00        -0.60226E+07
 
   -0.52594E+07         0.11179E+07         0.00000E+00
    0.11179E+07        -0.25024E+08         0.00000E+00
    0.00000E+00         0.00000E+00        -0.60567E+07
 
   -0.53558E+07         0.19363E+07         0.00000E+00
    0.19363E+07        -0.25120E+08         0.00000E+00
    0.00000E+00         0.00000E+00        -0.60952E+07
 
   -0.55409E+07         0.28331E+07         0.00000E+00
    0.28331E+07        -0.25153E+08         0.00000E+00
    0.00000E+00         0.00000E+00        -0.61388E+07
 
   -0.58035E+07         0.37858E+07         0.00000E+00
    0.37858E+07        -0.25121E+08         0.00000E+00
    0.00000E+00         0.00000E+00        -0.61849E+07
 
   -0.60980E+07         0.47912E+07         0.00000E+00
    0.47912E+07        -0.25035E+08         0.00000E+00
    0.00000E+00         0.00000E+00        -0.62266E+07
 
   -0.64455E+07        -0.36066E+06         0.00000E+00
   -0.36066E+06        -0.24502E+08         0.00000E+00
    0.00000E+00         0.00000E+00        -0.61896E+07
 
   -0.68890E+07        -0.94421E+06         0.00000E+00
   -0.94421E+06        -0.24616E+08         0.00000E+00
    0.00000E+00         0.00000E+00        -0.63011E+07
 
   -0.71083E+07        -0.13457E+07         0.00000E+00
   -0.13457E+07        -0.24810E+08         0.00000E+00
    0.00000E+00         0.00000E+00        -0.63837E+07
 
   -0.71615E+07        -0.15722E+07         0.00000E+00
   -0.15722E+07        -0.25052E+08         0.00000E+00
    0.00000E+00         0.00000E+00        -0.64427E+07
 
   -0.70975E+07        -0.16333E+07         0.00000E+00
   -0.16333E+07        -0.25319E+08         0.00000E+00
    0.00000E+00         0.00000E+00        -0.64832E+07
 
   -0.69560E+07        -0.15392E+07         0.00000E+00
   -0.15392E+07        -0.25592E+08         0.00000E+00
    0.00000E+00         0.00000E+00        -0.65097E+07
 
   -0.67699E+07        -0.12994E+07         0.00000E+00
   -0.12994E+07        -0.25861E+08         0.00000E+00
    0.00000E+00         0.00000E+00        -0.65262E+07
 
   -0.65666E+07        -0.92148E+06         0.00000E+00
   -0.92148E+06        -0.26117E+08         0.00000E+00
    0.00000E+00         0.00000E+00        -0.65368E+07
 
   -0.63719E+07        -0.41076E+06         0.00000E+00
   -0.41076E+06        -0.26354E+08         0.00000E+00
    0.00000E+00         0.00000E+00        -0.65451E+07
 
   -0.62121E+07         0.22846E+06         0.00000E+00
    0.22846E+06        -0.26564E+08         0.00000E+00
    0.00000E+00         0.00000E+00        -0.65552E+07
 
   -0.61166E+07         0.99010E+06         0.00000E+00
    0.99010E+06        -0.26739E+08         0.00000E+00
    0.00000E+00         0.00000E+00        -0.65710E+07
 
   -0.61149E+07         0.18608E+07         0.00000E+00
    0.18608E+07        -0.26866E+08         0.00000E+00
    0.00000E+00         0.00000E+00        -0.65962E+07
 
   -0.62260E+07         0.28170E+07         0.00000E+00
    0.28170E+07        -0.26941E+08         0.00000E+00
    0.00000E+00         0.00000E+00        -0.66333E+07
 
   -0.64471E+07         0.38272E+07         0.00000E+00
    0.38272E+07        -0.26958E+08         0.00000E+00
    0.00000E+00         0.00000E+00        -0.66811E+07
 
   -0.66646E+07         0.48543E+07         0.00000E+00
    0.48543E+07        -0.26968E+08         0.00000E+00
    0.00000E+00         0.00000E+00        -0.67266E+07
 
   -0.89646E+07        -0.41667E+06         0.00000E+00
   -0.41667E+06        -0.26294E+08         0.00000E+00
    0.00000E+00         0.00000E+00        -0.70518E+07
 
   -0.92061E+07        -0.10848E+07         0.00000E+00
   -0.10848E+07        -0.26407E+08         0.00000E+00
    0.00000E+00         0.00000E+00        -0.71226E+07
 
   -0.92311E+07        -0.15399E+07         0.00000E+00
   -0.15399E+07        -0.26596E+08         0.00000E+00
    0.00000E+00         0.00000E+00        -0.71655E+07
 
   -0.91013E+07        -0.17959E+07         0.00000E+00
   -0.17959E+07        -0.26829E+08         0.00000E+00
    0.00000E+00         0.00000E+00        -0.71861E+07
 
   -0.88670E+07        -0.18692E+07         0.00000E+00
   -0.18692E+07        -0.27083E+08         0.00000E+00
    0.00000E+00         0.00000E+00        -0.71900E+07
 
   -0.85677E+07        -0.17760E+07         0.00000E+00
   -0.17760E+07        -0.27340E+08         0.00000E+00
    0.00000E+00         0.00000E+00        -0.71816E+07
 
   -0.82338E+07        -0.15304E+07         0.00000E+00
   -0.15304E+07        -0.27593E+08         0.00000E+00
    0.00000E+00         0.00000E+00        -0.71653E+07
 
   -0.78897E+07        -0.11426E+07         0.00000E+00
   -0.11426E+07        -0.27835E+08         0.00000E+00
    0.00000E+00         0.00000E+00        -0.71449E+07
 
   -0.75578E+07        -0.61841E+06         0.00000E+00
   -0.61841E+06        -0.28064E+08         0.00000E+00
    0.00000E+00         0.00000E+00        -0.71244E+07
 
   -0.72634E+07         0.40465E+05         0.00000E+00
    0.40465E+05        -0.28277E+08         0.00000E+00
    0.00000E+00         0.00000E+00        -0.71081E+07
 
   -0.70395E+07         0.83147E+06         0.00000E+00
    0.83147E+06        -0.28466E+08         0.00000E+00
    0.00000E+00         0.00000E+00        -0.71011E+07
 
   -0.69292E+07         0.17444E+07         0.00000E+00
    0.17444E+07        -0.28621E+08         0.00000E+00
    0.00000E+00         0.00000E+00        -0.71100E+07
 
   -0.69700E+07         0.27434E+07         0.00000E+00
    0.27434E+07        -0.28730E+08         0.00000E+00
    0.00000E+00         0.00000E+00        -0.71401E+07
 
   -0.71304E+07         0.37788E+07         0.00000E+00
    0.37788E+07        -0.28852E+08         0.00000E+00
    0.00000E+00         0.00000E+00        -0.72084E+07
 
   -0.74643E+07         0.47504E+07         0.00000E+00
    0.47504E+07        -0.28967E+08         0.00000E+00
    0.00000E+00         0.00000E+00        -0.74772E+07
 
   -0.11702E+08        -0.47234E+06         0.00000E+00
   -0.47234E+06        -0.28202E+08         0.00000E+00
    0.00000E+00         0.00000E+00        -0.79809E+07
 
   -0.11705E+08        -0.12222E+07         0.00000E+00
   -0.12222E+07        -0.28310E+08         0.00000E+00
    0.00000E+00         0.00000E+00        -0.80031E+07
 
   -0.11507E+08        -0.17259E+07         0.00000E+00
   -0.17259E+07        -0.28488E+08         0.00000E+00
    0.00000E+00         0.00000E+00        -0.79990E+07
 
   -0.11172E+08        -0.20060E+07         0.00000E+00
   -0.20060E+07        -0.28703E+08         0.00000E+00
    0.00000E+00         0.00000E+00        -0.79749E+07
 
   -0.10753E+08        -0.20868E+07         0.00000E+00
   -0.20868E+07        -0.28930E+08         0.00000E+00
    0.00000E+00         0.00000E+00        -0.79365E+07
 
   -0.10286E+08        -0.19918E+07         0.00000E+00
   -0.19918E+07        -0.29156E+08         0.00000E+00
    0.00000E+00         0.00000E+00        -0.78884E+07
 
   -0.98002E+07        -0.17407E+07         0.00000E+00
   -0.17407E+07        -0.29374E+08         0.00000E+00
    0.00000E+00         0.00000E+00        -0.78348E+07
 
   -0.93128E+07        -0.13476E+07         0.00000E+00
   -0.13476E+07        -0.29583E+08         0.00000E+00
    0.00000E+00         0.00000E+00        -0.77792E+07
 
   -0.88400E+07        -0.81899E+06         0.00000E+00
   -0.81899E+06        -0.29785E+08         0.00000E+00
    0.00000E+00         0.00000E+00        -0.77251E+07
 
   -0.84027E+07        -0.15296E+06         0.00000E+00
   -0.15296E+06        -0.29982E+08         0.00000E+00
    0.00000E+00         0.00000E+00        -0.76769E+07
 
   -0.80384E+07         0.65497E+06         0.00000E+00
    0.65497E+06        -0.30165E+08         0.00000E+00
    0.00000E+00         0.00000E+00        -0.76407E+07
 
   -0.78024E+07         0.15970E+07         0.00000E+00
    0.15970E+07        -0.30322E+08         0.00000E+00
    0.00000E+00         0.00000E+00        -0.76248E+07
 
   -0.77469E+07         0.26256E+07         0.00000E+00
    0.26256E+07        -0.30480E+08         0.00000E+00
    0.00000E+00         0.00000E+00        -0.77067E+07
 
   -0.79825E+07         0.36467E+07         0.00000E+00
    0.36467E+07        -0.30594E+08         0.00000E+00
    0.00000E+00         0.00000E+00        -0.80679E+07
 
   -0.84741E+07         0.45898E+07         0.00000E+00
    0.45898E+07        -0.30733E+08         0.00000E+00
    0.00000E+00         0.00000E+00        -0.85484E+07
 
   -0.14650E+08        -0.52632E+06         0.00000E+00
   -0.52632E+06        -0.30220E+08         0.00000E+00
    0.00000E+00         0.00000E+00        -0.89740E+07
 
   -0.14375E+08        -0.13520E+07         0.00000E+00
   -0.13520E+07        -0.30320E+08         0.00000E+00
    0.00000E+00         0.00000E+00        -0.89390E+07
 
   -0.13922E+08        -0.18962E+07         0.00000E+00
   -0.18962E+07        -0.30479E+08         0.00000E+00
    0.00000E+00         0.00000E+00        -0.88803E+07
 
   -0.13361E+08        -0.21915E+07         0.00000E+00
   -0.21915E+07        -0.30663E+08         0.00000E+00
    0.00000E+00         0.00000E+00        -0.88049E+07
 
   -0.12743E+08        -0.22721E+07         0.00000E+00
   -0.22721E+07        -0.30849E+08         0.00000E+00
    0.00000E+00         0.00000E+00        -0.87186E+07
 
   -0.12104E+08        -0.21701E+07         0.00000E+00
   -0.21701E+07        -0.31026E+08         0.00000E+00
    0.00000E+00         0.00000E+00        -0.86262E+07
 
   -0.11465E+08        -0.19120E+07         0.00000E+00
   -0.19120E+07        -0.31191E+08         0.00000E+00
    0.00000E+00         0.00000E+00        -0.85312E+07
 
   -0.10836E+08        -0.15162E+07         0.00000E+00
   -0.15162E+07        -0.31346E+08         0.00000E+00
    0.00000E+00         0.00000E+00        -0.84366E+07
 
   -0.10225E+08        -0.99079E+06         0.00000E+00
   -0.99079E+06        -0.31498E+08         0.00000E+00
    0.00000E+00         0.00000E+00        -0.83446E+07
 
   -0.96378E+07        -0.33101E+06         0.00000E+00
   -0.33101E+06        -0.31653E+08         0.00000E+00
    0.00000E+00         0.00000E+00        -0.82581E+07
 
   -0.91150E+07         0.48526E+06         0.00000E+00
    0.48526E+06        -0.31806E+08         0.00000E+00
    0.00000E+00         0.00000E+00        -0.81841E+07
 
   -0.87129E+07         0.14524E+07         0.00000E+00
    0.14524E+07        -0.31951E+08         0.00000E+00
    0.00000E+00         0.00000E+00        -0.81848E+07
 
   -0.86934E+07         0.24649E+07         0.00000E+00
    0.24649E+07        -0.32085E+08         0.00000E+00
    0.00000E+00         0.00000E+00        -0.85739E+07
 
   -0.89575E+07         0.34707E+07         0.00000E+00
    0.34707E+07        -0.32252E+08         0.00000E+00
    0.00000E+00         0.00000E+00        -0.91160E+07
 
   -0.94693E+07         0.44713E+07         0.00000E+00
    0.44713E+07        -0.32399E+08         0.00000E+00
    0.00000E+00         0.00000E+00        -0.95834E+07
 
   -0.17794E+08        -0.57727E+06         0.00000E+00
   -0.57727E+06        -0.32340E+08         0.00000E+00
    0.00000E+00         0.00000E+00        -0.10027E+08
 
   -0.17198E+08        -0.14694E+07         0.00000E+00
   -0.14694E+07        -0.32428E+08         0.00000E+00
    0.00000E+00         0.00000E+00        -0.99252E+07
 
   -0.16459E+08        -0.20418E+07         0.00000E+00
   -0.20418E+07        -0.32560E+08         0.00000E+00
    0.00000E+00         0.00000E+00        -0.98037E+07
 
   -0.15650E+08        -0.23396E+07         0.00000E+00
   -0.23396E+07        -0.32701E+08         0.00000E+00
    0.00000E+00         0.00000E+00        -0.96701E+07
 
   -0.14824E+08        -0.24094E+07         0.00000E+00
   -0.24094E+07        -0.32830E+08         0.00000E+00
    0.00000E+00         0.00000E+00        -0.95306E+07
 
   -0.14009E+08        -0.22934E+07         0.00000E+00
   -0.22934E+07        -0.32939E+08         0.00000E+00
    0.00000E+00         0.00000E+00        -0.93897E+07
 
   -0.13221E+08        -0.20251E+07         0.00000E+00
   -0.20251E+07        -0.33031E+08         0.00000E+00
    0.00000E+00         0.00000E+00        -0.92504E+07
 
   -0.12458E+08        -0.16274E+07         0.00000E+00
   -0.16274E+07        -0.33113E+08         0.00000E+00
    0.00000E+00         0.00000E+00        -0.91141E+07
 
   -0.11714E+08        -0.11104E+07         0.00000E+00
   -0.11104E+07        -0.33193E+08         0.00000E+00
    0.00000E+00         0.00000E+00        -0.89814E+07
 
   -0.10979E+08        -0.46668E+06         0.00000E+00
   -0.46668E+06        -0.33283E+08         0.00000E+00
    0.00000E+00         0.00000E+00        -0.88525E+07
 
   -0.10245E+08         0.34417E+06         0.00000E+00
    0.34417E+06        -0.33388E+08         0.00000E+00
    0.00000E+00         0.00000E+00        -0.87272E+07
 
   -0.97869E+07         0.12857E+07         0.00000E+00
    0.12857E+07        -0.33509E+08         0.00000E+00
    0.00000E+00         0.00000E+00        -0.89346E+07
 
   -0.97494E+07         0.22612E+07         0.00000E+00
    0.22612E+07        -0.33683E+08         0.00000E+00
    0.00000E+00         0.00000E+00        -0.95150E+07
 
   -0.99695E+07         0.32887E+07         0.00000E+00
    0.32887E+07        -0.33875E+08         0.00000E+00
    0.00000E+00         0.00000E+00        -0.10092E+08
 
   -0.10475E+08         0.43622E+07         0.00000E+00
    0.43622E+07        -0.34027E+08         0.00000E+00
    0.00000E+00         0.00000E+00        -0.10579E+08
 
   -0.21114E+08        -0.62383E+06         0.00000E+00
   -0.62383E+06        -0.34551E+08         0.00000E+00
    0.00000E+00         0.00000E+00        -0.11133E+08
 
   -0.20150E+08        -0.15688E+07         0.00000E+00
   -0.15688E+07        -0.34623E+08         0.00000E+00
    0.00000E+00         0.00000E+00        -0.10955E+08
 
   -0.19091E+08        -0.21518E+07         0.00000E+00
   -0.21518E+07        -0.34717E+08         0.00000E+00
    0.00000E+00         0.00000E+00        -0.10762E+08
 
   -0.18016E+08        -0.24352E+07         0.00000E+00
   -0.24352E+07        -0.34799E+08         0.00000E+00
    0.00000E+00         0.00000E+00        -0.10563E+08
 
   -0.16974E+08        -0.24813E+07         0.00000E+00
   -0.24813E+07        -0.34852E+08         0.00000E+00
    0.00000E+00         0.00000E+00        -0.10365E+08
 
   -0.15987E+08        -0.23437E+07         0.00000E+00
   -0.23437E+07        -0.34876E+08         0.00000E+00
    0.00000E+00         0.00000E+00        -0.10173E+08
 
   -0.15057E+08        -0.20626E+07         0.00000E+00
   -0.20626E+07        -0.34878E+08         0.00000E+00
    0.00000E+00         0.00000E+00        -0.99869E+07
 
   -0.14171E+08        -0.16640E+07         0.00000E+00
   -0.16640E+07        -0.34870E+08         0.00000E+00
    0.00000E+00         0.00000E+00        -0.98083E+07
 
   -0.13307E+08        -0.11603E+07         0.00000E+00
   -0.11603E+07        -0.34867E+08         0.00000E+00
    0.00000E+00         0.00000E+00        -0.96348E+07
 
   -0.12430E+08        -0.54477E+06         0.00000E+00
   -0.54477E+06        -0.34882E+08         0.00000E+00
    0.00000E+00         0.00000E+00        -0.94625E+07
 
   -0.11502E+08         0.21858E+06         0.00000E+00
    0.21858E+06        -0.34933E+08         0.00000E+00
    0.00000E+00         0.00000E+00        -0.93203E+07
 
   -0.11015E+08         0.10864E+07         0.00000E+00
    0.10864E+07        -0.35064E+08         0.00000E+00
    0.00000E+00         0.00000E+00        -0.97259E+07
 
   -0.10877E+08         0.20378E+07         0.00000E+00
    0.20378E+07        -0.35256E+08         0.00000E+00
    0.00000E+00         0.00000E+00        -0.10360E+08
 
   -0.11021E+08         0.30934E+07         0.00000E+00
    0.30934E+07        -0.35464E+08         0.00000E+00
    0.00000E+00         0.00000E+00        -0.10989E+08
 
   -0.11487E+08         0.42343E+07         0.00000E+00
    0.42343E+07        -0.35642E+08         0.00000E+00
    0.00000E+00         0.00000E+00        -0.11545E+08
 
   -0.24584E+08        -0.66456E+06         0.00000E+00
   -0.66456E+06        -0.36840E+08         0.00000E+00
    0.00000E+00         0.00000E+00        -0.12285E+08
 
   -0.23199E+08        -0.16426E+07         0.00000E+00
   -0.16426E+07        -0.36890E+08         0.00000E+00
    0.00000E+00         0.00000E+00        -0.12018E+08
 
   -0.21785E+08        -0.22118E+07         0.00000E+00
   -0.22118E+07        -0.36933E+08         0.00000E+00
    0.00000E+00         0.00000E+00        -0.11744E+08
 
   -0.20429E+08        -0.24593E+07         0.00000E+00
   -0.24593E+07        -0.36936E+08         0.00000E+00
    0.00000E+00         0.00000E+00        -0.11473E+08
 
   -0.19173E+08        -0.24679E+07         0.00000E+00
   -0.24679E+07        -0.36891E+08         0.00000E+00
    0.00000E+00         0.00000E+00        -0.11213E+08
 
   -0.18023E+08        -0.23033E+07         0.00000E+00
   -0.23033E+07        -0.36809E+08         0.00000E+00
    0.00000E+00         0.00000E+00        -0.10966E+08
 
   -0.16965E+08        -0.20106E+07         0.00000E+00
   -0.20106E+07        -0.36707E+08         0.00000E+00
    0.00000E+00         0.00000E+00        -0.10734E+08
 
   -0.15971E+08        -0.16168E+07         0.00000E+00
   -0.16168E+07        -0.36602E+08         0.00000E+00
    0.00000E+00         0.00000E+00        -0.10515E+08
 
   -0.15005E+08        -0.11347E+07         0.00000E+00
   -0.11347E+07        -0.36513E+08         0.00000E+00
    0.00000E+00         0.00000E+00        -0.10304E+08
 
   -0.14012E+08        -0.56612E+06         0.00000E+00
   -0.56612E+06        -0.36459E+08         0.00000E+00
    0.00000E+00         0.00000E+00        -0.10094E+08
 
   -0.12950E+08         0.94943E+05         0.00000E+00
    0.94943E+05        -0.36480E+08         0.00000E+00
    0.00000E+00         0.00000E+00        -0.99284E+07
 
   -0.12361E+08         0.87844E+06         0.00000E+00
    0.87844E+06        -0.36592E+08         0.00000E+00
    0.00000E+00         0.00000E+00        -0.10400E+08
 
   -0.12090E+08         0.18024E+07         0.00000E+00
    0.18024E+07        -0.36788E+08         0.00000E+00
    0.00000E+00         0.00000E+00        -0.11089E+08
 
   -0.12112E+08         0.28675E+07         0.00000E+00
    0.28675E+07        -0.37021E+08         0.00000E+00
    0.00000E+00         0.00000E+00        -0.11805E+08
 
   -0.12501E+08         0.40593E+07         0.00000E+00
    0.40593E+07        -0.37247E+08         0.00000E+00
    0.00000E+00         0.00000E+00        -0.12470E+08
 
   -0.28173E+08        -0.69753E+06         0.00000E+00
   -0.69753E+06        -0.39191E+08         0.00000E+00
    0.00000E+00         0.00000E+00        -0.13473E+08
 
   -0.26301E+08        -0.16797E+07         0.00000E+00
   -0.16797E+07        -0.39209E+08         0.00000E+00
    0.00000E+00         0.00000E+00        -0.13102E+08
 
   -0.24498E+08        -0.22006E+07         0.00000E+00
   -0.22006E+07        -0.39181E+08         0.00000E+00
    0.00000E+00         0.00000E+00        -0.12736E+08
 
   -0.22856E+08        -0.23863E+07         0.00000E+00
   -0.23863E+07        -0.39076E+08         0.00000E+00
    0.00000E+00         0.00000E+00        -0.12386E+08
 
   -0.21399E+08        -0.23458E+07         0.00000E+00
   -0.23458E+07        -0.38906E+08         0.00000E+00
    0.00000E+00         0.00000E+00        -0.12061E+08
 
   -0.20106E+08        -0.21551E+07         0.00000E+00
   -0.21551E+07        -0.38698E+08         0.00000E+00
    0.00000E+00         0.00000E+00        -0.11761E+08
 
   -0.18940E+08        -0.18597E+07         0.00000E+00
   -0.18597E+07        -0.38480E+08         0.00000E+00
    0.00000E+00         0.00000E+00        -0.11484E+08
 
   -0.17858E+08        -0.14843E+07         0.00000E+00
   -0.14843E+07        -0.38277E+08         0.00000E+00
    0.00000E+00         0.00000E+00        -0.11227E+08
 
   -0.16812E+08        -0.10407E+07         0.00000E+00
   -0.10407E+07        -0.38109E+08         0.00000E+00
    0.00000E+00         0.00000E+00        -0.10984E+08
 
   -0.15748E+08        -0.53868E+06         0.00000E+00
   -0.53868E+06        -0.37997E+08         0.00000E+00
    0.00000E+00         0.00000E+00        -0.10749E+08
 
   -0.14607E+08         0.21797E+04         0.00000E+00
    0.21797E+04        -0.37975E+08         0.00000E+00
    0.00000E+00         0.00000E+00        -0.10539E+08
 
   -0.13830E+08         0.67267E+06         0.00000E+00
    0.67267E+06        -0.38052E+08         0.00000E+00
    0.00000E+00         0.00000E+00        -0.10924E+08
 
   -0.13400E+08         0.15400E+07         0.00000E+00
    0.15400E+07        -0.38261E+08         0.00000E+00
    0.00000E+00         0.00000E+00        -0.11676E+08
 
   -0.13259E+08         0.25915E+07         0.00000E+00
    0.25915E+07        -0.38540E+08         0.00000E+00
    0.00000E+00         0.00000E+00        -0.12517E+08
 
   -0.13513E+08         0.38199E+07         0.00000E+00
    0.38199E+07        -0.38832E+08         0.00000E+00
    0.00000E+00         0.00000E+00        -0.13341E+08
 
   -0.31834E+08        -0.71948E+06         0.00000E+00
   -0.71948E+06        -0.41584E+08         0.00000E+00
    0.00000E+00         0.00000E+00        -0.14683E+08
 
   -0.29395E+08        -0.16593E+07         0.00000E+00
   -0.16593E+07        -0.41555E+08         0.00000E+00
    0.00000E+00         0.00000E+00        -0.14190E+08
 
   -0.27177E+08        -0.20833E+07         0.00000E+00
   -0.20833E+07        -0.41417E+08         0.00000E+00
    0.00000E+00         0.00000E+00        -0.13719E+08
 
   -0.25265E+08        -0.21807E+07         0.00000E+00
   -0.21807E+07        -0.41163E+08         0.00000E+00
    0.00000E+00         0.00000E+00        -0.13286E+08
 
   -0.23637E+08        -0.20885E+07         0.00000E+00
   -0.20885E+07        -0.40836E+08         0.00000E+00
    0.00000E+00         0.00000E+00        -0.12895E+08
 
   -0.22233E+08        -0.18836E+07         0.00000E+00
   -0.18836E+07        -0.40484E+08         0.00000E+00
    0.00000E+00         0.00000E+00        -0.12543E+08
 
   -0.20986E+08        -0.16046E+07         0.00000E+00
   -0.16046E+07        -0.40145E+08         0.00000E+00
    0.00000E+00         0.00000E+00        -0.12226E+08
 
   -0.19838E+08        -0.12698E+07         0.00000E+00
   -0.12698E+07        -0.39847E+08         0.00000E+00
    0.00000E+00         0.00000E+00        -0.11937E+08
 
   -0.18736E+08        -0.88820E+06         0.00000E+00
   -0.88820E+06        -0.39609E+08         0.00000E+00
    0.00000E+00         0.00000E+00        -0.11669E+08
 
   -0.17633E+08        -0.46887E+06         0.00000E+00
   -0.46887E+06        -0.39451E+08         0.00000E+00
    0.00000E+00         0.00000E+00        -0.11417E+08
 
   -0.16486E+08        -0.37836E+05         0.00000E+00
   -0.37836E+05        -0.39389E+08         0.00000E+00
    0.00000E+00         0.00000E+00        -0.11175E+08
 
   -0.15458E+08         0.47876E+06         0.00000E+00
    0.47876E+06        -0.39440E+08         0.00000E+00
    0.00000E+00         0.00000E+00        -0.11293E+08
 
   -0.14834E+08         0.12355E+07         0.00000E+00
    0.12355E+07        -0.39643E+08         0.00000E+00
    0.00000E+00         0.00000E+00        -0.12084E+08
 
   -0.14471E+08         0.22386E+07         0.00000E+00
    0.22386E+07        -0.39988E+08         0.00000E+00
    0.00000E+00         0.00000E+00        -0.13080E+08
 
   -0.14519E+08         0.34877E+07         0.00000E+00
    0.34877E+07        -0.40386E+08         0.00000E+00
    0.00000E+00         0.00000E+00        -0.14142E+08
 
   -0.35503E+08        -0.72254E+06         0.00000E+00
   -0.72254E+06        -0.43994E+08         0.00000E+00
    0.00000E+00         0.00000E+00        -0.15899E+08
 
   -0.32394E+08        -0.15380E+07         0.00000E+00
   -0.15380E+07        -0.43880E+08         0.00000E+00
    0.00000E+00         0.00000E+00        -0.15255E+08
 
   -0.29764E+08        -0.18015E+07         0.00000E+00
   -0.18015E+07        -0.43563E+08         0.00000E+00
    0.00000E+00         0.00000E+00        -0.14665E+08
 
   -0.27633E+08        -0.17984E+07         0.00000E+00
   -0.17984E+07        -0.43102E+08         0.00000E+00
    0.00000E+00         0.00000E+00        -0.14147E+08
 
   -0.25887E+08        -0.16726E+07         0.00000E+00
   -0.16726E+07        -0.42592E+08         0.00000E+00
    0.00000E+00         0.00000E+00        -0.13696E+08
 
   -0.24410E+08        -0.14806E+07         0.00000E+00
   -0.14806E+07        -0.42091E+08         0.00000E+00
    0.00000E+00         0.00000E+00        -0.13300E+08
 
   -0.23113E+08        -0.12459E+07         0.00000E+00
   -0.12459E+07        -0.41636E+08         0.00000E+00
    0.00000E+00         0.00000E+00        -0.12950E+08
 
   -0.21925E+08        -0.97880E+06         0.00000E+00
   -0.97880E+06        -0.41252E+08         0.00000E+00
    0.00000E+00         0.00000E+00        -0.12635E+08
 
   -0.20790E+08        -0.68431E+06         0.00000E+00
   -0.68431E+06        -0.40955E+08         0.00000E+00
    0.00000E+00         0.00000E+00        -0.12349E+08
 
   -0.19664E+08        -0.36829E+06         0.00000E+00
   -0.36829E+06        -0.40759E+08         0.00000E+00
    0.00000E+00         0.00000E+00        -0.12085E+08
 
   -0.18534E+08        -0.38620E+05         0.00000E+00
   -0.38620E+05        -0.40669E+08         0.00000E+00
    0.00000E+00         0.00000E+00        -0.11841E+08
 
   -0.17333E+08         0.32443E+06         0.00000E+00
    0.32443E+06        -0.40738E+08         0.00000E+00
    0.00000E+00         0.00000E+00        -0.11651E+08
 
   -0.16433E+08         0.88886E+06         0.00000E+00
    0.88886E+06        -0.40893E+08         0.00000E+00
    0.00000E+00         0.00000E+00        -0.12274E+08
 
   -0.15786E+08         0.17672E+07         0.00000E+00
    0.17672E+07        -0.41325E+08         0.00000E+00
    0.00000E+00         0.00000E+00        -0.13434E+08
 
   -0.15523E+08         0.29920E+07         0.00000E+00
    0.29920E+07        -0.41900E+08         0.00000E+00
    0.00000E+00         0.00000E+00        -0.14843E+08
 
   -0.39068E+08        -0.67914E+06         0.00000E+00
   -0.67914E+06        -0.46381E+08         0.00000E+00
    0.00000E+00         0.00000E+00        -0.17090E+08
 
   -0.35178E+08        -0.12111E+07         0.00000E+00
   -0.12111E+07        -0.46066E+08         0.00000E+00
    0.00000E+00         0.00000E+00        -0.16249E+08
 
   -0.32222E+08        -0.12721E+07         0.00000E+00
   -0.12721E+07        -0.45451E+08         0.00000E+00
    0.00000E+00         0.00000E+00        -0.15535E+08
 
   -0.29970E+08        -0.12074E+07         0.00000E+00
   -0.12074E+07        -0.44751E+08         0.00000E+00
    0.00000E+00         0.00000E+00        -0.14944E+08
 
   -0.28165E+08        -0.10933E+07         0.00000E+00
   -0.10933E+07        -0.44063E+08         0.00000E+00
    0.00000E+00         0.00000E+00        -0.14446E+08
 
   -0.26655E+08        -0.95275E+06         0.00000E+00
   -0.95275E+06        -0.43433E+08         0.00000E+00
    0.00000E+00         0.00000E+00        -0.14018E+08
 
   -0.25335E+08        -0.79432E+06         0.00000E+00
   -0.79432E+06        -0.42884E+08         0.00000E+00
    0.00000E+00         0.00000E+00        -0.13644E+08
 
   -0.24129E+08        -0.62117E+06         0.00000E+00
   -0.62117E+06        -0.42433E+08         0.00000E+00
    0.00000E+00         0.00000E+00        -0.13312E+08
 
   -0.22981E+08        -0.43511E+06         0.00000E+00
   -0.43511E+06        -0.42091E+08         0.00000E+00
    0.00000E+00         0.00000E+00        -0.13014E+08
 
   -0.21849E+08        -0.23820E+06         0.00000E+00
   -0.23820E+06        -0.41867E+08         0.00000E+00
    0.00000E+00         0.00000E+00        -0.12743E+08
 
   -0.20703E+08        -0.27992E+05         0.00000E+00
   -0.27992E+05        -0.41768E+08         0.00000E+00
    0.00000E+00         0.00000E+00        -0.12494E+08
 
   -0.19522E+08         0.20072E+06         0.00000E+00
    0.20072E+06        -0.41803E+08         0.00000E+00
    0.00000E+00         0.00000E+00        -0.12265E+08
 
   -0.18264E+08         0.53206E+06         0.00000E+00
    0.53206E+06        -0.42058E+08         0.00000E+00
    0.00000E+00         0.00000E+00        -0.12315E+08
 
   -0.17281E+08         0.11370E+07         0.00000E+00
    0.11370E+07        -0.42481E+08         0.00000E+00
    0.00000E+00         0.00000E+00        -0.13494E+08
 
   -0.16559E+08         0.22170E+07         0.00000E+00
    0.22170E+07        -0.43362E+08         0.00000E+00
    0.00000E+00         0.00000E+00        -0.15405E+08
 
   -0.42270E+08        -0.41327E+06         0.00000E+00
   -0.41327E+06        -0.48511E+08         0.00000E+00
    0.00000E+00         0.00000E+00        -0.18158E+08
 
   -0.37654E+08        -0.49422E+06         0.00000E+00
   -0.49422E+06        -0.47723E+08         0.00000E+00
    0.00000E+00         0.00000E+00        -0.17076E+08
 
   -0.34601E+08        -0.46798E+06         0.00000E+00
   -0.46798E+06        -0.46813E+08         0.00000E+00
    0.00000E+00         0.00000E+00        -0.16283E+08
 
   -0.32316E+08        -0.42949E+06         0.00000E+00
   -0.42949E+06        -0.45938E+08         0.00000E+00
    0.00000E+00         0.00000E+00        -0.15651E+08
 
   -0.30500E+08        -0.38254E+06         0.00000E+00
   -0.38254E+06        -0.45138E+08         0.00000E+00
    0.00000E+00         0.00000E+00        -0.15128E+08
 
   -0.28985E+08        -0.33046E+06         0.00000E+00
   -0.33046E+06        -0.44431E+08         0.00000E+00
    0.00000E+00         0.00000E+00        -0.14683E+08
 
   -0.27663E+08        -0.27424E+06         0.00000E+00
   -0.27424E+06        -0.43830E+08         0.00000E+00
    0.00000E+00         0.00000E+00        -0.14299E+08
 
   -0.26457E+08        -0.21421E+06         0.00000E+00
   -0.21421E+06        -0.43343E+08         0.00000E+00
    0.00000E+00         0.00000E+00        -0.13960E+08
 
   -0.25311E+08        -0.15067E+06         0.00000E+00
   -0.15067E+06        -0.42977E+08         0.00000E+00
    0.00000E+00         0.00000E+00        -0.13658E+08
 
   -0.24182E+08        -0.83542E+05         0.00000E+00
   -0.83542E+05        -0.42740E+08         0.00000E+00
    0.00000E+00         0.00000E+00        -0.13384E+08
 
   -0.23038E+08        -0.11812E+05         0.00000E+00
   -0.11812E+05        -0.42640E+08         0.00000E+00
    0.00000E+00         0.00000E+00        -0.13136E+08
 
   -0.21850E+08         0.70572E+05         0.00000E+00
    0.70572E+05        -0.42688E+08         0.00000E+00
    0.00000E+00         0.00000E+00        -0.12908E+08
 
   -0.20530E+08         0.17601E+06         0.00000E+00
    0.17601E+06        -0.42947E+08         0.00000E+00
    0.00000E+00         0.00000E+00        -0.12695E+08
 
   -0.19185E+08         0.38737E+06         0.00000E+00
    0.38737E+06        -0.43572E+08         0.00000E+00
    0.00000E+00         0.00000E+00        -0.13342E+08
 
   -0.17735E+08         0.87358E+06         0.00000E+00
    0.87358E+06        -0.44714E+08         0.00000E+00
    0.00000E+00         0.00000E+00        -0.15746E+08
 
TENSORS stresstot double 
   -0.40553E+08         0.59511E+04         0.00000E+00
    0.59511E+04        -0.59993E+08         0.00000E+00
    0.00000E+00         0.00000E+00        -0.50050E+08
 
   -0.40552E+08         0.16972E+05         0.00000E+00
    0.16972E+05        -0.59970E+08         0.00000E+00
    0.00000E+00         0.00000E+00        -0.49913E+08
 
   -0.40962E+08         0.22373E+05         0.00000E+00
    0.22373E+05        -0.59933E+08         0.00000E+00
    0.00000E+00         0.00000E+00        -0.49882E+08
 
   -0.42019E+08         0.22139E+05         0.00000E+00
    0.22139E+05        -0.59888E+08         0.00000E+00
    0.00000E+00         0.00000E+00        -0.50082E+08
 
   -0.43033E+08         0.22504E+05         0.00000E+00
    0.22504E+05        -0.59844E+08         0.00000E+00
    0.00000E+00         0.00000E+00        -0.50282E+08
 
   -0.44002E+08         0.24968E+05         0.00000E+00
    0.24968E+05        -0.59797E+08         0.00000E+00
    0.00000E+00         0.00000E+00        -0.50477E+08
 
   -0.44929E+08         0.30175E+05         0.00000E+00
    0.30175E+05        -0.59743E+08         0.00000E+00
    0.00000E+00         0.00000E+00        -0.50667E+08
 
   -0.45818E+08         0.38277E+05         0.00000E+00
    0.38277E+05        -0.59675E+08         0.00000E+00
    0.00000E+00         0.00000E+00        -0.50848E+08
 
   -0.46675E+08         0.49211E+05         0.00000E+00
    0.49211E+05        -0.59588E+08         0.00000E+00
    0.00000E+00         0.00000E+00        -0.51019E+08
 
   -0.47507E+08         0.62823E+05         0.00000E+00
    0.62823E+05        -0.59477E+08         0.00000E+00
    0.00000E+00         0.00000E+00        -0.51181E+08
 
   -0.48319E+08         0.78891E+05         0.00000E+00
    0.78891E+05        -0.59335E+08         0.00000E+00
    0.00000E+00         0.00000E+00        -0.51331E+08
 
   -0.49116E+08         0.97146E+05         0.00000E+00
    0.97146E+05        -0.59160E+08         0.00000E+00
    0.00000E+00         0.00000E+00        -0.51469E+08
 
   -0.49904E+08         0.11726E+06         0.00000E+00
    0.11726E+06        -0.58946E+08         0.00000E+00
    0.00000E+00         0.00000E+00        -0.51595E+08
 
   -0.50686E+08         0.13885E+06         0.00000E+00
    0.13885E+06        -0.58690E+08         0.00000E+00
    0.00000E+00         0.00000E+00        -0.51708E+08
 
   -0.51466E+08         0.16149E+06         0.00000E+00
    0.16149E+06        -0.58389E+08         0.00000E+00
    0.00000E+00         0.00000E+00        -0.51809E+08
 
   -0.40531E+08         0.17465E+05         0.00000E+00
    0.17465E+05        -0.59994E+08         0.00000E+00
    0.00000E+00         0.00000E+00        -0.50007E+08
 
   -0.40531E+08         0.50792E+05         0.00000E+00
    0.50792E+05        -0.59971E+08         0.00000E+00
    0.00000E+00         0.00000E+00        -0.49868E+08
 
   -0.40962E+08         0.66437E+05         0.00000E+00
    0.66437E+05        -0.59934E+08         0.00000E+00
    0.00000E+00         0.00000E+00        -0.49843E+08
 
   -0.42020E+08         0.64625E+05         0.00000E+00
    0.64625E+05        -0.59892E+08         0.00000E+00
    0.00000E+00         0.00000E+00        -0.50043E+08
 
   -0.43031E+08         0.65376E+05         0.00000E+00
    0.65376E+05        -0.59852E+08         0.00000E+00
    0.00000E+00         0.00000E+00        -0.50243E+08
 
   -0.43995E+08         0.72887E+05         0.00000E+00
    0.72887E+05        -0.59810E+08         0.00000E+00
    0.00000E+00         0.00000E+00        -0.50438E+08
 
   -0.44915E+08         0.88742E+05         0.00000E+00
    0.88742E+05        -0.59759E+08         0.00000E+00
    0.00000E+00         0.00000E+00        -0.50626E+08
 
   -0.45799E+08         0.11326E+06         0.00000E+00
    0.11326E+06        -0.59695E+08         0.00000E+00
    0.00000E+00         0.00000E+00        -0.50807E+08
 
   -0.46651E+08         0.14625E+06         0.00000E+00
    0.14625E+06        -0.59610E+08         0.00000E+00
    0.00000E+00         0.00000E+00        -0.50977E+08
 
   -0.47477E+08         0.18726E+06         0.00000E+00
    0.18726E+06        -0.59502E+08         0.00000E+00
    0.00000E+00         0.00000E+00        -0.51137E+08
 
   -0.48284E+08         0.23563E+06         0.00000E+00
    0.23563E+06        -0.59362E+08         0.00000E+00
    0.00000E+00         0.00000E+00        -0.51287E+08
 
   -0.49077E+08         0.29056E+06         0.00000E+00
    0.29056E+06        -0.59189E+08         0.00000E+00
    0.00000E+00         0.00000E+00        -0.51424E+08
 
   -0.49862E+08         0.35108E+06         0.00000E+00
    0.35108E+06        -0.58976E+08         0.00000E+00
    0.00000E+00         0.00000E+00        -0.51549E+08
 
   -0.50642E+08         0.41607E+06         0.00000E+00
    0.41607E+06        -0.58722E+08         0.00000E+00
    0.00000E+00         0.00000E+00        -0.51662E+08
 
   -0.51420E+08         0.48422E+06         0.00000E+00
    0.48422E+06        -0.58422E+08         0.00000E+00
    0.00000E+00         0.00000E+00        -0.51762E+08
 
   -0.40486E+08         0.28574E+05         0.00000E+00
    0.28574E+05        -0.59993E+08         0.00000E+00
    0.00000E+00         0.00000E+00        -0.49921E+08
 
   -0.40488E+08         0.84144E+05         0.00000E+00
    0.84144E+05        -0.59971E+08         0.00000E+00
    0.00000E+00         0.00000E+00        -0.49778E+08
 
   -0.40965E+08         0.10769E+06         0.00000E+00
    0.10769E+06        -0.59937E+08         0.00000E+00
    0.00000E+00         0.00000E+00        -0.49765E+08
 
   -0.42023E+08         0.10133E+06         0.00000E+00
    0.10133E+06        -0.59902E+08         0.00000E+00
    0.00000E+00         0.00000E+00        -0.49967E+08
 
   -0.43026E+08         0.10190E+06         0.00000E+00
    0.10190E+06        -0.59870E+08         0.00000E+00
    0.00000E+00         0.00000E+00        -0.50166E+08
 
   -0.43979E+08         0.11496E+06         0.00000E+00
    0.11496E+06        -0.59835E+08         0.00000E+00
    0.00000E+00         0.00000E+00        -0.50359E+08
 
   -0.44888E+08         0.14213E+06         0.00000E+00
    0.14213E+06        -0.59792E+08         0.00000E+00
    0.00000E+00         0.00000E+00        -0.50546E+08
 
   -0.45760E+08         0.18366E+06         0.00000E+00
    0.18366E+06        -0.59733E+08         0.00000E+00
    0.00000E+00         0.00000E+00        -0.50724E+08
 
   -0.46601E+08         0.23922E+06         0.00000E+00
    0.23922E+06        -0.59655E+08         0.00000E+00
    0.00000E+00         0.00000E+00        -0.50892E+08
 
   -0.47417E+08         0.30809E+06         0.00000E+00
    0.30809E+06        -0.59551E+08         0.00000E+00
    0.00000E+00         0.00000E+00        -0.51050E+08
 
   -0.48215E+08         0.38924E+06         0.00000E+00
    0.38924E+06        -0.59417E+08         0.00000E+00
    0.00000E+00         0.00000E+00        -0.51198E+08
 
   -0.49000E+08         0.48135E+06         0.00000E+00
    0.48135E+06        -0.59247E+08         0.00000E+00
    0.00000E+00         0.00000E+00        -0.51333E+08
 
   -0.49778E+08         0.58283E+06         0.00000E+00
    0.58283E+06        -0.59037E+08         0.00000E+00
    0.00000E+00         0.00000E+00        -0.51457E+08
 
   -0.50552E+08         0.69182E+06         0.00000E+00
    0.69182E+06        -0.58785E+08         0.00000E+00
    0.00000E+00         0.00000E+00        -0.51569E+08
 
   -0.51327E+08         0.80616E+06         0.00000E+00
    0.80616E+06        -0.58487E+08         0.00000E+00
    0.00000E+00         0.00000E+00        -0.51668E+08
 
   -0.40419E+08         0.39988E+05         0.00000E+00
    0.39988E+05        -0.59991E+08         0.00000E+00
    0.00000E+00         0.00000E+00        -0.49787E+08
 
   -0.40424E+08         0.11622E+06         0.00000E+00
    0.11622E+06        -0.59970E+08         0.00000E+00
    0.00000E+00         0.00000E+00        -0.49638E+08
 
   -0.40976E+08         0.14254E+06         0.00000E+00
    0.14254E+06        -0.59943E+08         0.00000E+00
    0.00000E+00         0.00000E+00        -0.49648E+08
 
   -0.42029E+08         0.12779E+06         0.00000E+00
    0.12779E+06        -0.59918E+08         0.00000E+00
    0.00000E+00         0.00000E+00        -0.49851E+08
 
   -0.43018E+08         0.12845E+06         0.00000E+00
    0.12845E+06        -0.59898E+08         0.00000E+00
    0.00000E+00         0.00000E+00        -0.50049E+08
 
   -0.43954E+08         0.14801E+06         0.00000E+00
    0.14801E+06        -0.59874E+08         0.00000E+00
    0.00000E+00         0.00000E+00        -0.50240E+08
 
   -0.44846E+08         0.18736E+06         0.00000E+00
    0.18736E+06        -0.59841E+08         0.00000E+00
    0.00000E+00         0.00000E+00        -0.50424E+08
 
   -0.45701E+08         0.24671E+06         0.00000E+00
    0.24671E+06        -0.59791E+08         0.00000E+00
    0.00000E+00         0.00000E+00        -0.50598E+08
 
   -0.46526E+08         0.32559E+06         0.00000E+00
    0.32559E+06        -0.59721E+08         0.00000E+00
    0.00000E+00         0.00000E+00        -0.50764E+08
 
   -0.47326E+08         0.42306E+06         0.00000E+00
    0.42306E+06        -0.59625E+08         0.00000E+00
    0.00000E+00         0.00000E+00        -0.50919E+08
 
   -0.48110E+08         0.53772E+06         0.00000E+00
    0.53772E+06        -0.59497E+08         0.00000E+00
    0.00000E+00         0.00000E+00        -0.51063E+08
 
   -0.48883E+08         0.66779E+06         0.00000E+00
    0.66779E+06        -0.59332E+08         0.00000E+00
    0.00000E+00         0.00000E+00        -0.51196E+08
 
   -0.49650E+08         0.81110E+06         0.00000E+00
    0.81110E+06        -0.59128E+08         0.00000E+00
    0.00000E+00         0.00000E+00        -0.51318E+08
 
   -0.50417E+08         0.96508E+06         0.00000E+00
    0.96508E+06        -0.58879E+08         0.00000E+00
    0.00000E+00         0.00000E+00        -0.51428E+08
 
   -0.51187E+08         0.11268E+07         0.00000E+00
    0.11268E+07        -0.58583E+08         0.00000E+00
    0.00000E+00         0.00000E+00        -0.51527E+08
 
   -0.40332E+08         0.52647E+05         0.00000E+00
    0.52647E+05        -0.59991E+08         0.00000E+00
    0.00000E+00         0.00000E+00        -0.49605E+08
 
   -0.40341E+08         0.14450E+06         0.00000E+00
    0.14450E+06        -0.59970E+08         0.00000E+00
    0.00000E+00         0.00000E+00        -0.49445E+08
 
   -0.41005E+08         0.16510E+06         0.00000E+00
    0.16510E+06        -0.59955E+08         0.00000E+00
    0.00000E+00         0.00000E+00        -0.49495E+08
 
   -0.42038E+08         0.14070E+06         0.00000E+00
    0.14070E+06        -0.59946E+08         0.00000E+00
    0.00000E+00         0.00000E+00        -0.49697E+08
 
   -0.43005E+08         0.14277E+06         0.00000E+00
    0.14277E+06        -0.59939E+08         0.00000E+00
    0.00000E+00         0.00000E+00        -0.49891E+08
 
   -0.43920E+08         0.16961E+06         0.00000E+00
    0.16961E+06        -0.59928E+08         0.00000E+00
    0.00000E+00         0.00000E+00        -0.50079E+08
 
   -0.44789E+08         0.22201E+06         0.00000E+00
    0.22201E+06        -0.59906E+08         0.00000E+00
    0.00000E+00         0.00000E+00        -0.50258E+08
 
   -0.45621E+08         0.30002E+06         0.00000E+00
    0.30002E+06        -0.59868E+08         0.00000E+00
    0.00000E+00         0.00000E+00        -0.50429E+08
 
   -0.46424E+08         0.40307E+06         0.00000E+00
    0.40307E+06        -0.59808E+08         0.00000E+00
    0.00000E+00         0.00000E+00        -0.50590E+08
 
   -0.47204E+08         0.53001E+06         0.00000E+00
    0.53001E+06        -0.59721E+08         0.00000E+00
    0.00000E+00         0.00000E+00        -0.50740E+08
 
   -0.47969E+08         0.67912E+06         0.00000E+00
    0.67912E+06        -0.59602E+08         0.00000E+00
    0.00000E+00         0.00000E+00        -0.50881E+08
 
   -0.48726E+08         0.84820E+06         0.00000E+00
    0.84820E+06        -0.59445E+08         0.00000E+00
    0.00000E+00         0.00000E+00        -0.51011E+08
 
   -0.49479E+08         0.10345E+07         0.00000E+00
    0.10345E+07        -0.59247E+08         0.00000E+00
    0.00000E+00         0.00000E+00        -0.51130E+08
 
   -0.50235E+08         0.12348E+07         0.00000E+00
    0.12348E+07        -0.59003E+08         0.00000E+00
    0.00000E+00         0.00000E+00        -0.51238E+08
 
   -0.50998E+08         0.14454E+07         0.00000E+00
    0.14454E+07        -0.58710E+08         0.00000E+00
    0.00000E+00         0.00000E+00        -0.51335E+08
 
   -0.40224E+08         0.62637E+05         0.00000E+00
    0.62637E+05        -0.59993E+08         0.00000E+00
    0.00000E+00         0.00000E+00        -0.49372E+08
 
   -0.40249E+08         0.16749E+06         0.00000E+00
    0.16749E+06        -0.59988E+08         0.00000E+00
    0.00000E+00         0.00000E+00        -0.49202E+08
 
   -0.41054E+08         0.16934E+06         0.00000E+00
    0.16934E+06        -0.59976E+08         0.00000E+00
    0.00000E+00         0.00000E+00        -0.49304E+08
 
   -0.42049E+08         0.13995E+06         0.00000E+00
    0.13995E+06        -0.59984E+08         0.00000E+00
    0.00000E+00         0.00000E+00        -0.49501E+08
 
   -0.42989E+08         0.14324E+06         0.00000E+00
    0.14324E+06        -0.59992E+08         0.00000E+00
    0.00000E+00         0.00000E+00        -0.49692E+08
 
   -0.43875E+08         0.17791E+06         0.00000E+00
    0.17791E+06        -0.59995E+08         0.00000E+00
    0.00000E+00         0.00000E+00        -0.49874E+08
 
   -0.44716E+08         0.24402E+06         0.00000E+00
    0.24402E+06        -0.59987E+08         0.00000E+00
    0.00000E+00         0.00000E+00        -0.50048E+08
 
   -0.45520E+08         0.34146E+06         0.00000E+00
    0.34146E+06        -0.59963E+08         0.00000E+00
    0.00000E+00         0.00000E+00        -0.50213E+08
 
   -0.46295E+08         0.46955E+06         0.00000E+00
    0.46955E+06        -0.59915E+08         0.00000E+00
    0.00000E+00         0.00000E+00        -0.50368E+08
 
   -0.47049E+08         0.62693E+06         0.00000E+00
    0.62693E+06        -0.59840E+08         0.00000E+00
    0.00000E+00         0.00000E+00        -0.50514E+08
 
   -0.47791E+08         0.81160E+06         0.00000E+00
    0.81160E+06        -0.59731E+08         0.00000E+00
    0.00000E+00         0.00000E+00        -0.50650E+08
 
   -0.48526E+08         0.10209E+07         0.00000E+00
    0.10209E+07        -0.59583E+08         0.00000E+00
    0.00000E+00         0.00000E+00        -0.50775E+08
 
   -0.49262E+08         0.12517E+07         0.00000E+00
    0.12517E+07        -0.59392E+08         0.00000E+00
    0.00000E+00         0.00000E+00        -0.50891E+08
 
   -0.50005E+08         0.14999E+07         0.00000E+00
    0.14999E+07        -0.59154E+08         0.00000E+00
    0.00000E+00         0.00000E+00        -0.50997E+08
 
   -0.50758E+08         0.17613E+07         0.00000E+00
    0.17613E+07        -0.58866E+08         0.00000E+00
    0.00000E+00         0.00000E+00        -0.51092E+08
 
   -0.40092E+08         0.72501E+05         0.00000E+00
    0.72501E+05        -0.59990E+08         0.00000E+00
    0.00000E+00         0.00000E+00        -0.49081E+08
 
   -0.40198E+08         0.17992E+06         0.00000E+00
    0.17992E+06        -0.59986E+08         0.00000E+00
    0.00000E+00         0.00000E+00        -0.48925E+08
 
   -0.41095E+08         0.15094E+06         0.00000E+00
    0.15094E+06        -0.60002E+08         0.00000E+00
    0.00000E+00         0.00000E+00        -0.49067E+08
 
   -0.42062E+08         0.12208E+06         0.00000E+00
    0.12208E+06        -0.60030E+08         0.00000E+00
    0.00000E+00         0.00000E+00        -0.49261E+08
 
   -0.42967E+08         0.12802E+06         0.00000E+00
    0.12802E+06        -0.60055E+08         0.00000E+00
    0.00000E+00         0.00000E+00        -0.49447E+08
 
   -0.43819E+08         0.17120E+06         0.00000E+00
    0.17120E+06        -0.60075E+08         0.00000E+00
    0.00000E+00         0.00000E+00        -0.49623E+08
 
   -0.44625E+08         0.25159E+06         0.00000E+00
    0.25159E+06        -0.60082E+08         0.00000E+00
    0.00000E+00         0.00000E+00        -0.49791E+08
 
   -0.45395E+08         0.36912E+06         0.00000E+00
    0.36912E+06        -0.60073E+08         0.00000E+00
    0.00000E+00         0.00000E+00        -0.49949E+08
 
   -0.46138E+08         0.52305E+06         0.00000E+00
    0.52305E+06        -0.60040E+08         0.00000E+00
    0.00000E+00         0.00000E+00        -0.50098E+08
 
   -0.46861E+08         0.71190E+06         0.00000E+00
    0.71190E+06        -0.59978E+08         0.00000E+00
    0.00000E+00         0.00000E+00        -0.50237E+08
 
   -0.47574E+08         0.93334E+06         0.00000E+00
    0.93334E+06        -0.59881E+08         0.00000E+00
    0.00000E+00         0.00000E+00        -0.50367E+08
 
   -0.48284E+08         0.11843E+07         0.00000E+00
    0.11843E+07        -0.59744E+08         0.00000E+00
    0.00000E+00         0.00000E+00        -0.50488E+08
 
   -0.48998E+08         0.14611E+07         0.00000E+00
    0.14611E+07        -0.59563E+08         0.00000E+00
    0.00000E+00         0.00000E+00        -0.50599E+08
 
   -0.49723E+08         0.17593E+07         0.00000E+00
    0.17593E+07        -0.59332E+08         0.00000E+00
    0.00000E+00         0.00000E+00        -0.50702E+08
 
   -0.50465E+08         0.20736E+07         0.00000E+00
    0.20736E+07        -0.59049E+08         0.00000E+00
    0.00000E+00         0.00000E+00        -0.50795E+08
 
   -0.39945E+08         0.81803E+05         0.00000E+00
    0.81803E+05        -0.59993E+08         0.00000E+00
    0.00000E+00         0.00000E+00        -0.48727E+08
 
   -0.40183E+08         0.17035E+06         0.00000E+00
    0.17035E+06        -0.60008E+08         0.00000E+00
    0.00000E+00         0.00000E+00        -0.48609E+08
 
   -0.41143E+08         0.11477E+06         0.00000E+00
    0.11477E+06        -0.60039E+08         0.00000E+00
    0.00000E+00         0.00000E+00        -0.48785E+08
 
   -0.42073E+08         0.84933E+05         0.00000E+00
    0.84933E+05        -0.60084E+08         0.00000E+00
    0.00000E+00         0.00000E+00        -0.48975E+08
 
   -0.42939E+08         0.95786E+05         0.00000E+00
    0.95786E+05        -0.60128E+08         0.00000E+00
    0.00000E+00         0.00000E+00        -0.49154E+08
 
   -0.43751E+08         0.14798E+06         0.00000E+00
    0.14798E+06        -0.60164E+08         0.00000E+00
    0.00000E+00         0.00000E+00        -0.49323E+08
 
   -0.44517E+08         0.24298E+06         0.00000E+00
    0.24298E+06        -0.60189E+08         0.00000E+00
    0.00000E+00         0.00000E+00        -0.49483E+08
 
   -0.45247E+08         0.38110E+06         0.00000E+00
    0.38110E+06        -0.60196E+08         0.00000E+00
    0.00000E+00         0.00000E+00        -0.49633E+08
 
   -0.45951E+08         0.56169E+06         0.00000E+00
    0.56169E+06        -0.60180E+08         0.00000E+00
    0.00000E+00         0.00000E+00        -0.49774E+08
 
   -0.46638E+08         0.78305E+06         0.00000E+00
    0.78305E+06        -0.60133E+08         0.00000E+00
    0.00000E+00         0.00000E+00        -0.49906E+08
 
   -0.47317E+08         0.10426E+07         0.00000E+00
    0.10426E+07        -0.60050E+08         0.00000E+00
    0.00000E+00         0.00000E+00        -0.50030E+08
 
   -0.47997E+08         0.13368E+07         0.00000E+00
    0.13368E+07        -0.59926E+08         0.00000E+00
    0.00000E+00         0.00000E+00        -0.50145E+08
 
   -0.48685E+08         0.16614E+07         0.00000E+00
    0.16614E+07        -0.59755E+08         0.00000E+00
    0.00000E+00         0.00000E+00        -0.50252E+08
 
   -0.49390E+08         0.20115E+07         0.00000E+00
    0.20115E+07        -0.59534E+08         0.00000E+00
    0.00000E+00         0.00000E+00        -0.50350E+08
 
   -0.50116E+08         0.23813E+07         0.00000E+00
    0.23813E+07        -0.59257E+08         0.00000E+00
    0.00000E+00         0.00000E+00        -0.50442E+08
 
   -0.39780E+08         0.86829E+05         0.00000E+00
    0.86829E+05        -0.59995E+08         0.00000E+00
    0.00000E+00         0.00000E+00        -0.48303E+08
 
   -0.40227E+08         0.13157E+06         0.00000E+00
    0.13157E+06        -0.60035E+08         0.00000E+00
    0.00000E+00         0.00000E+00        -0.48260E+08
 
   -0.41196E+08         0.61094E+05         0.00000E+00
    0.61094E+05        -0.60085E+08         0.00000E+00
    0.00000E+00         0.00000E+00        -0.48455E+08
 
   -0.42081E+08         0.31652E+05         0.00000E+00
    0.31652E+05        -0.60146E+08         0.00000E+00
    0.00000E+00         0.00000E+00        -0.48638E+08
 
   -0.42905E+08         0.46023E+05         0.00000E+00
    0.46023E+05        -0.60206E+08         0.00000E+00
    0.00000E+00         0.00000E+00        -0.48809E+08
 
   -0.43672E+08         0.10685E+06         0.00000E+00
    0.10685E+06        -0.60261E+08         0.00000E+00
    0.00000E+00         0.00000E+00        -0.48971E+08
 
   -0.44392E+08         0.21640E+06         0.00000E+00
    0.21640E+06        -0.60305E+08         0.00000E+00
    0.00000E+00         0.00000E+00        -0.49122E+08
 
   -0.45076E+08         0.37551E+06         0.00000E+00
    0.37551E+06        -0.60331E+08         0.00000E+00
    0.00000E+00         0.00000E+00        -0.49263E+08
 
   -0.45735E+08         0.58354E+06         0.00000E+00
    0.58354E+06        -0.60332E+08         0.00000E+00
    0.00000E+00         0.00000E+00        -0.49396E+08
 
   -0.46379E+08         0.83857E+06         0.00000E+00
    0.83857E+06        -0.60302E+08         0.00000E+00
    0.00000E+00         0.00000E+00        -0.49520E+08
 
   -0.47018E+08         0.11376E+07         0.00000E+00
    0.11376E+07        -0.60235E+08         0.00000E+00
    0.00000E+00         0.00000E+00        -0.49636E+08
 
   -0.47663E+08         0.14767E+07         0.00000E+00
    0.14767E+07        -0.60125E+08         0.00000E+00
    0.00000E+00         0.00000E+00        -0.49744E+08
 
   -0.48321E+08         0.18511E+07         0.00000E+00
    0.18511E+07        -0.59967E+08         0.00000E+00
    0.00000E+00         0.00000E+00        -0.49845E+08
 
   -0.49001E+08         0.22554E+07         0.00000E+00
    0.22554E+07        -0.59756E+08         0.00000E+00
    0.00000E+00         0.00000E+00        -0.49940E+08
 
   -0.49709E+08         0.26833E+07         0.00000E+00
    0.26833E+07        -0.59487E+08         0.00000E+00
    0.00000E+00         0.00000E+00        -0.50028E+08
 
   -0.39617E+08         0.75554E+05         0.00000E+00
    0.75554E+05        -0.60021E+08         0.00000E+00
    0.00000E+00         0.00000E+00        -0.47814E+08
 
   -0.40333E+08         0.68139E+05         0.00000E+00
    0.68139E+05        -0.60058E+08         0.00000E+00
    0.00000E+00         0.00000E+00        -0.47883E+08
 
   -0.41245E+08        -0.64134E+04         0.00000E+00
   -0.64134E+04        -0.60132E+08         0.00000E+00
    0.00000E+00         0.00000E+00        -0.48072E+08
 
   -0.42090E+08        -0.37705E+05         0.00000E+00
   -0.37705E+05        -0.60208E+08         0.00000E+00
    0.00000E+00         0.00000E+00        -0.48247E+08
 
   -0.42866E+08        -0.22066E+05         0.00000E+00
   -0.22066E+05        -0.60287E+08         0.00000E+00
    0.00000E+00         0.00000E+00        -0.48410E+08
 
   -0.43581E+08         0.46130E+05         0.00000E+00
    0.46130E+05        -0.60361E+08         0.00000E+00
    0.00000E+00         0.00000E+00        -0.48562E+08
 
   -0.44249E+08         0.16994E+06         0.00000E+00
    0.16994E+06        -0.60426E+08         0.00000E+00
    0.00000E+00         0.00000E+00        -0.48704E+08
 
   -0.44880E+08         0.35040E+06         0.00000E+00
    0.35040E+06        -0.60473E+08         0.00000E+00
    0.00000E+00         0.00000E+00        -0.48835E+08
 
   -0.45487E+08         0.58673E+06         0.00000E+00
    0.58673E+06        -0.60494E+08         0.00000E+00
    0.00000E+00         0.00000E+00        -0.48958E+08
 
   -0.46082E+08         0.87665E+06         0.00000E+00
    0.87665E+06        -0.60483E+08         0.00000E+00
    0.00000E+00         0.00000E+00        -0.49073E+08
 
   -0.46677E+08         0.12167E+07         0.00000E+00
    0.12167E+07        -0.60434E+08         0.00000E+00
    0.00000E+00         0.00000E+00        -0.49181E+08
 
   -0.47281E+08         0.16024E+07         0.00000E+00
    0.16024E+07        -0.60340E+08         0.00000E+00
    0.00000E+00         0.00000E+00        -0.49282E+08
 
   -0.47904E+08         0.20286E+07         0.00000E+00
    0.20286E+07        -0.60195E+08         0.00000E+00
    0.00000E+00         0.00000E+00        -0.49377E+08
 
   -0.48555E+08         0.24894E+07         0.00000E+00
    0.24894E+07        -0.59996E+08         0.00000E+00
    0.00000E+00         0.00000E+00        -0.49467E+08
 
   -0.49241E+08         0.29780E+07         0.00000E+00
    0.29780E+07        -0.59737E+08         0.00000E+00
    0.00000E+00         0.00000E+00        -0.49552E+08
 
   -0.39539E+08         0.44171E+05         0.00000E+00
    0.44171E+05        -0.60030E+08         0.00000E+00
    0.00000E+00         0.00000E+00        -0.47296E+08
 
   -0.40425E+08        -0.11928E+05         0.00000E+00
   -0.11928E+05        -0.60086E+08         0.00000E+00
    0.00000E+00         0.00000E+00        -0.47448E+08
 
   -0.41301E+08        -0.88041E+05         0.00000E+00
   -0.88041E+05        -0.60171E+08         0.00000E+00
    0.00000E+00         0.00000E+00        -0.47631E+08
 
   -0.42100E+08        -0.12545E+06         0.00000E+00
   -0.12545E+06        -0.60265E+08         0.00000E+00
    0.00000E+00         0.00000E+00        -0.47799E+08
 
   -0.42823E+08        -0.11074E+06         0.00000E+00
   -0.11074E+06        -0.60364E+08         0.00000E+00
    0.00000E+00         0.00000E+00        -0.47953E+08
 
   -0.43481E+08        -0.36383E+05         0.00000E+00
   -0.36383E+05        -0.60462E+08         0.00000E+00
    0.00000E+00         0.00000E+00        -0.48095E+08
 
   -0.44088E+08         0.10146E+06         0.00000E+00
    0.10146E+06        -0.60549E+08         0.00000E+00
    0.00000E+00         0.00000E+00        -0.48226E+08
 
   -0.44658E+08         0.30377E+06         0.00000E+00
    0.30377E+06        -0.60619E+08         0.00000E+00
    0.00000E+00         0.00000E+00        -0.48347E+08
 
   -0.45207E+08         0.56943E+06         0.00000E+00
    0.56943E+06        -0.60662E+08         0.00000E+00
    0.00000E+00         0.00000E+00        -0.48459E+08
 
   -0.45747E+08         0.89562E+06         0.00000E+00
    0.89562E+06        -0.60672E+08         0.00000E+00
    0.00000E+00         0.00000E+00        -0.48564E+08
 
   -0.46291E+08         0.12783E+07         0.00000E+00
    0.12783E+07        -0.60642E+08         0.00000E+00
    0.00000E+00         0.00000E+00        -0.48663E+08
 
   -0.46849E+08         0.17124E+07         0.00000E+00
    0.17124E+07        -0.60565E+08         0.00000E+00
    0.00000E+00         0.00000E+00        -0.48756E+08
 
   -0.47432E+08         0.21924E+07         0.00000E+00
    0.21924E+07        -0.60436E+08         0.00000E+00
    0.00000E+00         0.00000E+00        -0.48844E+08
 
   -0.48049E+08         0.27119E+07         0.00000E+00
    0.27119E+07        -0.60250E+08         0.00000E+00
    0.00000E+00         0.00000E+00        -0.48928E+08
 
   -0.48708E+08         0.32640E+07         0.00000E+00
    0.32640E+07        -0.60002E+08         0.00000E+00
    0.00000E+00         0.00000E+00        -0.49009E+08
 
   -0.39547E+08        -0.77194E+04         0.00000E+00
   -0.77194E+04        -0.60041E+08         0.00000E+00
    0.00000E+00         0.00000E+00        -0.46752E+08
 
   -0.40516E+08        -0.97341E+05         0.00000E+00
   -0.97341E+05        -0.60100E+08         0.00000E+00
    0.00000E+00         0.00000E+00        -0.46950E+08
 
   -0.41367E+08        -0.18644E+06         0.00000E+00
   -0.18644E+06        -0.60199E+08         0.00000E+00
    0.00000E+00         0.00000E+00        -0.47130E+08
 
   -0.42116E+08        -0.23436E+06         0.00000E+00
   -0.23436E+06        -0.60314E+08         0.00000E+00
    0.00000E+00         0.00000E+00        -0.47290E+08
 
   -0.42779E+08        -0.22286E+06         0.00000E+00
   -0.22286E+06        -0.60437E+08         0.00000E+00
    0.00000E+00         0.00000E+00        -0.47435E+08
 
   -0.43370E+08        -0.14310E+06         0.00000E+00
   -0.14310E+06        -0.60560E+08         0.00000E+00
    0.00000E+00         0.00000E+00        -0.47565E+08
 
   -0.43908E+08         0.88780E+04         0.00000E+00
    0.88780E+04        -0.60672E+08         0.00000E+00
    0.00000E+00         0.00000E+00        -0.47684E+08
 
   -0.44411E+08         0.23380E+06         0.00000E+00
    0.23380E+06        -0.60766E+08         0.00000E+00
    0.00000E+00         0.00000E+00        -0.47793E+08
 
   -0.44894E+08         0.52999E+06         0.00000E+00
    0.52999E+06        -0.60833E+08         0.00000E+00
    0.00000E+00         0.00000E+00        -0.47894E+08
 
   -0.45372E+08         0.89399E+06         0.00000E+00
    0.89399E+06        -0.60865E+08         0.00000E+00
    0.00000E+00         0.00000E+00        -0.47989E+08
 
   -0.45858E+08         0.13210E+07         0.00000E+00
    0.13210E+07        -0.60855E+08         0.00000E+00
    0.00000E+00         0.00000E+00        -0.48077E+08
 
   -0.46365E+08         0.18053E+07         0.00000E+00
    0.18053E+07        -0.60797E+08         0.00000E+00
    0.00000E+00         0.00000E+00        -0.48162E+08
 
   -0.46902E+08         0.23409E+07         0.00000E+00
    0.23409E+07        -0.60685E+08         0.00000E+00
    0.00000E+00         0.00000E+00        -0.48242E+08
 
   -0.47480E+08         0.29212E+07         0.00000E+00
    0.29212E+07        -0.60514E+08         0.00000E+00
    0.00000E+00         0.00000E+00        -0.48321E+08
 
   -0.48108E+08         0.35394E+07         0.00000E+00
    0.35394E+07        -0.60278E+08         0.00000E+00
    0.00000E+00         0.00000E+00        -0.48398E+08
 
   -0.39633E+08        -0.62671E+05         0.00000E+00
   -0.62671E+05        -0.60022E+08         0.00000E+00
    0.00000E+00         0.00000E+00        -0.46182E+08
 
   -0.40629E+08        -0.19191E+06         0.00000E+00
   -0.19191E+06        -0.60101E+08         0.00000E+00
    0.00000E+00         0.00000E+00        -0.46391E+08
 
   -0.41448E+08        -0.30537E+06         0.00000E+00
   -0.30537E+06        -0.60217E+08         0.00000E+00
    0.00000E+00         0.00000E+00        -0.46566E+08
 
   -0.42141E+08        -0.36753E+06         0.00000E+00
   -0.36753E+06        -0.60356E+08         0.00000E+00
    0.00000E+00         0.00000E+00        -0.46719E+08
 
   -0.42734E+08        -0.36069E+06         0.00000E+00
   -0.36069E+06        -0.60504E+08         0.00000E+00
    0.00000E+00         0.00000E+00        -0.46852E+08
 
   -0.43249E+08        -0.27588E+06         0.00000E+00
   -0.27588E+06        -0.60653E+08         0.00000E+00
    0.00000E+00         0.00000E+00        -0.46970E+08
 
   -0.43710E+08        -0.10939E+06         0.00000E+00
   -0.10939E+06        -0.60792E+08         0.00000E+00
    0.00000E+00         0.00000E+00        -0.47076E+08
 
   -0.44136E+08         0.13905E+06         0.00000E+00
    0.13905E+06        -0.60912E+08         0.00000E+00
    0.00000E+00         0.00000E+00        -0.47172E+08
 
   -0.44545E+08         0.46711E+06         0.00000E+00
    0.46711E+06        -0.61003E+08         0.00000E+00
    0.00000E+00         0.00000E+00        -0.47261E+08
 
   -0.44954E+08         0.87052E+06         0.00000E+00
    0.87052E+06        -0.61058E+08         0.00000E+00
    0.00000E+00         0.00000E+00        -0.47344E+08
 
   -0.45377E+08         0.13436E+07         0.00000E+00
    0.13436E+07        -0.61070E+08         0.00000E+00
    0.00000E+00         0.00000E+00        -0.47422E+08
 
   -0.45827E+08         0.18799E+07         0.00000E+00
    0.18799E+07        -0.61031E+08         0.00000E+00
    0.00000E+00         0.00000E+00        -0.47497E+08
 
   -0.46313E+08         0.24727E+07         0.00000E+00
    0.24727E+07        -0.60938E+08         0.00000E+00
    0.00000E+00         0.00000E+00        -0.47570E+08
 
   -0.46847E+08         0.31155E+07         0.00000E+00
    0.31155E+07        -0.60783E+08         0.00000E+00
    0.00000E+00         0.00000E+00        -0.47642E+08
 
   -0.47438E+08         0.38018E+07         0.00000E+00
    0.38018E+07        -0.60563E+08         0.00000E+00
    0.00000E+00         0.00000E+00        -0.47713E+08
 
   -0.39801E+08        -0.10859E+06         0.00000E+00
   -0.10859E+06        -0.60021E+08         0.00000E+00
    0.00000E+00         0.00000E+00        -0.45569E+08
 
   -0.40776E+08        -0.30033E+06         0.00000E+00
   -0.30033E+06        -0.60100E+08         0.00000E+00
    0.00000E+00         0.00000E+00        -0.45773E+08
 
   -0.41551E+08        -0.44564E+06         0.00000E+00
   -0.44564E+06        -0.60232E+08         0.00000E+00
    0.00000E+00         0.00000E+00        -0.45941E+08
 
   -0.42176E+08        -0.52562E+06         0.00000E+00
   -0.52562E+06        -0.60392E+08         0.00000E+00
    0.00000E+00         0.00000E+00        -0.46083E+08
 
   -0.42689E+08        -0.52487E+06         0.00000E+00
   -0.52487E+06        -0.60566E+08         0.00000E+00
    0.00000E+00         0.00000E+00        -0.46203E+08
 
   -0.43119E+08        -0.43537E+06         0.00000E+00
   -0.43537E+06        -0.60741E+08         0.00000E+00
    0.00000E+00         0.00000E+00        -0.46307E+08
 
   -0.43493E+08        -0.25402E+06         0.00000E+00
   -0.25402E+06        -0.60906E+08         0.00000E+00
    0.00000E+00         0.00000E+00        -0.46399E+08
 
   -0.43833E+08         0.18743E+05         0.00000E+00
    0.18743E+05        -0.61052E+08         0.00000E+00
    0.00000E+00         0.00000E+00        -0.46481E+08
 
   -0.44160E+08         0.37990E+06         0.00000E+00
    0.37990E+06        -0.61169E+08         0.00000E+00
    0.00000E+00         0.00000E+00        -0.46556E+08
 
   -0.44493E+08         0.82431E+06         0.00000E+00
    0.82431E+06        -0.61248E+08         0.00000E+00
    0.00000E+00         0.00000E+00        -0.46626E+08
 
   -0.44846E+08         0.13453E+07         0.00000E+00
    0.13453E+07        -0.61281E+08         0.00000E+00
    0.00000E+00         0.00000E+00        -0.46693E+08
 
   -0.45233E+08         0.19352E+07         0.00000E+00
    0.19352E+07        -0.61263E+08         0.00000E+00
    0.00000E+00         0.00000E+00        -0.46758E+08
 
   -0.45664E+08         0.25866E+07         0.00000E+00
    0.25866E+07        -0.61189E+08         0.00000E+00
    0.00000E+00         0.00000E+00        -0.46823E+08
 
   -0.46149E+08         0.32929E+07         0.00000E+00
    0.32929E+07        -0.61053E+08         0.00000E+00
    0.00000E+00         0.00000E+00        -0.46888E+08
 
   -0.46696E+08         0.40488E+07         0.00000E+00
    0.40488E+07        -0.60850E+08         0.00000E+00
    0.00000E+00         0.00000E+00        -0.46954E+08
 
   -0.40052E+08        -0.15414E+06         0.00000E+00
   -0.15414E+06        -0.60022E+08         0.00000E+00
    0.00000E+00         0.00000E+00        -0.44904E+08
 
   -0.40975E+08        -0.41546E+06         0.00000E+00
   -0.41546E+06        -0.60105E+08         0.00000E+00
    0.00000E+00         0.00000E+00        -0.45098E+08
 
   -0.41682E+08        -0.60360E+06         0.00000E+00
   -0.60360E+06        -0.60248E+08         0.00000E+00
    0.00000E+00         0.00000E+00        -0.45254E+08
 
   -0.42224E+08        -0.70635E+06         0.00000E+00
   -0.70635E+06        -0.60426E+08         0.00000E+00
    0.00000E+00         0.00000E+00        -0.45381E+08
 
   -0.42645E+08        -0.71391E+06         0.00000E+00
   -0.71391E+06        -0.60622E+08         0.00000E+00
    0.00000E+00         0.00000E+00        -0.45486E+08
 
   -0.42979E+08        -0.62055E+06         0.00000E+00
   -0.62055E+06        -0.60821E+08         0.00000E+00
    0.00000E+00         0.00000E+00        -0.45574E+08
 
   -0.43256E+08        -0.42449E+06         0.00000E+00
   -0.42449E+06        -0.61012E+08         0.00000E+00
    0.00000E+00         0.00000E+00        -0.45649E+08
 
   -0.43501E+08        -0.12705E+06         0.00000E+00
   -0.12705E+06        -0.61182E+08         0.00000E+00
    0.00000E+00         0.00000E+00        -0.45715E+08
 
   -0.43738E+08         0.26798E+06         0.00000E+00
    0.26798E+06        -0.61324E+08         0.00000E+00
    0.00000E+00         0.00000E+00        -0.45776E+08
 
   -0.43986E+08         0.75465E+06         0.00000E+00
    0.75465E+06        -0.61427E+08         0.00000E+00
    0.00000E+00         0.00000E+00        -0.45833E+08
 
   -0.44263E+08         0.13251E+07         0.00000E+00
    0.13251E+07        -0.61484E+08         0.00000E+00
    0.00000E+00         0.00000E+00        -0.45888E+08
 
   -0.44583E+08         0.19703E+07         0.00000E+00
    0.19703E+07        -0.61487E+08         0.00000E+00
    0.00000E+00         0.00000E+00        -0.45944E+08
 
   -0.44954E+08         0.26812E+07         0.00000E+00
    0.26812E+07        -0.61433E+08         0.00000E+00
    0.00000E+00         0.00000E+00        -0.45999E+08
 
   -0.45384E+08         0.34512E+07         0.00000E+00
    0.34512E+07        -0.61317E+08         0.00000E+00
    0.00000E+00         0.00000E+00        -0.46057E+08
 
   -0.45881E+08         0.42770E+07         0.00000E+00
    0.42770E+07        -0.61134E+08         0.00000E+00
    0.00000E+00         0.00000E+00        -0.46117E+08
 
   -0.40390E+08        -0.20183E+06         0.00000E+00
   -0.20183E+06        -0.60023E+08         0.00000E+00
    0.00000E+00         0.00000E+00        -0.44187E+08
 
   -0.41232E+08        -0.53810E+06         0.00000E+00
   -0.53810E+06        -0.60111E+08         0.00000E+00
    0.00000E+00         0.00000E+00        -0.44365E+08
 
   -0.41847E+08        -0.77542E+06         0.00000E+00
   -0.77542E+06        -0.60264E+08         0.00000E+00
    0.00000E+00         0.00000E+00        -0.44504E+08
 
   -0.42290E+08        -0.90598E+06         0.00000E+00
   -0.90598E+06        -0.60458E+08         0.00000E+00
    0.00000E+00         0.00000E+00        -0.44613E+08
 
   -0.42605E+08        -0.92456E+06         0.00000E+00
   -0.92456E+06        -0.60672E+08         0.00000E+00
    0.00000E+00         0.00000E+00        -0.44699E+08
 
   -0.42830E+08        -0.82878E+06         0.00000E+00
   -0.82878E+06        -0.60891E+08         0.00000E+00
    0.00000E+00         0.00000E+00        -0.44768E+08
 
   -0.42999E+08        -0.61887E+06         0.00000E+00
   -0.61887E+06        -0.61103E+08         0.00000E+00
    0.00000E+00         0.00000E+00        -0.44825E+08
 
   -0.43139E+08        -0.29730E+06         0.00000E+00
   -0.29730E+06        -0.61297E+08         0.00000E+00
    0.00000E+00         0.00000E+00        -0.44874E+08
 
   -0.43277E+08         0.13145E+06         0.00000E+00
    0.13145E+06        -0.61462E+08         0.00000E+00
    0.00000E+00         0.00000E+00        -0.44918E+08
 
   -0.43433E+08         0.66086E+06         0.00000E+00
    0.66086E+06        -0.61590E+08         0.00000E+00
    0.00000E+00         0.00000E+00        -0.44961E+08
 
   -0.43627E+08         0.12821E+07         0.00000E+00
    0.12821E+07        -0.61671E+08         0.00000E+00
    0.00000E+00         0.00000E+00        -0.45005E+08
 
   -0.43874E+08         0.19841E+07         0.00000E+00
    0.19841E+07        -0.61697E+08         0.00000E+00
    0.00000E+00         0.00000E+00        -0.45050E+08
 
   -0.44182E+08         0.27554E+07         0.00000E+00
    0.27554E+07        -0.61664E+08         0.00000E+00
    0.00000E+00         0.00000E+00        -0.45097E+08
 
   -0.44553E+08         0.35880E+07         0.00000E+00
    0.35880E+07        -0.61570E+08         0.00000E+00
    0.00000E+00         0.00000E+00        -0.45147E+08
 
   -0.44991E+08         0.44820E+07         0.00000E+00
    0.44820E+07        -0.61412E+08         0.00000E+00
    0.00000E+00         0.00000E+00        -0.45200E+08
 
   -0.40819E+08        -0.25237E+06         0.00000E+00
   -0.25237E+06        -0.60024E+08         0.00000E+00
    0.00000E+00         0.00000E+00        -0.43416E+08
 
   -0.41552E+08        -0.66812E+06         0.00000E+00
   -0.66812E+06        -0.60118E+08         0.00000E+00
    0.00000E+00         0.00000E+00        -0.43572E+08
 
   -0.42053E+08        -0.95864E+06         0.00000E+00
   -0.95864E+06        -0.60279E+08         0.00000E+00
    0.00000E+00         0.00000E+00        -0.43690E+08
 
   -0.42376E+08        -0.11203E+07         0.00000E+00
   -0.11203E+07        -0.60483E+08         0.00000E+00
    0.00000E+00         0.00000E+00        -0.43776E+08
 
   -0.42569E+08        -0.11523E+07         0.00000E+00
   -0.11523E+07        -0.60711E+08         0.00000E+00
    0.00000E+00         0.00000E+00        -0.43840E+08
 
   -0.42674E+08        -0.10558E+07         0.00000E+00
   -0.10558E+07        -0.60945E+08         0.00000E+00
    0.00000E+00         0.00000E+00        -0.43888E+08
 
   -0.42724E+08        -0.83365E+06         0.00000E+00
   -0.83365E+06        -0.61174E+08         0.00000E+00
    0.00000E+00         0.00000E+00        -0.43924E+08
 
   -0.42750E+08        -0.48972E+06         0.00000E+00
   -0.48972E+06        -0.61387E+08         0.00000E+00
    0.00000E+00         0.00000E+00        -0.43953E+08
 
   -0.42778E+08        -0.28954E+05         0.00000E+00
   -0.28954E+05        -0.61574E+08         0.00000E+00
    0.00000E+00         0.00000E+00        -0.43980E+08
 
   -0.42833E+08         0.54208E+06         0.00000E+00
    0.54208E+06        -0.61726E+08         0.00000E+00
    0.00000E+00         0.00000E+00        -0.44008E+08
 
   -0.42937E+08         0.12142E+07         0.00000E+00
    0.12142E+07        -0.61833E+08         0.00000E+00
    0.00000E+00         0.00000E+00        -0.44039E+08
 
   -0.43106E+08         0.19746E+07         0.00000E+00
    0.19746E+07        -0.61886E+08         0.00000E+00
    0.00000E+00         0.00000E+00        -0.44075E+08
 
   -0.43349E+08         0.28078E+07         0.00000E+00
    0.28078E+07        -0.61877E+08         0.00000E+00
    0.00000E+00         0.00000E+00        -0.44115E+08
 
   -0.43660E+08         0.37007E+07         0.00000E+00
    0.37007E+07        -0.61807E+08         0.00000E+00
    0.00000E+00         0.00000E+00        -0.44159E+08
 
   -0.44029E+08         0.46571E+07         0.00000E+00
    0.46571E+07        -0.61679E+08         0.00000E+00
    0.00000E+00         0.00000E+00        -0.44204E+08
 
   -0.41344E+08        -0.30554E+06         0.00000E+00
   -0.30554E+06        -0.60025E+08         0.00000E+00
    0.00000E+00         0.00000E+00        -0.42591E+08
 
   -0.41940E+08        -0.80426E+06         0.00000E+00
   -0.80426E+06        -0.60122E+08         0.00000E+00
    0.00000E+00         0.00000E+00        -0.42721E+08
 
   -0.42301E+08        -0.11502E+07         0.00000E+00
   -0.11502E+07        -0.60289E+08         0.00000E+00
    0.00000E+00         0.00000E+00        -0.42811E+08
 
   -0.42484E+08        -0.13444E+07         0.00000E+00
   -0.13444E+07        -0.60501E+08         0.00000E+00
    0.00000E+00         0.00000E+00        -0.42871E+08
 
   -0.42540E+08        -0.13911E+07         0.00000E+00
   -0.13911E+07        -0.60735E+08         0.00000E+00
    0.00000E+00         0.00000E+00        -0.42909E+08
 
   -0.42512E+08        -0.12954E+07         0.00000E+00
   -0.12954E+07        -0.60978E+08         0.00000E+00
    0.00000E+00         0.00000E+00        -0.42931E+08
 
   -0.42433E+08        -0.10633E+07         0.00000E+00
   -0.10633E+07        -0.61217E+08         0.00000E+00
    0.00000E+00         0.00000E+00        -0.42944E+08
 
   -0.42335E+08        -0.70012E+06         0.00000E+00
   -0.70012E+06        -0.61443E+08         0.00000E+00
    0.00000E+00         0.00000E+00        -0.42952E+08
 
   -0.42245E+08        -0.21123E+06         0.00000E+00
   -0.21123E+06        -0.61647E+08         0.00000E+00
    0.00000E+00         0.00000E+00        -0.42960E+08
 
   -0.42188E+08         0.39761E+06         0.00000E+00
    0.39761E+06        -0.61822E+08         0.00000E+00
    0.00000E+00         0.00000E+00        -0.42971E+08
 
   -0.42192E+08         0.11179E+07         0.00000E+00
    0.11179E+07        -0.61957E+08         0.00000E+00
    0.00000E+00         0.00000E+00        -0.42989E+08
 
   -0.42276E+08         0.19363E+07         0.00000E+00
    0.19363E+07        -0.62041E+08         0.00000E+00
    0.00000E+00         0.00000E+00        -0.43016E+08
 
   -0.42454E+08         0.28331E+07         0.00000E+00
    0.28331E+07        -0.62065E+08         0.00000E+00
    0.00000E+00         0.00000E+00        -0.43051E+08
 
   -0.42711E+08         0.37858E+07         0.00000E+00
    0.37858E+07        -0.62028E+08         0.00000E+00
    0.00000E+00         0.00000E+00        -0.43092E+08
 
   -0.43003E+08         0.47912E+07         0.00000E+00
    0.47912E+07        -0.61940E+08         0.00000E+00
    0.00000E+00         0.00000E+00        -0.43131E+08
 
   -0.41969E+08        -0.36066E+06         0.00000E+00
   -0.36066E+06        -0.60026E+08         0.00000E+00
    0.00000E+00         0.00000E+00        -0.41713E+08
 
   -0.42398E+08        -0.94421E+06         0.00000E+00
   -0.94421E+06        -0.60125E+08         0.00000E+00
    0.00000E+00         0.00000E+00        -0.41810E+08
 
   -0.42592E+08        -0.13457E+07         0.00000E+00
   -0.13457E+07        -0.60294E+08         0.00000E+00
    0.00000E+00         0.00000E+00        -0.41868E+08
 
   -0.42615E+08        -0.15722E+07         0.00000E+00
   -0.15722E+07        -0.60506E+08         0.00000E+00
    0.00000E+00         0.00000E+00        -0.41896E+08
 
   -0.42519E+08        -0.16333E+07         0.00000E+00
   -0.16333E+07        -0.60740E+08         0.00000E+00
    0.00000E+00         0.00000E+00        -0.41905E+08
 
   -0.42345E+08        -0.15392E+07         0.00000E+00
   -0.15392E+07        -0.60981E+08         0.00000E+00
    0.00000E+00         0.00000E+00        -0.41899E+08
 
   -0.42129E+08        -0.12994E+07         0.00000E+00
   -0.12994E+07        -0.61220E+08         0.00000E+00
    0.00000E+00         0.00000E+00        -0.41885E+08
 
   -0.41899E+08        -0.92148E+06         0.00000E+00
   -0.92148E+06        -0.61449E+08         0.00000E+00
    0.00000E+00         0.00000E+00        -0.41869E+08
 
   -0.41682E+08        -0.41076E+06         0.00000E+00
   -0.41076E+06        -0.61664E+08         0.00000E+00
    0.00000E+00         0.00000E+00        -0.41855E+08
 
   -0.41504E+08         0.22846E+06         0.00000E+00
    0.22846E+06        -0.61856E+08         0.00000E+00
    0.00000E+00         0.00000E+00        -0.41848E+08
 
   -0.41397E+08         0.99010E+06         0.00000E+00
    0.99010E+06        -0.62019E+08         0.00000E+00
    0.00000E+00         0.00000E+00        -0.41851E+08
 
   -0.41388E+08         0.18608E+07         0.00000E+00
    0.18608E+07        -0.62139E+08         0.00000E+00
    0.00000E+00         0.00000E+00        -0.41869E+08
 
   -0.41495E+08         0.28170E+07         0.00000E+00
    0.28170E+07        -0.62210E+08         0.00000E+00
    0.00000E+00         0.00000E+00        -0.41903E+08
 
   -0.41716E+08         0.38272E+07         0.00000E+00
    0.38272E+07        -0.62227E+08         0.00000E+00
    0.00000E+00         0.00000E+00        -0.41950E+08
 
   -0.41933E+08         0.48543E+07         0.00000E+00
    0.48543E+07        -0.62237E+08         0.00000E+00
    0.00000E+00         0.00000E+00        -0.41995E+08
 
   -0.42696E+08        -0.41667E+06         0.00000E+00
   -0.41667E+06        -0.60026E+08         0.00000E+00
    0.00000E+00         0.00000E+00        -0.40783E+08
 
   -0.42924E+08        -0.10848E+07         0.00000E+00
   -0.10848E+07        -0.60125E+08         0.00000E+00
    0.00000E+00         0.00000E+00        -0.40840E+08
 
   -0.42926E+08        -0.15399E+07         0.00000E+00
   -0.15399E+07        -0.60291E+08         0.00000E+00
    0.00000E+00         0.00000E+00        -0.40860E+08
 
   -0.42768E+08        -0.17959E+07         0.00000E+00
   -0.17959E+07        -0.60496E+08         0.00000E+00
    0.00000E+00         0.00000E+00        -0.40853E+08
 
   -0.42504E+08        -0.18692E+07         0.00000E+00
   -0.18692E+07        -0.60720E+08         0.00000E+00
    0.00000E+00         0.00000E+00        -0.40827E+08
 
   -0.42176E+08        -0.17760E+07         0.00000E+00
   -0.17760E+07        -0.60948E+08         0.00000E+00
    0.00000E+00         0.00000E+00        -0.40790E+08
 
   -0.41815E+08        -0.15304E+07         0.00000E+00
   -0.15304E+07        -0.61174E+08         0.00000E+00
    0.00000E+00         0.00000E+00        -0.40747E+08
 
   -0.41448E+08        -0.11426E+07         0.00000E+00
   -0.11426E+07        -0.61393E+08         0.00000E+00
    0.00000E+00         0.00000E+00        -0.40703E+08
 
   -0.41098E+08        -0.61841E+06         0.00000E+00
   -0.61841E+06        -0.61604E+08         0.00000E+00
    0.00000E+00         0.00000E+00        -0.40664E+08
 
   -0.40790E+08         0.40465E+05         0.00000E+00
    0.40465E+05        -0.61804E+08         0.00000E+00
    0.00000E+00         0.00000E+00        -0.40635E+08
 
   -0.40560E+08         0.83147E+06         0.00000E+00
    0.83147E+06        -0.61986E+08         0.00000E+00
    0.00000E+00         0.00000E+00        -0.40621E+08
 
   -0.40448E+08         0.17444E+07         0.00000E+00
    0.17444E+07        -0.62139E+08         0.00000E+00
    0.00000E+00         0.00000E+00        -0.40628E+08
 
   -0.40491E+08         0.27434E+07         0.00000E+00
    0.27434E+07        -0.62252E+08         0.00000E+00
    0.00000E+00         0.00000E+00        -0.40661E+08
 
   -0.40657E+08         0.37788E+07         0.00000E+00
    0.37788E+07        -0.62378E+08         0.00000E+00
    0.00000E+00         0.00000E+00        -0.40735E+08
 
   -0.40995E+08         0.47504E+07         0.00000E+00
    0.47504E+07        -0.62497E+08         0.00000E+00
    0.00000E+00         0.00000E+00        -0.41008E+08
 
   -0.43525E+08        -0.47234E+06         0.00000E+00
   -0.47234E+06        -0.60025E+08         0.00000E+00
    0.00000E+00         0.00000E+00        -0.39804E+08
 
   -0.43516E+08        -0.12222E+07         0.00000E+00
   -0.12222E+07        -0.60121E+08         0.00000E+00
    0.00000E+00         0.00000E+00        -0.39814E+08
 
   -0.43297E+08        -0.17259E+07         0.00000E+00
   -0.17259E+07        -0.60279E+08         0.00000E+00
    0.00000E+00         0.00000E+00        -0.39789E+08
 
   -0.42938E+08        -0.20060E+07         0.00000E+00
   -0.20060E+07        -0.60469E+08         0.00000E+00
    0.00000E+00         0.00000E+00        -0.39741E+08
 
   -0.42493E+08        -0.20868E+07         0.00000E+00
   -0.20868E+07        -0.60670E+08         0.00000E+00
    0.00000E+00         0.00000E+00        -0.39677E+08
 
   -0.42003E+08        -0.19918E+07         0.00000E+00
   -0.19918E+07        -0.60872E+08         0.00000E+00
    0.00000E+00         0.00000E+00        -0.39605E+08
 
   -0.41494E+08        -0.17407E+07         0.00000E+00
   -0.17407E+07        -0.61068E+08         0.00000E+00
    0.00000E+00         0.00000E+00        -0.39529E+08
 
   -0.40989E+08        -0.13476E+07         0.00000E+00
   -0.13476E+07        -0.61259E+08         0.00000E+00
    0.00000E+00         0.00000E+00        -0.39455E+08
 
   -0.40503E+08        -0.81899E+06         0.00000E+00
   -0.81899E+06        -0.61448E+08         0.00000E+00
    0.00000E+00         0.00000E+00        -0.39388E+08
 
   -0.40059E+08        -0.15296E+06         0.00000E+00
   -0.15296E+06        -0.61638E+08         0.00000E+00
    0.00000E+00         0.00000E+00        -0.39333E+08
 
   -0.39694E+08         0.65497E+06         0.00000E+00
    0.65497E+06        -0.61821E+08         0.00000E+00
    0.00000E+00         0.00000E+00        -0.39296E+08
 
   -0.39464E+08         0.15970E+07         0.00000E+00
    0.15970E+07        -0.61983E+08         0.00000E+00
    0.00000E+00         0.00000E+00        -0.39286E+08
 
   -0.39418E+08         0.26256E+07         0.00000E+00
    0.26256E+07        -0.62152E+08         0.00000E+00
    0.00000E+00         0.00000E+00        -0.39378E+08
 
   -0.39665E+08         0.36467E+07         0.00000E+00
    0.36467E+07        -0.62277E+08         0.00000E+00
    0.00000E+00         0.00000E+00        -0.39750E+08
 
   -0.40163E+08         0.45898E+07         0.00000E+00
    0.45898E+07        -0.62422E+08         0.00000E+00
    0.00000E+00         0.00000E+00        -0.40237E+08
 
   -0.44454E+08        -0.52632E+06         0.00000E+00
   -0.52632E+06        -0.60024E+08         0.00000E+00
    0.00000E+00         0.00000E+00        -0.38778E+08
 
   -0.44169E+08        -0.13520E+07         0.00000E+00
   -0.13520E+07        -0.60114E+08         0.00000E+00
    0.00000E+00         0.00000E+00        -0.38733E+08
 
   -0.43700E+08        -0.18962E+07         0.00000E+00
   -0.18962E+07        -0.60257E+08         0.00000E+00
    0.00000E+00         0.00000E+00        -0.38658E+08
 
   -0.43119E+08        -0.21915E+07         0.00000E+00
   -0.21915E+07        -0.60421E+08         0.00000E+00
    0.00000E+00         0.00000E+00        -0.38563E+08
 
   -0.42481E+08        -0.22721E+07         0.00000E+00
   -0.22721E+07        -0.60587E+08         0.00000E+00
    0.00000E+00         0.00000E+00        -0.38457E+08
 
   -0.41824E+08        -0.21701E+07         0.00000E+00
   -0.21701E+07        -0.60746E+08         0.00000E+00
    0.00000E+00         0.00000E+00        -0.38345E+08
 
   -0.41168E+08        -0.19120E+07         0.00000E+00
   -0.19120E+07        -0.60894E+08         0.00000E+00
    0.00000E+00         0.00000E+00        -0.38235E+08
 
   -0.40528E+08        -0.15162E+07         0.00000E+00
   -0.15162E+07        -0.61038E+08         0.00000E+00
    0.00000E+00         0.00000E+00        -0.38128E+08
 
   -0.39909E+08        -0.99079E+06         0.00000E+00
   -0.99079E+06        -0.61183E+08         0.00000E+00
    0.00000E+00         0.00000E+00        -0.38029E+08
 
   -0.39322E+08        -0.33101E+06         0.00000E+00
   -0.33101E+06        -0.61337E+08         0.00000E+00
    0.00000E+00         0.00000E+00        -0.37942E+08
 
   -0.38806E+08         0.48526E+06         0.00000E+00
    0.48526E+06        -0.61497E+08         0.00000E+00
    0.00000E+00         0.00000E+00        -0.37875E+08
 
   -0.38419E+08         0.14524E+07         0.00000E+00
    0.14524E+07        -0.61657E+08         0.00000E+00
    0.00000E+00         0.00000E+00        -0.37891E+08
 
   -0.38417E+08         0.24649E+07         0.00000E+00
    0.24649E+07        -0.61809E+08         0.00000E+00
    0.00000E+00         0.00000E+00        -0.38298E+08
 
   -0.38695E+08         0.34707E+07         0.00000E+00
    0.34707E+07        -0.61989E+08         0.00000E+00
    0.00000E+00         0.00000E+00        -0.38853E+08
 
   -0.39212E+08         0.44713E+07         0.00000E+00
    0.44713E+07        -0.62142E+08         0.00000E+00
    0.00000E+00         0.00000E+00        -0.39326E+08
 
   -0.45476E+08        -0.57727E+06         0.00000E+00
   -0.57727E+06        -0.60023E+08         0.00000E+00
    0.00000E+00         0.00000E+00        -0.37709E+08
 
   -0.44873E+08        -0.14694E+07         0.00000E+00
   -0.14694E+07        -0.60103E+08         0.00000E+00
    0.00000E+00         0.00000E+00        -0.37600E+08
 
   -0.44122E+08        -0.20418E+07         0.00000E+00
   -0.20418E+07        -0.60223E+08         0.00000E+00
    0.00000E+00         0.00000E+00        -0.37467E+08
 
   -0.43300E+08        -0.23396E+07         0.00000E+00
   -0.23396E+07        -0.60351E+08         0.00000E+00
    0.00000E+00         0.00000E+00        -0.37320E+08
 
   -0.42460E+08        -0.24094E+07         0.00000E+00
   -0.24094E+07        -0.60466E+08         0.00000E+00
    0.00000E+00         0.00000E+00        -0.37167E+08
 
   -0.41634E+08        -0.22934E+07         0.00000E+00
   -0.22934E+07        -0.60564E+08         0.00000E+00
    0.00000E+00         0.00000E+00        -0.37015E+08
 
   -0.40837E+08        -0.20251E+07         0.00000E+00
   -0.20251E+07        -0.60647E+08         0.00000E+00
    0.00000E+00         0.00000E+00        -0.36866E+08
 
   -0.40069E+08        -0.16274E+07         0.00000E+00
   -0.16274E+07        -0.60723E+08         0.00000E+00
    0.00000E+00         0.00000E+00        -0.36725E+08
 
   -0.39324E+08        -0.11104E+07         0.00000E+00
   -0.11104E+07        -0.60804E+08         0.00000E+00
    0.00000E+00         0.00000E+00        -0.36592E+08
 
   -0.38597E+08        -0.46668E+06         0.00000E+00
   -0.46668E+06        -0.60901E+08         0.00000E+00
    0.00000E+00         0.00000E+00        -0.36470E+08
 
   -0.37878E+08         0.34417E+06         0.00000E+00
    0.34417E+06        -0.61021E+08         0.00000E+00
    0.00000E+00         0.00000E+00        -0.36360E+08
 
   -0.37444E+08         0.12857E+07         0.00000E+00
    0.12857E+07        -0.61166E+08         0.00000E+00
    0.00000E+00         0.00000E+00        -0.36592E+08
 
   -0.37430E+08         0.22612E+07         0.00000E+00
    0.22612E+07        -0.61364E+08         0.00000E+00
    0.00000E+00         0.00000E+00        -0.37195E+08
 
   -0.37664E+08         0.32887E+07         0.00000E+00
    0.32887E+07        -0.61569E+08         0.00000E+00
    0.00000E+00         0.00000E+00        -0.37786E+08
 
   -0.38175E+08         0.43622E+07         0.00000E+00
    0.43622E+07        -0.61727E+08         0.00000E+00
    0.00000E+00         0.00000E+00        -0.38279E+08
 
   -0.46583E+08        -0.62383E+06         0.00000E+00
   -0.62383E+06        -0.60020E+08         0.00000E+00
    0.00000E+00         0.00000E+00        -0.36602E+08
 
   -0.45616E+08        -0.15688E+07         0.00000E+00
   -0.15688E+07        -0.60088E+08         0.00000E+00
    0.00000E+00         0.00000E+00        -0.36420E+08
 
   -0.44550E+08        -0.21518E+07         0.00000E+00
   -0.21518E+07        -0.60176E+08         0.00000E+00
    0.00000E+00         0.00000E+00        -0.36221E+08
 
   -0.43468E+08        -0.24352E+07         0.00000E+00
   -0.24352E+07        -0.60252E+08         0.00000E+00
    0.00000E+00         0.00000E+00        -0.36016E+08
 
   -0.42421E+08        -0.24813E+07         0.00000E+00
   -0.24813E+07        -0.60299E+08         0.00000E+00
    0.00000E+00         0.00000E+00        -0.35812E+08
 
   -0.41430E+08        -0.23437E+07         0.00000E+00
   -0.23437E+07        -0.60318E+08         0.00000E+00
    0.00000E+00         0.00000E+00        -0.35615E+08
 
   -0.40498E+08        -0.20626E+07         0.00000E+00
   -0.20626E+07        -0.60319E+08         0.00000E+00
    0.00000E+00         0.00000E+00        -0.35428E+08
 
   -0.39614E+08        -0.16640E+07         0.00000E+00
   -0.16640E+07        -0.60313E+08         0.00000E+00
    0.00000E+00         0.00000E+00        -0.35251E+08
 
   -0.38757E+08        -0.11603E+07         0.00000E+00
   -0.11603E+07        -0.60316E+08         0.00000E+00
    0.00000E+00         0.00000E+00        -0.35084E+08
 
   -0.37894E+08        -0.54477E+06         0.00000E+00
   -0.54477E+06        -0.60346E+08         0.00000E+00
    0.00000E+00         0.00000E+00        -0.34926E+08
 
   -0.36990E+08         0.21858E+06         0.00000E+00
    0.21858E+06        -0.60420E+08         0.00000E+00
    0.00000E+00         0.00000E+00        -0.34808E+08
 
   -0.36534E+08         0.10864E+07         0.00000E+00
    0.10864E+07        -0.60583E+08         0.00000E+00
    0.00000E+00         0.00000E+00        -0.35245E+08
 
   -0.36424E+08         0.20378E+07         0.00000E+00
    0.20378E+07        -0.60802E+08         0.00000E+00
    0.00000E+00         0.00000E+00        -0.35906E+08
 
   -0.36582E+08         0.30934E+07         0.00000E+00
    0.30934E+07        -0.61025E+08         0.00000E+00
    0.00000E+00         0.00000E+00        -0.36551E+08
 
   -0.37054E+08         0.42343E+07         0.00000E+00
    0.42343E+07        -0.61209E+08         0.00000E+00
    0.00000E+00         0.00000E+00        -0.37112E+08
 
   -0.47762E+08        -0.66456E+06         0.00000E+00
   -0.66456E+06        -0.60017E+08         0.00000E+00
    0.00000E+00         0.00000E+00        -0.35462E+08
 
   -0.46376E+08        -0.16426E+07         0.00000E+00
   -0.16426E+07        -0.60067E+08         0.00000E+00
    0.00000E+00         0.00000E+00        -0.35195E+08
 
   -0.44962E+08        -0.22118E+07         0.00000E+00
   -0.22118E+07        -0.60110E+08         0.00000E+00
    0.00000E+00         0.00000E+00        -0.34921E+08
 
   -0.43607E+08        -0.24593E+07         0.00000E+00
   -0.24593E+07        -0.60114E+08         0.00000E+00
    0.00000E+00         0.00000E+00        -0.34651E+08
 
   -0.42353E+08        -0.24679E+07         0.00000E+00
   -0.24679E+07        -0.60071E+08         0.00000E+00
    0.00000E+00         0.00000E+00        -0.34393E+08
 
   -0.41206E+08        -0.23033E+07         0.00000E+00
   -0.23033E+07        -0.59992E+08         0.00000E+00
    0.00000E+00         0.00000E+00        -0.34150E+08
 
   -0.40154E+08        -0.20106E+07         0.00000E+00
   -0.20106E+07        -0.59895E+08         0.00000E+00
    0.00000E+00         0.00000E+00        -0.33923E+08
 
   -0.39168E+08        -0.16168E+07         0.00000E+00
   -0.16168E+07        -0.59800E+08         0.00000E+00
    0.00000E+00         0.00000E+00        -0.33712E+08
 
   -0.38216E+08        -0.11347E+07         0.00000E+00
   -0.11347E+07        -0.59723E+08         0.00000E+00
    0.00000E+00         0.00000E+00        -0.33514E+08
 
   -0.37243E+08        -0.56612E+06         0.00000E+00
   -0.56612E+06        -0.59689E+08         0.00000E+00
    0.00000E+00         0.00000E+00        -0.33325E+08
 
   -0.36210E+08         0.94943E+05         0.00000E+00
    0.94943E+05        -0.59740E+08         0.00000E+00
    0.00000E+00         0.00000E+00        -0.33189E+08
 
   -0.35658E+08         0.87844E+06         0.00000E+00
    0.87844E+06        -0.59890E+08         0.00000E+00
    0.00000E+00         0.00000E+00        -0.33698E+08
 
   -0.35418E+08         0.18024E+07         0.00000E+00
    0.18024E+07        -0.60116E+08         0.00000E+00
    0.00000E+00         0.00000E+00        -0.34417E+08
 
   -0.35457E+08         0.28675E+07         0.00000E+00
    0.28675E+07        -0.60365E+08         0.00000E+00
    0.00000E+00         0.00000E+00        -0.35150E+08
 
   -0.35851E+08         0.40593E+07         0.00000E+00
    0.40593E+07        -0.60597E+08         0.00000E+00
    0.00000E+00         0.00000E+00        -0.35821E+08
 
   -0.48995E+08        -0.69753E+06         0.00000E+00
   -0.69753E+06        -0.60013E+08         0.00000E+00
    0.00000E+00         0.00000E+00        -0.34295E+08
 
   -0.47127E+08        -0.16797E+07         0.00000E+00
   -0.16797E+07        -0.60036E+08         0.00000E+00
    0.00000E+00         0.00000E+00        -0.33929E+08
 
   -0.45330E+08        -0.22006E+07         0.00000E+00
   -0.22006E+07        -0.60014E+08         0.00000E+00
    0.00000E+00         0.00000E+00        -0.33569E+08
 
   -0.43697E+08        -0.23863E+07         0.00000E+00
   -0.23863E+07        -0.59917E+08         0.00000E+00
    0.00000E+00         0.00000E+00        -0.33227E+08
 
   -0.42249E+08        -0.23458E+07         0.00000E+00
   -0.23458E+07        -0.59756E+08         0.00000E+00
    0.00000E+00         0.00000E+00        -0.32911E+08
 
   -0.40966E+08        -0.21551E+07         0.00000E+00
   -0.21551E+07        -0.59558E+08         0.00000E+00
    0.00000E+00         0.00000E+00        -0.32621E+08
 
   -0.39811E+08        -0.18597E+07         0.00000E+00
   -0.18597E+07        -0.59352E+08         0.00000E+00
    0.00000E+00         0.00000E+00        -0.32355E+08
 
   -0.38743E+08        -0.14843E+07         0.00000E+00
   -0.14843E+07        -0.59163E+08         0.00000E+00
    0.00000E+00         0.00000E+00        -0.32112E+08
 
   -0.37715E+08        -0.10407E+07         0.00000E+00
   -0.10407E+07        -0.59013E+08         0.00000E+00
    0.00000E+00         0.00000E+00        -0.31888E+08
 
   -0.36675E+08        -0.53868E+06         0.00000E+00
   -0.53868E+06        -0.58925E+08         0.00000E+00
    0.00000E+00         0.00000E+00        -0.31677E+08
 
   -0.35568E+08         0.21797E+04         0.00000E+00
    0.21797E+04        -0.58937E+08         0.00000E+00
    0.00000E+00         0.00000E+00        -0.31501E+08
 
   -0.34831E+08         0.67267E+06         0.00000E+00
    0.67267E+06        -0.59053E+08         0.00000E+00
    0.00000E+00         0.00000E+00        -0.31924E+08
 
   -0.34434E+08         0.15400E+07         0.00000E+00
    0.15400E+07        -0.59295E+08         0.00000E+00
    0.00000E+00         0.00000E+00        -0.32710E+08
 
   -0.34312E+08         0.25915E+07         0.00000E+00
    0.25915E+07        -0.59593E+08         0.00000E+00
    0.00000E+00         0.00000E+00        -0.33570E+08
 
   -0.34573E+08         0.38199E+07         0.00000E+00
    0.38199E+07        -0.59892E+08         0.00000E+00
    0.00000E+00         0.00000E+00        -0.34401E+08
 
   -0.50258E+08        -0.71948E+06         0.00000E+00
   -0.71948E+06        -0.60008E+08         0.00000E+00
    0.00000E+00         0.00000E+00        -0.33108E+08
 
   -0.47826E+08        -0.16593E+07         0.00000E+00
   -0.16593E+07        -0.59987E+08         0.00000E+00
    0.00000E+00         0.00000E+00        -0.32621E+08
 
   -0.45620E+08        -0.20833E+07         0.00000E+00
   -0.20833E+07        -0.59861E+08         0.00000E+00
    0.00000E+00         0.00000E+00        -0.32162E+08
 
   -0.43722E+08        -0.21807E+07         0.00000E+00
   -0.21807E+07        -0.59620E+08         0.00000E+00
    0.00000E+00         0.00000E+00        -0.31743E+08
 
   -0.42109E+08        -0.20885E+07         0.00000E+00
   -0.20885E+07        -0.59307E+08         0.00000E+00
    0.00000E+00         0.00000E+00        -0.31366E+08
 
   -0.40719E+08        -0.18836E+07         0.00000E+00
   -0.18836E+07        -0.58970E+08         0.00000E+00
    0.00000E+00         0.00000E+00        -0.31029E+08
 
   -0.39488E+08        -0.16046E+07         0.00000E+00
   -0.16046E+07        -0.58647E+08         0.00000E+00
    0.00000E+00         0.00000E+00        -0.30728E+08
 
   -0.38357E+08        -0.12698E+07         0.00000E+00
   -0.12698E+07        -0.58366E+08         0.00000E+00
    0.00000E+00         0.00000E+00        -0.30456E+08
 
   -0.37276E+08        -0.88820E+06         0.00000E+00
   -0.88820E+06        -0.58149E+08         0.00000E+00
    0.00000E+00         0.00000E+00        -0.30209E+08
 
   -0.36198E+08        -0.46887E+06         0.00000E+00
   -0.46887E+06        -0.58016E+08         0.00000E+00
    0.00000E+00         0.00000E+00        -0.29982E+08
 
   -0.35084E+08        -0.37836E+05         0.00000E+00
   -0.37836E+05        -0.57987E+08         0.00000E+00
    0.00000E+00         0.00000E+00        -0.29773E+08
 
   -0.34096E+08         0.47876E+06         0.00000E+00
    0.47876E+06        -0.58077E+08         0.00000E+00
    0.00000E+00         0.00000E+00        -0.29931E+08
 
   -0.33506E+08         0.12355E+07         0.00000E+00
    0.12355E+07        -0.58315E+08         0.00000E+00
    0.00000E+00         0.00000E+00        -0.30756E+08
 
   -0.33165E+08         0.22386E+07         0.00000E+00
    0.22386E+07        -0.58681E+08         0.00000E+00
    0.00000E+00         0.00000E+00        -0.31774E+08
 
   -0.33221E+08         0.34877E+07         0.00000E+00
    0.34877E+07        -0.59088E+08         0.00000E+00
    0.00000E+00         0.00000E+00        -0.32843E+08
 
   -0.51505E+08        -0.72254E+06         0.00000E+00
   -0.72254E+06        -0.59996E+08         0.00000E+00
    0.00000E+00         0.00000E+00        -0.31902E+08
 
   -0.48407E+08        -0.15380E+07         0.00000E+00
   -0.15380E+07        -0.59892E+08         0.00000E+00
    0.00000E+00         0.00000E+00        -0.31267E+08
 
   -0.45792E+08        -0.18015E+07         0.00000E+00
   -0.18015E+07        -0.59591E+08         0.00000E+00
    0.00000E+00         0.00000E+00        -0.30693E+08
 
   -0.43678E+08        -0.17984E+07         0.00000E+00
   -0.17984E+07        -0.59147E+08         0.00000E+00
    0.00000E+00         0.00000E+00        -0.30191E+08
 
   -0.41948E+08        -0.16726E+07         0.00000E+00
   -0.16726E+07        -0.58653E+08         0.00000E+00
    0.00000E+00         0.00000E+00        -0.29757E+08
 
   -0.40488E+08        -0.14806E+07         0.00000E+00
   -0.14806E+07        -0.58168E+08         0.00000E+00
    0.00000E+00         0.00000E+00        -0.29378E+08
 
   -0.39207E+08        -0.12459E+07         0.00000E+00
   -0.12459E+07        -0.57730E+08         0.00000E+00
    0.00000E+00         0.00000E+00        -0.29044E+08
 
   -0.38036E+08        -0.97880E+06         0.00000E+00
   -0.97880E+06        -0.57363E+08         0.00000E+00
    0.00000E+00         0.00000E+00        -0.28747E+08
 
   -0.36921E+08        -0.68431E+06         0.00000E+00
   -0.68431E+06        -0.57086E+08         0.00000E+00
    0.00000E+00         0.00000E+00        -0.28480E+08
 
   -0.35819E+08        -0.36829E+06         0.00000E+00
   -0.36829E+06        -0.56914E+08         0.00000E+00
    0.00000E+00         0.00000E+00        -0.28239E+08
 
   -0.34718E+08        -0.38620E+05         0.00000E+00
   -0.38620E+05        -0.56853E+08         0.00000E+00
    0.00000E+00         0.00000E+00        -0.28024E+08
 
   -0.33551E+08         0.32443E+06         0.00000E+00
    0.32443E+06        -0.56956E+08         0.00000E+00
    0.00000E+00         0.00000E+00        -0.27869E+08
 
   -0.32683E+08         0.88886E+06         0.00000E+00
    0.88886E+06        -0.57144E+08         0.00000E+00
    0.00000E+00         0.00000E+00        -0.28525E+08
 
   -0.32059E+08         0.17672E+07         0.00000E+00
    0.17672E+07        -0.57598E+08         0.00000E+00
    0.00000E+00         0.00000E+00        -0.29707E+08
 
   -0.31805E+08         0.29920E+07         0.00000E+00
    0.29920E+07        -0.58183E+08         0.00000E+00
    0.00000E+00         0.00000E+00        -0.31125E+08
 
   -0.52649E+08        -0.67914E+06         0.00000E+00
   -0.67914E+06        -0.59962E+08         0.00000E+00
    0.00000E+00         0.00000E+00        -0.30671E+08
 
   -0.48770E+08        -0.12111E+07         0.00000E+00
   -0.12111E+07        -0.59658E+08         0.00000E+00
    0.00000E+00         0.00000E+00        -0.29840E+08
 
   -0.45828E+08        -0.12721E+07         0.00000E+00
   -0.12721E+07        -0.59057E+08         0.00000E+00
    0.00000E+00         0.00000E+00        -0.29141E+08
 
   -0.43591E+08        -0.12074E+07         0.00000E+00
   -0.12074E+07        -0.58372E+08         0.00000E+00
    0.00000E+00         0.00000E+00        -0.28565E+08
 
   -0.41800E+08        -0.10933E+07         0.00000E+00
   -0.10933E+07        -0.57699E+08         0.00000E+00
    0.00000E+00         0.00000E+00        -0.28081E+08
 
   -0.40304E+08        -0.95275E+06         0.00000E+00
   -0.95275E+06        -0.57082E+08         0.00000E+00
    0.00000E+00         0.00000E+00        -0.27666E+08
 
   -0.38997E+08        -0.79432E+06         0.00000E+00
   -0.79432E+06        -0.56546E+08         0.00000E+00
    0.00000E+00         0.00000E+00        -0.27306E+08
 
   -0.37805E+08        -0.62117E+06         0.00000E+00
   -0.62117E+06        -0.56108E+08         0.00000E+00
    0.00000E+00         0.00000E+00        -0.26988E+08
 
   -0.36671E+08        -0.43511E+06         0.00000E+00
   -0.43511E+06        -0.55781E+08         0.00000E+00
    0.00000E+00         0.00000E+00        -0.26705E+08
 
   -0.35557E+08        -0.23820E+06         0.00000E+00
   -0.23820E+06        -0.55575E+08         0.00000E+00
    0.00000E+00         0.00000E+00        -0.26451E+08
 
   -0.34431E+08        -0.27992E+05         0.00000E+00
   -0.27992E+05        -0.55497E+08         0.00000E+00
    0.00000E+00         0.00000E+00        -0.26223E+08
 
   -0.33275E+08         0.20072E+06         0.00000E+00
    0.20072E+06        -0.55555E+08         0.00000E+00
    0.00000E+00         0.00000E+00        -0.26018E+08
 
   -0.32042E+08         0.53206E+06         0.00000E+00
    0.53206E+06        -0.55837E+08         0.00000E+00
    0.00000E+00         0.00000E+00        -0.26093E+08
 
   -0.31079E+08         0.11370E+07         0.00000E+00
    0.11370E+07        -0.56279E+08         0.00000E+00
    0.00000E+00         0.00000E+00        -0.27292E+08
 
   -0.30366E+08         0.22170E+07         0.00000E+00
    0.22170E+07        -0.57170E+08         0.00000E+00
    0.00000E+00         0.00000E+00        -0.29212E+08
 
   -0.53456E+08        -0.41327E+06         0.00000E+00
   -0.41327E+06        -0.59698E+08         0.00000E+00
    0.00000E+00         0.00000E+00        -0.29345E+08
 
   -0.48846E+08        -0.49422E+06         0.00000E+00
   -0.49422E+06        -0.58915E+08         0.00000E+00
    0.00000E+00         0.00000E+00        -0.28267E+08
 
   -0.45799E+08        -0.46798E+06         0.00000E+00
   -0.46798E+06        -0.58011E+08         0.00000E+00
    0.00000E+00         0.00000E+00        -0.27481E+08
 
   -0.43520E+08        -0.42949E+06         0.00000E+00
   -0.42949E+06        -0.57142E+08         0.00000E+00
    0.00000E+00         0.00000E+00        -0.26855E+08
 
   -0.41710E+08        -0.38254E+06         0.00000E+00
   -0.38254E+06        -0.56348E+08         0.00000E+00
    0.00000E+00         0.00000E+00        -0.26338E+08
 
   -0.40201E+08        -0.33046E+06         0.00000E+00
   -0.33046E+06        -0.55647E+08         0.00000E+00
    0.00000E+00         0.00000E+00        -0.25899E+08
 
   -0.38884E+08        -0.27424E+06         0.00000E+00
   -0.27424E+06        -0.55051E+08         0.00000E+00
    0.00000E+00         0.00000E+00        -0.25520E+08
 
   -0.37684E+08        -0.21421E+06         0.00000E+00
   -0.21421E+06        -0.54569E+08         0.00000E+00
    0.00000E+00         0.00000E+00        -0.25186E+08
 
   -0.36543E+08        -0.15067E+06         0.00000E+00
   -0.15067E+06        -0.54209E+08         0.00000E+00
    0.00000E+00         0.00000E+00        -0.24890E+08
 
   -0.35420E+08        -0.83542E+05         0.00000E+00
   -0.83542E+05        -0.53979E+08         0.00000E+00
    0.00000E+00         0.00000E+00        -0.24623E+08
 
   -0.34284E+08        -0.11812E+05         0.00000E+00
   -0.11812E+05        -0.53887E+08         0.00000E+00
    0.00000E+00         0.00000E+00        -0.24382E+08
 
   -0.33105E+08         0.70572E+05         0.00000E+00
    0.70572E+05        -0.53943E+08         0.00000E+00
    0.00000E+00         0.00000E+00        -0.24163E+08
 
   -0.31796E+08         0.17601E+06         0.00000E+00
    0.17601E+06        -0.54212E+08         0.00000E+00
    0.00000E+00         0.00000E+00        -0.23961E+08
 
   -0.30459E+08         0.38737E+06         0.00000E+00
    0.38737E+06        -0.54846E+08         0.00000E+00
    0.00000E+00         0.00000E+00        -0.24616E+08
 
   -0.29013E+08         0.87358E+06         0.00000E+00
    0.87358E+06        -0.55992E+08         0.00000E+00
    0.00000E+00         0.00000E+00        -0.27024E+08
 
SCALARS stressS double 
LOOKUP_TABLE default
  -50199115.8578756     
  -50145072.1962362     
  -50258706.7469673     
  -50663223.3093720     
  -51053081.7151189     
  -51425681.4387226     
  -51779461.1256125     
  -52113566.0519878     
  -52427578.9584730     
  -52721346.1245166     
  -52994865.5108065     
  -53248209.4460058     
  -53481466.6470431     
  -53694696.5497672     
  -53887892.0596001     
  -50177359.8204365     
  -50123311.7031461     
  -50246204.7257039     
  -50652040.2905693     
  -51042123.4447676     
  -51414180.2293980     
  -51766997.3241426     
  -52099944.0256817     
  -52412735.2753064     
  -52705301.0314718     
  -52977699.7666737     
  -53230051.2038554     
  -53462483.8440545     
  -53675092.1324281     
  -53867900.6858571     
  -50133041.0397096     
  -50078672.6301902     
  -50222046.9387066     
  -50630361.8636622     
  -51020445.6682921     
  -51391113.1905046     
  -51741849.0458724     
  -52072401.9274585     
  -52382704.3440983     
  -52672837.9866814     
  -52942973.8236623     
  -53193322.3031815     
  -53424089.2915680     
  -53635438.0795645     
  -53827456.1797360     
  -50065880.9699596     
  -50010445.2707746     
  -50188956.2618697     
  -50599471.7711847     
  -50988286.2964988     
  -51356212.9816034     
  -51703529.8834841     
  -52030324.0788700     
  -52336793.9494400     
  -52623212.3942050     
  -52889903.0857373     
  -53137203.8689897     
  -53365431.9592659     
  -53574851.2882516     
  -53765642.4577139     
  -49976112.9119569     
  -49918702.8982187     
  -50151593.0104507     
  -50560321.1781024     
  -50945325.1006728     
  -51308887.0356667     
  -51651212.8766864     
  -51972754.4042449     
  -52273958.3005599     
  -52555312.9178198     
  -52817322.6253435     
  -53060483.0283173     
  -53285252.7159001     
  -53492025.6225281     
  -53681104.2620327     
  -49862657.8259254     
  -49813048.8907455     
  -50111589.9197811     
  -50511106.1143754     
  -50890790.0980452     
  -51248048.9726091     
  -51583700.4390127     
  -51898382.6523509     
  -52192802.7906089     
  -52467674.0018275     
  -52723704.2636142     
  -52961572.6223684     
  -53181905.7670561     
  -53385254.5053121     
  -53572070.3913162     
  -49720702.9465472     
  -49703030.5579042     
  -50054356.8319282     
  -50451086.1283831     
  -50823002.5553226     
  -51172215.8185732     
  -51499416.3615800     
  -51805561.6075594     
  -52091603.3574636     
  -52358499.2134935     
  -52607182.1519211     
  -52838538.6553570     
  -53053387.6857063     
  -53252461.2974984     
  -53436385.1512524     
  -49554752.4271440     
  -49599916.7200329     
  -49988827.3242784     
  -50377351.7530263     
  -50740215.7161605     
  -51079501.8966149     
  -51396479.6889083     
  -51692347.3793750     
  -51968343.9457030     
  -52225695.6309248     
  -52465586.8964734     
  -52689135.2441415     
  -52897373.7751721     
  -53091237.1886008     
  -53271547.7078554     
  -49359319.2852153     
  -49507433.7526813     
  -49912167.2018720     
  -50288415.2557785     
  -50640215.2089738     
  -50967841.7044887     
  -51272781.1437358     
  -51556567.1995137     
  -51820766.3244552     
  -52066917.1224784     
  -52296486.4618563     
  -52510845.9887921     
  -52711261.0922363     
  -52898886.0628460     
  -53074758.5752983     
  -49150626.7672598     
  -49424746.9777425     
  -49816329.0287671     
  -50181768.3756909     
  -50520853.2154932     
  -50835079.6460047     
  -51126103.3201448     
  -51395892.0088822     
  -51646425.9696536     
  -51879610.9374881     
  -52097230.6371711     
  -52300929.9498796     
  -52492217.3379053     
  -52672475.9346544     
  -52842972.4165948     
  -48954764.1663256     
  -49319637.2742190     
  -49701161.7167731     
  -50054828.2382698     
  -50380203.4044155     
  -50679172.8031074     
  -50954217.9948971     
  -51207906.0860125     
  -51442741.6312007     
  -51661060.6653866     
  -51864994.5567637     
  -52056470.1004668     
  -52237235.3001120     
  -52408897.5218157     
  -52572957.2114102     
  -48779949.3801542     
  -49188750.6932653     
  -49565283.2152351     
  -49906936.1536152     
  -50216828.1708265     
  -50498320.4980314     
  -50754960.8633168     
  -50990150.6517693     
  -51207027.8423601     
  -51408416.9896700     
  -51596815.8951468     
  -51774422.1053233     
  -51943193.8983079     
  -52104933.0257097     
  -52261362.4342940     
  -48612202.6292644     
  -49040359.9367690     
  -49410621.3971559     
  -49738389.3643352     
  -50029989.0907598     
  -50290986.1198094     
  -50526245.5334650     
  -50740130.2125229     
  -50936499.1424535     
  -51118707.0416382     
  -51289618.6847814     
  -51451660.8357530     
  -51606929.4505573     
  -51757343.3307118     
  -51904804.7733723     
  -48463833.0960777     
  -48883077.9495754     
  -49241495.7786656     
  -49550329.1627593     
  -49819331.6061757     
  -50055816.7889994     
  -50266010.3252914     
  -50455276.3927539     
  -50628238.8226567     
  -50788811.0838189     
  -50940211.5092271     
  -51085019.4433887     
  -51225323.7354500     
  -51362992.8712687     
  -51499992.4185971     
  -48326146.6672579     
  -48725783.5422004     
  -49061176.1049954     
  -49344041.8231790     
  -49584558.2144077     
  -49791461.8931698     
  -49972125.0624232     
  -50132878.9197267     
  -50279130.2679038     
  -50415389.3847915     
  -50545236.0200525     
  -50671300.5888041     
  -50795420.7375290     
  -50919050.9940229     
  -51043941.0297189     
  -48199893.5723939     
  -48569159.9981148     
  -48871808.1892257     
  -49120135.6971539     
  -49325136.3532744     
  -49496410.5431311     
  -49642296.3049352     
  -49770009.7463871     
  -49885759.5325114     
  -49994740.9875521     
  -50101000.7179921     
  -50207210.3708412     
  -50314553.4993336     
  -50423377.2248373     
  -50534403.5282220     
  -48086164.0486529     
  -48414091.8739888     
  -48673799.5746855     
  -48878547.7859477     
  -49040122.1443541     
  -49168907.9791861     
  -49274021.2565879     
  -49363478.8250642     
  -49444321.1933959     
  -49522595.5429723     
  -49603120.9906275     
  -49688939.4982155     
  -49780485.2761148     
  -49875187.0076938     
  -49970982.3559228     
  -47986527.3913066     
  -48261166.0311337     
  -48467102.6652640     
  -48618592.1364062     
  -48728198.5360531     
  -48806963.0013828     
  -48864625.4968998     
  -48909878.0190088     
  -48950590.9660851     
  -48993911.1685864     
  -49045962.4139542     
  -49111090.2094469     
  -49190151.6059429     
  -49277236.0335665     
  -49357762.5661935     
  -47902447.1191686     
  -48110754.1774291     
  -48251278.6023236     
  -48339200.5652416     
  -48387747.5970912     
  -48408438.7630068     
  -48411399.4556632     
  -48405765.2368804     
  -48400113.3699169     
  -48402805.0478158     
  -48422139.3492381     
  -48465116.9735319     
  -48535830.6407780     
  -48630664.1254540     
  -48721621.8548192     
  -47835049.3545963     
  -47962861.5047642     
  -48025498.4119466     
  -48038942.0997882     
  -48016915.6566287     
  -47971159.2000640     
  -47911827.1520181     
  -47848039.4006399     
  -47788681.1009147     
  -47743186.9244809     
  -47722112.0309317     
  -47738349.2462196     
  -47801294.9453707     
  -47923218.2099196     
  -48166544.8902485     
  -47784953.1662033     
  -47816985.0575627     
  -47788419.1647663     
  -47715935.7984221     
  -47613569.4848519     
  -47492966.2308211     
  -47363816.4058963     
  -47234541.2333466     
  -47113259.8039171     
  -47009814.9486429     
  -46936961.1431206     
  -46910863.5818564     
  -46982804.7250756     
  -47230433.8369520     
  -47607165.0786853     
  -47752171.9117273     
  -47671933.9333186     
  -47537958.4786282     
  -47367617.3035105     
  -47175102.4793433     
  -46971619.8504518     
  -46765826.5568315     
  -46564511.3151053     
  -46373767.8258452     
  -46200344.8282711     
  -46059426.6787684     
  -45988707.5099195     
  -46174493.8576776     
  -46512312.4997483     
  -46893358.5151197     
  -47736050.0995813     
  -47525568.9675434     
  -47270910.2890762     
  -46990312.5283873     
  -46698029.2560719     
  -46404462.8888514     
  -46116634.8425248     
  -45838846.6483057     
  -45573394.3864683     
  -45322469.0805983     
  -45086483.9128905     
  -45067288.4640758     
  -45329701.2227218     
  -45673254.6530645     
  -46060177.0839226     
  -47735179.4472569     
  -47374361.5022871     
  -46982299.3278241     
  -46578541.9616965     
  -46177331.8312535     
  -45787804.4389630     
  -45414711.5572558     
  -45059199.5129734     
  -44719141.3073083     
  -44388497.1300584     
  -44072541.5353199     
  -44120915.7075542     
  -44377292.5002062     
  -44719385.5740350     
  -45124879.1049129     
  -47747181.6048299     
  -47212568.9887481     
  -46664279.5705685     
  -46123947.4074671     
  -45605557.9672368     
  -45116130.8746424     
  -44657256.3155621     
  -44226486.0339939     
  -43817767.2574897     
  -43418895.9800989     
  -43046632.3766202     
  -43081850.5077053     
  -43317101.7730666     
  -43657521.4435960     
  -44089937.3580639     
  -47768116.4862879     
  -47030592.7429181     
  -46304186.9480649     
  -45613686.9386498     
  -44971762.7448379     
  -44381391.4343074     
  -43839413.8029756     
  -43339201.5212750     
  -42871746.1768761     
  -42425516.6899307     
  -42001744.2640588     
  -41936087.0664022     
  -42146483.8521083     
  -42491785.3074244     
  -42955329.9561138     
  -47790982.6444377     
  -46811388.5383085     
  -45880977.4040848     
  -45028172.8644384     
  -44260587.9749249     
  -43572830.0936879     
  -42954180.7473053     
  -42392962.8089482     
  -41877763.9963463     
  -41398731.4860864     
  -40948110.7509816     
  -40701092.9803280     
  -40859124.4693358     
  -41206626.0788832     
  -41717283.3557074     
  -47800955.0712641     
  -46522064.4549991     
  -45358557.0385565     
  -44338565.7236205     
  -43452601.9836672     
  -42677807.1993423     
  -41993381.0187801     
  -41381766.5444237     
  -40828885.0106525     
  -40324097.9496132     
  -39864922.3575738     
  -39458579.6870197     
  -39450630.8437785     
  -39788195.7396474     
  -40370924.2849566     
  -47760591.2649213     
  -46089326.0978492     
  -44675472.9924202     
  -43509334.6930983     
  -42526678.9272526     
  -41683969.5811514     
  -40949568.0683958     
  -40300334.2047245     
  -39719216.0378313     
  -39194494.0173844     
  -38716880.2830088     
  -38282625.6892968     
  -37990854.9401680     
  -38216850.9931610     
  -38915915.6589621     
  -47499852.9432976     
  -45342725.7509716     
  -43763967.9117684     
  -42505821.8436747     
  -41465306.0096342     
  -40582397.2519428     
  -39818351.7218405     
  -39146350.8584627     
  -38547324.9671505     
  -38007547.6486450     
  -37517589.7146783     
  -37070440.3625129     
  -36656229.6449148     
  -36640459.7088888     
  -37342897.5996028     
SCALARS 2waySource double 
LOOKUP_TABLE default
 -8.744202472395884E-005
 -1.284313772098746E-004
 -1.877951102756218E-004
 -1.841269997587288E-004
 -1.814672089874969E-004
 -1.797682421885822E-004
 -1.788931893966277E-004
 -1.786577459907137E-004
 -1.788680183968257E-004
 -1.793375116799876E-004
 -1.798922401444589E-004
 -1.803711064327785E-004
 -1.806247683036454E-004
 -1.805140033889522E-004
 -1.799080679108652E-004
 -8.857876192002300E-005
 -1.298143944861788E-004
 -1.879658564425038E-004
 -1.842807163923555E-004
 -1.816771164404325E-004
 -1.800971037783566E-004
 -1.793596453272607E-004
 -1.792551448114765E-004
 -1.795807684498199E-004
 -1.801485369477181E-004
 -1.807853470906236E-004
 -1.813319252132174E-004
 -1.816409361919865E-004
 -1.815750268871709E-004
 -1.810050349773137E-004
 -9.059115567952914E-005
 -1.327394567079639E-004
 -1.879398605976862E-004
 -1.841915409333187E-004
 -1.817899786798100E-004
 -1.805162388918175E-004
 -1.800849298402023E-004
 -1.802516342690344E-004
 -1.808090831983253E-004
 -1.815713034522459E-004
 -1.823701857098575E-004
 -1.830519150124250E-004
 -1.834742339959946E-004
 -1.835040483435228E-004
 -1.830154387487055E-004
 -9.344454068067160E-005
 -1.376496902663306E-004
 -1.872711924096735E-004
 -1.836253953924441E-004
 -1.817563691196703E-004
 -1.810371613901322E-004
 -1.810826934660912E-004
 -1.816560297878236E-004
 -1.825529445420941E-004
 -1.835970334361252E-004
 -1.846302287124146E-004
 -1.855083263316213E-004
 -1.860974224762177E-004
 -1.862711883999607E-004
 -1.859086990861609E-004
 -9.686423349523362E-005
 -1.449687020981323E-004
 -1.850753212487272E-004
 -1.824740721095081E-004
 -1.816632231430880E-004
 -1.817018975808089E-004
 -1.823860259123344E-004
 -1.834835602541444E-004
 -1.848116373257829E-004
 -1.862106133523205E-004
 -1.875383884614116E-004
 -1.886646979568223E-004
 -1.894673736853170E-004
 -1.898294357560112E-004
 -1.896368124536057E-004
 -1.007543664935214E-004
 -1.530429200658514E-004
 -1.811542637049332E-004
 -1.813334919617940E-004
 -1.815991734569915E-004
 -1.825964133031584E-004
 -1.840390855561104E-004
 -1.857522775048056E-004
 -1.875794233159051E-004
 -1.893866619472821E-004
 -1.910533456129630E-004
 -1.924674245944567E-004
 -1.935217703779909E-004
 -1.941113620368871E-004
 -1.941309668167281E-004
 -1.064776718413985E-004
 -1.626081275001365E-004
 -1.792166858018300E-004
 -1.800665228060998E-004
 -1.817595605461706E-004
 -1.838067285537607E-004
 -1.860929608356478E-004
 -1.884751632649436E-004
 -1.908396501478162E-004
 -1.930842776145066E-004
 -1.951149492010840E-004
 -1.968415644825976E-004
 -1.981751217186114E-004
 -1.990251532165404E-004
 -1.992974143326781E-004
 -1.141428916608654E-004
 -1.690642162301493E-004
 -1.766151448735694E-004
 -1.791910005587805E-004
 -1.822731678219571E-004
 -1.854405040076269E-004
 -1.885901521270427E-004
 -1.916519606405336E-004
 -1.945572515698237E-004
 -1.972410394024867E-004
 -1.996390907112930E-004
 -2.016862594772581E-004
 -2.033144210247925E-004
 -2.044502570387531E-004
 -2.050128927226185E-004
 -1.241085856938537E-004
 -1.700899757238527E-004
 -1.739776512035742E-004
 -1.788914658655829E-004
 -1.833507757450148E-004
 -1.875812629667999E-004
 -1.915541751643365E-004
 -1.952575488372392E-004
 -1.986709003531830E-004
 -2.017668151678560E-004
 -2.045126270892092E-004
 -2.068702190097278E-004
 -2.087948247351135E-004
 -2.102329834372852E-004
 -2.111199339282461E-004
 -1.351204468189430E-004
 -1.654491561039979E-004
 -1.729600238464794E-004
 -1.793706317457291E-004
 -1.851081440372217E-004
 -1.902734713822860E-004
 -1.949679339429705E-004
 -1.992314455191019E-004
 -2.030854868200646E-004
 -2.065383811969236E-004
 -2.095890060343263E-004
 -2.122277703156942E-004
 -2.144357300660361E-004
 -2.161823688429841E-004
 -2.174223766852929E-004
 -1.439694595323791E-004
 -1.637576380998370E-004
 -1.731239892343137E-004
 -1.808660863635525E-004
 -1.875695199991959E-004
 -1.934900725560640E-004
 -1.987619878143272E-004
 -2.034692772249283E-004
 -2.076671116311267E-004
 -2.113958545140848E-004
 -2.146853367471319E-004
 -2.175559606539123E-004
 -2.200175550334511E-004
 -2.220664886275898E-004
 -2.236812546357802E-004
 -1.514382965965259E-004
 -1.647832765520827E-004
 -1.748046244286678E-004
 -1.833147357194009E-004
 -1.906749045647718E-004
 -1.971276587603735E-004
 -2.028093082967827E-004
 -2.078204784733000E-004
 -2.122418117880813E-004
 -2.161420288565524E-004
 -2.195816114178209E-004
 -2.226131375756679E-004
 -2.252793671161171E-004
 -2.276091127879201E-004
 -2.296108776540801E-004
 -1.578318378425901E-004
 -1.675383283894622E-004
 -1.776677879883753E-004
 -1.864849181421902E-004
 -1.942370715809457E-004
 -2.010129998005038E-004
 -2.069295455506508E-004
 -2.120918988646386E-004
 -2.165990361116853E-004
 -2.205454684881786E-004
 -2.240228160214673E-004
 -2.271194366128861E-004
 -2.299172285264409E-004
 -2.324860818085697E-004
 -2.348741429114599E-004
 -1.610550670455779E-004
 -1.711252364412243E-004
 -1.809914601803221E-004
 -1.900412060401347E-004
 -1.979938952817372E-004
 -2.049163456472472E-004
 -2.109003988494418E-004
 -2.160568123998018E-004
 -2.205000981208216E-004
 -2.243483534116791E-004
 -2.277252238518054E-004
 -2.307597097171666E-004
 -2.335830443144177E-004
 -2.363195529534992E-004
 -2.390745333472534E-004
 -1.631100901205834E-004
 -1.741875869320347E-004
 -1.844294226824995E-004
 -1.936181060507813E-004
 -2.016589213241518E-004
 -2.085759670305200E-004
 -2.144720597397299E-004
 -2.194676224712183E-004
 -2.236916085973387E-004
 -2.272812221248472E-004
 -2.303891597289226E-004
 -2.331917191547433E-004
 -2.358825104294299E-004
 -2.386672871848626E-004
 -2.417374779991386E-004
 -1.645034752730791E-004
 -1.767689579816416E-004
 -1.875501411678699E-004
 -1.969180915576618E-004
 -2.049393507445305E-004
 -2.117173713443995E-004
 -2.173810266281771E-004
 -2.220695702882630E-004
 -2.259229319181218E-004
 -2.290867577715160E-004
 -2.317281759233823E-004
 -2.340622572744551E-004
 -2.363794892764157E-004
 -2.389925176677191E-004
 -2.422664591302523E-004
 -1.655271771459371E-004
 -1.788936275969151E-004
 -1.901820952869791E-004
 -1.996622315708664E-004
 -2.075562774503952E-004
 -2.140617423288513E-004
 -2.193594978795831E-004
 -2.236118547486074E-004
 -2.269636018751463E-004
 -2.295512501883717E-004
 -2.315227546344896E-004
 -2.330826998928872E-004
 -2.345819212298764E-004
 -2.366398846647711E-004
 -2.397893206269946E-004
 -1.663521457748672E-004
 -1.805832583434044E-004
 -1.921942498720362E-004
 -2.016260600569762E-004
 -2.092394159277600E-004
 -2.153299322441759E-004
 -2.201373069622796E-004
 -2.238509745426010E-004
 -2.266135308183245E-004
 -2.285294734673191E-004
 -2.296885427029408E-004
 -2.301851621729057E-004
 -2.302414555312735E-004
 -2.304887691699965E-004
 -2.328653163376501E-004
 -1.671071659080431E-004
 -1.818354932951482E-004
 -1.934655648111372E-004
 -2.025986128695311E-004
 -2.097252186589460E-004
 -2.152370451649681E-004
 -2.194364113633541E-004
 -2.225407457719235E-004
 -2.246919532576471E-004
 -2.259494663941689E-004
 -2.262924877375243E-004
 -2.256789582795539E-004
 -2.238356277411570E-004
 -2.212006997994073E-004
 -2.156220431090697E-004
 -1.679035819421818E-004
 -1.826324196909627E-004
 -1.938684426204807E-004
 -2.023678198760539E-004
 -2.087444797063439E-004
 -2.134841631810982E-004
 -2.169549895764764E-004
 -2.194134719317760E-004
 -2.209934796240959E-004
 -2.217487063433499E-004
 -2.215479379367376E-004
 -2.200368973769191E-004
 -2.172009129589405E-004
 -2.060554060429484E-004
 -1.742181812689630E-004
 -1.688452826079311E-004
 -1.829441018633405E-004
 -1.932660085386260E-004
 -2.007140230473494E-004
 -2.060169049638153E-004
 -2.097499998859892E-004
 -2.123521250449193E-004
 -2.141312383057011E-004
 -2.152682647760106E-004
 -2.157172255044294E-004
 -2.155349589083210E-004
 -2.141554531844288E-004
 -1.961559585217065E-004
 -1.622940048715013E-004
 -1.675887488790319E-004
 -1.700279321202179E-004
 -1.827295953596345E-004
 -1.915123728104367E-004
 -1.974108957443085E-004
 -2.012537039032688E-004
 -2.036940749544899E-004
 -2.052383809088291E-004
 -2.062678078277594E-004
 -2.070288885793997E-004
 -2.076875303240999E-004
 -2.077975842765459E-004
 -1.976110141005046E-004
 -1.494332821585097E-004
 -1.513308009126674E-004
 -1.670279004319372E-004
 -1.715312976783564E-004
 -1.819341377327297E-004
 -1.884525681106672E-004
 -1.922295377208585E-004
 -1.941691943078405E-004
 -1.949769230787613E-004
 -1.952049428583972E-004
 -1.952996368046911E-004
 -1.956366203726484E-004
 -1.964557728182531E-004
 -1.978772611008391E-004
 -1.555693897439582E-004
 -1.267696626620301E-004
 -1.400975522729833E-004
 -1.540958132546917E-004
 -1.734073765882847E-004
 -1.804809327130737E-004
 -1.839167406210846E-004
 -1.849395127111811E-004
 -1.844959036546676E-004
 -1.832987244778377E-004
 -1.818915719197330E-004
 -1.807321525001672E-004
 -1.802900104800217E-004
 -1.810697307489229E-004
 -1.803045876814546E-004
 -1.159613335885745E-004
 -1.081854857044464E-004
 -1.202350389998172E-004
 -1.351212217019729E-004
 -1.756670394983736E-004
 -1.782525448630970E-004
 -1.776990774657811E-004
 -1.752958934469814E-004
 -1.719920744835468E-004
 -1.684394929433123E-004
 -1.650842683291761E-004
 -1.622844373427933E-004
 -1.604464519019764E-004
 -1.602824728511761E-004
 -1.573722693434436E-004
 -8.621188322376468E-005
 -8.346715484229341E-005
 -9.493898200851615E-005
 -1.101404415925793E-004
 -1.782655419231740E-004
 -1.750489315249997E-004
 -1.695031782450003E-004
 -1.629980105743783E-004
 -1.564292274539091E-004
 -1.502806590095097E-004
 -1.447805142475754E-004
 -1.400591690330413E-004
 -1.362821379309334E-004
 -1.338741417583436E-004
 -1.308305521806051E-004
 -6.857917552720080E-005
 -5.227160139861072E-005
 -6.303983835613330E-005
 -8.008064083211202E-005
 -1.810815917540448E-004
 -1.704818351742115E-004
 -1.588188013408860E-004
 -1.476085396080310E-004
 -1.375628436413704E-004
 -1.288017329092820E-004
 -1.211858610982542E-004
 -1.145252965942550E-004
 -1.086500141753007E-004
 -1.033508952138444E-004
 -9.881094215539816E-005
 -6.141442789143724E-005
 -1.450357912376937E-005
 -2.617668366516216E-005
 -4.411349004278942E-005
 -1.838281532048858E-004
 -1.636910978036433E-004
 -1.446585261391963E-004
 -1.284561550796042E-004
 -1.151389929061217E-004
 -1.040727656076759E-004
 -9.465533198919955E-005
 -8.635633892917872E-005
 -7.867871071491552E-005
 -7.111580339477230E-005
 -6.257281449897302E-005
 -4.953090767482770E-005
  1.573918459637470E-005
  1.698169360352970E-005
 -2.913517207757666E-007
 -1.857152483267601E-004
 -1.523489216655263E-004
 -1.251589756248685E-004
 -1.047830560652973E-004
 -8.897269508233440E-005
 -7.627310254122640E-005
 -6.563871984289688E-005
 -5.625873979296967E-005
 -4.741984130432964E-005
 -3.835196030728741E-005
 -2.822445311409528E-005
 -1.635433989189502E-005
  1.744759678964765E-005
  6.843278425372552E-005
  5.018224194514538E-005
 -1.810770108259189E-004
 -1.303977516177129E-004
 -9.864512623984613E-005
 -7.608434282088470E-005
 -5.910960413391355E-005
 -4.573008725419691E-005
 -3.465441294947513E-005
 -2.491584046981876E-005
 -1.568219367731129E-005
 -6.116520997282369E-006
  4.721122494834198E-006
  1.798937269507764E-005
  3.373398226999718E-005
  1.133272276969121E-004
  1.019315940061537E-004
SCALARS poroP double 
LOOKUP_TABLE default
  3.090673807468809E-006
  1.184264421976082E-006
  0.000000000000000E+000
  0.000000000000000E+000
  0.000000000000000E+000
  0.000000000000000E+000
  0.000000000000000E+000
  0.000000000000000E+000
  0.000000000000000E+000
  0.000000000000000E+000
  0.000000000000000E+000
  0.000000000000000E+000
  0.000000000000000E+000
  0.000000000000000E+000
  0.000000000000000E+000
  3.064321893275293E-006
  1.154031728679234E-006
  0.000000000000000E+000
  0.000000000000000E+000
  0.000000000000000E+000
  0.000000000000000E+000
  0.000000000000000E+000
  0.000000000000000E+000
  0.000000000000000E+000
  0.000000000000000E+000
  0.000000000000000E+000
  0.000000000000000E+000
  0.000000000000000E+000
  0.000000000000000E+000
  0.000000000000000E+000
  3.011063803510056E-006
  1.090115456524280E-006
  0.000000000000000E+000
  0.000000000000000E+000
  0.000000000000000E+000
  0.000000000000000E+000
  0.000000000000000E+000
  0.000000000000000E+000
  0.000000000000000E+000
  0.000000000000000E+000
  0.000000000000000E+000
  0.000000000000000E+000
  0.000000000000000E+000
  0.000000000000000E+000
  0.000000000000000E+000
  2.907261696082193E-006
  9.720109460261609E-007
  0.000000000000000E+000
  0.000000000000000E+000
  0.000000000000000E+000
  0.000000000000000E+000
  0.000000000000000E+000
  0.000000000000000E+000
  0.000000000000000E+000
  0.000000000000000E+000
  0.000000000000000E+000
  0.000000000000000E+000
  0.000000000000000E+000
  0.000000000000000E+000
  0.000000000000000E+000
  2.735446541217562E-006
  7.704846823609448E-007
  0.000000000000000E+000
  0.000000000000000E+000
  0.000000000000000E+000
  0.000000000000000E+000
  0.000000000000000E+000
  0.000000000000000E+000
  0.000000000000000E+000
  0.000000000000000E+000
  0.000000000000000E+000
  0.000000000000000E+000
  0.000000000000000E+000
  0.000000000000000E+000
  0.000000000000000E+000
  2.489536625525328E-006
  4.892649828708682E-007
  0.000000000000000E+000
  0.000000000000000E+000
  0.000000000000000E+000
  0.000000000000000E+000
  0.000000000000000E+000
  0.000000000000000E+000
  0.000000000000000E+000
  0.000000000000000E+000
  0.000000000000000E+000
  0.000000000000000E+000
  0.000000000000000E+000
  0.000000000000000E+000
  0.000000000000000E+000
  2.164981314793732E-006
  3.059170719924982E-007
  0.000000000000000E+000
  0.000000000000000E+000
  0.000000000000000E+000
  0.000000000000000E+000
  0.000000000000000E+000
  0.000000000000000E+000
  0.000000000000000E+000
  0.000000000000000E+000
  0.000000000000000E+000
  0.000000000000000E+000
  0.000000000000000E+000
  0.000000000000000E+000
  0.000000000000000E+000
  1.729619629059645E-006
  1.137672345430573E-007
  0.000000000000000E+000
  0.000000000000000E+000
  0.000000000000000E+000
  0.000000000000000E+000
  0.000000000000000E+000
  0.000000000000000E+000
  0.000000000000000E+000
  0.000000000000000E+000
  0.000000000000000E+000
  0.000000000000000E+000
  0.000000000000000E+000
  0.000000000000000E+000
  0.000000000000000E+000
  1.201047939238447E-006
  0.000000000000000E+000
  0.000000000000000E+000
  0.000000000000000E+000
  0.000000000000000E+000
  0.000000000000000E+000
  0.000000000000000E+000
  0.000000000000000E+000
  0.000000000000000E+000
  0.000000000000000E+000
  0.000000000000000E+000
  0.000000000000000E+000
  0.000000000000000E+000
  0.000000000000000E+000
  0.000000000000000E+000
  6.075722988717405E-007
  0.000000000000000E+000
  0.000000000000000E+000
  0.000000000000000E+000
  0.000000000000000E+000
  0.000000000000000E+000
  0.000000000000000E+000
  0.000000000000000E+000
  0.000000000000000E+000
  0.000000000000000E+000
  0.000000000000000E+000
  0.000000000000000E+000
  0.000000000000000E+000
  0.000000000000000E+000
  0.000000000000000E+000
  2.200331809216961E-007
  0.000000000000000E+000
  0.000000000000000E+000
  0.000000000000000E+000
  0.000000000000000E+000
  0.000000000000000E+000
  0.000000000000000E+000
  0.000000000000000E+000
  0.000000000000000E+000
  0.000000000000000E+000
  0.000000000000000E+000
  0.000000000000000E+000
  0.000000000000000E+000
  0.000000000000000E+000
  0.000000000000000E+000
  5.277695953763608E-009
  0.000000000000000E+000
  0.000000000000000E+000
  0.000000000000000E+000
  0.000000000000000E+000
  0.000000000000000E+000
  0.000000000000000E+000
  0.000000000000000E+000
  0.000000000000000E+000
  0.000000000000000E+000
  0.000000000000000E+000
  0.000000000000000E+000
  0.000000000000000E+000
  0.000000000000000E+000
  0.000000000000000E+000
  0.000000000000000E+000
  0.000000000000000E+000
  0.000000000000000E+000
  0.000000000000000E+000
  0.000000000000000E+000
  0.000000000000000E+000
  0.000000000000000E+000
  0.000000000000000E+000
  0.000000000000000E+000
  0.000000000000000E+000
  0.000000000000000E+000
  0.000000000000000E+000
  0.000000000000000E+000
  0.000000000000000E+000
  0.000000000000000E+000
  0.000000000000000E+000
  0.000000000000000E+000
  0.000000000000000E+000
  0.000000000000000E+000
  0.000000000000000E+000
  0.000000000000000E+000
  0.000000000000000E+000
  0.000000000000000E+000
  0.000000000000000E+000
  0.000000000000000E+000
  0.000000000000000E+000
  0.000000000000000E+000
  0.000000000000000E+000
  0.000000000000000E+000
  0.000000000000000E+000
  0.000000000000000E+000
  0.000000000000000E+000
  0.000000000000000E+000
  0.000000000000000E+000
  0.000000000000000E+000
  0.000000000000000E+000
  0.000000000000000E+000
  0.000000000000000E+000
  0.000000000000000E+000
  0.000000000000000E+000
  0.000000000000000E+000
  0.000000000000000E+000
  0.000000000000000E+000
  0.000000000000000E+000
  0.000000000000000E+000
  0.000000000000000E+000
  0.000000000000000E+000
  0.000000000000000E+000
  0.000000000000000E+000
  0.000000000000000E+000
  0.000000000000000E+000
  0.000000000000000E+000
  0.000000000000000E+000
  0.000000000000000E+000
  0.000000000000000E+000
  0.000000000000000E+000
  0.000000000000000E+000
  0.000000000000000E+000
  0.000000000000000E+000
  0.000000000000000E+000
  0.000000000000000E+000
  0.000000000000000E+000
  0.000000000000000E+000
  0.000000000000000E+000
  0.000000000000000E+000
  0.000000000000000E+000
  0.000000000000000E+000
  0.000000000000000E+000
  0.000000000000000E+000
  0.000000000000000E+000
  0.000000000000000E+000
  0.000000000000000E+000
  0.000000000000000E+000
  0.000000000000000E+000
  0.000000000000000E+000
  0.000000000000000E+000
  0.000000000000000E+000
  0.000000000000000E+000
  0.000000000000000E+000
  0.000000000000000E+000
  0.000000000000000E+000
  0.000000000000000E+000
  0.000000000000000E+000
  0.000000000000000E+000
  0.000000000000000E+000
  0.000000000000000E+000
  0.000000000000000E+000
  0.000000000000000E+000
  0.000000000000000E+000
  0.000000000000000E+000
  0.000000000000000E+000
  0.000000000000000E+000
  0.000000000000000E+000
  0.000000000000000E+000
  0.000000000000000E+000
  0.000000000000000E+000
  0.000000000000000E+000
  0.000000000000000E+000
  0.000000000000000E+000
  0.000000000000000E+000
  0.000000000000000E+000
  0.000000000000000E+000
  0.000000000000000E+000
  0.000000000000000E+000
  0.000000000000000E+000
  0.000000000000000E+000
  0.000000000000000E+000
  0.000000000000000E+000
  0.000000000000000E+000
  0.000000000000000E+000
  0.000000000000000E+000
  0.000000000000000E+000
  0.000000000000000E+000
  0.000000000000000E+000
  0.000000000000000E+000
  0.000000000000000E+000
  0.000000000000000E+000
  0.000000000000000E+000
  3.613151521010142E-008
  5.937453912942843E-007
  0.000000000000000E+000
  0.000000000000000E+000
  0.000000000000000E+000
  0.000000000000000E+000
  0.000000000000000E+000
  0.000000000000000E+000
  0.000000000000000E+000
  0.000000000000000E+000
  0.000000000000000E+000
  0.000000000000000E+000
  0.000000000000000E+000
  0.000000000000000E+000
  1.818114798185549E-007
  1.069178824943521E-006
  2.198977790917533E-006
  0.000000000000000E+000
  0.000000000000000E+000
  0.000000000000000E+000
  0.000000000000000E+000
  0.000000000000000E+000
  0.000000000000000E+000
  0.000000000000000E+000
  0.000000000000000E+000
  0.000000000000000E+000
  0.000000000000000E+000
  0.000000000000000E+000
  1.494872706887565E-007
  1.231974862795282E-006
  2.652986366786826E-006
  3.785232714059750E-006
  0.000000000000000E+000
  0.000000000000000E+000
  0.000000000000000E+000
  0.000000000000000E+000
  0.000000000000000E+000
  0.000000000000000E+000
  0.000000000000000E+000
  0.000000000000000E+000
  0.000000000000000E+000
  0.000000000000000E+000
  1.873052279356825E-009
  7.771207849766276E-007
  2.417762221035722E-006
  4.008231869271304E-006
  5.285396512671322E-006
  0.000000000000000E+000
  0.000000000000000E+000
  0.000000000000000E+000
  0.000000000000000E+000
  0.000000000000000E+000
  0.000000000000000E+000
  0.000000000000000E+000
  0.000000000000000E+000
  0.000000000000000E+000
  0.000000000000000E+000
  8.941606475023305E-008
  1.407387473466808E-006
  3.252667622316889E-006
  5.083982119233035E-006
  6.695522953775750E-006
  0.000000000000000E+000
  0.000000000000000E+000
  0.000000000000000E+000
  0.000000000000000E+000
  0.000000000000000E+000
  0.000000000000000E+000
  0.000000000000000E+000
  0.000000000000000E+000
  0.000000000000000E+000
  0.000000000000000E+000
  1.108934588174715E-007
  1.634050076175915E-006
  3.673641201634744E-006
  5.838583054361720E-006
  7.968225795608626E-006
  0.000000000000000E+000
  0.000000000000000E+000
  0.000000000000000E+000
  0.000000000000000E+000
  0.000000000000000E+000
  0.000000000000000E+000
  0.000000000000000E+000
  0.000000000000000E+000
  0.000000000000000E+000
  0.000000000000000E+000
  5.755676047419584E-008
  1.415932611405272E-006
  3.631727061477238E-006
  6.177733892831496E-006
  8.985127792868785E-006
  0.000000000000000E+000
  0.000000000000000E+000
  0.000000000000000E+000
  0.000000000000000E+000
  0.000000000000000E+000
  0.000000000000000E+000
  0.000000000000000E+000
  0.000000000000000E+000
  0.000000000000000E+000
  0.000000000000000E+000
  0.000000000000000E+000
  7.814137410938728E-007
  3.083054807929533E-006
  6.021505148249896E-006
  9.641813809153937E-006
  0.000000000000000E+000
  0.000000000000000E+000
  0.000000000000000E+000
  0.000000000000000E+000
  0.000000000000000E+000
  0.000000000000000E+000
  0.000000000000000E+000
  0.000000000000000E+000
  0.000000000000000E+000
  0.000000000000000E+000
  0.000000000000000E+000
  8.901489558805799E-008
  2.006688072987680E-006
  5.287806145640704E-006
  9.857458038509120E-006
  0.000000000000000E+000
  0.000000000000000E+000
  0.000000000000000E+000
  0.000000000000000E+000
  0.000000000000000E+000
  0.000000000000000E+000
  0.000000000000000E+000
  0.000000000000000E+000
  0.000000000000000E+000
  0.000000000000000E+000
  0.000000000000000E+000
  0.000000000000000E+000
  5.941449100787084E-007
  3.856074589908373E-006
  9.566378400212202E-006
  3.991557844373531E-009
  0.000000000000000E+000
  0.000000000000000E+000
  0.000000000000000E+000
  0.000000000000000E+000
  0.000000000000000E+000
  0.000000000000000E+000
  0.000000000000000E+000
  0.000000000000000E+000
  0.000000000000000E+000
  0.000000000000000E+000
  0.000000000000000E+000
  0.000000000000000E+000
  1.874990877390123E-006
  8.700081435213861E-006
SCALARS elementIsPlast double 
LOOKUP_TABLE default
   1.00000000000000     
   1.00000000000000     
  0.000000000000000E+000
  0.000000000000000E+000
  0.000000000000000E+000
  0.000000000000000E+000
  0.000000000000000E+000
  0.000000000000000E+000
  0.000000000000000E+000
  0.000000000000000E+000
  0.000000000000000E+000
  0.000000000000000E+000
  0.000000000000000E+000
  0.000000000000000E+000
  0.000000000000000E+000
   1.00000000000000     
   1.00000000000000     
  0.000000000000000E+000
  0.000000000000000E+000
  0.000000000000000E+000
  0.000000000000000E+000
  0.000000000000000E+000
  0.000000000000000E+000
  0.000000000000000E+000
  0.000000000000000E+000
  0.000000000000000E+000
  0.000000000000000E+000
  0.000000000000000E+000
  0.000000000000000E+000
  0.000000000000000E+000
   1.00000000000000     
   1.00000000000000     
  0.000000000000000E+000
  0.000000000000000E+000
  0.000000000000000E+000
  0.000000000000000E+000
  0.000000000000000E+000
  0.000000000000000E+000
  0.000000000000000E+000
  0.000000000000000E+000
  0.000000000000000E+000
  0.000000000000000E+000
  0.000000000000000E+000
  0.000000000000000E+000
  0.000000000000000E+000
   1.00000000000000     
   1.00000000000000     
  0.000000000000000E+000
  0.000000000000000E+000
  0.000000000000000E+000
  0.000000000000000E+000
  0.000000000000000E+000
  0.000000000000000E+000
  0.000000000000000E+000
  0.000000000000000E+000
  0.000000000000000E+000
  0.000000000000000E+000
  0.000000000000000E+000
  0.000000000000000E+000
  0.000000000000000E+000
   1.00000000000000     
   1.00000000000000     
  0.000000000000000E+000
  0.000000000000000E+000
  0.000000000000000E+000
  0.000000000000000E+000
  0.000000000000000E+000
  0.000000000000000E+000
  0.000000000000000E+000
  0.000000000000000E+000
  0.000000000000000E+000
  0.000000000000000E+000
  0.000000000000000E+000
  0.000000000000000E+000
  0.000000000000000E+000
   1.00000000000000     
   1.00000000000000     
  0.000000000000000E+000
  0.000000000000000E+000
  0.000000000000000E+000
  0.000000000000000E+000
  0.000000000000000E+000
  0.000000000000000E+000
  0.000000000000000E+000
  0.000000000000000E+000
  0.000000000000000E+000
  0.000000000000000E+000
  0.000000000000000E+000
  0.000000000000000E+000
  0.000000000000000E+000
   1.00000000000000     
   1.00000000000000     
  0.000000000000000E+000
  0.000000000000000E+000
  0.000000000000000E+000
  0.000000000000000E+000
  0.000000000000000E+000
  0.000000000000000E+000
  0.000000000000000E+000
  0.000000000000000E+000
  0.000000000000000E+000
  0.000000000000000E+000
  0.000000000000000E+000
  0.000000000000000E+000
  0.000000000000000E+000
   1.00000000000000     
   1.00000000000000     
  0.000000000000000E+000
  0.000000000000000E+000
  0.000000000000000E+000
  0.000000000000000E+000
  0.000000000000000E+000
  0.000000000000000E+000
  0.000000000000000E+000
  0.000000000000000E+000
  0.000000000000000E+000
  0.000000000000000E+000
  0.000000000000000E+000
  0.000000000000000E+000
  0.000000000000000E+000
   1.00000000000000     
  0.000000000000000E+000
  0.000000000000000E+000
  0.000000000000000E+000
  0.000000000000000E+000
  0.000000000000000E+000
  0.000000000000000E+000
  0.000000000000000E+000
  0.000000000000000E+000
  0.000000000000000E+000
  0.000000000000000E+000
  0.000000000000000E+000
  0.000000000000000E+000
  0.000000000000000E+000
  0.000000000000000E+000
   1.00000000000000     
  0.000000000000000E+000
  0.000000000000000E+000
  0.000000000000000E+000
  0.000000000000000E+000
  0.000000000000000E+000
  0.000000000000000E+000
  0.000000000000000E+000
  0.000000000000000E+000
  0.000000000000000E+000
  0.000000000000000E+000
  0.000000000000000E+000
  0.000000000000000E+000
  0.000000000000000E+000
  0.000000000000000E+000
   1.00000000000000     
  0.000000000000000E+000
  0.000000000000000E+000
  0.000000000000000E+000
  0.000000000000000E+000
  0.000000000000000E+000
  0.000000000000000E+000
  0.000000000000000E+000
  0.000000000000000E+000
  0.000000000000000E+000
  0.000000000000000E+000
  0.000000000000000E+000
  0.000000000000000E+000
  0.000000000000000E+000
  0.000000000000000E+000
   1.00000000000000     
  0.000000000000000E+000
  0.000000000000000E+000
  0.000000000000000E+000
  0.000000000000000E+000
  0.000000000000000E+000
  0.000000000000000E+000
  0.000000000000000E+000
  0.000000000000000E+000
  0.000000000000000E+000
  0.000000000000000E+000
  0.000000000000000E+000
  0.000000000000000E+000
  0.000000000000000E+000
  0.000000000000000E+000
  0.000000000000000E+000
  0.000000000000000E+000
  0.000000000000000E+000
  0.000000000000000E+000
  0.000000000000000E+000
  0.000000000000000E+000
  0.000000000000000E+000
  0.000000000000000E+000
  0.000000000000000E+000
  0.000000000000000E+000
  0.000000000000000E+000
  0.000000000000000E+000
  0.000000000000000E+000
  0.000000000000000E+000
  0.000000000000000E+000
  0.000000000000000E+000
  0.000000000000000E+000
  0.000000000000000E+000
  0.000000000000000E+000
  0.000000000000000E+000
  0.000000000000000E+000
  0.000000000000000E+000
  0.000000000000000E+000
  0.000000000000000E+000
  0.000000000000000E+000
  0.000000000000000E+000
  0.000000000000000E+000
  0.000000000000000E+000
  0.000000000000000E+000
  0.000000000000000E+000
  0.000000000000000E+000
  0.000000000000000E+000
  0.000000000000000E+000
  0.000000000000000E+000
  0.000000000000000E+000
  0.000000000000000E+000
  0.000000000000000E+000
  0.000000000000000E+000
  0.000000000000000E+000
  0.000000000000000E+000
  0.000000000000000E+000
  0.000000000000000E+000
  0.000000000000000E+000
  0.000000000000000E+000
  0.000000000000000E+000
  0.000000000000000E+000
  0.000000000000000E+000
  0.000000000000000E+000
  0.000000000000000E+000
  0.000000000000000E+000
  0.000000000000000E+000
  0.000000000000000E+000
  0.000000000000000E+000
  0.000000000000000E+000
  0.000000000000000E+000
  0.000000000000000E+000
  0.000000000000000E+000
  0.000000000000000E+000
  0.000000000000000E+000
  0.000000000000000E+000
  0.000000000000000E+000
  0.000000000000000E+000
  0.000000000000000E+000
  0.000000000000000E+000
  0.000000000000000E+000
  0.000000000000000E+000
  0.000000000000000E+000
  0.000000000000000E+000
  0.000000000000000E+000
  0.000000000000000E+000
  0.000000000000000E+000
  0.000000000000000E+000
  0.000000000000000E+000
  0.000000000000000E+000
  0.000000000000000E+000
  0.000000000000000E+000
  0.000000000000000E+000
  0.000000000000000E+000
  0.000000000000000E+000
  0.000000000000000E+000
  0.000000000000000E+000
  0.000000000000000E+000
  0.000000000000000E+000
  0.000000000000000E+000
  0.000000000000000E+000
  0.000000000000000E+000
  0.000000000000000E+000
  0.000000000000000E+000
  0.000000000000000E+000
  0.000000000000000E+000
  0.000000000000000E+000
  0.000000000000000E+000
  0.000000000000000E+000
  0.000000000000000E+000
  0.000000000000000E+000
  0.000000000000000E+000
  0.000000000000000E+000
  0.000000000000000E+000
  0.000000000000000E+000
  0.000000000000000E+000
  0.000000000000000E+000
  0.000000000000000E+000
  0.000000000000000E+000
  0.000000000000000E+000
  0.000000000000000E+000
  0.000000000000000E+000
  0.000000000000000E+000
  0.000000000000000E+000
  0.000000000000000E+000
  0.000000000000000E+000
  0.000000000000000E+000
  0.000000000000000E+000
  0.000000000000000E+000
  0.000000000000000E+000
  0.000000000000000E+000
  0.000000000000000E+000
  0.000000000000000E+000
  0.000000000000000E+000
   1.00000000000000     
   1.00000000000000     
  0.000000000000000E+000
  0.000000000000000E+000
  0.000000000000000E+000
  0.000000000000000E+000
  0.000000000000000E+000
  0.000000000000000E+000
  0.000000000000000E+000
  0.000000000000000E+000
  0.000000000000000E+000
  0.000000000000000E+000
  0.000000000000000E+000
  0.000000000000000E+000
   1.00000000000000     
   1.00000000000000     
   1.00000000000000     
  0.000000000000000E+000
  0.000000000000000E+000
  0.000000000000000E+000
  0.000000000000000E+000
  0.000000000000000E+000
  0.000000000000000E+000
  0.000000000000000E+000
  0.000000000000000E+000
  0.000000000000000E+000
  0.000000000000000E+000
  0.000000000000000E+000
   1.00000000000000     
   1.00000000000000     
   1.00000000000000     
   1.00000000000000     
  0.000000000000000E+000
  0.000000000000000E+000
  0.000000000000000E+000
  0.000000000000000E+000
  0.000000000000000E+000
  0.000000000000000E+000
  0.000000000000000E+000
  0.000000000000000E+000
  0.000000000000000E+000
  0.000000000000000E+000
   1.00000000000000     
   1.00000000000000     
   1.00000000000000     
   1.00000000000000     
   1.00000000000000     
  0.000000000000000E+000
  0.000000000000000E+000
  0.000000000000000E+000
  0.000000000000000E+000
  0.000000000000000E+000
  0.000000000000000E+000
  0.000000000000000E+000
  0.000000000000000E+000
  0.000000000000000E+000
  0.000000000000000E+000
   1.00000000000000     
   1.00000000000000     
   1.00000000000000     
   1.00000000000000     
   1.00000000000000     
  0.000000000000000E+000
  0.000000000000000E+000
  0.000000000000000E+000
  0.000000000000000E+000
  0.000000000000000E+000
  0.000000000000000E+000
  0.000000000000000E+000
  0.000000000000000E+000
  0.000000000000000E+000
  0.000000000000000E+000
   1.00000000000000     
   1.00000000000000     
   1.00000000000000     
   1.00000000000000     
   1.00000000000000     
  0.000000000000000E+000
  0.000000000000000E+000
  0.000000000000000E+000
  0.000000000000000E+000
  0.000000000000000E+000
  0.000000000000000E+000
  0.000000000000000E+000
  0.000000000000000E+000
  0.000000000000000E+000
  0.000000000000000E+000
   1.00000000000000     
   1.00000000000000     
   1.00000000000000     
   1.00000000000000     
   1.00000000000000     
  0.000000000000000E+000
  0.000000000000000E+000
  0.000000000000000E+000
  0.000000000000000E+000
  0.000000000000000E+000
  0.000000000000000E+000
  0.000000000000000E+000
  0.000000000000000E+000
  0.000000000000000E+000
  0.000000000000000E+000
  0.000000000000000E+000
   1.00000000000000     
   1.00000000000000     
   1.00000000000000     
   1.00000000000000     
  0.000000000000000E+000
  0.000000000000000E+000
  0.000000000000000E+000
  0.000000000000000E+000
  0.000000000000000E+000
  0.000000000000000E+000
  0.000000000000000E+000
  0.000000000000000E+000
  0.000000000000000E+000
  0.000000000000000E+000
  0.000000000000000E+000
   1.00000000000000     
   1.00000000000000     
   1.00000000000000     
   1.00000000000000     
  0.000000000000000E+000
  0.000000000000000E+000
  0.000000000000000E+000
  0.000000000000000E+000
  0.000000000000000E+000
  0.000000000000000E+000
  0.000000000000000E+000
  0.000000000000000E+000
  0.000000000000000E+000
  0.000000000000000E+000
  0.000000000000000E+000
  0.000000000000000E+000
   1.00000000000000     
   1.00000000000000     
   1.00000000000000     
  0.000000000000000E+000
  0.000000000000000E+000
  0.000000000000000E+000
  0.000000000000000E+000
  0.000000000000000E+000
  0.000000000000000E+000
  0.000000000000000E+000
  0.000000000000000E+000
  0.000000000000000E+000
  0.000000000000000E+000
  0.000000000000000E+000
  0.000000000000000E+000
  0.000000000000000E+000
   1.00000000000000     
   1.00000000000000     
SCALARS poroL double 
LOOKUP_TABLE default
  0.155997990578589     
  0.155996381753880     
  0.155994197535832     
  0.155991056917306     
  0.155988131388254     
  0.155985409800001     
  0.155982879071235     
  0.155980525480231     
  0.155978335647674     
  0.155976297014873     
  0.155974398049675     
  0.155972628349795     
  0.155970978720684     
  0.155969441250297     
  0.155968009388783     
  0.155997626934795     
  0.155996014548538     
  0.155993789708017     
  0.155990637629641     
  0.155987706615915     
  0.155984983679283     
  0.155982453761780     
  0.155980102011440     
  0.155977914496990     
  0.155975878374751     
  0.155973981928457     
  0.155972214620701     
  0.155970567147848     
  0.155969031506369     
  0.155967601068772     
  0.155996899454148     
  0.155995279498324     
  0.155992961972065     
  0.155989788298509     
  0.155986849716509     
  0.155984126393388     
  0.155981599351320     
  0.155979251990154     
  0.155977069607954     
  0.155975038888032     
  0.155973147794333     
  0.155971385538326     
  0.155969742606893     
  0.155968210817472     
  0.155966783389150     
  0.155995775207749     
  0.155994150279623     
  0.155991682403105     
  0.155988488118695     
  0.155985547792412     
  0.155982828930315     
  0.155980308666660     
  0.155977969496024     
  0.155975795960222     
  0.155973774260177     
  0.155971891964286     
  0.155970137945967     
  0.155968502394511     
  0.155966976866805     
  0.155965554356103     
  0.155994218437295     
  0.155992580750963     
  0.155989898875185     
  0.155986713263959     
  0.155983786655885     
  0.155981079337717     
  0.155978571894308     
  0.155976246161281     
  0.155974086381106     
  0.155972078329157     
  0.155970209157425     
  0.155968467333721     
  0.155966842671173     
  0.155965326389774     
  0.155963911188831     
  0.155992210027773     
  0.155990479662650     
  0.155987577260452     
  0.155984455434592     
  0.155981550172808     
  0.155978864287361     
  0.155976377136774     
  0.155974071637631     
  0.155971931892429     
  0.155969943366490     
  0.155968092769733     
  0.155966368098997     
  0.155964758712851     
  0.155963255420157     
  0.155961850562782     
  0.155989756284204     
  0.155987925418588     
  0.155984803443476     
  0.155981693218361     
  0.155978824322904     
  0.155976168844268     
  0.155973710990347     
  0.155971433989429     
  0.155969322094940     
  0.155967360436344     
  0.155965535219877     
  0.155963833881509     
  0.155962245237330     
  0.155960759609210     
  0.155959368922600     
  0.155986760361072     
  0.155984695291441     
  0.155981478434034     
  0.155978417826951     
  0.155975591497023     
  0.155972977220012     
  0.155970558673363     
  0.155968320072315     
  0.155966245561671     
  0.155964319807244     
  0.155962528360229     
  0.155960857967851     
  0.155959296799767     
  0.155957834612125     
  0.155956462859420     
  0.155983248368981     
  0.155980813948010     
  0.155977589293690     
  0.155974605687376     
  0.155971834277979     
  0.155969271900675     
  0.155966904292802     
  0.155964715849783     
  0.155962690272788     
  0.155960811421623     
  0.155959063955339     
  0.155957433762766     
  0.155955908251691     
  0.155954476535208     
  0.155953129547666     
  0.155979088428896     
  0.155976285675920     
  0.155973159073700     
  0.155970238028359     
  0.155967532310322     
  0.155965033982801     
  0.155962730926354     
  0.155960606804326     
  0.155958644121020     
  0.155956825447732     
  0.155955134235451     
  0.155953555325122     
  0.155952075254729     
  0.155950682432897     
  0.155949367234111     
  0.155974314562599     
  0.155971205100793     
  0.155968148434721     
  0.155965295374535     
  0.155962662510300     
  0.155960242845460     
  0.155958021013412     
  0.155955978475733     
  0.155954095556333     
  0.155952352942712     
  0.155950732537091     
  0.155949217964393     
  0.155947794832880     
  0.155946450833289     
  0.155945175762562     
  0.155968790210706     
  0.155965557140702     
  0.155962527821919     
  0.155959743936599     
  0.155957198518119     
  0.155954876486190     
  0.155952756996472     
  0.155950817264652     
  0.155949034420108     
  0.155947386663537     
  0.155945854044737     
  0.155944418888844     
  0.155943065932716     
  0.155941782248669     
  0.155940557095466     
  0.155962619168590     
  0.155959238565906     
  0.155956244222110     
  0.155953544552890     
  0.155951110483833     
  0.155948912660844     
  0.155946922442915     
  0.155945111547913     
  0.155943453023167     
  0.155941922065594     
  0.155940496656188     
  0.155939157894549     
  0.155937889936131     
  0.155936679584687     
  0.155935515746355     
  0.155955465906678     
  0.155952147164937     
  0.155949229806540     
  0.155946654876005     
  0.155944368751840     
  0.155942330744410     
  0.155940503666980     
  0.155938853123633     
  0.155937347499694     
  0.155935958546584     
  0.155934662030090     
  0.155933438096056     
  0.155932271039279     
  0.155931148271772     
  0.155930058938442     
  0.155947358366182     
  0.155944182859483     
  0.155941429069671     
  0.155939035755466     
  0.155936947529991     
  0.155935114340271     
  0.155933491660661     
  0.155932038916050     
  0.155930719444032     
  0.155929501044929     
  0.155928356960805     
  0.155927266803021     
  0.155926216354077     
  0.155925195780783     
  0.155924196052811     
  0.155938262046892     
  0.155935313330852     
  0.155932800162513     
  0.155930658626548     
  0.155928828352865     
  0.155927253802552     
  0.155925884086525     
  0.155924672767009     
  0.155923577774836     
  0.155922562124734     
  0.155921595542712     
  0.155920656850330     
  0.155919735787846     
  0.155918829630180     
  0.155917936386370     
  0.155928147045692     
  0.155925511490734     
  0.155923321337528     
  0.155921506953467     
  0.155920002881702     
  0.155918748292362     
  0.155917686993382     
  0.155916767052410     
  0.155915940611012     
  0.155915164560944     
  0.155914402721511     
  0.155913630414972     
  0.155912841509598     
  0.155912052998349     
  0.155911281530472     
  0.155916989009134     
  0.155914761529114     
  0.155912983134532     
  0.155911577702201     
  0.155910474286865     
  0.155909607284965     
  0.155908915995643     
  0.155908343710265     
  0.155907836715442     
  0.155907343940715     
  0.155906819345497     
  0.155906227649699     
  0.155905557588229     
  0.155904848034950     
  0.155904205711264     
  0.155904775677248     
  0.155903060397233     
  0.155901789975925     
  0.155900881427689     
  0.155900258471139     
  0.155899851513046     
  0.155899596755544     
  0.155899434261365     
  0.155899305390649     
  0.155899150420718     
  0.155898907052217     
  0.155898519240086     
  0.155897949033042     
  0.155897213563488     
  0.155896513961132     
  0.155891510678632     
  0.155890420999034     
  0.155889762144112     
  0.155889443997339     
  0.155889385295059     
  0.155889513738581     
  0.155889764709561     
  0.155890078344478     
  0.155890394184442     
  0.155890645266544     
  0.155890752952731     
  0.155890615741069     
  0.155890152331112     
  0.155889289818689     
  0.155888009061053     
  0.155877216747217     
  0.155876875164588     
  0.155876938542732     
  0.155877308943236     
  0.155877900441150     
  0.155878639694343     
  0.155879464573426     
  0.155880320318872     
  0.155881153010570     
  0.155881894125257     
  0.155882450038068     
  0.155882695113376     
  0.155882402782129     
  0.155881467075376     
  0.155879748859943     
  0.155861938202597     
  0.155862476694713     
  0.155863379975020     
  0.155864540635381     
  0.155865868090998     
  0.155867289855498     
  0.155868750221181     
  0.155870206526532     
  0.155871621198795     
  0.155872951895189     
  0.155874090596803     
  0.155874897182094     
  0.155874688305607     
  0.155873613724039     
  0.155871858736930     
  0.155845742871031     
  0.155847304710675     
  0.155849173283425     
  0.155851228526122     
  0.155853374761255     
  0.155855542489395     
  0.155857686734733     
  0.155859783394241     
  0.155861824979299     
  0.155863807240110     
  0.155865745436362     
  0.155866852474879     
  0.155866654594331     
  0.155865711068029     
  0.155864051168580     
  0.155828723787764     
  0.155831467989367     
  0.155834437044071     
  0.155837492954073     
  0.155840534480878     
  0.155843498239150     
  0.155846354750399     
  0.155849103603377     
  0.155851772160305     
  0.155854422647198     
  0.155857127296274     
  0.155858316150742     
  0.155858398336716     
  0.155857713791437     
  0.155856247177578     
  0.155811001473094     
  0.155815111758058     
  0.155819330217394     
  0.155823493238746     
  0.155827495228355     
  0.155831285383718     
  0.155834856761588     
  0.155838236130767     
  0.155841481578402     
  0.155844704498388     
  0.155847912056514     
  0.155849448338421     
  0.155849912179743     
  0.155849586812142     
  0.155848437003128     
  0.155792728609842     
  0.155798430228236     
  0.155804066633907     
  0.155809439111816     
  0.155814445834330     
  0.155819063898999     
  0.155823321599965     
  0.155827277561238     
  0.155831012606273     
  0.155834632192865     
  0.155838206961910     
  0.155840374778393     
  0.155841228160076     
  0.155841263795704     
  0.155840560184678     
  0.155774101298539     
  0.155781693505545     
  0.155788941022902     
  0.155795606182384     
  0.155801620891841     
  0.155807024663780     
  0.155811903356640     
  0.155816354225689     
  0.155820475973841     
  0.155824358696389     
  0.155828078895996     
  0.155831059720454     
  0.155832414145433     
  0.155832842823042     
  0.155832598267815     
  0.155755395291084     
  0.155765310821511     
  0.155774377589734     
  0.155782351723709     
  0.155789294688151     
  0.155795380246001     
  0.155800771837649     
  0.155805611497876     
  0.155810017093970     
  0.155814081739519     
  0.155817835410063     
  0.155821312169519     
  0.155823546258760     
  0.155824402399812     
  0.155824560126834     
  0.155737080089601     
  0.155750016812493     
  0.155761003891335     
  0.155770089025165     
  0.155777757743985     
  0.155784344322201     
  0.155790095446170     
  0.155795194704717     
  0.155799780333387     
  0.155803950228845     
  0.155807782464727     
  0.155811309393508     
  0.155814346009695     
  0.155816021071778     
  0.155816421468258     
  0.155720672675151     
  0.155737299960493     
  0.155749493327062     
  0.155759219926184     
  0.155767269072353     
  0.155774102663554     
  0.155780020260614     
  0.155785230430633     
  0.155789882592150     
  0.155794085212475     
  0.155797913327693     
  0.155801422252438     
  0.155804686635011     
  0.155806748415630     
  0.155808200837432     
