# vtk DataFile Version 3.0
vtk output
ASCII
DATASET UNSTRUCTURED_GRID
POINTS       496 double 
  0.00000000E+00  3.00000000E+02  0.00000000E+00
  0.00000000E+00  2.80000000E+02  0.00000000E+00
  0.00000000E+00  2.60000000E+02  0.00000000E+00
  0.00000000E+00  2.40000000E+02  0.00000000E+00
  0.00000000E+00  2.20000000E+02  0.00000000E+00
  0.00000000E+00  2.00000000E+02  0.00000000E+00
  0.00000000E+00  1.80000000E+02  0.00000000E+00
  0.00000000E+00  1.60000000E+02  0.00000000E+00
  0.00000000E+00  1.40000000E+02  0.00000000E+00
  0.00000000E+00  1.20000000E+02  0.00000000E+00
  0.00000000E+00  1.00000000E+02  0.00000000E+00
  0.00000000E+00  8.00000000E+01  0.00000000E+00
  0.00000000E+00  6.00000000E+01  0.00000000E+00
  0.00000000E+00  4.00000000E+01  0.00000000E+00
  0.00000000E+00  2.00000000E+01  0.00000000E+00
  0.00000000E+00  4.99600361E-14  0.00000000E+00
  2.00000000E+01  3.00000000E+02  0.00000000E+00
  2.00000000E+01  2.80000000E+02  0.00000000E+00
  2.00000000E+01  2.60000000E+02  0.00000000E+00
  2.00000000E+01  2.40000000E+02  0.00000000E+00
  2.00000000E+01  2.20000000E+02  0.00000000E+00
  2.00000000E+01  2.00000000E+02  0.00000000E+00
  2.00000000E+01  1.80000000E+02  0.00000000E+00
  2.00000000E+01  1.60000000E+02  0.00000000E+00
  2.00000000E+01  1.40000000E+02  0.00000000E+00
  2.00000000E+01  1.20000000E+02  0.00000000E+00
  2.00000000E+01  1.00000000E+02  0.00000000E+00
  2.00000000E+01  8.00000000E+01  0.00000000E+00
  2.00000000E+01  6.00000000E+01  0.00000000E+00
  2.00000000E+01  4.00000000E+01  0.00000000E+00
  2.00000000E+01  2.00000000E+01  0.00000000E+00
  2.00000000E+01  4.99600361E-14  0.00000000E+00
  4.00000000E+01  3.00000000E+02  0.00000000E+00
  4.00000000E+01  2.80000000E+02  0.00000000E+00
  4.00000000E+01  2.60000000E+02  0.00000000E+00
  4.00000000E+01  2.40000000E+02  0.00000000E+00
  4.00000000E+01  2.20000000E+02  0.00000000E+00
  4.00000000E+01  2.00000000E+02  0.00000000E+00
  4.00000000E+01  1.80000000E+02  0.00000000E+00
  4.00000000E+01  1.60000000E+02  0.00000000E+00
  4.00000000E+01  1.40000000E+02  0.00000000E+00
  4.00000000E+01  1.20000000E+02  0.00000000E+00
  4.00000000E+01  1.00000000E+02  0.00000000E+00
  4.00000000E+01  8.00000000E+01  0.00000000E+00
  4.00000000E+01  6.00000000E+01  0.00000000E+00
  4.00000000E+01  4.00000000E+01  0.00000000E+00
  4.00000000E+01  2.00000000E+01  0.00000000E+00
  4.00000000E+01  4.99600361E-14  0.00000000E+00
  6.00000000E+01  3.00000000E+02  0.00000000E+00
  6.00000000E+01  2.80000000E+02  0.00000000E+00
  6.00000000E+01  2.60000000E+02  0.00000000E+00
  6.00000000E+01  2.40000000E+02  0.00000000E+00
  6.00000000E+01  2.20000000E+02  0.00000000E+00
  6.00000000E+01  2.00000000E+02  0.00000000E+00
  6.00000000E+01  1.80000000E+02  0.00000000E+00
  6.00000000E+01  1.60000000E+02  0.00000000E+00
  6.00000000E+01  1.40000000E+02  0.00000000E+00
  6.00000000E+01  1.20000000E+02  0.00000000E+00
  6.00000000E+01  1.00000000E+02  0.00000000E+00
  6.00000000E+01  8.00000000E+01  0.00000000E+00
  6.00000000E+01  6.00000000E+01  0.00000000E+00
  6.00000000E+01  4.00000000E+01  0.00000000E+00
  6.00000000E+01  2.00000000E+01  0.00000000E+00
  6.00000000E+01  4.99600361E-14  0.00000000E+00
  8.00000000E+01  3.00000000E+02  0.00000000E+00
  8.00000000E+01  2.80000000E+02  0.00000000E+00
  8.00000000E+01  2.60000000E+02  0.00000000E+00
  8.00000000E+01  2.40000000E+02  0.00000000E+00
  8.00000000E+01  2.20000000E+02  0.00000000E+00
  8.00000000E+01  2.00000000E+02  0.00000000E+00
  8.00000000E+01  1.80000000E+02  0.00000000E+00
  8.00000000E+01  1.60000000E+02  0.00000000E+00
  8.00000000E+01  1.40000000E+02  0.00000000E+00
  8.00000000E+01  1.20000000E+02  0.00000000E+00
  8.00000000E+01  1.00000000E+02  0.00000000E+00
  8.00000000E+01  8.00000000E+01  0.00000000E+00
  8.00000000E+01  6.00000000E+01  0.00000000E+00
  8.00000000E+01  4.00000000E+01  0.00000000E+00
  8.00000000E+01  2.00000000E+01  0.00000000E+00
  8.00000000E+01  4.99600361E-14  0.00000000E+00
  1.00000000E+02  3.00000000E+02  0.00000000E+00
  1.00000000E+02  2.80000000E+02  0.00000000E+00
  1.00000000E+02  2.60000000E+02  0.00000000E+00
  1.00000000E+02  2.40000000E+02  0.00000000E+00
  1.00000000E+02  2.20000000E+02  0.00000000E+00
  1.00000000E+02  2.00000000E+02  0.00000000E+00
  1.00000000E+02  1.80000000E+02  0.00000000E+00
  1.00000000E+02  1.60000000E+02  0.00000000E+00
  1.00000000E+02  1.40000000E+02  0.00000000E+00
  1.00000000E+02  1.20000000E+02  0.00000000E+00
  1.00000000E+02  1.00000000E+02  0.00000000E+00
  1.00000000E+02  8.00000000E+01  0.00000000E+00
  1.00000000E+02  6.00000000E+01  0.00000000E+00
  1.00000000E+02  4.00000000E+01  0.00000000E+00
  1.00000000E+02  2.00000000E+01  0.00000000E+00
  1.00000000E+02  4.99600361E-14  0.00000000E+00
  1.20000000E+02  3.00000000E+02  0.00000000E+00
  1.20000000E+02  2.80000000E+02  0.00000000E+00
  1.20000000E+02  2.60000000E+02  0.00000000E+00
  1.20000000E+02  2.40000000E+02  0.00000000E+00
  1.20000000E+02  2.20000000E+02  0.00000000E+00
  1.20000000E+02  2.00000000E+02  0.00000000E+00
  1.20000000E+02  1.80000000E+02  0.00000000E+00
  1.20000000E+02  1.60000000E+02  0.00000000E+00
  1.20000000E+02  1.40000000E+02  0.00000000E+00
  1.20000000E+02  1.20000000E+02  0.00000000E+00
  1.20000000E+02  1.00000000E+02  0.00000000E+00
  1.20000000E+02  8.00000000E+01  0.00000000E+00
  1.20000000E+02  6.00000000E+01  0.00000000E+00
  1.20000000E+02  4.00000000E+01  0.00000000E+00
  1.20000000E+02  2.00000000E+01  0.00000000E+00
  1.20000000E+02  4.99600361E-14  0.00000000E+00
  1.40000000E+02  3.00000000E+02  0.00000000E+00
  1.40000000E+02  2.80000000E+02  0.00000000E+00
  1.40000000E+02  2.60000000E+02  0.00000000E+00
  1.40000000E+02  2.40000000E+02  0.00000000E+00
  1.40000000E+02  2.20000000E+02  0.00000000E+00
  1.40000000E+02  2.00000000E+02  0.00000000E+00
  1.40000000E+02  1.80000000E+02  0.00000000E+00
  1.40000000E+02  1.60000000E+02  0.00000000E+00
  1.40000000E+02  1.40000000E+02  0.00000000E+00
  1.40000000E+02  1.20000000E+02  0.00000000E+00
  1.40000000E+02  1.00000000E+02  0.00000000E+00
  1.40000000E+02  8.00000000E+01  0.00000000E+00
  1.40000000E+02  6.00000000E+01  0.00000000E+00
  1.40000000E+02  4.00000000E+01  0.00000000E+00
  1.40000000E+02  2.00000000E+01  0.00000000E+00
  1.40000000E+02  4.99600361E-14  0.00000000E+00
  1.60000000E+02  3.00000000E+02  0.00000000E+00
  1.60000000E+02  2.80000000E+02  0.00000000E+00
  1.60000000E+02  2.60000000E+02  0.00000000E+00
  1.60000000E+02  2.40000000E+02  0.00000000E+00
  1.60000000E+02  2.20000000E+02  0.00000000E+00
  1.60000000E+02  2.00000000E+02  0.00000000E+00
  1.60000000E+02  1.80000000E+02  0.00000000E+00
  1.60000000E+02  1.60000000E+02  0.00000000E+00
  1.60000000E+02  1.40000000E+02  0.00000000E+00
  1.60000000E+02  1.20000000E+02  0.00000000E+00
  1.60000000E+02  1.00000000E+02  0.00000000E+00
  1.60000000E+02  8.00000000E+01  0.00000000E+00
  1.60000000E+02  6.00000000E+01  0.00000000E+00
  1.60000000E+02  4.00000000E+01  0.00000000E+00
  1.60000000E+02  2.00000000E+01  0.00000000E+00
  1.60000000E+02  4.99600361E-14  0.00000000E+00
  1.80000000E+02  3.00000000E+02  0.00000000E+00
  1.80000000E+02  2.80000000E+02  0.00000000E+00
  1.80000000E+02  2.60000000E+02  0.00000000E+00
  1.80000000E+02  2.40000000E+02  0.00000000E+00
  1.80000000E+02  2.20000000E+02  0.00000000E+00
  1.80000000E+02  2.00000000E+02  0.00000000E+00
  1.80000000E+02  1.80000000E+02  0.00000000E+00
  1.80000000E+02  1.60000000E+02  0.00000000E+00
  1.80000000E+02  1.40000000E+02  0.00000000E+00
  1.80000000E+02  1.20000000E+02  0.00000000E+00
  1.80000000E+02  1.00000000E+02  0.00000000E+00
  1.80000000E+02  8.00000000E+01  0.00000000E+00
  1.80000000E+02  6.00000000E+01  0.00000000E+00
  1.80000000E+02  4.00000000E+01  0.00000000E+00
  1.80000000E+02  2.00000000E+01  0.00000000E+00
  1.80000000E+02  4.99600361E-14  0.00000000E+00
  2.00000000E+02  3.00000000E+02  0.00000000E+00
  2.00000000E+02  2.80000000E+02  0.00000000E+00
  2.00000000E+02  2.60000000E+02  0.00000000E+00
  2.00000000E+02  2.40000000E+02  0.00000000E+00
  2.00000000E+02  2.20000000E+02  0.00000000E+00
  2.00000000E+02  2.00000000E+02  0.00000000E+00
  2.00000000E+02  1.80000000E+02  0.00000000E+00
  2.00000000E+02  1.60000000E+02  0.00000000E+00
  2.00000000E+02  1.40000000E+02  0.00000000E+00
  2.00000000E+02  1.20000000E+02  0.00000000E+00
  2.00000000E+02  1.00000000E+02  0.00000000E+00
  2.00000000E+02  8.00000000E+01  0.00000000E+00
  2.00000000E+02  6.00000000E+01  0.00000000E+00
  2.00000000E+02  4.00000000E+01  0.00000000E+00
  2.00000000E+02  2.00000000E+01  0.00000000E+00
  2.00000000E+02  4.99600361E-14  0.00000000E+00
  2.20000000E+02  3.00000000E+02  0.00000000E+00
  2.20000000E+02  2.80000000E+02  0.00000000E+00
  2.20000000E+02  2.60000000E+02  0.00000000E+00
  2.20000000E+02  2.40000000E+02  0.00000000E+00
  2.20000000E+02  2.20000000E+02  0.00000000E+00
  2.20000000E+02  2.00000000E+02  0.00000000E+00
  2.20000000E+02  1.80000000E+02  0.00000000E+00
  2.20000000E+02  1.60000000E+02  0.00000000E+00
  2.20000000E+02  1.40000000E+02  0.00000000E+00
  2.20000000E+02  1.20000000E+02  0.00000000E+00
  2.20000000E+02  1.00000000E+02  0.00000000E+00
  2.20000000E+02  8.00000000E+01  0.00000000E+00
  2.20000000E+02  6.00000000E+01  0.00000000E+00
  2.20000000E+02  4.00000000E+01  0.00000000E+00
  2.20000000E+02  2.00000000E+01  0.00000000E+00
  2.20000000E+02  4.99600361E-14  0.00000000E+00
  2.40000000E+02  3.00000000E+02  0.00000000E+00
  2.40000000E+02  2.80000000E+02  0.00000000E+00
  2.40000000E+02  2.60000000E+02  0.00000000E+00
  2.40000000E+02  2.40000000E+02  0.00000000E+00
  2.40000000E+02  2.20000000E+02  0.00000000E+00
  2.40000000E+02  2.00000000E+02  0.00000000E+00
  2.40000000E+02  1.80000000E+02  0.00000000E+00
  2.40000000E+02  1.60000000E+02  0.00000000E+00
  2.40000000E+02  1.40000000E+02  0.00000000E+00
  2.40000000E+02  1.20000000E+02  0.00000000E+00
  2.40000000E+02  1.00000000E+02  0.00000000E+00
  2.40000000E+02  8.00000000E+01  0.00000000E+00
  2.40000000E+02  6.00000000E+01  0.00000000E+00
  2.40000000E+02  4.00000000E+01  0.00000000E+00
  2.40000000E+02  2.00000000E+01  0.00000000E+00
  2.40000000E+02  4.99600361E-14  0.00000000E+00
  2.60000000E+02  3.00000000E+02  0.00000000E+00
  2.60000000E+02  2.80000000E+02  0.00000000E+00
  2.60000000E+02  2.60000000E+02  0.00000000E+00
  2.60000000E+02  2.40000000E+02  0.00000000E+00
  2.60000000E+02  2.20000000E+02  0.00000000E+00
  2.60000000E+02  2.00000000E+02  0.00000000E+00
  2.60000000E+02  1.80000000E+02  0.00000000E+00
  2.60000000E+02  1.60000000E+02  0.00000000E+00
  2.60000000E+02  1.40000000E+02  0.00000000E+00
  2.60000000E+02  1.20000000E+02  0.00000000E+00
  2.60000000E+02  1.00000000E+02  0.00000000E+00
  2.60000000E+02  8.00000000E+01  0.00000000E+00
  2.60000000E+02  6.00000000E+01  0.00000000E+00
  2.60000000E+02  4.00000000E+01  0.00000000E+00
  2.60000000E+02  2.00000000E+01  0.00000000E+00
  2.60000000E+02  4.99600361E-14  0.00000000E+00
  2.80000000E+02  3.00000000E+02  0.00000000E+00
  2.80000000E+02  2.80000000E+02  0.00000000E+00
  2.80000000E+02  2.60000000E+02  0.00000000E+00
  2.80000000E+02  2.40000000E+02  0.00000000E+00
  2.80000000E+02  2.20000000E+02  0.00000000E+00
  2.80000000E+02  2.00000000E+02  0.00000000E+00
  2.80000000E+02  1.80000000E+02  0.00000000E+00
  2.80000000E+02  1.60000000E+02  0.00000000E+00
  2.80000000E+02  1.40000000E+02  0.00000000E+00
  2.80000000E+02  1.20000000E+02  0.00000000E+00
  2.80000000E+02  1.00000000E+02  0.00000000E+00
  2.80000000E+02  8.00000000E+01  0.00000000E+00
  2.80000000E+02  6.00000000E+01  0.00000000E+00
  2.80000000E+02  4.00000000E+01  0.00000000E+00
  2.80000000E+02  2.00000000E+01  0.00000000E+00
  2.80000000E+02  4.99600361E-14  0.00000000E+00
  3.00000000E+02  3.00000000E+02  0.00000000E+00
  3.00000000E+02  2.80000000E+02  0.00000000E+00
  3.00000000E+02  2.60000000E+02  0.00000000E+00
  3.00000000E+02  2.40000000E+02  0.00000000E+00
  3.00000000E+02  2.20000000E+02  0.00000000E+00
  3.00000000E+02  2.00000000E+02  0.00000000E+00
  3.00000000E+02  1.80000000E+02  0.00000000E+00
  3.00000000E+02  1.60000000E+02  0.00000000E+00
  3.00000000E+02  1.40000000E+02  0.00000000E+00
  3.00000000E+02  1.20000000E+02  0.00000000E+00
  3.00000000E+02  1.00000000E+02  0.00000000E+00
  3.00000000E+02  8.00000000E+01  0.00000000E+00
  3.00000000E+02  6.00000000E+01  0.00000000E+00
  3.00000000E+02  4.00000000E+01  0.00000000E+00
  3.00000000E+02  2.00000000E+01  0.00000000E+00
  3.00000000E+02  4.99600361E-14  0.00000000E+00
  3.20000000E+02  3.00000000E+02  0.00000000E+00
  3.20000000E+02  2.80000000E+02  0.00000000E+00
  3.20000000E+02  2.60000000E+02  0.00000000E+00
  3.20000000E+02  2.40000000E+02  0.00000000E+00
  3.20000000E+02  2.20000000E+02  0.00000000E+00
  3.20000000E+02  2.00000000E+02  0.00000000E+00
  3.20000000E+02  1.80000000E+02  0.00000000E+00
  3.20000000E+02  1.60000000E+02  0.00000000E+00
  3.20000000E+02  1.40000000E+02  0.00000000E+00
  3.20000000E+02  1.20000000E+02  0.00000000E+00
  3.20000000E+02  1.00000000E+02  0.00000000E+00
  3.20000000E+02  8.00000000E+01  0.00000000E+00
  3.20000000E+02  6.00000000E+01  0.00000000E+00
  3.20000000E+02  4.00000000E+01  0.00000000E+00
  3.20000000E+02  2.00000000E+01  0.00000000E+00
  3.20000000E+02  4.99600361E-14  0.00000000E+00
  3.40000000E+02  3.00000000E+02  0.00000000E+00
  3.40000000E+02  2.80000000E+02  0.00000000E+00
  3.40000000E+02  2.60000000E+02  0.00000000E+00
  3.40000000E+02  2.40000000E+02  0.00000000E+00
  3.40000000E+02  2.20000000E+02  0.00000000E+00
  3.40000000E+02  2.00000000E+02  0.00000000E+00
  3.40000000E+02  1.80000000E+02  0.00000000E+00
  3.40000000E+02  1.60000000E+02  0.00000000E+00
  3.40000000E+02  1.40000000E+02  0.00000000E+00
  3.40000000E+02  1.20000000E+02  0.00000000E+00
  3.40000000E+02  1.00000000E+02  0.00000000E+00
  3.40000000E+02  8.00000000E+01  0.00000000E+00
  3.40000000E+02  6.00000000E+01  0.00000000E+00
  3.40000000E+02  4.00000000E+01  0.00000000E+00
  3.40000000E+02  2.00000000E+01  0.00000000E+00
  3.40000000E+02  4.99600361E-14  0.00000000E+00
  3.60000000E+02  3.00000000E+02  0.00000000E+00
  3.60000000E+02  2.80000000E+02  0.00000000E+00
  3.60000000E+02  2.60000000E+02  0.00000000E+00
  3.60000000E+02  2.40000000E+02  0.00000000E+00
  3.60000000E+02  2.20000000E+02  0.00000000E+00
  3.60000000E+02  2.00000000E+02  0.00000000E+00
  3.60000000E+02  1.80000000E+02  0.00000000E+00
  3.60000000E+02  1.60000000E+02  0.00000000E+00
  3.60000000E+02  1.40000000E+02  0.00000000E+00
  3.60000000E+02  1.20000000E+02  0.00000000E+00
  3.60000000E+02  1.00000000E+02  0.00000000E+00
  3.60000000E+02  8.00000000E+01  0.00000000E+00
  3.60000000E+02  6.00000000E+01  0.00000000E+00
  3.60000000E+02  4.00000000E+01  0.00000000E+00
  3.60000000E+02  2.00000000E+01  0.00000000E+00
  3.60000000E+02  4.99600361E-14  0.00000000E+00
  3.80000000E+02  3.00000000E+02  0.00000000E+00
  3.80000000E+02  2.80000000E+02  0.00000000E+00
  3.80000000E+02  2.60000000E+02  0.00000000E+00
  3.80000000E+02  2.40000000E+02  0.00000000E+00
  3.80000000E+02  2.20000000E+02  0.00000000E+00
  3.80000000E+02  2.00000000E+02  0.00000000E+00
  3.80000000E+02  1.80000000E+02  0.00000000E+00
  3.80000000E+02  1.60000000E+02  0.00000000E+00
  3.80000000E+02  1.40000000E+02  0.00000000E+00
  3.80000000E+02  1.20000000E+02  0.00000000E+00
  3.80000000E+02  1.00000000E+02  0.00000000E+00
  3.80000000E+02  8.00000000E+01  0.00000000E+00
  3.80000000E+02  6.00000000E+01  0.00000000E+00
  3.80000000E+02  4.00000000E+01  0.00000000E+00
  3.80000000E+02  2.00000000E+01  0.00000000E+00
  3.80000000E+02  4.99600361E-14  0.00000000E+00
  4.00000000E+02  3.00000000E+02  0.00000000E+00
  4.00000000E+02  2.80000000E+02  0.00000000E+00
  4.00000000E+02  2.60000000E+02  0.00000000E+00
  4.00000000E+02  2.40000000E+02  0.00000000E+00
  4.00000000E+02  2.20000000E+02  0.00000000E+00
  4.00000000E+02  2.00000000E+02  0.00000000E+00
  4.00000000E+02  1.80000000E+02  0.00000000E+00
  4.00000000E+02  1.60000000E+02  0.00000000E+00
  4.00000000E+02  1.40000000E+02  0.00000000E+00
  4.00000000E+02  1.20000000E+02  0.00000000E+00
  4.00000000E+02  1.00000000E+02  0.00000000E+00
  4.00000000E+02  8.00000000E+01  0.00000000E+00
  4.00000000E+02  6.00000000E+01  0.00000000E+00
  4.00000000E+02  4.00000000E+01  0.00000000E+00
  4.00000000E+02  2.00000000E+01  0.00000000E+00
  4.00000000E+02  4.99600361E-14  0.00000000E+00
  4.20000000E+02  3.00000000E+02  0.00000000E+00
  4.20000000E+02  2.80000000E+02  0.00000000E+00
  4.20000000E+02  2.60000000E+02  0.00000000E+00
  4.20000000E+02  2.40000000E+02  0.00000000E+00
  4.20000000E+02  2.20000000E+02  0.00000000E+00
  4.20000000E+02  2.00000000E+02  0.00000000E+00
  4.20000000E+02  1.80000000E+02  0.00000000E+00
  4.20000000E+02  1.60000000E+02  0.00000000E+00
  4.20000000E+02  1.40000000E+02  0.00000000E+00
  4.20000000E+02  1.20000000E+02  0.00000000E+00
  4.20000000E+02  1.00000000E+02  0.00000000E+00
  4.20000000E+02  8.00000000E+01  0.00000000E+00
  4.20000000E+02  6.00000000E+01  0.00000000E+00
  4.20000000E+02  4.00000000E+01  0.00000000E+00
  4.20000000E+02  2.00000000E+01  0.00000000E+00
  4.20000000E+02  4.99600361E-14  0.00000000E+00
  4.40000000E+02  3.00000000E+02  0.00000000E+00
  4.40000000E+02  2.80000000E+02  0.00000000E+00
  4.40000000E+02  2.60000000E+02  0.00000000E+00
  4.40000000E+02  2.40000000E+02  0.00000000E+00
  4.40000000E+02  2.20000000E+02  0.00000000E+00
  4.40000000E+02  2.00000000E+02  0.00000000E+00
  4.40000000E+02  1.80000000E+02  0.00000000E+00
  4.40000000E+02  1.60000000E+02  0.00000000E+00
  4.40000000E+02  1.40000000E+02  0.00000000E+00
  4.40000000E+02  1.20000000E+02  0.00000000E+00
  4.40000000E+02  1.00000000E+02  0.00000000E+00
  4.40000000E+02  8.00000000E+01  0.00000000E+00
  4.40000000E+02  6.00000000E+01  0.00000000E+00
  4.40000000E+02  4.00000000E+01  0.00000000E+00
  4.40000000E+02  2.00000000E+01  0.00000000E+00
  4.40000000E+02  4.99600361E-14  0.00000000E+00
  4.60000000E+02  3.00000000E+02  0.00000000E+00
  4.60000000E+02  2.80000000E+02  0.00000000E+00
  4.60000000E+02  2.60000000E+02  0.00000000E+00
  4.60000000E+02  2.40000000E+02  0.00000000E+00
  4.60000000E+02  2.20000000E+02  0.00000000E+00
  4.60000000E+02  2.00000000E+02  0.00000000E+00
  4.60000000E+02  1.80000000E+02  0.00000000E+00
  4.60000000E+02  1.60000000E+02  0.00000000E+00
  4.60000000E+02  1.40000000E+02  0.00000000E+00
  4.60000000E+02  1.20000000E+02  0.00000000E+00
  4.60000000E+02  1.00000000E+02  0.00000000E+00
  4.60000000E+02  8.00000000E+01  0.00000000E+00
  4.60000000E+02  6.00000000E+01  0.00000000E+00
  4.60000000E+02  4.00000000E+01  0.00000000E+00
  4.60000000E+02  2.00000000E+01  0.00000000E+00
  4.60000000E+02  4.99600361E-14  0.00000000E+00
  4.80000000E+02  3.00000000E+02  0.00000000E+00
  4.80000000E+02  2.80000000E+02  0.00000000E+00
  4.80000000E+02  2.60000000E+02  0.00000000E+00
  4.80000000E+02  2.40000000E+02  0.00000000E+00
  4.80000000E+02  2.20000000E+02  0.00000000E+00
  4.80000000E+02  2.00000000E+02  0.00000000E+00
  4.80000000E+02  1.80000000E+02  0.00000000E+00
  4.80000000E+02  1.60000000E+02  0.00000000E+00
  4.80000000E+02  1.40000000E+02  0.00000000E+00
  4.80000000E+02  1.20000000E+02  0.00000000E+00
  4.80000000E+02  1.00000000E+02  0.00000000E+00
  4.80000000E+02  8.00000000E+01  0.00000000E+00
  4.80000000E+02  6.00000000E+01  0.00000000E+00
  4.80000000E+02  4.00000000E+01  0.00000000E+00
  4.80000000E+02  2.00000000E+01  0.00000000E+00
  4.80000000E+02  4.99600361E-14  0.00000000E+00
  5.00000000E+02  3.00000000E+02  0.00000000E+00
  5.00000000E+02  2.80000000E+02  0.00000000E+00
  5.00000000E+02  2.60000000E+02  0.00000000E+00
  5.00000000E+02  2.40000000E+02  0.00000000E+00
  5.00000000E+02  2.20000000E+02  0.00000000E+00
  5.00000000E+02  2.00000000E+02  0.00000000E+00
  5.00000000E+02  1.80000000E+02  0.00000000E+00
  5.00000000E+02  1.60000000E+02  0.00000000E+00
  5.00000000E+02  1.40000000E+02  0.00000000E+00
  5.00000000E+02  1.20000000E+02  0.00000000E+00
  5.00000000E+02  1.00000000E+02  0.00000000E+00
  5.00000000E+02  8.00000000E+01  0.00000000E+00
  5.00000000E+02  6.00000000E+01  0.00000000E+00
  5.00000000E+02  4.00000000E+01  0.00000000E+00
  5.00000000E+02  2.00000000E+01  0.00000000E+00
  5.00000000E+02  4.99600361E-14  0.00000000E+00
  5.20000000E+02  3.00000000E+02  0.00000000E+00
  5.20000000E+02  2.80000000E+02  0.00000000E+00
  5.20000000E+02  2.60000000E+02  0.00000000E+00
  5.20000000E+02  2.40000000E+02  0.00000000E+00
  5.20000000E+02  2.20000000E+02  0.00000000E+00
  5.20000000E+02  2.00000000E+02  0.00000000E+00
  5.20000000E+02  1.80000000E+02  0.00000000E+00
  5.20000000E+02  1.60000000E+02  0.00000000E+00
  5.20000000E+02  1.40000000E+02  0.00000000E+00
  5.20000000E+02  1.20000000E+02  0.00000000E+00
  5.20000000E+02  1.00000000E+02  0.00000000E+00
  5.20000000E+02  8.00000000E+01  0.00000000E+00
  5.20000000E+02  6.00000000E+01  0.00000000E+00
  5.20000000E+02  4.00000000E+01  0.00000000E+00
  5.20000000E+02  2.00000000E+01  0.00000000E+00
  5.20000000E+02  4.99600361E-14  0.00000000E+00
  5.40000000E+02  3.00000000E+02  0.00000000E+00
  5.40000000E+02  2.80000000E+02  0.00000000E+00
  5.40000000E+02  2.60000000E+02  0.00000000E+00
  5.40000000E+02  2.40000000E+02  0.00000000E+00
  5.40000000E+02  2.20000000E+02  0.00000000E+00
  5.40000000E+02  2.00000000E+02  0.00000000E+00
  5.40000000E+02  1.80000000E+02  0.00000000E+00
  5.40000000E+02  1.60000000E+02  0.00000000E+00
  5.40000000E+02  1.40000000E+02  0.00000000E+00
  5.40000000E+02  1.20000000E+02  0.00000000E+00
  5.40000000E+02  1.00000000E+02  0.00000000E+00
  5.40000000E+02  8.00000000E+01  0.00000000E+00
  5.40000000E+02  6.00000000E+01  0.00000000E+00
  5.40000000E+02  4.00000000E+01  0.00000000E+00
  5.40000000E+02  2.00000000E+01  0.00000000E+00
  5.40000000E+02  4.99600361E-14  0.00000000E+00
  5.60000000E+02  3.00000000E+02  0.00000000E+00
  5.60000000E+02  2.80000000E+02  0.00000000E+00
  5.60000000E+02  2.60000000E+02  0.00000000E+00
  5.60000000E+02  2.40000000E+02  0.00000000E+00
  5.60000000E+02  2.20000000E+02  0.00000000E+00
  5.60000000E+02  2.00000000E+02  0.00000000E+00
  5.60000000E+02  1.80000000E+02  0.00000000E+00
  5.60000000E+02  1.60000000E+02  0.00000000E+00
  5.60000000E+02  1.40000000E+02  0.00000000E+00
  5.60000000E+02  1.20000000E+02  0.00000000E+00
  5.60000000E+02  1.00000000E+02  0.00000000E+00
  5.60000000E+02  8.00000000E+01  0.00000000E+00
  5.60000000E+02  6.00000000E+01  0.00000000E+00
  5.60000000E+02  4.00000000E+01  0.00000000E+00
  5.60000000E+02  2.00000000E+01  0.00000000E+00
  5.60000000E+02  4.99600361E-14  0.00000000E+00
  5.80000000E+02  3.00000000E+02  0.00000000E+00
  5.80000000E+02  2.80000000E+02  0.00000000E+00
  5.80000000E+02  2.60000000E+02  0.00000000E+00
  5.80000000E+02  2.40000000E+02  0.00000000E+00
  5.80000000E+02  2.20000000E+02  0.00000000E+00
  5.80000000E+02  2.00000000E+02  0.00000000E+00
  5.80000000E+02  1.80000000E+02  0.00000000E+00
  5.80000000E+02  1.60000000E+02  0.00000000E+00
  5.80000000E+02  1.40000000E+02  0.00000000E+00
  5.80000000E+02  1.20000000E+02  0.00000000E+00
  5.80000000E+02  1.00000000E+02  0.00000000E+00
  5.80000000E+02  8.00000000E+01  0.00000000E+00
  5.80000000E+02  6.00000000E+01  0.00000000E+00
  5.80000000E+02  4.00000000E+01  0.00000000E+00
  5.80000000E+02  2.00000000E+01  0.00000000E+00
  5.80000000E+02  4.99600361E-14  0.00000000E+00
  6.00000000E+02  3.00000000E+02  0.00000000E+00
  6.00000000E+02  2.80000000E+02  0.00000000E+00
  6.00000000E+02  2.60000000E+02  0.00000000E+00
  6.00000000E+02  2.40000000E+02  0.00000000E+00
  6.00000000E+02  2.20000000E+02  0.00000000E+00
  6.00000000E+02  2.00000000E+02  0.00000000E+00
  6.00000000E+02  1.80000000E+02  0.00000000E+00
  6.00000000E+02  1.60000000E+02  0.00000000E+00
  6.00000000E+02  1.40000000E+02  0.00000000E+00
  6.00000000E+02  1.20000000E+02  0.00000000E+00
  6.00000000E+02  1.00000000E+02  0.00000000E+00
  6.00000000E+02  8.00000000E+01  0.00000000E+00
  6.00000000E+02  6.00000000E+01  0.00000000E+00
  6.00000000E+02  4.00000000E+01  0.00000000E+00
  6.00000000E+02  2.00000000E+01  0.00000000E+00
  6.00000000E+02  4.99600361E-14  0.00000000E+00
CELLS       450      2250
         4           0           1          17          16
         4           1           2          18          17
         4           2           3          19          18
         4           3           4          20          19
         4           4           5          21          20
         4           5           6          22          21
         4           6           7          23          22
         4           7           8          24          23
         4           8           9          25          24
         4           9          10          26          25
         4          10          11          27          26
         4          11          12          28          27
         4          12          13          29          28
         4          13          14          30          29
         4          14          15          31          30
         4          16          17          33          32
         4          17          18          34          33
         4          18          19          35          34
         4          19          20          36          35
         4          20          21          37          36
         4          21          22          38          37
         4          22          23          39          38
         4          23          24          40          39
         4          24          25          41          40
         4          25          26          42          41
         4          26          27          43          42
         4          27          28          44          43
         4          28          29          45          44
         4          29          30          46          45
         4          30          31          47          46
         4          32          33          49          48
         4          33          34          50          49
         4          34          35          51          50
         4          35          36          52          51
         4          36          37          53          52
         4          37          38          54          53
         4          38          39          55          54
         4          39          40          56          55
         4          40          41          57          56
         4          41          42          58          57
         4          42          43          59          58
         4          43          44          60          59
         4          44          45          61          60
         4          45          46          62          61
         4          46          47          63          62
         4          48          49          65          64
         4          49          50          66          65
         4          50          51          67          66
         4          51          52          68          67
         4          52          53          69          68
         4          53          54          70          69
         4          54          55          71          70
         4          55          56          72          71
         4          56          57          73          72
         4          57          58          74          73
         4          58          59          75          74
         4          59          60          76          75
         4          60          61          77          76
         4          61          62          78          77
         4          62          63          79          78
         4          64          65          81          80
         4          65          66          82          81
         4          66          67          83          82
         4          67          68          84          83
         4          68          69          85          84
         4          69          70          86          85
         4          70          71          87          86
         4          71          72          88          87
         4          72          73          89          88
         4          73          74          90          89
         4          74          75          91          90
         4          75          76          92          91
         4          76          77          93          92
         4          77          78          94          93
         4          78          79          95          94
         4          80          81          97          96
         4          81          82          98          97
         4          82          83          99          98
         4          83          84         100          99
         4          84          85         101         100
         4          85          86         102         101
         4          86          87         103         102
         4          87          88         104         103
         4          88          89         105         104
         4          89          90         106         105
         4          90          91         107         106
         4          91          92         108         107
         4          92          93         109         108
         4          93          94         110         109
         4          94          95         111         110
         4          96          97         113         112
         4          97          98         114         113
         4          98          99         115         114
         4          99         100         116         115
         4         100         101         117         116
         4         101         102         118         117
         4         102         103         119         118
         4         103         104         120         119
         4         104         105         121         120
         4         105         106         122         121
         4         106         107         123         122
         4         107         108         124         123
         4         108         109         125         124
         4         109         110         126         125
         4         110         111         127         126
         4         112         113         129         128
         4         113         114         130         129
         4         114         115         131         130
         4         115         116         132         131
         4         116         117         133         132
         4         117         118         134         133
         4         118         119         135         134
         4         119         120         136         135
         4         120         121         137         136
         4         121         122         138         137
         4         122         123         139         138
         4         123         124         140         139
         4         124         125         141         140
         4         125         126         142         141
         4         126         127         143         142
         4         128         129         145         144
         4         129         130         146         145
         4         130         131         147         146
         4         131         132         148         147
         4         132         133         149         148
         4         133         134         150         149
         4         134         135         151         150
         4         135         136         152         151
         4         136         137         153         152
         4         137         138         154         153
         4         138         139         155         154
         4         139         140         156         155
         4         140         141         157         156
         4         141         142         158         157
         4         142         143         159         158
         4         144         145         161         160
         4         145         146         162         161
         4         146         147         163         162
         4         147         148         164         163
         4         148         149         165         164
         4         149         150         166         165
         4         150         151         167         166
         4         151         152         168         167
         4         152         153         169         168
         4         153         154         170         169
         4         154         155         171         170
         4         155         156         172         171
         4         156         157         173         172
         4         157         158         174         173
         4         158         159         175         174
         4         160         161         177         176
         4         161         162         178         177
         4         162         163         179         178
         4         163         164         180         179
         4         164         165         181         180
         4         165         166         182         181
         4         166         167         183         182
         4         167         168         184         183
         4         168         169         185         184
         4         169         170         186         185
         4         170         171         187         186
         4         171         172         188         187
         4         172         173         189         188
         4         173         174         190         189
         4         174         175         191         190
         4         176         177         193         192
         4         177         178         194         193
         4         178         179         195         194
         4         179         180         196         195
         4         180         181         197         196
         4         181         182         198         197
         4         182         183         199         198
         4         183         184         200         199
         4         184         185         201         200
         4         185         186         202         201
         4         186         187         203         202
         4         187         188         204         203
         4         188         189         205         204
         4         189         190         206         205
         4         190         191         207         206
         4         192         193         209         208
         4         193         194         210         209
         4         194         195         211         210
         4         195         196         212         211
         4         196         197         213         212
         4         197         198         214         213
         4         198         199         215         214
         4         199         200         216         215
         4         200         201         217         216
         4         201         202         218         217
         4         202         203         219         218
         4         203         204         220         219
         4         204         205         221         220
         4         205         206         222         221
         4         206         207         223         222
         4         208         209         225         224
         4         209         210         226         225
         4         210         211         227         226
         4         211         212         228         227
         4         212         213         229         228
         4         213         214         230         229
         4         214         215         231         230
         4         215         216         232         231
         4         216         217         233         232
         4         217         218         234         233
         4         218         219         235         234
         4         219         220         236         235
         4         220         221         237         236
         4         221         222         238         237
         4         222         223         239         238
         4         224         225         241         240
         4         225         226         242         241
         4         226         227         243         242
         4         227         228         244         243
         4         228         229         245         244
         4         229         230         246         245
         4         230         231         247         246
         4         231         232         248         247
         4         232         233         249         248
         4         233         234         250         249
         4         234         235         251         250
         4         235         236         252         251
         4         236         237         253         252
         4         237         238         254         253
         4         238         239         255         254
         4         240         241         257         256
         4         241         242         258         257
         4         242         243         259         258
         4         243         244         260         259
         4         244         245         261         260
         4         245         246         262         261
         4         246         247         263         262
         4         247         248         264         263
         4         248         249         265         264
         4         249         250         266         265
         4         250         251         267         266
         4         251         252         268         267
         4         252         253         269         268
         4         253         254         270         269
         4         254         255         271         270
         4         256         257         273         272
         4         257         258         274         273
         4         258         259         275         274
         4         259         260         276         275
         4         260         261         277         276
         4         261         262         278         277
         4         262         263         279         278
         4         263         264         280         279
         4         264         265         281         280
         4         265         266         282         281
         4         266         267         283         282
         4         267         268         284         283
         4         268         269         285         284
         4         269         270         286         285
         4         270         271         287         286
         4         272         273         289         288
         4         273         274         290         289
         4         274         275         291         290
         4         275         276         292         291
         4         276         277         293         292
         4         277         278         294         293
         4         278         279         295         294
         4         279         280         296         295
         4         280         281         297         296
         4         281         282         298         297
         4         282         283         299         298
         4         283         284         300         299
         4         284         285         301         300
         4         285         286         302         301
         4         286         287         303         302
         4         288         289         305         304
         4         289         290         306         305
         4         290         291         307         306
         4         291         292         308         307
         4         292         293         309         308
         4         293         294         310         309
         4         294         295         311         310
         4         295         296         312         311
         4         296         297         313         312
         4         297         298         314         313
         4         298         299         315         314
         4         299         300         316         315
         4         300         301         317         316
         4         301         302         318         317
         4         302         303         319         318
         4         304         305         321         320
         4         305         306         322         321
         4         306         307         323         322
         4         307         308         324         323
         4         308         309         325         324
         4         309         310         326         325
         4         310         311         327         326
         4         311         312         328         327
         4         312         313         329         328
         4         313         314         330         329
         4         314         315         331         330
         4         315         316         332         331
         4         316         317         333         332
         4         317         318         334         333
         4         318         319         335         334
         4         320         321         337         336
         4         321         322         338         337
         4         322         323         339         338
         4         323         324         340         339
         4         324         325         341         340
         4         325         326         342         341
         4         326         327         343         342
         4         327         328         344         343
         4         328         329         345         344
         4         329         330         346         345
         4         330         331         347         346
         4         331         332         348         347
         4         332         333         349         348
         4         333         334         350         349
         4         334         335         351         350
         4         336         337         353         352
         4         337         338         354         353
         4         338         339         355         354
         4         339         340         356         355
         4         340         341         357         356
         4         341         342         358         357
         4         342         343         359         358
         4         343         344         360         359
         4         344         345         361         360
         4         345         346         362         361
         4         346         347         363         362
         4         347         348         364         363
         4         348         349         365         364
         4         349         350         366         365
         4         350         351         367         366
         4         352         353         369         368
         4         353         354         370         369
         4         354         355         371         370
         4         355         356         372         371
         4         356         357         373         372
         4         357         358         374         373
         4         358         359         375         374
         4         359         360         376         375
         4         360         361         377         376
         4         361         362         378         377
         4         362         363         379         378
         4         363         364         380         379
         4         364         365         381         380
         4         365         366         382         381
         4         366         367         383         382
         4         368         369         385         384
         4         369         370         386         385
         4         370         371         387         386
         4         371         372         388         387
         4         372         373         389         388
         4         373         374         390         389
         4         374         375         391         390
         4         375         376         392         391
         4         376         377         393         392
         4         377         378         394         393
         4         378         379         395         394
         4         379         380         396         395
         4         380         381         397         396
         4         381         382         398         397
         4         382         383         399         398
         4         384         385         401         400
         4         385         386         402         401
         4         386         387         403         402
         4         387         388         404         403
         4         388         389         405         404
         4         389         390         406         405
         4         390         391         407         406
         4         391         392         408         407
         4         392         393         409         408
         4         393         394         410         409
         4         394         395         411         410
         4         395         396         412         411
         4         396         397         413         412
         4         397         398         414         413
         4         398         399         415         414
         4         400         401         417         416
         4         401         402         418         417
         4         402         403         419         418
         4         403         404         420         419
         4         404         405         421         420
         4         405         406         422         421
         4         406         407         423         422
         4         407         408         424         423
         4         408         409         425         424
         4         409         410         426         425
         4         410         411         427         426
         4         411         412         428         427
         4         412         413         429         428
         4         413         414         430         429
         4         414         415         431         430
         4         416         417         433         432
         4         417         418         434         433
         4         418         419         435         434
         4         419         420         436         435
         4         420         421         437         436
         4         421         422         438         437
         4         422         423         439         438
         4         423         424         440         439
         4         424         425         441         440
         4         425         426         442         441
         4         426         427         443         442
         4         427         428         444         443
         4         428         429         445         444
         4         429         430         446         445
         4         430         431         447         446
         4         432         433         449         448
         4         433         434         450         449
         4         434         435         451         450
         4         435         436         452         451
         4         436         437         453         452
         4         437         438         454         453
         4         438         439         455         454
         4         439         440         456         455
         4         440         441         457         456
         4         441         442         458         457
         4         442         443         459         458
         4         443         444         460         459
         4         444         445         461         460
         4         445         446         462         461
         4         446         447         463         462
         4         448         449         465         464
         4         449         450         466         465
         4         450         451         467         466
         4         451         452         468         467
         4         452         453         469         468
         4         453         454         470         469
         4         454         455         471         470
         4         455         456         472         471
         4         456         457         473         472
         4         457         458         474         473
         4         458         459         475         474
         4         459         460         476         475
         4         460         461         477         476
         4         461         462         478         477
         4         462         463         479         478
         4         464         465         481         480
         4         465         466         482         481
         4         466         467         483         482
         4         467         468         484         483
         4         468         469         485         484
         4         469         470         486         485
         4         470         471         487         486
         4         471         472         488         487
         4         472         473         489         488
         4         473         474         490         489
         4         474         475         491         490
         4         475         476         492         491
         4         476         477         493         492
         4         477         478         494         493
         4         478         479         495         494
CELL_TYPES        450
9
9
9
9
9
9
9
9
9
9
9
9
9
9
9
9
9
9
9
9
9
9
9
9
9
9
9
9
9
9
9
9
9
9
9
9
9
9
9
9
9
9
9
9
9
9
9
9
9
9
9
9
9
9
9
9
9
9
9
9
9
9
9
9
9
9
9
9
9
9
9
9
9
9
9
9
9
9
9
9
9
9
9
9
9
9
9
9
9
9
9
9
9
9
9
9
9
9
9
9
9
9
9
9
9
9
9
9
9
9
9
9
9
9
9
9
9
9
9
9
9
9
9
9
9
9
9
9
9
9
9
9
9
9
9
9
9
9
9
9
9
9
9
9
9
9
9
9
9
9
9
9
9
9
9
9
9
9
9
9
9
9
9
9
9
9
9
9
9
9
9
9
9
9
9
9
9
9
9
9
9
9
9
9
9
9
9
9
9
9
9
9
9
9
9
9
9
9
9
9
9
9
9
9
9
9
9
9
9
9
9
9
9
9
9
9
9
9
9
9
9
9
9
9
9
9
9
9
9
9
9
9
9
9
9
9
9
9
9
9
9
9
9
9
9
9
9
9
9
9
9
9
9
9
9
9
9
9
9
9
9
9
9
9
9
9
9
9
9
9
9
9
9
9
9
9
9
9
9
9
9
9
9
9
9
9
9
9
9
9
9
9
9
9
9
9
9
9
9
9
9
9
9
9
9
9
9
9
9
9
9
9
9
9
9
9
9
9
9
9
9
9
9
9
9
9
9
9
9
9
9
9
9
9
9
9
9
9
9
9
9
9
9
9
9
9
9
9
9
9
9
9
9
9
9
9
9
9
9
9
9
9
9
9
9
9
9
9
9
9
9
9
9
9
9
9
9
9
9
9
9
9
9
9
9
9
9
9
9
9
9
9
9
9
9
9
9
9
9
9
9
9
9
9
9
9
9
9
9
9
9
9
9
9
9
9
9
9
9
9
9
9
9
9
9
9
9
9
9
9
9
9
9
9
9
9
9
9
9
9
9
9
9
9
9
9
9
9
9
9
POINT_DATA       496
SCALARS p double 
LOOKUP_TABLE default
   10000000.0040644     
   10000000.0040644     
   10000000.0040644     
   10000000.0040644     
   10000000.0040644     
   10000000.0040644     
   10000000.0040644     
   10000000.0040644     
   10000000.0040644     
   10000000.0040644     
   10000000.0040644     
   10000000.0040644     
   10000000.0040644     
   10000000.0040644     
   10000000.0040644     
   10000000.0040644     
   10000000.0040589     
   10000000.0040589     
   10000000.0040589     
   10000000.0040588     
   10000000.0040588     
   10000000.0040588     
   10000000.0040588     
   10000000.0040588     
   10000000.0040588     
   10000000.0040588     
   10000000.0040588     
   10000000.0040588     
   10000000.0040588     
   10000000.0040588     
   10000000.0040588     
   10000000.0040588     
   10000000.0040422     
   10000000.0040422     
   10000000.0040422     
   10000000.0040422     
   10000000.0040422     
   10000000.0040421     
   10000000.0040421     
   10000000.0040421     
   10000000.0040421     
   10000000.0040421     
   10000000.0040421     
   10000000.0040421     
   10000000.0040421     
   10000000.0040421     
   10000000.0040421     
   10000000.0040421     
   10000000.0040144     
   10000000.0040144     
   10000000.0040144     
   10000000.0040144     
   10000000.0040144     
   10000000.0040144     
   10000000.0040144     
   10000000.0040144     
   10000000.0040144     
   10000000.0040144     
   10000000.0040144     
   10000000.0040144     
   10000000.0040144     
   10000000.0040144     
   10000000.0040144     
   10000000.0040144     
   10000000.0039756     
   10000000.0039756     
   10000000.0039756     
   10000000.0039756     
   10000000.0039756     
   10000000.0039756     
   10000000.0039756     
   10000000.0039756     
   10000000.0039756     
   10000000.0039756     
   10000000.0039756     
   10000000.0039756     
   10000000.0039756     
   10000000.0039756     
   10000000.0039756     
   10000000.0039756     
   10000000.0039259     
   10000000.0039259     
   10000000.0039259     
   10000000.0039259     
   10000000.0039259     
   10000000.0039259     
   10000000.0039259     
   10000000.0039259     
   10000000.0039259     
   10000000.0039259     
   10000000.0039259     
   10000000.0039259     
   10000000.0039259     
   10000000.0039259     
   10000000.0039259     
   10000000.0039259     
   10000000.0038655     
   10000000.0038655     
   10000000.0038655     
   10000000.0038655     
   10000000.0038655     
   10000000.0038655     
   10000000.0038655     
   10000000.0038655     
   10000000.0038655     
   10000000.0038655     
   10000000.0038655     
   10000000.0038655     
   10000000.0038655     
   10000000.0038655     
   10000000.0038655     
   10000000.0038655     
   10000000.0037945     
   10000000.0037945     
   10000000.0037945     
   10000000.0037945     
   10000000.0037945     
   10000000.0037945     
   10000000.0037945     
   10000000.0037945     
   10000000.0037944     
   10000000.0037944     
   10000000.0037944     
   10000000.0037944     
   10000000.0037944     
   10000000.0037944     
   10000000.0037944     
   10000000.0037944     
   10000000.0037130     
   10000000.0037130     
   10000000.0037130     
   10000000.0037130     
   10000000.0037130     
   10000000.0037130     
   10000000.0037130     
   10000000.0037130     
   10000000.0037130     
   10000000.0037130     
   10000000.0037130     
   10000000.0037130     
   10000000.0037130     
   10000000.0037130     
   10000000.0037130     
   10000000.0037130     
   10000000.0036214     
   10000000.0036214     
   10000000.0036214     
   10000000.0036214     
   10000000.0036214     
   10000000.0036214     
   10000000.0036214     
   10000000.0036214     
   10000000.0036214     
   10000000.0036214     
   10000000.0036214     
   10000000.0036214     
   10000000.0036214     
   10000000.0036214     
   10000000.0036214     
   10000000.0036214     
   10000000.0035199     
   10000000.0035199     
   10000000.0035199     
   10000000.0035199     
   10000000.0035199     
   10000000.0035199     
   10000000.0035199     
   10000000.0035199     
   10000000.0035199     
   10000000.0035199     
   10000000.0035199     
   10000000.0035199     
   10000000.0035199     
   10000000.0035199     
   10000000.0035199     
   10000000.0035199     
   10000000.0034087     
   10000000.0034087     
   10000000.0034087     
   10000000.0034087     
   10000000.0034087     
   10000000.0034087     
   10000000.0034087     
   10000000.0034087     
   10000000.0034087     
   10000000.0034087     
   10000000.0034087     
   10000000.0034087     
   10000000.0034087     
   10000000.0034087     
   10000000.0034087     
   10000000.0034087     
   10000000.0032882     
   10000000.0032882     
   10000000.0032882     
   10000000.0032882     
   10000000.0032882     
   10000000.0032882     
   10000000.0032882     
   10000000.0032881     
   10000000.0032882     
   10000000.0032882     
   10000000.0032882     
   10000000.0032882     
   10000000.0032882     
   10000000.0032882     
   10000000.0032882     
   10000000.0032882     
   10000000.0031586     
   10000000.0031586     
   10000000.0031586     
   10000000.0031586     
   10000000.0031586     
   10000000.0031586     
   10000000.0031586     
   10000000.0031586     
   10000000.0031586     
   10000000.0031586     
   10000000.0031586     
   10000000.0031586     
   10000000.0031586     
   10000000.0031586     
   10000000.0031586     
   10000000.0031586     
   10000000.0030204     
   10000000.0030204     
   10000000.0030204     
   10000000.0030204     
   10000000.0030204     
   10000000.0030204     
   10000000.0030204     
   10000000.0030204     
   10000000.0030204     
   10000000.0030204     
   10000000.0030204     
   10000000.0030204     
   10000000.0030204     
   10000000.0030204     
   10000000.0030204     
   10000000.0030204     
   10000000.0028740     
   10000000.0028740     
   10000000.0028740     
   10000000.0028740     
   10000000.0028740     
   10000000.0028740     
   10000000.0028739     
   10000000.0028739     
   10000000.0028739     
   10000000.0028739     
   10000000.0028739     
   10000000.0028739     
   10000000.0028739     
   10000000.0028739     
   10000000.0028739     
   10000000.0028739     
   10000000.0027196     
   10000000.0027196     
   10000000.0027196     
   10000000.0027196     
   10000000.0027196     
   10000000.0027196     
   10000000.0027196     
   10000000.0027196     
   10000000.0027196     
   10000000.0027196     
   10000000.0027196     
   10000000.0027196     
   10000000.0027196     
   10000000.0027196     
   10000000.0027196     
   10000000.0027196     
   10000000.0025578     
   10000000.0025578     
   10000000.0025578     
   10000000.0025578     
   10000000.0025578     
   10000000.0025578     
   10000000.0025578     
   10000000.0025578     
   10000000.0025578     
   10000000.0025578     
   10000000.0025578     
   10000000.0025578     
   10000000.0025578     
   10000000.0025578     
   10000000.0025578     
   10000000.0025578     
   10000000.0023890     
   10000000.0023890     
   10000000.0023890     
   10000000.0023890     
   10000000.0023890     
   10000000.0023890     
   10000000.0023890     
   10000000.0023890     
   10000000.0023890     
   10000000.0023890     
   10000000.0023890     
   10000000.0023890     
   10000000.0023890     
   10000000.0023890     
   10000000.0023890     
   10000000.0023890     
   10000000.0022136     
   10000000.0022136     
   10000000.0022136     
   10000000.0022136     
   10000000.0022136     
   10000000.0022136     
   10000000.0022136     
   10000000.0022136     
   10000000.0022136     
   10000000.0022136     
   10000000.0022136     
   10000000.0022136     
   10000000.0022136     
   10000000.0022136     
   10000000.0022136     
   10000000.0022136     
   10000000.0020322     
   10000000.0020322     
   10000000.0020322     
   10000000.0020322     
   10000000.0020322     
   10000000.0020322     
   10000000.0020322     
   10000000.0020322     
   10000000.0020322     
   10000000.0020322     
   10000000.0020322     
   10000000.0020322     
   10000000.0020322     
   10000000.0020322     
   10000000.0020322     
   10000000.0020322     
   10000000.0018452     
   10000000.0018452     
   10000000.0018452     
   10000000.0018452     
   10000000.0018452     
   10000000.0018452     
   10000000.0018452     
   10000000.0018452     
   10000000.0018452     
   10000000.0018452     
   10000000.0018452     
   10000000.0018452     
   10000000.0018452     
   10000000.0018452     
   10000000.0018452     
   10000000.0018452     
   10000000.0016531     
   10000000.0016531     
   10000000.0016531     
   10000000.0016531     
   10000000.0016531     
   10000000.0016531     
   10000000.0016531     
   10000000.0016531     
   10000000.0016531     
   10000000.0016531     
   10000000.0016531     
   10000000.0016531     
   10000000.0016531     
   10000000.0016531     
   10000000.0016531     
   10000000.0016531     
   10000000.0014565     
   10000000.0014565     
   10000000.0014565     
   10000000.0014565     
   10000000.0014565     
   10000000.0014565     
   10000000.0014565     
   10000000.0014565     
   10000000.0014565     
   10000000.0014565     
   10000000.0014565     
   10000000.0014565     
   10000000.0014565     
   10000000.0014565     
   10000000.0014565     
   10000000.0014565     
   10000000.0012560     
   10000000.0012559     
   10000000.0012559     
   10000000.0012559     
   10000000.0012560     
   10000000.0012560     
   10000000.0012560     
   10000000.0012560     
   10000000.0012560     
   10000000.0012560     
   10000000.0012560     
   10000000.0012560     
   10000000.0012560     
   10000000.0012560     
   10000000.0012560     
   10000000.0012560     
   10000000.0010519     
   10000000.0010519     
   10000000.0010519     
   10000000.0010519     
   10000000.0010519     
   10000000.0010519     
   10000000.0010519     
   10000000.0010519     
   10000000.0010519     
   10000000.0010519     
   10000000.0010519     
   10000000.0010519     
   10000000.0010519     
   10000000.0010519     
   10000000.0010519     
   10000000.0010519     
   10000000.0008450     
   10000000.0008450     
   10000000.0008450     
   10000000.0008450     
   10000000.0008450     
   10000000.0008450     
   10000000.0008450     
   10000000.0008450     
   10000000.0008450     
   10000000.0008450     
   10000000.0008450     
   10000000.0008450     
   10000000.0008450     
   10000000.0008450     
   10000000.0008450     
   10000000.0008450     
   10000000.0006358     
   10000000.0006358     
   10000000.0006358     
   10000000.0006358     
   10000000.0006358     
   10000000.0006358     
   10000000.0006358     
   10000000.0006358     
   10000000.0006358     
   10000000.0006358     
   10000000.0006358     
   10000000.0006358     
   10000000.0006358     
   10000000.0006358     
   10000000.0006358     
   10000000.0006358     
   10000000.0004248     
   10000000.0004248     
   10000000.0004248     
   10000000.0004248     
   10000000.0004248     
   10000000.0004248     
   10000000.0004248     
   10000000.0004248     
   10000000.0004248     
   10000000.0004248     
   10000000.0004248     
   10000000.0004248     
   10000000.0004248     
   10000000.0004248     
   10000000.0004248     
   10000000.0004248     
   10000000.0002127     
   10000000.0002127     
   10000000.0002127     
   10000000.0002127     
   10000000.0002127     
   10000000.0002127     
   10000000.0002127     
   10000000.0002127     
   10000000.0002127     
   10000000.0002127     
   10000000.0002127     
   10000000.0002127     
   10000000.0002127     
   10000000.0002127     
   10000000.0002127     
   10000000.0002127     
   10000000.0000000     
   10000000.0000000     
   10000000.0000000     
   10000000.0000000     
   10000000.0000000     
   10000000.0000000     
   10000000.0000000     
   10000000.0000000     
   10000000.0000000     
   10000000.0000000     
   10000000.0000000     
   10000000.0000000     
   10000000.0000000     
  10000000.00000000     
   10000000.0000000     
   10000000.0000000     
VECTORS u double 
    0.00000E+00        -0.64182E-01         0.00000E+00
    0.00000E+00        -0.59898E-01         0.00000E+00
    0.00000E+00        -0.55614E-01         0.00000E+00
    0.00000E+00        -0.51329E-01         0.00000E+00
    0.00000E+00        -0.47045E-01         0.00000E+00
    0.00000E+00        -0.42762E-01         0.00000E+00
    0.00000E+00        -0.38479E-01         0.00000E+00
    0.00000E+00        -0.34196E-01         0.00000E+00
    0.00000E+00        -0.29916E-01         0.00000E+00
    0.00000E+00        -0.25636E-01         0.00000E+00
    0.00000E+00        -0.21358E-01         0.00000E+00
    0.00000E+00        -0.17082E-01         0.00000E+00
    0.00000E+00        -0.12808E-01         0.00000E+00
    0.00000E+00        -0.85363E-02         0.00000E+00
    0.00000E+00        -0.42669E-02         0.00000E+00
    0.00000E+00         0.00000E+00         0.00000E+00
    0.19677E-04        -0.64181E-01         0.00000E+00
    0.20421E-04        -0.59898E-01         0.00000E+00
    0.20858E-04        -0.55613E-01         0.00000E+00
    0.20990E-04        -0.51329E-01         0.00000E+00
    0.20820E-04        -0.47045E-01         0.00000E+00
    0.20347E-04        -0.42761E-01         0.00000E+00
    0.19574E-04        -0.38478E-01         0.00000E+00
    0.18500E-04        -0.34196E-01         0.00000E+00
    0.17129E-04        -0.29915E-01         0.00000E+00
    0.15467E-04        -0.25636E-01         0.00000E+00
    0.13521E-04        -0.21358E-01         0.00000E+00
    0.11302E-04        -0.17082E-01         0.00000E+00
    0.88225E-05        -0.12808E-01         0.00000E+00
    0.60986E-05        -0.85363E-02         0.00000E+00
    0.31499E-05        -0.42669E-02         0.00000E+00
    0.00000E+00         0.00000E+00         0.00000E+00
    0.39252E-04        -0.64180E-01         0.00000E+00
    0.40739E-04        -0.59896E-01         0.00000E+00
    0.41614E-04        -0.55612E-01         0.00000E+00
    0.41881E-04        -0.51328E-01         0.00000E+00
    0.41543E-04        -0.47044E-01         0.00000E+00
    0.40601E-04        -0.42760E-01         0.00000E+00
    0.39059E-04        -0.38478E-01         0.00000E+00
    0.36918E-04        -0.34196E-01         0.00000E+00
    0.34184E-04        -0.29915E-01         0.00000E+00
    0.30868E-04        -0.25636E-01         0.00000E+00
    0.26987E-04        -0.21358E-01         0.00000E+00
    0.22560E-04        -0.17082E-01         0.00000E+00
    0.17612E-04        -0.12808E-01         0.00000E+00
    0.12176E-04        -0.85362E-02         0.00000E+00
    0.62894E-05        -0.42668E-02         0.00000E+00
    0.00000E+00         0.00000E+00         0.00000E+00
    0.58621E-04        -0.64178E-01         0.00000E+00
    0.60852E-04        -0.59894E-01         0.00000E+00
    0.62167E-04        -0.55610E-01         0.00000E+00
    0.62571E-04        -0.51326E-01         0.00000E+00
    0.62070E-04        -0.47042E-01         0.00000E+00
    0.60667E-04        -0.42759E-01         0.00000E+00
    0.58367E-04        -0.38476E-01         0.00000E+00
    0.55172E-04        -0.34195E-01         0.00000E+00
    0.51091E-04        -0.29914E-01         0.00000E+00
    0.46140E-04        -0.25635E-01         0.00000E+00
    0.40344E-04        -0.21357E-01         0.00000E+00
    0.33730E-04        -0.17081E-01         0.00000E+00
    0.26337E-04        -0.12808E-01         0.00000E+00
    0.18210E-04        -0.85361E-02         0.00000E+00
    0.94081E-05        -0.42668E-02         0.00000E+00
    0.00000E+00         0.00000E+00         0.00000E+00
    0.77675E-04        -0.64175E-01         0.00000E+00
    0.80650E-04        -0.59891E-01         0.00000E+00
    0.82407E-04        -0.55608E-01         0.00000E+00
    0.82956E-04        -0.51324E-01         0.00000E+00
    0.82301E-04        -0.47040E-01         0.00000E+00
    0.80449E-04        -0.42757E-01         0.00000E+00
    0.77406E-04        -0.38475E-01         0.00000E+00
    0.73178E-04        -0.34193E-01         0.00000E+00
    0.67774E-04        -0.29913E-01         0.00000E+00
    0.61217E-04        -0.25634E-01         0.00000E+00
    0.53536E-04        -0.21357E-01         0.00000E+00
    0.44768E-04        -0.17081E-01         0.00000E+00
    0.34963E-04        -0.12807E-01         0.00000E+00
    0.24180E-04        -0.85359E-02         0.00000E+00
    0.12496E-04        -0.42667E-02         0.00000E+00
    0.00000E+00         0.00000E+00         0.00000E+00
    0.96301E-04        -0.64171E-01         0.00000E+00
    0.10002E-03        -0.59888E-01         0.00000E+00
    0.10222E-03        -0.55604E-01         0.00000E+00
    0.10292E-03        -0.51321E-01         0.00000E+00
    0.10213E-03        -0.47038E-01         0.00000E+00
    0.99843E-04        -0.42755E-01         0.00000E+00
    0.96081E-04        -0.38473E-01         0.00000E+00
    0.90848E-04        -0.34192E-01         0.00000E+00
    0.84156E-04        -0.29912E-01         0.00000E+00
    0.76031E-04        -0.25633E-01         0.00000E+00
    0.66507E-04        -0.21356E-01         0.00000E+00
    0.55630E-04        -0.17080E-01         0.00000E+00
    0.43458E-04        -0.12807E-01         0.00000E+00
    0.30065E-04        -0.85357E-02         0.00000E+00
    0.15542E-04        -0.42666E-02         0.00000E+00
    0.00000E+00         0.00000E+00         0.00000E+00
    0.11438E-03        -0.64166E-01         0.00000E+00
    0.11884E-03        -0.59883E-01         0.00000E+00
    0.12149E-03        -0.55600E-01         0.00000E+00
    0.12236E-03        -0.51317E-01         0.00000E+00
    0.12144E-03        -0.47034E-01         0.00000E+00
    0.11874E-03        -0.42752E-01         0.00000E+00
    0.11429E-03        -0.38470E-01         0.00000E+00
    0.10809E-03        -0.34189E-01         0.00000E+00
    0.10016E-03        -0.29910E-01         0.00000E+00
    0.90513E-04        -0.25632E-01         0.00000E+00
    0.79201E-04        -0.21355E-01         0.00000E+00
    0.66271E-04        -0.17080E-01         0.00000E+00
    0.51791E-04        -0.12807E-01         0.00000E+00
    0.35844E-04        -0.85355E-02         0.00000E+00
    0.18537E-04        -0.42666E-02         0.00000E+00
    0.00000E+00         0.00000E+00         0.00000E+00
    0.13177E-03        -0.64160E-01         0.00000E+00
    0.13697E-03        -0.59878E-01         0.00000E+00
    0.14009E-03        -0.55595E-01         0.00000E+00
    0.14113E-03        -0.51313E-01         0.00000E+00
    0.14011E-03        -0.47030E-01         0.00000E+00
    0.13704E-03        -0.42749E-01         0.00000E+00
    0.13194E-03        -0.38467E-01         0.00000E+00
    0.12482E-03        -0.34187E-01         0.00000E+00
    0.11569E-03        -0.29908E-01         0.00000E+00
    0.10459E-03        -0.25630E-01         0.00000E+00
    0.91560E-04        -0.21354E-01         0.00000E+00
    0.76647E-04        -0.17079E-01         0.00000E+00
    0.59927E-04        -0.12806E-01         0.00000E+00
    0.41495E-04        -0.85352E-02         0.00000E+00
    0.21471E-04        -0.42665E-02         0.00000E+00
    0.00000E+00         0.00000E+00         0.00000E+00
    0.14834E-03        -0.64153E-01         0.00000E+00
    0.15428E-03        -0.59872E-01         0.00000E+00
    0.15786E-03        -0.55590E-01         0.00000E+00
    0.15910E-03        -0.51308E-01         0.00000E+00
    0.15801E-03        -0.47026E-01         0.00000E+00
    0.15460E-03        -0.42745E-01         0.00000E+00
    0.14890E-03        -0.38464E-01         0.00000E+00
    0.14092E-03        -0.34185E-01         0.00000E+00
    0.13068E-03        -0.29906E-01         0.00000E+00
    0.11820E-03        -0.25629E-01         0.00000E+00
    0.10353E-03        -0.21353E-01         0.00000E+00
    0.86711E-04        -0.17078E-01         0.00000E+00
    0.67834E-04        -0.12806E-01         0.00000E+00
    0.46998E-04        -0.85350E-02         0.00000E+00
    0.24333E-04        -0.42664E-02         0.00000E+00
    0.00000E+00         0.00000E+00         0.00000E+00
    0.16393E-03        -0.64146E-01         0.00000E+00
    0.17060E-03        -0.59865E-01         0.00000E+00
    0.17466E-03        -0.55584E-01         0.00000E+00
    0.17612E-03        -0.51302E-01         0.00000E+00
    0.17500E-03        -0.47021E-01         0.00000E+00
    0.17131E-03        -0.42741E-01         0.00000E+00
    0.16507E-03        -0.38461E-01         0.00000E+00
    0.15631E-03        -0.34182E-01         0.00000E+00
    0.14503E-03        -0.29904E-01         0.00000E+00
    0.13126E-03        -0.25627E-01         0.00000E+00
    0.11504E-03        -0.21351E-01         0.00000E+00
    0.96415E-04        -0.17077E-01         0.00000E+00
    0.75478E-04        -0.12805E-01         0.00000E+00
    0.52331E-04        -0.85348E-02         0.00000E+00
    0.27113E-04        -0.42663E-02         0.00000E+00
    0.00000E+00         0.00000E+00         0.00000E+00
    0.17836E-03        -0.64137E-01         0.00000E+00
    0.18577E-03        -0.59857E-01         0.00000E+00
    0.19032E-03        -0.55577E-01         0.00000E+00
    0.19203E-03        -0.51296E-01         0.00000E+00
    0.19093E-03        -0.47016E-01         0.00000E+00
    0.18702E-03        -0.42736E-01         0.00000E+00
    0.18032E-03        -0.38457E-01         0.00000E+00
    0.17086E-03        -0.34179E-01         0.00000E+00
    0.15864E-03        -0.29901E-01         0.00000E+00
    0.14369E-03        -0.25625E-01         0.00000E+00
    0.12603E-03        -0.21350E-01         0.00000E+00
    0.10571E-03        -0.17077E-01         0.00000E+00
    0.82823E-04        -0.12805E-01         0.00000E+00
    0.57470E-04        -0.85346E-02         0.00000E+00
    0.29799E-04        -0.42663E-02         0.00000E+00
    0.00000E+00         0.00000E+00         0.00000E+00
    0.19145E-03        -0.64128E-01         0.00000E+00
    0.19958E-03        -0.59849E-01         0.00000E+00
    0.20464E-03        -0.55569E-01         0.00000E+00
    0.20665E-03        -0.51290E-01         0.00000E+00
    0.20563E-03        -0.47011E-01         0.00000E+00
    0.20158E-03        -0.42732E-01         0.00000E+00
    0.19452E-03        -0.38453E-01         0.00000E+00
    0.18446E-03        -0.34176E-01         0.00000E+00
    0.17142E-03        -0.29899E-01         0.00000E+00
    0.15540E-03        -0.25624E-01         0.00000E+00
    0.13643E-03        -0.21349E-01         0.00000E+00
    0.11455E-03        -0.17076E-01         0.00000E+00
    0.89830E-04        -0.12804E-01         0.00000E+00
    0.62390E-04        -0.85345E-02         0.00000E+00
    0.32381E-04        -0.42663E-02         0.00000E+00
    0.00000E+00         0.00000E+00         0.00000E+00
    0.20298E-03        -0.64118E-01         0.00000E+00
    0.21184E-03        -0.59840E-01         0.00000E+00
    0.21744E-03        -0.55561E-01         0.00000E+00
    0.21980E-03        -0.51283E-01         0.00000E+00
    0.21893E-03        -0.47005E-01         0.00000E+00
    0.21483E-03        -0.42727E-01         0.00000E+00
    0.20752E-03        -0.38449E-01         0.00000E+00
    0.19700E-03        -0.34173E-01         0.00000E+00
    0.18326E-03        -0.29897E-01         0.00000E+00
    0.16631E-03        -0.25622E-01         0.00000E+00
    0.14617E-03        -0.21348E-01         0.00000E+00
    0.12286E-03        -0.17076E-01         0.00000E+00
    0.96455E-04        -0.12804E-01         0.00000E+00
    0.67064E-04        -0.85345E-02         0.00000E+00
    0.34843E-04        -0.42664E-02         0.00000E+00
    0.00000E+00         0.00000E+00         0.00000E+00
    0.21276E-03        -0.64107E-01         0.00000E+00
    0.22233E-03        -0.59830E-01         0.00000E+00
    0.22850E-03        -0.55553E-01         0.00000E+00
    0.23127E-03        -0.51276E-01         0.00000E+00
    0.23064E-03        -0.46999E-01         0.00000E+00
    0.22661E-03        -0.42722E-01         0.00000E+00
    0.21918E-03        -0.38445E-01         0.00000E+00
    0.20833E-03        -0.34170E-01         0.00000E+00
    0.19404E-03        -0.29895E-01         0.00000E+00
    0.17632E-03        -0.25620E-01         0.00000E+00
    0.15516E-03        -0.21347E-01         0.00000E+00
    0.13059E-03        -0.17075E-01         0.00000E+00
    0.10265E-03        -0.12804E-01         0.00000E+00
    0.71459E-04        -0.85346E-02         0.00000E+00
    0.37170E-04        -0.42665E-02         0.00000E+00
    0.00000E+00         0.00000E+00         0.00000E+00
    0.22055E-03        -0.64095E-01         0.00000E+00
    0.23082E-03        -0.59820E-01         0.00000E+00
    0.23759E-03        -0.55544E-01         0.00000E+00
    0.24085E-03        -0.51268E-01         0.00000E+00
    0.24057E-03        -0.46992E-01         0.00000E+00
    0.23673E-03        -0.42717E-01         0.00000E+00
    0.22932E-03        -0.38441E-01         0.00000E+00
    0.21830E-03        -0.34167E-01         0.00000E+00
    0.20365E-03        -0.29893E-01         0.00000E+00
    0.18532E-03        -0.25619E-01         0.00000E+00
    0.16332E-03        -0.21347E-01         0.00000E+00
    0.13765E-03        -0.17075E-01         0.00000E+00
    0.10836E-03        -0.12804E-01         0.00000E+00
    0.75538E-04        -0.85349E-02         0.00000E+00
    0.39343E-04        -0.42668E-02         0.00000E+00
    0.00000E+00         0.00000E+00         0.00000E+00
    0.22612E-03        -0.64083E-01         0.00000E+00
    0.23709E-03        -0.59809E-01         0.00000E+00
    0.24450E-03        -0.55535E-01         0.00000E+00
    0.24832E-03        -0.51260E-01         0.00000E+00
    0.24850E-03        -0.46986E-01         0.00000E+00
    0.24500E-03        -0.42712E-01         0.00000E+00
    0.23778E-03        -0.38438E-01         0.00000E+00
    0.22677E-03        -0.34164E-01         0.00000E+00
    0.21192E-03        -0.29891E-01         0.00000E+00
    0.19319E-03        -0.25618E-01         0.00000E+00
    0.17054E-03        -0.21346E-01         0.00000E+00
    0.14397E-03        -0.17075E-01         0.00000E+00
    0.11351E-03        -0.12805E-01         0.00000E+00
    0.79255E-04        -0.85353E-02         0.00000E+00
    0.41342E-04        -0.42671E-02         0.00000E+00
    0.00000E+00         0.00000E+00         0.00000E+00
    0.22927E-03        -0.64070E-01         0.00000E+00
    0.24091E-03        -0.59798E-01         0.00000E+00
    0.24900E-03        -0.55525E-01         0.00000E+00
    0.25347E-03        -0.51252E-01         0.00000E+00
    0.25423E-03        -0.46979E-01         0.00000E+00
    0.25121E-03        -0.42706E-01         0.00000E+00
    0.24435E-03        -0.38434E-01         0.00000E+00
    0.23354E-03        -0.34161E-01         0.00000E+00
    0.21870E-03        -0.29889E-01         0.00000E+00
    0.19977E-03        -0.25617E-01         0.00000E+00
    0.17668E-03        -0.21346E-01         0.00000E+00
    0.14943E-03        -0.17075E-01         0.00000E+00
    0.11803E-03        -0.12805E-01         0.00000E+00
    0.82557E-04        -0.85360E-02         0.00000E+00
    0.43140E-04        -0.42675E-02         0.00000E+00
    0.00000E+00         0.00000E+00         0.00000E+00
    0.22980E-03        -0.64056E-01         0.00000E+00
    0.24209E-03        -0.59786E-01         0.00000E+00
    0.25088E-03        -0.55515E-01         0.00000E+00
    0.25607E-03        -0.51244E-01         0.00000E+00
    0.25753E-03        -0.46973E-01         0.00000E+00
    0.25515E-03        -0.42701E-01         0.00000E+00
    0.24882E-03        -0.38430E-01         0.00000E+00
    0.23840E-03        -0.34159E-01         0.00000E+00
    0.22379E-03        -0.29888E-01         0.00000E+00
    0.20489E-03        -0.25617E-01         0.00000E+00
    0.18161E-03        -0.21346E-01         0.00000E+00
    0.15392E-03        -0.17076E-01         0.00000E+00
    0.12182E-03        -0.12806E-01         0.00000E+00
    0.85382E-04        -0.85369E-02         0.00000E+00
    0.44708E-04        -0.42681E-02         0.00000E+00
    0.00000E+00         0.00000E+00         0.00000E+00
    0.22756E-03        -0.64042E-01         0.00000E+00
    0.24044E-03        -0.59774E-01         0.00000E+00
    0.24995E-03        -0.55505E-01         0.00000E+00
    0.25593E-03        -0.51235E-01         0.00000E+00
    0.25819E-03        -0.46966E-01         0.00000E+00
    0.25659E-03        -0.42696E-01         0.00000E+00
    0.25096E-03        -0.38426E-01         0.00000E+00
    0.24113E-03        -0.34156E-01         0.00000E+00
    0.22697E-03        -0.29887E-01         0.00000E+00
    0.20833E-03        -0.25617E-01         0.00000E+00
    0.18512E-03        -0.21347E-01         0.00000E+00
    0.15728E-03        -0.17077E-01         0.00000E+00
    0.12478E-03        -0.12807E-01         0.00000E+00
    0.87659E-04        -0.85380E-02         0.00000E+00
    0.46011E-04        -0.42688E-02         0.00000E+00
    0.00000E+00         0.00000E+00         0.00000E+00
    0.22242E-03        -0.64028E-01         0.00000E+00
    0.23584E-03        -0.59761E-01         0.00000E+00
    0.24606E-03        -0.55494E-01         0.00000E+00
    0.25285E-03        -0.51226E-01         0.00000E+00
    0.25600E-03        -0.46959E-01         0.00000E+00
    0.25529E-03        -0.42691E-01         0.00000E+00
    0.25051E-03        -0.38423E-01         0.00000E+00
    0.24146E-03        -0.34154E-01         0.00000E+00
    0.22796E-03        -0.29886E-01         0.00000E+00
    0.20985E-03        -0.25617E-01         0.00000E+00
    0.18701E-03        -0.21348E-01         0.00000E+00
    0.15933E-03        -0.17079E-01         0.00000E+00
    0.12676E-03        -0.12809E-01         0.00000E+00
    0.89303E-04        -0.85395E-02         0.00000E+00
    0.47008E-04        -0.42697E-02         0.00000E+00
    0.00000E+00         0.00000E+00         0.00000E+00
    0.21436E-03        -0.64013E-01         0.00000E+00
    0.22820E-03        -0.59748E-01         0.00000E+00
    0.23907E-03        -0.55483E-01         0.00000E+00
    0.24668E-03        -0.51217E-01         0.00000E+00
    0.25075E-03        -0.46952E-01         0.00000E+00
    0.25101E-03        -0.42686E-01         0.00000E+00
    0.24720E-03        -0.38419E-01         0.00000E+00
    0.23909E-03        -0.34153E-01         0.00000E+00
    0.22647E-03        -0.29885E-01         0.00000E+00
    0.20916E-03        -0.25618E-01         0.00000E+00
    0.18699E-03        -0.21349E-01         0.00000E+00
    0.15984E-03        -0.17081E-01         0.00000E+00
    0.12760E-03        -0.12811E-01         0.00000E+00
    0.90207E-04        -0.85412E-02         0.00000E+00
    0.47654E-04        -0.42708E-02         0.00000E+00
    0.00000E+00         0.00000E+00         0.00000E+00
    0.20340E-03        -0.63997E-01         0.00000E+00
    0.21752E-03        -0.59734E-01         0.00000E+00
    0.22894E-03        -0.55471E-01         0.00000E+00
    0.23730E-03        -0.51208E-01         0.00000E+00
    0.24225E-03        -0.46945E-01         0.00000E+00
    0.24349E-03        -0.42681E-01         0.00000E+00
    0.24072E-03        -0.38416E-01         0.00000E+00
    0.23368E-03        -0.34151E-01         0.00000E+00
    0.22214E-03        -0.29885E-01         0.00000E+00
    0.20590E-03        -0.25619E-01         0.00000E+00
    0.18477E-03        -0.21351E-01         0.00000E+00
    0.15856E-03        -0.17083E-01         0.00000E+00
    0.12710E-03        -0.12814E-01         0.00000E+00
    0.90241E-04        -0.85433E-02         0.00000E+00
    0.47887E-04        -0.42720E-02         0.00000E+00
    0.00000E+00         0.00000E+00         0.00000E+00
    0.18962E-03        -0.63982E-01         0.00000E+00
    0.20386E-03        -0.59721E-01         0.00000E+00
    0.21566E-03        -0.55460E-01         0.00000E+00
    0.22461E-03        -0.51199E-01         0.00000E+00
    0.23034E-03        -0.46937E-01         0.00000E+00
    0.23250E-03        -0.42676E-01         0.00000E+00
    0.23076E-03        -0.38413E-01         0.00000E+00
    0.22487E-03        -0.34150E-01         0.00000E+00
    0.21459E-03        -0.29886E-01         0.00000E+00
    0.19971E-03        -0.25620E-01         0.00000E+00
    0.17999E-03        -0.21354E-01         0.00000E+00
    0.15517E-03        -0.17086E-01         0.00000E+00
    0.12501E-03        -0.12816E-01         0.00000E+00
    0.89244E-04        -0.85456E-02         0.00000E+00
    0.47631E-04        -0.42734E-02         0.00000E+00
    0.00000E+00         0.00000E+00         0.00000E+00
    0.17316E-03        -0.63967E-01         0.00000E+00
    0.18730E-03        -0.59708E-01         0.00000E+00
    0.19926E-03        -0.55449E-01         0.00000E+00
    0.20860E-03        -0.51190E-01         0.00000E+00
    0.21490E-03        -0.46930E-01         0.00000E+00
    0.21780E-03        -0.42671E-01         0.00000E+00
    0.21701E-03        -0.38410E-01         0.00000E+00
    0.21228E-03        -0.34149E-01         0.00000E+00
    0.20340E-03        -0.29886E-01         0.00000E+00
    0.19015E-03        -0.25622E-01         0.00000E+00
    0.17224E-03        -0.21357E-01         0.00000E+00
    0.14933E-03        -0.17089E-01         0.00000E+00
    0.12106E-03        -0.12820E-01         0.00000E+00
    0.87012E-04        -0.85481E-02         0.00000E+00
    0.46783E-04        -0.42749E-02         0.00000E+00
    0.00000E+00         0.00000E+00         0.00000E+00
    0.15420E-03        -0.63952E-01         0.00000E+00
    0.16797E-03        -0.59694E-01         0.00000E+00
    0.17980E-03        -0.55437E-01         0.00000E+00
    0.18923E-03        -0.51180E-01         0.00000E+00
    0.19580E-03        -0.46923E-01         0.00000E+00
    0.19919E-03        -0.42666E-01         0.00000E+00
    0.19917E-03        -0.38407E-01         0.00000E+00
    0.19556E-03        -0.34148E-01         0.00000E+00
    0.18819E-03        -0.29887E-01         0.00000E+00
    0.17680E-03        -0.25624E-01         0.00000E+00
    0.16108E-03        -0.21359E-01         0.00000E+00
    0.14061E-03        -0.17092E-01         0.00000E+00
    0.11487E-03        -0.12823E-01         0.00000E+00
    0.83280E-04        -0.85509E-02         0.00000E+00
    0.45204E-04        -0.42765E-02         0.00000E+00
    0.00000E+00         0.00000E+00         0.00000E+00
    0.13297E-03        -0.63938E-01         0.00000E+00
    0.14602E-03        -0.59682E-01         0.00000E+00
    0.15736E-03        -0.55427E-01         0.00000E+00
    0.16648E-03        -0.51172E-01         0.00000E+00
    0.17294E-03        -0.46917E-01         0.00000E+00
    0.17649E-03        -0.42661E-01         0.00000E+00
    0.17702E-03        -0.38405E-01         0.00000E+00
    0.17443E-03        -0.34147E-01         0.00000E+00
    0.16858E-03        -0.29888E-01         0.00000E+00
    0.15924E-03        -0.25626E-01         0.00000E+00
    0.14605E-03        -0.21362E-01         0.00000E+00
    0.12852E-03        -0.17096E-01         0.00000E+00
    0.10600E-03        -0.12826E-01         0.00000E+00
    0.77698E-04        -0.85537E-02         0.00000E+00
    0.42703E-04        -0.42782E-02         0.00000E+00
    0.00000E+00         0.00000E+00         0.00000E+00
    0.10970E-03        -0.63924E-01         0.00000E+00
    0.12160E-03        -0.59670E-01         0.00000E+00
    0.13198E-03        -0.55417E-01         0.00000E+00
    0.14029E-03        -0.51164E-01         0.00000E+00
    0.14619E-03        -0.46911E-01         0.00000E+00
    0.14958E-03        -0.42657E-01         0.00000E+00
    0.15043E-03        -0.38402E-01         0.00000E+00
    0.14872E-03        -0.34146E-01         0.00000E+00
    0.14434E-03        -0.29888E-01         0.00000E+00
    0.13711E-03        -0.25628E-01         0.00000E+00
    0.12667E-03        -0.21365E-01         0.00000E+00
    0.11250E-03        -0.17099E-01         0.00000E+00
    0.93878E-04        -0.12829E-01         0.00000E+00
    0.69802E-04        -0.85565E-02         0.00000E+00
    0.39011E-04        -0.42800E-02         0.00000E+00
    0.00000E+00         0.00000E+00         0.00000E+00
    0.84639E-04        -0.63913E-01         0.00000E+00
    0.94830E-04        -0.59660E-01         0.00000E+00
    0.10365E-03        -0.55408E-01         0.00000E+00
    0.11058E-03        -0.51157E-01         0.00000E+00
    0.11549E-03        -0.46906E-01         0.00000E+00
    0.11840E-03        -0.42654E-01         0.00000E+00
    0.11935E-03        -0.38400E-01         0.00000E+00
    0.11836E-03        -0.34145E-01         0.00000E+00
    0.11534E-03        -0.29888E-01         0.00000E+00
    0.11015E-03        -0.25629E-01         0.00000E+00
    0.10252E-03        -0.21367E-01         0.00000E+00
    0.91994E-04        -0.17101E-01         0.00000E+00
    0.77848E-04        -0.12832E-01         0.00000E+00
    0.58966E-04        -0.85592E-02         0.00000E+00
    0.33736E-04        -0.42818E-02         0.00000E+00
    0.00000E+00         0.00000E+00         0.00000E+00
    0.57988E-04        -0.63903E-01         0.00000E+00
    0.65713E-04        -0.59652E-01         0.00000E+00
    0.72244E-04        -0.55402E-01         0.00000E+00
    0.77270E-04        -0.51152E-01         0.00000E+00
    0.80826E-04        -0.46902E-01         0.00000E+00
    0.83005E-04        -0.42651E-01         0.00000E+00
    0.83852E-04        -0.38399E-01         0.00000E+00
    0.83378E-04        -0.34145E-01         0.00000E+00
    0.81548E-04        -0.29888E-01         0.00000E+00
    0.78268E-04        -0.25630E-01         0.00000E+00
    0.73363E-04        -0.21368E-01         0.00000E+00
    0.66518E-04        -0.17103E-01         0.00000E+00
    0.57176E-04        -0.12835E-01         0.00000E+00
    0.44363E-04        -0.85616E-02         0.00000E+00
    0.26285E-04        -0.42836E-02         0.00000E+00
    0.00000E+00         0.00000E+00         0.00000E+00
    0.29805E-04        -0.63897E-01         0.00000E+00
    0.34098E-04        -0.59647E-01         0.00000E+00
    0.37693E-04        -0.55398E-01         0.00000E+00
    0.40386E-04        -0.51149E-01         0.00000E+00
    0.42301E-04        -0.46899E-01         0.00000E+00
    0.43502E-04        -0.42649E-01         0.00000E+00
    0.44023E-04        -0.38397E-01         0.00000E+00
    0.43874E-04        -0.34144E-01         0.00000E+00
    0.43045E-04        -0.29888E-01         0.00000E+00
    0.41496E-04        -0.25630E-01         0.00000E+00
    0.39144E-04        -0.21369E-01         0.00000E+00
    0.35833E-04        -0.17104E-01         0.00000E+00
    0.31282E-04        -0.12836E-01         0.00000E+00
    0.24931E-04        -0.85634E-02         0.00000E+00
    0.15656E-04        -0.42853E-02         0.00000E+00
    0.00000E+00         0.00000E+00         0.00000E+00
    0.00000E+00        -0.63895E-01         0.00000E+00
    0.00000E+00        -0.59645E-01         0.00000E+00
    0.00000E+00        -0.55396E-01         0.00000E+00
    0.00000E+00        -0.51148E-01         0.00000E+00
    0.00000E+00        -0.46898E-01         0.00000E+00
    0.00000E+00        -0.42648E-01         0.00000E+00
    0.00000E+00        -0.38397E-01         0.00000E+00
    0.00000E+00        -0.34143E-01         0.00000E+00
    0.00000E+00        -0.29888E-01         0.00000E+00
    0.00000E+00        -0.25630E-01         0.00000E+00
    0.00000E+00        -0.21369E-01         0.00000E+00
    0.00000E+00        -0.17105E-01         0.00000E+00
    0.00000E+00        -0.12837E-01         0.00000E+00
    0.00000E+00        -0.85642E-02         0.00000E+00
    0.00000E+00        -0.42862E-02         0.00000E+00
    0.00000E+00         0.00000E+00         0.00000E+00
CELL_DATA        450
VECTORS vDarcy double 
    0.31720E-17        -0.13672E-20         0.00000E+00
    0.31722E-17        -0.34388E-20         0.00000E+00
    0.31715E-17        -0.36459E-20         0.00000E+00
    0.31727E-17        -0.11601E-20         0.00000E+00
    0.31713E-17        -0.13258E-20         0.00000E+00
    0.31707E-17        -0.32316E-20         0.00000E+00
    0.31719E-17        -0.13258E-20         0.00000E+00
    0.31729E-17        -0.24858E-20         0.00000E+00
    0.31705E-17         0.99434E-21         0.00000E+00
    0.31699E-17        -0.27344E-20         0.00000E+00
    0.31704E-17        -0.99434E-21         0.00000E+00
    0.31702E-17         0.18230E-20         0.00000E+00
    0.31706E-17        -0.66289E-21         0.00000E+00
    0.31707E-17         0.66289E-21         0.00000E+00
    0.31727E-17        -0.82861E-21         0.00000E+00
    0.95064E-17        -0.22787E-20         0.00000E+00
    0.95059E-17        -0.32730E-20         0.00000E+00
    0.95078E-17        -0.46402E-20         0.00000E+00
    0.95063E-17        -0.41431E-22         0.00000E+00
    0.95075E-17        -0.21544E-20         0.00000E+00
    0.95082E-17        -0.26101E-20         0.00000E+00
    0.95078E-17        -0.29830E-20         0.00000E+00
    0.95060E-17        -0.99434E-21         0.00000E+00
    0.95065E-17         0.16572E-20         0.00000E+00
    0.95074E-17        -0.24030E-20         0.00000E+00
    0.95054E-17         0.00000E+00         0.00000E+00
    0.95059E-17         0.66289E-21         0.00000E+00
    0.95074E-17        -0.49717E-21         0.00000E+00
    0.95073E-17         0.41431E-21         0.00000E+00
    0.95047E-17        -0.37288E-21         0.00000E+00
    0.15816E-16        -0.78718E-21         0.00000E+00
    0.15814E-16        -0.21544E-20         0.00000E+00
    0.15812E-16        -0.43917E-20         0.00000E+00
    0.15813E-16        -0.99434E-21         0.00000E+00
    0.15814E-16        -0.25687E-20         0.00000E+00
    0.15814E-16        -0.19058E-20         0.00000E+00
    0.15814E-16        -0.25687E-20         0.00000E+00
    0.15814E-16        -0.41431E-21         0.00000E+00
    0.15814E-16         0.66289E-21         0.00000E+00
    0.15813E-16        -0.14086E-20         0.00000E+00
    0.15813E-16         0.00000E+00         0.00000E+00
    0.15815E-16        -0.91148E-21         0.00000E+00
    0.15815E-16        -0.10772E-20         0.00000E+00
    0.15815E-16         0.12429E-20         0.00000E+00
    0.15814E-16         0.17815E-20         0.00000E+00
    0.22084E-16         0.24858E-21         0.00000E+00
    0.22082E-16         0.91148E-21         0.00000E+00
    0.22080E-16        -0.24444E-20         0.00000E+00
    0.22078E-16        -0.34802E-20         0.00000E+00
    0.22080E-16        -0.24858E-20         0.00000E+00
    0.22082E-16        -0.23201E-20         0.00000E+00
    0.22082E-16        -0.36873E-20         0.00000E+00
    0.22081E-16         0.17815E-20         0.00000E+00
    0.22080E-16         0.82862E-22         0.00000E+00
    0.22082E-16         0.33145E-21         0.00000E+00
    0.22080E-16        -0.82862E-21         0.00000E+00
    0.22079E-16        -0.41431E-21         0.00000E+00
    0.22077E-16        -0.33145E-21         0.00000E+00
    0.22076E-16         0.17401E-20         0.00000E+00
    0.22077E-16         0.16158E-20         0.00000E+00
    0.28287E-16        -0.41431E-22         0.00000E+00
    0.28287E-16         0.24858E-20         0.00000E+00
    0.28287E-16        -0.20301E-20         0.00000E+00
    0.28289E-16        -0.25273E-20         0.00000E+00
    0.28287E-16        -0.44745E-20         0.00000E+00
    0.28287E-16        -0.26516E-20         0.00000E+00
    0.28285E-16        -0.26516E-20         0.00000E+00
    0.28287E-16         0.33145E-21         0.00000E+00
    0.28288E-16         0.24858E-21         0.00000E+00
    0.28288E-16        -0.58003E-21         0.00000E+00
    0.28289E-16        -0.49717E-21         0.00000E+00
    0.28288E-16         0.19058E-20         0.00000E+00
    0.28287E-16         0.41431E-21         0.00000E+00
    0.28287E-16         0.11601E-20         0.00000E+00
    0.28287E-16         0.12844E-20         0.00000E+00
    0.34413E-16        -0.58003E-21         0.00000E+00
    0.34415E-16         0.12429E-20         0.00000E+00
    0.34416E-16        -0.16572E-20         0.00000E+00
    0.34415E-16        -0.35630E-20         0.00000E+00
    0.34415E-16        -0.16572E-20         0.00000E+00
    0.34411E-16        -0.10358E-20         0.00000E+00
    0.34412E-16        -0.29002E-20         0.00000E+00
    0.34413E-16        -0.19472E-20         0.00000E+00
    0.34415E-16        -0.49717E-21         0.00000E+00
    0.34416E-16        -0.70432E-21         0.00000E+00
    0.34415E-16        -0.58003E-21         0.00000E+00
    0.34415E-16         0.21958E-20         0.00000E+00
    0.34415E-16         0.82862E-21         0.00000E+00
    0.34415E-16         0.17401E-20         0.00000E+00
    0.34415E-16         0.49717E-21         0.00000E+00
    0.40447E-16         0.41431E-21         0.00000E+00
    0.40446E-16        -0.16572E-21         0.00000E+00
    0.40447E-16        -0.11601E-20         0.00000E+00
    0.40446E-16        -0.30659E-20         0.00000E+00
    0.40445E-16        -0.13258E-20         0.00000E+00
    0.40447E-16         0.99434E-21         0.00000E+00
    0.40446E-16        -0.41431E-20         0.00000E+00
    0.40446E-16        -0.29002E-20         0.00000E+00
    0.40446E-16        -0.20715E-20         0.00000E+00
    0.40446E-16        -0.74575E-21         0.00000E+00
    0.40447E-16         0.45574E-21         0.00000E+00
    0.40447E-16         0.21544E-20         0.00000E+00
    0.40448E-16         0.33145E-21         0.00000E+00
    0.40447E-16         0.21544E-20         0.00000E+00
    0.40447E-16         0.41431E-22         0.00000E+00
    0.46369E-16         0.16572E-20         0.00000E+00
    0.46370E-16        -0.49717E-21         0.00000E+00
    0.46371E-16        -0.25687E-20         0.00000E+00
    0.46370E-16        -0.66289E-21         0.00000E+00
    0.46368E-16        -0.13258E-20         0.00000E+00
    0.46369E-16        -0.15744E-20         0.00000E+00
    0.46372E-16        -0.22373E-20         0.00000E+00
    0.46370E-16        -0.19058E-20         0.00000E+00
    0.46370E-16        -0.39774E-20         0.00000E+00
    0.46370E-16         0.82862E-21         0.00000E+00
    0.46367E-16         0.41431E-21         0.00000E+00
    0.46369E-16        -0.49717E-21         0.00000E+00
    0.46370E-16         0.41431E-21         0.00000E+00
    0.46370E-16         0.33973E-20         0.00000E+00
    0.46369E-16         0.24858E-21         0.00000E+00
    0.52166E-16        -0.10358E-20         0.00000E+00
    0.52166E-16        -0.16572E-21         0.00000E+00
    0.52167E-16        -0.29830E-20         0.00000E+00
    0.52166E-16         0.41431E-21         0.00000E+00
    0.52168E-16        -0.16572E-20         0.00000E+00
    0.52167E-16        -0.28173E-20         0.00000E+00
    0.52165E-16        -0.13258E-20         0.00000E+00
    0.52165E-16        -0.12429E-20         0.00000E+00
    0.52162E-16        -0.33145E-20         0.00000E+00
    0.52163E-16         0.10772E-20         0.00000E+00
    0.52166E-16        -0.49717E-21         0.00000E+00
    0.52167E-16        -0.14086E-20         0.00000E+00
    0.52165E-16         0.20301E-20         0.00000E+00
    0.52167E-16         0.74575E-21         0.00000E+00
    0.52167E-16         0.21130E-20         0.00000E+00
    0.57819E-16        -0.27344E-20         0.00000E+00
    0.57819E-16         0.24858E-21         0.00000E+00
    0.57819E-16        -0.29830E-20         0.00000E+00
    0.57820E-16         0.82862E-22         0.00000E+00
    0.57819E-16        -0.99434E-21         0.00000E+00
    0.57816E-16        -0.13672E-20         0.00000E+00
    0.57817E-16        -0.41431E-21         0.00000E+00
    0.57818E-16        -0.17401E-20         0.00000E+00
    0.57817E-16         0.49717E-21         0.00000E+00
    0.57814E-16        -0.41431E-21         0.00000E+00
    0.57814E-16        -0.18230E-20         0.00000E+00
    0.57815E-16        -0.12429E-20         0.00000E+00
    0.57818E-16         0.82862E-21         0.00000E+00
    0.57818E-16        -0.95291E-21         0.00000E+00
    0.57821E-16         0.10772E-20         0.00000E+00
    0.63311E-16        -0.19058E-20         0.00000E+00
    0.63311E-16        -0.11186E-20         0.00000E+00
    0.63312E-16        -0.12015E-20         0.00000E+00
    0.63311E-16        -0.22787E-20         0.00000E+00
    0.63312E-16         0.91148E-21         0.00000E+00
    0.63313E-16        -0.16158E-20         0.00000E+00
    0.63312E-16        -0.14915E-20         0.00000E+00
    0.63311E-16        -0.66289E-21         0.00000E+00
    0.63312E-16         0.49717E-21         0.00000E+00
    0.63312E-16         0.13672E-20         0.00000E+00
    0.63309E-16        -0.13258E-20         0.00000E+00
    0.63308E-16        -0.25687E-20         0.00000E+00
    0.63309E-16        -0.24444E-20         0.00000E+00
    0.63310E-16         0.58003E-21         0.00000E+00
    0.63308E-16        -0.82861E-22         0.00000E+00
    0.68632E-16        -0.12429E-20         0.00000E+00
    0.68631E-16        -0.13258E-20         0.00000E+00
    0.68629E-16        -0.66289E-21         0.00000E+00
    0.68628E-16        -0.17401E-20         0.00000E+00
    0.68629E-16        -0.91148E-21         0.00000E+00
    0.68630E-16        -0.16158E-20         0.00000E+00
    0.68632E-16        -0.24030E-20         0.00000E+00
    0.68632E-16         0.11601E-20         0.00000E+00
    0.68630E-16         0.99434E-21         0.00000E+00
    0.68629E-16         0.17401E-20         0.00000E+00
    0.68629E-16        -0.82862E-22         0.00000E+00
    0.68630E-16        -0.30244E-20         0.00000E+00
    0.68628E-16        -0.12429E-20         0.00000E+00
    0.68627E-16        -0.58003E-21         0.00000E+00
    0.68630E-16         0.99434E-21         0.00000E+00
    0.73760E-16        -0.14915E-20         0.00000E+00
    0.73760E-16        -0.12429E-20         0.00000E+00
    0.73762E-16        -0.41431E-21         0.00000E+00
    0.73761E-16         0.24858E-21         0.00000E+00
    0.73760E-16        -0.30659E-20         0.00000E+00
    0.73761E-16        -0.14915E-20         0.00000E+00
    0.73761E-16        -0.36459E-20         0.00000E+00
    0.73762E-16         0.66289E-21         0.00000E+00
    0.73763E-16         0.30659E-20         0.00000E+00
    0.73764E-16         0.95291E-21         0.00000E+00
    0.73763E-16         0.00000E+00         0.00000E+00
    0.73762E-16        -0.24030E-20         0.00000E+00
    0.73762E-16        -0.58003E-21         0.00000E+00
    0.73762E-16        -0.99434E-21         0.00000E+00
    0.73763E-16        -0.16572E-20         0.00000E+00
    0.78693E-16        -0.18644E-20         0.00000E+00
    0.78692E-16        -0.12429E-20         0.00000E+00
    0.78691E-16         0.82861E-22         0.00000E+00
    0.78692E-16         0.24858E-21         0.00000E+00
    0.78692E-16        -0.20715E-20         0.00000E+00
    0.78691E-16        -0.16987E-20         0.00000E+00
    0.78691E-16        -0.33145E-20         0.00000E+00
    0.78691E-16         0.24858E-21         0.00000E+00
    0.78692E-16         0.14915E-20         0.00000E+00
    0.78692E-16         0.10772E-20         0.00000E+00
    0.78693E-16        -0.29002E-21         0.00000E+00
    0.78693E-16        -0.10772E-20         0.00000E+00
    0.78693E-16        -0.21544E-20         0.00000E+00
    0.78693E-16        -0.78718E-21         0.00000E+00
    0.78692E-16        -0.14915E-20         0.00000E+00
    0.83406E-16        -0.17401E-20         0.00000E+00
    0.83406E-16        -0.10772E-20         0.00000E+00
    0.83407E-16         0.95290E-21         0.00000E+00
    0.83407E-16        -0.70432E-21         0.00000E+00
    0.83406E-16        -0.33145E-21         0.00000E+00
    0.83405E-16        -0.21958E-20         0.00000E+00
    0.83405E-16        -0.25687E-20         0.00000E+00
    0.83404E-16         0.24858E-21         0.00000E+00
    0.83404E-16         0.15744E-20         0.00000E+00
    0.83405E-16        -0.24858E-21         0.00000E+00
    0.83406E-16        -0.91148E-21         0.00000E+00
    0.83406E-16        -0.66289E-21         0.00000E+00
    0.83406E-16        -0.11186E-20         0.00000E+00
    0.83406E-16        -0.95291E-21         0.00000E+00
    0.83406E-16        -0.58003E-21         0.00000E+00
    0.87892E-16        -0.11601E-20         0.00000E+00
    0.87891E-16        -0.17401E-20         0.00000E+00
    0.87893E-16        -0.16572E-21         0.00000E+00
    0.87894E-16        -0.29001E-21         0.00000E+00
    0.87894E-16        -0.49717E-21         0.00000E+00
    0.87893E-16        -0.11601E-20         0.00000E+00
    0.87891E-16        -0.82861E-21         0.00000E+00
    0.87890E-16        -0.41431E-21         0.00000E+00
    0.87891E-16         0.13258E-20         0.00000E+00
    0.87891E-16        -0.12844E-20         0.00000E+00
    0.87891E-16        -0.19887E-20         0.00000E+00
    0.87892E-16         0.12429E-21         0.00000E+00
    0.87892E-16        -0.11186E-20         0.00000E+00
    0.87891E-16         0.82861E-22         0.00000E+00
    0.87891E-16        -0.15329E-20         0.00000E+00
    0.92138E-16        -0.87004E-21         0.00000E+00
    0.92138E-16        -0.21130E-20         0.00000E+00
    0.92136E-16         0.24858E-21         0.00000E+00
    0.92135E-16        -0.29001E-21         0.00000E+00
    0.92137E-16        -0.14501E-20         0.00000E+00
    0.92136E-16         0.11601E-20         0.00000E+00
    0.92135E-16         0.41431E-21         0.00000E+00
    0.92136E-16        -0.66289E-21         0.00000E+00
    0.92135E-16         0.41431E-21         0.00000E+00
    0.92134E-16         0.11601E-20         0.00000E+00
    0.92133E-16        -0.34802E-20         0.00000E+00
    0.92135E-16        -0.11601E-20         0.00000E+00
    0.92136E-16        -0.12429E-20         0.00000E+00
    0.92137E-16         0.66289E-21         0.00000E+00
    0.92135E-16         0.16572E-21         0.00000E+00
    0.96129E-16        -0.14501E-20         0.00000E+00
    0.96127E-16         0.24858E-21         0.00000E+00
    0.96128E-16         0.12015E-20         0.00000E+00
    0.96127E-16        -0.58003E-21         0.00000E+00
    0.96126E-16        -0.10772E-20         0.00000E+00
    0.96128E-16         0.99433E-21         0.00000E+00
    0.96128E-16        -0.10772E-20         0.00000E+00
    0.96128E-16         0.74575E-21         0.00000E+00
    0.96127E-16         0.19058E-20         0.00000E+00
    0.96127E-16         0.17401E-20         0.00000E+00
    0.96127E-16        -0.32316E-20         0.00000E+00
    0.96127E-16        -0.33973E-20         0.00000E+00
    0.96127E-16        -0.14501E-20         0.00000E+00
    0.96128E-16        -0.87004E-21         0.00000E+00
    0.96129E-16         0.16158E-20         0.00000E+00
    0.99853E-16        -0.87004E-21         0.00000E+00
    0.99854E-16        -0.16572E-21         0.00000E+00
    0.99855E-16         0.91147E-21         0.00000E+00
    0.99856E-16        -0.58003E-21         0.00000E+00
    0.99856E-16        -0.99433E-21         0.00000E+00
    0.99855E-16         0.00000E+00         0.00000E+00
    0.99855E-16         0.82861E-22         0.00000E+00
    0.99853E-16         0.74575E-21         0.00000E+00
    0.99855E-16         0.99434E-21         0.00000E+00
    0.99857E-16        -0.41431E-21         0.00000E+00
    0.99857E-16        -0.13258E-20         0.00000E+00
    0.99856E-16        -0.36459E-20         0.00000E+00
    0.99855E-16        -0.12844E-20         0.00000E+00
    0.99854E-16        -0.15329E-20         0.00000E+00
    0.99857E-16        -0.14501E-20         0.00000E+00
    0.10331E-15         0.00000E+00         0.00000E+00
    0.10331E-15        -0.18229E-20         0.00000E+00
    0.10331E-15         0.12429E-20         0.00000E+00
    0.10331E-15        -0.12429E-20         0.00000E+00
    0.10331E-15        -0.10358E-20         0.00000E+00
    0.10331E-15         0.82861E-21         0.00000E+00
    0.10331E-15         0.66289E-21         0.00000E+00
    0.10331E-15         0.14915E-20         0.00000E+00
    0.10331E-15         0.00000E+00         0.00000E+00
    0.10331E-15        -0.10772E-20         0.00000E+00
    0.10331E-15        -0.91147E-21         0.00000E+00
    0.10331E-15        -0.33144E-20         0.00000E+00
    0.10331E-15        -0.66289E-21         0.00000E+00
    0.10331E-15        -0.12429E-20         0.00000E+00
    0.10331E-15        -0.17401E-20         0.00000E+00
    0.10648E-15         0.16572E-21         0.00000E+00
    0.10648E-15        -0.87004E-21         0.00000E+00
    0.10648E-15         0.82861E-22         0.00000E+00
    0.10648E-15        -0.15329E-20         0.00000E+00
    0.10648E-15        -0.12015E-20         0.00000E+00
    0.10648E-15         0.99433E-21         0.00000E+00
    0.10648E-15        -0.41431E-21         0.00000E+00
    0.10648E-15         0.13258E-20         0.00000E+00
    0.10648E-15         0.11601E-20         0.00000E+00
    0.10648E-15        -0.10772E-20         0.00000E+00
    0.10648E-15        -0.13258E-20         0.00000E+00
    0.10648E-15        -0.33559E-20         0.00000E+00
    0.10648E-15        -0.45574E-21         0.00000E+00
    0.10648E-15        -0.22372E-20         0.00000E+00
    0.10648E-15         0.82861E-21         0.00000E+00
    0.10936E-15         0.58003E-21         0.00000E+00
    0.10936E-15        -0.16572E-21         0.00000E+00
    0.10936E-15         0.24858E-21         0.00000E+00
    0.10936E-15        -0.12429E-20         0.00000E+00
    0.10936E-15         0.82861E-22         0.00000E+00
    0.10936E-15        -0.91147E-21         0.00000E+00
    0.10936E-15         0.37287E-21         0.00000E+00
    0.10936E-15        -0.91147E-21         0.00000E+00
    0.10936E-15         0.14086E-20         0.00000E+00
    0.10936E-15        -0.66289E-21         0.00000E+00
    0.10936E-15        -0.82861E-22         0.00000E+00
    0.10936E-15        -0.33144E-20         0.00000E+00
    0.10936E-15         0.82861E-22         0.00000E+00
    0.10936E-15        -0.10358E-20         0.00000E+00
    0.10936E-15        -0.29001E-21         0.00000E+00
    0.11194E-15        -0.82861E-22         0.00000E+00
    0.11194E-15        -0.41430E-22         0.00000E+00
    0.11194E-15         0.82861E-21         0.00000E+00
    0.11194E-15        -0.20715E-21         0.00000E+00
    0.11194E-15         0.87004E-21         0.00000E+00
    0.11194E-15        -0.41430E-21         0.00000E+00
    0.11194E-15         0.29001E-21         0.00000E+00
    0.11194E-15        -0.70432E-21         0.00000E+00
    0.11194E-15         0.49716E-21         0.00000E+00
    0.11194E-15        -0.49716E-21         0.00000E+00
    0.11194E-15        -0.58003E-21         0.00000E+00
    0.11194E-15        -0.24858E-20         0.00000E+00
    0.11194E-15        -0.49717E-21         0.00000E+00
    0.11194E-15         0.12015E-20         0.00000E+00
    0.11194E-15         0.53860E-21         0.00000E+00
    0.11421E-15        -0.23201E-20         0.00000E+00
    0.11421E-15         0.14086E-20         0.00000E+00
    0.11422E-15        -0.58002E-21         0.00000E+00
    0.11422E-15         0.29001E-20         0.00000E+00
    0.11421E-15         0.12429E-20         0.00000E+00
    0.11421E-15        -0.12429E-21         0.00000E+00
    0.11421E-15        -0.66289E-21         0.00000E+00
    0.11421E-15         0.66288E-21         0.00000E+00
    0.11421E-15        -0.66288E-21         0.00000E+00
    0.11421E-15        -0.41430E-22         0.00000E+00
    0.11421E-15        -0.29001E-21         0.00000E+00
    0.11421E-15        -0.22372E-20         0.00000E+00
    0.11421E-15         0.16572E-21         0.00000E+00
    0.11421E-15         0.13258E-20         0.00000E+00
    0.11421E-15         0.53859E-21         0.00000E+00
    0.11617E-15        -0.13258E-20         0.00000E+00
    0.11617E-15        -0.17401E-20         0.00000E+00
    0.11617E-15         0.19058E-20         0.00000E+00
    0.11617E-15         0.41430E-20         0.00000E+00
    0.11617E-15         0.16158E-20         0.00000E+00
    0.11617E-15         0.95290E-21         0.00000E+00
    0.11617E-15        -0.74574E-21         0.00000E+00
    0.11617E-15        -0.12429E-20         0.00000E+00
    0.11617E-15        -0.66288E-21         0.00000E+00
    0.11617E-15         0.33144E-21         0.00000E+00
    0.11617E-15         0.41430E-22         0.00000E+00
    0.11617E-15        -0.22372E-20         0.00000E+00
    0.11617E-15         0.23615E-20         0.00000E+00
    0.11617E-15         0.41430E-21         0.00000E+00
    0.11617E-15        -0.10772E-20         0.00000E+00
    0.11781E-15        -0.41430E-21         0.00000E+00
    0.11781E-15        -0.24030E-20         0.00000E+00
    0.11781E-15         0.43916E-20         0.00000E+00
    0.11781E-15         0.24030E-20         0.00000E+00
    0.11781E-15         0.12429E-20         0.00000E+00
    0.11781E-15         0.82860E-21         0.00000E+00
    0.11782E-15        -0.13258E-20         0.00000E+00
    0.11781E-15        -0.22787E-20         0.00000E+00
    0.11782E-15         0.00000E+00         0.00000E+00
    0.11781E-15         0.00000E+00         0.00000E+00
    0.11781E-15        -0.12429E-21         0.00000E+00
    0.11781E-15        -0.17815E-20         0.00000E+00
    0.11781E-15         0.22372E-20         0.00000E+00
    0.11781E-15        -0.82860E-22         0.00000E+00
    0.11781E-15        -0.66288E-21         0.00000E+00
    0.11913E-15        -0.10772E-20         0.00000E+00
    0.11913E-15        -0.24858E-21         0.00000E+00
    0.11913E-15         0.20301E-20         0.00000E+00
    0.11914E-15         0.13258E-20         0.00000E+00
    0.11914E-15         0.21129E-20         0.00000E+00
    0.11913E-15         0.58002E-21         0.00000E+00
    0.11913E-15        -0.20715E-20         0.00000E+00
    0.11913E-15         0.82860E-22         0.00000E+00
    0.11913E-15        -0.20715E-21         0.00000E+00
    0.11913E-15        -0.49716E-21         0.00000E+00
    0.11913E-15         0.82860E-22         0.00000E+00
    0.11913E-15        -0.87003E-21         0.00000E+00
    0.11913E-15         0.74574E-21         0.00000E+00
    0.11913E-15         0.16572E-20         0.00000E+00
    0.11913E-15        -0.41430E-21         0.00000E+00
    0.12013E-15         0.00000E+00         0.00000E+00
    0.12013E-15        -0.24858E-21         0.00000E+00
    0.12013E-15         0.17401E-20         0.00000E+00
    0.12013E-15         0.66288E-21         0.00000E+00
    0.12013E-15         0.33144E-21         0.00000E+00
    0.12013E-15         0.16986E-20         0.00000E+00
    0.12013E-15        -0.15329E-20         0.00000E+00
    0.12012E-15         0.95289E-21         0.00000E+00
    0.12013E-15         0.10772E-20         0.00000E+00
    0.12012E-15        -0.15743E-20         0.00000E+00
    0.12013E-15        -0.20715E-21         0.00000E+00
    0.12012E-15        -0.66288E-21         0.00000E+00
    0.12012E-15         0.41430E-21         0.00000E+00
    0.12013E-15         0.24029E-20         0.00000E+00
    0.12013E-15        -0.87003E-21         0.00000E+00
    0.12079E-15         0.16572E-21         0.00000E+00
    0.12079E-15        -0.66288E-21         0.00000E+00
    0.12079E-15         0.19058E-20         0.00000E+00
    0.12079E-15         0.49716E-21         0.00000E+00
    0.12079E-15        -0.33144E-21         0.00000E+00
    0.12079E-15         0.41430E-21         0.00000E+00
    0.12079E-15         0.33144E-21         0.00000E+00
    0.12079E-15         0.99431E-21         0.00000E+00
    0.12079E-15         0.12429E-20         0.00000E+00
    0.12079E-15        -0.23201E-20         0.00000E+00
    0.12079E-15         0.53859E-21         0.00000E+00
    0.12079E-15        -0.82859E-21         0.00000E+00
    0.12079E-15         0.00000E+00         0.00000E+00
    0.12079E-15         0.49716E-21         0.00000E+00
    0.12079E-15        -0.91146E-21         0.00000E+00
    0.12112E-15        -0.66288E-21         0.00000E+00
    0.12112E-15         0.82860E-22         0.00000E+00
    0.12112E-15         0.10772E-20         0.00000E+00
    0.12112E-15         0.82860E-22         0.00000E+00
    0.12112E-15         0.00000E+00         0.00000E+00
    0.12112E-15         0.00000E+00         0.00000E+00
    0.12112E-15         0.00000E+00         0.00000E+00
    0.12112E-15         0.14086E-20         0.00000E+00
    0.12112E-15         0.82859E-22         0.00000E+00
    0.12112E-15        -0.11600E-20         0.00000E+00
    0.12112E-15         0.10772E-20         0.00000E+00
    0.12112E-15        -0.24858E-21         0.00000E+00
    0.12112E-15        -0.70430E-21         0.00000E+00
    0.12112E-15         0.41430E-21         0.00000E+00
    0.12112E-15        -0.33144E-21         0.00000E+00
POINT_DATA        496
VECTORS vDarcyNodal double 
    0.31700E-17         0.00000E+00         0.00000E+00
    0.31733E-17        -0.23201E-20         0.00000E+00
    0.31713E-17        -0.36459E-20         0.00000E+00
    0.31719E-17        -0.19887E-20         0.00000E+00
    0.31723E-17        -0.16572E-20         0.00000E+00
    0.31700E-17        -0.26516E-20         0.00000E+00
    0.31706E-17        -0.16572E-20         0.00000E+00
    0.31739E-17        -0.16572E-20         0.00000E+00
    0.31726E-17        -0.19887E-20         0.00000E+00
    0.31680E-17        -0.99434E-21         0.00000E+00
    0.31713E-17        -0.16572E-20         0.00000E+00
    0.31690E-17         0.66289E-21         0.00000E+00
    0.31713E-17         0.13258E-20         0.00000E+00
    0.31706E-17         0.33145E-21         0.00000E+00
    0.31713E-17         0.13258E-20         0.00000E+00
    0.31739E-17         0.66289E-21         0.00000E+00
    0.63389E-17        -0.31402E-20         0.00000E+00
    0.63392E-17        -0.26516E-20         0.00000E+00
    0.63396E-17        -0.33145E-20         0.00000E+00
    0.63399E-17        -0.24858E-20         0.00000E+00
    0.63385E-17        -0.41860E-21         0.00000E+00
    0.63399E-17        -0.15701E-20         0.00000E+00
    0.63389E-17        -0.32273E-20         0.00000E+00
    0.63406E-17        -0.26516E-20         0.00000E+00
    0.63389E-17         0.33145E-21         0.00000E+00
    0.63383E-17        -0.99434E-21         0.00000E+00
    0.63384E-17        -0.23201E-20         0.00000E+00
    0.63373E-17         0.33145E-21         0.00000E+00
    0.63389E-17         0.33145E-21         0.00000E+00
    0.63389E-17         0.00000E+00         0.00000E+00
    0.63389E-17        -0.91576E-21         0.00000E+00
    0.63386E-17        -0.21630E-20         0.00000E+00
    0.12662E-16        -0.97718E-21         0.00000E+00
    0.12661E-16        -0.26516E-20         0.00000E+00
    0.12660E-16        -0.43088E-20         0.00000E+00
    0.12660E-16        -0.16572E-20         0.00000E+00
    0.12661E-16        -0.15001E-20         0.00000E+00
    0.12661E-16        -0.26430E-20         0.00000E+00
    0.12661E-16        -0.19801E-20         0.00000E+00
    0.12661E-16        -0.14915E-20         0.00000E+00
    0.12660E-16         0.00000E+00         0.00000E+00
    0.12661E-16        -0.33145E-21         0.00000E+00
    0.12659E-16        -0.49717E-21         0.00000E+00
    0.12659E-16         0.00000E+00         0.00000E+00
    0.12661E-16        -0.33145E-21         0.00000E+00
    0.12661E-16        -0.12368E-27         0.00000E+00
    0.12660E-16         0.82004E-21         0.00000E+00
    0.12658E-16         0.97718E-21         0.00000E+00
    0.18951E-16        -0.13258E-20         0.00000E+00
    0.18950E-16        -0.66289E-21         0.00000E+00
    0.18946E-16        -0.19887E-20         0.00000E+00
    0.18945E-16        -0.36459E-20         0.00000E+00
    0.18947E-16        -0.23287E-20         0.00000E+00
    0.18947E-16        -0.19887E-20         0.00000E+00
    0.18948E-16        -0.28087E-20         0.00000E+00
    0.18949E-16        -0.16572E-20         0.00000E+00
    0.18947E-16         0.34002E-21         0.00000E+00
    0.18947E-16         0.16572E-21         0.00000E+00
    0.18946E-16        -0.50575E-21         0.00000E+00
    0.18947E-16        -0.13258E-20         0.00000E+00
    0.18946E-16        -0.16572E-20         0.00000E+00
    0.18945E-16         0.66289E-21         0.00000E+00
    0.18945E-16         0.18315E-20         0.00000E+00
    0.18945E-16         0.23373E-20         0.00000E+00
    0.25186E-16         0.13601E-20         0.00000E+00
    0.25186E-16         0.16572E-20         0.00000E+00
    0.25184E-16         0.33145E-21         0.00000E+00
    0.25184E-16        -0.18230E-20         0.00000E+00
    0.25183E-16        -0.39945E-20         0.00000E+00
    0.25184E-16        -0.31316E-20         0.00000E+00
    0.25184E-16        -0.32973E-20         0.00000E+00
    0.25183E-16        -0.66289E-21         0.00000E+00
    0.25184E-16         0.99434E-21         0.00000E+00
    0.25184E-16        -0.33145E-21         0.00000E+00
    0.25185E-16         0.12156E-27         0.00000E+00
    0.25185E-16         0.33145E-21         0.00000E+00
    0.25182E-16         0.99434E-21         0.00000E+00
    0.25182E-16         0.66289E-21         0.00000E+00
    0.25182E-16         0.13086E-20         0.00000E+00
    0.25183E-16         0.12915E-20         0.00000E+00
    0.31350E-16         0.00000E+00         0.00000E+00
    0.31351E-16         0.16401E-20         0.00000E+00
    0.31352E-16        -0.34216E-27         0.00000E+00
    0.31352E-16        -0.26516E-20         0.00000E+00
    0.31352E-16        -0.26516E-20         0.00000E+00
    0.31350E-16        -0.32973E-20         0.00000E+00
    0.31349E-16        -0.16572E-20         0.00000E+00
    0.31349E-16        -0.13258E-20         0.00000E+00
    0.31351E-16        -0.33145E-21         0.00000E+00
    0.31352E-16         0.10447E-27         0.00000E+00
    0.31352E-16        -0.99434E-21         0.00000E+00
    0.31352E-16         0.99434E-21         0.00000E+00
    0.31352E-16         0.13258E-20         0.00000E+00
    0.31351E-16         0.66289E-21         0.00000E+00
    0.31350E-16         0.99434E-21         0.00000E+00
    0.31351E-16         0.13258E-20         0.00000E+00
    0.37431E-16        -0.66289E-21         0.00000E+00
    0.37430E-16        -0.99434E-21         0.00000E+00
    0.37431E-16        -0.66289E-21         0.00000E+00
    0.37431E-16        -0.19887E-20         0.00000E+00
    0.37430E-16        -0.20058E-20         0.00000E+00
    0.37430E-16         0.33145E-21         0.00000E+00
    0.37428E-16        -0.23030E-20         0.00000E+00
    0.37429E-16        -0.29830E-20         0.00000E+00
    0.37430E-16        -0.18058E-20         0.00000E+00
    0.37431E-16        -0.13258E-20         0.00000E+00
    0.37431E-16        -0.17155E-22         0.00000E+00
    0.37431E-16         0.66289E-21         0.00000E+00
    0.37431E-16         0.16572E-20         0.00000E+00
    0.37432E-16         0.16572E-20         0.00000E+00
    0.37431E-16         0.10115E-20         0.00000E+00
    0.37431E-16         0.34310E-22         0.00000E+00
    0.43409E-16         0.20573E-20         0.00000E+00
    0.43408E-16         0.99434E-21         0.00000E+00
    0.43408E-16        -0.10286E-20         0.00000E+00
    0.43409E-16        -0.16229E-20         0.00000E+00
    0.43407E-16        -0.19544E-20         0.00000E+00
    0.43407E-16        -0.10286E-20         0.00000E+00
    0.43409E-16        -0.69720E-21         0.00000E+00
    0.43408E-16        -0.29487E-20         0.00000E+00
    0.43408E-16        -0.26173E-20         0.00000E+00
    0.43409E-16        -0.16572E-20         0.00000E+00
    0.43407E-16        -0.69720E-21         0.00000E+00
    0.43407E-16         0.79431E-21         0.00000E+00
    0.43409E-16         0.33145E-21         0.00000E+00
    0.43409E-16         0.16915E-20         0.00000E+00
    0.43408E-16         0.16572E-20         0.00000E+00
    0.43408E-16        -0.68620E-22         0.00000E+00
    0.49266E-16         0.13944E-20         0.00000E+00
    0.49268E-16        -0.17439E-27         0.00000E+00
    0.49268E-16        -0.16572E-20         0.00000E+00
    0.49269E-16        -0.99434E-21         0.00000E+00
    0.49268E-16        -0.34310E-22         0.00000E+00
    0.49268E-16        -0.19544E-20         0.00000E+00
    0.49269E-16        -0.32802E-20         0.00000E+00
    0.49268E-16        -0.13258E-20         0.00000E+00
    0.49267E-16        -0.29830E-20         0.00000E+00
    0.49266E-16        -0.99434E-21         0.00000E+00
    0.49266E-16         0.19887E-20         0.00000E+00
    0.49267E-16        -0.99434E-21         0.00000E+00
    0.49268E-16        -0.33145E-21         0.00000E+00
    0.49267E-16         0.23201E-20         0.00000E+00
    0.49269E-16         0.16229E-20         0.00000E+00
    0.49267E-16        -0.68620E-22         0.00000E+00
    0.54991E-16        -0.19201E-20         0.00000E+00
    0.54993E-16        -0.99434E-21         0.00000E+00
    0.54993E-16        -0.16572E-20         0.00000E+00
    0.54993E-16        -0.96003E-21         0.00000E+00
    0.54994E-16        -0.99434E-21         0.00000E+00
    0.54993E-16        -0.23201E-20         0.00000E+00
    0.54992E-16        -0.66289E-21         0.00000E+00
    0.54991E-16        -0.99434E-21         0.00000E+00
    0.54991E-16        -0.99434E-21         0.00000E+00
    0.54988E-16        -0.99434E-21         0.00000E+00
    0.54989E-16        -0.16572E-20         0.00000E+00
    0.54991E-16        -0.13258E-20         0.00000E+00
    0.54991E-16         0.29714E-21         0.00000E+00
    0.54992E-16         0.49717E-21         0.00000E+00
    0.54994E-16         0.18573E-20         0.00000E+00
    0.54994E-16         0.46402E-20         0.00000E+00
    0.60565E-16        -0.33145E-20         0.00000E+00
    0.60564E-16        -0.18573E-20         0.00000E+00
    0.60565E-16        -0.99434E-21         0.00000E+00
    0.60564E-16        -0.19887E-20         0.00000E+00
    0.60566E-16         0.30518E-27         0.00000E+00
    0.60564E-16         0.34310E-22         0.00000E+00
    0.60565E-16        -0.16572E-20         0.00000E+00
    0.60565E-16        -0.99434E-21         0.00000E+00
    0.60564E-16         0.35357E-28         0.00000E+00
    0.60564E-16         0.99434E-21         0.00000E+00
    0.60562E-16        -0.99434E-21         0.00000E+00
    0.60561E-16        -0.26516E-20         0.00000E+00
    0.60562E-16        -0.16572E-20         0.00000E+00
    0.60565E-16        -0.66289E-21         0.00000E+00
    0.60564E-16        -0.13258E-20         0.00000E+00
    0.60565E-16        -0.26516E-20         0.00000E+00
    0.65971E-16        -0.66289E-21         0.00000E+00
    0.65971E-16        -0.13258E-20         0.00000E+00
    0.65971E-16        -0.16572E-20         0.00000E+00
    0.65970E-16        -0.16572E-20         0.00000E+00
    0.65969E-16        -0.99434E-21         0.00000E+00
    0.65971E-16        -0.66289E-21         0.00000E+00
    0.65971E-16        -0.99434E-21         0.00000E+00
    0.65972E-16        -0.33145E-21         0.00000E+00
    0.65971E-16         0.00000E+00         0.00000E+00
    0.65970E-16         0.99434E-21         0.00000E+00
    0.65970E-16         0.96003E-21         0.00000E+00
    0.65968E-16        -0.11601E-20         0.00000E+00
    0.65969E-16        -0.29487E-20         0.00000E+00
    0.65968E-16        -0.13258E-20         0.00000E+00
    0.65969E-16         0.16572E-20         0.00000E+00
    0.65968E-16         0.19887E-20         0.00000E+00
    0.71195E-16        -0.26516E-20         0.00000E+00
    0.71195E-16        -0.13258E-20         0.00000E+00
    0.71196E-16         0.00000E+00         0.00000E+00
    0.71196E-16        -0.33145E-21         0.00000E+00
    0.71194E-16        -0.13601E-20         0.00000E+00
    0.71195E-16        -0.16572E-20         0.00000E+00
    0.71196E-16        -0.26173E-20         0.00000E+00
    0.71197E-16        -0.99434E-21         0.00000E+00
    0.71197E-16         0.26859E-20         0.00000E+00
    0.71196E-16         0.19887E-20         0.00000E+00
    0.71196E-16         0.29714E-21         0.00000E+00
    0.71196E-16        -0.23201E-20         0.00000E+00
    0.71195E-16        -0.16572E-20         0.00000E+00
    0.71195E-16        -0.66289E-21         0.00000E+00
    0.71195E-16        -0.14572E-20         0.00000E+00
    0.71198E-16         0.40007E-21         0.00000E+00
    0.76226E-16        -0.66289E-21         0.00000E+00
    0.76226E-16        -0.16572E-20         0.00000E+00
    0.76226E-16        -0.16572E-20         0.00000E+00
    0.76226E-16         0.66289E-21         0.00000E+00
    0.76226E-16        -0.66289E-21         0.00000E+00
    0.76226E-16        -0.26516E-20         0.00000E+00
    0.76226E-16        -0.26516E-20         0.00000E+00
    0.76226E-16        -0.15886E-20         0.00000E+00
    0.76227E-16         0.99434E-21         0.00000E+00
    0.76228E-16         0.17543E-20         0.00000E+00
    0.76228E-16         0.66289E-21         0.00000E+00
    0.76228E-16        -0.66289E-21         0.00000E+00
    0.76227E-16        -0.16572E-20         0.00000E+00
    0.76228E-16        -0.99434E-21         0.00000E+00
    0.76228E-16        -0.16572E-20         0.00000E+00
    0.76227E-16        -0.33145E-20         0.00000E+00
    0.81049E-16        -0.18514E-20         0.00000E+00
    0.81050E-16        -0.16572E-20         0.00000E+00
    0.81049E-16        -0.68619E-22         0.00000E+00
    0.81048E-16         0.68619E-22         0.00000E+00
    0.81050E-16        -0.12572E-20         0.00000E+00
    0.81048E-16        -0.18916E-20         0.00000E+00
    0.81048E-16        -0.27202E-20         0.00000E+00
    0.81048E-16        -0.17543E-20         0.00000E+00
    0.81048E-16         0.89723E-21         0.00000E+00
    0.81048E-16         0.13258E-20         0.00000E+00
    0.81050E-16        -0.68620E-22         0.00000E+00
    0.81050E-16        -0.13944E-20         0.00000E+00
    0.81049E-16        -0.99434E-21         0.00000E+00
    0.81049E-16        -0.59427E-21         0.00000E+00
    0.81049E-16        -0.33145E-21         0.00000E+00
    0.81048E-16        -0.13724E-21         0.00000E+00
    0.85650E-16        -0.19887E-20         0.00000E+00
    0.85649E-16        -0.13258E-20         0.00000E+00
    0.85649E-16         0.68620E-22         0.00000E+00
    0.85651E-16        -0.18535E-27         0.00000E+00
    0.85650E-16        -0.40006E-21         0.00000E+00
    0.85650E-16        -0.13258E-20         0.00000E+00
    0.85648E-16        -0.23201E-20         0.00000E+00
    0.85647E-16        -0.92572E-21         0.00000E+00
    0.85647E-16         0.10630E-20         0.00000E+00
    0.85647E-16        -0.23434E-21         0.00000E+00
    0.85648E-16        -0.13944E-20         0.00000E+00
    0.85649E-16        -0.97103E-22         0.00000E+00
    0.85649E-16        -0.82861E-21         0.00000E+00
    0.85649E-16        -0.10630E-20         0.00000E+00
    0.85647E-16        -0.99434E-21         0.00000E+00
    0.85649E-16        -0.13258E-20         0.00000E+00
    0.90015E-16         0.13724E-21         0.00000E+00
    0.90014E-16        -0.99433E-21         0.00000E+00
    0.90015E-16        -0.19887E-20         0.00000E+00
    0.90014E-16        -0.49717E-21         0.00000E+00
    0.90015E-16        -0.68620E-22         0.00000E+00
    0.90015E-16        -0.26283E-21         0.00000E+00
    0.90013E-16         0.40006E-21         0.00000E+00
    0.90013E-16        -0.14720E-27         0.00000E+00
    0.90013E-16        -0.33145E-21         0.00000E+00
    0.90013E-16         0.00000E+00         0.00000E+00
    0.90011E-16        -0.16572E-20         0.00000E+00
    0.90013E-16        -0.16572E-20         0.00000E+00
    0.90014E-16        -0.66289E-21         0.00000E+00
    0.90014E-16        -0.22991E-27         0.00000E+00
    0.90014E-16        -0.40006E-21         0.00000E+00
    0.90012E-16        -0.21259E-20         0.00000E+00
    0.94133E-16        -0.85709E-21         0.00000E+00
    0.94134E-16        -0.12572E-20         0.00000E+00
    0.94132E-16         0.33144E-21         0.00000E+00
    0.94132E-16         0.97102E-22         0.00000E+00
    0.94131E-16        -0.13258E-20         0.00000E+00
    0.94132E-16         0.73151E-21         0.00000E+00
    0.94132E-16         0.26283E-21         0.00000E+00
    0.94132E-16        -0.66289E-21         0.00000E+00
    0.94132E-16         0.73151E-21         0.00000E+00
    0.94131E-16         0.16572E-20         0.00000E+00
    0.94130E-16        -0.99434E-21         0.00000E+00
    0.94130E-16        -0.29830E-20         0.00000E+00
    0.94132E-16        -0.19887E-20         0.00000E+00
    0.94132E-16        -0.99434E-21         0.00000E+00
    0.94133E-16         0.10914E-20         0.00000E+00
    0.94131E-16         0.25143E-20         0.00000E+00
    0.97991E-16        -0.18514E-20         0.00000E+00
    0.97991E-16         0.26191E-27         0.00000E+00
    0.97991E-16         0.33144E-21         0.00000E+00
    0.97991E-16         0.89723E-21         0.00000E+00
    0.97991E-16        -0.72306E-27         0.00000E+00
    0.97991E-16        -0.13258E-20         0.00000E+00
    0.97992E-16        -0.33144E-21         0.00000E+00
    0.97991E-16         0.16402E-27         0.00000E+00
    0.97990E-16         0.16572E-20         0.00000E+00
    0.97991E-16         0.16572E-20         0.00000E+00
    0.97993E-16        -0.66289E-21         0.00000E+00
    0.97991E-16        -0.29830E-20         0.00000E+00
    0.97991E-16        -0.27202E-20         0.00000E+00
    0.97990E-16        -0.14915E-20         0.00000E+00
    0.97991E-16        -0.26283E-21         0.00000E+00
    0.97994E-16         0.13258E-20         0.00000E+00
    0.10158E-15         0.00000E+00         0.00000E+00
    0.10158E-15        -0.92571E-21         0.00000E+00
    0.10158E-15         0.68620E-22         0.00000E+00
    0.10158E-15        -0.46528E-27         0.00000E+00
    0.10158E-15        -0.99433E-21         0.00000E+00
    0.10158E-15         0.00000E+00         0.00000E+00
    0.10158E-15         0.33144E-21         0.00000E+00
    0.10158E-15         0.99433E-21         0.00000E+00
    0.10158E-15         0.66289E-21         0.00000E+00
    0.10158E-15        -0.66289E-21         0.00000E+00
    0.10158E-15        -0.66289E-21         0.00000E+00
    0.10158E-15        -0.16572E-20         0.00000E+00
    0.10158E-15        -0.23201E-20         0.00000E+00
    0.10158E-15        -0.12572E-20         0.00000E+00
    0.10158E-15        -0.26516E-20         0.00000E+00
    0.10158E-15        -0.41146E-20         0.00000E+00
    0.10489E-15         0.00000E+00         0.00000E+00
    0.10489E-15        -0.12287E-20         0.00000E+00
    0.10489E-15        -0.33144E-21         0.00000E+00
    0.10489E-15        -0.30721E-27         0.00000E+00
    0.10489E-15        -0.16572E-20         0.00000E+00
    0.10490E-15         0.68620E-22         0.00000E+00
    0.10490E-15         0.99433E-21         0.00000E+00
    0.10490E-15         0.99433E-21         0.00000E+00
    0.10490E-15         0.99433E-21         0.00000E+00
    0.10490E-15        -0.33144E-21         0.00000E+00
    0.10490E-15        -0.13258E-20         0.00000E+00
    0.10490E-15        -0.26516E-20         0.00000E+00
    0.10490E-15        -0.16572E-20         0.00000E+00
    0.10490E-15        -0.99433E-21         0.00000E+00
    0.10490E-15        -0.66289E-21         0.00000E+00
    0.10489E-15         0.66289E-21         0.00000E+00
    0.10792E-15        -0.46868E-21         0.00000E+00
    0.10792E-15         0.75999E-21         0.00000E+00
    0.10792E-15         0.68619E-22         0.00000E+00
    0.10792E-15        -0.82861E-21         0.00000E+00
    0.10792E-15        -0.99433E-21         0.00000E+00
    0.10792E-15        -0.59427E-21         0.00000E+00
    0.10792E-15        -0.33144E-21         0.00000E+00
    0.10792E-15        -0.33144E-21         0.00000E+00
    0.10792E-15         0.99433E-21         0.00000E+00
    0.10792E-15         0.33144E-21         0.00000E+00
    0.10792E-15        -0.66289E-21         0.00000E+00
    0.10792E-15        -0.16572E-20         0.00000E+00
    0.10792E-15        -0.23201E-20         0.00000E+00
    0.10792E-15        -0.15886E-20         0.00000E+00
    0.10792E-15        -0.99433E-21         0.00000E+00
    0.10792E-15        -0.13724E-21         0.00000E+00
    0.11065E-15         0.13258E-20         0.00000E+00
    0.11065E-15        -0.53119E-28         0.00000E+00
    0.11065E-15         0.11555E-27         0.00000E+00
    0.11065E-15        -0.15733E-27         0.00000E+00
    0.11065E-15         0.17744E-27         0.00000E+00
    0.11065E-15        -0.33144E-21         0.00000E+00
    0.11065E-15         0.25861E-27         0.00000E+00
    0.11065E-15        -0.24563E-27         0.00000E+00
    0.11065E-15        -0.66289E-21         0.00000E+00
    0.11065E-15         0.33144E-21         0.00000E+00
    0.11065E-15        -0.40006E-21         0.00000E+00
    0.11065E-15        -0.19887E-20         0.00000E+00
    0.11065E-15        -0.75999E-21         0.00000E+00
    0.11065E-15         0.66289E-21         0.00000E+00
    0.11065E-15         0.00000E+00         0.00000E+00
    0.11065E-15         0.00000E+00         0.00000E+00
    0.11308E-15        -0.21259E-20         0.00000E+00
    0.11308E-15        -0.66289E-21         0.00000E+00
    0.11308E-15         0.99433E-21         0.00000E+00
    0.11308E-15         0.13258E-20         0.00000E+00
    0.11308E-15         0.66289E-21         0.00000E+00
    0.11308E-15         0.33144E-21         0.00000E+00
    0.11308E-15        -0.66289E-21         0.00000E+00
    0.11308E-15        -0.33144E-21         0.00000E+00
    0.11307E-15         0.80012E-21         0.00000E+00
    0.11308E-15        -0.59427E-21         0.00000E+00
    0.11308E-15        -0.63440E-21         0.00000E+00
    0.11308E-15        -0.12287E-20         0.00000E+00
    0.11307E-15        -0.14229E-20         0.00000E+00
    0.11307E-15         0.75999E-21         0.00000E+00
    0.11307E-15         0.15601E-20         0.00000E+00
    0.11307E-15         0.60592E-21         0.00000E+00
    0.11519E-15        -0.26515E-20         0.00000E+00
    0.11519E-15        -0.99433E-21         0.00000E+00
    0.11520E-15        -0.66288E-21         0.00000E+00
    0.11519E-15         0.16572E-20         0.00000E+00
    0.11519E-15         0.35772E-20         0.00000E+00
    0.11519E-15         0.66288E-21         0.00000E+00
    0.11519E-15        -0.26282E-21         0.00000E+00
    0.11519E-15         0.00000E+00         0.00000E+00
    0.11519E-15        -0.10914E-20         0.00000E+00
    0.11519E-15        -0.49716E-21         0.00000E+00
    0.11519E-15         0.59427E-21         0.00000E+00
    0.11519E-15        -0.99433E-21         0.00000E+00
    0.11519E-15         0.33880E-27         0.00000E+00
    0.11519E-15         0.99433E-21         0.00000E+00
    0.11519E-15         0.68619E-22         0.00000E+00
    0.11519E-15         0.13724E-21         0.00000E+00
    0.11699E-15         0.00000E+00         0.00000E+00
    0.11699E-15        -0.19887E-20         0.00000E+00
    0.11699E-15         0.66288E-21         0.00000E+00
    0.11699E-15         0.35772E-20         0.00000E+00
    0.11699E-15         0.15886E-20         0.00000E+00
    0.11699E-15         0.16287E-20         0.00000E+00
    0.11699E-15        -0.97101E-22         0.00000E+00
    0.11699E-15        -0.19886E-20         0.00000E+00
    0.11699E-15        -0.92571E-21         0.00000E+00
    0.11699E-15         0.00000E+00         0.00000E+00
    0.11699E-15         0.97102E-22         0.00000E+00
    0.11699E-15        -0.11600E-20         0.00000E+00
    0.11699E-15         0.50656E-27         0.00000E+00
    0.11699E-15         0.12571E-20         0.00000E+00
    0.11699E-15        -0.75999E-21         0.00000E+00
    0.11699E-15        -0.18514E-20         0.00000E+00
    0.11847E-15        -0.13258E-20         0.00000E+00
    0.11847E-15        -0.99433E-21         0.00000E+00
    0.11847E-15         0.99432E-21         0.00000E+00
    0.11847E-15         0.26515E-20         0.00000E+00
    0.11848E-15         0.23201E-20         0.00000E+00
    0.11847E-15         0.33144E-21         0.00000E+00
    0.11847E-15        -0.66288E-21         0.00000E+00
    0.11848E-15        -0.16857E-20         0.00000E+00
    0.11847E-15        -0.16572E-20         0.00000E+00
    0.11847E-15         0.19420E-21         0.00000E+00
    0.11847E-15         0.00000E+00         0.00000E+00
    0.11847E-15        -0.66288E-21         0.00000E+00
    0.11847E-15         0.33144E-21         0.00000E+00
    0.11847E-15         0.49716E-21         0.00000E+00
    0.11847E-15        -0.33144E-21         0.00000E+00
    0.11847E-15         0.00000E+00         0.00000E+00
    0.11963E-15        -0.13258E-20         0.00000E+00
    0.11963E-15        -0.69137E-21         0.00000E+00
    0.11963E-15         0.66288E-21         0.00000E+00
    0.11963E-15         0.69137E-21         0.00000E+00
    0.11963E-15         0.96584E-21         0.00000E+00
    0.11963E-15         0.19602E-20         0.00000E+00
    0.11963E-15        -0.99432E-21         0.00000E+00
    0.11963E-15        -0.30296E-21         0.00000E+00
    0.11963E-15         0.16572E-20         0.00000E+00
    0.11963E-15        -0.69136E-21         0.00000E+00
    0.11963E-15        -0.63440E-21         0.00000E+00
    0.11963E-15        -0.66288E-21         0.00000E+00
    0.11963E-15        -0.49716E-21         0.00000E+00
    0.11963E-15         0.23201E-20         0.00000E+00
    0.11963E-15         0.16287E-20         0.00000E+00
    0.11963E-15        -0.13258E-20         0.00000E+00
    0.12046E-15         0.12688E-20         0.00000E+00
    0.12046E-15         0.16572E-21         0.00000E+00
    0.12046E-15         0.35992E-21         0.00000E+00
    0.12046E-15         0.16287E-20         0.00000E+00
    0.12046E-15        -0.28482E-22         0.00000E+00
    0.12046E-15         0.28482E-22         0.00000E+00
    0.12046E-15         0.10228E-20         0.00000E+00
    0.12046E-15         0.30296E-21         0.00000E+00
    0.12046E-15         0.12973E-20         0.00000E+00
    0.12046E-15         0.67877E-27         0.00000E+00
    0.12046E-15        -0.14630E-20         0.00000E+00
    0.12046E-15         0.19420E-21         0.00000E+00
    0.12046E-15         0.00000E+00         0.00000E+00
    0.12046E-15         0.30296E-21         0.00000E+00
    0.12046E-15        -0.70609E-27         0.00000E+00
    0.12046E-15        -0.60591E-21         0.00000E+00
    0.12095E-15        -0.13258E-20         0.00000E+00
    0.12095E-15        -0.63440E-21         0.00000E+00
    0.12095E-15         0.10228E-20         0.00000E+00
    0.12095E-15         0.99432E-21         0.00000E+00
    0.12095E-15         0.00000E+00         0.00000E+00
    0.12095E-15         0.00000E+00         0.00000E+00
    0.12095E-15         0.00000E+00         0.00000E+00
    0.12095E-15         0.99431E-21         0.00000E+00
    0.12095E-15         0.80011E-21         0.00000E+00
    0.12095E-15        -0.99431E-21         0.00000E+00
    0.12095E-15        -0.26865E-27         0.00000E+00
    0.12095E-15         0.80011E-21         0.00000E+00
    0.12095E-15        -0.33144E-21         0.00000E+00
    0.12095E-15         0.00000E+00         0.00000E+00
    0.12095E-15        -0.66288E-21         0.00000E+00
    0.12095E-15        -0.13258E-20         0.00000E+00
    0.12112E-15         0.00000E+00         0.00000E+00
    0.12112E-15         0.00000E+00         0.00000E+00
    0.12112E-15         0.00000E+00         0.00000E+00
    0.12112E-15         0.00000E+00         0.00000E+00
    0.12112E-15         0.33144E-21         0.00000E+00
    0.12112E-15         0.00000E+00         0.00000E+00
    0.12112E-15         0.00000E+00         0.00000E+00
    0.12112E-15         0.00000E+00         0.00000E+00
    0.12112E-15         0.00000E+00         0.00000E+00
    0.12112E-15         0.00000E+00         0.00000E+00
    0.12112E-15         0.33144E-21         0.00000E+00
    0.12112E-15        -0.33144E-21         0.00000E+00
    0.12112E-15        -0.33144E-21         0.00000E+00
    0.12112E-15         0.33144E-21         0.00000E+00
    0.12112E-15         0.66287E-21         0.00000E+00
    0.12112E-15         0.00000E+00         0.00000E+00
CELL_DATA        450
TENSORS stressef double 
   -0.20302E+08         0.19339E+03         0.00000E+00
    0.19339E+03        -0.50000E+08         0.00000E+00
    0.00000E+00         0.00000E+00        -0.19936E+08
 
   -0.20270E+08         0.55121E+03         0.00000E+00
    0.55121E+03        -0.49999E+08         0.00000E+00
    0.00000E+00         0.00000E+00        -0.19966E+08
 
   -0.20240E+08         0.87216E+03         0.00000E+00
    0.87216E+03        -0.49997E+08         0.00000E+00
    0.00000E+00         0.00000E+00        -0.19993E+08
 
   -0.20213E+08         0.11586E+04         0.00000E+00
    0.11586E+04        -0.49995E+08         0.00000E+00
    0.00000E+00         0.00000E+00        -0.20017E+08
 
   -0.20189E+08         0.14131E+04         0.00000E+00
    0.14131E+04        -0.49993E+08         0.00000E+00
    0.00000E+00         0.00000E+00        -0.20037E+08
 
   -0.20167E+08         0.16380E+04         0.00000E+00
    0.16380E+04        -0.49990E+08         0.00000E+00
    0.00000E+00         0.00000E+00        -0.20055E+08
 
   -0.20148E+08         0.18361E+04         0.00000E+00
    0.18361E+04        -0.49986E+08         0.00000E+00
    0.00000E+00         0.00000E+00        -0.20069E+08
 
   -0.20132E+08         0.20091E+04         0.00000E+00
    0.20091E+04        -0.49982E+08         0.00000E+00
    0.00000E+00         0.00000E+00        -0.20081E+08
 
   -0.20118E+08         0.21590E+04         0.00000E+00
    0.21590E+04        -0.49978E+08         0.00000E+00
    0.00000E+00         0.00000E+00        -0.20089E+08
 
   -0.20106E+08         0.22882E+04         0.00000E+00
    0.22882E+04        -0.49974E+08         0.00000E+00
    0.00000E+00         0.00000E+00        -0.20095E+08
 
   -0.20096E+08         0.23988E+04         0.00000E+00
    0.23988E+04        -0.49969E+08         0.00000E+00
    0.00000E+00         0.00000E+00        -0.20098E+08
 
   -0.20089E+08         0.24930E+04         0.00000E+00
    0.24930E+04        -0.49964E+08         0.00000E+00
    0.00000E+00         0.00000E+00        -0.20099E+08
 
   -0.20085E+08         0.25729E+04         0.00000E+00
    0.25729E+04        -0.49959E+08         0.00000E+00
    0.00000E+00         0.00000E+00        -0.20097E+08
 
   -0.20082E+08         0.26406E+04         0.00000E+00
    0.26406E+04        -0.49954E+08         0.00000E+00
    0.00000E+00         0.00000E+00        -0.20093E+08
 
   -0.20082E+08         0.26979E+04         0.00000E+00
    0.26979E+04        -0.49949E+08         0.00000E+00
    0.00000E+00         0.00000E+00        -0.20086E+08
 
   -0.20301E+08         0.58437E+03         0.00000E+00
    0.58437E+03        -0.50000E+08         0.00000E+00
    0.00000E+00         0.00000E+00        -0.19936E+08
 
   -0.20269E+08         0.16644E+04         0.00000E+00
    0.16644E+04        -0.49999E+08         0.00000E+00
    0.00000E+00         0.00000E+00        -0.19967E+08
 
   -0.20240E+08         0.26316E+04         0.00000E+00
    0.26316E+04        -0.49997E+08         0.00000E+00
    0.00000E+00         0.00000E+00        -0.19993E+08
 
   -0.20213E+08         0.34936E+04         0.00000E+00
    0.34936E+04        -0.49995E+08         0.00000E+00
    0.00000E+00         0.00000E+00        -0.20017E+08
 
   -0.20189E+08         0.42576E+04         0.00000E+00
    0.42576E+04        -0.49993E+08         0.00000E+00
    0.00000E+00         0.00000E+00        -0.20038E+08
 
   -0.20167E+08         0.49316E+04         0.00000E+00
    0.49316E+04        -0.49990E+08         0.00000E+00
    0.00000E+00         0.00000E+00        -0.20055E+08
 
   -0.20148E+08         0.55237E+04         0.00000E+00
    0.55237E+04        -0.49986E+08         0.00000E+00
    0.00000E+00         0.00000E+00        -0.20069E+08
 
   -0.20131E+08         0.60395E+04         0.00000E+00
    0.60395E+04        -0.49982E+08         0.00000E+00
    0.00000E+00         0.00000E+00        -0.20081E+08
 
   -0.20117E+08         0.64856E+04         0.00000E+00
    0.64856E+04        -0.49978E+08         0.00000E+00
    0.00000E+00         0.00000E+00        -0.20089E+08
 
   -0.20106E+08         0.68689E+04         0.00000E+00
    0.68689E+04        -0.49974E+08         0.00000E+00
    0.00000E+00         0.00000E+00        -0.20095E+08
 
   -0.20096E+08         0.71963E+04         0.00000E+00
    0.71963E+04        -0.49969E+08         0.00000E+00
    0.00000E+00         0.00000E+00        -0.20098E+08
 
   -0.20089E+08         0.74742E+04         0.00000E+00
    0.74742E+04        -0.49964E+08         0.00000E+00
    0.00000E+00         0.00000E+00        -0.20099E+08
 
   -0.20084E+08         0.77092E+04         0.00000E+00
    0.77092E+04        -0.49959E+08         0.00000E+00
    0.00000E+00         0.00000E+00        -0.20097E+08
 
   -0.20082E+08         0.79073E+04         0.00000E+00
    0.79073E+04        -0.49954E+08         0.00000E+00
    0.00000E+00         0.00000E+00        -0.20093E+08
 
   -0.20082E+08         0.80749E+04         0.00000E+00
    0.80749E+04        -0.49949E+08         0.00000E+00
    0.00000E+00         0.00000E+00        -0.20086E+08
 
   -0.20300E+08         0.98794E+03         0.00000E+00
    0.98794E+03        -0.50000E+08         0.00000E+00
    0.00000E+00         0.00000E+00        -0.19938E+08
 
   -0.20268E+08         0.28096E+04         0.00000E+00
    0.28096E+04        -0.49999E+08         0.00000E+00
    0.00000E+00         0.00000E+00        -0.19968E+08
 
   -0.20238E+08         0.44362E+04         0.00000E+00
    0.44362E+04        -0.49997E+08         0.00000E+00
    0.00000E+00         0.00000E+00        -0.19995E+08
 
   -0.20212E+08         0.58808E+04         0.00000E+00
    0.58808E+04        -0.49995E+08         0.00000E+00
    0.00000E+00         0.00000E+00        -0.20018E+08
 
   -0.20188E+08         0.71566E+04         0.00000E+00
    0.71566E+04        -0.49992E+08         0.00000E+00
    0.00000E+00         0.00000E+00        -0.20038E+08
 
   -0.20166E+08         0.82770E+04         0.00000E+00
    0.82770E+04        -0.49989E+08         0.00000E+00
    0.00000E+00         0.00000E+00        -0.20055E+08
 
   -0.20147E+08         0.92567E+04         0.00000E+00
    0.92567E+04        -0.49986E+08         0.00000E+00
    0.00000E+00         0.00000E+00        -0.20069E+08
 
   -0.20131E+08         0.10106E+05         0.00000E+00
    0.10106E+05        -0.49982E+08         0.00000E+00
    0.00000E+00         0.00000E+00        -0.20081E+08
 
   -0.20117E+08         0.10838E+05         0.00000E+00
    0.10838E+05        -0.49978E+08         0.00000E+00
    0.00000E+00         0.00000E+00        -0.20089E+08
 
   -0.20105E+08         0.11462E+05         0.00000E+00
    0.11462E+05        -0.49973E+08         0.00000E+00
    0.00000E+00         0.00000E+00        -0.20095E+08
 
   -0.20096E+08         0.11993E+05         0.00000E+00
    0.11993E+05        -0.49968E+08         0.00000E+00
    0.00000E+00         0.00000E+00        -0.20098E+08
 
   -0.20089E+08         0.12440E+05         0.00000E+00
    0.12440E+05        -0.49964E+08         0.00000E+00
    0.00000E+00         0.00000E+00        -0.20099E+08
 
   -0.20084E+08         0.12816E+05         0.00000E+00
    0.12816E+05        -0.49959E+08         0.00000E+00
    0.00000E+00         0.00000E+00        -0.20097E+08
 
   -0.20082E+08         0.13131E+05         0.00000E+00
    0.13131E+05        -0.49953E+08         0.00000E+00
    0.00000E+00         0.00000E+00        -0.20092E+08
 
   -0.20081E+08         0.13395E+05         0.00000E+00
    0.13395E+05        -0.49948E+08         0.00000E+00
    0.00000E+00         0.00000E+00        -0.20086E+08
 
   -0.20297E+08         0.14122E+04         0.00000E+00
    0.14122E+04        -0.50000E+08         0.00000E+00
    0.00000E+00         0.00000E+00        -0.19940E+08
 
   -0.20266E+08         0.40076E+04         0.00000E+00
    0.40076E+04        -0.49999E+08         0.00000E+00
    0.00000E+00         0.00000E+00        -0.19970E+08
 
   -0.20237E+08         0.63149E+04         0.00000E+00
    0.63149E+04        -0.49997E+08         0.00000E+00
    0.00000E+00         0.00000E+00        -0.19996E+08
 
   -0.20210E+08         0.83540E+04         0.00000E+00
    0.83540E+04        -0.49995E+08         0.00000E+00
    0.00000E+00         0.00000E+00        -0.20019E+08
 
   -0.20186E+08         0.10145E+05         0.00000E+00
    0.10145E+05        -0.49992E+08         0.00000E+00
    0.00000E+00         0.00000E+00        -0.20039E+08
 
   -0.20165E+08         0.11707E+05         0.00000E+00
    0.11707E+05        -0.49989E+08         0.00000E+00
    0.00000E+00         0.00000E+00        -0.20056E+08
 
   -0.20146E+08         0.13064E+05         0.00000E+00
    0.13064E+05        -0.49985E+08         0.00000E+00
    0.00000E+00         0.00000E+00        -0.20070E+08
 
   -0.20130E+08         0.14232E+05         0.00000E+00
    0.14232E+05        -0.49981E+08         0.00000E+00
    0.00000E+00         0.00000E+00        -0.20081E+08
 
   -0.20116E+08         0.15230E+05         0.00000E+00
    0.15230E+05        -0.49977E+08         0.00000E+00
    0.00000E+00         0.00000E+00        -0.20089E+08
 
   -0.20104E+08         0.16075E+05         0.00000E+00
    0.16075E+05        -0.49972E+08         0.00000E+00
    0.00000E+00         0.00000E+00        -0.20095E+08
 
   -0.20095E+08         0.16786E+05         0.00000E+00
    0.16786E+05        -0.49968E+08         0.00000E+00
    0.00000E+00         0.00000E+00        -0.20098E+08
 
   -0.20088E+08         0.17379E+05         0.00000E+00
    0.17379E+05        -0.49963E+08         0.00000E+00
    0.00000E+00         0.00000E+00        -0.20098E+08
 
   -0.20084E+08         0.17872E+05         0.00000E+00
    0.17872E+05        -0.49958E+08         0.00000E+00
    0.00000E+00         0.00000E+00        -0.20096E+08
 
   -0.20081E+08         0.18280E+05         0.00000E+00
    0.18280E+05        -0.49953E+08         0.00000E+00
    0.00000E+00         0.00000E+00        -0.20092E+08
 
   -0.20081E+08         0.18618E+05         0.00000E+00
    0.18618E+05        -0.49948E+08         0.00000E+00
    0.00000E+00         0.00000E+00        -0.20085E+08
 
   -0.20294E+08         0.18649E+04         0.00000E+00
    0.18649E+04        -0.50000E+08         0.00000E+00
    0.00000E+00         0.00000E+00        -0.19943E+08
 
   -0.20263E+08         0.52778E+04         0.00000E+00
    0.52778E+04        -0.49999E+08         0.00000E+00
    0.00000E+00         0.00000E+00        -0.19972E+08
 
   -0.20234E+08         0.82952E+04         0.00000E+00
    0.82952E+04        -0.49997E+08         0.00000E+00
    0.00000E+00         0.00000E+00        -0.19998E+08
 
   -0.20208E+08         0.10945E+05         0.00000E+00
    0.10945E+05        -0.49995E+08         0.00000E+00
    0.00000E+00         0.00000E+00        -0.20021E+08
 
   -0.20184E+08         0.13254E+05         0.00000E+00
    0.13254E+05        -0.49992E+08         0.00000E+00
    0.00000E+00         0.00000E+00        -0.20041E+08
 
   -0.20163E+08         0.15252E+05         0.00000E+00
    0.15252E+05        -0.49988E+08         0.00000E+00
    0.00000E+00         0.00000E+00        -0.20057E+08
 
   -0.20145E+08         0.16971E+05         0.00000E+00
    0.16971E+05        -0.49985E+08         0.00000E+00
    0.00000E+00         0.00000E+00        -0.20070E+08
 
   -0.20129E+08         0.18437E+05         0.00000E+00
    0.18437E+05        -0.49980E+08         0.00000E+00
    0.00000E+00         0.00000E+00        -0.20081E+08
 
   -0.20115E+08         0.19675E+05         0.00000E+00
    0.19675E+05        -0.49976E+08         0.00000E+00
    0.00000E+00         0.00000E+00        -0.20089E+08
 
   -0.20104E+08         0.20711E+05         0.00000E+00
    0.20711E+05        -0.49972E+08         0.00000E+00
    0.00000E+00         0.00000E+00        -0.20094E+08
 
   -0.20095E+08         0.21571E+05         0.00000E+00
    0.21571E+05        -0.49967E+08         0.00000E+00
    0.00000E+00         0.00000E+00        -0.20097E+08
 
   -0.20088E+08         0.22278E+05         0.00000E+00
    0.22278E+05        -0.49962E+08         0.00000E+00
    0.00000E+00         0.00000E+00        -0.20098E+08
 
   -0.20083E+08         0.22855E+05         0.00000E+00
    0.22855E+05        -0.49957E+08         0.00000E+00
    0.00000E+00         0.00000E+00        -0.20096E+08
 
   -0.20081E+08         0.23322E+05         0.00000E+00
    0.23322E+05        -0.49952E+08         0.00000E+00
    0.00000E+00         0.00000E+00        -0.20091E+08
 
   -0.20081E+08         0.23703E+05         0.00000E+00
    0.23703E+05        -0.49947E+08         0.00000E+00
    0.00000E+00         0.00000E+00        -0.20085E+08
 
   -0.20290E+08         0.23529E+04         0.00000E+00
    0.23529E+04        -0.50000E+08         0.00000E+00
    0.00000E+00         0.00000E+00        -0.19947E+08
 
   -0.20259E+08         0.66382E+04         0.00000E+00
    0.66382E+04        -0.49999E+08         0.00000E+00
    0.00000E+00         0.00000E+00        -0.19976E+08
 
   -0.20231E+08         0.10402E+05         0.00000E+00
    0.10402E+05        -0.49997E+08         0.00000E+00
    0.00000E+00         0.00000E+00        -0.20001E+08
 
   -0.20205E+08         0.13680E+05         0.00000E+00
    0.13680E+05        -0.49994E+08         0.00000E+00
    0.00000E+00         0.00000E+00        -0.20023E+08
 
   -0.20182E+08         0.16513E+05         0.00000E+00
    0.16513E+05        -0.49991E+08         0.00000E+00
    0.00000E+00         0.00000E+00        -0.20042E+08
 
   -0.20161E+08         0.18938E+05         0.00000E+00
    0.18938E+05        -0.49988E+08         0.00000E+00
    0.00000E+00         0.00000E+00        -0.20058E+08
 
   -0.20143E+08         0.21000E+05         0.00000E+00
    0.21000E+05        -0.49984E+08         0.00000E+00
    0.00000E+00         0.00000E+00        -0.20071E+08
 
   -0.20127E+08         0.22736E+05         0.00000E+00
    0.22736E+05        -0.49980E+08         0.00000E+00
    0.00000E+00         0.00000E+00        -0.20081E+08
 
   -0.20114E+08         0.24182E+05         0.00000E+00
    0.24182E+05        -0.49975E+08         0.00000E+00
    0.00000E+00         0.00000E+00        -0.20089E+08
 
   -0.20103E+08         0.25372E+05         0.00000E+00
    0.25372E+05        -0.49970E+08         0.00000E+00
    0.00000E+00         0.00000E+00        -0.20094E+08
 
   -0.20094E+08         0.26340E+05         0.00000E+00
    0.26340E+05        -0.49966E+08         0.00000E+00
    0.00000E+00         0.00000E+00        -0.20097E+08
 
   -0.20087E+08         0.27119E+05         0.00000E+00
    0.27119E+05        -0.49961E+08         0.00000E+00
    0.00000E+00         0.00000E+00        -0.20097E+08
 
   -0.20083E+08         0.27737E+05         0.00000E+00
    0.27737E+05        -0.49956E+08         0.00000E+00
    0.00000E+00         0.00000E+00        -0.20095E+08
 
   -0.20081E+08         0.28223E+05         0.00000E+00
    0.28223E+05        -0.49951E+08         0.00000E+00
    0.00000E+00         0.00000E+00        -0.20091E+08
 
   -0.20080E+08         0.28605E+05         0.00000E+00
    0.28605E+05        -0.49947E+08         0.00000E+00
    0.00000E+00         0.00000E+00        -0.20085E+08
 
   -0.20285E+08         0.28832E+04         0.00000E+00
    0.28832E+04        -0.50000E+08         0.00000E+00
    0.00000E+00         0.00000E+00        -0.19952E+08
 
   -0.20255E+08         0.81041E+04         0.00000E+00
    0.81041E+04        -0.49998E+08         0.00000E+00
    0.00000E+00         0.00000E+00        -0.19980E+08
 
   -0.20227E+08         0.12655E+05         0.00000E+00
    0.12655E+05        -0.49997E+08         0.00000E+00
    0.00000E+00         0.00000E+00        -0.20005E+08
 
   -0.20202E+08         0.16585E+05         0.00000E+00
    0.16585E+05        -0.49994E+08         0.00000E+00
    0.00000E+00         0.00000E+00        -0.20026E+08
 
   -0.20179E+08         0.19944E+05         0.00000E+00
    0.19944E+05        -0.49991E+08         0.00000E+00
    0.00000E+00         0.00000E+00        -0.20044E+08
 
   -0.20159E+08         0.22787E+05         0.00000E+00
    0.22787E+05        -0.49987E+08         0.00000E+00
    0.00000E+00         0.00000E+00        -0.20060E+08
 
   -0.20141E+08         0.25168E+05         0.00000E+00
    0.25168E+05        -0.49983E+08         0.00000E+00
    0.00000E+00         0.00000E+00        -0.20072E+08
 
   -0.20125E+08         0.27141E+05         0.00000E+00
    0.27141E+05        -0.49978E+08         0.00000E+00
    0.00000E+00         0.00000E+00        -0.20082E+08
 
   -0.20112E+08         0.28755E+05         0.00000E+00
    0.28755E+05        -0.49974E+08         0.00000E+00
    0.00000E+00         0.00000E+00        -0.20089E+08
 
   -0.20101E+08         0.30054E+05         0.00000E+00
    0.30054E+05        -0.49969E+08         0.00000E+00
    0.00000E+00         0.00000E+00        -0.20094E+08
 
   -0.20093E+08         0.31082E+05         0.00000E+00
    0.31082E+05        -0.49965E+08         0.00000E+00
    0.00000E+00         0.00000E+00        -0.20096E+08
 
   -0.20086E+08         0.31881E+05         0.00000E+00
    0.31881E+05        -0.49960E+08         0.00000E+00
    0.00000E+00         0.00000E+00        -0.20096E+08
 
   -0.20082E+08         0.32488E+05         0.00000E+00
    0.32488E+05        -0.49955E+08         0.00000E+00
    0.00000E+00         0.00000E+00        -0.20094E+08
 
   -0.20080E+08         0.32941E+05         0.00000E+00
    0.32941E+05        -0.49951E+08         0.00000E+00
    0.00000E+00         0.00000E+00        -0.20090E+08
 
   -0.20080E+08         0.33275E+05         0.00000E+00
    0.33275E+05        -0.49946E+08         0.00000E+00
    0.00000E+00         0.00000E+00        -0.20084E+08
 
   -0.20279E+08         0.34608E+04         0.00000E+00
    0.34608E+04        -0.50000E+08         0.00000E+00
    0.00000E+00         0.00000E+00        -0.19958E+08
 
   -0.20249E+08         0.96883E+04         0.00000E+00
    0.96883E+04        -0.49998E+08         0.00000E+00
    0.00000E+00         0.00000E+00        -0.19985E+08
 
   -0.20222E+08         0.15072E+05         0.00000E+00
    0.15072E+05        -0.49996E+08         0.00000E+00
    0.00000E+00         0.00000E+00        -0.20009E+08
 
   -0.20198E+08         0.19676E+05         0.00000E+00
    0.19676E+05        -0.49993E+08         0.00000E+00
    0.00000E+00         0.00000E+00        -0.20029E+08
 
   -0.20176E+08         0.23566E+05         0.00000E+00
    0.23566E+05        -0.49990E+08         0.00000E+00
    0.00000E+00         0.00000E+00        -0.20047E+08
 
   -0.20156E+08         0.26813E+05         0.00000E+00
    0.26813E+05        -0.49986E+08         0.00000E+00
    0.00000E+00         0.00000E+00        -0.20061E+08
 
   -0.20139E+08         0.29486E+05         0.00000E+00
    0.29486E+05        -0.49982E+08         0.00000E+00
    0.00000E+00         0.00000E+00        -0.20073E+08
 
   -0.20124E+08         0.31658E+05         0.00000E+00
    0.31658E+05        -0.49977E+08         0.00000E+00
    0.00000E+00         0.00000E+00        -0.20082E+08
 
   -0.20111E+08         0.33394E+05         0.00000E+00
    0.33394E+05        -0.49973E+08         0.00000E+00
    0.00000E+00         0.00000E+00        -0.20089E+08
 
   -0.20100E+08         0.34749E+05         0.00000E+00
    0.34749E+05        -0.49968E+08         0.00000E+00
    0.00000E+00         0.00000E+00        -0.20093E+08
 
   -0.20092E+08         0.35780E+05         0.00000E+00
    0.35780E+05        -0.49963E+08         0.00000E+00
    0.00000E+00         0.00000E+00        -0.20095E+08
 
   -0.20086E+08         0.36539E+05         0.00000E+00
    0.36539E+05        -0.49959E+08         0.00000E+00
    0.00000E+00         0.00000E+00        -0.20095E+08
 
   -0.20082E+08         0.37075E+05         0.00000E+00
    0.37075E+05        -0.49954E+08         0.00000E+00
    0.00000E+00         0.00000E+00        -0.20093E+08
 
   -0.20080E+08         0.37433E+05         0.00000E+00
    0.37433E+05        -0.49950E+08         0.00000E+00
    0.00000E+00         0.00000E+00        -0.20090E+08
 
   -0.20080E+08         0.37659E+05         0.00000E+00
    0.37659E+05        -0.49946E+08         0.00000E+00
    0.00000E+00         0.00000E+00        -0.20084E+08
 
   -0.20272E+08         0.40881E+04         0.00000E+00
    0.40881E+04        -0.49999E+08         0.00000E+00
    0.00000E+00         0.00000E+00        -0.19965E+08
 
   -0.20243E+08         0.11399E+05         0.00000E+00
    0.11399E+05        -0.49998E+08         0.00000E+00
    0.00000E+00         0.00000E+00        -0.19991E+08
 
   -0.20217E+08         0.17662E+05         0.00000E+00
    0.17662E+05        -0.49996E+08         0.00000E+00
    0.00000E+00         0.00000E+00        -0.20014E+08
 
   -0.20193E+08         0.22964E+05         0.00000E+00
    0.22964E+05        -0.49993E+08         0.00000E+00
    0.00000E+00         0.00000E+00        -0.20033E+08
 
   -0.20172E+08         0.27388E+05         0.00000E+00
    0.27388E+05        -0.49989E+08         0.00000E+00
    0.00000E+00         0.00000E+00        -0.20050E+08
 
   -0.20153E+08         0.31023E+05         0.00000E+00
    0.31023E+05        -0.49985E+08         0.00000E+00
    0.00000E+00         0.00000E+00        -0.20063E+08
 
   -0.20136E+08         0.33960E+05         0.00000E+00
    0.33960E+05        -0.49981E+08         0.00000E+00
    0.00000E+00         0.00000E+00        -0.20074E+08
 
   -0.20122E+08         0.36289E+05         0.00000E+00
    0.36289E+05        -0.49976E+08         0.00000E+00
    0.00000E+00         0.00000E+00        -0.20083E+08
 
   -0.20109E+08         0.38093E+05         0.00000E+00
    0.38093E+05        -0.49971E+08         0.00000E+00
    0.00000E+00         0.00000E+00        -0.20089E+08
 
   -0.20099E+08         0.39444E+05         0.00000E+00
    0.39444E+05        -0.49967E+08         0.00000E+00
    0.00000E+00         0.00000E+00        -0.20093E+08
 
   -0.20091E+08         0.40412E+05         0.00000E+00
    0.40412E+05        -0.49962E+08         0.00000E+00
    0.00000E+00         0.00000E+00        -0.20095E+08
 
   -0.20085E+08         0.41063E+05         0.00000E+00
    0.41063E+05        -0.49958E+08         0.00000E+00
    0.00000E+00         0.00000E+00        -0.20095E+08
 
   -0.20081E+08         0.41455E+05         0.00000E+00
    0.41455E+05        -0.49953E+08         0.00000E+00
    0.00000E+00         0.00000E+00        -0.20093E+08
 
   -0.20080E+08         0.41647E+05         0.00000E+00
    0.41647E+05        -0.49949E+08         0.00000E+00
    0.00000E+00         0.00000E+00        -0.20089E+08
 
   -0.20080E+08         0.41697E+05         0.00000E+00
    0.41697E+05        -0.49945E+08         0.00000E+00
    0.00000E+00         0.00000E+00        -0.20084E+08
 
   -0.20263E+08         0.47659E+04         0.00000E+00
    0.47659E+04        -0.49999E+08         0.00000E+00
    0.00000E+00         0.00000E+00        -0.19973E+08
 
   -0.20236E+08         0.13236E+05         0.00000E+00
    0.13236E+05        -0.49998E+08         0.00000E+00
    0.00000E+00         0.00000E+00        -0.19998E+08
 
   -0.20211E+08         0.20430E+05         0.00000E+00
    0.20430E+05        -0.49996E+08         0.00000E+00
    0.00000E+00         0.00000E+00        -0.20020E+08
 
   -0.20188E+08         0.26452E+05         0.00000E+00
    0.26452E+05        -0.49993E+08         0.00000E+00
    0.00000E+00         0.00000E+00        -0.20038E+08
 
   -0.20168E+08         0.31412E+05         0.00000E+00
    0.31412E+05        -0.49989E+08         0.00000E+00
    0.00000E+00         0.00000E+00        -0.20053E+08
 
   -0.20149E+08         0.35420E+05         0.00000E+00
    0.35420E+05        -0.49984E+08         0.00000E+00
    0.00000E+00         0.00000E+00        -0.20066E+08
 
   -0.20133E+08         0.38587E+05         0.00000E+00
    0.38587E+05        -0.49980E+08         0.00000E+00
    0.00000E+00         0.00000E+00        -0.20076E+08
 
   -0.20119E+08         0.41026E+05         0.00000E+00
    0.41026E+05        -0.49975E+08         0.00000E+00
    0.00000E+00         0.00000E+00        -0.20083E+08
 
   -0.20108E+08         0.42839E+05         0.00000E+00
    0.42839E+05        -0.49970E+08         0.00000E+00
    0.00000E+00         0.00000E+00        -0.20089E+08
 
   -0.20098E+08         0.44120E+05         0.00000E+00
    0.44120E+05        -0.49966E+08         0.00000E+00
    0.00000E+00         0.00000E+00        -0.20092E+08
 
   -0.20090E+08         0.44952E+05         0.00000E+00
    0.44952E+05        -0.49961E+08         0.00000E+00
    0.00000E+00         0.00000E+00        -0.20094E+08
 
   -0.20085E+08         0.45415E+05         0.00000E+00
    0.45415E+05        -0.49957E+08         0.00000E+00
    0.00000E+00         0.00000E+00        -0.20094E+08
 
   -0.20081E+08         0.45582E+05         0.00000E+00
    0.45582E+05        -0.49953E+08         0.00000E+00
    0.00000E+00         0.00000E+00        -0.20092E+08
 
   -0.20080E+08         0.45527E+05         0.00000E+00
    0.45527E+05        -0.49949E+08         0.00000E+00
    0.00000E+00         0.00000E+00        -0.20088E+08
 
   -0.20080E+08         0.45321E+05         0.00000E+00
    0.45321E+05        -0.49945E+08         0.00000E+00
    0.00000E+00         0.00000E+00        -0.20083E+08
 
   -0.20253E+08         0.54924E+04         0.00000E+00
    0.54924E+04        -0.49999E+08         0.00000E+00
    0.00000E+00         0.00000E+00        -0.19983E+08
 
   -0.20227E+08         0.15194E+05         0.00000E+00
    0.15194E+05        -0.49998E+08         0.00000E+00
    0.00000E+00         0.00000E+00        -0.20006E+08
 
   -0.20204E+08         0.23366E+05         0.00000E+00
    0.23366E+05        -0.49996E+08         0.00000E+00
    0.00000E+00         0.00000E+00        -0.20026E+08
 
   -0.20182E+08         0.30133E+05         0.00000E+00
    0.30133E+05        -0.49992E+08         0.00000E+00
    0.00000E+00         0.00000E+00        -0.20043E+08
 
   -0.20163E+08         0.35630E+05         0.00000E+00
    0.35630E+05        -0.49988E+08         0.00000E+00
    0.00000E+00         0.00000E+00        -0.20057E+08
 
   -0.20146E+08         0.39994E+05         0.00000E+00
    0.39994E+05        -0.49984E+08         0.00000E+00
    0.00000E+00         0.00000E+00        -0.20068E+08
 
   -0.20131E+08         0.43358E+05         0.00000E+00
    0.43358E+05        -0.49979E+08         0.00000E+00
    0.00000E+00         0.00000E+00        -0.20077E+08
 
   -0.20117E+08         0.45857E+05         0.00000E+00
    0.45857E+05        -0.49974E+08         0.00000E+00
    0.00000E+00         0.00000E+00        -0.20084E+08
 
   -0.20106E+08         0.47617E+05         0.00000E+00
    0.47617E+05        -0.49969E+08         0.00000E+00
    0.00000E+00         0.00000E+00        -0.20089E+08
 
   -0.20097E+08         0.48754E+05         0.00000E+00
    0.48754E+05        -0.49964E+08         0.00000E+00
    0.00000E+00         0.00000E+00        -0.20092E+08
 
   -0.20090E+08         0.49366E+05         0.00000E+00
    0.49366E+05        -0.49960E+08         0.00000E+00
    0.00000E+00         0.00000E+00        -0.20093E+08
 
   -0.20085E+08         0.49551E+05         0.00000E+00
    0.49551E+05        -0.49956E+08         0.00000E+00
    0.00000E+00         0.00000E+00        -0.20093E+08
 
   -0.20081E+08         0.49402E+05         0.00000E+00
    0.49402E+05        -0.49952E+08         0.00000E+00
    0.00000E+00         0.00000E+00        -0.20091E+08
 
   -0.20080E+08         0.49006E+05         0.00000E+00
    0.49006E+05        -0.49949E+08         0.00000E+00
    0.00000E+00         0.00000E+00        -0.20088E+08
 
   -0.20080E+08         0.48456E+05         0.00000E+00
    0.48456E+05        -0.49946E+08         0.00000E+00
    0.00000E+00         0.00000E+00        -0.20084E+08
 
   -0.20242E+08         0.62619E+04         0.00000E+00
    0.62619E+04        -0.49999E+08         0.00000E+00
    0.00000E+00         0.00000E+00        -0.19994E+08
 
   -0.20218E+08         0.17260E+05         0.00000E+00
    0.17260E+05        -0.49998E+08         0.00000E+00
    0.00000E+00         0.00000E+00        -0.20016E+08
 
   -0.20196E+08         0.26453E+05         0.00000E+00
    0.26453E+05        -0.49995E+08         0.00000E+00
    0.00000E+00         0.00000E+00        -0.20034E+08
 
   -0.20176E+08         0.33988E+05         0.00000E+00
    0.33988E+05        -0.49992E+08         0.00000E+00
    0.00000E+00         0.00000E+00        -0.20049E+08
 
   -0.20158E+08         0.40025E+05         0.00000E+00
    0.40025E+05        -0.49988E+08         0.00000E+00
    0.00000E+00         0.00000E+00        -0.20061E+08
 
   -0.20142E+08         0.44726E+05         0.00000E+00
    0.44726E+05        -0.49983E+08         0.00000E+00
    0.00000E+00         0.00000E+00        -0.20071E+08
 
   -0.20128E+08         0.48254E+05         0.00000E+00
    0.48254E+05        -0.49978E+08         0.00000E+00
    0.00000E+00         0.00000E+00        -0.20079E+08
 
   -0.20115E+08         0.50761E+05         0.00000E+00
    0.50761E+05        -0.49973E+08         0.00000E+00
    0.00000E+00         0.00000E+00        -0.20085E+08
 
   -0.20105E+08         0.52401E+05         0.00000E+00
    0.52401E+05        -0.49968E+08         0.00000E+00
    0.00000E+00         0.00000E+00        -0.20089E+08
 
   -0.20096E+08         0.53309E+05         0.00000E+00
    0.53309E+05        -0.49964E+08         0.00000E+00
    0.00000E+00         0.00000E+00        -0.20091E+08
 
   -0.20090E+08         0.53611E+05         0.00000E+00
    0.53611E+05        -0.49959E+08         0.00000E+00
    0.00000E+00         0.00000E+00        -0.20092E+08
 
   -0.20085E+08         0.53420E+05         0.00000E+00
    0.53420E+05        -0.49955E+08         0.00000E+00
    0.00000E+00         0.00000E+00        -0.20092E+08
 
   -0.20082E+08         0.52849E+05         0.00000E+00
    0.52849E+05        -0.49952E+08         0.00000E+00
    0.00000E+00         0.00000E+00        -0.20091E+08
 
   -0.20081E+08         0.52010E+05         0.00000E+00
    0.52010E+05        -0.49949E+08         0.00000E+00
    0.00000E+00         0.00000E+00        -0.20088E+08
 
   -0.20081E+08         0.51016E+05         0.00000E+00
    0.51016E+05        -0.49946E+08         0.00000E+00
    0.00000E+00         0.00000E+00        -0.20084E+08
 
   -0.20229E+08         0.70652E+04         0.00000E+00
    0.70652E+04        -0.49999E+08         0.00000E+00
    0.00000E+00         0.00000E+00        -0.20006E+08
 
   -0.20207E+08         0.19412E+05         0.00000E+00
    0.19412E+05        -0.49998E+08         0.00000E+00
    0.00000E+00         0.00000E+00        -0.20026E+08
 
   -0.20187E+08         0.29661E+05         0.00000E+00
    0.29661E+05        -0.49995E+08         0.00000E+00
    0.00000E+00         0.00000E+00        -0.20042E+08
 
   -0.20169E+08         0.37986E+05         0.00000E+00
    0.37986E+05        -0.49992E+08         0.00000E+00
    0.00000E+00         0.00000E+00        -0.20056E+08
 
   -0.20152E+08         0.44566E+05         0.00000E+00
    0.44566E+05        -0.49987E+08         0.00000E+00
    0.00000E+00         0.00000E+00        -0.20066E+08
 
   -0.20138E+08         0.49590E+05         0.00000E+00
    0.49590E+05        -0.49982E+08         0.00000E+00
    0.00000E+00         0.00000E+00        -0.20075E+08
 
   -0.20125E+08         0.53245E+05         0.00000E+00
    0.53245E+05        -0.49977E+08         0.00000E+00
    0.00000E+00         0.00000E+00        -0.20081E+08
 
   -0.20113E+08         0.55711E+05         0.00000E+00
    0.55711E+05        -0.49972E+08         0.00000E+00
    0.00000E+00         0.00000E+00        -0.20086E+08
 
   -0.20104E+08         0.57156E+05         0.00000E+00
    0.57156E+05        -0.49968E+08         0.00000E+00
    0.00000E+00         0.00000E+00        -0.20089E+08
 
   -0.20096E+08         0.57748E+05         0.00000E+00
    0.57748E+05        -0.49963E+08         0.00000E+00
    0.00000E+00         0.00000E+00        -0.20091E+08
 
   -0.20090E+08         0.57635E+05         0.00000E+00
    0.57635E+05        -0.49959E+08         0.00000E+00
    0.00000E+00         0.00000E+00        -0.20092E+08
 
   -0.20085E+08         0.56957E+05         0.00000E+00
    0.56957E+05        -0.49955E+08         0.00000E+00
    0.00000E+00         0.00000E+00        -0.20091E+08
 
   -0.20083E+08         0.55851E+05         0.00000E+00
    0.55851E+05        -0.49952E+08         0.00000E+00
    0.00000E+00         0.00000E+00        -0.20090E+08
 
   -0.20082E+08         0.54455E+05         0.00000E+00
    0.54455E+05        -0.49950E+08         0.00000E+00
    0.00000E+00         0.00000E+00        -0.20088E+08
 
   -0.20082E+08         0.52908E+05         0.00000E+00
    0.52908E+05        -0.49948E+08         0.00000E+00
    0.00000E+00         0.00000E+00        -0.20085E+08
 
   -0.20215E+08         0.78889E+04         0.00000E+00
    0.78889E+04        -0.49999E+08         0.00000E+00
    0.00000E+00         0.00000E+00        -0.20020E+08
 
   -0.20195E+08         0.21616E+05         0.00000E+00
    0.21616E+05        -0.49998E+08         0.00000E+00
    0.00000E+00         0.00000E+00        -0.20038E+08
 
   -0.20177E+08         0.32950E+05         0.00000E+00
    0.32950E+05        -0.49995E+08         0.00000E+00
    0.00000E+00         0.00000E+00        -0.20052E+08
 
   -0.20161E+08         0.42081E+05         0.00000E+00
    0.42081E+05        -0.49991E+08         0.00000E+00
    0.00000E+00         0.00000E+00        -0.20063E+08
 
   -0.20146E+08         0.49211E+05         0.00000E+00
    0.49211E+05        -0.49987E+08         0.00000E+00
    0.00000E+00         0.00000E+00        -0.20072E+08
 
   -0.20133E+08         0.54546E+05         0.00000E+00
    0.54546E+05        -0.49982E+08         0.00000E+00
    0.00000E+00         0.00000E+00        -0.20079E+08
 
   -0.20121E+08         0.58296E+05         0.00000E+00
    0.58296E+05        -0.49977E+08         0.00000E+00
    0.00000E+00         0.00000E+00        -0.20084E+08
 
   -0.20111E+08         0.60662E+05         0.00000E+00
    0.60662E+05        -0.49972E+08         0.00000E+00
    0.00000E+00         0.00000E+00        -0.20088E+08
 
   -0.20103E+08         0.61840E+05         0.00000E+00
    0.61840E+05        -0.49967E+08         0.00000E+00
    0.00000E+00         0.00000E+00        -0.20090E+08
 
   -0.20096E+08         0.62017E+05         0.00000E+00
    0.62017E+05        -0.49963E+08         0.00000E+00
    0.00000E+00         0.00000E+00        -0.20091E+08
 
   -0.20090E+08         0.61375E+05         0.00000E+00
    0.61375E+05        -0.49959E+08         0.00000E+00
    0.00000E+00         0.00000E+00        -0.20091E+08
 
   -0.20087E+08         0.60088E+05         0.00000E+00
    0.60088E+05        -0.49956E+08         0.00000E+00
    0.00000E+00         0.00000E+00        -0.20091E+08
 
   -0.20084E+08         0.58322E+05         0.00000E+00
    0.58322E+05        -0.49953E+08         0.00000E+00
    0.00000E+00         0.00000E+00        -0.20090E+08
 
   -0.20084E+08         0.56247E+05         0.00000E+00
    0.56247E+05        -0.49952E+08         0.00000E+00
    0.00000E+00         0.00000E+00        -0.20088E+08
 
   -0.20084E+08         0.54031E+05         0.00000E+00
    0.54031E+05        -0.49951E+08         0.00000E+00
    0.00000E+00         0.00000E+00        -0.20086E+08
 
   -0.20199E+08         0.87155E+04         0.00000E+00
    0.87155E+04        -0.49999E+08         0.00000E+00
    0.00000E+00         0.00000E+00        -0.20036E+08
 
   -0.20182E+08         0.23832E+05         0.00000E+00
    0.23832E+05        -0.49998E+08         0.00000E+00
    0.00000E+00         0.00000E+00        -0.20051E+08
 
   -0.20167E+08         0.36266E+05         0.00000E+00
    0.36266E+05        -0.49995E+08         0.00000E+00
    0.00000E+00         0.00000E+00        -0.20063E+08
 
   -0.20153E+08         0.46220E+05         0.00000E+00
    0.46220E+05        -0.49991E+08         0.00000E+00
    0.00000E+00         0.00000E+00        -0.20072E+08
 
   -0.20140E+08         0.53905E+05         0.00000E+00
    0.53905E+05        -0.49987E+08         0.00000E+00
    0.00000E+00         0.00000E+00        -0.20079E+08
 
   -0.20129E+08         0.59542E+05         0.00000E+00
    0.59542E+05        -0.49982E+08         0.00000E+00
    0.00000E+00         0.00000E+00        -0.20084E+08
 
   -0.20118E+08         0.63354E+05         0.00000E+00
    0.63354E+05        -0.49977E+08         0.00000E+00
    0.00000E+00         0.00000E+00        -0.20087E+08
 
   -0.20110E+08         0.65563E+05         0.00000E+00
    0.65563E+05        -0.49972E+08         0.00000E+00
    0.00000E+00         0.00000E+00        -0.20089E+08
 
   -0.20102E+08         0.66388E+05         0.00000E+00
    0.66388E+05        -0.49967E+08         0.00000E+00
    0.00000E+00         0.00000E+00        -0.20091E+08
 
   -0.20096E+08         0.66046E+05         0.00000E+00
    0.66046E+05        -0.49963E+08         0.00000E+00
    0.00000E+00         0.00000E+00        -0.20091E+08
 
   -0.20092E+08         0.64754E+05         0.00000E+00
    0.64754E+05        -0.49960E+08         0.00000E+00
    0.00000E+00         0.00000E+00        -0.20091E+08
 
   -0.20088E+08         0.62723E+05         0.00000E+00
    0.62723E+05        -0.49957E+08         0.00000E+00
    0.00000E+00         0.00000E+00        -0.20091E+08
 
   -0.20087E+08         0.60165E+05         0.00000E+00
    0.60165E+05        -0.49955E+08         0.00000E+00
    0.00000E+00         0.00000E+00        -0.20090E+08
 
   -0.20086E+08         0.57285E+05         0.00000E+00
    0.57285E+05        -0.49954E+08         0.00000E+00
    0.00000E+00         0.00000E+00        -0.20089E+08
 
   -0.20087E+08         0.54279E+05         0.00000E+00
    0.54279E+05        -0.49954E+08         0.00000E+00
    0.00000E+00         0.00000E+00        -0.20088E+08
 
   -0.20182E+08         0.95246E+04         0.00000E+00
    0.95246E+04        -0.49999E+08         0.00000E+00
    0.00000E+00         0.00000E+00        -0.20053E+08
 
   -0.20168E+08         0.26011E+05         0.00000E+00
    0.26011E+05        -0.49998E+08         0.00000E+00
    0.00000E+00         0.00000E+00        -0.20065E+08
 
   -0.20155E+08         0.39545E+05         0.00000E+00
    0.39545E+05        -0.49995E+08         0.00000E+00
    0.00000E+00         0.00000E+00        -0.20074E+08
 
   -0.20143E+08         0.50331E+05         0.00000E+00
    0.50331E+05        -0.49992E+08         0.00000E+00
    0.00000E+00         0.00000E+00        -0.20081E+08
 
   -0.20133E+08         0.58579E+05         0.00000E+00
    0.58579E+05        -0.49987E+08         0.00000E+00
    0.00000E+00         0.00000E+00        -0.20086E+08
 
   -0.20124E+08         0.64510E+05         0.00000E+00
    0.64510E+05        -0.49982E+08         0.00000E+00
    0.00000E+00         0.00000E+00        -0.20089E+08
 
   -0.20116E+08         0.68353E+05         0.00000E+00
    0.68353E+05        -0.49978E+08         0.00000E+00
    0.00000E+00         0.00000E+00        -0.20091E+08
 
   -0.20108E+08         0.70343E+05         0.00000E+00
    0.70343E+05        -0.49973E+08         0.00000E+00
    0.00000E+00         0.00000E+00        -0.20091E+08
 
   -0.20102E+08         0.70725E+05         0.00000E+00
    0.70725E+05        -0.49968E+08         0.00000E+00
    0.00000E+00         0.00000E+00        -0.20092E+08
 
   -0.20098E+08         0.69749E+05         0.00000E+00
    0.69749E+05        -0.49964E+08         0.00000E+00
    0.00000E+00         0.00000E+00        -0.20091E+08
 
   -0.20094E+08         0.67674E+05         0.00000E+00
    0.67674E+05        -0.49961E+08         0.00000E+00
    0.00000E+00         0.00000E+00        -0.20091E+08
 
   -0.20091E+08         0.64765E+05         0.00000E+00
    0.64765E+05        -0.49959E+08         0.00000E+00
    0.00000E+00         0.00000E+00        -0.20091E+08
 
   -0.20090E+08         0.61277E+05         0.00000E+00
    0.61277E+05        -0.49958E+08         0.00000E+00
    0.00000E+00         0.00000E+00        -0.20091E+08
 
   -0.20089E+08         0.57464E+05         0.00000E+00
    0.57464E+05        -0.49958E+08         0.00000E+00
    0.00000E+00         0.00000E+00        -0.20091E+08
 
   -0.20090E+08         0.53554E+05         0.00000E+00
    0.53554E+05        -0.49959E+08         0.00000E+00
    0.00000E+00         0.00000E+00        -0.20091E+08
 
   -0.20163E+08         0.10294E+05         0.00000E+00
    0.10294E+05        -0.50000E+08         0.00000E+00
    0.00000E+00         0.00000E+00        -0.20072E+08
 
   -0.20152E+08         0.28098E+05         0.00000E+00
    0.28098E+05        -0.49998E+08         0.00000E+00
    0.00000E+00         0.00000E+00        -0.20081E+08
 
   -0.20142E+08         0.42714E+05         0.00000E+00
    0.42714E+05        -0.49996E+08         0.00000E+00
    0.00000E+00         0.00000E+00        -0.20087E+08
 
   -0.20134E+08         0.54332E+05         0.00000E+00
    0.54332E+05        -0.49992E+08         0.00000E+00
    0.00000E+00         0.00000E+00        -0.20092E+08
 
   -0.20126E+08         0.63147E+05         0.00000E+00
    0.63147E+05        -0.49988E+08         0.00000E+00
    0.00000E+00         0.00000E+00        -0.20094E+08
 
   -0.20119E+08         0.69363E+05         0.00000E+00
    0.69363E+05        -0.49983E+08         0.00000E+00
    0.00000E+00         0.00000E+00        -0.20095E+08
 
   -0.20113E+08         0.73203E+05         0.00000E+00
    0.73203E+05        -0.49978E+08         0.00000E+00
    0.00000E+00         0.00000E+00        -0.20095E+08
 
   -0.20107E+08         0.74909E+05         0.00000E+00
    0.74909E+05        -0.49974E+08         0.00000E+00
    0.00000E+00         0.00000E+00        -0.20094E+08
 
   -0.20103E+08         0.74748E+05         0.00000E+00
    0.74748E+05        -0.49970E+08         0.00000E+00
    0.00000E+00         0.00000E+00        -0.20093E+08
 
   -0.20099E+08         0.73015E+05         0.00000E+00
    0.73015E+05        -0.49966E+08         0.00000E+00
    0.00000E+00         0.00000E+00        -0.20092E+08
 
   -0.20097E+08         0.70022E+05         0.00000E+00
    0.70022E+05        -0.49964E+08         0.00000E+00
    0.00000E+00         0.00000E+00        -0.20091E+08
 
   -0.20095E+08         0.66093E+05         0.00000E+00
    0.66093E+05        -0.49962E+08         0.00000E+00
    0.00000E+00         0.00000E+00        -0.20091E+08
 
   -0.20094E+08         0.61552E+05         0.00000E+00
    0.61552E+05        -0.49962E+08         0.00000E+00
    0.00000E+00         0.00000E+00        -0.20092E+08
 
   -0.20094E+08         0.56688E+05         0.00000E+00
    0.56688E+05        -0.49963E+08         0.00000E+00
    0.00000E+00         0.00000E+00        -0.20093E+08
 
   -0.20095E+08         0.51769E+05         0.00000E+00
    0.51769E+05        -0.49965E+08         0.00000E+00
    0.00000E+00         0.00000E+00        -0.20094E+08
 
   -0.20143E+08         0.11004E+05         0.00000E+00
    0.11004E+05        -0.50000E+08         0.00000E+00
    0.00000E+00         0.00000E+00        -0.20092E+08
 
   -0.20135E+08         0.30041E+05         0.00000E+00
    0.30041E+05        -0.49998E+08         0.00000E+00
    0.00000E+00         0.00000E+00        -0.20098E+08
 
   -0.20129E+08         0.45697E+05         0.00000E+00
    0.45697E+05        -0.49996E+08         0.00000E+00
    0.00000E+00         0.00000E+00        -0.20101E+08
 
   -0.20123E+08         0.58129E+05         0.00000E+00
    0.58129E+05        -0.49993E+08         0.00000E+00
    0.00000E+00         0.00000E+00        -0.20103E+08
 
   -0.20118E+08         0.67501E+05         0.00000E+00
    0.67501E+05        -0.49989E+08         0.00000E+00
    0.00000E+00         0.00000E+00        -0.20103E+08
 
   -0.20114E+08         0.73986E+05         0.00000E+00
    0.73986E+05        -0.49984E+08         0.00000E+00
    0.00000E+00         0.00000E+00        -0.20101E+08
 
   -0.20110E+08         0.77782E+05         0.00000E+00
    0.77782E+05        -0.49980E+08         0.00000E+00
    0.00000E+00         0.00000E+00        -0.20099E+08
 
   -0.20107E+08         0.79130E+05         0.00000E+00
    0.79130E+05        -0.49976E+08         0.00000E+00
    0.00000E+00         0.00000E+00        -0.20097E+08
 
   -0.20104E+08         0.78324E+05         0.00000E+00
    0.78324E+05        -0.49972E+08         0.00000E+00
    0.00000E+00         0.00000E+00        -0.20095E+08
 
   -0.20102E+08         0.75707E+05         0.00000E+00
    0.75707E+05        -0.49969E+08         0.00000E+00
    0.00000E+00         0.00000E+00        -0.20093E+08
 
   -0.20101E+08         0.71663E+05         0.00000E+00
    0.71663E+05        -0.49967E+08         0.00000E+00
    0.00000E+00         0.00000E+00        -0.20092E+08
 
   -0.20100E+08         0.66594E+05         0.00000E+00
    0.66594E+05        -0.49967E+08         0.00000E+00
    0.00000E+00         0.00000E+00        -0.20092E+08
 
   -0.20099E+08         0.60885E+05         0.00000E+00
    0.60885E+05        -0.49967E+08         0.00000E+00
    0.00000E+00         0.00000E+00        -0.20093E+08
 
   -0.20099E+08         0.54885E+05         0.00000E+00
    0.54885E+05        -0.49969E+08         0.00000E+00
    0.00000E+00         0.00000E+00        -0.20096E+08
 
   -0.20100E+08         0.48866E+05         0.00000E+00
    0.48866E+05        -0.49972E+08         0.00000E+00
    0.00000E+00         0.00000E+00        -0.20099E+08
 
   -0.20122E+08         0.11637E+05         0.00000E+00
    0.11637E+05        -0.50000E+08         0.00000E+00
    0.00000E+00         0.00000E+00        -0.20113E+08
 
   -0.20117E+08         0.31793E+05         0.00000E+00
    0.31793E+05        -0.49999E+08         0.00000E+00
    0.00000E+00         0.00000E+00        -0.20116E+08
 
   -0.20114E+08         0.48414E+05         0.00000E+00
    0.48414E+05        -0.49996E+08         0.00000E+00
    0.00000E+00         0.00000E+00        -0.20117E+08
 
   -0.20112E+08         0.61615E+05         0.00000E+00
    0.61615E+05        -0.49993E+08         0.00000E+00
    0.00000E+00         0.00000E+00        -0.20115E+08
 
   -0.20110E+08         0.71511E+05         0.00000E+00
    0.71511E+05        -0.49990E+08         0.00000E+00
    0.00000E+00         0.00000E+00        -0.20113E+08
 
   -0.20109E+08         0.78228E+05         0.00000E+00
    0.78228E+05        -0.49986E+08         0.00000E+00
    0.00000E+00         0.00000E+00        -0.20109E+08
 
   -0.20108E+08         0.81925E+05         0.00000E+00
    0.81925E+05        -0.49982E+08         0.00000E+00
    0.00000E+00         0.00000E+00        -0.20105E+08
 
   -0.20107E+08         0.82835E+05         0.00000E+00
    0.82835E+05        -0.49978E+08         0.00000E+00
    0.00000E+00         0.00000E+00        -0.20100E+08
 
   -0.20107E+08         0.81276E+05         0.00000E+00
    0.81276E+05        -0.49975E+08         0.00000E+00
    0.00000E+00         0.00000E+00        -0.20097E+08
 
   -0.20106E+08         0.77659E+05         0.00000E+00
    0.77659E+05        -0.49973E+08         0.00000E+00
    0.00000E+00         0.00000E+00        -0.20095E+08
 
   -0.20106E+08         0.72453E+05         0.00000E+00
    0.72453E+05        -0.49972E+08         0.00000E+00
    0.00000E+00         0.00000E+00        -0.20094E+08
 
   -0.20106E+08         0.66148E+05         0.00000E+00
    0.66148E+05        -0.49973E+08         0.00000E+00
    0.00000E+00         0.00000E+00        -0.20094E+08
 
   -0.20106E+08         0.59201E+05         0.00000E+00
    0.59201E+05        -0.49974E+08         0.00000E+00
    0.00000E+00         0.00000E+00        -0.20096E+08
 
   -0.20106E+08         0.52000E+05         0.00000E+00
    0.52000E+05        -0.49977E+08         0.00000E+00
    0.00000E+00         0.00000E+00        -0.20100E+08
 
   -0.20107E+08         0.44829E+05         0.00000E+00
    0.44829E+05        -0.49981E+08         0.00000E+00
    0.00000E+00         0.00000E+00        -0.20104E+08
 
   -0.20099E+08         0.12187E+05         0.00000E+00
    0.12187E+05        -0.50000E+08         0.00000E+00
    0.00000E+00         0.00000E+00        -0.20136E+08
 
   -0.20099E+08         0.33314E+05         0.00000E+00
    0.33314E+05        -0.49999E+08         0.00000E+00
    0.00000E+00         0.00000E+00        -0.20135E+08
 
   -0.20099E+08         0.50788E+05         0.00000E+00
    0.50788E+05        -0.49997E+08         0.00000E+00
    0.00000E+00         0.00000E+00        -0.20133E+08
 
   -0.20100E+08         0.64671E+05         0.00000E+00
    0.64671E+05        -0.49994E+08         0.00000E+00
    0.00000E+00         0.00000E+00        -0.20128E+08
 
   -0.20101E+08         0.75016E+05         0.00000E+00
    0.75016E+05        -0.49991E+08         0.00000E+00
    0.00000E+00         0.00000E+00        -0.20123E+08
 
   -0.20103E+08         0.81891E+05         0.00000E+00
    0.81891E+05        -0.49988E+08         0.00000E+00
    0.00000E+00         0.00000E+00        -0.20117E+08
 
   -0.20105E+08         0.85409E+05         0.00000E+00
    0.85409E+05        -0.49985E+08         0.00000E+00
    0.00000E+00         0.00000E+00        -0.20111E+08
 
   -0.20108E+08         0.85788E+05         0.00000E+00
    0.85788E+05        -0.49982E+08         0.00000E+00
    0.00000E+00         0.00000E+00        -0.20105E+08
 
   -0.20110E+08         0.83383E+05         0.00000E+00
    0.83383E+05        -0.49980E+08         0.00000E+00
    0.00000E+00         0.00000E+00        -0.20100E+08
 
   -0.20111E+08         0.78680E+05         0.00000E+00
    0.78680E+05        -0.49979E+08         0.00000E+00
    0.00000E+00         0.00000E+00        -0.20097E+08
 
   -0.20112E+08         0.72247E+05         0.00000E+00
    0.72247E+05        -0.49979E+08         0.00000E+00
    0.00000E+00         0.00000E+00        -0.20096E+08
 
   -0.20113E+08         0.64664E+05         0.00000E+00
    0.64664E+05        -0.49981E+08         0.00000E+00
    0.00000E+00         0.00000E+00        -0.20097E+08
 
   -0.20113E+08         0.56456E+05         0.00000E+00
    0.56456E+05        -0.49983E+08         0.00000E+00
    0.00000E+00         0.00000E+00        -0.20100E+08
 
   -0.20114E+08         0.48038E+05         0.00000E+00
    0.48038E+05        -0.49987E+08         0.00000E+00
    0.00000E+00         0.00000E+00        -0.20105E+08
 
   -0.20114E+08         0.39698E+05         0.00000E+00
    0.39698E+05        -0.49992E+08         0.00000E+00
    0.00000E+00         0.00000E+00        -0.20111E+08
 
   -0.20076E+08         0.12656E+05         0.00000E+00
    0.12656E+05        -0.50000E+08         0.00000E+00
    0.00000E+00         0.00000E+00        -0.20160E+08
 
   -0.20079E+08         0.34579E+05         0.00000E+00
    0.34579E+05        -0.49999E+08         0.00000E+00
    0.00000E+00         0.00000E+00        -0.20155E+08
 
   -0.20083E+08         0.52745E+05         0.00000E+00
    0.52745E+05        -0.49998E+08         0.00000E+00
    0.00000E+00         0.00000E+00        -0.20149E+08
 
   -0.20088E+08         0.67166E+05         0.00000E+00
    0.67166E+05        -0.49996E+08         0.00000E+00
    0.00000E+00         0.00000E+00        -0.20142E+08
 
   -0.20093E+08         0.77820E+05         0.00000E+00
    0.77820E+05        -0.49993E+08         0.00000E+00
    0.00000E+00         0.00000E+00        -0.20134E+08
 
   -0.20098E+08         0.84715E+05         0.00000E+00
    0.84715E+05        -0.49991E+08         0.00000E+00
    0.00000E+00         0.00000E+00        -0.20126E+08
 
   -0.20104E+08         0.87929E+05         0.00000E+00
    0.87929E+05        -0.49989E+08         0.00000E+00
    0.00000E+00         0.00000E+00        -0.20117E+08
 
   -0.20109E+08         0.87682E+05         0.00000E+00
    0.87682E+05        -0.49987E+08         0.00000E+00
    0.00000E+00         0.00000E+00        -0.20110E+08
 
   -0.20114E+08         0.84373E+05         0.00000E+00
    0.84373E+05        -0.49986E+08         0.00000E+00
    0.00000E+00         0.00000E+00        -0.20104E+08
 
   -0.20117E+08         0.78566E+05         0.00000E+00
    0.78566E+05        -0.49987E+08         0.00000E+00
    0.00000E+00         0.00000E+00        -0.20101E+08
 
   -0.20120E+08         0.70919E+05         0.00000E+00
    0.70919E+05        -0.49988E+08         0.00000E+00
    0.00000E+00         0.00000E+00        -0.20100E+08
 
   -0.20122E+08         0.62093E+05         0.00000E+00
    0.62093E+05        -0.49991E+08         0.00000E+00
    0.00000E+00         0.00000E+00        -0.20101E+08
 
   -0.20122E+08         0.52661E+05         0.00000E+00
    0.52661E+05        -0.49994E+08         0.00000E+00
    0.00000E+00         0.00000E+00        -0.20106E+08
 
   -0.20123E+08         0.43063E+05         0.00000E+00
    0.43063E+05        -0.49999E+08         0.00000E+00
    0.00000E+00         0.00000E+00        -0.20112E+08
 
   -0.20123E+08         0.33574E+05         0.00000E+00
    0.33574E+05        -0.50005E+08         0.00000E+00
    0.00000E+00         0.00000E+00        -0.20119E+08
 
   -0.20052E+08         0.13030E+05         0.00000E+00
    0.13030E+05        -0.50000E+08         0.00000E+00
    0.00000E+00         0.00000E+00        -0.20184E+08
 
   -0.20059E+08         0.35578E+05         0.00000E+00
    0.35578E+05        -0.49999E+08         0.00000E+00
    0.00000E+00         0.00000E+00        -0.20176E+08
 
   -0.20066E+08         0.54235E+05         0.00000E+00
    0.54235E+05        -0.49998E+08         0.00000E+00
    0.00000E+00         0.00000E+00        -0.20167E+08
 
   -0.20075E+08         0.68953E+05         0.00000E+00
    0.68953E+05        -0.49997E+08         0.00000E+00
    0.00000E+00         0.00000E+00        -0.20157E+08
 
   -0.20084E+08         0.79679E+05         0.00000E+00
    0.79679E+05        -0.49995E+08         0.00000E+00
    0.00000E+00         0.00000E+00        -0.20146E+08
 
   -0.20093E+08         0.86361E+05         0.00000E+00
    0.86361E+05        -0.49994E+08         0.00000E+00
    0.00000E+00         0.00000E+00        -0.20135E+08
 
   -0.20102E+08         0.89089E+05         0.00000E+00
    0.89089E+05        -0.49994E+08         0.00000E+00
    0.00000E+00         0.00000E+00        -0.20125E+08
 
   -0.20111E+08         0.88127E+05         0.00000E+00
    0.88127E+05        -0.49994E+08         0.00000E+00
    0.00000E+00         0.00000E+00        -0.20117E+08
 
   -0.20119E+08         0.83933E+05         0.00000E+00
    0.83933E+05        -0.49995E+08         0.00000E+00
    0.00000E+00         0.00000E+00        -0.20110E+08
 
   -0.20125E+08         0.77122E+05         0.00000E+00
    0.77122E+05        -0.49996E+08         0.00000E+00
    0.00000E+00         0.00000E+00        -0.20106E+08
 
   -0.20129E+08         0.68396E+05         0.00000E+00
    0.68396E+05        -0.49999E+08         0.00000E+00
    0.00000E+00         0.00000E+00        -0.20105E+08
 
   -0.20131E+08         0.58455E+05         0.00000E+00
    0.58455E+05        -0.50003E+08         0.00000E+00
    0.00000E+00         0.00000E+00        -0.20108E+08
 
   -0.20133E+08         0.47909E+05         0.00000E+00
    0.47909E+05        -0.50007E+08         0.00000E+00
    0.00000E+00         0.00000E+00        -0.20113E+08
 
   -0.20133E+08         0.37210E+05         0.00000E+00
    0.37210E+05        -0.50013E+08         0.00000E+00
    0.00000E+00         0.00000E+00        -0.20120E+08
 
   -0.20133E+08         0.26625E+05         0.00000E+00
    0.26625E+05        -0.50020E+08         0.00000E+00
    0.00000E+00         0.00000E+00        -0.20128E+08
 
   -0.20027E+08         0.13312E+05         0.00000E+00
    0.13312E+05        -0.50000E+08         0.00000E+00
    0.00000E+00         0.00000E+00        -0.20209E+08
 
   -0.20038E+08         0.36268E+05         0.00000E+00
    0.36268E+05        -0.50000E+08         0.00000E+00
    0.00000E+00         0.00000E+00        -0.20198E+08
 
   -0.20050E+08         0.55173E+05         0.00000E+00
    0.55173E+05        -0.49999E+08         0.00000E+00
    0.00000E+00         0.00000E+00        -0.20185E+08
 
   -0.20062E+08         0.69884E+05         0.00000E+00
    0.69884E+05        -0.49998E+08         0.00000E+00
    0.00000E+00         0.00000E+00        -0.20172E+08
 
   -0.20075E+08         0.80286E+05         0.00000E+00
    0.80286E+05        -0.49998E+08         0.00000E+00
    0.00000E+00         0.00000E+00        -0.20158E+08
 
   -0.20089E+08         0.86400E+05         0.00000E+00
    0.86400E+05        -0.49999E+08         0.00000E+00
    0.00000E+00         0.00000E+00        -0.20146E+08
 
   -0.20102E+08         0.88397E+05         0.00000E+00
    0.88397E+05        -0.50000E+08         0.00000E+00
    0.00000E+00         0.00000E+00        -0.20134E+08
 
   -0.20114E+08         0.86669E+05         0.00000E+00
    0.86669E+05        -0.50002E+08         0.00000E+00
    0.00000E+00         0.00000E+00        -0.20125E+08
 
   -0.20125E+08         0.81736E+05         0.00000E+00
    0.81736E+05        -0.50005E+08         0.00000E+00
    0.00000E+00         0.00000E+00        -0.20118E+08
 
   -0.20133E+08         0.74189E+05         0.00000E+00
    0.74189E+05        -0.50009E+08         0.00000E+00
    0.00000E+00         0.00000E+00        -0.20114E+08
 
   -0.20139E+08         0.64672E+05         0.00000E+00
    0.64672E+05        -0.50013E+08         0.00000E+00
    0.00000E+00         0.00000E+00        -0.20114E+08
 
   -0.20142E+08         0.53859E+05         0.00000E+00
    0.53859E+05        -0.50017E+08         0.00000E+00
    0.00000E+00         0.00000E+00        -0.20116E+08
 
   -0.20144E+08         0.42372E+05         0.00000E+00
    0.42372E+05        -0.50023E+08         0.00000E+00
    0.00000E+00         0.00000E+00        -0.20122E+08
 
   -0.20144E+08         0.30692E+05         0.00000E+00
    0.30692E+05        -0.50029E+08         0.00000E+00
    0.00000E+00         0.00000E+00        -0.20130E+08
 
   -0.20144E+08         0.19096E+05         0.00000E+00
    0.19096E+05        -0.50036E+08         0.00000E+00
    0.00000E+00         0.00000E+00        -0.20139E+08
 
   -0.20002E+08         0.13504E+05         0.00000E+00
    0.13504E+05        -0.50000E+08         0.00000E+00
    0.00000E+00         0.00000E+00        -0.20235E+08
 
   -0.20017E+08         0.36617E+05         0.00000E+00
    0.36617E+05        -0.50000E+08         0.00000E+00
    0.00000E+00         0.00000E+00        -0.20219E+08
 
   -0.20033E+08         0.55427E+05         0.00000E+00
    0.55427E+05        -0.50000E+08         0.00000E+00
    0.00000E+00         0.00000E+00        -0.20203E+08
 
   -0.20050E+08         0.69683E+05         0.00000E+00
    0.69683E+05        -0.50000E+08         0.00000E+00
    0.00000E+00         0.00000E+00        -0.20187E+08
 
   -0.20067E+08         0.79260E+05         0.00000E+00
    0.79260E+05        -0.50002E+08         0.00000E+00
    0.00000E+00         0.00000E+00        -0.20171E+08
 
   -0.20085E+08         0.84310E+05         0.00000E+00
    0.84310E+05        -0.50004E+08         0.00000E+00
    0.00000E+00         0.00000E+00        -0.20157E+08
 
   -0.20102E+08         0.85314E+05         0.00000E+00
    0.85314E+05        -0.50008E+08         0.00000E+00
    0.00000E+00         0.00000E+00        -0.20145E+08
 
   -0.20118E+08         0.82855E+05         0.00000E+00
    0.82855E+05        -0.50013E+08         0.00000E+00
    0.00000E+00         0.00000E+00        -0.20135E+08
 
   -0.20131E+08         0.77485E+05         0.00000E+00
    0.77485E+05        -0.50018E+08         0.00000E+00
    0.00000E+00         0.00000E+00        -0.20129E+08
 
   -0.20142E+08         0.69658E+05         0.00000E+00
    0.69658E+05        -0.50024E+08         0.00000E+00
    0.00000E+00         0.00000E+00        -0.20125E+08
 
   -0.20149E+08         0.59818E+05         0.00000E+00
    0.59818E+05        -0.50029E+08         0.00000E+00
    0.00000E+00         0.00000E+00        -0.20125E+08
 
   -0.20154E+08         0.48499E+05         0.00000E+00
    0.48499E+05        -0.50035E+08         0.00000E+00
    0.00000E+00         0.00000E+00        -0.20127E+08
 
   -0.20156E+08         0.36312E+05         0.00000E+00
    0.36312E+05        -0.50040E+08         0.00000E+00
    0.00000E+00         0.00000E+00        -0.20133E+08
 
   -0.20156E+08         0.23800E+05         0.00000E+00
    0.23800E+05        -0.50047E+08         0.00000E+00
    0.00000E+00         0.00000E+00        -0.20141E+08
 
   -0.20156E+08         0.11293E+05         0.00000E+00
    0.11293E+05        -0.50054E+08         0.00000E+00
    0.00000E+00         0.00000E+00        -0.20151E+08
 
   -0.19977E+08         0.13606E+05         0.00000E+00
    0.13606E+05        -0.50000E+08         0.00000E+00
    0.00000E+00         0.00000E+00        -0.20260E+08
 
   -0.19996E+08         0.36560E+05         0.00000E+00
    0.36560E+05        -0.50000E+08         0.00000E+00
    0.00000E+00         0.00000E+00        -0.20241E+08
 
   -0.20017E+08         0.54783E+05         0.00000E+00
    0.54783E+05        -0.50001E+08         0.00000E+00
    0.00000E+00         0.00000E+00        -0.20221E+08
 
   -0.20038E+08         0.67923E+05         0.00000E+00
    0.67923E+05        -0.50003E+08         0.00000E+00
    0.00000E+00         0.00000E+00        -0.20201E+08
 
   -0.20061E+08         0.75992E+05         0.00000E+00
    0.75992E+05        -0.50007E+08         0.00000E+00
    0.00000E+00         0.00000E+00        -0.20184E+08
 
   -0.20083E+08         0.79528E+05         0.00000E+00
    0.79528E+05        -0.50012E+08         0.00000E+00
    0.00000E+00         0.00000E+00        -0.20169E+08
 
   -0.20103E+08         0.79384E+05         0.00000E+00
    0.79384E+05        -0.50019E+08         0.00000E+00
    0.00000E+00         0.00000E+00        -0.20158E+08
 
   -0.20122E+08         0.76365E+05         0.00000E+00
    0.76365E+05        -0.50027E+08         0.00000E+00
    0.00000E+00         0.00000E+00        -0.20149E+08
 
   -0.20138E+08         0.70978E+05         0.00000E+00
    0.70978E+05        -0.50034E+08         0.00000E+00
    0.00000E+00         0.00000E+00        -0.20143E+08
 
   -0.20150E+08         0.63455E+05         0.00000E+00
    0.63455E+05        -0.50042E+08         0.00000E+00
    0.00000E+00         0.00000E+00        -0.20140E+08
 
   -0.20160E+08         0.53924E+05         0.00000E+00
    0.53924E+05        -0.50048E+08         0.00000E+00
    0.00000E+00         0.00000E+00        -0.20140E+08
 
   -0.20166E+08         0.42626E+05         0.00000E+00
    0.42626E+05        -0.50055E+08         0.00000E+00
    0.00000E+00         0.00000E+00        -0.20142E+08
 
   -0.20168E+08         0.30075E+05         0.00000E+00
    0.30075E+05        -0.50061E+08         0.00000E+00
    0.00000E+00         0.00000E+00        -0.20147E+08
 
   -0.20169E+08         0.16910E+05         0.00000E+00
    0.16910E+05        -0.50067E+08         0.00000E+00
    0.00000E+00         0.00000E+00        -0.20155E+08
 
   -0.20169E+08         0.36031E+04         0.00000E+00
    0.36031E+04        -0.50074E+08         0.00000E+00
    0.00000E+00         0.00000E+00        -0.20164E+08
 
   -0.19952E+08         0.13610E+05         0.00000E+00
    0.13610E+05        -0.50000E+08         0.00000E+00
    0.00000E+00         0.00000E+00        -0.20286E+08
 
   -0.19976E+08         0.35954E+05         0.00000E+00
    0.35954E+05        -0.50001E+08         0.00000E+00
    0.00000E+00         0.00000E+00        -0.20262E+08
 
   -0.20002E+08         0.52826E+05         0.00000E+00
    0.52826E+05        -0.50002E+08         0.00000E+00
    0.00000E+00         0.00000E+00        -0.20238E+08
 
   -0.20029E+08         0.63903E+05         0.00000E+00
    0.63903E+05        -0.50007E+08         0.00000E+00
    0.00000E+00         0.00000E+00        -0.20216E+08
 
   -0.20056E+08         0.69726E+05         0.00000E+00
    0.69726E+05        -0.50014E+08         0.00000E+00
    0.00000E+00         0.00000E+00        -0.20198E+08
 
   -0.20082E+08         0.71500E+05         0.00000E+00
    0.71500E+05        -0.50022E+08         0.00000E+00
    0.00000E+00         0.00000E+00        -0.20184E+08
 
   -0.20105E+08         0.70391E+05         0.00000E+00
    0.70391E+05        -0.50033E+08         0.00000E+00
    0.00000E+00         0.00000E+00        -0.20173E+08
 
   -0.20126E+08         0.67154E+05         0.00000E+00
    0.67154E+05        -0.50043E+08         0.00000E+00
    0.00000E+00         0.00000E+00        -0.20166E+08
 
   -0.20144E+08         0.62170E+05         0.00000E+00
    0.62170E+05        -0.50053E+08         0.00000E+00
    0.00000E+00         0.00000E+00        -0.20162E+08
 
   -0.20158E+08         0.55512E+05         0.00000E+00
    0.55512E+05        -0.50063E+08         0.00000E+00
    0.00000E+00         0.00000E+00        -0.20160E+08
 
   -0.20170E+08         0.47004E+05         0.00000E+00
    0.47004E+05        -0.50071E+08         0.00000E+00
    0.00000E+00         0.00000E+00        -0.20159E+08
 
   -0.20177E+08         0.36467E+05         0.00000E+00
    0.36467E+05        -0.50078E+08         0.00000E+00
    0.00000E+00         0.00000E+00        -0.20160E+08
 
   -0.20181E+08         0.24070E+05         0.00000E+00
    0.24070E+05        -0.50083E+08         0.00000E+00
    0.00000E+00         0.00000E+00        -0.20164E+08
 
   -0.20183E+08         0.10502E+05         0.00000E+00
    0.10502E+05        -0.50089E+08         0.00000E+00
    0.00000E+00         0.00000E+00        -0.20170E+08
 
   -0.20183E+08        -0.34970E+04         0.00000E+00
   -0.34970E+04        -0.50096E+08         0.00000E+00
    0.00000E+00         0.00000E+00        -0.20178E+08
 
   -0.19927E+08         0.13487E+05         0.00000E+00
    0.13487E+05        -0.50000E+08         0.00000E+00
    0.00000E+00         0.00000E+00        -0.20311E+08
 
   -0.19957E+08         0.34455E+05         0.00000E+00
    0.34455E+05        -0.50001E+08         0.00000E+00
    0.00000E+00         0.00000E+00        -0.20282E+08
 
   -0.19989E+08         0.48709E+05         0.00000E+00
    0.48709E+05        -0.50005E+08         0.00000E+00
    0.00000E+00         0.00000E+00        -0.20255E+08
 
   -0.20022E+08         0.56564E+05         0.00000E+00
    0.56564E+05        -0.50013E+08         0.00000E+00
    0.00000E+00         0.00000E+00        -0.20232E+08
 
   -0.20053E+08         0.59761E+05         0.00000E+00
    0.59761E+05        -0.50024E+08         0.00000E+00
    0.00000E+00         0.00000E+00        -0.20214E+08
 
   -0.20082E+08         0.60042E+05         0.00000E+00
    0.60042E+05        -0.50036E+08         0.00000E+00
    0.00000E+00         0.00000E+00        -0.20202E+08
 
   -0.20108E+08         0.58431E+05         0.00000E+00
    0.58431E+05        -0.50050E+08         0.00000E+00
    0.00000E+00         0.00000E+00        -0.20193E+08
 
   -0.20130E+08         0.55428E+05         0.00000E+00
    0.55428E+05        -0.50063E+08         0.00000E+00
    0.00000E+00         0.00000E+00        -0.20188E+08
 
   -0.20149E+08         0.51228E+05         0.00000E+00
    0.51228E+05        -0.50075E+08         0.00000E+00
    0.00000E+00         0.00000E+00        -0.20185E+08
 
   -0.20165E+08         0.45802E+05         0.00000E+00
    0.45802E+05        -0.50086E+08         0.00000E+00
    0.00000E+00         0.00000E+00        -0.20183E+08
 
   -0.20178E+08         0.38906E+05         0.00000E+00
    0.38906E+05        -0.50096E+08         0.00000E+00
    0.00000E+00         0.00000E+00        -0.20183E+08
 
   -0.20188E+08         0.30033E+05         0.00000E+00
    0.30033E+05        -0.50103E+08         0.00000E+00
    0.00000E+00         0.00000E+00        -0.20183E+08
 
   -0.20194E+08         0.18698E+05         0.00000E+00
    0.18698E+05        -0.50109E+08         0.00000E+00
    0.00000E+00         0.00000E+00        -0.20185E+08
 
   -0.20196E+08         0.51865E+04         0.00000E+00
    0.51865E+04        -0.50114E+08         0.00000E+00
    0.00000E+00         0.00000E+00        -0.20189E+08
 
   -0.20197E+08        -0.93884E+04         0.00000E+00
   -0.93884E+04        -0.50119E+08         0.00000E+00
    0.00000E+00         0.00000E+00        -0.20194E+08
 
   -0.19904E+08         0.13128E+05         0.00000E+00
    0.13128E+05        -0.50000E+08         0.00000E+00
    0.00000E+00         0.00000E+00        -0.20335E+08
 
   -0.19941E+08         0.31133E+05         0.00000E+00
    0.31133E+05        -0.50003E+08         0.00000E+00
    0.00000E+00         0.00000E+00        -0.20301E+08
 
   -0.19980E+08         0.40846E+05         0.00000E+00
    0.40846E+05        -0.50011E+08         0.00000E+00
    0.00000E+00         0.00000E+00        -0.20272E+08
 
   -0.20018E+08         0.44860E+05         0.00000E+00
    0.44860E+05        -0.50023E+08         0.00000E+00
    0.00000E+00         0.00000E+00        -0.20249E+08
 
   -0.20052E+08         0.45977E+05         0.00000E+00
    0.45977E+05        -0.50038E+08         0.00000E+00
    0.00000E+00         0.00000E+00        -0.20234E+08
 
   -0.20083E+08         0.45482E+05         0.00000E+00
    0.45482E+05        -0.50054E+08         0.00000E+00
    0.00000E+00         0.00000E+00        -0.20224E+08
 
   -0.20110E+08         0.43927E+05         0.00000E+00
    0.43927E+05        -0.50070E+08         0.00000E+00
    0.00000E+00         0.00000E+00        -0.20217E+08
 
   -0.20133E+08         0.41545E+05         0.00000E+00
    0.41545E+05        -0.50085E+08         0.00000E+00
    0.00000E+00         0.00000E+00        -0.20214E+08
 
   -0.20153E+08         0.38403E+05         0.00000E+00
    0.38403E+05        -0.50099E+08         0.00000E+00
    0.00000E+00         0.00000E+00        -0.20212E+08
 
   -0.20171E+08         0.34437E+05         0.00000E+00
    0.34437E+05        -0.50112E+08         0.00000E+00
    0.00000E+00         0.00000E+00        -0.20212E+08
 
   -0.20185E+08         0.29434E+05         0.00000E+00
    0.29434E+05        -0.50123E+08         0.00000E+00
    0.00000E+00         0.00000E+00        -0.20212E+08
 
   -0.20197E+08         0.22928E+05         0.00000E+00
    0.22928E+05        -0.50132E+08         0.00000E+00
    0.00000E+00         0.00000E+00        -0.20212E+08
 
   -0.20205E+08         0.14029E+05         0.00000E+00
    0.14029E+05        -0.50138E+08         0.00000E+00
    0.00000E+00         0.00000E+00        -0.20211E+08
 
   -0.20210E+08         0.17398E+04         0.00000E+00
    0.17398E+04        -0.50141E+08         0.00000E+00
    0.00000E+00         0.00000E+00        -0.20211E+08
 
   -0.20212E+08        -0.13154E+05         0.00000E+00
   -0.13154E+05        -0.50143E+08         0.00000E+00
    0.00000E+00         0.00000E+00        -0.20212E+08
 
   -0.19883E+08         0.11911E+05         0.00000E+00
    0.11911E+05        -0.50001E+08         0.00000E+00
    0.00000E+00         0.00000E+00        -0.20358E+08
 
   -0.19930E+08         0.23538E+05         0.00000E+00
    0.23538E+05        -0.50008E+08         0.00000E+00
    0.00000E+00         0.00000E+00        -0.20320E+08
 
   -0.19975E+08         0.27512E+05         0.00000E+00
    0.27512E+05        -0.50022E+08         0.00000E+00
    0.00000E+00         0.00000E+00        -0.20291E+08
 
   -0.20016E+08         0.28887E+05         0.00000E+00
    0.28887E+05        -0.50039E+08         0.00000E+00
    0.00000E+00         0.00000E+00        -0.20271E+08
 
   -0.20053E+08         0.29054E+05         0.00000E+00
    0.29054E+05        -0.50057E+08         0.00000E+00
    0.00000E+00         0.00000E+00        -0.20258E+08
 
   -0.20084E+08         0.28492E+05         0.00000E+00
    0.28492E+05        -0.50075E+08         0.00000E+00
    0.00000E+00         0.00000E+00        -0.20250E+08
 
   -0.20112E+08         0.27409E+05         0.00000E+00
    0.27409E+05        -0.50092E+08         0.00000E+00
    0.00000E+00         0.00000E+00        -0.20246E+08
 
   -0.20135E+08         0.25899E+05         0.00000E+00
    0.25899E+05        -0.50109E+08         0.00000E+00
    0.00000E+00         0.00000E+00        -0.20244E+08
 
   -0.20156E+08         0.23977E+05         0.00000E+00
    0.23977E+05        -0.50125E+08         0.00000E+00
    0.00000E+00         0.00000E+00        -0.20244E+08
 
   -0.20174E+08         0.21584E+05         0.00000E+00
    0.21584E+05        -0.50139E+08         0.00000E+00
    0.00000E+00         0.00000E+00        -0.20245E+08
 
   -0.20190E+08         0.18576E+05         0.00000E+00
    0.18576E+05        -0.50152E+08         0.00000E+00
    0.00000E+00         0.00000E+00        -0.20245E+08
 
   -0.20203E+08         0.14664E+05         0.00000E+00
    0.14664E+05        -0.50162E+08         0.00000E+00
    0.00000E+00         0.00000E+00        -0.20245E+08
 
   -0.20214E+08         0.92096E+04         0.00000E+00
    0.92096E+04        -0.50169E+08         0.00000E+00
    0.00000E+00         0.00000E+00        -0.20243E+08
 
   -0.20222E+08         0.70341E+03         0.00000E+00
    0.70341E+03        -0.50171E+08         0.00000E+00
    0.00000E+00         0.00000E+00        -0.20238E+08
 
   -0.20227E+08        -0.13308E+05         0.00000E+00
   -0.13308E+05        -0.50171E+08         0.00000E+00
    0.00000E+00         0.00000E+00        -0.20232E+08
 
   -0.19870E+08         0.60890E+04         0.00000E+00
    0.60890E+04        -0.50008E+08         0.00000E+00
    0.00000E+00         0.00000E+00        -0.20381E+08
 
   -0.19925E+08         0.85376E+04         0.00000E+00
    0.85376E+04        -0.50022E+08         0.00000E+00
    0.00000E+00         0.00000E+00        -0.20342E+08
 
   -0.19974E+08         0.96167E+04         0.00000E+00
    0.96167E+04        -0.50040E+08         0.00000E+00
    0.00000E+00         0.00000E+00        -0.20316E+08
 
   -0.20016E+08         0.99795E+04         0.00000E+00
    0.99795E+04        -0.50059E+08         0.00000E+00
    0.00000E+00         0.00000E+00        -0.20299E+08
 
   -0.20053E+08         0.99684E+04         0.00000E+00
    0.99684E+04        -0.50079E+08         0.00000E+00
    0.00000E+00         0.00000E+00        -0.20288E+08
 
   -0.20085E+08         0.97402E+04         0.00000E+00
    0.97402E+04        -0.50099E+08         0.00000E+00
    0.00000E+00         0.00000E+00        -0.20282E+08
 
   -0.20112E+08         0.93562E+04         0.00000E+00
    0.93562E+04        -0.50118E+08         0.00000E+00
    0.00000E+00         0.00000E+00        -0.20279E+08
 
   -0.20137E+08         0.88415E+04         0.00000E+00
    0.88415E+04        -0.50136E+08         0.00000E+00
    0.00000E+00         0.00000E+00        -0.20278E+08
 
   -0.20158E+08         0.81977E+04         0.00000E+00
    0.81977E+04        -0.50153E+08         0.00000E+00
    0.00000E+00         0.00000E+00        -0.20279E+08
 
   -0.20176E+08         0.74029E+04         0.00000E+00
    0.74029E+04        -0.50169E+08         0.00000E+00
    0.00000E+00         0.00000E+00        -0.20281E+08
 
   -0.20192E+08         0.64043E+04         0.00000E+00
    0.64043E+04        -0.50182E+08         0.00000E+00
    0.00000E+00         0.00000E+00        -0.20284E+08
 
   -0.20206E+08         0.50951E+04         0.00000E+00
    0.50951E+04        -0.50194E+08         0.00000E+00
    0.00000E+00         0.00000E+00        -0.20285E+08
 
   -0.20219E+08         0.32824E+04         0.00000E+00
    0.32824E+04        -0.50202E+08         0.00000E+00
    0.00000E+00         0.00000E+00        -0.20283E+08
 
   -0.20230E+08         0.40068E+03         0.00000E+00
    0.40068E+03        -0.50206E+08         0.00000E+00
    0.00000E+00         0.00000E+00        -0.20276E+08
 
   -0.20239E+08        -0.60421E+04         0.00000E+00
   -0.60421E+04        -0.50200E+08         0.00000E+00
    0.00000E+00         0.00000E+00        -0.20259E+08
 
TENSORS stresstot double 
   -0.30302E+08         0.19339E+03         0.00000E+00
    0.19339E+03        -0.60000E+08         0.00000E+00
    0.00000E+00         0.00000E+00        -0.29936E+08
 
   -0.30270E+08         0.55121E+03         0.00000E+00
    0.55121E+03        -0.59999E+08         0.00000E+00
    0.00000E+00         0.00000E+00        -0.29966E+08
 
   -0.30240E+08         0.87216E+03         0.00000E+00
    0.87216E+03        -0.59997E+08         0.00000E+00
    0.00000E+00         0.00000E+00        -0.29993E+08
 
   -0.30213E+08         0.11586E+04         0.00000E+00
    0.11586E+04        -0.59995E+08         0.00000E+00
    0.00000E+00         0.00000E+00        -0.30017E+08
 
   -0.30189E+08         0.14131E+04         0.00000E+00
    0.14131E+04        -0.59993E+08         0.00000E+00
    0.00000E+00         0.00000E+00        -0.30037E+08
 
   -0.30167E+08         0.16380E+04         0.00000E+00
    0.16380E+04        -0.59990E+08         0.00000E+00
    0.00000E+00         0.00000E+00        -0.30055E+08
 
   -0.30148E+08         0.18361E+04         0.00000E+00
    0.18361E+04        -0.59986E+08         0.00000E+00
    0.00000E+00         0.00000E+00        -0.30069E+08
 
   -0.30132E+08         0.20091E+04         0.00000E+00
    0.20091E+04        -0.59982E+08         0.00000E+00
    0.00000E+00         0.00000E+00        -0.30081E+08
 
   -0.30118E+08         0.21590E+04         0.00000E+00
    0.21590E+04        -0.59978E+08         0.00000E+00
    0.00000E+00         0.00000E+00        -0.30089E+08
 
   -0.30106E+08         0.22882E+04         0.00000E+00
    0.22882E+04        -0.59974E+08         0.00000E+00
    0.00000E+00         0.00000E+00        -0.30095E+08
 
   -0.30096E+08         0.23988E+04         0.00000E+00
    0.23988E+04        -0.59969E+08         0.00000E+00
    0.00000E+00         0.00000E+00        -0.30098E+08
 
   -0.30089E+08         0.24930E+04         0.00000E+00
    0.24930E+04        -0.59964E+08         0.00000E+00
    0.00000E+00         0.00000E+00        -0.30099E+08
 
   -0.30085E+08         0.25729E+04         0.00000E+00
    0.25729E+04        -0.59959E+08         0.00000E+00
    0.00000E+00         0.00000E+00        -0.30097E+08
 
   -0.30082E+08         0.26406E+04         0.00000E+00
    0.26406E+04        -0.59954E+08         0.00000E+00
    0.00000E+00         0.00000E+00        -0.30093E+08
 
   -0.30082E+08         0.26979E+04         0.00000E+00
    0.26979E+04        -0.59949E+08         0.00000E+00
    0.00000E+00         0.00000E+00        -0.30086E+08
 
   -0.30301E+08         0.58437E+03         0.00000E+00
    0.58437E+03        -0.60000E+08         0.00000E+00
    0.00000E+00         0.00000E+00        -0.29936E+08
 
   -0.30269E+08         0.16644E+04         0.00000E+00
    0.16644E+04        -0.59999E+08         0.00000E+00
    0.00000E+00         0.00000E+00        -0.29967E+08
 
   -0.30240E+08         0.26316E+04         0.00000E+00
    0.26316E+04        -0.59997E+08         0.00000E+00
    0.00000E+00         0.00000E+00        -0.29993E+08
 
   -0.30213E+08         0.34936E+04         0.00000E+00
    0.34936E+04        -0.59995E+08         0.00000E+00
    0.00000E+00         0.00000E+00        -0.30017E+08
 
   -0.30189E+08         0.42576E+04         0.00000E+00
    0.42576E+04        -0.59993E+08         0.00000E+00
    0.00000E+00         0.00000E+00        -0.30038E+08
 
   -0.30167E+08         0.49316E+04         0.00000E+00
    0.49316E+04        -0.59990E+08         0.00000E+00
    0.00000E+00         0.00000E+00        -0.30055E+08
 
   -0.30148E+08         0.55237E+04         0.00000E+00
    0.55237E+04        -0.59986E+08         0.00000E+00
    0.00000E+00         0.00000E+00        -0.30069E+08
 
   -0.30131E+08         0.60395E+04         0.00000E+00
    0.60395E+04        -0.59982E+08         0.00000E+00
    0.00000E+00         0.00000E+00        -0.30081E+08
 
   -0.30117E+08         0.64856E+04         0.00000E+00
    0.64856E+04        -0.59978E+08         0.00000E+00
    0.00000E+00         0.00000E+00        -0.30089E+08
 
   -0.30106E+08         0.68689E+04         0.00000E+00
    0.68689E+04        -0.59974E+08         0.00000E+00
    0.00000E+00         0.00000E+00        -0.30095E+08
 
   -0.30096E+08         0.71963E+04         0.00000E+00
    0.71963E+04        -0.59969E+08         0.00000E+00
    0.00000E+00         0.00000E+00        -0.30098E+08
 
   -0.30089E+08         0.74742E+04         0.00000E+00
    0.74742E+04        -0.59964E+08         0.00000E+00
    0.00000E+00         0.00000E+00        -0.30099E+08
 
   -0.30084E+08         0.77092E+04         0.00000E+00
    0.77092E+04        -0.59959E+08         0.00000E+00
    0.00000E+00         0.00000E+00        -0.30097E+08
 
   -0.30082E+08         0.79073E+04         0.00000E+00
    0.79073E+04        -0.59954E+08         0.00000E+00
    0.00000E+00         0.00000E+00        -0.30093E+08
 
   -0.30082E+08         0.80749E+04         0.00000E+00
    0.80749E+04        -0.59949E+08         0.00000E+00
    0.00000E+00         0.00000E+00        -0.30086E+08
 
   -0.30300E+08         0.98794E+03         0.00000E+00
    0.98794E+03        -0.60000E+08         0.00000E+00
    0.00000E+00         0.00000E+00        -0.29938E+08
 
   -0.30268E+08         0.28096E+04         0.00000E+00
    0.28096E+04        -0.59999E+08         0.00000E+00
    0.00000E+00         0.00000E+00        -0.29968E+08
 
   -0.30238E+08         0.44362E+04         0.00000E+00
    0.44362E+04        -0.59997E+08         0.00000E+00
    0.00000E+00         0.00000E+00        -0.29995E+08
 
   -0.30212E+08         0.58808E+04         0.00000E+00
    0.58808E+04        -0.59995E+08         0.00000E+00
    0.00000E+00         0.00000E+00        -0.30018E+08
 
   -0.30188E+08         0.71566E+04         0.00000E+00
    0.71566E+04        -0.59992E+08         0.00000E+00
    0.00000E+00         0.00000E+00        -0.30038E+08
 
   -0.30166E+08         0.82770E+04         0.00000E+00
    0.82770E+04        -0.59989E+08         0.00000E+00
    0.00000E+00         0.00000E+00        -0.30055E+08
 
   -0.30147E+08         0.92567E+04         0.00000E+00
    0.92567E+04        -0.59986E+08         0.00000E+00
    0.00000E+00         0.00000E+00        -0.30069E+08
 
   -0.30131E+08         0.10106E+05         0.00000E+00
    0.10106E+05        -0.59982E+08         0.00000E+00
    0.00000E+00         0.00000E+00        -0.30081E+08
 
   -0.30117E+08         0.10838E+05         0.00000E+00
    0.10838E+05        -0.59978E+08         0.00000E+00
    0.00000E+00         0.00000E+00        -0.30089E+08
 
   -0.30105E+08         0.11462E+05         0.00000E+00
    0.11462E+05        -0.59973E+08         0.00000E+00
    0.00000E+00         0.00000E+00        -0.30095E+08
 
   -0.30096E+08         0.11993E+05         0.00000E+00
    0.11993E+05        -0.59968E+08         0.00000E+00
    0.00000E+00         0.00000E+00        -0.30098E+08
 
   -0.30089E+08         0.12440E+05         0.00000E+00
    0.12440E+05        -0.59964E+08         0.00000E+00
    0.00000E+00         0.00000E+00        -0.30099E+08
 
   -0.30084E+08         0.12816E+05         0.00000E+00
    0.12816E+05        -0.59959E+08         0.00000E+00
    0.00000E+00         0.00000E+00        -0.30097E+08
 
   -0.30082E+08         0.13131E+05         0.00000E+00
    0.13131E+05        -0.59953E+08         0.00000E+00
    0.00000E+00         0.00000E+00        -0.30092E+08
 
   -0.30081E+08         0.13395E+05         0.00000E+00
    0.13395E+05        -0.59948E+08         0.00000E+00
    0.00000E+00         0.00000E+00        -0.30086E+08
 
   -0.30297E+08         0.14122E+04         0.00000E+00
    0.14122E+04        -0.60000E+08         0.00000E+00
    0.00000E+00         0.00000E+00        -0.29940E+08
 
   -0.30266E+08         0.40076E+04         0.00000E+00
    0.40076E+04        -0.59999E+08         0.00000E+00
    0.00000E+00         0.00000E+00        -0.29970E+08
 
   -0.30237E+08         0.63149E+04         0.00000E+00
    0.63149E+04        -0.59997E+08         0.00000E+00
    0.00000E+00         0.00000E+00        -0.29996E+08
 
   -0.30210E+08         0.83540E+04         0.00000E+00
    0.83540E+04        -0.59995E+08         0.00000E+00
    0.00000E+00         0.00000E+00        -0.30019E+08
 
   -0.30186E+08         0.10145E+05         0.00000E+00
    0.10145E+05        -0.59992E+08         0.00000E+00
    0.00000E+00         0.00000E+00        -0.30039E+08
 
   -0.30165E+08         0.11707E+05         0.00000E+00
    0.11707E+05        -0.59989E+08         0.00000E+00
    0.00000E+00         0.00000E+00        -0.30056E+08
 
   -0.30146E+08         0.13064E+05         0.00000E+00
    0.13064E+05        -0.59985E+08         0.00000E+00
    0.00000E+00         0.00000E+00        -0.30070E+08
 
   -0.30130E+08         0.14232E+05         0.00000E+00
    0.14232E+05        -0.59981E+08         0.00000E+00
    0.00000E+00         0.00000E+00        -0.30081E+08
 
   -0.30116E+08         0.15230E+05         0.00000E+00
    0.15230E+05        -0.59977E+08         0.00000E+00
    0.00000E+00         0.00000E+00        -0.30089E+08
 
   -0.30104E+08         0.16075E+05         0.00000E+00
    0.16075E+05        -0.59972E+08         0.00000E+00
    0.00000E+00         0.00000E+00        -0.30095E+08
 
   -0.30095E+08         0.16786E+05         0.00000E+00
    0.16786E+05        -0.59968E+08         0.00000E+00
    0.00000E+00         0.00000E+00        -0.30098E+08
 
   -0.30088E+08         0.17379E+05         0.00000E+00
    0.17379E+05        -0.59963E+08         0.00000E+00
    0.00000E+00         0.00000E+00        -0.30098E+08
 
   -0.30084E+08         0.17872E+05         0.00000E+00
    0.17872E+05        -0.59958E+08         0.00000E+00
    0.00000E+00         0.00000E+00        -0.30096E+08
 
   -0.30081E+08         0.18280E+05         0.00000E+00
    0.18280E+05        -0.59953E+08         0.00000E+00
    0.00000E+00         0.00000E+00        -0.30092E+08
 
   -0.30081E+08         0.18618E+05         0.00000E+00
    0.18618E+05        -0.59948E+08         0.00000E+00
    0.00000E+00         0.00000E+00        -0.30085E+08
 
   -0.30294E+08         0.18649E+04         0.00000E+00
    0.18649E+04        -0.60000E+08         0.00000E+00
    0.00000E+00         0.00000E+00        -0.29943E+08
 
   -0.30263E+08         0.52778E+04         0.00000E+00
    0.52778E+04        -0.59999E+08         0.00000E+00
    0.00000E+00         0.00000E+00        -0.29972E+08
 
   -0.30234E+08         0.82952E+04         0.00000E+00
    0.82952E+04        -0.59997E+08         0.00000E+00
    0.00000E+00         0.00000E+00        -0.29998E+08
 
   -0.30208E+08         0.10945E+05         0.00000E+00
    0.10945E+05        -0.59995E+08         0.00000E+00
    0.00000E+00         0.00000E+00        -0.30021E+08
 
   -0.30184E+08         0.13254E+05         0.00000E+00
    0.13254E+05        -0.59992E+08         0.00000E+00
    0.00000E+00         0.00000E+00        -0.30041E+08
 
   -0.30163E+08         0.15252E+05         0.00000E+00
    0.15252E+05        -0.59988E+08         0.00000E+00
    0.00000E+00         0.00000E+00        -0.30057E+08
 
   -0.30145E+08         0.16971E+05         0.00000E+00
    0.16971E+05        -0.59985E+08         0.00000E+00
    0.00000E+00         0.00000E+00        -0.30070E+08
 
   -0.30129E+08         0.18437E+05         0.00000E+00
    0.18437E+05        -0.59980E+08         0.00000E+00
    0.00000E+00         0.00000E+00        -0.30081E+08
 
   -0.30115E+08         0.19675E+05         0.00000E+00
    0.19675E+05        -0.59976E+08         0.00000E+00
    0.00000E+00         0.00000E+00        -0.30089E+08
 
   -0.30104E+08         0.20711E+05         0.00000E+00
    0.20711E+05        -0.59972E+08         0.00000E+00
    0.00000E+00         0.00000E+00        -0.30094E+08
 
   -0.30095E+08         0.21571E+05         0.00000E+00
    0.21571E+05        -0.59967E+08         0.00000E+00
    0.00000E+00         0.00000E+00        -0.30097E+08
 
   -0.30088E+08         0.22278E+05         0.00000E+00
    0.22278E+05        -0.59962E+08         0.00000E+00
    0.00000E+00         0.00000E+00        -0.30098E+08
 
   -0.30083E+08         0.22855E+05         0.00000E+00
    0.22855E+05        -0.59957E+08         0.00000E+00
    0.00000E+00         0.00000E+00        -0.30096E+08
 
   -0.30081E+08         0.23322E+05         0.00000E+00
    0.23322E+05        -0.59952E+08         0.00000E+00
    0.00000E+00         0.00000E+00        -0.30091E+08
 
   -0.30081E+08         0.23703E+05         0.00000E+00
    0.23703E+05        -0.59947E+08         0.00000E+00
    0.00000E+00         0.00000E+00        -0.30085E+08
 
   -0.30290E+08         0.23529E+04         0.00000E+00
    0.23529E+04        -0.60000E+08         0.00000E+00
    0.00000E+00         0.00000E+00        -0.29947E+08
 
   -0.30259E+08         0.66382E+04         0.00000E+00
    0.66382E+04        -0.59999E+08         0.00000E+00
    0.00000E+00         0.00000E+00        -0.29976E+08
 
   -0.30231E+08         0.10402E+05         0.00000E+00
    0.10402E+05        -0.59997E+08         0.00000E+00
    0.00000E+00         0.00000E+00        -0.30001E+08
 
   -0.30205E+08         0.13680E+05         0.00000E+00
    0.13680E+05        -0.59994E+08         0.00000E+00
    0.00000E+00         0.00000E+00        -0.30023E+08
 
   -0.30182E+08         0.16513E+05         0.00000E+00
    0.16513E+05        -0.59991E+08         0.00000E+00
    0.00000E+00         0.00000E+00        -0.30042E+08
 
   -0.30161E+08         0.18938E+05         0.00000E+00
    0.18938E+05        -0.59988E+08         0.00000E+00
    0.00000E+00         0.00000E+00        -0.30058E+08
 
   -0.30143E+08         0.21000E+05         0.00000E+00
    0.21000E+05        -0.59984E+08         0.00000E+00
    0.00000E+00         0.00000E+00        -0.30071E+08
 
   -0.30127E+08         0.22736E+05         0.00000E+00
    0.22736E+05        -0.59980E+08         0.00000E+00
    0.00000E+00         0.00000E+00        -0.30081E+08
 
   -0.30114E+08         0.24182E+05         0.00000E+00
    0.24182E+05        -0.59975E+08         0.00000E+00
    0.00000E+00         0.00000E+00        -0.30089E+08
 
   -0.30103E+08         0.25372E+05         0.00000E+00
    0.25372E+05        -0.59970E+08         0.00000E+00
    0.00000E+00         0.00000E+00        -0.30094E+08
 
   -0.30094E+08         0.26340E+05         0.00000E+00
    0.26340E+05        -0.59966E+08         0.00000E+00
    0.00000E+00         0.00000E+00        -0.30097E+08
 
   -0.30087E+08         0.27119E+05         0.00000E+00
    0.27119E+05        -0.59961E+08         0.00000E+00
    0.00000E+00         0.00000E+00        -0.30097E+08
 
   -0.30083E+08         0.27737E+05         0.00000E+00
    0.27737E+05        -0.59956E+08         0.00000E+00
    0.00000E+00         0.00000E+00        -0.30095E+08
 
   -0.30081E+08         0.28223E+05         0.00000E+00
    0.28223E+05        -0.59951E+08         0.00000E+00
    0.00000E+00         0.00000E+00        -0.30091E+08
 
   -0.30080E+08         0.28605E+05         0.00000E+00
    0.28605E+05        -0.59947E+08         0.00000E+00
    0.00000E+00         0.00000E+00        -0.30085E+08
 
   -0.30285E+08         0.28832E+04         0.00000E+00
    0.28832E+04        -0.60000E+08         0.00000E+00
    0.00000E+00         0.00000E+00        -0.29952E+08
 
   -0.30255E+08         0.81041E+04         0.00000E+00
    0.81041E+04        -0.59998E+08         0.00000E+00
    0.00000E+00         0.00000E+00        -0.29980E+08
 
   -0.30227E+08         0.12655E+05         0.00000E+00
    0.12655E+05        -0.59997E+08         0.00000E+00
    0.00000E+00         0.00000E+00        -0.30005E+08
 
   -0.30202E+08         0.16585E+05         0.00000E+00
    0.16585E+05        -0.59994E+08         0.00000E+00
    0.00000E+00         0.00000E+00        -0.30026E+08
 
   -0.30179E+08         0.19944E+05         0.00000E+00
    0.19944E+05        -0.59991E+08         0.00000E+00
    0.00000E+00         0.00000E+00        -0.30044E+08
 
   -0.30159E+08         0.22787E+05         0.00000E+00
    0.22787E+05        -0.59987E+08         0.00000E+00
    0.00000E+00         0.00000E+00        -0.30060E+08
 
   -0.30141E+08         0.25168E+05         0.00000E+00
    0.25168E+05        -0.59983E+08         0.00000E+00
    0.00000E+00         0.00000E+00        -0.30072E+08
 
   -0.30125E+08         0.27141E+05         0.00000E+00
    0.27141E+05        -0.59978E+08         0.00000E+00
    0.00000E+00         0.00000E+00        -0.30082E+08
 
   -0.30112E+08         0.28755E+05         0.00000E+00
    0.28755E+05        -0.59974E+08         0.00000E+00
    0.00000E+00         0.00000E+00        -0.30089E+08
 
   -0.30101E+08         0.30054E+05         0.00000E+00
    0.30054E+05        -0.59969E+08         0.00000E+00
    0.00000E+00         0.00000E+00        -0.30094E+08
 
   -0.30093E+08         0.31082E+05         0.00000E+00
    0.31082E+05        -0.59965E+08         0.00000E+00
    0.00000E+00         0.00000E+00        -0.30096E+08
 
   -0.30086E+08         0.31881E+05         0.00000E+00
    0.31881E+05        -0.59960E+08         0.00000E+00
    0.00000E+00         0.00000E+00        -0.30096E+08
 
   -0.30082E+08         0.32488E+05         0.00000E+00
    0.32488E+05        -0.59955E+08         0.00000E+00
    0.00000E+00         0.00000E+00        -0.30094E+08
 
   -0.30080E+08         0.32941E+05         0.00000E+00
    0.32941E+05        -0.59951E+08         0.00000E+00
    0.00000E+00         0.00000E+00        -0.30090E+08
 
   -0.30080E+08         0.33275E+05         0.00000E+00
    0.33275E+05        -0.59946E+08         0.00000E+00
    0.00000E+00         0.00000E+00        -0.30084E+08
 
   -0.30279E+08         0.34608E+04         0.00000E+00
    0.34608E+04        -0.60000E+08         0.00000E+00
    0.00000E+00         0.00000E+00        -0.29958E+08
 
   -0.30249E+08         0.96883E+04         0.00000E+00
    0.96883E+04        -0.59998E+08         0.00000E+00
    0.00000E+00         0.00000E+00        -0.29985E+08
 
   -0.30222E+08         0.15072E+05         0.00000E+00
    0.15072E+05        -0.59996E+08         0.00000E+00
    0.00000E+00         0.00000E+00        -0.30009E+08
 
   -0.30198E+08         0.19676E+05         0.00000E+00
    0.19676E+05        -0.59993E+08         0.00000E+00
    0.00000E+00         0.00000E+00        -0.30029E+08
 
   -0.30176E+08         0.23566E+05         0.00000E+00
    0.23566E+05        -0.59990E+08         0.00000E+00
    0.00000E+00         0.00000E+00        -0.30047E+08
 
   -0.30156E+08         0.26813E+05         0.00000E+00
    0.26813E+05        -0.59986E+08         0.00000E+00
    0.00000E+00         0.00000E+00        -0.30061E+08
 
   -0.30139E+08         0.29486E+05         0.00000E+00
    0.29486E+05        -0.59982E+08         0.00000E+00
    0.00000E+00         0.00000E+00        -0.30073E+08
 
   -0.30124E+08         0.31658E+05         0.00000E+00
    0.31658E+05        -0.59977E+08         0.00000E+00
    0.00000E+00         0.00000E+00        -0.30082E+08
 
   -0.30111E+08         0.33394E+05         0.00000E+00
    0.33394E+05        -0.59973E+08         0.00000E+00
    0.00000E+00         0.00000E+00        -0.30089E+08
 
   -0.30100E+08         0.34749E+05         0.00000E+00
    0.34749E+05        -0.59968E+08         0.00000E+00
    0.00000E+00         0.00000E+00        -0.30093E+08
 
   -0.30092E+08         0.35780E+05         0.00000E+00
    0.35780E+05        -0.59963E+08         0.00000E+00
    0.00000E+00         0.00000E+00        -0.30095E+08
 
   -0.30086E+08         0.36539E+05         0.00000E+00
    0.36539E+05        -0.59959E+08         0.00000E+00
    0.00000E+00         0.00000E+00        -0.30095E+08
 
   -0.30082E+08         0.37075E+05         0.00000E+00
    0.37075E+05        -0.59954E+08         0.00000E+00
    0.00000E+00         0.00000E+00        -0.30093E+08
 
   -0.30080E+08         0.37433E+05         0.00000E+00
    0.37433E+05        -0.59950E+08         0.00000E+00
    0.00000E+00         0.00000E+00        -0.30090E+08
 
   -0.30080E+08         0.37659E+05         0.00000E+00
    0.37659E+05        -0.59946E+08         0.00000E+00
    0.00000E+00         0.00000E+00        -0.30084E+08
 
   -0.30272E+08         0.40881E+04         0.00000E+00
    0.40881E+04        -0.59999E+08         0.00000E+00
    0.00000E+00         0.00000E+00        -0.29965E+08
 
   -0.30243E+08         0.11399E+05         0.00000E+00
    0.11399E+05        -0.59998E+08         0.00000E+00
    0.00000E+00         0.00000E+00        -0.29991E+08
 
   -0.30217E+08         0.17662E+05         0.00000E+00
    0.17662E+05        -0.59996E+08         0.00000E+00
    0.00000E+00         0.00000E+00        -0.30014E+08
 
   -0.30193E+08         0.22964E+05         0.00000E+00
    0.22964E+05        -0.59993E+08         0.00000E+00
    0.00000E+00         0.00000E+00        -0.30033E+08
 
   -0.30172E+08         0.27388E+05         0.00000E+00
    0.27388E+05        -0.59989E+08         0.00000E+00
    0.00000E+00         0.00000E+00        -0.30050E+08
 
   -0.30153E+08         0.31023E+05         0.00000E+00
    0.31023E+05        -0.59985E+08         0.00000E+00
    0.00000E+00         0.00000E+00        -0.30063E+08
 
   -0.30136E+08         0.33960E+05         0.00000E+00
    0.33960E+05        -0.59981E+08         0.00000E+00
    0.00000E+00         0.00000E+00        -0.30074E+08
 
   -0.30122E+08         0.36289E+05         0.00000E+00
    0.36289E+05        -0.59976E+08         0.00000E+00
    0.00000E+00         0.00000E+00        -0.30083E+08
 
   -0.30109E+08         0.38093E+05         0.00000E+00
    0.38093E+05        -0.59971E+08         0.00000E+00
    0.00000E+00         0.00000E+00        -0.30089E+08
 
   -0.30099E+08         0.39444E+05         0.00000E+00
    0.39444E+05        -0.59967E+08         0.00000E+00
    0.00000E+00         0.00000E+00        -0.30093E+08
 
   -0.30091E+08         0.40412E+05         0.00000E+00
    0.40412E+05        -0.59962E+08         0.00000E+00
    0.00000E+00         0.00000E+00        -0.30095E+08
 
   -0.30085E+08         0.41063E+05         0.00000E+00
    0.41063E+05        -0.59958E+08         0.00000E+00
    0.00000E+00         0.00000E+00        -0.30095E+08
 
   -0.30081E+08         0.41455E+05         0.00000E+00
    0.41455E+05        -0.59953E+08         0.00000E+00
    0.00000E+00         0.00000E+00        -0.30093E+08
 
   -0.30080E+08         0.41647E+05         0.00000E+00
    0.41647E+05        -0.59949E+08         0.00000E+00
    0.00000E+00         0.00000E+00        -0.30089E+08
 
   -0.30080E+08         0.41697E+05         0.00000E+00
    0.41697E+05        -0.59945E+08         0.00000E+00
    0.00000E+00         0.00000E+00        -0.30084E+08
 
   -0.30263E+08         0.47659E+04         0.00000E+00
    0.47659E+04        -0.59999E+08         0.00000E+00
    0.00000E+00         0.00000E+00        -0.29973E+08
 
   -0.30236E+08         0.13236E+05         0.00000E+00
    0.13236E+05        -0.59998E+08         0.00000E+00
    0.00000E+00         0.00000E+00        -0.29998E+08
 
   -0.30211E+08         0.20430E+05         0.00000E+00
    0.20430E+05        -0.59996E+08         0.00000E+00
    0.00000E+00         0.00000E+00        -0.30020E+08
 
   -0.30188E+08         0.26452E+05         0.00000E+00
    0.26452E+05        -0.59993E+08         0.00000E+00
    0.00000E+00         0.00000E+00        -0.30038E+08
 
   -0.30168E+08         0.31412E+05         0.00000E+00
    0.31412E+05        -0.59989E+08         0.00000E+00
    0.00000E+00         0.00000E+00        -0.30053E+08
 
   -0.30149E+08         0.35420E+05         0.00000E+00
    0.35420E+05        -0.59984E+08         0.00000E+00
    0.00000E+00         0.00000E+00        -0.30066E+08
 
   -0.30133E+08         0.38587E+05         0.00000E+00
    0.38587E+05        -0.59980E+08         0.00000E+00
    0.00000E+00         0.00000E+00        -0.30076E+08
 
   -0.30119E+08         0.41026E+05         0.00000E+00
    0.41026E+05        -0.59975E+08         0.00000E+00
    0.00000E+00         0.00000E+00        -0.30083E+08
 
   -0.30108E+08         0.42839E+05         0.00000E+00
    0.42839E+05        -0.59970E+08         0.00000E+00
    0.00000E+00         0.00000E+00        -0.30089E+08
 
   -0.30098E+08         0.44120E+05         0.00000E+00
    0.44120E+05        -0.59966E+08         0.00000E+00
    0.00000E+00         0.00000E+00        -0.30092E+08
 
   -0.30090E+08         0.44952E+05         0.00000E+00
    0.44952E+05        -0.59961E+08         0.00000E+00
    0.00000E+00         0.00000E+00        -0.30094E+08
 
   -0.30085E+08         0.45415E+05         0.00000E+00
    0.45415E+05        -0.59957E+08         0.00000E+00
    0.00000E+00         0.00000E+00        -0.30094E+08
 
   -0.30081E+08         0.45582E+05         0.00000E+00
    0.45582E+05        -0.59953E+08         0.00000E+00
    0.00000E+00         0.00000E+00        -0.30092E+08
 
   -0.30080E+08         0.45527E+05         0.00000E+00
    0.45527E+05        -0.59949E+08         0.00000E+00
    0.00000E+00         0.00000E+00        -0.30088E+08
 
   -0.30080E+08         0.45321E+05         0.00000E+00
    0.45321E+05        -0.59945E+08         0.00000E+00
    0.00000E+00         0.00000E+00        -0.30083E+08
 
   -0.30253E+08         0.54924E+04         0.00000E+00
    0.54924E+04        -0.59999E+08         0.00000E+00
    0.00000E+00         0.00000E+00        -0.29983E+08
 
   -0.30227E+08         0.15194E+05         0.00000E+00
    0.15194E+05        -0.59998E+08         0.00000E+00
    0.00000E+00         0.00000E+00        -0.30006E+08
 
   -0.30204E+08         0.23366E+05         0.00000E+00
    0.23366E+05        -0.59996E+08         0.00000E+00
    0.00000E+00         0.00000E+00        -0.30026E+08
 
   -0.30182E+08         0.30133E+05         0.00000E+00
    0.30133E+05        -0.59992E+08         0.00000E+00
    0.00000E+00         0.00000E+00        -0.30043E+08
 
   -0.30163E+08         0.35630E+05         0.00000E+00
    0.35630E+05        -0.59988E+08         0.00000E+00
    0.00000E+00         0.00000E+00        -0.30057E+08
 
   -0.30146E+08         0.39994E+05         0.00000E+00
    0.39994E+05        -0.59984E+08         0.00000E+00
    0.00000E+00         0.00000E+00        -0.30068E+08
 
   -0.30131E+08         0.43358E+05         0.00000E+00
    0.43358E+05        -0.59979E+08         0.00000E+00
    0.00000E+00         0.00000E+00        -0.30077E+08
 
   -0.30117E+08         0.45857E+05         0.00000E+00
    0.45857E+05        -0.59974E+08         0.00000E+00
    0.00000E+00         0.00000E+00        -0.30084E+08
 
   -0.30106E+08         0.47617E+05         0.00000E+00
    0.47617E+05        -0.59969E+08         0.00000E+00
    0.00000E+00         0.00000E+00        -0.30089E+08
 
   -0.30097E+08         0.48754E+05         0.00000E+00
    0.48754E+05        -0.59964E+08         0.00000E+00
    0.00000E+00         0.00000E+00        -0.30092E+08
 
   -0.30090E+08         0.49366E+05         0.00000E+00
    0.49366E+05        -0.59960E+08         0.00000E+00
    0.00000E+00         0.00000E+00        -0.30093E+08
 
   -0.30085E+08         0.49551E+05         0.00000E+00
    0.49551E+05        -0.59956E+08         0.00000E+00
    0.00000E+00         0.00000E+00        -0.30093E+08
 
   -0.30081E+08         0.49402E+05         0.00000E+00
    0.49402E+05        -0.59952E+08         0.00000E+00
    0.00000E+00         0.00000E+00        -0.30091E+08
 
   -0.30080E+08         0.49006E+05         0.00000E+00
    0.49006E+05        -0.59949E+08         0.00000E+00
    0.00000E+00         0.00000E+00        -0.30088E+08
 
   -0.30080E+08         0.48456E+05         0.00000E+00
    0.48456E+05        -0.59946E+08         0.00000E+00
    0.00000E+00         0.00000E+00        -0.30084E+08
 
   -0.30242E+08         0.62619E+04         0.00000E+00
    0.62619E+04        -0.59999E+08         0.00000E+00
    0.00000E+00         0.00000E+00        -0.29994E+08
 
   -0.30218E+08         0.17260E+05         0.00000E+00
    0.17260E+05        -0.59998E+08         0.00000E+00
    0.00000E+00         0.00000E+00        -0.30016E+08
 
   -0.30196E+08         0.26453E+05         0.00000E+00
    0.26453E+05        -0.59995E+08         0.00000E+00
    0.00000E+00         0.00000E+00        -0.30034E+08
 
   -0.30176E+08         0.33988E+05         0.00000E+00
    0.33988E+05        -0.59992E+08         0.00000E+00
    0.00000E+00         0.00000E+00        -0.30049E+08
 
   -0.30158E+08         0.40025E+05         0.00000E+00
    0.40025E+05        -0.59988E+08         0.00000E+00
    0.00000E+00         0.00000E+00        -0.30061E+08
 
   -0.30142E+08         0.44726E+05         0.00000E+00
    0.44726E+05        -0.59983E+08         0.00000E+00
    0.00000E+00         0.00000E+00        -0.30071E+08
 
   -0.30128E+08         0.48254E+05         0.00000E+00
    0.48254E+05        -0.59978E+08         0.00000E+00
    0.00000E+00         0.00000E+00        -0.30079E+08
 
   -0.30115E+08         0.50761E+05         0.00000E+00
    0.50761E+05        -0.59973E+08         0.00000E+00
    0.00000E+00         0.00000E+00        -0.30085E+08
 
   -0.30105E+08         0.52401E+05         0.00000E+00
    0.52401E+05        -0.59968E+08         0.00000E+00
    0.00000E+00         0.00000E+00        -0.30089E+08
 
   -0.30096E+08         0.53309E+05         0.00000E+00
    0.53309E+05        -0.59964E+08         0.00000E+00
    0.00000E+00         0.00000E+00        -0.30091E+08
 
   -0.30090E+08         0.53611E+05         0.00000E+00
    0.53611E+05        -0.59959E+08         0.00000E+00
    0.00000E+00         0.00000E+00        -0.30092E+08
 
   -0.30085E+08         0.53420E+05         0.00000E+00
    0.53420E+05        -0.59955E+08         0.00000E+00
    0.00000E+00         0.00000E+00        -0.30092E+08
 
   -0.30082E+08         0.52849E+05         0.00000E+00
    0.52849E+05        -0.59952E+08         0.00000E+00
    0.00000E+00         0.00000E+00        -0.30091E+08
 
   -0.30081E+08         0.52010E+05         0.00000E+00
    0.52010E+05        -0.59949E+08         0.00000E+00
    0.00000E+00         0.00000E+00        -0.30088E+08
 
   -0.30081E+08         0.51016E+05         0.00000E+00
    0.51016E+05        -0.59946E+08         0.00000E+00
    0.00000E+00         0.00000E+00        -0.30084E+08
 
   -0.30229E+08         0.70652E+04         0.00000E+00
    0.70652E+04        -0.59999E+08         0.00000E+00
    0.00000E+00         0.00000E+00        -0.30006E+08
 
   -0.30207E+08         0.19412E+05         0.00000E+00
    0.19412E+05        -0.59998E+08         0.00000E+00
    0.00000E+00         0.00000E+00        -0.30026E+08
 
   -0.30187E+08         0.29661E+05         0.00000E+00
    0.29661E+05        -0.59995E+08         0.00000E+00
    0.00000E+00         0.00000E+00        -0.30042E+08
 
   -0.30169E+08         0.37986E+05         0.00000E+00
    0.37986E+05        -0.59992E+08         0.00000E+00
    0.00000E+00         0.00000E+00        -0.30056E+08
 
   -0.30152E+08         0.44566E+05         0.00000E+00
    0.44566E+05        -0.59987E+08         0.00000E+00
    0.00000E+00         0.00000E+00        -0.30066E+08
 
   -0.30138E+08         0.49590E+05         0.00000E+00
    0.49590E+05        -0.59982E+08         0.00000E+00
    0.00000E+00         0.00000E+00        -0.30075E+08
 
   -0.30125E+08         0.53245E+05         0.00000E+00
    0.53245E+05        -0.59977E+08         0.00000E+00
    0.00000E+00         0.00000E+00        -0.30081E+08
 
   -0.30113E+08         0.55711E+05         0.00000E+00
    0.55711E+05        -0.59972E+08         0.00000E+00
    0.00000E+00         0.00000E+00        -0.30086E+08
 
   -0.30104E+08         0.57156E+05         0.00000E+00
    0.57156E+05        -0.59968E+08         0.00000E+00
    0.00000E+00         0.00000E+00        -0.30089E+08
 
   -0.30096E+08         0.57748E+05         0.00000E+00
    0.57748E+05        -0.59963E+08         0.00000E+00
    0.00000E+00         0.00000E+00        -0.30091E+08
 
   -0.30090E+08         0.57635E+05         0.00000E+00
    0.57635E+05        -0.59959E+08         0.00000E+00
    0.00000E+00         0.00000E+00        -0.30092E+08
 
   -0.30085E+08         0.56957E+05         0.00000E+00
    0.56957E+05        -0.59955E+08         0.00000E+00
    0.00000E+00         0.00000E+00        -0.30091E+08
 
   -0.30083E+08         0.55851E+05         0.00000E+00
    0.55851E+05        -0.59952E+08         0.00000E+00
    0.00000E+00         0.00000E+00        -0.30090E+08
 
   -0.30082E+08         0.54455E+05         0.00000E+00
    0.54455E+05        -0.59950E+08         0.00000E+00
    0.00000E+00         0.00000E+00        -0.30088E+08
 
   -0.30082E+08         0.52908E+05         0.00000E+00
    0.52908E+05        -0.59948E+08         0.00000E+00
    0.00000E+00         0.00000E+00        -0.30085E+08
 
   -0.30215E+08         0.78889E+04         0.00000E+00
    0.78889E+04        -0.59999E+08         0.00000E+00
    0.00000E+00         0.00000E+00        -0.30020E+08
 
   -0.30195E+08         0.21616E+05         0.00000E+00
    0.21616E+05        -0.59998E+08         0.00000E+00
    0.00000E+00         0.00000E+00        -0.30038E+08
 
   -0.30177E+08         0.32950E+05         0.00000E+00
    0.32950E+05        -0.59995E+08         0.00000E+00
    0.00000E+00         0.00000E+00        -0.30052E+08
 
   -0.30161E+08         0.42081E+05         0.00000E+00
    0.42081E+05        -0.59991E+08         0.00000E+00
    0.00000E+00         0.00000E+00        -0.30063E+08
 
   -0.30146E+08         0.49211E+05         0.00000E+00
    0.49211E+05        -0.59987E+08         0.00000E+00
    0.00000E+00         0.00000E+00        -0.30072E+08
 
   -0.30133E+08         0.54546E+05         0.00000E+00
    0.54546E+05        -0.59982E+08         0.00000E+00
    0.00000E+00         0.00000E+00        -0.30079E+08
 
   -0.30121E+08         0.58296E+05         0.00000E+00
    0.58296E+05        -0.59977E+08         0.00000E+00
    0.00000E+00         0.00000E+00        -0.30084E+08
 
   -0.30111E+08         0.60662E+05         0.00000E+00
    0.60662E+05        -0.59972E+08         0.00000E+00
    0.00000E+00         0.00000E+00        -0.30088E+08
 
   -0.30103E+08         0.61840E+05         0.00000E+00
    0.61840E+05        -0.59967E+08         0.00000E+00
    0.00000E+00         0.00000E+00        -0.30090E+08
 
   -0.30096E+08         0.62017E+05         0.00000E+00
    0.62017E+05        -0.59963E+08         0.00000E+00
    0.00000E+00         0.00000E+00        -0.30091E+08
 
   -0.30090E+08         0.61375E+05         0.00000E+00
    0.61375E+05        -0.59959E+08         0.00000E+00
    0.00000E+00         0.00000E+00        -0.30091E+08
 
   -0.30087E+08         0.60088E+05         0.00000E+00
    0.60088E+05        -0.59956E+08         0.00000E+00
    0.00000E+00         0.00000E+00        -0.30091E+08
 
   -0.30084E+08         0.58322E+05         0.00000E+00
    0.58322E+05        -0.59953E+08         0.00000E+00
    0.00000E+00         0.00000E+00        -0.30090E+08
 
   -0.30084E+08         0.56247E+05         0.00000E+00
    0.56247E+05        -0.59952E+08         0.00000E+00
    0.00000E+00         0.00000E+00        -0.30088E+08
 
   -0.30084E+08         0.54031E+05         0.00000E+00
    0.54031E+05        -0.59951E+08         0.00000E+00
    0.00000E+00         0.00000E+00        -0.30086E+08
 
   -0.30199E+08         0.87155E+04         0.00000E+00
    0.87155E+04        -0.59999E+08         0.00000E+00
    0.00000E+00         0.00000E+00        -0.30036E+08
 
   -0.30182E+08         0.23832E+05         0.00000E+00
    0.23832E+05        -0.59998E+08         0.00000E+00
    0.00000E+00         0.00000E+00        -0.30051E+08
 
   -0.30167E+08         0.36266E+05         0.00000E+00
    0.36266E+05        -0.59995E+08         0.00000E+00
    0.00000E+00         0.00000E+00        -0.30063E+08
 
   -0.30153E+08         0.46220E+05         0.00000E+00
    0.46220E+05        -0.59991E+08         0.00000E+00
    0.00000E+00         0.00000E+00        -0.30072E+08
 
   -0.30140E+08         0.53905E+05         0.00000E+00
    0.53905E+05        -0.59987E+08         0.00000E+00
    0.00000E+00         0.00000E+00        -0.30079E+08
 
   -0.30129E+08         0.59542E+05         0.00000E+00
    0.59542E+05        -0.59982E+08         0.00000E+00
    0.00000E+00         0.00000E+00        -0.30084E+08
 
   -0.30118E+08         0.63354E+05         0.00000E+00
    0.63354E+05        -0.59977E+08         0.00000E+00
    0.00000E+00         0.00000E+00        -0.30087E+08
 
   -0.30110E+08         0.65563E+05         0.00000E+00
    0.65563E+05        -0.59972E+08         0.00000E+00
    0.00000E+00         0.00000E+00        -0.30089E+08
 
   -0.30102E+08         0.66388E+05         0.00000E+00
    0.66388E+05        -0.59967E+08         0.00000E+00
    0.00000E+00         0.00000E+00        -0.30091E+08
 
   -0.30096E+08         0.66046E+05         0.00000E+00
    0.66046E+05        -0.59963E+08         0.00000E+00
    0.00000E+00         0.00000E+00        -0.30091E+08
 
   -0.30092E+08         0.64754E+05         0.00000E+00
    0.64754E+05        -0.59960E+08         0.00000E+00
    0.00000E+00         0.00000E+00        -0.30091E+08
 
   -0.30088E+08         0.62723E+05         0.00000E+00
    0.62723E+05        -0.59957E+08         0.00000E+00
    0.00000E+00         0.00000E+00        -0.30091E+08
 
   -0.30087E+08         0.60165E+05         0.00000E+00
    0.60165E+05        -0.59955E+08         0.00000E+00
    0.00000E+00         0.00000E+00        -0.30090E+08
 
   -0.30086E+08         0.57285E+05         0.00000E+00
    0.57285E+05        -0.59954E+08         0.00000E+00
    0.00000E+00         0.00000E+00        -0.30089E+08
 
   -0.30087E+08         0.54279E+05         0.00000E+00
    0.54279E+05        -0.59954E+08         0.00000E+00
    0.00000E+00         0.00000E+00        -0.30088E+08
 
   -0.30182E+08         0.95246E+04         0.00000E+00
    0.95246E+04        -0.59999E+08         0.00000E+00
    0.00000E+00         0.00000E+00        -0.30053E+08
 
   -0.30168E+08         0.26011E+05         0.00000E+00
    0.26011E+05        -0.59998E+08         0.00000E+00
    0.00000E+00         0.00000E+00        -0.30065E+08
 
   -0.30155E+08         0.39545E+05         0.00000E+00
    0.39545E+05        -0.59995E+08         0.00000E+00
    0.00000E+00         0.00000E+00        -0.30074E+08
 
   -0.30143E+08         0.50331E+05         0.00000E+00
    0.50331E+05        -0.59992E+08         0.00000E+00
    0.00000E+00         0.00000E+00        -0.30081E+08
 
   -0.30133E+08         0.58579E+05         0.00000E+00
    0.58579E+05        -0.59987E+08         0.00000E+00
    0.00000E+00         0.00000E+00        -0.30086E+08
 
   -0.30124E+08         0.64510E+05         0.00000E+00
    0.64510E+05        -0.59982E+08         0.00000E+00
    0.00000E+00         0.00000E+00        -0.30089E+08
 
   -0.30116E+08         0.68353E+05         0.00000E+00
    0.68353E+05        -0.59978E+08         0.00000E+00
    0.00000E+00         0.00000E+00        -0.30091E+08
 
   -0.30108E+08         0.70343E+05         0.00000E+00
    0.70343E+05        -0.59973E+08         0.00000E+00
    0.00000E+00         0.00000E+00        -0.30091E+08
 
   -0.30102E+08         0.70725E+05         0.00000E+00
    0.70725E+05        -0.59968E+08         0.00000E+00
    0.00000E+00         0.00000E+00        -0.30092E+08
 
   -0.30098E+08         0.69749E+05         0.00000E+00
    0.69749E+05        -0.59964E+08         0.00000E+00
    0.00000E+00         0.00000E+00        -0.30091E+08
 
   -0.30094E+08         0.67674E+05         0.00000E+00
    0.67674E+05        -0.59961E+08         0.00000E+00
    0.00000E+00         0.00000E+00        -0.30091E+08
 
   -0.30091E+08         0.64765E+05         0.00000E+00
    0.64765E+05        -0.59959E+08         0.00000E+00
    0.00000E+00         0.00000E+00        -0.30091E+08
 
   -0.30090E+08         0.61277E+05         0.00000E+00
    0.61277E+05        -0.59958E+08         0.00000E+00
    0.00000E+00         0.00000E+00        -0.30091E+08
 
   -0.30089E+08         0.57464E+05         0.00000E+00
    0.57464E+05        -0.59958E+08         0.00000E+00
    0.00000E+00         0.00000E+00        -0.30091E+08
 
   -0.30090E+08         0.53554E+05         0.00000E+00
    0.53554E+05        -0.59959E+08         0.00000E+00
    0.00000E+00         0.00000E+00        -0.30091E+08
 
   -0.30163E+08         0.10294E+05         0.00000E+00
    0.10294E+05        -0.60000E+08         0.00000E+00
    0.00000E+00         0.00000E+00        -0.30072E+08
 
   -0.30152E+08         0.28098E+05         0.00000E+00
    0.28098E+05        -0.59998E+08         0.00000E+00
    0.00000E+00         0.00000E+00        -0.30081E+08
 
   -0.30142E+08         0.42714E+05         0.00000E+00
    0.42714E+05        -0.59996E+08         0.00000E+00
    0.00000E+00         0.00000E+00        -0.30087E+08
 
   -0.30134E+08         0.54332E+05         0.00000E+00
    0.54332E+05        -0.59992E+08         0.00000E+00
    0.00000E+00         0.00000E+00        -0.30092E+08
 
   -0.30126E+08         0.63147E+05         0.00000E+00
    0.63147E+05        -0.59988E+08         0.00000E+00
    0.00000E+00         0.00000E+00        -0.30094E+08
 
   -0.30119E+08         0.69363E+05         0.00000E+00
    0.69363E+05        -0.59983E+08         0.00000E+00
    0.00000E+00         0.00000E+00        -0.30095E+08
 
   -0.30113E+08         0.73203E+05         0.00000E+00
    0.73203E+05        -0.59978E+08         0.00000E+00
    0.00000E+00         0.00000E+00        -0.30095E+08
 
   -0.30107E+08         0.74909E+05         0.00000E+00
    0.74909E+05        -0.59974E+08         0.00000E+00
    0.00000E+00         0.00000E+00        -0.30094E+08
 
   -0.30103E+08         0.74748E+05         0.00000E+00
    0.74748E+05        -0.59970E+08         0.00000E+00
    0.00000E+00         0.00000E+00        -0.30093E+08
 
   -0.30099E+08         0.73015E+05         0.00000E+00
    0.73015E+05        -0.59966E+08         0.00000E+00
    0.00000E+00         0.00000E+00        -0.30092E+08
 
   -0.30097E+08         0.70022E+05         0.00000E+00
    0.70022E+05        -0.59964E+08         0.00000E+00
    0.00000E+00         0.00000E+00        -0.30091E+08
 
   -0.30095E+08         0.66093E+05         0.00000E+00
    0.66093E+05        -0.59962E+08         0.00000E+00
    0.00000E+00         0.00000E+00        -0.30091E+08
 
   -0.30094E+08         0.61552E+05         0.00000E+00
    0.61552E+05        -0.59962E+08         0.00000E+00
    0.00000E+00         0.00000E+00        -0.30092E+08
 
   -0.30094E+08         0.56688E+05         0.00000E+00
    0.56688E+05        -0.59963E+08         0.00000E+00
    0.00000E+00         0.00000E+00        -0.30093E+08
 
   -0.30095E+08         0.51769E+05         0.00000E+00
    0.51769E+05        -0.59965E+08         0.00000E+00
    0.00000E+00         0.00000E+00        -0.30094E+08
 
   -0.30143E+08         0.11004E+05         0.00000E+00
    0.11004E+05        -0.60000E+08         0.00000E+00
    0.00000E+00         0.00000E+00        -0.30092E+08
 
   -0.30135E+08         0.30041E+05         0.00000E+00
    0.30041E+05        -0.59998E+08         0.00000E+00
    0.00000E+00         0.00000E+00        -0.30098E+08
 
   -0.30129E+08         0.45697E+05         0.00000E+00
    0.45697E+05        -0.59996E+08         0.00000E+00
    0.00000E+00         0.00000E+00        -0.30101E+08
 
   -0.30123E+08         0.58129E+05         0.00000E+00
    0.58129E+05        -0.59993E+08         0.00000E+00
    0.00000E+00         0.00000E+00        -0.30103E+08
 
   -0.30118E+08         0.67501E+05         0.00000E+00
    0.67501E+05        -0.59989E+08         0.00000E+00
    0.00000E+00         0.00000E+00        -0.30103E+08
 
   -0.30114E+08         0.73986E+05         0.00000E+00
    0.73986E+05        -0.59984E+08         0.00000E+00
    0.00000E+00         0.00000E+00        -0.30101E+08
 
   -0.30110E+08         0.77782E+05         0.00000E+00
    0.77782E+05        -0.59980E+08         0.00000E+00
    0.00000E+00         0.00000E+00        -0.30099E+08
 
   -0.30107E+08         0.79130E+05         0.00000E+00
    0.79130E+05        -0.59976E+08         0.00000E+00
    0.00000E+00         0.00000E+00        -0.30097E+08
 
   -0.30104E+08         0.78324E+05         0.00000E+00
    0.78324E+05        -0.59972E+08         0.00000E+00
    0.00000E+00         0.00000E+00        -0.30095E+08
 
   -0.30102E+08         0.75707E+05         0.00000E+00
    0.75707E+05        -0.59969E+08         0.00000E+00
    0.00000E+00         0.00000E+00        -0.30093E+08
 
   -0.30101E+08         0.71663E+05         0.00000E+00
    0.71663E+05        -0.59967E+08         0.00000E+00
    0.00000E+00         0.00000E+00        -0.30092E+08
 
   -0.30100E+08         0.66594E+05         0.00000E+00
    0.66594E+05        -0.59967E+08         0.00000E+00
    0.00000E+00         0.00000E+00        -0.30092E+08
 
   -0.30099E+08         0.60885E+05         0.00000E+00
    0.60885E+05        -0.59967E+08         0.00000E+00
    0.00000E+00         0.00000E+00        -0.30093E+08
 
   -0.30099E+08         0.54885E+05         0.00000E+00
    0.54885E+05        -0.59969E+08         0.00000E+00
    0.00000E+00         0.00000E+00        -0.30096E+08
 
   -0.30100E+08         0.48866E+05         0.00000E+00
    0.48866E+05        -0.59972E+08         0.00000E+00
    0.00000E+00         0.00000E+00        -0.30099E+08
 
   -0.30122E+08         0.11637E+05         0.00000E+00
    0.11637E+05        -0.60000E+08         0.00000E+00
    0.00000E+00         0.00000E+00        -0.30113E+08
 
   -0.30117E+08         0.31793E+05         0.00000E+00
    0.31793E+05        -0.59999E+08         0.00000E+00
    0.00000E+00         0.00000E+00        -0.30116E+08
 
   -0.30114E+08         0.48414E+05         0.00000E+00
    0.48414E+05        -0.59996E+08         0.00000E+00
    0.00000E+00         0.00000E+00        -0.30117E+08
 
   -0.30112E+08         0.61615E+05         0.00000E+00
    0.61615E+05        -0.59993E+08         0.00000E+00
    0.00000E+00         0.00000E+00        -0.30115E+08
 
   -0.30110E+08         0.71511E+05         0.00000E+00
    0.71511E+05        -0.59990E+08         0.00000E+00
    0.00000E+00         0.00000E+00        -0.30113E+08
 
   -0.30109E+08         0.78228E+05         0.00000E+00
    0.78228E+05        -0.59986E+08         0.00000E+00
    0.00000E+00         0.00000E+00        -0.30109E+08
 
   -0.30108E+08         0.81925E+05         0.00000E+00
    0.81925E+05        -0.59982E+08         0.00000E+00
    0.00000E+00         0.00000E+00        -0.30105E+08
 
   -0.30107E+08         0.82835E+05         0.00000E+00
    0.82835E+05        -0.59978E+08         0.00000E+00
    0.00000E+00         0.00000E+00        -0.30100E+08
 
   -0.30107E+08         0.81276E+05         0.00000E+00
    0.81276E+05        -0.59975E+08         0.00000E+00
    0.00000E+00         0.00000E+00        -0.30097E+08
 
   -0.30106E+08         0.77659E+05         0.00000E+00
    0.77659E+05        -0.59973E+08         0.00000E+00
    0.00000E+00         0.00000E+00        -0.30095E+08
 
   -0.30106E+08         0.72453E+05         0.00000E+00
    0.72453E+05        -0.59972E+08         0.00000E+00
    0.00000E+00         0.00000E+00        -0.30094E+08
 
   -0.30106E+08         0.66148E+05         0.00000E+00
    0.66148E+05        -0.59973E+08         0.00000E+00
    0.00000E+00         0.00000E+00        -0.30094E+08
 
   -0.30106E+08         0.59201E+05         0.00000E+00
    0.59201E+05        -0.59974E+08         0.00000E+00
    0.00000E+00         0.00000E+00        -0.30096E+08
 
   -0.30106E+08         0.52000E+05         0.00000E+00
    0.52000E+05        -0.59977E+08         0.00000E+00
    0.00000E+00         0.00000E+00        -0.30100E+08
 
   -0.30107E+08         0.44829E+05         0.00000E+00
    0.44829E+05        -0.59981E+08         0.00000E+00
    0.00000E+00         0.00000E+00        -0.30104E+08
 
   -0.30099E+08         0.12187E+05         0.00000E+00
    0.12187E+05        -0.60000E+08         0.00000E+00
    0.00000E+00         0.00000E+00        -0.30136E+08
 
   -0.30099E+08         0.33314E+05         0.00000E+00
    0.33314E+05        -0.59999E+08         0.00000E+00
    0.00000E+00         0.00000E+00        -0.30135E+08
 
   -0.30099E+08         0.50788E+05         0.00000E+00
    0.50788E+05        -0.59997E+08         0.00000E+00
    0.00000E+00         0.00000E+00        -0.30133E+08
 
   -0.30100E+08         0.64671E+05         0.00000E+00
    0.64671E+05        -0.59994E+08         0.00000E+00
    0.00000E+00         0.00000E+00        -0.30128E+08
 
   -0.30101E+08         0.75016E+05         0.00000E+00
    0.75016E+05        -0.59991E+08         0.00000E+00
    0.00000E+00         0.00000E+00        -0.30123E+08
 
   -0.30103E+08         0.81891E+05         0.00000E+00
    0.81891E+05        -0.59988E+08         0.00000E+00
    0.00000E+00         0.00000E+00        -0.30117E+08
 
   -0.30105E+08         0.85409E+05         0.00000E+00
    0.85409E+05        -0.59985E+08         0.00000E+00
    0.00000E+00         0.00000E+00        -0.30111E+08
 
   -0.30108E+08         0.85788E+05         0.00000E+00
    0.85788E+05        -0.59982E+08         0.00000E+00
    0.00000E+00         0.00000E+00        -0.30105E+08
 
   -0.30110E+08         0.83383E+05         0.00000E+00
    0.83383E+05        -0.59980E+08         0.00000E+00
    0.00000E+00         0.00000E+00        -0.30100E+08
 
   -0.30111E+08         0.78680E+05         0.00000E+00
    0.78680E+05        -0.59979E+08         0.00000E+00
    0.00000E+00         0.00000E+00        -0.30097E+08
 
   -0.30112E+08         0.72247E+05         0.00000E+00
    0.72247E+05        -0.59979E+08         0.00000E+00
    0.00000E+00         0.00000E+00        -0.30096E+08
 
   -0.30113E+08         0.64664E+05         0.00000E+00
    0.64664E+05        -0.59981E+08         0.00000E+00
    0.00000E+00         0.00000E+00        -0.30097E+08
 
   -0.30113E+08         0.56456E+05         0.00000E+00
    0.56456E+05        -0.59983E+08         0.00000E+00
    0.00000E+00         0.00000E+00        -0.30100E+08
 
   -0.30114E+08         0.48038E+05         0.00000E+00
    0.48038E+05        -0.59987E+08         0.00000E+00
    0.00000E+00         0.00000E+00        -0.30105E+08
 
   -0.30114E+08         0.39698E+05         0.00000E+00
    0.39698E+05        -0.59992E+08         0.00000E+00
    0.00000E+00         0.00000E+00        -0.30111E+08
 
   -0.30076E+08         0.12656E+05         0.00000E+00
    0.12656E+05        -0.60000E+08         0.00000E+00
    0.00000E+00         0.00000E+00        -0.30160E+08
 
   -0.30079E+08         0.34579E+05         0.00000E+00
    0.34579E+05        -0.59999E+08         0.00000E+00
    0.00000E+00         0.00000E+00        -0.30155E+08
 
   -0.30083E+08         0.52745E+05         0.00000E+00
    0.52745E+05        -0.59998E+08         0.00000E+00
    0.00000E+00         0.00000E+00        -0.30149E+08
 
   -0.30088E+08         0.67166E+05         0.00000E+00
    0.67166E+05        -0.59996E+08         0.00000E+00
    0.00000E+00         0.00000E+00        -0.30142E+08
 
   -0.30093E+08         0.77820E+05         0.00000E+00
    0.77820E+05        -0.59993E+08         0.00000E+00
    0.00000E+00         0.00000E+00        -0.30134E+08
 
   -0.30098E+08         0.84715E+05         0.00000E+00
    0.84715E+05        -0.59991E+08         0.00000E+00
    0.00000E+00         0.00000E+00        -0.30126E+08
 
   -0.30104E+08         0.87929E+05         0.00000E+00
    0.87929E+05        -0.59989E+08         0.00000E+00
    0.00000E+00         0.00000E+00        -0.30117E+08
 
   -0.30109E+08         0.87682E+05         0.00000E+00
    0.87682E+05        -0.59987E+08         0.00000E+00
    0.00000E+00         0.00000E+00        -0.30110E+08
 
   -0.30114E+08         0.84373E+05         0.00000E+00
    0.84373E+05        -0.59986E+08         0.00000E+00
    0.00000E+00         0.00000E+00        -0.30104E+08
 
   -0.30117E+08         0.78566E+05         0.00000E+00
    0.78566E+05        -0.59987E+08         0.00000E+00
    0.00000E+00         0.00000E+00        -0.30101E+08
 
   -0.30120E+08         0.70919E+05         0.00000E+00
    0.70919E+05        -0.59988E+08         0.00000E+00
    0.00000E+00         0.00000E+00        -0.30100E+08
 
   -0.30122E+08         0.62093E+05         0.00000E+00
    0.62093E+05        -0.59991E+08         0.00000E+00
    0.00000E+00         0.00000E+00        -0.30101E+08
 
   -0.30122E+08         0.52661E+05         0.00000E+00
    0.52661E+05        -0.59994E+08         0.00000E+00
    0.00000E+00         0.00000E+00        -0.30106E+08
 
   -0.30123E+08         0.43063E+05         0.00000E+00
    0.43063E+05        -0.59999E+08         0.00000E+00
    0.00000E+00         0.00000E+00        -0.30112E+08
 
   -0.30123E+08         0.33574E+05         0.00000E+00
    0.33574E+05        -0.60005E+08         0.00000E+00
    0.00000E+00         0.00000E+00        -0.30119E+08
 
   -0.30052E+08         0.13030E+05         0.00000E+00
    0.13030E+05        -0.60000E+08         0.00000E+00
    0.00000E+00         0.00000E+00        -0.30184E+08
 
   -0.30059E+08         0.35578E+05         0.00000E+00
    0.35578E+05        -0.59999E+08         0.00000E+00
    0.00000E+00         0.00000E+00        -0.30176E+08
 
   -0.30066E+08         0.54235E+05         0.00000E+00
    0.54235E+05        -0.59998E+08         0.00000E+00
    0.00000E+00         0.00000E+00        -0.30167E+08
 
   -0.30075E+08         0.68953E+05         0.00000E+00
    0.68953E+05        -0.59997E+08         0.00000E+00
    0.00000E+00         0.00000E+00        -0.30157E+08
 
   -0.30084E+08         0.79679E+05         0.00000E+00
    0.79679E+05        -0.59995E+08         0.00000E+00
    0.00000E+00         0.00000E+00        -0.30146E+08
 
   -0.30093E+08         0.86361E+05         0.00000E+00
    0.86361E+05        -0.59994E+08         0.00000E+00
    0.00000E+00         0.00000E+00        -0.30135E+08
 
   -0.30102E+08         0.89089E+05         0.00000E+00
    0.89089E+05        -0.59994E+08         0.00000E+00
    0.00000E+00         0.00000E+00        -0.30125E+08
 
   -0.30111E+08         0.88127E+05         0.00000E+00
    0.88127E+05        -0.59994E+08         0.00000E+00
    0.00000E+00         0.00000E+00        -0.30117E+08
 
   -0.30119E+08         0.83933E+05         0.00000E+00
    0.83933E+05        -0.59995E+08         0.00000E+00
    0.00000E+00         0.00000E+00        -0.30110E+08
 
   -0.30125E+08         0.77122E+05         0.00000E+00
    0.77122E+05        -0.59996E+08         0.00000E+00
    0.00000E+00         0.00000E+00        -0.30106E+08
 
   -0.30129E+08         0.68396E+05         0.00000E+00
    0.68396E+05        -0.59999E+08         0.00000E+00
    0.00000E+00         0.00000E+00        -0.30105E+08
 
   -0.30131E+08         0.58455E+05         0.00000E+00
    0.58455E+05        -0.60003E+08         0.00000E+00
    0.00000E+00         0.00000E+00        -0.30108E+08
 
   -0.30133E+08         0.47909E+05         0.00000E+00
    0.47909E+05        -0.60007E+08         0.00000E+00
    0.00000E+00         0.00000E+00        -0.30113E+08
 
   -0.30133E+08         0.37210E+05         0.00000E+00
    0.37210E+05        -0.60013E+08         0.00000E+00
    0.00000E+00         0.00000E+00        -0.30120E+08
 
   -0.30133E+08         0.26625E+05         0.00000E+00
    0.26625E+05        -0.60020E+08         0.00000E+00
    0.00000E+00         0.00000E+00        -0.30128E+08
 
   -0.30027E+08         0.13312E+05         0.00000E+00
    0.13312E+05        -0.60000E+08         0.00000E+00
    0.00000E+00         0.00000E+00        -0.30209E+08
 
   -0.30038E+08         0.36268E+05         0.00000E+00
    0.36268E+05        -0.60000E+08         0.00000E+00
    0.00000E+00         0.00000E+00        -0.30198E+08
 
   -0.30050E+08         0.55173E+05         0.00000E+00
    0.55173E+05        -0.59999E+08         0.00000E+00
    0.00000E+00         0.00000E+00        -0.30185E+08
 
   -0.30062E+08         0.69884E+05         0.00000E+00
    0.69884E+05        -0.59998E+08         0.00000E+00
    0.00000E+00         0.00000E+00        -0.30172E+08
 
   -0.30075E+08         0.80286E+05         0.00000E+00
    0.80286E+05        -0.59998E+08         0.00000E+00
    0.00000E+00         0.00000E+00        -0.30158E+08
 
   -0.30089E+08         0.86400E+05         0.00000E+00
    0.86400E+05        -0.59999E+08         0.00000E+00
    0.00000E+00         0.00000E+00        -0.30146E+08
 
   -0.30102E+08         0.88397E+05         0.00000E+00
    0.88397E+05        -0.60000E+08         0.00000E+00
    0.00000E+00         0.00000E+00        -0.30134E+08
 
   -0.30114E+08         0.86669E+05         0.00000E+00
    0.86669E+05        -0.60002E+08         0.00000E+00
    0.00000E+00         0.00000E+00        -0.30125E+08
 
   -0.30125E+08         0.81736E+05         0.00000E+00
    0.81736E+05        -0.60005E+08         0.00000E+00
    0.00000E+00         0.00000E+00        -0.30118E+08
 
   -0.30133E+08         0.74189E+05         0.00000E+00
    0.74189E+05        -0.60009E+08         0.00000E+00
    0.00000E+00         0.00000E+00        -0.30114E+08
 
   -0.30139E+08         0.64672E+05         0.00000E+00
    0.64672E+05        -0.60013E+08         0.00000E+00
    0.00000E+00         0.00000E+00        -0.30114E+08
 
   -0.30142E+08         0.53859E+05         0.00000E+00
    0.53859E+05        -0.60017E+08         0.00000E+00
    0.00000E+00         0.00000E+00        -0.30116E+08
 
   -0.30144E+08         0.42372E+05         0.00000E+00
    0.42372E+05        -0.60023E+08         0.00000E+00
    0.00000E+00         0.00000E+00        -0.30122E+08
 
   -0.30144E+08         0.30692E+05         0.00000E+00
    0.30692E+05        -0.60029E+08         0.00000E+00
    0.00000E+00         0.00000E+00        -0.30130E+08
 
   -0.30144E+08         0.19096E+05         0.00000E+00
    0.19096E+05        -0.60036E+08         0.00000E+00
    0.00000E+00         0.00000E+00        -0.30139E+08
 
   -0.30002E+08         0.13504E+05         0.00000E+00
    0.13504E+05        -0.60000E+08         0.00000E+00
    0.00000E+00         0.00000E+00        -0.30235E+08
 
   -0.30017E+08         0.36617E+05         0.00000E+00
    0.36617E+05        -0.60000E+08         0.00000E+00
    0.00000E+00         0.00000E+00        -0.30219E+08
 
   -0.30033E+08         0.55427E+05         0.00000E+00
    0.55427E+05        -0.60000E+08         0.00000E+00
    0.00000E+00         0.00000E+00        -0.30203E+08
 
   -0.30050E+08         0.69683E+05         0.00000E+00
    0.69683E+05        -0.60000E+08         0.00000E+00
    0.00000E+00         0.00000E+00        -0.30187E+08
 
   -0.30067E+08         0.79260E+05         0.00000E+00
    0.79260E+05        -0.60002E+08         0.00000E+00
    0.00000E+00         0.00000E+00        -0.30171E+08
 
   -0.30085E+08         0.84310E+05         0.00000E+00
    0.84310E+05        -0.60004E+08         0.00000E+00
    0.00000E+00         0.00000E+00        -0.30157E+08
 
   -0.30102E+08         0.85314E+05         0.00000E+00
    0.85314E+05        -0.60008E+08         0.00000E+00
    0.00000E+00         0.00000E+00        -0.30145E+08
 
   -0.30118E+08         0.82855E+05         0.00000E+00
    0.82855E+05        -0.60013E+08         0.00000E+00
    0.00000E+00         0.00000E+00        -0.30135E+08
 
   -0.30131E+08         0.77485E+05         0.00000E+00
    0.77485E+05        -0.60018E+08         0.00000E+00
    0.00000E+00         0.00000E+00        -0.30129E+08
 
   -0.30142E+08         0.69658E+05         0.00000E+00
    0.69658E+05        -0.60024E+08         0.00000E+00
    0.00000E+00         0.00000E+00        -0.30125E+08
 
   -0.30149E+08         0.59818E+05         0.00000E+00
    0.59818E+05        -0.60029E+08         0.00000E+00
    0.00000E+00         0.00000E+00        -0.30125E+08
 
   -0.30154E+08         0.48499E+05         0.00000E+00
    0.48499E+05        -0.60035E+08         0.00000E+00
    0.00000E+00         0.00000E+00        -0.30127E+08
 
   -0.30156E+08         0.36312E+05         0.00000E+00
    0.36312E+05        -0.60040E+08         0.00000E+00
    0.00000E+00         0.00000E+00        -0.30133E+08
 
   -0.30156E+08         0.23800E+05         0.00000E+00
    0.23800E+05        -0.60047E+08         0.00000E+00
    0.00000E+00         0.00000E+00        -0.30141E+08
 
   -0.30156E+08         0.11293E+05         0.00000E+00
    0.11293E+05        -0.60054E+08         0.00000E+00
    0.00000E+00         0.00000E+00        -0.30151E+08
 
   -0.29977E+08         0.13606E+05         0.00000E+00
    0.13606E+05        -0.60000E+08         0.00000E+00
    0.00000E+00         0.00000E+00        -0.30260E+08
 
   -0.29996E+08         0.36560E+05         0.00000E+00
    0.36560E+05        -0.60000E+08         0.00000E+00
    0.00000E+00         0.00000E+00        -0.30241E+08
 
   -0.30017E+08         0.54783E+05         0.00000E+00
    0.54783E+05        -0.60001E+08         0.00000E+00
    0.00000E+00         0.00000E+00        -0.30221E+08
 
   -0.30038E+08         0.67923E+05         0.00000E+00
    0.67923E+05        -0.60003E+08         0.00000E+00
    0.00000E+00         0.00000E+00        -0.30201E+08
 
   -0.30061E+08         0.75992E+05         0.00000E+00
    0.75992E+05        -0.60007E+08         0.00000E+00
    0.00000E+00         0.00000E+00        -0.30184E+08
 
   -0.30083E+08         0.79528E+05         0.00000E+00
    0.79528E+05        -0.60012E+08         0.00000E+00
    0.00000E+00         0.00000E+00        -0.30169E+08
 
   -0.30103E+08         0.79384E+05         0.00000E+00
    0.79384E+05        -0.60019E+08         0.00000E+00
    0.00000E+00         0.00000E+00        -0.30158E+08
 
   -0.30122E+08         0.76365E+05         0.00000E+00
    0.76365E+05        -0.60027E+08         0.00000E+00
    0.00000E+00         0.00000E+00        -0.30149E+08
 
   -0.30138E+08         0.70978E+05         0.00000E+00
    0.70978E+05        -0.60034E+08         0.00000E+00
    0.00000E+00         0.00000E+00        -0.30143E+08
 
   -0.30150E+08         0.63455E+05         0.00000E+00
    0.63455E+05        -0.60042E+08         0.00000E+00
    0.00000E+00         0.00000E+00        -0.30140E+08
 
   -0.30160E+08         0.53924E+05         0.00000E+00
    0.53924E+05        -0.60048E+08         0.00000E+00
    0.00000E+00         0.00000E+00        -0.30140E+08
 
   -0.30166E+08         0.42626E+05         0.00000E+00
    0.42626E+05        -0.60055E+08         0.00000E+00
    0.00000E+00         0.00000E+00        -0.30142E+08
 
   -0.30168E+08         0.30075E+05         0.00000E+00
    0.30075E+05        -0.60061E+08         0.00000E+00
    0.00000E+00         0.00000E+00        -0.30147E+08
 
   -0.30169E+08         0.16910E+05         0.00000E+00
    0.16910E+05        -0.60067E+08         0.00000E+00
    0.00000E+00         0.00000E+00        -0.30155E+08
 
   -0.30169E+08         0.36031E+04         0.00000E+00
    0.36031E+04        -0.60074E+08         0.00000E+00
    0.00000E+00         0.00000E+00        -0.30164E+08
 
   -0.29952E+08         0.13610E+05         0.00000E+00
    0.13610E+05        -0.60000E+08         0.00000E+00
    0.00000E+00         0.00000E+00        -0.30286E+08
 
   -0.29976E+08         0.35954E+05         0.00000E+00
    0.35954E+05        -0.60001E+08         0.00000E+00
    0.00000E+00         0.00000E+00        -0.30262E+08
 
   -0.30002E+08         0.52826E+05         0.00000E+00
    0.52826E+05        -0.60002E+08         0.00000E+00
    0.00000E+00         0.00000E+00        -0.30238E+08
 
   -0.30029E+08         0.63903E+05         0.00000E+00
    0.63903E+05        -0.60007E+08         0.00000E+00
    0.00000E+00         0.00000E+00        -0.30216E+08
 
   -0.30056E+08         0.69726E+05         0.00000E+00
    0.69726E+05        -0.60014E+08         0.00000E+00
    0.00000E+00         0.00000E+00        -0.30198E+08
 
   -0.30082E+08         0.71500E+05         0.00000E+00
    0.71500E+05        -0.60022E+08         0.00000E+00
    0.00000E+00         0.00000E+00        -0.30184E+08
 
   -0.30105E+08         0.70391E+05         0.00000E+00
    0.70391E+05        -0.60033E+08         0.00000E+00
    0.00000E+00         0.00000E+00        -0.30173E+08
 
   -0.30126E+08         0.67154E+05         0.00000E+00
    0.67154E+05        -0.60043E+08         0.00000E+00
    0.00000E+00         0.00000E+00        -0.30166E+08
 
   -0.30144E+08         0.62170E+05         0.00000E+00
    0.62170E+05        -0.60053E+08         0.00000E+00
    0.00000E+00         0.00000E+00        -0.30162E+08
 
   -0.30158E+08         0.55512E+05         0.00000E+00
    0.55512E+05        -0.60063E+08         0.00000E+00
    0.00000E+00         0.00000E+00        -0.30160E+08
 
   -0.30170E+08         0.47004E+05         0.00000E+00
    0.47004E+05        -0.60071E+08         0.00000E+00
    0.00000E+00         0.00000E+00        -0.30159E+08
 
   -0.30177E+08         0.36467E+05         0.00000E+00
    0.36467E+05        -0.60078E+08         0.00000E+00
    0.00000E+00         0.00000E+00        -0.30160E+08
 
   -0.30181E+08         0.24070E+05         0.00000E+00
    0.24070E+05        -0.60083E+08         0.00000E+00
    0.00000E+00         0.00000E+00        -0.30164E+08
 
   -0.30183E+08         0.10502E+05         0.00000E+00
    0.10502E+05        -0.60089E+08         0.00000E+00
    0.00000E+00         0.00000E+00        -0.30170E+08
 
   -0.30183E+08        -0.34970E+04         0.00000E+00
   -0.34970E+04        -0.60096E+08         0.00000E+00
    0.00000E+00         0.00000E+00        -0.30178E+08
 
   -0.29927E+08         0.13487E+05         0.00000E+00
    0.13487E+05        -0.60000E+08         0.00000E+00
    0.00000E+00         0.00000E+00        -0.30311E+08
 
   -0.29957E+08         0.34455E+05         0.00000E+00
    0.34455E+05        -0.60001E+08         0.00000E+00
    0.00000E+00         0.00000E+00        -0.30282E+08
 
   -0.29989E+08         0.48709E+05         0.00000E+00
    0.48709E+05        -0.60005E+08         0.00000E+00
    0.00000E+00         0.00000E+00        -0.30255E+08
 
   -0.30022E+08         0.56564E+05         0.00000E+00
    0.56564E+05        -0.60013E+08         0.00000E+00
    0.00000E+00         0.00000E+00        -0.30232E+08
 
   -0.30053E+08         0.59761E+05         0.00000E+00
    0.59761E+05        -0.60024E+08         0.00000E+00
    0.00000E+00         0.00000E+00        -0.30214E+08
 
   -0.30082E+08         0.60042E+05         0.00000E+00
    0.60042E+05        -0.60036E+08         0.00000E+00
    0.00000E+00         0.00000E+00        -0.30202E+08
 
   -0.30108E+08         0.58431E+05         0.00000E+00
    0.58431E+05        -0.60050E+08         0.00000E+00
    0.00000E+00         0.00000E+00        -0.30193E+08
 
   -0.30130E+08         0.55428E+05         0.00000E+00
    0.55428E+05        -0.60063E+08         0.00000E+00
    0.00000E+00         0.00000E+00        -0.30188E+08
 
   -0.30149E+08         0.51228E+05         0.00000E+00
    0.51228E+05        -0.60075E+08         0.00000E+00
    0.00000E+00         0.00000E+00        -0.30185E+08
 
   -0.30165E+08         0.45802E+05         0.00000E+00
    0.45802E+05        -0.60086E+08         0.00000E+00
    0.00000E+00         0.00000E+00        -0.30183E+08
 
   -0.30178E+08         0.38906E+05         0.00000E+00
    0.38906E+05        -0.60096E+08         0.00000E+00
    0.00000E+00         0.00000E+00        -0.30183E+08
 
   -0.30188E+08         0.30033E+05         0.00000E+00
    0.30033E+05        -0.60103E+08         0.00000E+00
    0.00000E+00         0.00000E+00        -0.30183E+08
 
   -0.30194E+08         0.18698E+05         0.00000E+00
    0.18698E+05        -0.60109E+08         0.00000E+00
    0.00000E+00         0.00000E+00        -0.30185E+08
 
   -0.30196E+08         0.51865E+04         0.00000E+00
    0.51865E+04        -0.60114E+08         0.00000E+00
    0.00000E+00         0.00000E+00        -0.30189E+08
 
   -0.30197E+08        -0.93884E+04         0.00000E+00
   -0.93884E+04        -0.60119E+08         0.00000E+00
    0.00000E+00         0.00000E+00        -0.30194E+08
 
   -0.29904E+08         0.13128E+05         0.00000E+00
    0.13128E+05        -0.60000E+08         0.00000E+00
    0.00000E+00         0.00000E+00        -0.30335E+08
 
   -0.29941E+08         0.31133E+05         0.00000E+00
    0.31133E+05        -0.60003E+08         0.00000E+00
    0.00000E+00         0.00000E+00        -0.30301E+08
 
   -0.29980E+08         0.40846E+05         0.00000E+00
    0.40846E+05        -0.60011E+08         0.00000E+00
    0.00000E+00         0.00000E+00        -0.30272E+08
 
   -0.30018E+08         0.44860E+05         0.00000E+00
    0.44860E+05        -0.60023E+08         0.00000E+00
    0.00000E+00         0.00000E+00        -0.30249E+08
 
   -0.30052E+08         0.45977E+05         0.00000E+00
    0.45977E+05        -0.60038E+08         0.00000E+00
    0.00000E+00         0.00000E+00        -0.30234E+08
 
   -0.30083E+08         0.45482E+05         0.00000E+00
    0.45482E+05        -0.60054E+08         0.00000E+00
    0.00000E+00         0.00000E+00        -0.30224E+08
 
   -0.30110E+08         0.43927E+05         0.00000E+00
    0.43927E+05        -0.60070E+08         0.00000E+00
    0.00000E+00         0.00000E+00        -0.30217E+08
 
   -0.30133E+08         0.41545E+05         0.00000E+00
    0.41545E+05        -0.60085E+08         0.00000E+00
    0.00000E+00         0.00000E+00        -0.30214E+08
 
   -0.30153E+08         0.38403E+05         0.00000E+00
    0.38403E+05        -0.60099E+08         0.00000E+00
    0.00000E+00         0.00000E+00        -0.30212E+08
 
   -0.30171E+08         0.34437E+05         0.00000E+00
    0.34437E+05        -0.60112E+08         0.00000E+00
    0.00000E+00         0.00000E+00        -0.30212E+08
 
   -0.30185E+08         0.29434E+05         0.00000E+00
    0.29434E+05        -0.60123E+08         0.00000E+00
    0.00000E+00         0.00000E+00        -0.30212E+08
 
   -0.30197E+08         0.22928E+05         0.00000E+00
    0.22928E+05        -0.60132E+08         0.00000E+00
    0.00000E+00         0.00000E+00        -0.30212E+08
 
   -0.30205E+08         0.14029E+05         0.00000E+00
    0.14029E+05        -0.60138E+08         0.00000E+00
    0.00000E+00         0.00000E+00        -0.30211E+08
 
   -0.30210E+08         0.17398E+04         0.00000E+00
    0.17398E+04        -0.60141E+08         0.00000E+00
    0.00000E+00         0.00000E+00        -0.30211E+08
 
   -0.30212E+08        -0.13154E+05         0.00000E+00
   -0.13154E+05        -0.60143E+08         0.00000E+00
    0.00000E+00         0.00000E+00        -0.30212E+08
 
   -0.29883E+08         0.11911E+05         0.00000E+00
    0.11911E+05        -0.60001E+08         0.00000E+00
    0.00000E+00         0.00000E+00        -0.30358E+08
 
   -0.29930E+08         0.23538E+05         0.00000E+00
    0.23538E+05        -0.60008E+08         0.00000E+00
    0.00000E+00         0.00000E+00        -0.30320E+08
 
   -0.29975E+08         0.27512E+05         0.00000E+00
    0.27512E+05        -0.60022E+08         0.00000E+00
    0.00000E+00         0.00000E+00        -0.30291E+08
 
   -0.30016E+08         0.28887E+05         0.00000E+00
    0.28887E+05        -0.60039E+08         0.00000E+00
    0.00000E+00         0.00000E+00        -0.30271E+08
 
   -0.30053E+08         0.29054E+05         0.00000E+00
    0.29054E+05        -0.60057E+08         0.00000E+00
    0.00000E+00         0.00000E+00        -0.30258E+08
 
   -0.30084E+08         0.28492E+05         0.00000E+00
    0.28492E+05        -0.60075E+08         0.00000E+00
    0.00000E+00         0.00000E+00        -0.30250E+08
 
   -0.30112E+08         0.27409E+05         0.00000E+00
    0.27409E+05        -0.60092E+08         0.00000E+00
    0.00000E+00         0.00000E+00        -0.30246E+08
 
   -0.30135E+08         0.25899E+05         0.00000E+00
    0.25899E+05        -0.60109E+08         0.00000E+00
    0.00000E+00         0.00000E+00        -0.30244E+08
 
   -0.30156E+08         0.23977E+05         0.00000E+00
    0.23977E+05        -0.60125E+08         0.00000E+00
    0.00000E+00         0.00000E+00        -0.30244E+08
 
   -0.30174E+08         0.21584E+05         0.00000E+00
    0.21584E+05        -0.60139E+08         0.00000E+00
    0.00000E+00         0.00000E+00        -0.30245E+08
 
   -0.30190E+08         0.18576E+05         0.00000E+00
    0.18576E+05        -0.60152E+08         0.00000E+00
    0.00000E+00         0.00000E+00        -0.30245E+08
 
   -0.30203E+08         0.14664E+05         0.00000E+00
    0.14664E+05        -0.60162E+08         0.00000E+00
    0.00000E+00         0.00000E+00        -0.30245E+08
 
   -0.30214E+08         0.92096E+04         0.00000E+00
    0.92096E+04        -0.60169E+08         0.00000E+00
    0.00000E+00         0.00000E+00        -0.30243E+08
 
   -0.30222E+08         0.70341E+03         0.00000E+00
    0.70341E+03        -0.60171E+08         0.00000E+00
    0.00000E+00         0.00000E+00        -0.30238E+08
 
   -0.30227E+08        -0.13308E+05         0.00000E+00
   -0.13308E+05        -0.60171E+08         0.00000E+00
    0.00000E+00         0.00000E+00        -0.30232E+08
 
   -0.29870E+08         0.60890E+04         0.00000E+00
    0.60890E+04        -0.60008E+08         0.00000E+00
    0.00000E+00         0.00000E+00        -0.30381E+08
 
   -0.29925E+08         0.85376E+04         0.00000E+00
    0.85376E+04        -0.60022E+08         0.00000E+00
    0.00000E+00         0.00000E+00        -0.30342E+08
 
   -0.29974E+08         0.96167E+04         0.00000E+00
    0.96167E+04        -0.60040E+08         0.00000E+00
    0.00000E+00         0.00000E+00        -0.30316E+08
 
   -0.30016E+08         0.99795E+04         0.00000E+00
    0.99795E+04        -0.60059E+08         0.00000E+00
    0.00000E+00         0.00000E+00        -0.30299E+08
 
   -0.30053E+08         0.99684E+04         0.00000E+00
    0.99684E+04        -0.60079E+08         0.00000E+00
    0.00000E+00         0.00000E+00        -0.30288E+08
 
   -0.30085E+08         0.97402E+04         0.00000E+00
    0.97402E+04        -0.60099E+08         0.00000E+00
    0.00000E+00         0.00000E+00        -0.30282E+08
 
   -0.30112E+08         0.93562E+04         0.00000E+00
    0.93562E+04        -0.60118E+08         0.00000E+00
    0.00000E+00         0.00000E+00        -0.30279E+08
 
   -0.30137E+08         0.88415E+04         0.00000E+00
    0.88415E+04        -0.60136E+08         0.00000E+00
    0.00000E+00         0.00000E+00        -0.30278E+08
 
   -0.30158E+08         0.81977E+04         0.00000E+00
    0.81977E+04        -0.60153E+08         0.00000E+00
    0.00000E+00         0.00000E+00        -0.30279E+08
 
   -0.30176E+08         0.74029E+04         0.00000E+00
    0.74029E+04        -0.60169E+08         0.00000E+00
    0.00000E+00         0.00000E+00        -0.30281E+08
 
   -0.30192E+08         0.64043E+04         0.00000E+00
    0.64043E+04        -0.60182E+08         0.00000E+00
    0.00000E+00         0.00000E+00        -0.30284E+08
 
   -0.30206E+08         0.50951E+04         0.00000E+00
    0.50951E+04        -0.60194E+08         0.00000E+00
    0.00000E+00         0.00000E+00        -0.30285E+08
 
   -0.30219E+08         0.32824E+04         0.00000E+00
    0.32824E+04        -0.60202E+08         0.00000E+00
    0.00000E+00         0.00000E+00        -0.30283E+08
 
   -0.30230E+08         0.40068E+03         0.00000E+00
    0.40068E+03        -0.60206E+08         0.00000E+00
    0.00000E+00         0.00000E+00        -0.30276E+08
 
   -0.30239E+08        -0.60421E+04         0.00000E+00
   -0.60421E+04        -0.60200E+08         0.00000E+00
    0.00000E+00         0.00000E+00        -0.30259E+08
 
SCALARS stressS double 
LOOKUP_TABLE default
  -40079021.2744939     
  -40078172.4088652     
  -40076868.4349174     
  -40075151.2059495     
  -40073060.6961284     
  -40070634.8836289     
  -40067908.8358746     
  -40064915.5936357     
  -40061686.6372440     
  -40058251.0804522     
  -40054635.7624851     
  -40050865.1933854     
  -40046961.5623632     
  -40042944.7454784     
  -40038832.3051412     
  -40079010.6606810     
  -40078152.0034205     
  -40076829.5858042     
  -40075088.4161101     
  -40072971.2853749     
  -40070518.5185336     
  -40067767.9232440     
  -40064754.0186248     
  -40061509.2146005     
  -40058063.9081681     
  -40054445.6013498     
  -40050679.1904908     
  -40046787.0130939     
  -40042788.9360485     
  -40038702.3708116     
  -40078989.4330326     
  -40078111.4579661     
  -40076752.5697151     
  -40074964.0593832     
  -40072794.4499345     
  -40070289.2082949     
  -40067490.2734781     
  -40064435.1212382     
  -40061159.6333818     
  -40057695.7307590     
  -40054072.2773604     
  -40050314.9154784     
  -40046446.3279789     
  -40042486.3873590     
  -40038452.1953584     
  -40078957.6213397     
  -40078051.3689996     
  -40076638.9084065     
  -40074780.7956613     
  -40072534.0290983     
  -40069951.4374755     
  -40067081.9856345     
  -40063967.9943625     
  -40060648.6867116     
  -40057159.0383849     
  -40053529.7866501     
  -40049787.7753218     
  -40045956.2996800     
  -40042055.2562020     
  -40038101.2444572     
  -40078915.3062958     
  -40077972.8058896     
  -40076490.9878509     
  -40074542.9958882     
  -40072197.1152112     
  -40069515.5337669     
  -40066555.4761148     
  -40063366.9223429     
  -40059993.0906498     
  -40056472.7150761     
  -40052839.0950095     
  -40049120.7966139     
  -40045341.9601693     
  -40041522.6318674     
  -40037678.6782752     
  -40078863.7563024     
  -40077876.9634977     
  -40076312.1509719     
  -40074256.9933817     
  -40071793.0167072     
  -40068994.9305128     
  -40065928.0310367     
  -40062651.5561112     
  -40059215.3925385     
  -40055661.9884822     
  -40052028.1612900     
  -40048344.6135665     
  -40044636.6041283     
  -40040924.3110829     
  -40037223.0283798     
  -40078800.5865850     
  -40077765.7364168     
  -40076107.2807287     
  -40073931.0934308     
  -40071334.1951287     
  -40068404.0677437     
  -40065218.6810911     
  -40061846.7943212     
  -40058343.6570777     
  -40054758.5708296     
  -40051132.0535566     
  -40047497.5130939     
  -40043881.7008225     
  -40040305.2601100     
  -40036782.6881740     
  -40078728.5077569     
  -40077641.8761725     
  -40075882.9291786     
  -40073576.5539847     
  -40070836.7543786     
  -40067765.9991800     
  -40064454.7183123     
  -40060982.0479714     
  -40057412.4512554     
  -40053801.0063702     
  -40050193.0528494     
  -40046625.3745655     
  -40043126.9709400     
  -40039719.1661739     
  -40036415.6112820     
  -40078649.0367125     
  -40077510.6315203     
  -40075648.4882313     
  -40073208.1962809     
  -40070321.6571591     
  -40067107.1660962     
  -40063668.4702371     
  -40060094.9102890     
  -40056463.2524109     
  -40052834.8415360     
  -40049260.4409744     
  -40045781.7678567     
  -40042430.5008683     
  -40039228.9294703     
  -40036189.8056384     
  -40078563.7442875     
  -40077377.0742434     
  -40075415.3798910     
  -40072844.0199667     
  -40069813.8930766     
  -40066458.6625651     
  -40062896.5509332     
  -40059228.7972480     
  -40055544.1230552     
  -40051911.4404236     
  -40048390.7867508     
  -40045028.2808104     
  -40041859.1425935     
  -40038907.0545564     
  -40036183.6948905     
  -40078475.2554765     
  -40077247.8333996     
  -40075196.6959674     
  -40072505.4076211     
  -40069341.8628020     
  -40065856.3639510     
  -40062180.7858776     
  -40058430.6656616     
  -40054706.0547810     
  -40051089.7810796     
  -40047648.3923985     
  -40044434.8624782     
  -40041489.1454043     
  -40038836.3306830     
  -40036486.8023505     
  -40078387.1453327     
  -40077130.6071868     
  -40075007.5816505     
  -40072215.9489120     
  -40068938.2740220     
  -40065340.2942156     
  -40061569.3840393     
  -40057756.4226231     
  -40054012.2915467     
  -40050436.3210918     
  -40047104.9524651     
  -40044080.7572077     
  -40041407.1232766     
  -40039110.7144964     
  -40037200.1813117     
  -40078303.7975016     
  -40077034.4659747     
  -40074864.4001645     
  -40072000.8595786     
  -40068637.6356274     
  -40064953.8437792     
  -40061112.6431537     
  -40057259.6683991     
  -40053526.1921847     
  -40050022.5109736     
  -40046842.1936985     
  -40044055.4799222     
  -40041711.1088551     
  -40039836.2842559     
  -40038436.4823640     
  -40078230.3701489     
  -40076968.8993979     
  -40074784.3713839     
  -40071886.2693705     
  -40068474.8215244     
  -40064740.5244205     
  -40060862.6643770     
  -40057005.9610841     
  -40053319.0210856     
  -40049932.3819634     
  -40046952.3124853     
  -40044460.4499136     
  -40042512.0011197     
  -40041131.1616659     
  -40040319.4940863     
  -40078172.4369035     
  -40076943.0365751     
  -40074783.4787321     
  -40071896.7605971     
  -40068484.1998229     
  -40064745.0769377     
  -40060874.3291608     
  -40057058.6316662     
  -40053468.2495335     
  -40050253.6447942     
  -40047538.9474619     
  -40045413.1800948     
  -40043933.5980404     
  -40043125.7900327     
  -40042982.0854096     
  -40078135.5224070     
  -40076964.2730425     
  -40074874.1352021     
  -40072052.6573535     
  -40068696.3811545     
  -40065010.6236655     
  -40061205.8059375     
  -40057490.0956823     
  -40054060.3840616     
  -40051089.3228124     
  -40048716.8540433     
  -40047042.3228907     
  -40046117.6280483     
  -40045960.1549845     
  -40046560.1390239     
  -40078124.3390847     
  -40077036.8517907     
  -40075062.5419202     
  -40072366.7136914     
  -40069135.8035343     
  -40065577.3596533     
  -40061915.9678389     
  -40058383.0523202     
  -40055200.9451051     
  -40052565.3162495     
  -40050629.0465758     
  -40049494.9035359     
  -40049212.5732152     
  -40049784.3080783     
  -40051186.5779980     
  -40078142.6358382     
  -40077159.6953684     
  -40075346.6615587     
  -40072842.2676480     
  -40069818.5503210     
  -40066481.7144776     
  -40063067.6537527     
  -40059828.7823306     
  -40057011.3049044     
  -40054829.1996571     
  -40053443.0797855     
  -40052949.5881702     
  -40053387.3687018     
  -40054746.9805829     
  -40056993.4142987     
  -40078188.7503201     
  -40077327.1706502     
  -40075716.7387589     
  -40073472.4608661     
  -40070752.3804630     
  -40067757.3744307     
  -40064730.3013687     
  -40061937.2204091     
  -40059638.7265297     
  -40058056.0825154     
  -40057345.7884678     
  -40057591.7434379     
  -40058814.2923935     
  -40060993.2302038     
  -40064090.3758660     
  -40078273.2724743     
  -40077529.8110973     
  -40076154.7394269     
  -40074244.2947161     
  -40071939.0420104     
  -40069440.1484070     
  -40066987.8395908     
  -40064845.8843263     
  -40063266.4461024     
  -40062455.7107363     
  -40062550.7204739     
  -40063615.9825284     
  -40065658.3789578     
  -40068651.4424940     
  -40072558.4373708     
  -40078366.3689129     
  -40077761.8175047     
  -40076650.7641675     
  -40075140.0432303     
  -40073385.7444692     
  -40071578.9824601     
  -40069951.6244762     
  -40068732.2131990     
  -40068121.5800024     
  -40068273.9901003     
  -40069289.9553303     
  -40071218.2986663     
  -40074066.0758866     
  -40077816.1560564     
  -40082446.0859030     
  -40078499.9694001     
  -40078015.5571418     
  -40077197.2835552     
  -40076171.3746029     
  -40075120.3104874     
  -40074260.4613949     
  -40073780.8408151     
  -40073824.3667043     
  -40074473.9394359     
  -40075782.2855133     
  -40077800.7958007     
  -40080579.9812304     
  -40084156.2443893     
  -40088545.2600305     
  -40093754.1498084     
  -40078659.6049020     
  -40078305.0276172     
  -40077813.3953364     
  -40077376.7748739     
  -40077245.6819934     
  -40077649.3807055     
  -40078710.4172223     
  -40080401.8765816     
  -40082612.5265973     
  -40085248.7732868     
  -40088303.7112457     
  -40091857.2768100     
  -40096016.5070229     
  -40100864.8920079     
  -40106451.1993627     
  -40078845.3765484     
  -40078620.7954054     
  -40078530.7216411     
  -40078873.1612438     
  -40079978.7312781     
  -40082059.9059728     
  -40085077.9672898     
  -40088768.9620241     
  -40092792.8868111     
  -40096886.7041184     
  -40100976.3039915     
  -40105177.8775170     
  -40109710.5809951     
  -40114771.2988706     
  -40120476.9818828     
  -40079054.3575024     
  -40078979.3942171     
  -40079427.9972568     
  -40080879.9650490     
  -40083721.1314761     
  -40087978.4644023     
  -40093312.7022404     
  -40099207.5129155     
  -40105158.9821019     
  -40110790.6772183     
  -40115919.8662510     
  -40120644.8735206     
  -40125300.4464137     
  -40130258.6067062     
  -40135759.5271416     
  -40079283.5569405     
  -40079421.9598696     
  -40080722.5311233     
  -40083882.7413326     
  -40089122.1742245     
  -40096002.9711477     
  -40103809.4499820     
  -40111889.4544457     
  -40119718.9526474     
  -40126882.9539652     
  -40133105.4527483     
  -40138334.4358730     
  -40142883.3471610     
  -40147359.2280043     
  -40152237.1003550     
  -40079526.4385500     
  -40080098.1805258     
  -40082964.2149973     
  -40088801.0033682     
  -40097040.2856755     
  -40106653.9197540     
  -40116785.7437124     
  -40126825.5792804     
  -40136332.8544741     
  -40144948.9225010     
  -40152332.0034624     
  -40158212.5131176     
  -40162637.4388839     
  -40166207.8702789     
  -40169915.8883457     
  -40079843.5545450     
  -40081540.7211406     
  -40087491.3354169     
  -40096889.3199109     
  -40108150.1733840     
  -40120150.3420971     
  -40132212.0402071     
  -40143884.3492707     
  -40154823.4411408     
  -40164724.1013928     
  -40173267.5625107     
  -40180054.0810311     
  -40184643.4538360     
  -40187238.6389224     
  -40188907.8330338     
  -40080512.4996393     
  -40085935.0268185     
  -40096244.1734688     
  -40108947.4886779     
  -40122562.1838270     
  -40136361.4576867     
  -40149899.2960971     
  -40162861.8040053     
  -40174986.7207974     
  -40186014.3566311     
  -40195641.3796216     
  -40203457.4452127     
  -40208827.2073646     
  -40210674.0722675     
  -40210075.1836618     
  -40086380.0244945     
  -40096462.2077749     
  -40110026.0042757     
  -40124809.5711785     
  -40139962.3467122     
  -40155002.5834712     
  -40169618.3503085     
  -40183572.8549797     
  -40196658.0371274     
  -40208656.1931105     
  -40219296.7876858     
  -40228190.9540792     
  -40234690.1536085     
  -40237539.6186331     
  -40232751.5130175     
SCALARS 2waySource double 
LOOKUP_TABLE default
  0.000000000000000E+000
  0.000000000000000E+000
  0.000000000000000E+000
  0.000000000000000E+000
  0.000000000000000E+000
  0.000000000000000E+000
  0.000000000000000E+000
  0.000000000000000E+000
  0.000000000000000E+000
  0.000000000000000E+000
  0.000000000000000E+000
  0.000000000000000E+000
  0.000000000000000E+000
  0.000000000000000E+000
  0.000000000000000E+000
  0.000000000000000E+000
  0.000000000000000E+000
  0.000000000000000E+000
  0.000000000000000E+000
  0.000000000000000E+000
  0.000000000000000E+000
  0.000000000000000E+000
  0.000000000000000E+000
  0.000000000000000E+000
  0.000000000000000E+000
  0.000000000000000E+000
  0.000000000000000E+000
  0.000000000000000E+000
  0.000000000000000E+000
  0.000000000000000E+000
  0.000000000000000E+000
  0.000000000000000E+000
  0.000000000000000E+000
  0.000000000000000E+000
  0.000000000000000E+000
  0.000000000000000E+000
  0.000000000000000E+000
  0.000000000000000E+000
  0.000000000000000E+000
  0.000000000000000E+000
  0.000000000000000E+000
  0.000000000000000E+000
  0.000000000000000E+000
  0.000000000000000E+000
  0.000000000000000E+000
  0.000000000000000E+000
  0.000000000000000E+000
  0.000000000000000E+000
  0.000000000000000E+000
  0.000000000000000E+000
  0.000000000000000E+000
  0.000000000000000E+000
  0.000000000000000E+000
  0.000000000000000E+000
  0.000000000000000E+000
  0.000000000000000E+000
  0.000000000000000E+000
  0.000000000000000E+000
  0.000000000000000E+000
  0.000000000000000E+000
  0.000000000000000E+000
  0.000000000000000E+000
  0.000000000000000E+000
  0.000000000000000E+000
  0.000000000000000E+000
  0.000000000000000E+000
  0.000000000000000E+000
  0.000000000000000E+000
  0.000000000000000E+000
  0.000000000000000E+000
  0.000000000000000E+000
  0.000000000000000E+000
  0.000000000000000E+000
  0.000000000000000E+000
  0.000000000000000E+000
  0.000000000000000E+000
  0.000000000000000E+000
  0.000000000000000E+000
  0.000000000000000E+000
  0.000000000000000E+000
  0.000000000000000E+000
  0.000000000000000E+000
  0.000000000000000E+000
  0.000000000000000E+000
  0.000000000000000E+000
  0.000000000000000E+000
  0.000000000000000E+000
  0.000000000000000E+000
  0.000000000000000E+000
  0.000000000000000E+000
  0.000000000000000E+000
  0.000000000000000E+000
  0.000000000000000E+000
  0.000000000000000E+000
  0.000000000000000E+000
  0.000000000000000E+000
  0.000000000000000E+000
  0.000000000000000E+000
  0.000000000000000E+000
  0.000000000000000E+000
  0.000000000000000E+000
  0.000000000000000E+000
  0.000000000000000E+000
  0.000000000000000E+000
  0.000000000000000E+000
  0.000000000000000E+000
  0.000000000000000E+000
  0.000000000000000E+000
  0.000000000000000E+000
  0.000000000000000E+000
  0.000000000000000E+000
  0.000000000000000E+000
  0.000000000000000E+000
  0.000000000000000E+000
  0.000000000000000E+000
  0.000000000000000E+000
  0.000000000000000E+000
  0.000000000000000E+000
  0.000000000000000E+000
  0.000000000000000E+000
  0.000000000000000E+000
  0.000000000000000E+000
  0.000000000000000E+000
  0.000000000000000E+000
  0.000000000000000E+000
  0.000000000000000E+000
  0.000000000000000E+000
  0.000000000000000E+000
  0.000000000000000E+000
  0.000000000000000E+000
  0.000000000000000E+000
  0.000000000000000E+000
  0.000000000000000E+000
  0.000000000000000E+000
  0.000000000000000E+000
  0.000000000000000E+000
  0.000000000000000E+000
  0.000000000000000E+000
  0.000000000000000E+000
  0.000000000000000E+000
  0.000000000000000E+000
  0.000000000000000E+000
  0.000000000000000E+000
  0.000000000000000E+000
  0.000000000000000E+000
  0.000000000000000E+000
  0.000000000000000E+000
  0.000000000000000E+000
  0.000000000000000E+000
  0.000000000000000E+000
  0.000000000000000E+000
  0.000000000000000E+000
  0.000000000000000E+000
  0.000000000000000E+000
  0.000000000000000E+000
  0.000000000000000E+000
  0.000000000000000E+000
  0.000000000000000E+000
  0.000000000000000E+000
  0.000000000000000E+000
  0.000000000000000E+000
  0.000000000000000E+000
  0.000000000000000E+000
  0.000000000000000E+000
  0.000000000000000E+000
  0.000000000000000E+000
  0.000000000000000E+000
  0.000000000000000E+000
  0.000000000000000E+000
  0.000000000000000E+000
  0.000000000000000E+000
  0.000000000000000E+000
  0.000000000000000E+000
  0.000000000000000E+000
  0.000000000000000E+000
  0.000000000000000E+000
  0.000000000000000E+000
  0.000000000000000E+000
  0.000000000000000E+000
  0.000000000000000E+000
  0.000000000000000E+000
  0.000000000000000E+000
  0.000000000000000E+000
  0.000000000000000E+000
  0.000000000000000E+000
  0.000000000000000E+000
  0.000000000000000E+000
  0.000000000000000E+000
  0.000000000000000E+000
  0.000000000000000E+000
  0.000000000000000E+000
  0.000000000000000E+000
  0.000000000000000E+000
  0.000000000000000E+000
  0.000000000000000E+000
  0.000000000000000E+000
  0.000000000000000E+000
  0.000000000000000E+000
  0.000000000000000E+000
  0.000000000000000E+000
  0.000000000000000E+000
  0.000000000000000E+000
  0.000000000000000E+000
  0.000000000000000E+000
  0.000000000000000E+000
  0.000000000000000E+000
  0.000000000000000E+000
  0.000000000000000E+000
  0.000000000000000E+000
  0.000000000000000E+000
  0.000000000000000E+000
  0.000000000000000E+000
  0.000000000000000E+000
  0.000000000000000E+000
  0.000000000000000E+000
  0.000000000000000E+000
  0.000000000000000E+000
  0.000000000000000E+000
  0.000000000000000E+000
  0.000000000000000E+000
  0.000000000000000E+000
  0.000000000000000E+000
  0.000000000000000E+000
  0.000000000000000E+000
  0.000000000000000E+000
  0.000000000000000E+000
  0.000000000000000E+000
  0.000000000000000E+000
  0.000000000000000E+000
  0.000000000000000E+000
  0.000000000000000E+000
  0.000000000000000E+000
  0.000000000000000E+000
  0.000000000000000E+000
  0.000000000000000E+000
  0.000000000000000E+000
  0.000000000000000E+000
  0.000000000000000E+000
  0.000000000000000E+000
  0.000000000000000E+000
  0.000000000000000E+000
  0.000000000000000E+000
  0.000000000000000E+000
  0.000000000000000E+000
  0.000000000000000E+000
  0.000000000000000E+000
  0.000000000000000E+000
  0.000000000000000E+000
  0.000000000000000E+000
  0.000000000000000E+000
  0.000000000000000E+000
  0.000000000000000E+000
  0.000000000000000E+000
  0.000000000000000E+000
  0.000000000000000E+000
  0.000000000000000E+000
  0.000000000000000E+000
  0.000000000000000E+000
  0.000000000000000E+000
  0.000000000000000E+000
  0.000000000000000E+000
  0.000000000000000E+000
  0.000000000000000E+000
  0.000000000000000E+000
  0.000000000000000E+000
  0.000000000000000E+000
  0.000000000000000E+000
  0.000000000000000E+000
  0.000000000000000E+000
  0.000000000000000E+000
  0.000000000000000E+000
  0.000000000000000E+000
  0.000000000000000E+000
  0.000000000000000E+000
  0.000000000000000E+000
  0.000000000000000E+000
  0.000000000000000E+000
  0.000000000000000E+000
  0.000000000000000E+000
  0.000000000000000E+000
  0.000000000000000E+000
  0.000000000000000E+000
  0.000000000000000E+000
  0.000000000000000E+000
  0.000000000000000E+000
  0.000000000000000E+000
  0.000000000000000E+000
  0.000000000000000E+000
  0.000000000000000E+000
  0.000000000000000E+000
  0.000000000000000E+000
  0.000000000000000E+000
  0.000000000000000E+000
  0.000000000000000E+000
  0.000000000000000E+000
  0.000000000000000E+000
  0.000000000000000E+000
  0.000000000000000E+000
  0.000000000000000E+000
  0.000000000000000E+000
  0.000000000000000E+000
  0.000000000000000E+000
  0.000000000000000E+000
  0.000000000000000E+000
  0.000000000000000E+000
  0.000000000000000E+000
  0.000000000000000E+000
  0.000000000000000E+000
  0.000000000000000E+000
  0.000000000000000E+000
  0.000000000000000E+000
  0.000000000000000E+000
  0.000000000000000E+000
  0.000000000000000E+000
  0.000000000000000E+000
  0.000000000000000E+000
  0.000000000000000E+000
  0.000000000000000E+000
  0.000000000000000E+000
  0.000000000000000E+000
  0.000000000000000E+000
  0.000000000000000E+000
  0.000000000000000E+000
  0.000000000000000E+000
  0.000000000000000E+000
  0.000000000000000E+000
  0.000000000000000E+000
  0.000000000000000E+000
  0.000000000000000E+000
  0.000000000000000E+000
  0.000000000000000E+000
  0.000000000000000E+000
  0.000000000000000E+000
  0.000000000000000E+000
  0.000000000000000E+000
  0.000000000000000E+000
  0.000000000000000E+000
  0.000000000000000E+000
  0.000000000000000E+000
  0.000000000000000E+000
  0.000000000000000E+000
  0.000000000000000E+000
  0.000000000000000E+000
  0.000000000000000E+000
  0.000000000000000E+000
  0.000000000000000E+000
  0.000000000000000E+000
  0.000000000000000E+000
  0.000000000000000E+000
  0.000000000000000E+000
  0.000000000000000E+000
  0.000000000000000E+000
  0.000000000000000E+000
  0.000000000000000E+000
  0.000000000000000E+000
  0.000000000000000E+000
  0.000000000000000E+000
  0.000000000000000E+000
  0.000000000000000E+000
  0.000000000000000E+000
  0.000000000000000E+000
  0.000000000000000E+000
  0.000000000000000E+000
  0.000000000000000E+000
  0.000000000000000E+000
  0.000000000000000E+000
  0.000000000000000E+000
  0.000000000000000E+000
  0.000000000000000E+000
  0.000000000000000E+000
  0.000000000000000E+000
  0.000000000000000E+000
  0.000000000000000E+000
  0.000000000000000E+000
  0.000000000000000E+000
  0.000000000000000E+000
  0.000000000000000E+000
  0.000000000000000E+000
  0.000000000000000E+000
  0.000000000000000E+000
  0.000000000000000E+000
  0.000000000000000E+000
  0.000000000000000E+000
  0.000000000000000E+000
  0.000000000000000E+000
  0.000000000000000E+000
  0.000000000000000E+000
  0.000000000000000E+000
  0.000000000000000E+000
  0.000000000000000E+000
  0.000000000000000E+000
  0.000000000000000E+000
  0.000000000000000E+000
  0.000000000000000E+000
  0.000000000000000E+000
  0.000000000000000E+000
  0.000000000000000E+000
  0.000000000000000E+000
  0.000000000000000E+000
  0.000000000000000E+000
  0.000000000000000E+000
  0.000000000000000E+000
  0.000000000000000E+000
  0.000000000000000E+000
  0.000000000000000E+000
  0.000000000000000E+000
  0.000000000000000E+000
  0.000000000000000E+000
  0.000000000000000E+000
  0.000000000000000E+000
  0.000000000000000E+000
  0.000000000000000E+000
  0.000000000000000E+000
  0.000000000000000E+000
  0.000000000000000E+000
  0.000000000000000E+000
  0.000000000000000E+000
  0.000000000000000E+000
  0.000000000000000E+000
  0.000000000000000E+000
  0.000000000000000E+000
  0.000000000000000E+000
  0.000000000000000E+000
  0.000000000000000E+000
  0.000000000000000E+000
  0.000000000000000E+000
  0.000000000000000E+000
  0.000000000000000E+000
  0.000000000000000E+000
  0.000000000000000E+000
  0.000000000000000E+000
  0.000000000000000E+000
  0.000000000000000E+000
  0.000000000000000E+000
  0.000000000000000E+000
  0.000000000000000E+000
  0.000000000000000E+000
  0.000000000000000E+000
  0.000000000000000E+000
  0.000000000000000E+000
  0.000000000000000E+000
  0.000000000000000E+000
  0.000000000000000E+000
  0.000000000000000E+000
  0.000000000000000E+000
  0.000000000000000E+000
  0.000000000000000E+000
  0.000000000000000E+000
  0.000000000000000E+000
  0.000000000000000E+000
SCALARS poroP double 
LOOKUP_TABLE default
  1.818465148427536E-005
  1.819050738961233E-005
  1.819109735394279E-005
  1.818643397583900E-005
  1.817652508281410E-005
  1.816138307174240E-005
  1.814101399577408E-005
  1.811544438698417E-005
  1.808475394626170E-005
  1.804905954801949E-005
  1.800851805898123E-005
  1.796333261549873E-005
  1.791375961218001E-005
  1.786011615414440E-005
  1.780278563216498E-005
  1.818274842491186E-005
  1.818862375936293E-005
  1.818923455991004E-005
  1.818459837605869E-005
  1.817472770550011E-005
  1.815964117299885E-005
  1.813935475169880E-005
  1.811389659257916E-005
  1.808334262286286E-005
  1.804780941677378E-005
  1.800745203572885E-005
  1.796247004255753E-005
  1.791311517661625E-005
  1.785969917201790E-005
  1.780259979536155E-005
  1.817890711526476E-005
  1.818482185233809E-005
  1.818547650904247E-005
  1.818089858557934E-005
  1.817111002959269E-005
  1.815613947664162E-005
  1.813602380949684E-005
  1.811079347566460E-005
  1.808051664181532E-005
  1.804531080976676E-005
  1.800532577121644E-005
  1.796075363433212E-005
  1.791183687223347E-005
  1.785887675373201E-005
  1.780223988435477E-005
  1.817305718422498E-005
  1.817903272522009E-005
  1.817975910089572E-005
  1.817527765109767E-005
  1.816562577566286E-005
  1.815084933064356E-005
  1.813100012856891E-005
  1.810611821600402E-005
  1.807627081586360E-005
  1.804156804804430E-005
  1.800215111445695E-005
  1.795820066445946E-005
  1.790994550394519E-005
  1.785767141344575E-005
  1.780172909042330E-005
  1.816509283920371E-005
  1.817115391725762E-005
  1.817198766820369E-005
  1.816765281725498E-005
  1.815820688908883E-005
  1.814371288028572E-005
  1.812424216695965E-005
  1.809985091262451E-005
  1.807060039795204E-005
  1.803658895535937E-005
  1.799794575773701E-005
  1.795483618770971E-005
  1.790747119916410E-005
  1.785611639570645E-005
  1.780110219455537E-005
  1.815487919116034E-005
  1.816104953577595E-005
  1.816203598684321E-005
  1.815791429972063E-005
  1.814876396301482E-005
  1.813466011168597E-005
  1.811570165021103E-005
  1.809196732307311E-005
  1.806350042156037E-005
  1.803038376964730E-005
  1.799273228622590E-005
  1.795069223248781E-005
  1.790445243063436E-005
  1.785425503772194E-005
  1.780040547819297E-005
  1.814226350548364E-005
  1.814855656116437E-005
  1.814974875777274E-005
  1.814592731459485E-005
  1.813718667381804E-005
  1.812362154133071E-005
  1.810533880954177E-005
  1.808243956572429E-005
  1.805496369012938E-005
  1.802296373576714E-005
  1.798653728306561E-005
  1.794580668484328E-005
  1.790093512977981E-005
  1.785213844512879E-005
  1.779969454347644E-005
  1.812703764164528E-005
  1.813349122161720E-005
  1.813495266123412E-005
  1.813153967753179E-005
  1.812335531709355E-005
  1.811050592124559E-005
  1.809309803088329E-005
  1.807124171595269E-005
  1.804498190400823E-005
  1.801434210359827E-005
  1.797939028542331E-005
  1.794022107248776E-005
  1.789696995914326E-005
  1.784982496975441E-005
  1.779903560260187E-005
  1.810896117875388E-005
  1.811563270384458E-005
  1.811746080818598E-005
  1.811458938084418E-005
  1.810714081363288E-005
  1.809521784176218E-005
  1.807891495451687E-005
  1.805833897167683E-005
  1.803354783672747E-005
  1.800453272850598E-005
  1.797132000476951E-005
  1.793397677382032E-005
  1.789260979154508E-005
  1.784737849406848E-005
  1.779850464358144E-005
  1.808778594375842E-005
  1.809473838614150E-005
  1.809706749084248E-005
  1.809491059563271E-005
  1.808840748646454E-005
  1.807765707742489E-005
  1.806272759891908E-005
  1.804370203676661E-005
  1.802065068172073E-005
  1.799354069796436E-005
  1.796234766897911E-005
  1.792711091830775E-005
  1.788790670486079E-005
  1.784486695882353E-005
  1.779818746663731E-005
  1.806326911821469E-005
  1.807056982087255E-005
  1.807355562623997E-005
  1.807233197814618E-005
  1.806702217834691E-005
  1.805772165576621E-005
  1.804447279230666E-005
  1.802730466420109E-005
  1.800627151730716E-005
  1.798135518087505E-005
  1.795248357415395E-005
  1.791965130055064E-005
  1.788290829670954E-005
  1.784236065955405E-005
  1.779817975751058E-005
  1.803519212749635E-005
  1.804291359937961E-005
  1.804672478394329E-005
  1.804668132875220E-005
  1.804285512902607E-005
  1.803531036043368E-005
  1.802406503232932E-005
  1.800908479063076E-005
  1.799037506608154E-005
  1.796795085264490E-005
  1.794171690274445E-005
  1.791160961362335E-005
  1.787765435114092E-005
  1.783993085941361E-005
  1.779858687125875E-005
  1.800339017925257E-005
  1.801160179299539E-005
  1.801641472631536E-005
  1.801780627708728E-005
  1.801577479479594E-005
  1.801031397885176E-005
  1.800139868655862E-005
  1.798896132040079E-005
  1.797292391859217E-005
  1.795328422552051E-005
  1.793000498971574E-005
  1.790297635845620E-005
  1.787217311656428E-005
  1.783764896723172E-005
  1.779952348319517E-005
  1.796778830181812E-005
  1.797654198488774E-005
  1.798252194884126E-005
  1.798559206650608E-005
  1.798565242319988E-005
  1.798260633704348E-005
  1.797635349825972E-005
  1.796679050520157E-005
  1.795379594315215E-005
  1.793729021466130E-005
  1.791728396073174E-005
  1.789371301109125E-005
  1.786647836434472E-005
  1.783558490938597E-005
  1.780111310897905E-005
  1.792844164262053E-005
  1.793775018518542E-005
  1.794502175081855E-005
  1.794997300317487E-005
  1.795237712560056E-005
  1.795203397049303E-005
  1.794876021940865E-005
  1.794239172592131E-005
  1.793278985269285E-005
  1.791983848609728E-005
  1.790348915103143E-005
  1.788375843931463E-005
  1.786056476445474E-005
  1.783380423664159E-005
  1.780348538640887E-005
  1.788557581499383E-005
  1.789538341947354E-005
  1.790399092935765E-005
  1.791094178268080E-005
  1.791586060789594E-005
  1.791843083546026E-005
  1.791838687165011E-005
  1.791551377090441E-005
  1.790964753866681E-005
  1.790066829923863E-005
  1.788848798353710E-005
  1.787307666744864E-005
  1.785441993927964E-005
  1.783236851490886E-005
  1.780676643292133E-005
  1.783962010111963E-005
  1.784976796495857E-005
  1.785962726447302E-005
  1.786856011745154E-005
  1.787603551731241E-005
  1.788161779763616E-005
  1.788496480544850E-005
  1.788582486797887E-005
  1.788402489751530E-005
  1.787944757397792E-005
  1.787199892598585E-005
  1.786157171582512E-005
  1.784806682929557E-005
  1.783133152469186E-005
  1.781107429956100E-005
  1.779122749809594E-005
  1.780141428466335E-005
  1.781226460623087E-005
  1.782297217443108E-005
  1.783286294165146E-005
  1.784139789819127E-005
  1.784817689593150E-005
  1.785293461539629E-005
  1.785551136033142E-005
  1.785580109364394E-005
  1.785368858963255E-005
  1.784899525277546E-005
  1.784145186969493E-005
  1.783075853812494E-005
  1.781651308315659E-005
  1.774125348751714E-005
  1.775101747008933E-005
  1.776238608323826E-005
  1.777441813249924E-005
  1.778634726433291E-005
  1.779756752784054E-005
  1.780766229350326E-005
  1.781639236129402E-005
  1.782363718864000E-005
  1.782930152295794E-005
  1.783321845545003E-005
  1.783508122792847E-005
  1.783442140290589E-005
  1.783066195061225E-005
  1.782317284157292E-005
  1.769085749147637E-005
  1.769946088722809E-005
  1.771060677744680E-005
  1.772324473602294E-005
  1.773655535777192E-005
  1.774994308639003E-005
  1.776304933177708E-005
  1.777572033874059E-005
  1.778790122984172E-005
  1.779948904223632E-005
  1.781020855822838E-005
  1.781954910123783E-005
  1.782676694923558E-005
  1.783093856585855E-005
  1.783106983130813E-005
  1.764141098970421E-005
  1.764788339142459E-005
  1.765770012741193E-005
  1.766989908748165E-005
  1.768363871506255E-005
  1.769840728312075E-005
  1.771401926785964E-005
  1.773048836150687E-005
  1.774783687796410E-005
  1.776590656456586E-005
  1.778423546542836E-005
  1.780202799678772E-005
  1.781818770558130E-005
  1.783137391198701E-005
  1.784012288132150E-005
  1.759378322141502E-005
  1.759734694521435E-005
  1.760466183419961E-005
  1.761500539288751E-005
  1.762786577249890E-005
  1.764297853463028E-005
  1.766042100024966E-005
  1.768043985138488E-005
  1.770311102316324E-005
  1.772814342981695E-005
  1.775481804621203E-005
  1.778200457467737E-005
  1.780820790500835E-005
  1.783161300809747E-005
  1.785015885655156E-005
  1.754880614972124E-005
  1.754848628074386E-005
  1.755219140323010E-005
  1.755932092343673E-005
  1.756976209860731E-005
  1.758394789543743E-005
  1.760245375455419E-005
  1.762567604530083E-005
  1.765364694395133E-005
  1.768588041236042E-005
  1.772139764587566E-005
  1.775876796398136E-005
  1.779610956887066E-005
  1.783107583193557E-005
  1.786087157490452E-005
  1.750726743752793E-005
  1.750185307721311E-005
  1.750060378177446E-005
  1.750318585822512E-005
  1.751000314349492E-005
  1.752217899601347E-005
  1.754094083217676E-005
  1.756685859479552E-005
  1.759974882673022E-005
  1.763894055713017E-005
  1.768333813576391E-005
  1.773136852000486E-005
  1.778085769725764E-005
  1.782890707385235E-005
  1.787182307618300E-005
  1.746967056217211E-005
  1.745773395965776E-005
  1.745002079331428E-005
  1.744674682029343E-005
  1.744919772901833E-005
  1.745907804653262E-005
  1.747763130789376E-005
  1.750539051722713E-005
  1.754218947894632E-005
  1.758737942498379E-005
  1.764000466961755E-005
  1.769863882132791E-005
  1.776106414994824E-005
  1.782390358517083E-005
  1.788239948545257E-005
  1.743613514390305E-005
  1.741590929597968E-005
  1.740020700127414E-005
  1.739031769017859E-005
  1.738852180469923E-005
  1.739649412617847E-005
  1.741478535608039E-005
  1.744340460640181E-005
  1.748238186971999E-005
  1.753169433436766E-005
  1.759097696619121E-005
  1.765935134261516E-005
  1.773499396938700E-005
  1.781443492000979E-005
  1.789177818875922E-005
  1.740622807053586E-005
  1.737554343158416E-005
  1.735082224312278E-005
  1.733494296615962E-005
  1.733011983882922E-005
  1.733677247054465E-005
  1.735449244041957E-005
  1.738298432754276E-005
  1.742238904353161E-005
  1.747330909974805E-005
  1.753654933047500E-005
  1.761254549437440E-005
  1.770070918146568E-005
  1.779830485654740E-005
  1.789885279708103E-005
  1.737876217697718E-005
  1.733544378495342E-005
  1.730277421308525E-005
  1.728312451355850E-005
  1.727652969519638E-005
  1.728191961043871E-005
  1.729843264591460E-005
  1.732577915388777E-005
  1.736422871770136E-005
  1.741465056633197E-005
  1.747862461813637E-005
  1.755837853368486E-005
  1.765625556683016E-005
  1.777273805723794E-005
  1.790202594813468E-005
  1.735119191299554E-005
  1.729692616226820E-005
  1.725960649612331E-005
  1.723764672200707E-005
  1.722924277194105E-005
  1.723284439013274E-005
  1.724760232438382E-005
  1.727320712939423E-005
  1.730988038003042E-005
  1.735848458948428E-005
  1.742077930552088E-005
  1.749995481354285E-005
  1.760121941848461E-005
  1.773291268760203E-005
  1.789901659758624E-005
  1.732935049019686E-005
  1.726620191955140E-005
  1.722398084793538E-005
  1.719910615572496E-005
  1.718832086784783E-005
  1.718984670346423E-005
  1.720270100371831E-005
  1.722644960901601E-005
  1.726116240419758E-005
  1.730752873783429E-005
  1.736716836790944E-005
  1.744328841880183E-005
  1.754226616149189E-005
  1.767704355564062E-005
  1.788257415043839E-005
SCALARS elementIsPlast double 
LOOKUP_TABLE default
   1.00000000000000     
   1.00000000000000     
   1.00000000000000     
   1.00000000000000     
   1.00000000000000     
   1.00000000000000     
   1.00000000000000     
   1.00000000000000     
   1.00000000000000     
   1.00000000000000     
   1.00000000000000     
   1.00000000000000     
   1.00000000000000     
   1.00000000000000     
   1.00000000000000     
   1.00000000000000     
   1.00000000000000     
   1.00000000000000     
   1.00000000000000     
   1.00000000000000     
   1.00000000000000     
   1.00000000000000     
   1.00000000000000     
   1.00000000000000     
   1.00000000000000     
   1.00000000000000     
   1.00000000000000     
   1.00000000000000     
   1.00000000000000     
   1.00000000000000     
   1.00000000000000     
   1.00000000000000     
   1.00000000000000     
   1.00000000000000     
   1.00000000000000     
   1.00000000000000     
   1.00000000000000     
   1.00000000000000     
   1.00000000000000     
   1.00000000000000     
   1.00000000000000     
   1.00000000000000     
   1.00000000000000     
   1.00000000000000     
   1.00000000000000     
   1.00000000000000     
   1.00000000000000     
   1.00000000000000     
   1.00000000000000     
   1.00000000000000     
   1.00000000000000     
   1.00000000000000     
   1.00000000000000     
   1.00000000000000     
   1.00000000000000     
   1.00000000000000     
   1.00000000000000     
   1.00000000000000     
   1.00000000000000     
   1.00000000000000     
   1.00000000000000     
   1.00000000000000     
   1.00000000000000     
   1.00000000000000     
   1.00000000000000     
   1.00000000000000     
   1.00000000000000     
   1.00000000000000     
   1.00000000000000     
   1.00000000000000     
   1.00000000000000     
   1.00000000000000     
   1.00000000000000     
   1.00000000000000     
   1.00000000000000     
   1.00000000000000     
   1.00000000000000     
   1.00000000000000     
   1.00000000000000     
   1.00000000000000     
   1.00000000000000     
   1.00000000000000     
   1.00000000000000     
   1.00000000000000     
   1.00000000000000     
   1.00000000000000     
   1.00000000000000     
   1.00000000000000     
   1.00000000000000     
   1.00000000000000     
   1.00000000000000     
   1.00000000000000     
   1.00000000000000     
   1.00000000000000     
   1.00000000000000     
   1.00000000000000     
   1.00000000000000     
   1.00000000000000     
   1.00000000000000     
   1.00000000000000     
   1.00000000000000     
   1.00000000000000     
   1.00000000000000     
   1.00000000000000     
   1.00000000000000     
   1.00000000000000     
   1.00000000000000     
   1.00000000000000     
   1.00000000000000     
   1.00000000000000     
   1.00000000000000     
   1.00000000000000     
   1.00000000000000     
   1.00000000000000     
   1.00000000000000     
   1.00000000000000     
   1.00000000000000     
   1.00000000000000     
   1.00000000000000     
   1.00000000000000     
   1.00000000000000     
   1.00000000000000     
   1.00000000000000     
   1.00000000000000     
   1.00000000000000     
   1.00000000000000     
   1.00000000000000     
   1.00000000000000     
   1.00000000000000     
   1.00000000000000     
   1.00000000000000     
   1.00000000000000     
   1.00000000000000     
   1.00000000000000     
   1.00000000000000     
   1.00000000000000     
   1.00000000000000     
   1.00000000000000     
   1.00000000000000     
   1.00000000000000     
   1.00000000000000     
   1.00000000000000     
   1.00000000000000     
   1.00000000000000     
   1.00000000000000     
   1.00000000000000     
   1.00000000000000     
   1.00000000000000     
   1.00000000000000     
   1.00000000000000     
   1.00000000000000     
   1.00000000000000     
   1.00000000000000     
   1.00000000000000     
   1.00000000000000     
   1.00000000000000     
   1.00000000000000     
   1.00000000000000     
   1.00000000000000     
   1.00000000000000     
   1.00000000000000     
   1.00000000000000     
   1.00000000000000     
   1.00000000000000     
   1.00000000000000     
   1.00000000000000     
   1.00000000000000     
   1.00000000000000     
   1.00000000000000     
   1.00000000000000     
   1.00000000000000     
   1.00000000000000     
   1.00000000000000     
   1.00000000000000     
   1.00000000000000     
   1.00000000000000     
   1.00000000000000     
   1.00000000000000     
   1.00000000000000     
   1.00000000000000     
   1.00000000000000     
   1.00000000000000     
   1.00000000000000     
   1.00000000000000     
   1.00000000000000     
   1.00000000000000     
   1.00000000000000     
   1.00000000000000     
   1.00000000000000     
   1.00000000000000     
   1.00000000000000     
   1.00000000000000     
   1.00000000000000     
   1.00000000000000     
   1.00000000000000     
   1.00000000000000     
   1.00000000000000     
   1.00000000000000     
   1.00000000000000     
   1.00000000000000     
   1.00000000000000     
   1.00000000000000     
   1.00000000000000     
   1.00000000000000     
   1.00000000000000     
   1.00000000000000     
   1.00000000000000     
   1.00000000000000     
   1.00000000000000     
   1.00000000000000     
   1.00000000000000     
   1.00000000000000     
   1.00000000000000     
   1.00000000000000     
   1.00000000000000     
   1.00000000000000     
   1.00000000000000     
   1.00000000000000     
   1.00000000000000     
   1.00000000000000     
   1.00000000000000     
   1.00000000000000     
   1.00000000000000     
   1.00000000000000     
   1.00000000000000     
   1.00000000000000     
   1.00000000000000     
   1.00000000000000     
   1.00000000000000     
   1.00000000000000     
   1.00000000000000     
   1.00000000000000     
   1.00000000000000     
   1.00000000000000     
   1.00000000000000     
   1.00000000000000     
   1.00000000000000     
   1.00000000000000     
   1.00000000000000     
   1.00000000000000     
   1.00000000000000     
   1.00000000000000     
   1.00000000000000     
   1.00000000000000     
   1.00000000000000     
   1.00000000000000     
   1.00000000000000     
   1.00000000000000     
   1.00000000000000     
   1.00000000000000     
   1.00000000000000     
   1.00000000000000     
   1.00000000000000     
   1.00000000000000     
   1.00000000000000     
   1.00000000000000     
   1.00000000000000     
   1.00000000000000     
   1.00000000000000     
   1.00000000000000     
   1.00000000000000     
   1.00000000000000     
   1.00000000000000     
   1.00000000000000     
   1.00000000000000     
   1.00000000000000     
   1.00000000000000     
   1.00000000000000     
   1.00000000000000     
   1.00000000000000     
   1.00000000000000     
   1.00000000000000     
   1.00000000000000     
   1.00000000000000     
   1.00000000000000     
   1.00000000000000     
   1.00000000000000     
   1.00000000000000     
   1.00000000000000     
   1.00000000000000     
   1.00000000000000     
   1.00000000000000     
   1.00000000000000     
   1.00000000000000     
   1.00000000000000     
   1.00000000000000     
   1.00000000000000     
   1.00000000000000     
   1.00000000000000     
   1.00000000000000     
   1.00000000000000     
   1.00000000000000     
   1.00000000000000     
   1.00000000000000     
   1.00000000000000     
   1.00000000000000     
   1.00000000000000     
   1.00000000000000     
   1.00000000000000     
   1.00000000000000     
   1.00000000000000     
   1.00000000000000     
   1.00000000000000     
   1.00000000000000     
   1.00000000000000     
   1.00000000000000     
   1.00000000000000     
   1.00000000000000     
   1.00000000000000     
   1.00000000000000     
   1.00000000000000     
   1.00000000000000     
   1.00000000000000     
   1.00000000000000     
   1.00000000000000     
   1.00000000000000     
   1.00000000000000     
   1.00000000000000     
   1.00000000000000     
   1.00000000000000     
   1.00000000000000     
   1.00000000000000     
   1.00000000000000     
   1.00000000000000     
   1.00000000000000     
   1.00000000000000     
   1.00000000000000     
   1.00000000000000     
   1.00000000000000     
   1.00000000000000     
   1.00000000000000     
   1.00000000000000     
   1.00000000000000     
   1.00000000000000     
   1.00000000000000     
   1.00000000000000     
   1.00000000000000     
   1.00000000000000     
   1.00000000000000     
   1.00000000000000     
   1.00000000000000     
   1.00000000000000     
   1.00000000000000     
   1.00000000000000     
   1.00000000000000     
   1.00000000000000     
   1.00000000000000     
   1.00000000000000     
   1.00000000000000     
   1.00000000000000     
   1.00000000000000     
   1.00000000000000     
   1.00000000000000     
   1.00000000000000     
   1.00000000000000     
   1.00000000000000     
   1.00000000000000     
   1.00000000000000     
   1.00000000000000     
   1.00000000000000     
   1.00000000000000     
   1.00000000000000     
   1.00000000000000     
   1.00000000000000     
   1.00000000000000     
   1.00000000000000     
   1.00000000000000     
   1.00000000000000     
   1.00000000000000     
   1.00000000000000     
   1.00000000000000     
   1.00000000000000     
   1.00000000000000     
   1.00000000000000     
   1.00000000000000     
   1.00000000000000     
   1.00000000000000     
   1.00000000000000     
   1.00000000000000     
   1.00000000000000     
   1.00000000000000     
   1.00000000000000     
   1.00000000000000     
   1.00000000000000     
   1.00000000000000     
   1.00000000000000     
   1.00000000000000     
   1.00000000000000     
   1.00000000000000     
   1.00000000000000     
   1.00000000000000     
   1.00000000000000     
   1.00000000000000     
   1.00000000000000     
   1.00000000000000     
   1.00000000000000     
   1.00000000000000     
   1.00000000000000     
   1.00000000000000     
   1.00000000000000     
   1.00000000000000     
   1.00000000000000     
   1.00000000000000     
   1.00000000000000     
   1.00000000000000     
   1.00000000000000     
   1.00000000000000     
   1.00000000000000     
   1.00000000000000     
   1.00000000000000     
   1.00000000000000     
   1.00000000000000     
   1.00000000000000     
   1.00000000000000     
   1.00000000000000     
   1.00000000000000     
   1.00000000000000     
   1.00000000000000     
   1.00000000000000     
   1.00000000000000     
   1.00000000000000     
   1.00000000000000     
   1.00000000000000     
   1.00000000000000     
   1.00000000000000     
   1.00000000000000     
   1.00000000000000     
   1.00000000000000     
   1.00000000000000     
   1.00000000000000     
   1.00000000000000     
   1.00000000000000     
   1.00000000000000     
   1.00000000000000     
   1.00000000000000     
   1.00000000000000     
   1.00000000000000     
   1.00000000000000     
   1.00000000000000     
   1.00000000000000     
   1.00000000000000     
   1.00000000000000     
   1.00000000000000     
   1.00000000000000     
   1.00000000000000     
   1.00000000000000     
   1.00000000000000     
   1.00000000000000     
   1.00000000000000     
   1.00000000000000     
SCALARS poroL double 
LOOKUP_TABLE default
  0.155786807564789     
  0.155786819950430     
  0.155786830570963     
  0.155786839117038     
  0.155786845288990     
  0.155786848807075     
  0.155786849407597     
  0.155786846862929     
  0.155786841010614     
  0.155786831743576     
  0.155786819012225     
  0.155786802831159     
  0.155786783286087     
  0.155786760541220     
  0.155786734844855     
  0.155786805743374     
  0.155786818223764     
  0.155786829007008     
  0.155786837764437     
  0.155786844179388     
  0.155786847960292     
  0.155786848832296     
  0.155786846558019     
  0.155786840964080     
  0.155786831933231     
  0.155786819408980     
  0.155786803399378     
  0.155786783984338     
  0.155786761322772     
  0.155786735658513     
  0.155786802065354     
  0.155786814733745     
  0.155786825841388     
  0.155786835021237     
  0.155786841921984     
  0.155786846222521     
  0.155786847637121     
  0.155786845907959     
  0.155786840827185     
  0.155786832266758     
  0.155786820154438     
  0.155786804485085     
  0.155786785326688     
  0.155786762827651     
  0.155786737223028     
  0.155786796460128     
  0.155786809406841     
  0.155786820998298     
  0.155786830810023     
  0.155786838440967     
  0.155786843530612     
  0.155786845754116     
  0.155786844825982     
  0.155786840511718     
  0.155786832652399     
  0.155786821152786     
  0.155786805987039     
  0.155786787204768     
  0.155786764938704     
  0.155786739411856     
  0.155786788821283     
  0.155786802132364     
  0.155786814364715     
  0.155786825014418     
  0.155786833613726     
  0.155786839747266     
  0.155786843046227     
  0.155786843182310     
  0.155786839884346     
  0.155786832952716     
  0.155786822260442     
  0.155786807753167     
  0.155786789456151     
  0.155786767480796     
  0.155786742035469     
  0.155786779004173     
  0.155786792765231     
  0.155786805788702     
  0.155786817475919     
  0.155786827279249     
  0.155786834699138     
  0.155786839332211     
  0.155786840801537     
  0.155786838766663     
  0.155786832983888     
  0.155786823284922     
  0.155786809579850     
  0.155786791863198     
  0.155786770221906     
  0.155786744843751     
  0.155786766874407     
  0.155786781127849     
  0.155786795077397     
  0.155786807995856     
  0.155786819231356     
  0.155786828205665     
  0.155786834425908     
  0.155786837464254     
  0.155786836935588     
  0.155786832513220     
  0.155786823983054     
  0.155786811210460     
  0.155786794152845     
  0.155786772867243     
  0.155786747520049     
  0.155786752202995     
  0.155786767015280     
  0.155786782007081     
  0.155786796335445     
  0.155786809226466     
  0.155786819998264     
  0.155786828061765     
  0.155786832918299     
  0.155786834116923     
  0.155786831257468     
  0.155786824059139     
  0.155786812333605     
  0.155786795993288     
  0.155786775062182     
  0.155786749684775     
  0.155786734737848     
  0.155786750166336     
  0.155786766318619     
  0.155786782218668     
  0.155786796974248     
  0.155786809778131     
  0.155786819926750     
  0.155786826839690     
  0.155786829984385     
  0.155786828880130     
  0.155786823162795     
  0.155786812578588     
  0.155786796990582     
  0.155786776386757     
  0.155786750890782     
  0.155786714218707     
  0.155786730299381     
  0.155786747718442     
  0.155786765341239     
  0.155786782146798     
  0.155786797205854     
  0.155786809677235     
  0.155786818865162     
  0.155786824157455     
  0.155786824991184     
  0.155786820880106     
  0.155786811508786     
  0.155786796682559     
  0.155786776351182     
  0.155786750620610     
  0.155786690382564     
  0.155786707124975     
  0.155786725888761     
  0.155786745367331     
  0.155786764392491     
  0.155786781903498     
  0.155786796928312     
  0.155786808607263     
  0.155786816224969     
  0.155786819126122     
  0.155786816726736     
  0.155786808613924     
  0.155786794530282     
  0.155786774388912     
  0.155786748281305     
  0.155786662983343     
  0.155786680370493     
  0.155786700512643     
  0.155786721943286     
  0.155786743329970     
  0.155786763461969     
  0.155786781223642     
  0.155786795573873     
  0.155786805665157     
  0.155786810748408     
  0.155786810140371     
  0.155786803296122     
  0.155786789907275     
  0.155786769848466     
  0.155786743200887     
  0.155786631822531     
  0.155786649798233     
  0.155786671303981     
  0.155786694722767     
  0.155786718562238     
  0.155786741438282     
  0.155786762070687     
  0.155786779271588     
  0.155786791953234     
  0.155786799264935     
  0.155786800449678     
  0.155786794857307     
  0.155786782087689     
  0.155786761985267     
  0.155786734627490     
  0.155786596785478     
  0.155786615242783     
  0.155786638026808     
  0.155786663390018     
  0.155786689692281     
  0.155786715371558     
  0.155786738948411     
  0.155786759052367     
  0.155786774418882     
  0.155786783964223     
  0.155786786881581     
  0.155786782478805     
  0.155786770232226     
  0.155786749960613     
  0.155786721732409     
  0.155786557884458     
  0.155786576649927     
  0.155786600533476     
  0.155786627690252     
  0.155786656344842     
  0.155786684764171     
  0.155786711265402     
  0.155786734248428     
  0.155786752264879     
  0.155786764041241     
  0.155786768574193     
  0.155786765195538     
  0.155786753383264     
  0.155786732836644     
  0.155786703623214     
  0.155786515302587     
  0.155786534119802     
  0.155786558805295     
  0.155786587459825     
  0.155786618196159     
  0.155786649118367     
  0.155786678342232     
  0.155786704051518     
  0.155786724567683     
  0.155786738442761     
  0.155786744512205     
  0.155786741981897     
  0.155786730438207     
  0.155786709598113     
  0.155786679380770     
  0.155786469432898     
  0.155786487946048     
  0.155786512992347     
  0.155786542662340     
  0.155786574990895     
  0.155786607945821     
  0.155786639457381     
  0.155786667493717     
  0.155786690171494     
  0.155786705868239     
  0.155786713313973     
  0.155786711610940     
  0.155786700277825     
  0.155786679144560     
  0.155786648100643     
  0.155786420899549     
  0.155786438647416     
  0.155786463444152     
  0.155786493416288     
  0.155786526566420     
  0.155786560769344     
  0.155786593810348     
  0.155786623482463     
  0.155786647732111     
  0.155786664807269     
  0.155786673357226     
  0.155786672459978     
  0.155786661549053     
  0.155786640397168     
  0.155786608871454     
  0.155786370570810     
  0.155786386962329     
  0.155786410718880     
  0.155786440014605     
  0.155786472867432     
  0.155786507126204     
  0.155786540506147     
  0.155786570721453     
  0.155786595647002     
  0.155786613485521     
  0.155786622866254     
  0.155786622837065     
  0.155786612773018     
  0.155786592252505     
  0.155786560939199     
  0.155786319524643     
  0.155786333846972     
  0.155786355570337     
  0.155786382904024     
  0.155786413947359     
  0.155786446557346     
  0.155786478527505     
  0.155786507675091     
  0.155786532005507     
  0.155786549829745     
  0.155786559818417     
  0.155786560964637     
  0.155786552471743     
  0.155786533619794     
  0.155786503697252     
  0.155786269362013     
  0.155786280484810     
  0.155786298848110     
  0.155786322668001     
  0.155786349902234     
  0.155786378568971     
  0.155786406699094     
  0.155786432548275     
  0.155786454593970     
  0.155786471491271     
  0.155786482005055     
  0.155786484964176     
  0.155786479217906     
  0.155786463557342     
  0.155786436691466     
  0.155786220706547     
  0.155786227996519     
  0.155786241605820     
  0.155786259840986     
  0.155786280786475     
  0.155786302513460     
  0.155786323645315     
  0.155786343329352     
  0.155786361003810     
  0.155786375972016     
  0.155786387119630     
  0.155786392927809     
  0.155786391621423     
  0.155786381264867     
  0.155786359742333     
  0.155786174501509     
  0.155786176909157     
  0.155786184396066     
  0.155786194884206     
  0.155786206333788     
  0.155786217414210     
  0.155786227758249     
  0.155786237969314     
  0.155786248935213     
  0.155786260889861     
  0.155786272907571     
  0.155786282942770     
  0.155786288290296     
  0.155786285961290     
  0.155786272785438     
  0.155786131533782     
  0.155786127846969     
  0.155786127290549     
  0.155786127238474     
  0.155786125551375     
  0.155786121718191     
  0.155786117264171     
  0.155786114789667     
  0.155786116726631     
  0.155786124427459     
  0.155786137366577     
  0.155786153077165     
  0.155786167699392     
  0.155786176820170     
  0.155786175846303     
  0.155786092329359     
  0.155786080969398     
  0.155786069805439     
  0.155786055362483     
  0.155786035958265     
  0.155786013089868     
  0.155785990610530     
  0.155785973025042     
  0.155785964043472     
  0.155785965912686     
  0.155785979082630     
  0.155786001370572     
  0.155786027983802     
  0.155786052683542     
  0.155786068864670     
  0.155786057030867     
  0.155786035740381     
  0.155786010033692     
  0.155785975835072     
  0.155785933735856     
  0.155785888778971     
  0.155785847020364     
  0.155785813485733     
  0.155785792236087     
  0.155785786440850     
  0.155785797858106     
  0.155785826009535     
  0.155785866660537     
  0.155785911671635     
  0.155785951492809     
  0.155786025255472     
  0.155785990172818     
  0.155785943405210     
  0.155785882627561     
  0.155785814425339     
  0.155785747126940     
  0.155785686909802     
  0.155785638172185     
  0.155785604444015     
  0.155785589086625     
  0.155785595533925     
  0.155785626295399     
  0.155785680421196     
  0.155785750552014     
  0.155785822576739     
  0.155785995350223     
  0.155785938976703     
  0.155785860533176     
  0.155785768591288     
  0.155785675374519     
  0.155785588455445     
  0.155785512186187     
  0.155785449745702     
  0.155785404048405     
  0.155785378311329     
  0.155785376566449     
  0.155785404116376     
  0.155785466690541     
  0.155785563210070     
  0.155785679658006     
  0.155785962634226     
  0.155785866656728     
  0.155785750035933     
  0.155785630358350     
  0.155785517225976     
  0.155785414679333     
  0.155785325300049     
  0.155785251193255     
  0.155785194597915     
  0.155785158374156     
  0.155785146614849     
  0.155785165666776     
  0.155785225625518     
  0.155785343112134     
  0.155785513822880     
  0.155785895657995     
  0.155785754954168     
  0.155785608396200     
  0.155785469801763     
  0.155785342456663     
  0.155785228288370     
  0.155785128713694     
  0.155785045119956     
  0.155784979177504     
  0.155784933250330     
  0.155784911039233     
  0.155784918742619     
  0.155784967726519     
  0.155785080584952     
  0.155785322947128     
