# vtk DataFile Version 3.0
vtk output
ASCII
DATASET UNSTRUCTURED_GRID
POINTS       496 double 
  0.00000000E+00  3.00000000E+02  0.00000000E+00
  0.00000000E+00  2.80000000E+02  0.00000000E+00
  0.00000000E+00  2.60000000E+02  0.00000000E+00
  0.00000000E+00  2.40000000E+02  0.00000000E+00
  0.00000000E+00  2.20000000E+02  0.00000000E+00
  0.00000000E+00  2.00000000E+02  0.00000000E+00
  0.00000000E+00  1.80000000E+02  0.00000000E+00
  0.00000000E+00  1.60000000E+02  0.00000000E+00
  0.00000000E+00  1.40000000E+02  0.00000000E+00
  0.00000000E+00  1.20000000E+02  0.00000000E+00
  0.00000000E+00  1.00000000E+02  0.00000000E+00
  0.00000000E+00  8.00000000E+01  0.00000000E+00
  0.00000000E+00  6.00000000E+01  0.00000000E+00
  0.00000000E+00  4.00000000E+01  0.00000000E+00
  0.00000000E+00  2.00000000E+01  0.00000000E+00
  0.00000000E+00  4.99600361E-14  0.00000000E+00
  2.00000000E+01  3.00000000E+02  0.00000000E+00
  2.00000000E+01  2.80000000E+02  0.00000000E+00
  2.00000000E+01  2.60000000E+02  0.00000000E+00
  2.00000000E+01  2.40000000E+02  0.00000000E+00
  2.00000000E+01  2.20000000E+02  0.00000000E+00
  2.00000000E+01  2.00000000E+02  0.00000000E+00
  2.00000000E+01  1.80000000E+02  0.00000000E+00
  2.00000000E+01  1.60000000E+02  0.00000000E+00
  2.00000000E+01  1.40000000E+02  0.00000000E+00
  2.00000000E+01  1.20000000E+02  0.00000000E+00
  2.00000000E+01  1.00000000E+02  0.00000000E+00
  2.00000000E+01  8.00000000E+01  0.00000000E+00
  2.00000000E+01  6.00000000E+01  0.00000000E+00
  2.00000000E+01  4.00000000E+01  0.00000000E+00
  2.00000000E+01  2.00000000E+01  0.00000000E+00
  2.00000000E+01  4.99600361E-14  0.00000000E+00
  4.00000000E+01  3.00000000E+02  0.00000000E+00
  4.00000000E+01  2.80000000E+02  0.00000000E+00
  4.00000000E+01  2.60000000E+02  0.00000000E+00
  4.00000000E+01  2.40000000E+02  0.00000000E+00
  4.00000000E+01  2.20000000E+02  0.00000000E+00
  4.00000000E+01  2.00000000E+02  0.00000000E+00
  4.00000000E+01  1.80000000E+02  0.00000000E+00
  4.00000000E+01  1.60000000E+02  0.00000000E+00
  4.00000000E+01  1.40000000E+02  0.00000000E+00
  4.00000000E+01  1.20000000E+02  0.00000000E+00
  4.00000000E+01  1.00000000E+02  0.00000000E+00
  4.00000000E+01  8.00000000E+01  0.00000000E+00
  4.00000000E+01  6.00000000E+01  0.00000000E+00
  4.00000000E+01  4.00000000E+01  0.00000000E+00
  4.00000000E+01  2.00000000E+01  0.00000000E+00
  4.00000000E+01  4.99600361E-14  0.00000000E+00
  6.00000000E+01  3.00000000E+02  0.00000000E+00
  6.00000000E+01  2.80000000E+02  0.00000000E+00
  6.00000000E+01  2.60000000E+02  0.00000000E+00
  6.00000000E+01  2.40000000E+02  0.00000000E+00
  6.00000000E+01  2.20000000E+02  0.00000000E+00
  6.00000000E+01  2.00000000E+02  0.00000000E+00
  6.00000000E+01  1.80000000E+02  0.00000000E+00
  6.00000000E+01  1.60000000E+02  0.00000000E+00
  6.00000000E+01  1.40000000E+02  0.00000000E+00
  6.00000000E+01  1.20000000E+02  0.00000000E+00
  6.00000000E+01  1.00000000E+02  0.00000000E+00
  6.00000000E+01  8.00000000E+01  0.00000000E+00
  6.00000000E+01  6.00000000E+01  0.00000000E+00
  6.00000000E+01  4.00000000E+01  0.00000000E+00
  6.00000000E+01  2.00000000E+01  0.00000000E+00
  6.00000000E+01  4.99600361E-14  0.00000000E+00
  8.00000000E+01  3.00000000E+02  0.00000000E+00
  8.00000000E+01  2.80000000E+02  0.00000000E+00
  8.00000000E+01  2.60000000E+02  0.00000000E+00
  8.00000000E+01  2.40000000E+02  0.00000000E+00
  8.00000000E+01  2.20000000E+02  0.00000000E+00
  8.00000000E+01  2.00000000E+02  0.00000000E+00
  8.00000000E+01  1.80000000E+02  0.00000000E+00
  8.00000000E+01  1.60000000E+02  0.00000000E+00
  8.00000000E+01  1.40000000E+02  0.00000000E+00
  8.00000000E+01  1.20000000E+02  0.00000000E+00
  8.00000000E+01  1.00000000E+02  0.00000000E+00
  8.00000000E+01  8.00000000E+01  0.00000000E+00
  8.00000000E+01  6.00000000E+01  0.00000000E+00
  8.00000000E+01  4.00000000E+01  0.00000000E+00
  8.00000000E+01  2.00000000E+01  0.00000000E+00
  8.00000000E+01  4.99600361E-14  0.00000000E+00
  1.00000000E+02  3.00000000E+02  0.00000000E+00
  1.00000000E+02  2.80000000E+02  0.00000000E+00
  1.00000000E+02  2.60000000E+02  0.00000000E+00
  1.00000000E+02  2.40000000E+02  0.00000000E+00
  1.00000000E+02  2.20000000E+02  0.00000000E+00
  1.00000000E+02  2.00000000E+02  0.00000000E+00
  1.00000000E+02  1.80000000E+02  0.00000000E+00
  1.00000000E+02  1.60000000E+02  0.00000000E+00
  1.00000000E+02  1.40000000E+02  0.00000000E+00
  1.00000000E+02  1.20000000E+02  0.00000000E+00
  1.00000000E+02  1.00000000E+02  0.00000000E+00
  1.00000000E+02  8.00000000E+01  0.00000000E+00
  1.00000000E+02  6.00000000E+01  0.00000000E+00
  1.00000000E+02  4.00000000E+01  0.00000000E+00
  1.00000000E+02  2.00000000E+01  0.00000000E+00
  1.00000000E+02  4.99600361E-14  0.00000000E+00
  1.20000000E+02  3.00000000E+02  0.00000000E+00
  1.20000000E+02  2.80000000E+02  0.00000000E+00
  1.20000000E+02  2.60000000E+02  0.00000000E+00
  1.20000000E+02  2.40000000E+02  0.00000000E+00
  1.20000000E+02  2.20000000E+02  0.00000000E+00
  1.20000000E+02  2.00000000E+02  0.00000000E+00
  1.20000000E+02  1.80000000E+02  0.00000000E+00
  1.20000000E+02  1.60000000E+02  0.00000000E+00
  1.20000000E+02  1.40000000E+02  0.00000000E+00
  1.20000000E+02  1.20000000E+02  0.00000000E+00
  1.20000000E+02  1.00000000E+02  0.00000000E+00
  1.20000000E+02  8.00000000E+01  0.00000000E+00
  1.20000000E+02  6.00000000E+01  0.00000000E+00
  1.20000000E+02  4.00000000E+01  0.00000000E+00
  1.20000000E+02  2.00000000E+01  0.00000000E+00
  1.20000000E+02  4.99600361E-14  0.00000000E+00
  1.40000000E+02  3.00000000E+02  0.00000000E+00
  1.40000000E+02  2.80000000E+02  0.00000000E+00
  1.40000000E+02  2.60000000E+02  0.00000000E+00
  1.40000000E+02  2.40000000E+02  0.00000000E+00
  1.40000000E+02  2.20000000E+02  0.00000000E+00
  1.40000000E+02  2.00000000E+02  0.00000000E+00
  1.40000000E+02  1.80000000E+02  0.00000000E+00
  1.40000000E+02  1.60000000E+02  0.00000000E+00
  1.40000000E+02  1.40000000E+02  0.00000000E+00
  1.40000000E+02  1.20000000E+02  0.00000000E+00
  1.40000000E+02  1.00000000E+02  0.00000000E+00
  1.40000000E+02  8.00000000E+01  0.00000000E+00
  1.40000000E+02  6.00000000E+01  0.00000000E+00
  1.40000000E+02  4.00000000E+01  0.00000000E+00
  1.40000000E+02  2.00000000E+01  0.00000000E+00
  1.40000000E+02  4.99600361E-14  0.00000000E+00
  1.60000000E+02  3.00000000E+02  0.00000000E+00
  1.60000000E+02  2.80000000E+02  0.00000000E+00
  1.60000000E+02  2.60000000E+02  0.00000000E+00
  1.60000000E+02  2.40000000E+02  0.00000000E+00
  1.60000000E+02  2.20000000E+02  0.00000000E+00
  1.60000000E+02  2.00000000E+02  0.00000000E+00
  1.60000000E+02  1.80000000E+02  0.00000000E+00
  1.60000000E+02  1.60000000E+02  0.00000000E+00
  1.60000000E+02  1.40000000E+02  0.00000000E+00
  1.60000000E+02  1.20000000E+02  0.00000000E+00
  1.60000000E+02  1.00000000E+02  0.00000000E+00
  1.60000000E+02  8.00000000E+01  0.00000000E+00
  1.60000000E+02  6.00000000E+01  0.00000000E+00
  1.60000000E+02  4.00000000E+01  0.00000000E+00
  1.60000000E+02  2.00000000E+01  0.00000000E+00
  1.60000000E+02  4.99600361E-14  0.00000000E+00
  1.80000000E+02  3.00000000E+02  0.00000000E+00
  1.80000000E+02  2.80000000E+02  0.00000000E+00
  1.80000000E+02  2.60000000E+02  0.00000000E+00
  1.80000000E+02  2.40000000E+02  0.00000000E+00
  1.80000000E+02  2.20000000E+02  0.00000000E+00
  1.80000000E+02  2.00000000E+02  0.00000000E+00
  1.80000000E+02  1.80000000E+02  0.00000000E+00
  1.80000000E+02  1.60000000E+02  0.00000000E+00
  1.80000000E+02  1.40000000E+02  0.00000000E+00
  1.80000000E+02  1.20000000E+02  0.00000000E+00
  1.80000000E+02  1.00000000E+02  0.00000000E+00
  1.80000000E+02  8.00000000E+01  0.00000000E+00
  1.80000000E+02  6.00000000E+01  0.00000000E+00
  1.80000000E+02  4.00000000E+01  0.00000000E+00
  1.80000000E+02  2.00000000E+01  0.00000000E+00
  1.80000000E+02  4.99600361E-14  0.00000000E+00
  2.00000000E+02  3.00000000E+02  0.00000000E+00
  2.00000000E+02  2.80000000E+02  0.00000000E+00
  2.00000000E+02  2.60000000E+02  0.00000000E+00
  2.00000000E+02  2.40000000E+02  0.00000000E+00
  2.00000000E+02  2.20000000E+02  0.00000000E+00
  2.00000000E+02  2.00000000E+02  0.00000000E+00
  2.00000000E+02  1.80000000E+02  0.00000000E+00
  2.00000000E+02  1.60000000E+02  0.00000000E+00
  2.00000000E+02  1.40000000E+02  0.00000000E+00
  2.00000000E+02  1.20000000E+02  0.00000000E+00
  2.00000000E+02  1.00000000E+02  0.00000000E+00
  2.00000000E+02  8.00000000E+01  0.00000000E+00
  2.00000000E+02  6.00000000E+01  0.00000000E+00
  2.00000000E+02  4.00000000E+01  0.00000000E+00
  2.00000000E+02  2.00000000E+01  0.00000000E+00
  2.00000000E+02  4.99600361E-14  0.00000000E+00
  2.20000000E+02  3.00000000E+02  0.00000000E+00
  2.20000000E+02  2.80000000E+02  0.00000000E+00
  2.20000000E+02  2.60000000E+02  0.00000000E+00
  2.20000000E+02  2.40000000E+02  0.00000000E+00
  2.20000000E+02  2.20000000E+02  0.00000000E+00
  2.20000000E+02  2.00000000E+02  0.00000000E+00
  2.20000000E+02  1.80000000E+02  0.00000000E+00
  2.20000000E+02  1.60000000E+02  0.00000000E+00
  2.20000000E+02  1.40000000E+02  0.00000000E+00
  2.20000000E+02  1.20000000E+02  0.00000000E+00
  2.20000000E+02  1.00000000E+02  0.00000000E+00
  2.20000000E+02  8.00000000E+01  0.00000000E+00
  2.20000000E+02  6.00000000E+01  0.00000000E+00
  2.20000000E+02  4.00000000E+01  0.00000000E+00
  2.20000000E+02  2.00000000E+01  0.00000000E+00
  2.20000000E+02  4.99600361E-14  0.00000000E+00
  2.40000000E+02  3.00000000E+02  0.00000000E+00
  2.40000000E+02  2.80000000E+02  0.00000000E+00
  2.40000000E+02  2.60000000E+02  0.00000000E+00
  2.40000000E+02  2.40000000E+02  0.00000000E+00
  2.40000000E+02  2.20000000E+02  0.00000000E+00
  2.40000000E+02  2.00000000E+02  0.00000000E+00
  2.40000000E+02  1.80000000E+02  0.00000000E+00
  2.40000000E+02  1.60000000E+02  0.00000000E+00
  2.40000000E+02  1.40000000E+02  0.00000000E+00
  2.40000000E+02  1.20000000E+02  0.00000000E+00
  2.40000000E+02  1.00000000E+02  0.00000000E+00
  2.40000000E+02  8.00000000E+01  0.00000000E+00
  2.40000000E+02  6.00000000E+01  0.00000000E+00
  2.40000000E+02  4.00000000E+01  0.00000000E+00
  2.40000000E+02  2.00000000E+01  0.00000000E+00
  2.40000000E+02  4.99600361E-14  0.00000000E+00
  2.60000000E+02  3.00000000E+02  0.00000000E+00
  2.60000000E+02  2.80000000E+02  0.00000000E+00
  2.60000000E+02  2.60000000E+02  0.00000000E+00
  2.60000000E+02  2.40000000E+02  0.00000000E+00
  2.60000000E+02  2.20000000E+02  0.00000000E+00
  2.60000000E+02  2.00000000E+02  0.00000000E+00
  2.60000000E+02  1.80000000E+02  0.00000000E+00
  2.60000000E+02  1.60000000E+02  0.00000000E+00
  2.60000000E+02  1.40000000E+02  0.00000000E+00
  2.60000000E+02  1.20000000E+02  0.00000000E+00
  2.60000000E+02  1.00000000E+02  0.00000000E+00
  2.60000000E+02  8.00000000E+01  0.00000000E+00
  2.60000000E+02  6.00000000E+01  0.00000000E+00
  2.60000000E+02  4.00000000E+01  0.00000000E+00
  2.60000000E+02  2.00000000E+01  0.00000000E+00
  2.60000000E+02  4.99600361E-14  0.00000000E+00
  2.80000000E+02  3.00000000E+02  0.00000000E+00
  2.80000000E+02  2.80000000E+02  0.00000000E+00
  2.80000000E+02  2.60000000E+02  0.00000000E+00
  2.80000000E+02  2.40000000E+02  0.00000000E+00
  2.80000000E+02  2.20000000E+02  0.00000000E+00
  2.80000000E+02  2.00000000E+02  0.00000000E+00
  2.80000000E+02  1.80000000E+02  0.00000000E+00
  2.80000000E+02  1.60000000E+02  0.00000000E+00
  2.80000000E+02  1.40000000E+02  0.00000000E+00
  2.80000000E+02  1.20000000E+02  0.00000000E+00
  2.80000000E+02  1.00000000E+02  0.00000000E+00
  2.80000000E+02  8.00000000E+01  0.00000000E+00
  2.80000000E+02  6.00000000E+01  0.00000000E+00
  2.80000000E+02  4.00000000E+01  0.00000000E+00
  2.80000000E+02  2.00000000E+01  0.00000000E+00
  2.80000000E+02  4.99600361E-14  0.00000000E+00
  3.00000000E+02  3.00000000E+02  0.00000000E+00
  3.00000000E+02  2.80000000E+02  0.00000000E+00
  3.00000000E+02  2.60000000E+02  0.00000000E+00
  3.00000000E+02  2.40000000E+02  0.00000000E+00
  3.00000000E+02  2.20000000E+02  0.00000000E+00
  3.00000000E+02  2.00000000E+02  0.00000000E+00
  3.00000000E+02  1.80000000E+02  0.00000000E+00
  3.00000000E+02  1.60000000E+02  0.00000000E+00
  3.00000000E+02  1.40000000E+02  0.00000000E+00
  3.00000000E+02  1.20000000E+02  0.00000000E+00
  3.00000000E+02  1.00000000E+02  0.00000000E+00
  3.00000000E+02  8.00000000E+01  0.00000000E+00
  3.00000000E+02  6.00000000E+01  0.00000000E+00
  3.00000000E+02  4.00000000E+01  0.00000000E+00
  3.00000000E+02  2.00000000E+01  0.00000000E+00
  3.00000000E+02  4.99600361E-14  0.00000000E+00
  3.20000000E+02  3.00000000E+02  0.00000000E+00
  3.20000000E+02  2.80000000E+02  0.00000000E+00
  3.20000000E+02  2.60000000E+02  0.00000000E+00
  3.20000000E+02  2.40000000E+02  0.00000000E+00
  3.20000000E+02  2.20000000E+02  0.00000000E+00
  3.20000000E+02  2.00000000E+02  0.00000000E+00
  3.20000000E+02  1.80000000E+02  0.00000000E+00
  3.20000000E+02  1.60000000E+02  0.00000000E+00
  3.20000000E+02  1.40000000E+02  0.00000000E+00
  3.20000000E+02  1.20000000E+02  0.00000000E+00
  3.20000000E+02  1.00000000E+02  0.00000000E+00
  3.20000000E+02  8.00000000E+01  0.00000000E+00
  3.20000000E+02  6.00000000E+01  0.00000000E+00
  3.20000000E+02  4.00000000E+01  0.00000000E+00
  3.20000000E+02  2.00000000E+01  0.00000000E+00
  3.20000000E+02  4.99600361E-14  0.00000000E+00
  3.40000000E+02  3.00000000E+02  0.00000000E+00
  3.40000000E+02  2.80000000E+02  0.00000000E+00
  3.40000000E+02  2.60000000E+02  0.00000000E+00
  3.40000000E+02  2.40000000E+02  0.00000000E+00
  3.40000000E+02  2.20000000E+02  0.00000000E+00
  3.40000000E+02  2.00000000E+02  0.00000000E+00
  3.40000000E+02  1.80000000E+02  0.00000000E+00
  3.40000000E+02  1.60000000E+02  0.00000000E+00
  3.40000000E+02  1.40000000E+02  0.00000000E+00
  3.40000000E+02  1.20000000E+02  0.00000000E+00
  3.40000000E+02  1.00000000E+02  0.00000000E+00
  3.40000000E+02  8.00000000E+01  0.00000000E+00
  3.40000000E+02  6.00000000E+01  0.00000000E+00
  3.40000000E+02  4.00000000E+01  0.00000000E+00
  3.40000000E+02  2.00000000E+01  0.00000000E+00
  3.40000000E+02  4.99600361E-14  0.00000000E+00
  3.60000000E+02  3.00000000E+02  0.00000000E+00
  3.60000000E+02  2.80000000E+02  0.00000000E+00
  3.60000000E+02  2.60000000E+02  0.00000000E+00
  3.60000000E+02  2.40000000E+02  0.00000000E+00
  3.60000000E+02  2.20000000E+02  0.00000000E+00
  3.60000000E+02  2.00000000E+02  0.00000000E+00
  3.60000000E+02  1.80000000E+02  0.00000000E+00
  3.60000000E+02  1.60000000E+02  0.00000000E+00
  3.60000000E+02  1.40000000E+02  0.00000000E+00
  3.60000000E+02  1.20000000E+02  0.00000000E+00
  3.60000000E+02  1.00000000E+02  0.00000000E+00
  3.60000000E+02  8.00000000E+01  0.00000000E+00
  3.60000000E+02  6.00000000E+01  0.00000000E+00
  3.60000000E+02  4.00000000E+01  0.00000000E+00
  3.60000000E+02  2.00000000E+01  0.00000000E+00
  3.60000000E+02  4.99600361E-14  0.00000000E+00
  3.80000000E+02  3.00000000E+02  0.00000000E+00
  3.80000000E+02  2.80000000E+02  0.00000000E+00
  3.80000000E+02  2.60000000E+02  0.00000000E+00
  3.80000000E+02  2.40000000E+02  0.00000000E+00
  3.80000000E+02  2.20000000E+02  0.00000000E+00
  3.80000000E+02  2.00000000E+02  0.00000000E+00
  3.80000000E+02  1.80000000E+02  0.00000000E+00
  3.80000000E+02  1.60000000E+02  0.00000000E+00
  3.80000000E+02  1.40000000E+02  0.00000000E+00
  3.80000000E+02  1.20000000E+02  0.00000000E+00
  3.80000000E+02  1.00000000E+02  0.00000000E+00
  3.80000000E+02  8.00000000E+01  0.00000000E+00
  3.80000000E+02  6.00000000E+01  0.00000000E+00
  3.80000000E+02  4.00000000E+01  0.00000000E+00
  3.80000000E+02  2.00000000E+01  0.00000000E+00
  3.80000000E+02  4.99600361E-14  0.00000000E+00
  4.00000000E+02  3.00000000E+02  0.00000000E+00
  4.00000000E+02  2.80000000E+02  0.00000000E+00
  4.00000000E+02  2.60000000E+02  0.00000000E+00
  4.00000000E+02  2.40000000E+02  0.00000000E+00
  4.00000000E+02  2.20000000E+02  0.00000000E+00
  4.00000000E+02  2.00000000E+02  0.00000000E+00
  4.00000000E+02  1.80000000E+02  0.00000000E+00
  4.00000000E+02  1.60000000E+02  0.00000000E+00
  4.00000000E+02  1.40000000E+02  0.00000000E+00
  4.00000000E+02  1.20000000E+02  0.00000000E+00
  4.00000000E+02  1.00000000E+02  0.00000000E+00
  4.00000000E+02  8.00000000E+01  0.00000000E+00
  4.00000000E+02  6.00000000E+01  0.00000000E+00
  4.00000000E+02  4.00000000E+01  0.00000000E+00
  4.00000000E+02  2.00000000E+01  0.00000000E+00
  4.00000000E+02  4.99600361E-14  0.00000000E+00
  4.20000000E+02  3.00000000E+02  0.00000000E+00
  4.20000000E+02  2.80000000E+02  0.00000000E+00
  4.20000000E+02  2.60000000E+02  0.00000000E+00
  4.20000000E+02  2.40000000E+02  0.00000000E+00
  4.20000000E+02  2.20000000E+02  0.00000000E+00
  4.20000000E+02  2.00000000E+02  0.00000000E+00
  4.20000000E+02  1.80000000E+02  0.00000000E+00
  4.20000000E+02  1.60000000E+02  0.00000000E+00
  4.20000000E+02  1.40000000E+02  0.00000000E+00
  4.20000000E+02  1.20000000E+02  0.00000000E+00
  4.20000000E+02  1.00000000E+02  0.00000000E+00
  4.20000000E+02  8.00000000E+01  0.00000000E+00
  4.20000000E+02  6.00000000E+01  0.00000000E+00
  4.20000000E+02  4.00000000E+01  0.00000000E+00
  4.20000000E+02  2.00000000E+01  0.00000000E+00
  4.20000000E+02  4.99600361E-14  0.00000000E+00
  4.40000000E+02  3.00000000E+02  0.00000000E+00
  4.40000000E+02  2.80000000E+02  0.00000000E+00
  4.40000000E+02  2.60000000E+02  0.00000000E+00
  4.40000000E+02  2.40000000E+02  0.00000000E+00
  4.40000000E+02  2.20000000E+02  0.00000000E+00
  4.40000000E+02  2.00000000E+02  0.00000000E+00
  4.40000000E+02  1.80000000E+02  0.00000000E+00
  4.40000000E+02  1.60000000E+02  0.00000000E+00
  4.40000000E+02  1.40000000E+02  0.00000000E+00
  4.40000000E+02  1.20000000E+02  0.00000000E+00
  4.40000000E+02  1.00000000E+02  0.00000000E+00
  4.40000000E+02  8.00000000E+01  0.00000000E+00
  4.40000000E+02  6.00000000E+01  0.00000000E+00
  4.40000000E+02  4.00000000E+01  0.00000000E+00
  4.40000000E+02  2.00000000E+01  0.00000000E+00
  4.40000000E+02  4.99600361E-14  0.00000000E+00
  4.60000000E+02  3.00000000E+02  0.00000000E+00
  4.60000000E+02  2.80000000E+02  0.00000000E+00
  4.60000000E+02  2.60000000E+02  0.00000000E+00
  4.60000000E+02  2.40000000E+02  0.00000000E+00
  4.60000000E+02  2.20000000E+02  0.00000000E+00
  4.60000000E+02  2.00000000E+02  0.00000000E+00
  4.60000000E+02  1.80000000E+02  0.00000000E+00
  4.60000000E+02  1.60000000E+02  0.00000000E+00
  4.60000000E+02  1.40000000E+02  0.00000000E+00
  4.60000000E+02  1.20000000E+02  0.00000000E+00
  4.60000000E+02  1.00000000E+02  0.00000000E+00
  4.60000000E+02  8.00000000E+01  0.00000000E+00
  4.60000000E+02  6.00000000E+01  0.00000000E+00
  4.60000000E+02  4.00000000E+01  0.00000000E+00
  4.60000000E+02  2.00000000E+01  0.00000000E+00
  4.60000000E+02  4.99600361E-14  0.00000000E+00
  4.80000000E+02  3.00000000E+02  0.00000000E+00
  4.80000000E+02  2.80000000E+02  0.00000000E+00
  4.80000000E+02  2.60000000E+02  0.00000000E+00
  4.80000000E+02  2.40000000E+02  0.00000000E+00
  4.80000000E+02  2.20000000E+02  0.00000000E+00
  4.80000000E+02  2.00000000E+02  0.00000000E+00
  4.80000000E+02  1.80000000E+02  0.00000000E+00
  4.80000000E+02  1.60000000E+02  0.00000000E+00
  4.80000000E+02  1.40000000E+02  0.00000000E+00
  4.80000000E+02  1.20000000E+02  0.00000000E+00
  4.80000000E+02  1.00000000E+02  0.00000000E+00
  4.80000000E+02  8.00000000E+01  0.00000000E+00
  4.80000000E+02  6.00000000E+01  0.00000000E+00
  4.80000000E+02  4.00000000E+01  0.00000000E+00
  4.80000000E+02  2.00000000E+01  0.00000000E+00
  4.80000000E+02  4.99600361E-14  0.00000000E+00
  5.00000000E+02  3.00000000E+02  0.00000000E+00
  5.00000000E+02  2.80000000E+02  0.00000000E+00
  5.00000000E+02  2.60000000E+02  0.00000000E+00
  5.00000000E+02  2.40000000E+02  0.00000000E+00
  5.00000000E+02  2.20000000E+02  0.00000000E+00
  5.00000000E+02  2.00000000E+02  0.00000000E+00
  5.00000000E+02  1.80000000E+02  0.00000000E+00
  5.00000000E+02  1.60000000E+02  0.00000000E+00
  5.00000000E+02  1.40000000E+02  0.00000000E+00
  5.00000000E+02  1.20000000E+02  0.00000000E+00
  5.00000000E+02  1.00000000E+02  0.00000000E+00
  5.00000000E+02  8.00000000E+01  0.00000000E+00
  5.00000000E+02  6.00000000E+01  0.00000000E+00
  5.00000000E+02  4.00000000E+01  0.00000000E+00
  5.00000000E+02  2.00000000E+01  0.00000000E+00
  5.00000000E+02  4.99600361E-14  0.00000000E+00
  5.20000000E+02  3.00000000E+02  0.00000000E+00
  5.20000000E+02  2.80000000E+02  0.00000000E+00
  5.20000000E+02  2.60000000E+02  0.00000000E+00
  5.20000000E+02  2.40000000E+02  0.00000000E+00
  5.20000000E+02  2.20000000E+02  0.00000000E+00
  5.20000000E+02  2.00000000E+02  0.00000000E+00
  5.20000000E+02  1.80000000E+02  0.00000000E+00
  5.20000000E+02  1.60000000E+02  0.00000000E+00
  5.20000000E+02  1.40000000E+02  0.00000000E+00
  5.20000000E+02  1.20000000E+02  0.00000000E+00
  5.20000000E+02  1.00000000E+02  0.00000000E+00
  5.20000000E+02  8.00000000E+01  0.00000000E+00
  5.20000000E+02  6.00000000E+01  0.00000000E+00
  5.20000000E+02  4.00000000E+01  0.00000000E+00
  5.20000000E+02  2.00000000E+01  0.00000000E+00
  5.20000000E+02  4.99600361E-14  0.00000000E+00
  5.40000000E+02  3.00000000E+02  0.00000000E+00
  5.40000000E+02  2.80000000E+02  0.00000000E+00
  5.40000000E+02  2.60000000E+02  0.00000000E+00
  5.40000000E+02  2.40000000E+02  0.00000000E+00
  5.40000000E+02  2.20000000E+02  0.00000000E+00
  5.40000000E+02  2.00000000E+02  0.00000000E+00
  5.40000000E+02  1.80000000E+02  0.00000000E+00
  5.40000000E+02  1.60000000E+02  0.00000000E+00
  5.40000000E+02  1.40000000E+02  0.00000000E+00
  5.40000000E+02  1.20000000E+02  0.00000000E+00
  5.40000000E+02  1.00000000E+02  0.00000000E+00
  5.40000000E+02  8.00000000E+01  0.00000000E+00
  5.40000000E+02  6.00000000E+01  0.00000000E+00
  5.40000000E+02  4.00000000E+01  0.00000000E+00
  5.40000000E+02  2.00000000E+01  0.00000000E+00
  5.40000000E+02  4.99600361E-14  0.00000000E+00
  5.60000000E+02  3.00000000E+02  0.00000000E+00
  5.60000000E+02  2.80000000E+02  0.00000000E+00
  5.60000000E+02  2.60000000E+02  0.00000000E+00
  5.60000000E+02  2.40000000E+02  0.00000000E+00
  5.60000000E+02  2.20000000E+02  0.00000000E+00
  5.60000000E+02  2.00000000E+02  0.00000000E+00
  5.60000000E+02  1.80000000E+02  0.00000000E+00
  5.60000000E+02  1.60000000E+02  0.00000000E+00
  5.60000000E+02  1.40000000E+02  0.00000000E+00
  5.60000000E+02  1.20000000E+02  0.00000000E+00
  5.60000000E+02  1.00000000E+02  0.00000000E+00
  5.60000000E+02  8.00000000E+01  0.00000000E+00
  5.60000000E+02  6.00000000E+01  0.00000000E+00
  5.60000000E+02  4.00000000E+01  0.00000000E+00
  5.60000000E+02  2.00000000E+01  0.00000000E+00
  5.60000000E+02  4.99600361E-14  0.00000000E+00
  5.80000000E+02  3.00000000E+02  0.00000000E+00
  5.80000000E+02  2.80000000E+02  0.00000000E+00
  5.80000000E+02  2.60000000E+02  0.00000000E+00
  5.80000000E+02  2.40000000E+02  0.00000000E+00
  5.80000000E+02  2.20000000E+02  0.00000000E+00
  5.80000000E+02  2.00000000E+02  0.00000000E+00
  5.80000000E+02  1.80000000E+02  0.00000000E+00
  5.80000000E+02  1.60000000E+02  0.00000000E+00
  5.80000000E+02  1.40000000E+02  0.00000000E+00
  5.80000000E+02  1.20000000E+02  0.00000000E+00
  5.80000000E+02  1.00000000E+02  0.00000000E+00
  5.80000000E+02  8.00000000E+01  0.00000000E+00
  5.80000000E+02  6.00000000E+01  0.00000000E+00
  5.80000000E+02  4.00000000E+01  0.00000000E+00
  5.80000000E+02  2.00000000E+01  0.00000000E+00
  5.80000000E+02  4.99600361E-14  0.00000000E+00
  6.00000000E+02  3.00000000E+02  0.00000000E+00
  6.00000000E+02  2.80000000E+02  0.00000000E+00
  6.00000000E+02  2.60000000E+02  0.00000000E+00
  6.00000000E+02  2.40000000E+02  0.00000000E+00
  6.00000000E+02  2.20000000E+02  0.00000000E+00
  6.00000000E+02  2.00000000E+02  0.00000000E+00
  6.00000000E+02  1.80000000E+02  0.00000000E+00
  6.00000000E+02  1.60000000E+02  0.00000000E+00
  6.00000000E+02  1.40000000E+02  0.00000000E+00
  6.00000000E+02  1.20000000E+02  0.00000000E+00
  6.00000000E+02  1.00000000E+02  0.00000000E+00
  6.00000000E+02  8.00000000E+01  0.00000000E+00
  6.00000000E+02  6.00000000E+01  0.00000000E+00
  6.00000000E+02  4.00000000E+01  0.00000000E+00
  6.00000000E+02  2.00000000E+01  0.00000000E+00
  6.00000000E+02  4.99600361E-14  0.00000000E+00
CELLS       450      2250
         4           0           1          17          16
         4           1           2          18          17
         4           2           3          19          18
         4           3           4          20          19
         4           4           5          21          20
         4           5           6          22          21
         4           6           7          23          22
         4           7           8          24          23
         4           8           9          25          24
         4           9          10          26          25
         4          10          11          27          26
         4          11          12          28          27
         4          12          13          29          28
         4          13          14          30          29
         4          14          15          31          30
         4          16          17          33          32
         4          17          18          34          33
         4          18          19          35          34
         4          19          20          36          35
         4          20          21          37          36
         4          21          22          38          37
         4          22          23          39          38
         4          23          24          40          39
         4          24          25          41          40
         4          25          26          42          41
         4          26          27          43          42
         4          27          28          44          43
         4          28          29          45          44
         4          29          30          46          45
         4          30          31          47          46
         4          32          33          49          48
         4          33          34          50          49
         4          34          35          51          50
         4          35          36          52          51
         4          36          37          53          52
         4          37          38          54          53
         4          38          39          55          54
         4          39          40          56          55
         4          40          41          57          56
         4          41          42          58          57
         4          42          43          59          58
         4          43          44          60          59
         4          44          45          61          60
         4          45          46          62          61
         4          46          47          63          62
         4          48          49          65          64
         4          49          50          66          65
         4          50          51          67          66
         4          51          52          68          67
         4          52          53          69          68
         4          53          54          70          69
         4          54          55          71          70
         4          55          56          72          71
         4          56          57          73          72
         4          57          58          74          73
         4          58          59          75          74
         4          59          60          76          75
         4          60          61          77          76
         4          61          62          78          77
         4          62          63          79          78
         4          64          65          81          80
         4          65          66          82          81
         4          66          67          83          82
         4          67          68          84          83
         4          68          69          85          84
         4          69          70          86          85
         4          70          71          87          86
         4          71          72          88          87
         4          72          73          89          88
         4          73          74          90          89
         4          74          75          91          90
         4          75          76          92          91
         4          76          77          93          92
         4          77          78          94          93
         4          78          79          95          94
         4          80          81          97          96
         4          81          82          98          97
         4          82          83          99          98
         4          83          84         100          99
         4          84          85         101         100
         4          85          86         102         101
         4          86          87         103         102
         4          87          88         104         103
         4          88          89         105         104
         4          89          90         106         105
         4          90          91         107         106
         4          91          92         108         107
         4          92          93         109         108
         4          93          94         110         109
         4          94          95         111         110
         4          96          97         113         112
         4          97          98         114         113
         4          98          99         115         114
         4          99         100         116         115
         4         100         101         117         116
         4         101         102         118         117
         4         102         103         119         118
         4         103         104         120         119
         4         104         105         121         120
         4         105         106         122         121
         4         106         107         123         122
         4         107         108         124         123
         4         108         109         125         124
         4         109         110         126         125
         4         110         111         127         126
         4         112         113         129         128
         4         113         114         130         129
         4         114         115         131         130
         4         115         116         132         131
         4         116         117         133         132
         4         117         118         134         133
         4         118         119         135         134
         4         119         120         136         135
         4         120         121         137         136
         4         121         122         138         137
         4         122         123         139         138
         4         123         124         140         139
         4         124         125         141         140
         4         125         126         142         141
         4         126         127         143         142
         4         128         129         145         144
         4         129         130         146         145
         4         130         131         147         146
         4         131         132         148         147
         4         132         133         149         148
         4         133         134         150         149
         4         134         135         151         150
         4         135         136         152         151
         4         136         137         153         152
         4         137         138         154         153
         4         138         139         155         154
         4         139         140         156         155
         4         140         141         157         156
         4         141         142         158         157
         4         142         143         159         158
         4         144         145         161         160
         4         145         146         162         161
         4         146         147         163         162
         4         147         148         164         163
         4         148         149         165         164
         4         149         150         166         165
         4         150         151         167         166
         4         151         152         168         167
         4         152         153         169         168
         4         153         154         170         169
         4         154         155         171         170
         4         155         156         172         171
         4         156         157         173         172
         4         157         158         174         173
         4         158         159         175         174
         4         160         161         177         176
         4         161         162         178         177
         4         162         163         179         178
         4         163         164         180         179
         4         164         165         181         180
         4         165         166         182         181
         4         166         167         183         182
         4         167         168         184         183
         4         168         169         185         184
         4         169         170         186         185
         4         170         171         187         186
         4         171         172         188         187
         4         172         173         189         188
         4         173         174         190         189
         4         174         175         191         190
         4         176         177         193         192
         4         177         178         194         193
         4         178         179         195         194
         4         179         180         196         195
         4         180         181         197         196
         4         181         182         198         197
         4         182         183         199         198
         4         183         184         200         199
         4         184         185         201         200
         4         185         186         202         201
         4         186         187         203         202
         4         187         188         204         203
         4         188         189         205         204
         4         189         190         206         205
         4         190         191         207         206
         4         192         193         209         208
         4         193         194         210         209
         4         194         195         211         210
         4         195         196         212         211
         4         196         197         213         212
         4         197         198         214         213
         4         198         199         215         214
         4         199         200         216         215
         4         200         201         217         216
         4         201         202         218         217
         4         202         203         219         218
         4         203         204         220         219
         4         204         205         221         220
         4         205         206         222         221
         4         206         207         223         222
         4         208         209         225         224
         4         209         210         226         225
         4         210         211         227         226
         4         211         212         228         227
         4         212         213         229         228
         4         213         214         230         229
         4         214         215         231         230
         4         215         216         232         231
         4         216         217         233         232
         4         217         218         234         233
         4         218         219         235         234
         4         219         220         236         235
         4         220         221         237         236
         4         221         222         238         237
         4         222         223         239         238
         4         224         225         241         240
         4         225         226         242         241
         4         226         227         243         242
         4         227         228         244         243
         4         228         229         245         244
         4         229         230         246         245
         4         230         231         247         246
         4         231         232         248         247
         4         232         233         249         248
         4         233         234         250         249
         4         234         235         251         250
         4         235         236         252         251
         4         236         237         253         252
         4         237         238         254         253
         4         238         239         255         254
         4         240         241         257         256
         4         241         242         258         257
         4         242         243         259         258
         4         243         244         260         259
         4         244         245         261         260
         4         245         246         262         261
         4         246         247         263         262
         4         247         248         264         263
         4         248         249         265         264
         4         249         250         266         265
         4         250         251         267         266
         4         251         252         268         267
         4         252         253         269         268
         4         253         254         270         269
         4         254         255         271         270
         4         256         257         273         272
         4         257         258         274         273
         4         258         259         275         274
         4         259         260         276         275
         4         260         261         277         276
         4         261         262         278         277
         4         262         263         279         278
         4         263         264         280         279
         4         264         265         281         280
         4         265         266         282         281
         4         266         267         283         282
         4         267         268         284         283
         4         268         269         285         284
         4         269         270         286         285
         4         270         271         287         286
         4         272         273         289         288
         4         273         274         290         289
         4         274         275         291         290
         4         275         276         292         291
         4         276         277         293         292
         4         277         278         294         293
         4         278         279         295         294
         4         279         280         296         295
         4         280         281         297         296
         4         281         282         298         297
         4         282         283         299         298
         4         283         284         300         299
         4         284         285         301         300
         4         285         286         302         301
         4         286         287         303         302
         4         288         289         305         304
         4         289         290         306         305
         4         290         291         307         306
         4         291         292         308         307
         4         292         293         309         308
         4         293         294         310         309
         4         294         295         311         310
         4         295         296         312         311
         4         296         297         313         312
         4         297         298         314         313
         4         298         299         315         314
         4         299         300         316         315
         4         300         301         317         316
         4         301         302         318         317
         4         302         303         319         318
         4         304         305         321         320
         4         305         306         322         321
         4         306         307         323         322
         4         307         308         324         323
         4         308         309         325         324
         4         309         310         326         325
         4         310         311         327         326
         4         311         312         328         327
         4         312         313         329         328
         4         313         314         330         329
         4         314         315         331         330
         4         315         316         332         331
         4         316         317         333         332
         4         317         318         334         333
         4         318         319         335         334
         4         320         321         337         336
         4         321         322         338         337
         4         322         323         339         338
         4         323         324         340         339
         4         324         325         341         340
         4         325         326         342         341
         4         326         327         343         342
         4         327         328         344         343
         4         328         329         345         344
         4         329         330         346         345
         4         330         331         347         346
         4         331         332         348         347
         4         332         333         349         348
         4         333         334         350         349
         4         334         335         351         350
         4         336         337         353         352
         4         337         338         354         353
         4         338         339         355         354
         4         339         340         356         355
         4         340         341         357         356
         4         341         342         358         357
         4         342         343         359         358
         4         343         344         360         359
         4         344         345         361         360
         4         345         346         362         361
         4         346         347         363         362
         4         347         348         364         363
         4         348         349         365         364
         4         349         350         366         365
         4         350         351         367         366
         4         352         353         369         368
         4         353         354         370         369
         4         354         355         371         370
         4         355         356         372         371
         4         356         357         373         372
         4         357         358         374         373
         4         358         359         375         374
         4         359         360         376         375
         4         360         361         377         376
         4         361         362         378         377
         4         362         363         379         378
         4         363         364         380         379
         4         364         365         381         380
         4         365         366         382         381
         4         366         367         383         382
         4         368         369         385         384
         4         369         370         386         385
         4         370         371         387         386
         4         371         372         388         387
         4         372         373         389         388
         4         373         374         390         389
         4         374         375         391         390
         4         375         376         392         391
         4         376         377         393         392
         4         377         378         394         393
         4         378         379         395         394
         4         379         380         396         395
         4         380         381         397         396
         4         381         382         398         397
         4         382         383         399         398
         4         384         385         401         400
         4         385         386         402         401
         4         386         387         403         402
         4         387         388         404         403
         4         388         389         405         404
         4         389         390         406         405
         4         390         391         407         406
         4         391         392         408         407
         4         392         393         409         408
         4         393         394         410         409
         4         394         395         411         410
         4         395         396         412         411
         4         396         397         413         412
         4         397         398         414         413
         4         398         399         415         414
         4         400         401         417         416
         4         401         402         418         417
         4         402         403         419         418
         4         403         404         420         419
         4         404         405         421         420
         4         405         406         422         421
         4         406         407         423         422
         4         407         408         424         423
         4         408         409         425         424
         4         409         410         426         425
         4         410         411         427         426
         4         411         412         428         427
         4         412         413         429         428
         4         413         414         430         429
         4         414         415         431         430
         4         416         417         433         432
         4         417         418         434         433
         4         418         419         435         434
         4         419         420         436         435
         4         420         421         437         436
         4         421         422         438         437
         4         422         423         439         438
         4         423         424         440         439
         4         424         425         441         440
         4         425         426         442         441
         4         426         427         443         442
         4         427         428         444         443
         4         428         429         445         444
         4         429         430         446         445
         4         430         431         447         446
         4         432         433         449         448
         4         433         434         450         449
         4         434         435         451         450
         4         435         436         452         451
         4         436         437         453         452
         4         437         438         454         453
         4         438         439         455         454
         4         439         440         456         455
         4         440         441         457         456
         4         441         442         458         457
         4         442         443         459         458
         4         443         444         460         459
         4         444         445         461         460
         4         445         446         462         461
         4         446         447         463         462
         4         448         449         465         464
         4         449         450         466         465
         4         450         451         467         466
         4         451         452         468         467
         4         452         453         469         468
         4         453         454         470         469
         4         454         455         471         470
         4         455         456         472         471
         4         456         457         473         472
         4         457         458         474         473
         4         458         459         475         474
         4         459         460         476         475
         4         460         461         477         476
         4         461         462         478         477
         4         462         463         479         478
         4         464         465         481         480
         4         465         466         482         481
         4         466         467         483         482
         4         467         468         484         483
         4         468         469         485         484
         4         469         470         486         485
         4         470         471         487         486
         4         471         472         488         487
         4         472         473         489         488
         4         473         474         490         489
         4         474         475         491         490
         4         475         476         492         491
         4         476         477         493         492
         4         477         478         494         493
         4         478         479         495         494
CELL_TYPES        450
9
9
9
9
9
9
9
9
9
9
9
9
9
9
9
9
9
9
9
9
9
9
9
9
9
9
9
9
9
9
9
9
9
9
9
9
9
9
9
9
9
9
9
9
9
9
9
9
9
9
9
9
9
9
9
9
9
9
9
9
9
9
9
9
9
9
9
9
9
9
9
9
9
9
9
9
9
9
9
9
9
9
9
9
9
9
9
9
9
9
9
9
9
9
9
9
9
9
9
9
9
9
9
9
9
9
9
9
9
9
9
9
9
9
9
9
9
9
9
9
9
9
9
9
9
9
9
9
9
9
9
9
9
9
9
9
9
9
9
9
9
9
9
9
9
9
9
9
9
9
9
9
9
9
9
9
9
9
9
9
9
9
9
9
9
9
9
9
9
9
9
9
9
9
9
9
9
9
9
9
9
9
9
9
9
9
9
9
9
9
9
9
9
9
9
9
9
9
9
9
9
9
9
9
9
9
9
9
9
9
9
9
9
9
9
9
9
9
9
9
9
9
9
9
9
9
9
9
9
9
9
9
9
9
9
9
9
9
9
9
9
9
9
9
9
9
9
9
9
9
9
9
9
9
9
9
9
9
9
9
9
9
9
9
9
9
9
9
9
9
9
9
9
9
9
9
9
9
9
9
9
9
9
9
9
9
9
9
9
9
9
9
9
9
9
9
9
9
9
9
9
9
9
9
9
9
9
9
9
9
9
9
9
9
9
9
9
9
9
9
9
9
9
9
9
9
9
9
9
9
9
9
9
9
9
9
9
9
9
9
9
9
9
9
9
9
9
9
9
9
9
9
9
9
9
9
9
9
9
9
9
9
9
9
9
9
9
9
9
9
9
9
9
9
9
9
9
9
9
9
9
9
9
9
9
9
9
9
9
9
9
9
9
9
9
9
9
9
9
9
9
9
9
9
9
9
9
9
9
9
9
9
9
9
9
9
9
9
9
9
9
9
9
9
9
9
9
9
9
9
9
9
9
9
9
9
9
9
9
9
9
9
9
9
9
9
9
9
9
9
POINT_DATA       496
SCALARS p double 
LOOKUP_TABLE default
   10000029.1440224     
   10000029.1414836     
   10000029.1348109     
   10000029.1249193     
   10000029.1126664     
   10000029.0988494     
   10000029.0842022     
   10000029.0693915     
   10000029.0550144     
   10000029.0415941     
   10000029.0295769     
   10000029.0193285     
   10000029.0111309     
   10000029.0051784     
   10000029.0015750     
   10000029.0003307     
   10000029.1027883     
   10000029.1002545     
   10000029.0935949     
   10000029.0837227     
   10000029.0714938     
   10000029.0577038     
   10000029.0430851     
   10000029.0283033     
   10000029.0139542     
   10000029.0005600     
   10000028.9885662     
   10000028.9783378     
   10000028.9701560     
   10000028.9642151     
   10000028.9606186     
   10000028.9593767     
   10000028.9792127     
   10000028.9766940     
   10000028.9700740     
   10000028.9602604     
   10000028.9481038     
   10000028.9343953     
   10000028.9198629     
   10000028.9051683     
   10000028.8909039     
   10000028.8775887     
   10000028.8656656     
   10000028.8554974     
   10000028.8473637     
   10000028.8414575     
   10000028.8378821     
   10000028.8366475     
   10000028.7736752     
   10000028.7711821     
   10000028.7646291     
   10000028.7549144     
   10000028.7428802     
   10000028.7293094     
   10000028.7149227     
   10000028.7003755     
   10000028.6862541     
   10000028.6730725     
   10000028.6612689     
   10000028.6512026     
   10000028.6431503     
   10000028.6373030     
   10000028.6337630     
   10000028.6325409     
   10000028.4868075     
   10000028.4843509     
   10000028.4778935     
   10000028.4683203     
   10000028.4564608     
   10000028.4430868     
   10000028.4289085     
   10000028.4145719     
   10000028.4006549     
   10000028.3876641     
   10000028.3760314     
   10000028.3661108     
   10000028.3581748     
   10000028.3524118     
   10000028.3489227     
   10000028.3477184     
   10000028.1194915     
   10000028.1170831     
   10000028.1107520     
   10000028.1013655     
   10000028.0897367     
   10000028.0766225     
   10000028.0627193     
   10000028.0486606     
   10000028.0350135     
   10000028.0222746     
   10000028.0108676     
   10000028.0011395     
   10000027.9933573     
   10000027.9877057     
   10000027.9842839     
   10000027.9831032     
   10000027.6728569     
   10000027.6705093     
   10000027.6643376     
   10000027.6551867     
   10000027.6438491     
   10000027.6310626     
   10000027.6175065     
   10000027.6037985     
   10000027.5904918     
   10000027.5780708     
   10000027.5669486     
   10000027.5574633     
   10000027.5498754     
   10000027.5443647     
   10000027.5410280     
   10000027.5398769     
   10000027.1482783     
   10000027.1460053     
   10000027.1400291     
   10000027.1311671     
   10000027.1201865     
   10000027.1078018     
   10000027.0946709     
   10000027.0813927     
   10000027.0685030     
   10000027.0564713     
   10000027.0456979     
   10000027.0365103     
   10000027.0291606     
   10000027.0238228     
   10000027.0205906     
   10000027.0194758     
   10000026.5473715     
   10000026.5451883     
   10000026.5394471     
   10000026.5309324     
   10000026.5203808     
   10000026.5084787     
   10000026.4958586     
   10000026.4830962     
   10000026.4707069     
   10000026.4591424     
   10000026.4487875     
   10000026.4399570     
   10000026.4328932     
   10000026.4277631     
   10000026.4246567     
   10000026.4235853     
   10000025.8719894     
   10000025.8699126     
   10000025.8644499     
   10000025.8563466     
   10000025.8463029     
   10000025.8349719     
   10000025.8229558     
   10000025.8108031     
   10000025.7990050     
   10000025.7879921     
   10000025.7781313     
   10000025.7697226     
   10000025.7629965     
   10000025.7581119     
   10000025.7551541     
   10000025.7541339     
   10000025.1242172     
   10000025.1222651     
   10000025.1171285     
   10000025.1095066     
   10000025.1000571     
   10000025.0893937     
   10000025.0780831     
   10000025.0666421     
   10000025.0555337     
   10000025.0451639     
   10000025.0358789     
   10000025.0279615     
   10000025.0216289     
   10000025.0170306     
   10000025.0142462     
   10000025.0132854     
   10000024.3063671     
   10000024.3045596     
   10000024.2998012     
   10000024.2927372     
   10000024.2839755     
   10000024.2740844     
   10000024.2635893     
   10000024.2529701     
   10000024.2426571     
   10000024.2330287     
   10000024.2244069     
   10000024.2170553     
   10000024.2111759     
   10000024.2069072     
   10000024.2043226     
   10000024.2034300     
   10000023.4209728     
   10000023.4193316     
   10000023.4150077     
   10000023.4085841     
   10000023.4006113     
   10000023.3916050     
   10000023.3820432     
   10000023.3723632     
   10000023.3629588     
   10000023.3541759     
   10000023.3463100     
   10000023.3396028     
   10000023.3342393     
   10000023.3303460     
   10000023.3279889     
   10000023.3271737     
   10000022.4707835     
   10000022.4693320     
   10000022.4655027     
   10000022.4598075     
   10000022.4527311     
   10000022.4447290     
   10000022.4362250     
   10000022.4276085     
   10000022.4192311     
   10000022.4114030     
   10000022.4043897     
   10000022.3984085     
   10000022.3936260     
   10000022.3901552     
   10000022.3880542     
   10000022.3873258     
   10000021.4587582     
   10000021.4575206     
   10000021.4542491     
   10000021.4493745     
   10000021.4433069     
   10000021.4364336     
   10000021.4291172     
   10000021.4216928     
   10000021.4144650     
   10000021.4077039     
   10000021.4016420     
   10000021.3964700     
   10000021.3923341     
   10000021.3893332     
   10000021.3875169     
   10000021.3868847     
   10000020.3880585     
   10000020.3870600     
   10000020.3844110     
   10000020.3804514     
   10000020.3755075     
   10000020.3698902     
   10000020.3638933     
   10000020.3577915     
   10000020.3518369     
   10000020.3462555     
   10000020.3412434     
   10000020.3369626     
   10000020.3335377     
   10000020.3310528     
   10000020.3295487     
   10000020.3290219     
   10000019.2620432     
   10000019.2613087     
   10000019.2593462     
   10000019.2563952     
   10000019.2526889     
   10000019.2484532     
   10000019.2439062     
   10000019.2392553     
   10000019.2346949     
   10000019.2304025     
   10000019.2265348     
   10000019.2232230     
   10000019.2205694     
   10000019.2186430     
   10000019.2174764     
   10000019.2170631     
   10000018.0842617     
   10000018.0838147     
   10000018.0825994     
   10000018.0807454     
   10000018.0783843     
   10000018.0756495     
   10000018.0726756     
   10000018.0695966     
   10000018.0665435     
   10000018.0636413     
   10000018.0610039     
   10000018.0587307     
   10000018.0569009     
   10000018.0555693     
   10000018.0547612     
   10000018.0544684     
   10000016.8584478     
   10000016.8583090     
   10000016.8578942     
   10000016.8572153     
   10000016.8562948     
   10000016.8551663     
   10000016.8538745     
   10000016.8524738     
   10000016.8510266     
   10000016.8496009     
   10000016.8482658     
   10000016.8470871     
   10000016.8461216     
   10000016.8454113     
   10000016.8449765     
   10000016.8448092     
   10000015.5885143     
   10000015.5887001     
   10000015.5891275     
   10000015.5896844     
   10000015.5902788     
   10000015.5908392     
   10000015.5913147     
   10000015.5916749     
   10000015.5919088     
   10000015.5920235     
   10000015.5920408     
   10000015.5919926     
   10000015.5919148     
   10000015.5918390     
   10000015.5917838     
   10000015.5917443     
   10000014.2785478     
   10000014.2790682     
   10000014.2803626     
   10000014.2821909     
   10000014.2843435     
   10000014.2866406     
   10000014.2889326     
   10000014.2911003     
   10000014.2930556     
   10000014.2947415     
   10000014.2961309     
   10000014.2972224     
   10000014.2980328     
   10000014.2985874     
   10000014.2989070     
   10000014.2989942     
   10000012.9328044     
   10000012.9336613     
   10000012.9358248     
   10000012.9389257     
   10000012.9426363     
   10000012.9466688     
   10000012.9507745     
   10000012.9547444     
   10000012.9584116     
   10000012.9616538     
   10000012.9643945     
   10000012.9665997     
   10000012.9682705     
   10000012.9694300     
   10000012.9701066     
   10000012.9703153     
   10000011.5557064     
   10000011.5568915     
   10000011.5598975     
   10000011.5642272     
   10000011.5694379     
   10000011.5751376     
   10000011.5809824     
   10000011.5866770     
   10000011.5919783     
   10000011.5967003     
   10000011.6007186     
   10000011.6039686     
   10000011.6064381     
   10000011.6081524     
   10000011.6091530     
   10000011.6094734     
   10000010.1518411     
   10000010.1533339     
   10000010.1571200     
   10000010.1625779     
   10000010.1691563     
   10000010.1763671     
   10000010.1837804     
   10000010.1910249     
   10000010.1977906     
   10000010.2038357     
   10000010.2089920     
   10000010.2131661     
   10000010.2163339     
   10000010.2185256     
   10000010.2198008     
   10000010.2202179     
   10000008.7259618     
   10000008.7277271     
   10000008.7321870     
   10000008.7386015     
   10000008.7463203     
   10000008.7547728     
   10000008.7634601     
   10000008.7719535     
   10000008.7798960     
   10000008.7870054     
   10000008.7930785     
   10000008.7979952     
   10000008.8017177     
   10000008.8042803     
   10000008.8057635     
   10000008.8062573     
   10000007.2829938     
   10000007.2849783     
   10000007.2899501     
   10000007.2970586     
   10000007.3055702     
   10000007.3148523     
   10000007.3243642     
   10000007.3336508     
   10000007.3423378     
   10000007.3501268     
   10000007.3567953     
   10000007.3622004     
   10000007.3662857     
   10000007.3690821     
   10000007.3706893     
   10000007.3712349     
   10000005.8280469     
   10000005.8301733     
   10000005.8354207     
   10000005.8428409     
   10000005.8516412     
   10000005.8611633     
   10000005.8708667     
   10000005.8803120     
   10000005.8891445     
   10000005.8970807     
   10000005.9039008     
   10000005.9094494     
   10000005.9136473     
   10000005.9165072     
   10000005.9181373     
   10000005.9187058     
   10000004.3664413     
   10000004.3685977     
   10000004.3737758     
   10000004.3809550     
   10000004.3893341     
   10000004.3982924     
   10000004.4073483     
   10000004.4161258     
   10000004.4243276     
   10000004.4317155     
   10000004.4380984     
   10000004.4433281     
   10000004.4473084     
   10000004.4500206     
   10000004.4515543     
   10000004.4521149     
   10000002.9037619     
   10000002.9057745     
   10000002.9103571     
   10000002.9164837     
   10000002.9234661     
   10000002.9308137     
   10000002.9381691     
   10000002.9452623     
   10000002.9518827     
   10000002.9578613     
   10000002.9630591     
   10000002.9673610     
   10000002.9706762     
   10000002.9729562     
   10000002.9742549     
   10000002.9747734     
   10000001.4459642     
   10000001.4475491     
   10000001.4506216     
   10000001.4545099     
   10000001.4588053     
   10000001.4632442     
   10000001.4676412     
   10000001.4718583     
   10000001.4757884     
   10000001.4793453     
   10000001.4824572     
   10000001.4850619     
   10000001.4871054     
   10000001.4885447     
   10000001.4893694     
   10000001.4898580     
   10000000.0000000     
   10000000.0000000     
   10000000.0000000     
   10000000.0000000     
   10000000.0000000     
   10000000.0000000     
   10000000.0000000     
   10000000.0000000     
   10000000.0000000     
   10000000.0000000     
   10000000.0000000     
   10000000.0000000     
   10000000.0000000     
  10000000.00000000     
   10000000.0000000     
   10000000.0000000     
VECTORS u double 
    0.00000E+00        -0.64174E-01         0.00000E+00
    0.00000E+00        -0.59892E-01         0.00000E+00
    0.00000E+00        -0.55609E-01         0.00000E+00
    0.00000E+00        -0.51326E-01         0.00000E+00
    0.00000E+00        -0.47044E-01         0.00000E+00
    0.00000E+00        -0.42761E-01         0.00000E+00
    0.00000E+00        -0.38479E-01         0.00000E+00
    0.00000E+00        -0.34198E-01         0.00000E+00
    0.00000E+00        -0.29918E-01         0.00000E+00
    0.00000E+00        -0.25638E-01         0.00000E+00
    0.00000E+00        -0.21361E-01         0.00000E+00
    0.00000E+00        -0.17084E-01         0.00000E+00
    0.00000E+00        -0.12810E-01         0.00000E+00
    0.00000E+00        -0.85378E-02         0.00000E+00
    0.00000E+00        -0.42677E-02         0.00000E+00
    0.00000E+00         0.00000E+00         0.00000E+00
    0.17143E-04        -0.64174E-01         0.00000E+00
    0.17900E-04        -0.59892E-01         0.00000E+00
    0.18404E-04        -0.55609E-01         0.00000E+00
    0.18653E-04        -0.51326E-01         0.00000E+00
    0.18643E-04        -0.47043E-01         0.00000E+00
    0.18367E-04        -0.42761E-01         0.00000E+00
    0.17818E-04        -0.38479E-01         0.00000E+00
    0.16991E-04        -0.34198E-01         0.00000E+00
    0.15879E-04        -0.29917E-01         0.00000E+00
    0.14477E-04        -0.25638E-01         0.00000E+00
    0.12784E-04        -0.21361E-01         0.00000E+00
    0.10798E-04        -0.17084E-01         0.00000E+00
    0.85201E-05        -0.12810E-01         0.00000E+00
    0.59559E-05        -0.85378E-02         0.00000E+00
    0.31123E-05        -0.42677E-02         0.00000E+00
    0.00000E+00         0.00000E+00         0.00000E+00
    0.34194E-04        -0.64173E-01         0.00000E+00
    0.35708E-04        -0.59890E-01         0.00000E+00
    0.36716E-04        -0.55608E-01         0.00000E+00
    0.37215E-04        -0.51325E-01         0.00000E+00
    0.37196E-04        -0.47042E-01         0.00000E+00
    0.36646E-04        -0.42760E-01         0.00000E+00
    0.35554E-04        -0.38478E-01         0.00000E+00
    0.33904E-04        -0.34197E-01         0.00000E+00
    0.31687E-04        -0.29917E-01         0.00000E+00
    0.28891E-04        -0.25638E-01         0.00000E+00
    0.25513E-04        -0.21360E-01         0.00000E+00
    0.21550E-04        -0.17084E-01         0.00000E+00
    0.17006E-04        -0.12810E-01         0.00000E+00
    0.11888E-04        -0.85377E-02         0.00000E+00
    0.62125E-05        -0.42676E-02         0.00000E+00
    0.00000E+00         0.00000E+00         0.00000E+00
    0.51060E-04        -0.64170E-01         0.00000E+00
    0.53328E-04        -0.59888E-01         0.00000E+00
    0.54841E-04        -0.55606E-01         0.00000E+00
    0.55592E-04        -0.51323E-01         0.00000E+00
    0.55568E-04        -0.47041E-01         0.00000E+00
    0.54751E-04        -0.42759E-01         0.00000E+00
    0.53123E-04        -0.38477E-01         0.00000E+00
    0.50662E-04        -0.34196E-01         0.00000E+00
    0.47352E-04        -0.29916E-01         0.00000E+00
    0.43178E-04        -0.25637E-01         0.00000E+00
    0.38133E-04        -0.21360E-01         0.00000E+00
    0.32212E-04        -0.17084E-01         0.00000E+00
    0.25421E-04        -0.12810E-01         0.00000E+00
    0.17773E-04        -0.85375E-02         0.00000E+00
    0.92886E-05        -0.42676E-02         0.00000E+00
    0.00000E+00         0.00000E+00         0.00000E+00
    0.67648E-04        -0.64167E-01         0.00000E+00
    0.70666E-04        -0.59885E-01         0.00000E+00
    0.72683E-04        -0.55603E-01         0.00000E+00
    0.73688E-04        -0.51321E-01         0.00000E+00
    0.73666E-04        -0.47039E-01         0.00000E+00
    0.72592E-04        -0.42757E-01         0.00000E+00
    0.70440E-04        -0.38475E-01         0.00000E+00
    0.67185E-04        -0.34195E-01         0.00000E+00
    0.62803E-04        -0.29915E-01         0.00000E+00
    0.57274E-04        -0.25636E-01         0.00000E+00
    0.50587E-04        -0.21359E-01         0.00000E+00
    0.42738E-04        -0.17083E-01         0.00000E+00
    0.33733E-04        -0.12809E-01         0.00000E+00
    0.23587E-04        -0.85373E-02         0.00000E+00
    0.12328E-04        -0.42675E-02         0.00000E+00
    0.00000E+00         0.00000E+00         0.00000E+00
    0.83857E-04        -0.64163E-01         0.00000E+00
    0.87621E-04        -0.59882E-01         0.00000E+00
    0.90141E-04        -0.55600E-01         0.00000E+00
    0.91406E-04        -0.51318E-01         0.00000E+00
    0.91393E-04        -0.47036E-01         0.00000E+00
    0.90075E-04        -0.42754E-01         0.00000E+00
    0.87419E-04        -0.38473E-01         0.00000E+00
    0.83392E-04        -0.34193E-01         0.00000E+00
    0.77964E-04        -0.29913E-01         0.00000E+00
    0.71113E-04        -0.25635E-01         0.00000E+00
    0.62821E-04        -0.21358E-01         0.00000E+00
    0.53083E-04        -0.17083E-01         0.00000E+00
    0.41904E-04        -0.12809E-01         0.00000E+00
    0.29305E-04        -0.85370E-02         0.00000E+00
    0.15320E-04        -0.42674E-02         0.00000E+00
    0.00000E+00         0.00000E+00         0.00000E+00
    0.99584E-04        -0.64158E-01         0.00000E+00
    0.10409E-03        -0.59877E-01         0.00000E+00
    0.10711E-03        -0.55596E-01         0.00000E+00
    0.10864E-03        -0.51314E-01         0.00000E+00
    0.10865E-03        -0.47033E-01         0.00000E+00
    0.10710E-03        -0.42751E-01         0.00000E+00
    0.10397E-03        -0.38471E-01         0.00000E+00
    0.99198E-04        -0.34191E-01         0.00000E+00
    0.92761E-04        -0.29911E-01         0.00000E+00
    0.84627E-04        -0.25634E-01         0.00000E+00
    0.74776E-04        -0.21357E-01         0.00000E+00
    0.63198E-04        -0.17082E-01         0.00000E+00
    0.49901E-04        -0.12808E-01         0.00000E+00
    0.34904E-04        -0.85367E-02         0.00000E+00
    0.18251E-04        -0.42673E-02         0.00000E+00
    0.00000E+00         0.00000E+00         0.00000E+00
    0.11472E-03        -0.64153E-01         0.00000E+00
    0.11995E-03        -0.59872E-01         0.00000E+00
    0.12348E-03        -0.55591E-01         0.00000E+00
    0.12528E-03        -0.51310E-01         0.00000E+00
    0.12533E-03        -0.47029E-01         0.00000E+00
    0.12358E-03        -0.42748E-01         0.00000E+00
    0.11999E-03        -0.38468E-01         0.00000E+00
    0.11452E-03        -0.34188E-01         0.00000E+00
    0.10711E-03        -0.29909E-01         0.00000E+00
    0.97748E-04        -0.25632E-01         0.00000E+00
    0.86393E-04        -0.21356E-01         0.00000E+00
    0.73037E-04        -0.17081E-01         0.00000E+00
    0.57685E-04        -0.12808E-01         0.00000E+00
    0.40360E-04        -0.85364E-02         0.00000E+00
    0.21108E-04        -0.42671E-02         0.00000E+00
    0.00000E+00         0.00000E+00         0.00000E+00
    0.12915E-03        -0.64146E-01         0.00000E+00
    0.13510E-03        -0.59866E-01         0.00000E+00
    0.13913E-03        -0.55585E-01         0.00000E+00
    0.14121E-03        -0.51305E-01         0.00000E+00
    0.14131E-03        -0.47024E-01         0.00000E+00
    0.13939E-03        -0.42744E-01         0.00000E+00
    0.13539E-03        -0.38464E-01         0.00000E+00
    0.12925E-03        -0.34185E-01         0.00000E+00
    0.12094E-03        -0.29907E-01         0.00000E+00
    0.11040E-03        -0.25630E-01         0.00000E+00
    0.97613E-04        -0.21354E-01         0.00000E+00
    0.82551E-04        -0.17080E-01         0.00000E+00
    0.65220E-04        -0.12807E-01         0.00000E+00
    0.45646E-04        -0.85361E-02         0.00000E+00
    0.23880E-04        -0.42670E-02         0.00000E+00
    0.00000E+00         0.00000E+00         0.00000E+00
    0.14274E-03        -0.64139E-01         0.00000E+00
    0.14940E-03        -0.59859E-01         0.00000E+00
    0.15393E-03        -0.55579E-01         0.00000E+00
    0.15631E-03        -0.51299E-01         0.00000E+00
    0.15649E-03        -0.47019E-01         0.00000E+00
    0.15443E-03        -0.42740E-01         0.00000E+00
    0.15005E-03        -0.38461E-01         0.00000E+00
    0.14332E-03        -0.34182E-01         0.00000E+00
    0.13416E-03        -0.29905E-01         0.00000E+00
    0.12252E-03        -0.25628E-01         0.00000E+00
    0.10837E-03        -0.21353E-01         0.00000E+00
    0.91687E-04        -0.17079E-01         0.00000E+00
    0.72467E-04        -0.12807E-01         0.00000E+00
    0.50738E-04        -0.85358E-02         0.00000E+00
    0.26553E-04        -0.42669E-02         0.00000E+00
    0.00000E+00         0.00000E+00         0.00000E+00
    0.15537E-03        -0.64131E-01         0.00000E+00
    0.16271E-03        -0.59852E-01         0.00000E+00
    0.16774E-03        -0.55573E-01         0.00000E+00
    0.17043E-03        -0.51293E-01         0.00000E+00
    0.17073E-03        -0.47014E-01         0.00000E+00
    0.16857E-03        -0.42735E-01         0.00000E+00
    0.16388E-03        -0.38457E-01         0.00000E+00
    0.15660E-03        -0.34179E-01         0.00000E+00
    0.14667E-03        -0.29902E-01         0.00000E+00
    0.13402E-03        -0.25626E-01         0.00000E+00
    0.11860E-03        -0.21351E-01         0.00000E+00
    0.10039E-03        -0.17078E-01         0.00000E+00
    0.79386E-04        -0.12806E-01         0.00000E+00
    0.55606E-04        -0.85355E-02         0.00000E+00
    0.29112E-04        -0.42668E-02         0.00000E+00
    0.00000E+00         0.00000E+00         0.00000E+00
    0.16687E-03        -0.64122E-01         0.00000E+00
    0.17489E-03        -0.59844E-01         0.00000E+00
    0.18043E-03        -0.55565E-01         0.00000E+00
    0.18345E-03        -0.51287E-01         0.00000E+00
    0.18389E-03        -0.47008E-01         0.00000E+00
    0.18168E-03        -0.42730E-01         0.00000E+00
    0.17675E-03        -0.38453E-01         0.00000E+00
    0.16901E-03        -0.34176E-01         0.00000E+00
    0.15839E-03        -0.29899E-01         0.00000E+00
    0.14482E-03        -0.25624E-01         0.00000E+00
    0.12824E-03        -0.21350E-01         0.00000E+00
    0.10861E-03        -0.17077E-01         0.00000E+00
    0.85932E-04        -0.12805E-01         0.00000E+00
    0.60222E-04        -0.85353E-02         0.00000E+00
    0.31543E-04        -0.42668E-02         0.00000E+00
    0.00000E+00         0.00000E+00         0.00000E+00
    0.17710E-03        -0.64112E-01         0.00000E+00
    0.18576E-03        -0.59835E-01         0.00000E+00
    0.19181E-03        -0.55558E-01         0.00000E+00
    0.19519E-03        -0.51280E-01         0.00000E+00
    0.19583E-03        -0.47002E-01         0.00000E+00
    0.19364E-03        -0.42725E-01         0.00000E+00
    0.18853E-03        -0.38448E-01         0.00000E+00
    0.18042E-03        -0.34172E-01         0.00000E+00
    0.16921E-03        -0.29897E-01         0.00000E+00
    0.15483E-03        -0.25622E-01         0.00000E+00
    0.13720E-03        -0.21349E-01         0.00000E+00
    0.11628E-03        -0.17076E-01         0.00000E+00
    0.92058E-04        -0.12805E-01         0.00000E+00
    0.64553E-04        -0.85351E-02         0.00000E+00
    0.33830E-04        -0.42668E-02         0.00000E+00
    0.00000E+00         0.00000E+00         0.00000E+00
    0.18588E-03        -0.64102E-01         0.00000E+00
    0.19517E-03        -0.59826E-01         0.00000E+00
    0.20174E-03        -0.55549E-01         0.00000E+00
    0.20551E-03        -0.51273E-01         0.00000E+00
    0.20639E-03        -0.46996E-01         0.00000E+00
    0.20429E-03        -0.42720E-01         0.00000E+00
    0.19910E-03        -0.38444E-01         0.00000E+00
    0.19072E-03        -0.34169E-01         0.00000E+00
    0.17903E-03        -0.29894E-01         0.00000E+00
    0.16395E-03        -0.25620E-01         0.00000E+00
    0.14541E-03        -0.21347E-01         0.00000E+00
    0.12333E-03        -0.17075E-01         0.00000E+00
    0.97712E-04        -0.12805E-01         0.00000E+00
    0.68563E-04        -0.85351E-02         0.00000E+00
    0.35954E-04        -0.42668E-02         0.00000E+00
    0.00000E+00         0.00000E+00         0.00000E+00
    0.19303E-03        -0.64091E-01         0.00000E+00
    0.20292E-03        -0.59816E-01         0.00000E+00
    0.21002E-03        -0.55541E-01         0.00000E+00
    0.21421E-03        -0.51265E-01         0.00000E+00
    0.21541E-03        -0.46990E-01         0.00000E+00
    0.21348E-03        -0.42714E-01         0.00000E+00
    0.20830E-03        -0.38440E-01         0.00000E+00
    0.19976E-03        -0.34165E-01         0.00000E+00
    0.18772E-03        -0.29892E-01         0.00000E+00
    0.17209E-03        -0.25619E-01         0.00000E+00
    0.15276E-03        -0.21346E-01         0.00000E+00
    0.12969E-03        -0.17075E-01         0.00000E+00
    0.10283E-03        -0.12805E-01         0.00000E+00
    0.72213E-04        -0.85352E-02         0.00000E+00
    0.37895E-04        -0.42670E-02         0.00000E+00
    0.00000E+00         0.00000E+00         0.00000E+00
    0.19838E-03        -0.64080E-01         0.00000E+00
    0.20884E-03        -0.59806E-01         0.00000E+00
    0.21647E-03        -0.55532E-01         0.00000E+00
    0.22114E-03        -0.51257E-01         0.00000E+00
    0.22271E-03        -0.46983E-01         0.00000E+00
    0.22104E-03        -0.42709E-01         0.00000E+00
    0.21599E-03        -0.38435E-01         0.00000E+00
    0.20740E-03        -0.34162E-01         0.00000E+00
    0.19515E-03        -0.29889E-01         0.00000E+00
    0.17911E-03        -0.25617E-01         0.00000E+00
    0.15917E-03        -0.21345E-01         0.00000E+00
    0.13526E-03        -0.17075E-01         0.00000E+00
    0.10736E-03        -0.12805E-01         0.00000E+00
    0.75458E-04        -0.85354E-02         0.00000E+00
    0.39632E-04        -0.42672E-02         0.00000E+00
    0.00000E+00         0.00000E+00         0.00000E+00
    0.20175E-03        -0.64068E-01         0.00000E+00
    0.21274E-03        -0.59795E-01         0.00000E+00
    0.22091E-03        -0.55522E-01         0.00000E+00
    0.22610E-03        -0.51249E-01         0.00000E+00
    0.22812E-03        -0.46976E-01         0.00000E+00
    0.22680E-03        -0.42704E-01         0.00000E+00
    0.22198E-03        -0.38431E-01         0.00000E+00
    0.21349E-03        -0.34159E-01         0.00000E+00
    0.20117E-03        -0.29887E-01         0.00000E+00
    0.18487E-03        -0.25616E-01         0.00000E+00
    0.16450E-03        -0.21345E-01         0.00000E+00
    0.13995E-03        -0.17075E-01         0.00000E+00
    0.11120E-03        -0.12805E-01         0.00000E+00
    0.78248E-04        -0.85359E-02         0.00000E+00
    0.41140E-04        -0.42676E-02         0.00000E+00
    0.00000E+00         0.00000E+00         0.00000E+00
    0.20295E-03        -0.64055E-01         0.00000E+00
    0.21444E-03        -0.59784E-01         0.00000E+00
    0.22316E-03        -0.55513E-01         0.00000E+00
    0.22889E-03        -0.51241E-01         0.00000E+00
    0.23143E-03        -0.46970E-01         0.00000E+00
    0.23057E-03        -0.42698E-01         0.00000E+00
    0.22610E-03        -0.38427E-01         0.00000E+00
    0.21783E-03        -0.34156E-01         0.00000E+00
    0.20559E-03        -0.29885E-01         0.00000E+00
    0.18922E-03        -0.25615E-01         0.00000E+00
    0.16861E-03        -0.21345E-01         0.00000E+00
    0.14365E-03        -0.17075E-01         0.00000E+00
    0.11429E-03        -0.12806E-01         0.00000E+00
    0.80527E-04        -0.85366E-02         0.00000E+00
    0.42395E-04        -0.42681E-02         0.00000E+00
    0.00000E+00         0.00000E+00         0.00000E+00
    0.20184E-03        -0.64042E-01         0.00000E+00
    0.21378E-03        -0.59773E-01         0.00000E+00
    0.22303E-03        -0.55503E-01         0.00000E+00
    0.22935E-03        -0.51233E-01         0.00000E+00
    0.23246E-03        -0.46963E-01         0.00000E+00
    0.23213E-03        -0.42693E-01         0.00000E+00
    0.22812E-03        -0.38423E-01         0.00000E+00
    0.22022E-03        -0.34153E-01         0.00000E+00
    0.20822E-03        -0.29884E-01         0.00000E+00
    0.19197E-03        -0.25614E-01         0.00000E+00
    0.17134E-03        -0.21345E-01         0.00000E+00
    0.14621E-03        -0.17076E-01         0.00000E+00
    0.11652E-03        -0.12807E-01         0.00000E+00
    0.82232E-04        -0.85376E-02         0.00000E+00
    0.43367E-04        -0.42687E-02         0.00000E+00
    0.00000E+00         0.00000E+00         0.00000E+00
    0.19830E-03        -0.64029E-01         0.00000E+00
    0.21060E-03        -0.59761E-01         0.00000E+00
    0.22038E-03        -0.55493E-01         0.00000E+00
    0.22728E-03        -0.51225E-01         0.00000E+00
    0.23101E-03        -0.46956E-01         0.00000E+00
    0.23129E-03        -0.42688E-01         0.00000E+00
    0.22783E-03        -0.38420E-01         0.00000E+00
    0.22041E-03        -0.34151E-01         0.00000E+00
    0.20883E-03        -0.29883E-01         0.00000E+00
    0.19290E-03        -0.25614E-01         0.00000E+00
    0.17249E-03        -0.21346E-01         0.00000E+00
    0.14748E-03        -0.17077E-01         0.00000E+00
    0.11777E-03        -0.12808E-01         0.00000E+00
    0.83293E-04        -0.85389E-02         0.00000E+00
    0.44026E-04        -0.42695E-02         0.00000E+00
    0.00000E+00         0.00000E+00         0.00000E+00
    0.19222E-03        -0.64015E-01         0.00000E+00
    0.20482E-03        -0.59749E-01         0.00000E+00
    0.21505E-03        -0.55483E-01         0.00000E+00
    0.22252E-03        -0.51216E-01         0.00000E+00
    0.22688E-03        -0.46950E-01         0.00000E+00
    0.22779E-03        -0.42683E-01         0.00000E+00
    0.22496E-03        -0.38416E-01         0.00000E+00
    0.21815E-03        -0.34150E-01         0.00000E+00
    0.20714E-03        -0.29882E-01         0.00000E+00
    0.19176E-03        -0.25615E-01         0.00000E+00
    0.17185E-03        -0.21347E-01         0.00000E+00
    0.14728E-03        -0.17079E-01         0.00000E+00
    0.11791E-03        -0.12810E-01         0.00000E+00
    0.83629E-04        -0.85405E-02         0.00000E+00
    0.44336E-04        -0.42705E-02         0.00000E+00
    0.00000E+00         0.00000E+00         0.00000E+00
    0.18357E-03        -0.64002E-01         0.00000E+00
    0.19635E-03        -0.59737E-01         0.00000E+00
    0.20695E-03        -0.55473E-01         0.00000E+00
    0.21493E-03        -0.51208E-01         0.00000E+00
    0.21987E-03        -0.46944E-01         0.00000E+00
    0.22141E-03        -0.42679E-01         0.00000E+00
    0.21924E-03        -0.38414E-01         0.00000E+00
    0.21312E-03        -0.34148E-01         0.00000E+00
    0.20285E-03        -0.29882E-01         0.00000E+00
    0.18825E-03        -0.25616E-01         0.00000E+00
    0.16916E-03        -0.21349E-01         0.00000E+00
    0.14541E-03        -0.17081E-01         0.00000E+00
    0.11680E-03        -0.12812E-01         0.00000E+00
    0.83143E-04        -0.85424E-02         0.00000E+00
    0.44254E-04        -0.42716E-02         0.00000E+00
    0.00000E+00         0.00000E+00         0.00000E+00
    0.17235E-03        -0.63988E-01         0.00000E+00
    0.18516E-03        -0.59725E-01         0.00000E+00
    0.19600E-03        -0.55463E-01         0.00000E+00
    0.20436E-03        -0.51200E-01         0.00000E+00
    0.20979E-03        -0.46937E-01         0.00000E+00
    0.21189E-03        -0.42674E-01         0.00000E+00
    0.21037E-03        -0.38411E-01         0.00000E+00
    0.20501E-03        -0.34147E-01         0.00000E+00
    0.19563E-03        -0.29883E-01         0.00000E+00
    0.18208E-03        -0.25618E-01         0.00000E+00
    0.16415E-03        -0.21351E-01         0.00000E+00
    0.14163E-03        -0.17084E-01         0.00000E+00
    0.11425E-03        -0.12815E-01         0.00000E+00
    0.81714E-04        -0.85446E-02         0.00000E+00
    0.43723E-04        -0.42729E-02         0.00000E+00
    0.00000E+00         0.00000E+00         0.00000E+00
    0.15859E-03        -0.63974E-01         0.00000E+00
    0.17125E-03        -0.59714E-01         0.00000E+00
    0.18215E-03        -0.55453E-01         0.00000E+00
    0.19072E-03        -0.51192E-01         0.00000E+00
    0.19646E-03        -0.46931E-01         0.00000E+00
    0.19899E-03        -0.42670E-01         0.00000E+00
    0.19805E-03        -0.38409E-01         0.00000E+00
    0.19349E-03        -0.34147E-01         0.00000E+00
    0.18516E-03        -0.29884E-01         0.00000E+00
    0.17289E-03        -0.25620E-01         0.00000E+00
    0.15649E-03        -0.21354E-01         0.00000E+00
    0.13565E-03        -0.17087E-01         0.00000E+00
    0.11003E-03        -0.12818E-01         0.00000E+00
    0.79186E-04        -0.85470E-02         0.00000E+00
    0.42665E-04        -0.42743E-02         0.00000E+00
    0.00000E+00         0.00000E+00         0.00000E+00
    0.14237E-03        -0.63961E-01         0.00000E+00
    0.15466E-03        -0.59702E-01         0.00000E+00
    0.16538E-03        -0.55443E-01         0.00000E+00
    0.17389E-03        -0.51185E-01         0.00000E+00
    0.17969E-03        -0.46926E-01         0.00000E+00
    0.18245E-03        -0.42667E-01         0.00000E+00
    0.18200E-03        -0.38407E-01         0.00000E+00
    0.17824E-03        -0.34147E-01         0.00000E+00
    0.17108E-03        -0.29886E-01         0.00000E+00
    0.16037E-03        -0.25622E-01         0.00000E+00
    0.14585E-03        -0.21357E-01         0.00000E+00
    0.12717E-03        -0.17090E-01         0.00000E+00
    0.10386E-03        -0.12821E-01         0.00000E+00
    0.75351E-04        -0.85496E-02         0.00000E+00
    0.40970E-04        -0.42759E-02         0.00000E+00
    0.00000E+00         0.00000E+00         0.00000E+00
    0.12381E-03        -0.63949E-01         0.00000E+00
    0.13544E-03        -0.59691E-01         0.00000E+00
    0.14566E-03        -0.55434E-01         0.00000E+00
    0.15378E-03        -0.51178E-01         0.00000E+00
    0.15932E-03        -0.46921E-01         0.00000E+00
    0.16207E-03        -0.42664E-01         0.00000E+00
    0.16197E-03        -0.38406E-01         0.00000E+00
    0.15901E-03        -0.34148E-01         0.00000E+00
    0.15312E-03        -0.29887E-01         0.00000E+00
    0.14416E-03        -0.25625E-01         0.00000E+00
    0.13184E-03        -0.21361E-01         0.00000E+00
    0.11578E-03        -0.17094E-01         0.00000E+00
    0.95384E-04        -0.12824E-01         0.00000E+00
    0.69926E-04        -0.85523E-02         0.00000E+00
    0.38482E-04        -0.42775E-02         0.00000E+00
    0.00000E+00         0.00000E+00         0.00000E+00
    0.10304E-03        -0.63937E-01         0.00000E+00
    0.11365E-03        -0.59681E-01         0.00000E+00
    0.12295E-03        -0.55426E-01         0.00000E+00
    0.13024E-03        -0.51171E-01         0.00000E+00
    0.13516E-03        -0.46917E-01         0.00000E+00
    0.13767E-03        -0.42662E-01         0.00000E+00
    0.13782E-03        -0.38406E-01         0.00000E+00
    0.13563E-03        -0.34148E-01         0.00000E+00
    0.13106E-03        -0.29889E-01         0.00000E+00
    0.12397E-03        -0.25627E-01         0.00000E+00
    0.11410E-03        -0.21364E-01         0.00000E+00
    0.10103E-03        -0.17097E-01         0.00000E+00
    0.84139E-04        -0.12828E-01         0.00000E+00
    0.62521E-04        -0.85551E-02         0.00000E+00
    0.34974E-04        -0.42792E-02         0.00000E+00
    0.00000E+00         0.00000E+00         0.00000E+00
    0.80203E-04        -0.63927E-01         0.00000E+00
    0.89296E-04        -0.59673E-01         0.00000E+00
    0.97153E-04        -0.55419E-01         0.00000E+00
    0.10313E-03        -0.51166E-01         0.00000E+00
    0.10712E-03        -0.46914E-01         0.00000E+00
    0.10922E-03        -0.42660E-01         0.00000E+00
    0.10951E-03        -0.38405E-01         0.00000E+00
    0.10803E-03        -0.34149E-01         0.00000E+00
    0.10475E-03        -0.29890E-01         0.00000E+00
    0.99566E-04        -0.25629E-01         0.00000E+00
    0.92255E-04        -0.21366E-01         0.00000E+00
    0.82453E-04        -0.17100E-01         0.00000E+00
    0.69559E-04        -0.12831E-01         0.00000E+00
    0.52605E-04        -0.85577E-02         0.00000E+00
    0.30111E-04        -0.42808E-02         0.00000E+00
    0.00000E+00         0.00000E+00         0.00000E+00
    0.55423E-04        -0.63919E-01         0.00000E+00
    0.62326E-04        -0.59666E-01         0.00000E+00
    0.68095E-04        -0.55414E-01         0.00000E+00
    0.72354E-04        -0.51163E-01         0.00000E+00
    0.75192E-04        -0.46911E-01         0.00000E+00
    0.76737E-04        -0.42659E-01         0.00000E+00
    0.77064E-04        -0.38405E-01         0.00000E+00
    0.76201E-04        -0.34149E-01         0.00000E+00
    0.74132E-04        -0.29891E-01         0.00000E+00
    0.70788E-04        -0.25631E-01         0.00000E+00
    0.66027E-04        -0.21368E-01         0.00000E+00
    0.59586E-04        -0.17102E-01         0.00000E+00
    0.51003E-04        -0.12833E-01         0.00000E+00
    0.39460E-04        -0.85600E-02         0.00000E+00
    0.23375E-04        -0.42825E-02         0.00000E+00
    0.00000E+00         0.00000E+00         0.00000E+00
    0.28711E-04        -0.63913E-01         0.00000E+00
    0.32543E-04        -0.59662E-01         0.00000E+00
    0.35693E-04        -0.55411E-01         0.00000E+00
    0.37950E-04        -0.51161E-01         0.00000E+00
    0.39463E-04        -0.46910E-01         0.00000E+00
    0.40312E-04        -0.42658E-01         0.00000E+00
    0.40542E-04        -0.38404E-01         0.00000E+00
    0.40171E-04        -0.34149E-01         0.00000E+00
    0.39196E-04        -0.29891E-01         0.00000E+00
    0.37586E-04        -0.25632E-01         0.00000E+00
    0.35273E-04        -0.21369E-01         0.00000E+00
    0.32127E-04        -0.17104E-01         0.00000E+00
    0.27907E-04        -0.12835E-01         0.00000E+00
    0.22144E-04        -0.85618E-02         0.00000E+00
    0.13886E-04        -0.42840E-02         0.00000E+00
    0.00000E+00         0.00000E+00         0.00000E+00
    0.00000E+00        -0.63912E-01         0.00000E+00
    0.00000E+00        -0.59661E-01         0.00000E+00
    0.00000E+00        -0.55411E-01         0.00000E+00
    0.00000E+00        -0.51160E-01         0.00000E+00
    0.00000E+00        -0.46909E-01         0.00000E+00
    0.00000E+00        -0.42658E-01         0.00000E+00
    0.00000E+00        -0.38404E-01         0.00000E+00
    0.00000E+00        -0.34149E-01         0.00000E+00
    0.00000E+00        -0.29892E-01         0.00000E+00
    0.00000E+00        -0.25632E-01         0.00000E+00
    0.00000E+00        -0.21369E-01         0.00000E+00
    0.00000E+00        -0.17104E-01         0.00000E+00
    0.00000E+00        -0.12835E-01         0.00000E+00
    0.00000E+00        -0.85626E-02         0.00000E+00
    0.00000E+00        -0.42849E-02         0.00000E+00
    0.00000E+00         0.00000E+00         0.00000E+00
CELL_DATA        450
VECTORS vDarcy double 
    0.23478E-13        -0.14442E-14         0.00000E+00
    0.23473E-13        -0.37959E-14         0.00000E+00
    0.23464E-13        -0.56270E-14         0.00000E+00
    0.23451E-13        -0.69702E-14         0.00000E+00
    0.23437E-13        -0.78600E-14         0.00000E+00
    0.23421E-13        -0.83323E-14         0.00000E+00
    0.23405E-13        -0.84253E-14         0.00000E+00
    0.23389E-13        -0.81786E-14         0.00000E+00
    0.23373E-13        -0.76343E-14         0.00000E+00
    0.23359E-13        -0.68362E-14         0.00000E+00
    0.23347E-13        -0.58300E-14         0.00000E+00
    0.23336E-13        -0.46634E-14         0.00000E+00
    0.23329E-13        -0.33862E-14         0.00000E+00
    0.23323E-13        -0.20499E-14         0.00000E+00
    0.23321E-13        -0.70787E-15         0.00000E+00
    0.70362E-13        -0.14385E-14         0.00000E+00
    0.70347E-13        -0.37808E-14         0.00000E+00
    0.70319E-13        -0.56048E-14         0.00000E+00
    0.70281E-13        -0.69428E-14         0.00000E+00
    0.70238E-13        -0.78291E-14         0.00000E+00
    0.70190E-13        -0.82996E-14         0.00000E+00
    0.70140E-13        -0.83922E-14         0.00000E+00
    0.70091E-13        -0.81466E-14         0.00000E+00
    0.70045E-13        -0.76044E-14         0.00000E+00
    0.70002E-13        -0.68094E-14         0.00000E+00
    0.69965E-13        -0.58071E-14         0.00000E+00
    0.69934E-13        -0.46452E-14         0.00000E+00
    0.69910E-13        -0.33730E-14         0.00000E+00
    0.69895E-13        -0.20419E-14         0.00000E+00
    0.69886E-13        -0.70507E-15         0.00000E+00
    0.11703E-12        -0.14269E-14         0.00000E+00
    0.11700E-12        -0.37505E-14         0.00000E+00
    0.11696E-12        -0.55599E-14         0.00000E+00
    0.11689E-12        -0.68874E-14         0.00000E+00
    0.11682E-12        -0.77667E-14         0.00000E+00
    0.11674E-12        -0.82336E-14         0.00000E+00
    0.11666E-12        -0.83254E-14         0.00000E+00
    0.11657E-12        -0.80818E-14         0.00000E+00
    0.11649E-12        -0.75439E-14         0.00000E+00
    0.11642E-12        -0.67552E-14         0.00000E+00
    0.11636E-12        -0.57610E-14         0.00000E+00
    0.11631E-12        -0.46083E-14         0.00000E+00
    0.11627E-12        -0.33463E-14         0.00000E+00
    0.11624E-12        -0.20258E-14         0.00000E+00
    0.11623E-12        -0.69942E-15         0.00000E+00
    0.16334E-12        -0.14092E-14         0.00000E+00
    0.16330E-12        -0.37042E-14         0.00000E+00
    0.16323E-12        -0.54915E-14         0.00000E+00
    0.16314E-12        -0.68028E-14         0.00000E+00
    0.16304E-12        -0.76715E-14         0.00000E+00
    0.16292E-12        -0.81327E-14         0.00000E+00
    0.16280E-12        -0.82235E-14         0.00000E+00
    0.16268E-12        -0.79828E-14         0.00000E+00
    0.16257E-12        -0.74516E-14         0.00000E+00
    0.16247E-12        -0.66725E-14         0.00000E+00
    0.16238E-12        -0.56905E-14         0.00000E+00
    0.16230E-12        -0.45520E-14         0.00000E+00
    0.16225E-12        -0.33056E-14         0.00000E+00
    0.16221E-12        -0.20012E-14         0.00000E+00
    0.16219E-12        -0.69080E-15         0.00000E+00
    0.20914E-12        -0.13851E-14         0.00000E+00
    0.20909E-12        -0.36410E-14         0.00000E+00
    0.20900E-12        -0.53981E-14         0.00000E+00
    0.20889E-12        -0.66873E-14         0.00000E+00
    0.20875E-12        -0.75415E-14         0.00000E+00
    0.20859E-12        -0.79951E-14         0.00000E+00
    0.20844E-12        -0.80844E-14         0.00000E+00
    0.20828E-12        -0.78478E-14         0.00000E+00
    0.20813E-12        -0.73255E-14         0.00000E+00
    0.20800E-12        -0.65596E-14         0.00000E+00
    0.20788E-12        -0.55942E-14         0.00000E+00
    0.20778E-12        -0.44751E-14         0.00000E+00
    0.20770E-12        -0.32499E-14         0.00000E+00
    0.20765E-12        -0.19676E-14         0.00000E+00
    0.20763E-12        -0.67903E-15         0.00000E+00
    0.25431E-12        -0.13541E-14         0.00000E+00
    0.25424E-12        -0.35597E-14         0.00000E+00
    0.25413E-12        -0.52778E-14         0.00000E+00
    0.25398E-12        -0.65387E-14         0.00000E+00
    0.25380E-12        -0.73742E-14         0.00000E+00
    0.25361E-12        -0.78179E-14         0.00000E+00
    0.25341E-12        -0.79054E-14         0.00000E+00
    0.25322E-12        -0.76741E-14         0.00000E+00
    0.25303E-12        -0.71633E-14         0.00000E+00
    0.25286E-12        -0.64143E-14         0.00000E+00
    0.25271E-12        -0.54703E-14         0.00000E+00
    0.25258E-12        -0.43760E-14         0.00000E+00
    0.25249E-12        -0.31780E-14         0.00000E+00
    0.25242E-12        -0.19242E-14         0.00000E+00
    0.25239E-12        -0.66390E-15         0.00000E+00
    0.29868E-12        -0.13155E-14         0.00000E+00
    0.29861E-12        -0.34586E-14         0.00000E+00
    0.29847E-12        -0.51285E-14         0.00000E+00
    0.29829E-12        -0.63542E-14         0.00000E+00
    0.29807E-12        -0.71665E-14         0.00000E+00
    0.29783E-12        -0.75981E-14         0.00000E+00
    0.29759E-12        -0.76832E-14         0.00000E+00
    0.29735E-12        -0.74584E-14         0.00000E+00
    0.29712E-12        -0.69619E-14         0.00000E+00
    0.29691E-12        -0.62339E-14         0.00000E+00
    0.29673E-12        -0.53164E-14         0.00000E+00
    0.29657E-12        -0.42529E-14         0.00000E+00
    0.29646E-12        -0.30887E-14         0.00000E+00
    0.29638E-12        -0.18702E-14         0.00000E+00
    0.29634E-12        -0.64514E-15         0.00000E+00
    0.34214E-12        -0.12687E-14         0.00000E+00
    0.34205E-12        -0.33361E-14         0.00000E+00
    0.34188E-12        -0.49473E-14         0.00000E+00
    0.34166E-12        -0.61304E-14         0.00000E+00
    0.34140E-12        -0.69147E-14         0.00000E+00
    0.34112E-12        -0.73316E-14         0.00000E+00
    0.34083E-12        -0.74140E-14         0.00000E+00
    0.34054E-12        -0.71972E-14         0.00000E+00
    0.34026E-12        -0.67181E-14         0.00000E+00
    0.34001E-12        -0.60154E-14         0.00000E+00
    0.33979E-12        -0.51299E-14         0.00000E+00
    0.33961E-12        -0.41037E-14         0.00000E+00
    0.33947E-12        -0.29803E-14         0.00000E+00
    0.33937E-12        -0.18047E-14         0.00000E+00
    0.33932E-12        -0.62245E-15         0.00000E+00
    0.38455E-12        -0.12129E-14         0.00000E+00
    0.38444E-12        -0.31898E-14         0.00000E+00
    0.38424E-12        -0.47313E-14         0.00000E+00
    0.38398E-12        -0.58637E-14         0.00000E+00
    0.38367E-12        -0.66147E-14         0.00000E+00
    0.38334E-12        -0.70142E-14         0.00000E+00
    0.38299E-12        -0.70936E-14         0.00000E+00
    0.38265E-12        -0.68864E-14         0.00000E+00
    0.38232E-12        -0.64280E-14         0.00000E+00
    0.38203E-12        -0.57556E-14         0.00000E+00
    0.38177E-12        -0.49082E-14         0.00000E+00
    0.38155E-12        -0.39261E-14         0.00000E+00
    0.38138E-12        -0.28513E-14         0.00000E+00
    0.38127E-12        -0.17265E-14         0.00000E+00
    0.38121E-12        -0.59552E-15         0.00000E+00
    0.42576E-12        -0.11471E-14         0.00000E+00
    0.42563E-12        -0.30177E-14         0.00000E+00
    0.42540E-12        -0.44771E-14         0.00000E+00
    0.42510E-12        -0.55499E-14         0.00000E+00
    0.42474E-12        -0.62620E-14         0.00000E+00
    0.42435E-12        -0.66413E-14         0.00000E+00
    0.42394E-12        -0.67174E-14         0.00000E+00
    0.42354E-12        -0.65217E-14         0.00000E+00
    0.42316E-12        -0.60878E-14         0.00000E+00
    0.42282E-12        -0.54510E-14         0.00000E+00
    0.42251E-12        -0.46482E-14         0.00000E+00
    0.42226E-12        -0.37179E-14         0.00000E+00
    0.42207E-12        -0.26999E-14         0.00000E+00
    0.42194E-12        -0.16348E-14         0.00000E+00
    0.42187E-12        -0.56403E-15         0.00000E+00
    0.46566E-12        -0.10704E-14         0.00000E+00
    0.46551E-12        -0.28172E-14         0.00000E+00
    0.46524E-12        -0.41812E-14         0.00000E+00
    0.46489E-12        -0.51849E-14         0.00000E+00
    0.46447E-12        -0.58521E-14         0.00000E+00
    0.46402E-12        -0.62083E-14         0.00000E+00
    0.46356E-12        -0.62808E-14         0.00000E+00
    0.46309E-12        -0.60989E-14         0.00000E+00
    0.46266E-12        -0.56937E-14         0.00000E+00
    0.46226E-12        -0.50982E-14         0.00000E+00
    0.46191E-12        -0.43472E-14         0.00000E+00
    0.46162E-12        -0.34769E-14         0.00000E+00
    0.46139E-12        -0.25245E-14         0.00000E+00
    0.46124E-12        -0.15286E-14         0.00000E+00
    0.46117E-12        -0.52769E-15         0.00000E+00
    0.50411E-12        -0.98186E-15         0.00000E+00
    0.50394E-12        -0.25858E-14         0.00000E+00
    0.50364E-12        -0.38400E-14         0.00000E+00
    0.50323E-12        -0.47645E-14         0.00000E+00
    0.50275E-12        -0.53803E-14         0.00000E+00
    0.50224E-12        -0.57104E-14         0.00000E+00
    0.50170E-12        -0.57794E-14         0.00000E+00
    0.50118E-12        -0.56137E-14         0.00000E+00
    0.50068E-12        -0.52419E-14         0.00000E+00
    0.50022E-12        -0.46942E-14         0.00000E+00
    0.49982E-12        -0.40027E-14         0.00000E+00
    0.49949E-12        -0.32010E-14         0.00000E+00
    0.49924E-12        -0.23238E-14         0.00000E+00
    0.49907E-12        -0.14069E-14         0.00000E+00
    0.49898E-12        -0.48623E-15         0.00000E+00
    0.54100E-12        -0.88053E-15         0.00000E+00
    0.54081E-12        -0.23213E-14         0.00000E+00
    0.54046E-12        -0.34503E-14         0.00000E+00
    0.54000E-12        -0.42846E-14         0.00000E+00
    0.53946E-12        -0.48425E-14         0.00000E+00
    0.53887E-12        -0.51435E-14         0.00000E+00
    0.53826E-12        -0.52092E-14         0.00000E+00
    0.53767E-12        -0.50627E-14         0.00000E+00
    0.53711E-12        -0.47293E-14         0.00000E+00
    0.53659E-12        -0.42363E-14         0.00000E+00
    0.53614E-12        -0.36125E-14         0.00000E+00
    0.53577E-12        -0.28887E-14         0.00000E+00
    0.53548E-12        -0.20967E-14         0.00000E+00
    0.53529E-12        -0.12692E-14         0.00000E+00
    0.53519E-12        -0.43947E-15         0.00000E+00
    0.57620E-12        -0.76562E-15         0.00000E+00
    0.57599E-12        -0.20217E-14         0.00000E+00
    0.57559E-12        -0.30093E-14         0.00000E+00
    0.57507E-12        -0.37422E-14         0.00000E+00
    0.57446E-12        -0.42352E-14         0.00000E+00
    0.57380E-12        -0.45042E-14         0.00000E+00
    0.57313E-12        -0.45670E-14         0.00000E+00
    0.57246E-12        -0.44430E-14         0.00000E+00
    0.57183E-12        -0.41537E-14         0.00000E+00
    0.57126E-12        -0.37227E-14         0.00000E+00
    0.57075E-12        -0.31754E-14         0.00000E+00
    0.57034E-12        -0.25392E-14         0.00000E+00
    0.57002E-12        -0.18426E-14         0.00000E+00
    0.56981E-12        -0.11153E-14         0.00000E+00
    0.56970E-12        -0.38736E-15         0.00000E+00
    0.60961E-12        -0.63661E-15         0.00000E+00
    0.60936E-12        -0.16856E-14         0.00000E+00
    0.60892E-12        -0.25151E-14         0.00000E+00
    0.60834E-12        -0.31351E-14         0.00000E+00
    0.60767E-12        -0.35562E-14         0.00000E+00
    0.60693E-12        -0.37904E-14         0.00000E+00
    0.60618E-12        -0.38510E-14         0.00000E+00
    0.60544E-12        -0.37532E-14         0.00000E+00
    0.60475E-12        -0.35140E-14         0.00000E+00
    0.60411E-12        -0.31529E-14         0.00000E+00
    0.60356E-12        -0.26913E-14         0.00000E+00
    0.60310E-12        -0.21526E-14         0.00000E+00
    0.60275E-12        -0.15619E-14         0.00000E+00
    0.60252E-12        -0.94532E-15         0.00000E+00
    0.60240E-12        -0.32998E-15         0.00000E+00
    0.64110E-12        -0.49339E-15         0.00000E+00
    0.64083E-12        -0.13130E-14         0.00000E+00
    0.64034E-12        -0.19675E-14         0.00000E+00
    0.63971E-12        -0.24628E-14         0.00000E+00
    0.63896E-12        -0.28052E-14         0.00000E+00
    0.63815E-12        -0.30020E-14         0.00000E+00
    0.63733E-12        -0.30614E-14         0.00000E+00
    0.63652E-12        -0.29937E-14         0.00000E+00
    0.63576E-12        -0.28111E-14         0.00000E+00
    0.63506E-12        -0.25282E-14         0.00000E+00
    0.63446E-12        -0.21617E-14         0.00000E+00
    0.63397E-12        -0.17306E-14         0.00000E+00
    0.63359E-12        -0.12559E-14         0.00000E+00
    0.63333E-12        -0.76034E-15         0.00000E+00
    0.63320E-12        -0.26767E-15         0.00000E+00
    0.67057E-12        -0.33639E-15         0.00000E+00
    0.67027E-12        -0.90477E-15         0.00000E+00
    0.66975E-12        -0.13680E-14         0.00000E+00
    0.66905E-12        -0.17275E-14         0.00000E+00
    0.66824E-12        -0.19845E-14         0.00000E+00
    0.66737E-12        -0.21413E-14         0.00000E+00
    0.66647E-12        -0.22008E-14         0.00000E+00
    0.66560E-12        -0.21676E-14         0.00000E+00
    0.66477E-12        -0.20484E-14         0.00000E+00
    0.66403E-12        -0.18521E-14         0.00000E+00
    0.66338E-12        -0.15901E-14         0.00000E+00
    0.66285E-12        -0.12765E-14         0.00000E+00
    0.66245E-12        -0.92760E-15         0.00000E+00
    0.66217E-12        -0.56220E-15         0.00000E+00
    0.66204E-12        -0.20102E-15         0.00000E+00
    0.69791E-12        -0.16678E-15         0.00000E+00
    0.69760E-12        -0.46412E-15         0.00000E+00
    0.69703E-12        -0.72116E-15         0.00000E+00
    0.69629E-12        -0.93429E-15         0.00000E+00
    0.69542E-12        -0.10999E-14         0.00000E+00
    0.69449E-12        -0.12145E-14         0.00000E+00
    0.69353E-12        -0.12754E-14         0.00000E+00
    0.69260E-12        -0.12812E-14         0.00000E+00
    0.69172E-12        -0.12322E-14         0.00000E+00
    0.69093E-12        -0.11310E-14         0.00000E+00
    0.69024E-12        -0.98281E-15         0.00000E+00
    0.68969E-12        -0.79584E-15         0.00000E+00
    0.68926E-12        -0.58136E-15         0.00000E+00
    0.68898E-12        -0.35385E-15         0.00000E+00
    0.68884E-12        -0.13098E-15         0.00000E+00
    0.72303E-12         0.13396E-16         0.00000E+00
    0.72270E-12         0.35893E-17         0.00000E+00
    0.72211E-12        -0.34759E-16         0.00000E+00
    0.72132E-12        -0.92854E-16         0.00000E+00
    0.72041E-12        -0.16172E-15         0.00000E+00
    0.71943E-12        -0.23240E-15         0.00000E+00
    0.71842E-12        -0.29626E-15         0.00000E+00
    0.71744E-12        -0.34541E-15         0.00000E+00
    0.71653E-12        -0.37326E-15         0.00000E+00
    0.71570E-12        -0.37521E-15         0.00000E+00
    0.71500E-12        -0.34932E-15         0.00000E+00
    0.71442E-12        -0.29704E-15         0.00000E+00
    0.71399E-12        -0.22380E-15         0.00000E+00
    0.71370E-12        -0.13951E-15         0.00000E+00
    0.71355E-12        -0.58860E-16         0.00000E+00
    0.74582E-12         0.20107E-15         0.00000E+00
    0.74548E-12         0.49021E-15         0.00000E+00
    0.74487E-12         0.67909E-15         0.00000E+00
    0.74406E-12         0.78207E-15         0.00000E+00
    0.74313E-12         0.81356E-15         0.00000E+00
    0.74212E-12         0.78795E-15         0.00000E+00
    0.74108E-12         0.71971E-15         0.00000E+00
    0.74008E-12         0.62328E-15         0.00000E+00
    0.73914E-12         0.51264E-15         0.00000E+00
    0.73830E-12         0.40049E-15         0.00000E+00
    0.73759E-12         0.29703E-15         0.00000E+00
    0.73701E-12         0.20858E-15         0.00000E+00
    0.73658E-12         0.13633E-15         0.00000E+00
    0.73629E-12         0.75281E-16         0.00000E+00
    0.73615E-12         0.13596E-16         0.00000E+00
    0.76619E-12         0.39214E-15         0.00000E+00
    0.76585E-12         0.98448E-15         0.00000E+00
    0.76524E-12         0.14034E-14         0.00000E+00
    0.76443E-12         0.16693E-14         0.00000E+00
    0.76350E-12         0.18021E-14         0.00000E+00
    0.76249E-12         0.18215E-14         0.00000E+00
    0.76146E-12         0.17474E-14         0.00000E+00
    0.76046E-12         0.16008E-14         0.00000E+00
    0.75953E-12         0.14031E-14         0.00000E+00
    0.75870E-12         0.11759E-14         0.00000E+00
    0.75800E-12         0.93859E-15         0.00000E+00
    0.75743E-12         0.70644E-15         0.00000E+00
    0.75702E-12         0.48801E-15         0.00000E+00
    0.75674E-12         0.28364E-15         0.00000E+00
    0.75661E-12         0.84252E-16         0.00000E+00
    0.78405E-12         0.58138E-15         0.00000E+00
    0.78371E-12         0.14718E-14         0.00000E+00
    0.78312E-12         0.21155E-14         0.00000E+00
    0.78235E-12         0.25400E-14         0.00000E+00
    0.78145E-12         0.27708E-14         0.00000E+00
    0.78048E-12         0.28330E-14         0.00000E+00
    0.77949E-12         0.27516E-14         0.00000E+00
    0.77853E-12         0.25534E-14         0.00000E+00
    0.77765E-12         0.22675E-14         0.00000E+00
    0.77686E-12         0.19243E-14         0.00000E+00
    0.77620E-12         0.15531E-14         0.00000E+00
    0.77568E-12         0.11788E-14         0.00000E+00
    0.77529E-12         0.81818E-15         0.00000E+00
    0.77504E-12         0.47753E-15         0.00000E+00
    0.77492E-12         0.15062E-15         0.00000E+00
    0.79929E-12         0.76243E-15         0.00000E+00
    0.79898E-12         0.19338E-14         0.00000E+00
    0.79844E-12         0.27866E-14         0.00000E+00
    0.79773E-12         0.33565E-14         0.00000E+00
    0.79691E-12         0.36757E-14         0.00000E+00
    0.79603E-12         0.37747E-14         0.00000E+00
    0.79515E-12         0.36838E-14         0.00000E+00
    0.79429E-12         0.34355E-14         0.00000E+00
    0.79350E-12         0.30655E-14         0.00000E+00
    0.79279E-12         0.26121E-14         0.00000E+00
    0.79221E-12         0.21137E-14         0.00000E+00
    0.79175E-12         0.16050E-14         0.00000E+00
    0.79141E-12         0.11121E-14         0.00000E+00
    0.79120E-12         0.64796E-15         0.00000E+00
    0.79109E-12         0.20994E-15         0.00000E+00
    0.81184E-12         0.92762E-15         0.00000E+00
    0.81157E-12         0.23477E-14         0.00000E+00
    0.81111E-12         0.33801E-14         0.00000E+00
    0.81051E-12         0.40705E-14         0.00000E+00
    0.80983E-12         0.44594E-14         0.00000E+00
    0.80911E-12         0.45840E-14         0.00000E+00
    0.80840E-12         0.44807E-14         0.00000E+00
    0.80770E-12         0.41875E-14         0.00000E+00
    0.80707E-12         0.37452E-14         0.00000E+00
    0.80650E-12         0.31971E-14         0.00000E+00
    0.80603E-12         0.25882E-14         0.00000E+00
    0.80566E-12         0.19617E-14         0.00000E+00
    0.80540E-12         0.13536E-14         0.00000E+00
    0.80523E-12         0.78535E-15         0.00000E+00
    0.80515E-12         0.25932E-15         0.00000E+00
    0.82158E-12         0.10676E-14         0.00000E+00
    0.82138E-12         0.26853E-14         0.00000E+00
    0.82103E-12         0.38501E-14         0.00000E+00
    0.82061E-12         0.46209E-14         0.00000E+00
    0.82015E-12         0.50492E-14         0.00000E+00
    0.81968E-12         0.51814E-14         0.00000E+00
    0.81921E-12         0.50621E-14         0.00000E+00
    0.81878E-12         0.47345E-14         0.00000E+00
    0.81837E-12         0.42417E-14         0.00000E+00
    0.81801E-12         0.36276E-14         0.00000E+00
    0.81770E-12         0.29387E-14         0.00000E+00
    0.81746E-12         0.22230E-14         0.00000E+00
    0.81729E-12         0.15257E-14         0.00000E+00
    0.81719E-12         0.87986E-15         0.00000E+00
    0.81714E-12         0.29593E-15         0.00000E+00
    0.82843E-12         0.11704E-14         0.00000E+00
    0.82831E-12         0.29095E-14         0.00000E+00
    0.82814E-12         0.41364E-14         0.00000E+00
    0.82797E-12         0.49288E-14         0.00000E+00
    0.82782E-12         0.53537E-14         0.00000E+00
    0.82769E-12         0.54707E-14         0.00000E+00
    0.82759E-12         0.53331E-14         0.00000E+00
    0.82751E-12         0.49879E-14         0.00000E+00
    0.82742E-12         0.44771E-14         0.00000E+00
    0.82734E-12         0.38403E-14         0.00000E+00
    0.82725E-12         0.31186E-14         0.00000E+00
    0.82718E-12         0.23583E-14         0.00000E+00
    0.82713E-12         0.16104E-14         0.00000E+00
    0.82711E-12         0.92168E-15         0.00000E+00
    0.82710E-12         0.31720E-15         0.00000E+00
    0.83225E-12         0.12193E-14         0.00000E+00
    0.83226E-12         0.29682E-14         0.00000E+00
    0.83235E-12         0.41565E-14         0.00000E+00
    0.83254E-12         0.48911E-14         0.00000E+00
    0.83282E-12         0.52615E-14         0.00000E+00
    0.83316E-12         0.53409E-14         0.00000E+00
    0.83353E-12         0.51881E-14         0.00000E+00
    0.83390E-12         0.48498E-14         0.00000E+00
    0.83424E-12         0.43629E-14         0.00000E+00
    0.83452E-12         0.37589E-14         0.00000E+00
    0.83473E-12         0.30686E-14         0.00000E+00
    0.83489E-12         0.23284E-14         0.00000E+00
    0.83499E-12         0.15864E-14         0.00000E+00
    0.83506E-12         0.90075E-15         0.00000E+00
    0.83509E-12         0.32146E-15         0.00000E+00
    0.83291E-12         0.11869E-14         0.00000E+00
    0.83312E-12         0.27789E-14         0.00000E+00
    0.83359E-12         0.37883E-14         0.00000E+00
    0.83428E-12         0.43735E-14         0.00000E+00
    0.83514E-12         0.46424E-14         0.00000E+00
    0.83608E-12         0.46724E-14         0.00000E+00
    0.83704E-12         0.45185E-14         0.00000E+00
    0.83797E-12         0.42200E-14         0.00000E+00
    0.83882E-12         0.38055E-14         0.00000E+00
    0.83956E-12         0.32971E-14         0.00000E+00
    0.84016E-12         0.27137E-14         0.00000E+00
    0.84062E-12         0.20771E-14         0.00000E+00
    0.84093E-12         0.14213E-14         0.00000E+00
    0.84112E-12         0.80639E-15         0.00000E+00
    0.84120E-12         0.30723E-15         0.00000E+00
    0.83021E-12         0.10242E-14         0.00000E+00
    0.83076E-12         0.21794E-14         0.00000E+00
    0.83183E-12         0.28513E-14         0.00000E+00
    0.83323E-12         0.32108E-14         0.00000E+00
    0.83482E-12         0.33557E-14         0.00000E+00
    0.83649E-12         0.33459E-14         0.00000E+00
    0.83815E-12         0.32201E-14         0.00000E+00
    0.83973E-12         0.30038E-14         0.00000E+00
    0.84119E-12         0.27148E-14         0.00000E+00
    0.84247E-12         0.23658E-14         0.00000E+00
    0.84355E-12         0.19663E-14         0.00000E+00
    0.84439E-12         0.15256E-14         0.00000E+00
    0.84499E-12         0.10589E-14         0.00000E+00
    0.84537E-12         0.60454E-15         0.00000E+00
    0.84552E-12         0.28674E-15         0.00000E+00
    0.82380E-12         0.45124E-15         0.00000E+00
    0.82512E-12         0.87475E-15         0.00000E+00
    0.82710E-12         0.11070E-14         0.00000E+00
    0.82943E-12         0.12229E-14         0.00000E+00
    0.83192E-12         0.12638E-14         0.00000E+00
    0.83443E-12         0.12518E-14         0.00000E+00
    0.83688E-12         0.12006E-14         0.00000E+00
    0.83920E-12         0.11189E-14         0.00000E+00
    0.84133E-12         0.10127E-14         0.00000E+00
    0.84323E-12         0.88595E-15         0.00000E+00
    0.84486E-12         0.74158E-15         0.00000E+00
    0.84618E-12         0.58177E-15         0.00000E+00
    0.84717E-12         0.40978E-15         0.00000E+00
    0.84782E-12         0.23480E-15         0.00000E+00
    0.84820E-12         0.13912E-15         0.00000E+00
POINT_DATA        496
VECTORS vDarcyNodal double 
    0.23480E-13        -0.14456E-14         0.00000E+00
    0.23477E-13        -0.26226E-14         0.00000E+00
    0.23469E-13        -0.47160E-14         0.00000E+00
    0.23458E-13        -0.63048E-14         0.00000E+00
    0.23445E-13        -0.74223E-14         0.00000E+00
    0.23429E-13        -0.81041E-14         0.00000E+00
    0.23413E-13        -0.83870E-14         0.00000E+00
    0.23396E-13        -0.83100E-14         0.00000E+00
    0.23381E-13        -0.79142E-14         0.00000E+00
    0.23366E-13        -0.72423E-14         0.00000E+00
    0.23352E-13        -0.63392E-14         0.00000E+00
    0.23341E-13        -0.52518E-14         0.00000E+00
    0.23332E-13        -0.40287E-14         0.00000E+00
    0.23325E-13        -0.27206E-14         0.00000E+00
    0.23321E-13        -0.13802E-14         0.00000E+00
    0.23320E-13        -0.70856E-15         0.00000E+00
    0.46923E-13        -0.14428E-14         0.00000E+00
    0.46917E-13        -0.26175E-14         0.00000E+00
    0.46902E-13        -0.47068E-14         0.00000E+00
    0.46880E-13        -0.62924E-14         0.00000E+00
    0.46853E-13        -0.74078E-14         0.00000E+00
    0.46822E-13        -0.80882E-14         0.00000E+00
    0.46789E-13        -0.83706E-14         0.00000E+00
    0.46756E-13        -0.82939E-14         0.00000E+00
    0.46724E-13        -0.78988E-14         0.00000E+00
    0.46694E-13        -0.72282E-14         0.00000E+00
    0.46667E-13        -0.63269E-14         0.00000E+00
    0.46644E-13        -0.52416E-14         0.00000E+00
    0.46626E-13        -0.40209E-14         0.00000E+00
    0.46613E-13        -0.27154E-14         0.00000E+00
    0.46605E-13        -0.13775E-14         0.00000E+00
    0.46602E-13        -0.70717E-15         0.00000E+00
    0.93702E-13        -0.14342E-14         0.00000E+00
    0.93690E-13        -0.26019E-14         0.00000E+00
    0.93660E-13        -0.46788E-14         0.00000E+00
    0.93615E-13        -0.62551E-14         0.00000E+00
    0.93560E-13        -0.73640E-14         0.00000E+00
    0.93497E-13        -0.80405E-14         0.00000E+00
    0.93431E-13        -0.83212E-14         0.00000E+00
    0.93364E-13        -0.82449E-14         0.00000E+00
    0.93300E-13        -0.78522E-14         0.00000E+00
    0.93239E-13        -0.71856E-14         0.00000E+00
    0.93185E-13        -0.62896E-14         0.00000E+00
    0.93139E-13        -0.52107E-14         0.00000E+00
    0.93102E-13        -0.39973E-14         0.00000E+00
    0.93075E-13        -0.26995E-14         0.00000E+00
    0.93059E-13        -0.13695E-14         0.00000E+00
    0.93053E-13        -0.70297E-15         0.00000E+00
    0.14019E-12        -0.14196E-14         0.00000E+00
    0.14017E-12        -0.25755E-14         0.00000E+00
    0.14013E-12        -0.46316E-14         0.00000E+00
    0.14006E-12        -0.61921E-14         0.00000E+00
    0.13998E-12        -0.72900E-14         0.00000E+00
    0.13988E-12        -0.79598E-14         0.00000E+00
    0.13978E-12        -0.82378E-14         0.00000E+00
    0.13968E-12        -0.81623E-14         0.00000E+00
    0.13958E-12        -0.77735E-14         0.00000E+00
    0.13949E-12        -0.71135E-14         0.00000E+00
    0.13940E-12        -0.62266E-14         0.00000E+00
    0.13933E-12        -0.51586E-14         0.00000E+00
    0.13928E-12        -0.39574E-14         0.00000E+00
    0.13924E-12        -0.26727E-14         0.00000E+00
    0.13921E-12        -0.13558E-14         0.00000E+00
    0.13920E-12        -0.69587E-15         0.00000E+00
    0.18625E-12        -0.13988E-14         0.00000E+00
    0.18623E-12        -0.25379E-14         0.00000E+00
    0.18617E-12        -0.45641E-14         0.00000E+00
    0.18607E-12        -0.61021E-14         0.00000E+00
    0.18596E-12        -0.71842E-14         0.00000E+00
    0.18583E-12        -0.78444E-14         0.00000E+00
    0.18569E-12        -0.81185E-14         0.00000E+00
    0.18555E-12        -0.80441E-14         0.00000E+00
    0.18541E-12        -0.76609E-14         0.00000E+00
    0.18529E-12        -0.70105E-14         0.00000E+00
    0.18518E-12        -0.61364E-14         0.00000E+00
    0.18508E-12        -0.50840E-14         0.00000E+00
    0.18500E-12        -0.39002E-14         0.00000E+00
    0.18495E-12        -0.26342E-14         0.00000E+00
    0.18491E-12        -0.13363E-14         0.00000E+00
    0.18490E-12        -0.68573E-15         0.00000E+00
    0.23174E-12        -0.13714E-14         0.00000E+00
    0.23171E-12        -0.24882E-14         0.00000E+00
    0.23163E-12        -0.44750E-14         0.00000E+00
    0.23151E-12        -0.59833E-14         0.00000E+00
    0.23136E-12        -0.70446E-14         0.00000E+00
    0.23119E-12        -0.76921E-14         0.00000E+00
    0.23101E-12        -0.79610E-14         0.00000E+00
    0.23084E-12        -0.78881E-14         0.00000E+00
    0.23066E-12        -0.75124E-14         0.00000E+00
    0.23050E-12        -0.68746E-14         0.00000E+00
    0.23035E-12        -0.60174E-14         0.00000E+00
    0.23023E-12        -0.49854E-14         0.00000E+00
    0.23013E-12        -0.38247E-14         0.00000E+00
    0.23006E-12        -0.25833E-14         0.00000E+00
    0.23002E-12        -0.13104E-14         0.00000E+00
    0.23000E-12        -0.67234E-15         0.00000E+00
    0.27651E-12        -0.13367E-14         0.00000E+00
    0.27648E-12        -0.24255E-14         0.00000E+00
    0.27637E-12        -0.43625E-14         0.00000E+00
    0.27623E-12        -0.58333E-14         0.00000E+00
    0.27604E-12        -0.68684E-14         0.00000E+00
    0.27583E-12        -0.75000E-14         0.00000E+00
    0.27561E-12        -0.77624E-14         0.00000E+00
    0.27539E-12        -0.76914E-14         0.00000E+00
    0.27518E-12        -0.73250E-14         0.00000E+00
    0.27497E-12        -0.67030E-14         0.00000E+00
    0.27479E-12        -0.58672E-14         0.00000E+00
    0.27464E-12        -0.48609E-14         0.00000E+00
    0.27452E-12        -0.37293E-14         0.00000E+00
    0.27443E-12        -0.25189E-14         0.00000E+00
    0.27437E-12        -0.12777E-14         0.00000E+00
    0.27435E-12        -0.65546E-15         0.00000E+00
    0.32044E-12        -0.12943E-14         0.00000E+00
    0.32039E-12        -0.23486E-14         0.00000E+00
    0.32027E-12        -0.42246E-14         0.00000E+00
    0.32009E-12        -0.56494E-14         0.00000E+00
    0.31986E-12        -0.66523E-14         0.00000E+00
    0.31961E-12        -0.72645E-14         0.00000E+00
    0.31934E-12        -0.75189E-14         0.00000E+00
    0.31908E-12        -0.74503E-14         0.00000E+00
    0.31881E-12        -0.70954E-14         0.00000E+00
    0.31857E-12        -0.64928E-14         0.00000E+00
    0.31835E-12        -0.56831E-14         0.00000E+00
    0.31817E-12        -0.47083E-14         0.00000E+00
    0.31802E-12        -0.36123E-14         0.00000E+00
    0.31791E-12        -0.24399E-14         0.00000E+00
    0.31784E-12        -0.12376E-14         0.00000E+00
    0.31782E-12        -0.63481E-15         0.00000E+00
    0.36337E-12        -0.12432E-14         0.00000E+00
    0.36332E-12        -0.22561E-14         0.00000E+00
    0.36317E-12        -0.40588E-14         0.00000E+00
    0.36295E-12        -0.54284E-14         0.00000E+00
    0.36269E-12        -0.63928E-14         0.00000E+00
    0.36239E-12        -0.69817E-14         0.00000E+00
    0.36207E-12        -0.72267E-14         0.00000E+00
    0.36175E-12        -0.71609E-14         0.00000E+00
    0.36144E-12        -0.68199E-14         0.00000E+00
    0.36115E-12        -0.62407E-14         0.00000E+00
    0.36089E-12        -0.54623E-14         0.00000E+00
    0.36067E-12        -0.45252E-14         0.00000E+00
    0.36049E-12        -0.34717E-14         0.00000E+00
    0.36036E-12        -0.23450E-14         0.00000E+00
    0.36028E-12        -0.11895E-14         0.00000E+00
    0.36026E-12        -0.61009E-15         0.00000E+00
    0.40519E-12        -0.11826E-14         0.00000E+00
    0.40512E-12        -0.21466E-14         0.00000E+00
    0.40495E-12        -0.38624E-14         0.00000E+00
    0.40469E-12        -0.51666E-14         0.00000E+00
    0.40438E-12        -0.60856E-14         0.00000E+00
    0.40403E-12        -0.66472E-14         0.00000E+00
    0.40365E-12        -0.68811E-14         0.00000E+00
    0.40328E-12        -0.68190E-14         0.00000E+00
    0.40291E-12        -0.64945E-14         0.00000E+00
    0.40257E-12        -0.59429E-14         0.00000E+00
    0.40227E-12        -0.52015E-14         0.00000E+00
    0.40201E-12        -0.43090E-14         0.00000E+00
    0.40180E-12        -0.33057E-14         0.00000E+00
    0.40165E-12        -0.22328E-14         0.00000E+00
    0.40156E-12        -0.11326E-14         0.00000E+00
    0.40153E-12        -0.58096E-15         0.00000E+00
    0.44575E-12        -0.11116E-14         0.00000E+00
    0.44567E-12        -0.20182E-14         0.00000E+00
    0.44547E-12        -0.36325E-14         0.00000E+00
    0.44517E-12        -0.48604E-14         0.00000E+00
    0.44481E-12        -0.57264E-14         0.00000E+00
    0.44440E-12        -0.62562E-14         0.00000E+00
    0.44397E-12        -0.64776E-14         0.00000E+00
    0.44353E-12        -0.64201E-14         0.00000E+00
    0.44311E-12        -0.61151E-14         0.00000E+00
    0.44271E-12        -0.55959E-14         0.00000E+00
    0.44236E-12        -0.48977E-14         0.00000E+00
    0.44206E-12        -0.40571E-14         0.00000E+00
    0.44182E-12        -0.31121E-14         0.00000E+00
    0.44164E-12        -0.21019E-14         0.00000E+00
    0.44154E-12        -0.10663E-14         0.00000E+00
    0.44150E-12        -0.54711E-15         0.00000E+00
    0.48493E-12        -0.10292E-14         0.00000E+00
    0.48484E-12        -0.18694E-14         0.00000E+00
    0.48461E-12        -0.33659E-14         0.00000E+00
    0.48427E-12        -0.45057E-14         0.00000E+00
    0.48385E-12        -0.53106E-14         0.00000E+00
    0.48338E-12        -0.58042E-14         0.00000E+00
    0.48288E-12        -0.60115E-14         0.00000E+00
    0.48238E-12        -0.59596E-14         0.00000E+00
    0.48189E-12        -0.56775E-14         0.00000E+00
    0.48144E-12        -0.51960E-14         0.00000E+00
    0.48104E-12        -0.45478E-14         0.00000E+00
    0.48069E-12        -0.37670E-14         0.00000E+00
    0.48042E-12        -0.28893E-14         0.00000E+00
    0.48022E-12        -0.19512E-14         0.00000E+00
    0.48009E-12        -0.98998E-15         0.00000E+00
    0.48005E-12        -0.50827E-15         0.00000E+00
    0.52261E-12        -0.93450E-15         0.00000E+00
    0.52251E-12        -0.16983E-14         0.00000E+00
    0.52224E-12        -0.30599E-14         0.00000E+00
    0.52185E-12        -0.40988E-14         0.00000E+00
    0.52137E-12        -0.48341E-14         0.00000E+00
    0.52084E-12        -0.52865E-14         0.00000E+00
    0.52027E-12        -0.54783E-14         0.00000E+00
    0.51970E-12        -0.54335E-14         0.00000E+00
    0.51915E-12        -0.51781E-14         0.00000E+00
    0.51864E-12        -0.47401E-14         0.00000E+00
    0.51818E-12        -0.41491E-14         0.00000E+00
    0.51779E-12        -0.34366E-14         0.00000E+00
    0.51747E-12        -0.26355E-14         0.00000E+00
    0.51725E-12        -0.17795E-14         0.00000E+00
    0.51711E-12        -0.90316E-15         0.00000E+00
    0.51706E-12        -0.46419E-15         0.00000E+00
    0.55866E-12        -0.82655E-15         0.00000E+00
    0.55855E-12        -0.15035E-14         0.00000E+00
    0.55825E-12        -0.27117E-14         0.00000E+00
    0.55781E-12        -0.36362E-14         0.00000E+00
    0.55726E-12        -0.42930E-14         0.00000E+00
    0.55666E-12        -0.46994E-14         0.00000E+00
    0.55602E-12        -0.48744E-14         0.00000E+00
    0.55538E-12        -0.48383E-14         0.00000E+00
    0.55476E-12        -0.46139E-14         0.00000E+00
    0.55418E-12        -0.42255E-14         0.00000E+00
    0.55367E-12        -0.36997E-14         0.00000E+00
    0.55323E-12        -0.30645E-14         0.00000E+00
    0.55288E-12        -0.23498E-14         0.00000E+00
    0.55263E-12        -0.15863E-14         0.00000E+00
    0.55247E-12        -0.80554E-15         0.00000E+00
    0.55242E-12        -0.41475E-15         0.00000E+00
    0.59297E-12        -0.70469E-15         0.00000E+00
    0.59284E-12        -0.12838E-14         0.00000E+00
    0.59251E-12        -0.23193E-14         0.00000E+00
    0.59201E-12        -0.31153E-14         0.00000E+00
    0.59141E-12        -0.36844E-14         0.00000E+00
    0.59073E-12        -0.40400E-14         0.00000E+00
    0.59001E-12        -0.41968E-14         0.00000E+00
    0.58930E-12        -0.41716E-14         0.00000E+00
    0.58861E-12        -0.39828E-14         0.00000E+00
    0.58797E-12        -0.36508E-14         0.00000E+00
    0.58740E-12        -0.31984E-14         0.00000E+00
    0.58691E-12        -0.26501E-14         0.00000E+00
    0.58653E-12        -0.20319E-14         0.00000E+00
    0.58625E-12        -0.13715E-14         0.00000E+00
    0.58608E-12        -0.69709E-15         0.00000E+00
    0.58602E-12        -0.35996E-15         0.00000E+00
    0.62542E-12        -0.56855E-15         0.00000E+00
    0.62528E-12        -0.10385E-14         0.00000E+00
    0.62491E-12        -0.18815E-14         0.00000E+00
    0.62436E-12        -0.25349E-14         0.00000E+00
    0.62369E-12        -0.30069E-14         0.00000E+00
    0.62294E-12        -0.33067E-14         0.00000E+00
    0.62215E-12        -0.34446E-14         0.00000E+00
    0.62136E-12        -0.34326E-14         0.00000E+00
    0.62060E-12        -0.32844E-14         0.00000E+00
    0.61990E-12        -0.30161E-14         0.00000E+00
    0.61927E-12        -0.26458E-14         0.00000E+00
    0.61874E-12        -0.21939E-14         0.00000E+00
    0.61832E-12        -0.16826E-14         0.00000E+00
    0.61802E-12        -0.11357E-14         0.00000E+00
    0.61783E-12        -0.57821E-15         0.00000E+00
    0.61777E-12        -0.30001E-15         0.00000E+00
    0.65591E-12        -0.41824E-15         0.00000E+00
    0.65575E-12        -0.76787E-15         0.00000E+00
    0.65535E-12        -0.13989E-14         0.00000E+00
    0.65475E-12        -0.18954E-14         0.00000E+00
    0.65401E-12        -0.22612E-14         0.00000E+00
    0.65319E-12        -0.25005E-14         0.00000E+00
    0.65233E-12        -0.26187E-14         0.00000E+00
    0.65147E-12        -0.26225E-14         0.00000E+00
    0.65064E-12        -0.25205E-14         0.00000E+00
    0.64988E-12        -0.23233E-14         0.00000E+00
    0.64921E-12        -0.20441E-14         0.00000E+00
    0.64863E-12        -0.16984E-14         0.00000E+00
    0.64818E-12        -0.13040E-14         0.00000E+00
    0.64785E-12        -0.88060E-15         0.00000E+00
    0.64765E-12        -0.44980E-15         0.00000E+00
    0.64759E-12        -0.23534E-15         0.00000E+00
    0.68432E-12        -0.25454E-15         0.00000E+00
    0.68415E-12        -0.47329E-15         0.00000E+00
    0.68371E-12        -0.87387E-15         0.00000E+00
    0.68307E-12        -0.12001E-14         0.00000E+00
    0.68227E-12        -0.14508E-14         0.00000E+00
    0.68139E-12        -0.16253E-14         0.00000E+00
    0.68046E-12        -0.17233E-14         0.00000E+00
    0.67954E-12        -0.17459E-14         0.00000E+00
    0.67865E-12        -0.16955E-14         0.00000E+00
    0.67784E-12        -0.15772E-14         0.00000E+00
    0.67712E-12        -0.13981E-14         0.00000E+00
    0.67651E-12        -0.11682E-14         0.00000E+00
    0.67603E-12        -0.90009E-15         0.00000E+00
    0.67568E-12        -0.60920E-15         0.00000E+00
    0.67547E-12        -0.31342E-15         0.00000E+00
    0.67540E-12        -0.16671E-15         0.00000E+00
    0.71056E-12        -0.79014E-16         0.00000E+00
    0.71038E-12        -0.15760E-15         0.00000E+00
    0.70991E-12        -0.31141E-15         0.00000E+00
    0.70923E-12        -0.45539E-15         0.00000E+00
    0.70839E-12        -0.58335E-15         0.00000E+00
    0.70745E-12        -0.68907E-15         0.00000E+00
    0.70647E-12        -0.76660E-15         0.00000E+00
    0.70549E-12        -0.81082E-15         0.00000E+00
    0.70455E-12        -0.81792E-15         0.00000E+00
    0.70369E-12        -0.78603E-15         0.00000E+00
    0.70294E-12        -0.71572E-15         0.00000E+00
    0.70230E-12        -0.61048E-15         0.00000E+00
    0.70180E-12        -0.47711E-15         0.00000E+00
    0.70145E-12        -0.32601E-15         0.00000E+00
    0.70123E-12        -0.17141E-15         0.00000E+00
    0.70116E-12        -0.95248E-16         0.00000E+00
    0.73452E-12         0.10581E-15         0.00000E+00
    0.73433E-12         0.17459E-15         0.00000E+00
    0.73384E-12         0.28024E-15         0.00000E+00
    0.73313E-12         0.32777E-15         0.00000E+00
    0.73226E-12         0.32878E-15         0.00000E+00
    0.73128E-12         0.29494E-15         0.00000E+00
    0.73026E-12         0.23793E-15         0.00000E+00
    0.72925E-12         0.16915E-15         0.00000E+00
    0.72828E-12         0.99255E-16         0.00000E+00
    0.72739E-12         0.37566E-16         0.00000E+00
    0.72662E-12        -0.88055E-17         0.00000E+00
    0.72597E-12        -0.35878E-16         0.00000E+00
    0.72546E-12        -0.43727E-16         0.00000E+00
    0.72510E-12        -0.37291E-16         0.00000E+00
    0.72489E-12        -0.26959E-16         0.00000E+00
    0.72482E-12        -0.22473E-16         0.00000E+00
    0.75610E-12         0.29634E-15         0.00000E+00
    0.75591E-12         0.51669E-15         0.00000E+00
    0.75542E-12         0.88906E-15         0.00000E+00
    0.75469E-12         0.11334E-14         0.00000E+00
    0.75381E-12         0.12668E-14         0.00000E+00
    0.75282E-12         0.13066E-14         0.00000E+00
    0.75178E-12         0.12697E-14         0.00000E+00
    0.75076E-12         0.11739E-14         0.00000E+00
    0.74978E-12         0.10367E-14         0.00000E+00
    0.74889E-12         0.87557E-15         0.00000E+00
    0.74811E-12         0.70633E-15         0.00000E+00
    0.74747E-12         0.54148E-15         0.00000E+00
    0.74697E-12         0.38863E-15         0.00000E+00
    0.74662E-12         0.24890E-15         0.00000E+00
    0.74641E-12         0.11584E-15         0.00000E+00
    0.74634E-12         0.49666E-16         0.00000E+00
    0.77521E-12         0.48794E-15         0.00000E+00
    0.77502E-12         0.85993E-15         0.00000E+00
    0.77454E-12         0.14988E-14         0.00000E+00
    0.77383E-12         0.19393E-14         0.00000E+00
    0.77296E-12         0.22045E-14         0.00000E+00
    0.77199E-12         0.23170E-14         0.00000E+00
    0.77098E-12         0.22992E-14         0.00000E+00
    0.76997E-12         0.21744E-14         0.00000E+00
    0.76902E-12         0.19672E-14         0.00000E+00
    0.76815E-12         0.17034E-14         0.00000E+00
    0.76741E-12         0.14081E-14         0.00000E+00
    0.76679E-12         0.11036E-14         0.00000E+00
    0.76632E-12         0.80582E-15         0.00000E+00
    0.76599E-12         0.52275E-15         0.00000E+00
    0.76580E-12         0.25206E-15         0.00000E+00
    0.76573E-12         0.11884E-15         0.00000E+00
    0.79176E-12         0.67482E-15         0.00000E+00
    0.79158E-12         0.11932E-14         0.00000E+00
    0.79112E-12         0.20885E-14         0.00000E+00
    0.79045E-12         0.27162E-14         0.00000E+00
    0.78963E-12         0.31063E-14         0.00000E+00
    0.78873E-12         0.32868E-14         0.00000E+00
    0.78778E-12         0.32854E-14         0.00000E+00
    0.78685E-12         0.31306E-14         0.00000E+00
    0.78597E-12         0.28537E-14         0.00000E+00
    0.78517E-12         0.24884E-14         0.00000E+00
    0.78449E-12         0.20693E-14         0.00000E+00
    0.78392E-12         0.16284E-14         0.00000E+00
    0.78350E-12         0.11912E-14         0.00000E+00
    0.78320E-12         0.77296E-15         0.00000E+00
    0.78303E-12         0.37609E-15         0.00000E+00
    0.78297E-12         0.18240E-15         0.00000E+00
    0.80565E-12         0.85003E-15         0.00000E+00
    0.80548E-12         0.15029E-14         0.00000E+00
    0.80507E-12         0.26318E-14         0.00000E+00
    0.80448E-12         0.34268E-14         0.00000E+00
    0.80376E-12         0.39259E-14         0.00000E+00
    0.80298E-12         0.41636E-14         0.00000E+00
    0.80217E-12         0.41732E-14         0.00000E+00
    0.80137E-12         0.39888E-14         0.00000E+00
    0.80062E-12         0.36474E-14         0.00000E+00
    0.79994E-12         0.31891E-14         0.00000E+00
    0.79936E-12         0.26564E-14         0.00000E+00
    0.79888E-12         0.20903E-14         0.00000E+00
    0.79852E-12         0.15259E-14         0.00000E+00
    0.79828E-12         0.98706E-15         0.00000E+00
    0.79815E-12         0.48181E-15         0.00000E+00
    0.79810E-12         0.23748E-15         0.00000E+00
    0.81678E-12         0.10052E-14         0.00000E+00
    0.81664E-12         0.17724E-14         0.00000E+00
    0.81630E-12         0.30960E-14         0.00000E+00
    0.81583E-12         0.40239E-14         0.00000E+00
    0.81528E-12         0.46041E-14         0.00000E+00
    0.81469E-12         0.48798E-14         0.00000E+00
    0.81410E-12         0.48915E-14         0.00000E+00
    0.81351E-12         0.46794E-14         0.00000E+00
    0.81297E-12         0.42854E-14         0.00000E+00
    0.81247E-12         0.37532E-14         0.00000E+00
    0.81204E-12         0.31289E-14         0.00000E+00
    0.81169E-12         0.24596E-14         0.00000E+00
    0.81143E-12         0.17894E-14         0.00000E+00
    0.81126E-12         0.11519E-14         0.00000E+00
    0.81116E-12         0.56286E-15         0.00000E+00
    0.81113E-12         0.28117E-15         0.00000E+00
    0.82506E-12         0.11300E-14         0.00000E+00
    0.82495E-12         0.19805E-14         0.00000E+00
    0.82473E-12         0.34393E-14         0.00000E+00
    0.82444E-12         0.44471E-14         0.00000E+00
    0.82413E-12         0.50660E-14         0.00000E+00
    0.82383E-12         0.53508E-14         0.00000E+00
    0.82354E-12         0.53521E-14         0.00000E+00
    0.82327E-12         0.51172E-14         0.00000E+00
    0.82301E-12         0.46908E-14         0.00000E+00
    0.82278E-12         0.41162E-14         0.00000E+00
    0.82257E-12         0.34374E-14         0.00000E+00
    0.82239E-12         0.27020E-14         0.00000E+00
    0.82225E-12         0.19593E-14         0.00000E+00
    0.82217E-12         0.12537E-14         0.00000E+00
    0.82213E-12         0.61293E-15         0.00000E+00
    0.82211E-12         0.31069E-15         0.00000E+00
    0.83036E-12         0.12108E-14         0.00000E+00
    0.83031E-12         0.20994E-14         0.00000E+00
    0.83025E-12         0.36065E-14         0.00000E+00
    0.83023E-12         0.46181E-14         0.00000E+00
    0.83027E-12         0.52165E-14         0.00000E+00
    0.83036E-12         0.54736E-14         0.00000E+00
    0.83049E-12         0.54517E-14         0.00000E+00
    0.83064E-12         0.52038E-14         0.00000E+00
    0.83077E-12         0.47742E-14         0.00000E+00
    0.83089E-12         0.42012E-14         0.00000E+00
    0.83097E-12         0.35214E-14         0.00000E+00
    0.83102E-12         0.27749E-14         0.00000E+00
    0.83105E-12         0.20094E-14         0.00000E+00
    0.83107E-12         0.12783E-14         0.00000E+00
    0.83110E-12         0.62595E-15         0.00000E+00
    0.83109E-12         0.32370E-15         0.00000E+00
    0.83256E-12         0.12279E-14         0.00000E+00
    0.83260E-12         0.20882E-14         0.00000E+00
    0.83278E-12         0.35182E-14         0.00000E+00
    0.83315E-12         0.44295E-14         0.00000E+00
    0.83367E-12         0.49361E-14         0.00000E+00
    0.83429E-12         0.51287E-14         0.00000E+00
    0.83495E-12         0.50773E-14         0.00000E+00
    0.83562E-12         0.48341E-14         0.00000E+00
    0.83625E-12         0.44385E-14         0.00000E+00
    0.83681E-12         0.39206E-14         0.00000E+00
    0.83727E-12         0.33061E-14         0.00000E+00
    0.83763E-12         0.26221E-14         0.00000E+00
    0.83788E-12         0.19054E-14         0.00000E+00
    0.83804E-12         0.12088E-14         0.00000E+00
    0.83814E-12         0.59626E-15         0.00000E+00
    0.83815E-12         0.31922E-15         0.00000E+00
    0.83148E-12         0.11460E-14         0.00000E+00
    0.83164E-12         0.18777E-14         0.00000E+00
    0.83224E-12         0.30490E-14         0.00000E+00
    0.83317E-12         0.37322E-14         0.00000E+00
    0.83434E-12         0.40798E-14         0.00000E+00
    0.83562E-12         0.41860E-14         0.00000E+00
    0.83695E-12         0.41136E-14         0.00000E+00
    0.83824E-12         0.39043E-14         0.00000E+00
    0.83946E-12         0.35870E-14         0.00000E+00
    0.84055E-12         0.31820E-14         0.00000E+00
    0.84148E-12         0.27046E-14         0.00000E+00
    0.84223E-12         0.21686E-14         0.00000E+00
    0.84278E-12         0.15930E-14         0.00000E+00
    0.84314E-12         0.10188E-14         0.00000E+00
    0.84335E-12         0.51736E-15         0.00000E+00
    0.84337E-12         0.29523E-15         0.00000E+00
    0.82672E-12         0.90248E-15         0.00000E+00
    0.82729E-12         0.13260E-14         0.00000E+00
    0.82859E-12         0.19818E-14         0.00000E+00
    0.83034E-12         0.23299E-14         0.00000E+00
    0.83232E-12         0.24867E-14         0.00000E+00
    0.83441E-12         0.25156E-14         0.00000E+00
    0.83651E-12         0.24525E-14         0.00000E+00
    0.83852E-12         0.23195E-14         0.00000E+00
    0.84041E-12         0.21316E-14         0.00000E+00
    0.84211E-12         0.18986E-14         0.00000E+00
    0.84359E-12         0.16275E-14         0.00000E+00
    0.84481E-12         0.13234E-14         0.00000E+00
    0.84576E-12         0.99155E-15         0.00000E+00
    0.84641E-12         0.64458E-15         0.00000E+00
    0.84678E-12         0.37392E-15         0.00000E+00
    0.84693E-12         0.27824E-15         0.00000E+00
    0.82335E-12         0.00000E+00         0.00000E+00
    0.82425E-12         0.00000E+00         0.00000E+00
    0.82600E-12         0.00000E+00         0.00000E+00
    0.82821E-12         0.00000E+00         0.00000E+00
    0.83065E-12         0.33144E-21         0.00000E+00
    0.83318E-12         0.00000E+00         0.00000E+00
    0.83568E-12         0.00000E+00         0.00000E+00
    0.83808E-12         0.00000E+00         0.00000E+00
    0.84032E-12         0.00000E+00         0.00000E+00
    0.84235E-12         0.00000E+00         0.00000E+00
    0.84412E-12         0.33144E-21         0.00000E+00
    0.84560E-12        -0.33144E-21         0.00000E+00
    0.84676E-12        -0.33144E-21         0.00000E+00
    0.84758E-12         0.33144E-21         0.00000E+00
    0.84806E-12         0.66288E-21         0.00000E+00
    0.84834E-12         0.00000E+00         0.00000E+00
CELL_DATA        450
TENSORS stressef double 
   -0.20273E+08         0.15138E+03         0.00000E+00
    0.15138E+03        -0.50000E+08         0.00000E+00
    0.00000E+00         0.00000E+00        -0.19963E+08
 
   -0.20247E+08         0.43446E+03         0.00000E+00
    0.43446E+03        -0.49999E+08         0.00000E+00
    0.00000E+00         0.00000E+00        -0.19989E+08
 
   -0.20222E+08         0.69329E+03         0.00000E+00
    0.69329E+03        -0.49998E+08         0.00000E+00
    0.00000E+00         0.00000E+00        -0.20011E+08
 
   -0.20200E+08         0.92910E+03         0.00000E+00
    0.92910E+03        -0.49996E+08         0.00000E+00
    0.00000E+00         0.00000E+00        -0.20031E+08
 
   -0.20179E+08         0.11431E+04         0.00000E+00
    0.11431E+04        -0.49994E+08         0.00000E+00
    0.00000E+00         0.00000E+00        -0.20049E+08
 
   -0.20161E+08         0.13366E+04         0.00000E+00
    0.13366E+04        -0.49992E+08         0.00000E+00
    0.00000E+00         0.00000E+00        -0.20064E+08
 
   -0.20145E+08         0.15110E+04         0.00000E+00
    0.15110E+04        -0.49989E+08         0.00000E+00
    0.00000E+00         0.00000E+00        -0.20076E+08
 
   -0.20131E+08         0.16673E+04         0.00000E+00
    0.16673E+04        -0.49986E+08         0.00000E+00
    0.00000E+00         0.00000E+00        -0.20086E+08
 
   -0.20118E+08         0.18068E+04         0.00000E+00
    0.18068E+04        -0.49982E+08         0.00000E+00
    0.00000E+00         0.00000E+00        -0.20094E+08
 
   -0.20108E+08         0.19308E+04         0.00000E+00
    0.19308E+04        -0.49979E+08         0.00000E+00
    0.00000E+00         0.00000E+00        -0.20099E+08
 
   -0.20100E+08         0.20409E+04         0.00000E+00
    0.20409E+04        -0.49975E+08         0.00000E+00
    0.00000E+00         0.00000E+00        -0.20102E+08
 
   -0.20094E+08         0.21386E+04         0.00000E+00
    0.21386E+04        -0.49970E+08         0.00000E+00
    0.00000E+00         0.00000E+00        -0.20102E+08
 
   -0.20090E+08         0.22258E+04         0.00000E+00
    0.22258E+04        -0.49966E+08         0.00000E+00
    0.00000E+00         0.00000E+00        -0.20101E+08
 
   -0.20088E+08         0.23043E+04         0.00000E+00
    0.23043E+04        -0.49961E+08         0.00000E+00
    0.00000E+00         0.00000E+00        -0.20097E+08
 
   -0.20087E+08         0.23765E+04         0.00000E+00
    0.23765E+04        -0.49957E+08         0.00000E+00
    0.00000E+00         0.00000E+00        -0.20091E+08
 
   -0.20273E+08         0.45802E+03         0.00000E+00
    0.45802E+03        -0.50000E+08         0.00000E+00
    0.00000E+00         0.00000E+00        -0.19964E+08
 
   -0.20246E+08         0.13135E+04         0.00000E+00
    0.13135E+04        -0.49999E+08         0.00000E+00
    0.00000E+00         0.00000E+00        -0.19989E+08
 
   -0.20222E+08         0.20943E+04         0.00000E+00
    0.20943E+04        -0.49998E+08         0.00000E+00
    0.00000E+00         0.00000E+00        -0.20012E+08
 
   -0.20199E+08         0.28044E+04         0.00000E+00
    0.28044E+04        -0.49996E+08         0.00000E+00
    0.00000E+00         0.00000E+00        -0.20032E+08
 
   -0.20179E+08         0.34476E+04         0.00000E+00
    0.34476E+04        -0.49994E+08         0.00000E+00
    0.00000E+00         0.00000E+00        -0.20049E+08
 
   -0.20161E+08         0.40279E+04         0.00000E+00
    0.40279E+04        -0.49992E+08         0.00000E+00
    0.00000E+00         0.00000E+00        -0.20064E+08
 
   -0.20144E+08         0.45497E+04         0.00000E+00
    0.45497E+04        -0.49989E+08         0.00000E+00
    0.00000E+00         0.00000E+00        -0.20076E+08
 
   -0.20130E+08         0.50163E+04         0.00000E+00
    0.50163E+04        -0.49986E+08         0.00000E+00
    0.00000E+00         0.00000E+00        -0.20086E+08
 
   -0.20118E+08         0.54316E+04         0.00000E+00
    0.54316E+04        -0.49982E+08         0.00000E+00
    0.00000E+00         0.00000E+00        -0.20094E+08
 
   -0.20108E+08         0.58001E+04         0.00000E+00
    0.58001E+04        -0.49978E+08         0.00000E+00
    0.00000E+00         0.00000E+00        -0.20099E+08
 
   -0.20100E+08         0.61262E+04         0.00000E+00
    0.61262E+04        -0.49974E+08         0.00000E+00
    0.00000E+00         0.00000E+00        -0.20102E+08
 
   -0.20094E+08         0.64150E+04         0.00000E+00
    0.64150E+04        -0.49970E+08         0.00000E+00
    0.00000E+00         0.00000E+00        -0.20102E+08
 
   -0.20090E+08         0.66720E+04         0.00000E+00
    0.66720E+04        -0.49966E+08         0.00000E+00
    0.00000E+00         0.00000E+00        -0.20101E+08
 
   -0.20087E+08         0.69032E+04         0.00000E+00
    0.69032E+04        -0.49961E+08         0.00000E+00
    0.00000E+00         0.00000E+00        -0.20097E+08
 
   -0.20087E+08         0.71153E+04         0.00000E+00
    0.71153E+04        -0.49957E+08         0.00000E+00
    0.00000E+00         0.00000E+00        -0.20091E+08
 
   -0.20271E+08         0.77625E+03         0.00000E+00
    0.77625E+03        -0.50000E+08         0.00000E+00
    0.00000E+00         0.00000E+00        -0.19965E+08
 
   -0.20245E+08         0.22225E+04         0.00000E+00
    0.22225E+04        -0.49999E+08         0.00000E+00
    0.00000E+00         0.00000E+00        -0.19990E+08
 
   -0.20221E+08         0.35384E+04         0.00000E+00
    0.35384E+04        -0.49998E+08         0.00000E+00
    0.00000E+00         0.00000E+00        -0.20013E+08
 
   -0.20198E+08         0.47309E+04         0.00000E+00
    0.47309E+04        -0.49996E+08         0.00000E+00
    0.00000E+00         0.00000E+00        -0.20032E+08
 
   -0.20178E+08         0.58067E+04         0.00000E+00
    0.58067E+04        -0.49994E+08         0.00000E+00
    0.00000E+00         0.00000E+00        -0.20049E+08
 
   -0.20160E+08         0.67731E+04         0.00000E+00
    0.67731E+04        -0.49991E+08         0.00000E+00
    0.00000E+00         0.00000E+00        -0.20064E+08
 
   -0.20144E+08         0.76379E+04         0.00000E+00
    0.76379E+04        -0.49988E+08         0.00000E+00
    0.00000E+00         0.00000E+00        -0.20076E+08
 
   -0.20130E+08         0.84079E+04         0.00000E+00
    0.84079E+04        -0.49985E+08         0.00000E+00
    0.00000E+00         0.00000E+00        -0.20086E+08
 
   -0.20118E+08         0.90898E+04         0.00000E+00
    0.90898E+04        -0.49982E+08         0.00000E+00
    0.00000E+00         0.00000E+00        -0.20093E+08
 
   -0.20108E+08         0.96915E+04         0.00000E+00
    0.96915E+04        -0.49978E+08         0.00000E+00
    0.00000E+00         0.00000E+00        -0.20098E+08
 
   -0.20100E+08         0.10221E+05         0.00000E+00
    0.10221E+05        -0.49974E+08         0.00000E+00
    0.00000E+00         0.00000E+00        -0.20101E+08
 
   -0.20093E+08         0.10688E+05         0.00000E+00
    0.10688E+05        -0.49970E+08         0.00000E+00
    0.00000E+00         0.00000E+00        -0.20102E+08
 
   -0.20089E+08         0.11102E+05         0.00000E+00
    0.11102E+05        -0.49965E+08         0.00000E+00
    0.00000E+00         0.00000E+00        -0.20100E+08
 
   -0.20087E+08         0.11472E+05         0.00000E+00
    0.11472E+05        -0.49961E+08         0.00000E+00
    0.00000E+00         0.00000E+00        -0.20097E+08
 
   -0.20087E+08         0.11811E+05         0.00000E+00
    0.11811E+05        -0.49956E+08         0.00000E+00
    0.00000E+00         0.00000E+00        -0.20091E+08
 
   -0.20270E+08         0.11136E+04         0.00000E+00
    0.11136E+04        -0.50000E+08         0.00000E+00
    0.00000E+00         0.00000E+00        -0.19967E+08
 
   -0.20243E+08         0.31811E+04         0.00000E+00
    0.31811E+04        -0.49999E+08         0.00000E+00
    0.00000E+00         0.00000E+00        -0.19992E+08
 
   -0.20219E+08         0.50536E+04         0.00000E+00
    0.50536E+04        -0.49998E+08         0.00000E+00
    0.00000E+00         0.00000E+00        -0.20014E+08
 
   -0.20197E+08         0.67414E+04         0.00000E+00
    0.67414E+04        -0.49996E+08         0.00000E+00
    0.00000E+00         0.00000E+00        -0.20033E+08
 
   -0.20177E+08         0.82554E+04         0.00000E+00
    0.82554E+04        -0.49994E+08         0.00000E+00
    0.00000E+00         0.00000E+00        -0.20050E+08
 
   -0.20159E+08         0.96066E+04         0.00000E+00
    0.96066E+04        -0.49991E+08         0.00000E+00
    0.00000E+00         0.00000E+00        -0.20065E+08
 
   -0.20143E+08         0.10807E+05         0.00000E+00
    0.10807E+05        -0.49988E+08         0.00000E+00
    0.00000E+00         0.00000E+00        -0.20077E+08
 
   -0.20129E+08         0.11869E+05         0.00000E+00
    0.11869E+05        -0.49984E+08         0.00000E+00
    0.00000E+00         0.00000E+00        -0.20086E+08
 
   -0.20117E+08         0.12802E+05         0.00000E+00
    0.12802E+05        -0.49981E+08         0.00000E+00
    0.00000E+00         0.00000E+00        -0.20093E+08
 
   -0.20107E+08         0.13618E+05         0.00000E+00
    0.13618E+05        -0.49977E+08         0.00000E+00
    0.00000E+00         0.00000E+00        -0.20098E+08
 
   -0.20099E+08         0.14331E+05         0.00000E+00
    0.14331E+05        -0.49973E+08         0.00000E+00
    0.00000E+00         0.00000E+00        -0.20101E+08
 
   -0.20093E+08         0.14954E+05         0.00000E+00
    0.14954E+05        -0.49969E+08         0.00000E+00
    0.00000E+00         0.00000E+00        -0.20101E+08
 
   -0.20089E+08         0.15502E+05         0.00000E+00
    0.15502E+05        -0.49964E+08         0.00000E+00
    0.00000E+00         0.00000E+00        -0.20100E+08
 
   -0.20087E+08         0.15989E+05         0.00000E+00
    0.15989E+05        -0.49960E+08         0.00000E+00
    0.00000E+00         0.00000E+00        -0.20096E+08
 
   -0.20087E+08         0.16433E+05         0.00000E+00
    0.16433E+05        -0.49956E+08         0.00000E+00
    0.00000E+00         0.00000E+00        -0.20090E+08
 
   -0.20267E+08         0.14774E+04         0.00000E+00
    0.14774E+04        -0.50000E+08         0.00000E+00
    0.00000E+00         0.00000E+00        -0.19969E+08
 
   -0.20241E+08         0.42080E+04         0.00000E+00
    0.42080E+04        -0.49999E+08         0.00000E+00
    0.00000E+00         0.00000E+00        -0.19994E+08
 
   -0.20217E+08         0.66663E+04         0.00000E+00
    0.66663E+04        -0.49998E+08         0.00000E+00
    0.00000E+00         0.00000E+00        -0.20016E+08
 
   -0.20195E+08         0.88673E+04         0.00000E+00
    0.88673E+04        -0.49996E+08         0.00000E+00
    0.00000E+00         0.00000E+00        -0.20035E+08
 
   -0.20175E+08         0.10827E+05         0.00000E+00
    0.10827E+05        -0.49993E+08         0.00000E+00
    0.00000E+00         0.00000E+00        -0.20051E+08
 
   -0.20157E+08         0.12561E+05         0.00000E+00
    0.12561E+05        -0.49990E+08         0.00000E+00
    0.00000E+00         0.00000E+00        -0.20065E+08
 
   -0.20142E+08         0.14087E+05         0.00000E+00
    0.14087E+05        -0.49987E+08         0.00000E+00
    0.00000E+00         0.00000E+00        -0.20077E+08
 
   -0.20128E+08         0.15424E+05         0.00000E+00
    0.15424E+05        -0.49984E+08         0.00000E+00
    0.00000E+00         0.00000E+00        -0.20086E+08
 
   -0.20116E+08         0.16585E+05         0.00000E+00
    0.16585E+05        -0.49980E+08         0.00000E+00
    0.00000E+00         0.00000E+00        -0.20093E+08
 
   -0.20106E+08         0.17591E+05         0.00000E+00
    0.17591E+05        -0.49976E+08         0.00000E+00
    0.00000E+00         0.00000E+00        -0.20098E+08
 
   -0.20098E+08         0.18458E+05         0.00000E+00
    0.18458E+05        -0.49972E+08         0.00000E+00
    0.00000E+00         0.00000E+00        -0.20100E+08
 
   -0.20092E+08         0.19207E+05         0.00000E+00
    0.19207E+05        -0.49968E+08         0.00000E+00
    0.00000E+00         0.00000E+00        -0.20101E+08
 
   -0.20088E+08         0.19857E+05         0.00000E+00
    0.19857E+05        -0.49964E+08         0.00000E+00
    0.00000E+00         0.00000E+00        -0.20099E+08
 
   -0.20086E+08         0.20429E+05         0.00000E+00
    0.20429E+05        -0.49959E+08         0.00000E+00
    0.00000E+00         0.00000E+00        -0.20095E+08
 
   -0.20086E+08         0.20947E+05         0.00000E+00
    0.20947E+05        -0.49955E+08         0.00000E+00
    0.00000E+00         0.00000E+00        -0.20090E+08
 
   -0.20264E+08         0.18744E+04         0.00000E+00
    0.18744E+04        -0.50000E+08         0.00000E+00
    0.00000E+00         0.00000E+00        -0.19973E+08
 
   -0.20238E+08         0.53205E+04         0.00000E+00
    0.53205E+04        -0.49999E+08         0.00000E+00
    0.00000E+00         0.00000E+00        -0.19997E+08
 
   -0.20214E+08         0.84012E+04         0.00000E+00
    0.84012E+04        -0.49997E+08         0.00000E+00
    0.00000E+00         0.00000E+00        -0.20018E+08
 
   -0.20193E+08         0.11137E+05         0.00000E+00
    0.11137E+05        -0.49995E+08         0.00000E+00
    0.00000E+00         0.00000E+00        -0.20037E+08
 
   -0.20173E+08         0.13551E+05         0.00000E+00
    0.13551E+05        -0.49993E+08         0.00000E+00
    0.00000E+00         0.00000E+00        -0.20053E+08
 
   -0.20156E+08         0.15665E+05         0.00000E+00
    0.15665E+05        -0.49990E+08         0.00000E+00
    0.00000E+00         0.00000E+00        -0.20066E+08
 
   -0.20140E+08         0.17504E+05         0.00000E+00
    0.17504E+05        -0.49986E+08         0.00000E+00
    0.00000E+00         0.00000E+00        -0.20077E+08
 
   -0.20126E+08         0.19093E+05         0.00000E+00
    0.19093E+05        -0.49983E+08         0.00000E+00
    0.00000E+00         0.00000E+00        -0.20086E+08
 
   -0.20115E+08         0.20455E+05         0.00000E+00
    0.20455E+05        -0.49979E+08         0.00000E+00
    0.00000E+00         0.00000E+00        -0.20093E+08
 
   -0.20105E+08         0.21616E+05         0.00000E+00
    0.21616E+05        -0.49975E+08         0.00000E+00
    0.00000E+00         0.00000E+00        -0.20097E+08
 
   -0.20097E+08         0.22601E+05         0.00000E+00
    0.22601E+05        -0.49971E+08         0.00000E+00
    0.00000E+00         0.00000E+00        -0.20100E+08
 
   -0.20092E+08         0.23436E+05         0.00000E+00
    0.23436E+05        -0.49967E+08         0.00000E+00
    0.00000E+00         0.00000E+00        -0.20100E+08
 
   -0.20088E+08         0.24147E+05         0.00000E+00
    0.24147E+05        -0.49962E+08         0.00000E+00
    0.00000E+00         0.00000E+00        -0.20098E+08
 
   -0.20086E+08         0.24764E+05         0.00000E+00
    0.24764E+05        -0.49958E+08         0.00000E+00
    0.00000E+00         0.00000E+00        -0.20095E+08
 
   -0.20086E+08         0.25316E+05         0.00000E+00
    0.25316E+05        -0.49954E+08         0.00000E+00
    0.00000E+00         0.00000E+00        -0.20089E+08
 
   -0.20260E+08         0.23106E+04         0.00000E+00
    0.23106E+04        -0.50000E+08         0.00000E+00
    0.00000E+00         0.00000E+00        -0.19977E+08
 
   -0.20235E+08         0.65341E+04         0.00000E+00
    0.65341E+04        -0.49999E+08         0.00000E+00
    0.00000E+00         0.00000E+00        -0.20000E+08
 
   -0.20211E+08         0.10280E+05         0.00000E+00
    0.10280E+05        -0.49997E+08         0.00000E+00
    0.00000E+00         0.00000E+00        -0.20021E+08
 
   -0.20190E+08         0.13576E+05         0.00000E+00
    0.13576E+05        -0.49995E+08         0.00000E+00
    0.00000E+00         0.00000E+00        -0.20039E+08
 
   -0.20171E+08         0.16453E+05         0.00000E+00
    0.16453E+05        -0.49992E+08         0.00000E+00
    0.00000E+00         0.00000E+00        -0.20054E+08
 
   -0.20153E+08         0.18943E+05         0.00000E+00
    0.18943E+05        -0.49989E+08         0.00000E+00
    0.00000E+00         0.00000E+00        -0.20067E+08
 
   -0.20138E+08         0.21078E+05         0.00000E+00
    0.21078E+05        -0.49985E+08         0.00000E+00
    0.00000E+00         0.00000E+00        -0.20078E+08
 
   -0.20125E+08         0.22893E+05         0.00000E+00
    0.22893E+05        -0.49982E+08         0.00000E+00
    0.00000E+00         0.00000E+00        -0.20086E+08
 
   -0.20113E+08         0.24422E+05         0.00000E+00
    0.24422E+05        -0.49978E+08         0.00000E+00
    0.00000E+00         0.00000E+00        -0.20093E+08
 
   -0.20104E+08         0.25698E+05         0.00000E+00
    0.25698E+05        -0.49974E+08         0.00000E+00
    0.00000E+00         0.00000E+00        -0.20097E+08
 
   -0.20096E+08         0.26755E+05         0.00000E+00
    0.26755E+05        -0.49969E+08         0.00000E+00
    0.00000E+00         0.00000E+00        -0.20099E+08
 
   -0.20091E+08         0.27627E+05         0.00000E+00
    0.27627E+05        -0.49965E+08         0.00000E+00
    0.00000E+00         0.00000E+00        -0.20099E+08
 
   -0.20087E+08         0.28350E+05         0.00000E+00
    0.28350E+05        -0.49961E+08         0.00000E+00
    0.00000E+00         0.00000E+00        -0.20097E+08
 
   -0.20085E+08         0.28960E+05         0.00000E+00
    0.28960E+05        -0.49957E+08         0.00000E+00
    0.00000E+00         0.00000E+00        -0.20094E+08
 
   -0.20085E+08         0.29498E+05         0.00000E+00
    0.29498E+05        -0.49953E+08         0.00000E+00
    0.00000E+00         0.00000E+00        -0.20089E+08
 
   -0.20255E+08         0.27912E+04         0.00000E+00
    0.27912E+04        -0.50000E+08         0.00000E+00
    0.00000E+00         0.00000E+00        -0.19981E+08
 
   -0.20230E+08         0.78618E+04         0.00000E+00
    0.78618E+04        -0.49999E+08         0.00000E+00
    0.00000E+00         0.00000E+00        -0.20004E+08
 
   -0.20207E+08         0.12321E+05         0.00000E+00
    0.12321E+05        -0.49997E+08         0.00000E+00
    0.00000E+00         0.00000E+00        -0.20024E+08
 
   -0.20187E+08         0.16206E+05         0.00000E+00
    0.16206E+05        -0.49994E+08         0.00000E+00
    0.00000E+00         0.00000E+00        -0.20042E+08
 
   -0.20168E+08         0.19556E+05         0.00000E+00
    0.19556E+05        -0.49991E+08         0.00000E+00
    0.00000E+00         0.00000E+00        -0.20056E+08
 
   -0.20151E+08         0.22415E+05         0.00000E+00
    0.22415E+05        -0.49988E+08         0.00000E+00
    0.00000E+00         0.00000E+00        -0.20069E+08
 
   -0.20136E+08         0.24826E+05         0.00000E+00
    0.24826E+05        -0.49984E+08         0.00000E+00
    0.00000E+00         0.00000E+00        -0.20079E+08
 
   -0.20123E+08         0.26836E+05         0.00000E+00
    0.26836E+05        -0.49980E+08         0.00000E+00
    0.00000E+00         0.00000E+00        -0.20087E+08
 
   -0.20112E+08         0.28490E+05         0.00000E+00
    0.28490E+05        -0.49976E+08         0.00000E+00
    0.00000E+00         0.00000E+00        -0.20092E+08
 
   -0.20103E+08         0.29833E+05         0.00000E+00
    0.29833E+05        -0.49972E+08         0.00000E+00
    0.00000E+00         0.00000E+00        -0.20096E+08
 
   -0.20095E+08         0.30908E+05         0.00000E+00
    0.30908E+05        -0.49968E+08         0.00000E+00
    0.00000E+00         0.00000E+00        -0.20098E+08
 
   -0.20090E+08         0.31760E+05         0.00000E+00
    0.31760E+05        -0.49964E+08         0.00000E+00
    0.00000E+00         0.00000E+00        -0.20098E+08
 
   -0.20086E+08         0.32435E+05         0.00000E+00
    0.32435E+05        -0.49960E+08         0.00000E+00
    0.00000E+00         0.00000E+00        -0.20096E+08
 
   -0.20085E+08         0.32979E+05         0.00000E+00
    0.32979E+05        -0.49956E+08         0.00000E+00
    0.00000E+00         0.00000E+00        -0.20093E+08
 
   -0.20085E+08         0.33443E+05         0.00000E+00
    0.33443E+05        -0.49952E+08         0.00000E+00
    0.00000E+00         0.00000E+00        -0.20088E+08
 
   -0.20249E+08         0.33200E+04         0.00000E+00
    0.33200E+04        -0.50000E+08         0.00000E+00
    0.00000E+00         0.00000E+00        -0.19987E+08
 
   -0.20225E+08         0.93130E+04         0.00000E+00
    0.93130E+04        -0.49998E+08         0.00000E+00
    0.00000E+00         0.00000E+00        -0.20009E+08
 
   -0.20203E+08         0.14537E+05         0.00000E+00
    0.14537E+05        -0.49997E+08         0.00000E+00
    0.00000E+00         0.00000E+00        -0.20028E+08
 
   -0.20183E+08         0.19040E+05         0.00000E+00
    0.19040E+05        -0.49994E+08         0.00000E+00
    0.00000E+00         0.00000E+00        -0.20045E+08
 
   -0.20165E+08         0.22873E+05         0.00000E+00
    0.22873E+05        -0.49991E+08         0.00000E+00
    0.00000E+00         0.00000E+00        -0.20059E+08
 
   -0.20148E+08         0.26093E+05         0.00000E+00
    0.26093E+05        -0.49987E+08         0.00000E+00
    0.00000E+00         0.00000E+00        -0.20070E+08
 
   -0.20134E+08         0.28758E+05         0.00000E+00
    0.28758E+05        -0.49983E+08         0.00000E+00
    0.00000E+00         0.00000E+00        -0.20080E+08
 
   -0.20121E+08         0.30927E+05         0.00000E+00
    0.30927E+05        -0.49979E+08         0.00000E+00
    0.00000E+00         0.00000E+00        -0.20087E+08
 
   -0.20110E+08         0.32660E+05         0.00000E+00
    0.32660E+05        -0.49975E+08         0.00000E+00
    0.00000E+00         0.00000E+00        -0.20092E+08
 
   -0.20102E+08         0.34013E+05         0.00000E+00
    0.34013E+05        -0.49971E+08         0.00000E+00
    0.00000E+00         0.00000E+00        -0.20095E+08
 
   -0.20094E+08         0.35044E+05         0.00000E+00
    0.35044E+05        -0.49967E+08         0.00000E+00
    0.00000E+00         0.00000E+00        -0.20097E+08
 
   -0.20089E+08         0.35809E+05         0.00000E+00
    0.35809E+05        -0.49963E+08         0.00000E+00
    0.00000E+00         0.00000E+00        -0.20097E+08
 
   -0.20086E+08         0.36366E+05         0.00000E+00
    0.36366E+05        -0.49959E+08         0.00000E+00
    0.00000E+00         0.00000E+00        -0.20095E+08
 
   -0.20084E+08         0.36773E+05         0.00000E+00
    0.36773E+05        -0.49955E+08         0.00000E+00
    0.00000E+00         0.00000E+00        -0.20092E+08
 
   -0.20084E+08         0.37095E+05         0.00000E+00
    0.37095E+05        -0.49951E+08         0.00000E+00
    0.00000E+00         0.00000E+00        -0.20087E+08
 
   -0.20242E+08         0.38992E+04         0.00000E+00
    0.38992E+04        -0.50000E+08         0.00000E+00
    0.00000E+00         0.00000E+00        -0.19994E+08
 
   -0.20219E+08         0.10893E+05         0.00000E+00
    0.10893E+05        -0.49998E+08         0.00000E+00
    0.00000E+00         0.00000E+00        -0.20015E+08
 
   -0.20198E+08         0.16935E+05         0.00000E+00
    0.16935E+05        -0.49996E+08         0.00000E+00
    0.00000E+00         0.00000E+00        -0.20033E+08
 
   -0.20178E+08         0.22086E+05         0.00000E+00
    0.22086E+05        -0.49993E+08         0.00000E+00
    0.00000E+00         0.00000E+00        -0.20049E+08
 
   -0.20161E+08         0.26412E+05         0.00000E+00
    0.26412E+05        -0.49990E+08         0.00000E+00
    0.00000E+00         0.00000E+00        -0.20062E+08
 
   -0.20145E+08         0.29985E+05         0.00000E+00
    0.29985E+05        -0.49986E+08         0.00000E+00
    0.00000E+00         0.00000E+00        -0.20072E+08
 
   -0.20131E+08         0.32877E+05         0.00000E+00
    0.32877E+05        -0.49982E+08         0.00000E+00
    0.00000E+00         0.00000E+00        -0.20081E+08
 
   -0.20119E+08         0.35165E+05         0.00000E+00
    0.35165E+05        -0.49978E+08         0.00000E+00
    0.00000E+00         0.00000E+00        -0.20087E+08
 
   -0.20109E+08         0.36923E+05         0.00000E+00
    0.36923E+05        -0.49974E+08         0.00000E+00
    0.00000E+00         0.00000E+00        -0.20092E+08
 
   -0.20100E+08         0.38225E+05         0.00000E+00
    0.38225E+05        -0.49969E+08         0.00000E+00
    0.00000E+00         0.00000E+00        -0.20095E+08
 
   -0.20094E+08         0.39140E+05         0.00000E+00
    0.39140E+05        -0.49965E+08         0.00000E+00
    0.00000E+00         0.00000E+00        -0.20096E+08
 
   -0.20089E+08         0.39741E+05         0.00000E+00
    0.39741E+05        -0.49961E+08         0.00000E+00
    0.00000E+00         0.00000E+00        -0.20096E+08
 
   -0.20085E+08         0.40099E+05         0.00000E+00
    0.40099E+05        -0.49957E+08         0.00000E+00
    0.00000E+00         0.00000E+00        -0.20094E+08
 
   -0.20084E+08         0.40289E+05         0.00000E+00
    0.40289E+05        -0.49954E+08         0.00000E+00
    0.00000E+00         0.00000E+00        -0.20091E+08
 
   -0.20084E+08         0.40388E+05         0.00000E+00
    0.40388E+05        -0.49951E+08         0.00000E+00
    0.00000E+00         0.00000E+00        -0.20087E+08
 
   -0.20234E+08         0.45286E+04         0.00000E+00
    0.45286E+04        -0.49999E+08         0.00000E+00
    0.00000E+00         0.00000E+00        -0.20002E+08
 
   -0.20212E+08         0.12601E+05         0.00000E+00
    0.12601E+05        -0.49998E+08         0.00000E+00
    0.00000E+00         0.00000E+00        -0.20022E+08
 
   -0.20192E+08         0.19515E+05         0.00000E+00
    0.19515E+05        -0.49996E+08         0.00000E+00
    0.00000E+00         0.00000E+00        -0.20039E+08
 
   -0.20173E+08         0.25344E+05         0.00000E+00
    0.25344E+05        -0.49993E+08         0.00000E+00
    0.00000E+00         0.00000E+00        -0.20053E+08
 
   -0.20157E+08         0.30172E+05         0.00000E+00
    0.30172E+05        -0.49989E+08         0.00000E+00
    0.00000E+00         0.00000E+00        -0.20065E+08
 
   -0.20142E+08         0.34086E+05         0.00000E+00
    0.34086E+05        -0.49985E+08         0.00000E+00
    0.00000E+00         0.00000E+00        -0.20074E+08
 
   -0.20129E+08         0.37178E+05         0.00000E+00
    0.37178E+05        -0.49981E+08         0.00000E+00
    0.00000E+00         0.00000E+00        -0.20082E+08
 
   -0.20117E+08         0.39540E+05         0.00000E+00
    0.39540E+05        -0.49977E+08         0.00000E+00
    0.00000E+00         0.00000E+00        -0.20088E+08
 
   -0.20107E+08         0.41265E+05         0.00000E+00
    0.41265E+05        -0.49972E+08         0.00000E+00
    0.00000E+00         0.00000E+00        -0.20092E+08
 
   -0.20099E+08         0.42445E+05         0.00000E+00
    0.42445E+05        -0.49968E+08         0.00000E+00
    0.00000E+00         0.00000E+00        -0.20094E+08
 
   -0.20093E+08         0.43165E+05         0.00000E+00
    0.43165E+05        -0.49964E+08         0.00000E+00
    0.00000E+00         0.00000E+00        -0.20095E+08
 
   -0.20088E+08         0.43514E+05         0.00000E+00
    0.43514E+05        -0.49960E+08         0.00000E+00
    0.00000E+00         0.00000E+00        -0.20095E+08
 
   -0.20085E+08         0.43582E+05         0.00000E+00
    0.43582E+05        -0.49957E+08         0.00000E+00
    0.00000E+00         0.00000E+00        -0.20093E+08
 
   -0.20084E+08         0.43461E+05         0.00000E+00
    0.43461E+05        -0.49953E+08         0.00000E+00
    0.00000E+00         0.00000E+00        -0.20090E+08
 
   -0.20084E+08         0.43249E+05         0.00000E+00
    0.43249E+05        -0.49951E+08         0.00000E+00
    0.00000E+00         0.00000E+00        -0.20087E+08
 
   -0.20225E+08         0.52053E+04         0.00000E+00
    0.52053E+04        -0.49999E+08         0.00000E+00
    0.00000E+00         0.00000E+00        -0.20011E+08
 
   -0.20204E+08         0.14431E+05         0.00000E+00
    0.14431E+05        -0.49998E+08         0.00000E+00
    0.00000E+00         0.00000E+00        -0.20030E+08
 
   -0.20185E+08         0.22267E+05         0.00000E+00
    0.22267E+05        -0.49996E+08         0.00000E+00
    0.00000E+00         0.00000E+00        -0.20045E+08
 
   -0.20168E+08         0.28804E+05         0.00000E+00
    0.28804E+05        -0.49993E+08         0.00000E+00
    0.00000E+00         0.00000E+00        -0.20058E+08
 
   -0.20152E+08         0.34141E+05         0.00000E+00
    0.34141E+05        -0.49989E+08         0.00000E+00
    0.00000E+00         0.00000E+00        -0.20069E+08
 
   -0.20138E+08         0.38385E+05         0.00000E+00
    0.38385E+05        -0.49985E+08         0.00000E+00
    0.00000E+00         0.00000E+00        -0.20077E+08
 
   -0.20126E+08         0.41645E+05         0.00000E+00
    0.41645E+05        -0.49980E+08         0.00000E+00
    0.00000E+00         0.00000E+00        -0.20083E+08
 
   -0.20115E+08         0.44034E+05         0.00000E+00
    0.44034E+05        -0.49976E+08         0.00000E+00
    0.00000E+00         0.00000E+00        -0.20088E+08
 
   -0.20106E+08         0.45663E+05         0.00000E+00
    0.45663E+05        -0.49971E+08         0.00000E+00
    0.00000E+00         0.00000E+00        -0.20091E+08
 
   -0.20099E+08         0.46641E+05         0.00000E+00
    0.46641E+05        -0.49967E+08         0.00000E+00
    0.00000E+00         0.00000E+00        -0.20093E+08
 
   -0.20093E+08         0.47076E+05         0.00000E+00
    0.47076E+05        -0.49963E+08         0.00000E+00
    0.00000E+00         0.00000E+00        -0.20094E+08
 
   -0.20088E+08         0.47077E+05         0.00000E+00
    0.47077E+05        -0.49959E+08         0.00000E+00
    0.00000E+00         0.00000E+00        -0.20093E+08
 
   -0.20086E+08         0.46753E+05         0.00000E+00
    0.46753E+05        -0.49956E+08         0.00000E+00
    0.00000E+00         0.00000E+00        -0.20092E+08
 
   -0.20084E+08         0.46218E+05         0.00000E+00
    0.46218E+05        -0.49953E+08         0.00000E+00
    0.00000E+00         0.00000E+00        -0.20090E+08
 
   -0.20084E+08         0.45592E+05         0.00000E+00
    0.45592E+05        -0.49951E+08         0.00000E+00
    0.00000E+00         0.00000E+00        -0.20087E+08
 
   -0.20214E+08         0.59235E+04         0.00000E+00
    0.59235E+04        -0.49999E+08         0.00000E+00
    0.00000E+00         0.00000E+00        -0.20021E+08
 
   -0.20195E+08         0.16367E+05         0.00000E+00
    0.16367E+05        -0.49998E+08         0.00000E+00
    0.00000E+00         0.00000E+00        -0.20038E+08
 
   -0.20177E+08         0.25172E+05         0.00000E+00
    0.25172E+05        -0.49996E+08         0.00000E+00
    0.00000E+00         0.00000E+00        -0.20053E+08
 
   -0.20161E+08         0.32444E+05         0.00000E+00
    0.32444E+05        -0.49992E+08         0.00000E+00
    0.00000E+00         0.00000E+00        -0.20064E+08
 
   -0.20147E+08         0.38298E+05         0.00000E+00
    0.38298E+05        -0.49988E+08         0.00000E+00
    0.00000E+00         0.00000E+00        -0.20073E+08
 
   -0.20134E+08         0.42859E+05         0.00000E+00
    0.42859E+05        -0.49984E+08         0.00000E+00
    0.00000E+00         0.00000E+00        -0.20080E+08
 
   -0.20123E+08         0.46256E+05         0.00000E+00
    0.46256E+05        -0.49979E+08         0.00000E+00
    0.00000E+00         0.00000E+00        -0.20085E+08
 
   -0.20113E+08         0.48619E+05         0.00000E+00
    0.48619E+05        -0.49975E+08         0.00000E+00
    0.00000E+00         0.00000E+00        -0.20089E+08
 
   -0.20105E+08         0.50081E+05         0.00000E+00
    0.50081E+05        -0.49970E+08         0.00000E+00
    0.00000E+00         0.00000E+00        -0.20091E+08
 
   -0.20098E+08         0.50772E+05         0.00000E+00
    0.50772E+05        -0.49966E+08         0.00000E+00
    0.00000E+00         0.00000E+00        -0.20093E+08
 
   -0.20093E+08         0.50823E+05         0.00000E+00
    0.50823E+05        -0.49962E+08         0.00000E+00
    0.00000E+00         0.00000E+00        -0.20093E+08
 
   -0.20089E+08         0.50366E+05         0.00000E+00
    0.50366E+05        -0.49959E+08         0.00000E+00
    0.00000E+00         0.00000E+00        -0.20092E+08
 
   -0.20086E+08         0.49537E+05         0.00000E+00
    0.49537E+05        -0.49956E+08         0.00000E+00
    0.00000E+00         0.00000E+00        -0.20091E+08
 
   -0.20085E+08         0.48476E+05         0.00000E+00
    0.48476E+05        -0.49954E+08         0.00000E+00
    0.00000E+00         0.00000E+00        -0.20089E+08
 
   -0.20085E+08         0.47327E+05         0.00000E+00
    0.47327E+05        -0.49952E+08         0.00000E+00
    0.00000E+00         0.00000E+00        -0.20087E+08
 
   -0.20202E+08         0.66737E+04         0.00000E+00
    0.66737E+04        -0.49999E+08         0.00000E+00
    0.00000E+00         0.00000E+00        -0.20033E+08
 
   -0.20185E+08         0.18387E+05         0.00000E+00
    0.18387E+05        -0.49998E+08         0.00000E+00
    0.00000E+00         0.00000E+00        -0.20048E+08
 
   -0.20169E+08         0.28200E+05         0.00000E+00
    0.28200E+05        -0.49995E+08         0.00000E+00
    0.00000E+00         0.00000E+00        -0.20061E+08
 
   -0.20155E+08         0.36231E+05         0.00000E+00
    0.36231E+05        -0.49992E+08         0.00000E+00
    0.00000E+00         0.00000E+00        -0.20070E+08
 
   -0.20142E+08         0.42609E+05         0.00000E+00
    0.42609E+05        -0.49988E+08         0.00000E+00
    0.00000E+00         0.00000E+00        -0.20078E+08
 
   -0.20130E+08         0.47474E+05         0.00000E+00
    0.47474E+05        -0.49983E+08         0.00000E+00
    0.00000E+00         0.00000E+00        -0.20083E+08
 
   -0.20120E+08         0.50972E+05         0.00000E+00
    0.50972E+05        -0.49979E+08         0.00000E+00
    0.00000E+00         0.00000E+00        -0.20087E+08
 
   -0.20111E+08         0.53255E+05         0.00000E+00
    0.53255E+05        -0.49974E+08         0.00000E+00
    0.00000E+00         0.00000E+00        -0.20090E+08
 
   -0.20104E+08         0.54473E+05         0.00000E+00
    0.54473E+05        -0.49969E+08         0.00000E+00
    0.00000E+00         0.00000E+00        -0.20091E+08
 
   -0.20098E+08         0.54782E+05         0.00000E+00
    0.54782E+05        -0.49965E+08         0.00000E+00
    0.00000E+00         0.00000E+00        -0.20092E+08
 
   -0.20093E+08         0.54339E+05         0.00000E+00
    0.54339E+05        -0.49962E+08         0.00000E+00
    0.00000E+00         0.00000E+00        -0.20092E+08
 
   -0.20090E+08         0.53307E+05         0.00000E+00
    0.53307E+05        -0.49959E+08         0.00000E+00
    0.00000E+00         0.00000E+00        -0.20091E+08
 
   -0.20087E+08         0.51851E+05         0.00000E+00
    0.51851E+05        -0.49956E+08         0.00000E+00
    0.00000E+00         0.00000E+00        -0.20091E+08
 
   -0.20086E+08         0.50142E+05         0.00000E+00
    0.50142E+05        -0.49955E+08         0.00000E+00
    0.00000E+00         0.00000E+00        -0.20089E+08
 
   -0.20087E+08         0.48352E+05         0.00000E+00
    0.48352E+05        -0.49954E+08         0.00000E+00
    0.00000E+00         0.00000E+00        -0.20088E+08
 
   -0.20189E+08         0.74434E+04         0.00000E+00
    0.74434E+04        -0.49999E+08         0.00000E+00
    0.00000E+00         0.00000E+00        -0.20046E+08
 
   -0.20173E+08         0.20459E+05         0.00000E+00
    0.20459E+05        -0.49998E+08         0.00000E+00
    0.00000E+00         0.00000E+00        -0.20060E+08
 
   -0.20160E+08         0.31309E+05         0.00000E+00
    0.31309E+05        -0.49995E+08         0.00000E+00
    0.00000E+00         0.00000E+00        -0.20070E+08
 
   -0.20147E+08         0.40118E+05         0.00000E+00
    0.40118E+05        -0.49992E+08         0.00000E+00
    0.00000E+00         0.00000E+00        -0.20078E+08
 
   -0.20136E+08         0.47025E+05         0.00000E+00
    0.47025E+05        -0.49988E+08         0.00000E+00
    0.00000E+00         0.00000E+00        -0.20083E+08
 
   -0.20126E+08         0.52181E+05         0.00000E+00
    0.52181E+05        -0.49983E+08         0.00000E+00
    0.00000E+00         0.00000E+00        -0.20087E+08
 
   -0.20117E+08         0.55745E+05         0.00000E+00
    0.55745E+05        -0.49978E+08         0.00000E+00
    0.00000E+00         0.00000E+00        -0.20090E+08
 
   -0.20110E+08         0.57885E+05         0.00000E+00
    0.57885E+05        -0.49974E+08         0.00000E+00
    0.00000E+00         0.00000E+00        -0.20091E+08
 
   -0.20103E+08         0.58775E+05         0.00000E+00
    0.58775E+05        -0.49969E+08         0.00000E+00
    0.00000E+00         0.00000E+00        -0.20092E+08
 
   -0.20098E+08         0.58598E+05         0.00000E+00
    0.58598E+05        -0.49965E+08         0.00000E+00
    0.00000E+00         0.00000E+00        -0.20092E+08
 
   -0.20094E+08         0.57544E+05         0.00000E+00
    0.57544E+05        -0.49962E+08         0.00000E+00
    0.00000E+00         0.00000E+00        -0.20091E+08
 
   -0.20091E+08         0.55809E+05         0.00000E+00
    0.55809E+05        -0.49959E+08         0.00000E+00
    0.00000E+00         0.00000E+00        -0.20091E+08
 
   -0.20089E+08         0.53598E+05         0.00000E+00
    0.53598E+05        -0.49957E+08         0.00000E+00
    0.00000E+00         0.00000E+00        -0.20090E+08
 
   -0.20089E+08         0.51117E+05         0.00000E+00
    0.51117E+05        -0.49956E+08         0.00000E+00
    0.00000E+00         0.00000E+00        -0.20090E+08
 
   -0.20089E+08         0.48567E+05         0.00000E+00
    0.48567E+05        -0.49956E+08         0.00000E+00
    0.00000E+00         0.00000E+00        -0.20089E+08
 
   -0.20174E+08         0.82168E+04         0.00000E+00
    0.82168E+04        -0.49999E+08         0.00000E+00
    0.00000E+00         0.00000E+00        -0.20061E+08
 
   -0.20161E+08         0.22546E+05         0.00000E+00
    0.22546E+05        -0.49998E+08         0.00000E+00
    0.00000E+00         0.00000E+00        -0.20072E+08
 
   -0.20149E+08         0.34447E+05         0.00000E+00
    0.34447E+05        -0.49995E+08         0.00000E+00
    0.00000E+00         0.00000E+00        -0.20080E+08
 
   -0.20139E+08         0.44046E+05         0.00000E+00
    0.44046E+05        -0.49992E+08         0.00000E+00
    0.00000E+00         0.00000E+00        -0.20086E+08
 
   -0.20130E+08         0.51485E+05         0.00000E+00
    0.51485E+05        -0.49988E+08         0.00000E+00
    0.00000E+00         0.00000E+00        -0.20090E+08
 
   -0.20121E+08         0.56915E+05         0.00000E+00
    0.56915E+05        -0.49983E+08         0.00000E+00
    0.00000E+00         0.00000E+00        -0.20092E+08
 
   -0.20114E+08         0.60504E+05         0.00000E+00
    0.60504E+05        -0.49978E+08         0.00000E+00
    0.00000E+00         0.00000E+00        -0.20093E+08
 
   -0.20108E+08         0.62435E+05         0.00000E+00
    0.62435E+05        -0.49974E+08         0.00000E+00
    0.00000E+00         0.00000E+00        -0.20093E+08
 
   -0.20103E+08         0.62905E+05         0.00000E+00
    0.62905E+05        -0.49969E+08         0.00000E+00
    0.00000E+00         0.00000E+00        -0.20092E+08
 
   -0.20099E+08         0.62129E+05         0.00000E+00
    0.62129E+05        -0.49966E+08         0.00000E+00
    0.00000E+00         0.00000E+00        -0.20092E+08
 
   -0.20096E+08         0.60337E+05         0.00000E+00
    0.60337E+05        -0.49963E+08         0.00000E+00
    0.00000E+00         0.00000E+00        -0.20091E+08
 
   -0.20094E+08         0.57770E+05         0.00000E+00
    0.57770E+05        -0.49961E+08         0.00000E+00
    0.00000E+00         0.00000E+00        -0.20090E+08
 
   -0.20092E+08         0.54676E+05         0.00000E+00
    0.54676E+05        -0.49960E+08         0.00000E+00
    0.00000E+00         0.00000E+00        -0.20090E+08
 
   -0.20092E+08         0.51301E+05         0.00000E+00
    0.51301E+05        -0.49959E+08         0.00000E+00
    0.00000E+00         0.00000E+00        -0.20091E+08
 
   -0.20092E+08         0.47875E+05         0.00000E+00
    0.47875E+05        -0.49960E+08         0.00000E+00
    0.00000E+00         0.00000E+00        -0.20091E+08
 
   -0.20157E+08         0.89767E+04         0.00000E+00
    0.89767E+04        -0.49999E+08         0.00000E+00
    0.00000E+00         0.00000E+00        -0.20077E+08
 
   -0.20147E+08         0.24602E+05         0.00000E+00
    0.24602E+05        -0.49998E+08         0.00000E+00
    0.00000E+00         0.00000E+00        -0.20086E+08
 
   -0.20138E+08         0.37551E+05         0.00000E+00
    0.37551E+05        -0.49996E+08         0.00000E+00
    0.00000E+00         0.00000E+00        -0.20092E+08
 
   -0.20130E+08         0.47943E+05         0.00000E+00
    0.47943E+05        -0.49992E+08         0.00000E+00
    0.00000E+00         0.00000E+00        -0.20095E+08
 
   -0.20123E+08         0.55907E+05         0.00000E+00
    0.55907E+05        -0.49988E+08         0.00000E+00
    0.00000E+00         0.00000E+00        -0.20097E+08
 
   -0.20117E+08         0.61591E+05         0.00000E+00
    0.61591E+05        -0.49983E+08         0.00000E+00
    0.00000E+00         0.00000E+00        -0.20097E+08
 
   -0.20112E+08         0.65160E+05         0.00000E+00
    0.65160E+05        -0.49979E+08         0.00000E+00
    0.00000E+00         0.00000E+00        -0.20096E+08
 
   -0.20107E+08         0.66807E+05         0.00000E+00
    0.66807E+05        -0.49974E+08         0.00000E+00
    0.00000E+00         0.00000E+00        -0.20095E+08
 
   -0.20104E+08         0.66756E+05         0.00000E+00
    0.66756E+05        -0.49970E+08         0.00000E+00
    0.00000E+00         0.00000E+00        -0.20093E+08
 
   -0.20101E+08         0.65261E+05         0.00000E+00
    0.65261E+05        -0.49967E+08         0.00000E+00
    0.00000E+00         0.00000E+00        -0.20092E+08
 
   -0.20099E+08         0.62601E+05         0.00000E+00
    0.62601E+05        -0.49965E+08         0.00000E+00
    0.00000E+00         0.00000E+00        -0.20091E+08
 
   -0.20097E+08         0.59073E+05         0.00000E+00
    0.59073E+05        -0.49963E+08         0.00000E+00
    0.00000E+00         0.00000E+00        -0.20090E+08
 
   -0.20096E+08         0.54979E+05         0.00000E+00
    0.54979E+05        -0.49963E+08         0.00000E+00
    0.00000E+00         0.00000E+00        -0.20091E+08
 
   -0.20095E+08         0.50599E+05         0.00000E+00
    0.50599E+05        -0.49964E+08         0.00000E+00
    0.00000E+00         0.00000E+00        -0.20092E+08
 
   -0.20096E+08         0.46194E+05         0.00000E+00
    0.46194E+05        -0.49965E+08         0.00000E+00
    0.00000E+00         0.00000E+00        -0.20094E+08
 
   -0.20140E+08         0.97058E+04         0.00000E+00
    0.97058E+04        -0.50000E+08         0.00000E+00
    0.00000E+00         0.00000E+00        -0.20095E+08
 
   -0.20132E+08         0.26582E+05         0.00000E+00
    0.26582E+05        -0.49998E+08         0.00000E+00
    0.00000E+00         0.00000E+00        -0.20101E+08
 
   -0.20126E+08         0.40553E+05         0.00000E+00
    0.40553E+05        -0.49996E+08         0.00000E+00
    0.00000E+00         0.00000E+00        -0.20104E+08
 
   -0.20121E+08         0.51720E+05         0.00000E+00
    0.51720E+05        -0.49992E+08         0.00000E+00
    0.00000E+00         0.00000E+00        -0.20105E+08
 
   -0.20116E+08         0.60192E+05         0.00000E+00
    0.60192E+05        -0.49988E+08         0.00000E+00
    0.00000E+00         0.00000E+00        -0.20104E+08
 
   -0.20112E+08         0.66096E+05         0.00000E+00
    0.66096E+05        -0.49984E+08         0.00000E+00
    0.00000E+00         0.00000E+00        -0.20103E+08
 
   -0.20109E+08         0.69588E+05         0.00000E+00
    0.69588E+05        -0.49980E+08         0.00000E+00
    0.00000E+00         0.00000E+00        -0.20100E+08
 
   -0.20107E+08         0.70868E+05         0.00000E+00
    0.70868E+05        -0.49976E+08         0.00000E+00
    0.00000E+00         0.00000E+00        -0.20097E+08
 
   -0.20105E+08         0.70189E+05         0.00000E+00
    0.70189E+05        -0.49972E+08         0.00000E+00
    0.00000E+00         0.00000E+00        -0.20094E+08
 
   -0.20103E+08         0.67852E+05         0.00000E+00
    0.67852E+05        -0.49970E+08         0.00000E+00
    0.00000E+00         0.00000E+00        -0.20092E+08
 
   -0.20102E+08         0.64201E+05         0.00000E+00
    0.64201E+05        -0.49968E+08         0.00000E+00
    0.00000E+00         0.00000E+00        -0.20091E+08
 
   -0.20101E+08         0.59600E+05         0.00000E+00
    0.59600E+05        -0.49967E+08         0.00000E+00
    0.00000E+00         0.00000E+00        -0.20091E+08
 
   -0.20101E+08         0.54403E+05         0.00000E+00
    0.54403E+05        -0.49968E+08         0.00000E+00
    0.00000E+00         0.00000E+00        -0.20092E+08
 
   -0.20100E+08         0.48938E+05         0.00000E+00
    0.48938E+05        -0.49969E+08         0.00000E+00
    0.00000E+00         0.00000E+00        -0.20095E+08
 
   -0.20100E+08         0.43471E+05         0.00000E+00
    0.43471E+05        -0.49972E+08         0.00000E+00
    0.00000E+00         0.00000E+00        -0.20098E+08
 
   -0.20121E+08         0.10389E+05         0.00000E+00
    0.10389E+05        -0.50000E+08         0.00000E+00
    0.00000E+00         0.00000E+00        -0.20114E+08
 
   -0.20116E+08         0.28441E+05         0.00000E+00
    0.28441E+05        -0.49998E+08         0.00000E+00
    0.00000E+00         0.00000E+00        -0.20117E+08
 
   -0.20113E+08         0.43379E+05         0.00000E+00
    0.43379E+05        -0.49996E+08         0.00000E+00
    0.00000E+00         0.00000E+00        -0.20117E+08
 
   -0.20110E+08         0.55277E+05         0.00000E+00
    0.55277E+05        -0.49993E+08         0.00000E+00
    0.00000E+00         0.00000E+00        -0.20116E+08
 
   -0.20109E+08         0.64213E+05         0.00000E+00
    0.64213E+05        -0.49989E+08         0.00000E+00
    0.00000E+00         0.00000E+00        -0.20113E+08
 
   -0.20108E+08         0.70284E+05         0.00000E+00
    0.70284E+05        -0.49985E+08         0.00000E+00
    0.00000E+00         0.00000E+00        -0.20109E+08
 
   -0.20107E+08         0.73627E+05         0.00000E+00
    0.73627E+05        -0.49982E+08         0.00000E+00
    0.00000E+00         0.00000E+00        -0.20104E+08
 
   -0.20107E+08         0.74446E+05         0.00000E+00
    0.74446E+05        -0.49978E+08         0.00000E+00
    0.00000E+00         0.00000E+00        -0.20100E+08
 
   -0.20107E+08         0.73026E+05         0.00000E+00
    0.73026E+05        -0.49975E+08         0.00000E+00
    0.00000E+00         0.00000E+00        -0.20096E+08
 
   -0.20107E+08         0.69735E+05         0.00000E+00
    0.69735E+05        -0.49973E+08         0.00000E+00
    0.00000E+00         0.00000E+00        -0.20094E+08
 
   -0.20107E+08         0.64992E+05         0.00000E+00
    0.64992E+05        -0.49972E+08         0.00000E+00
    0.00000E+00         0.00000E+00        -0.20092E+08
 
   -0.20107E+08         0.59233E+05         0.00000E+00
    0.59233E+05        -0.49973E+08         0.00000E+00
    0.00000E+00         0.00000E+00        -0.20093E+08
 
   -0.20107E+08         0.52874E+05         0.00000E+00
    0.52874E+05        -0.49974E+08         0.00000E+00
    0.00000E+00         0.00000E+00        -0.20095E+08
 
   -0.20106E+08         0.46269E+05         0.00000E+00
    0.46269E+05        -0.49977E+08         0.00000E+00
    0.00000E+00         0.00000E+00        -0.20098E+08
 
   -0.20106E+08         0.39694E+05         0.00000E+00
    0.39694E+05        -0.49980E+08         0.00000E+00
    0.00000E+00         0.00000E+00        -0.20103E+08
 
   -0.20100E+08         0.11016E+05         0.00000E+00
    0.11016E+05        -0.50000E+08         0.00000E+00
    0.00000E+00         0.00000E+00        -0.20134E+08
 
   -0.20099E+08         0.30140E+05         0.00000E+00
    0.30140E+05        -0.49999E+08         0.00000E+00
    0.00000E+00         0.00000E+00        -0.20134E+08
 
   -0.20099E+08         0.45954E+05         0.00000E+00
    0.45954E+05        -0.49996E+08         0.00000E+00
    0.00000E+00         0.00000E+00        -0.20132E+08
 
   -0.20100E+08         0.58498E+05         0.00000E+00
    0.58498E+05        -0.49994E+08         0.00000E+00
    0.00000E+00         0.00000E+00        -0.20128E+08
 
   -0.20101E+08         0.67813E+05         0.00000E+00
    0.67813E+05        -0.49991E+08         0.00000E+00
    0.00000E+00         0.00000E+00        -0.20122E+08
 
   -0.20103E+08         0.73960E+05         0.00000E+00
    0.73960E+05        -0.49987E+08         0.00000E+00
    0.00000E+00         0.00000E+00        -0.20116E+08
 
   -0.20105E+08         0.77055E+05         0.00000E+00
    0.77055E+05        -0.49984E+08         0.00000E+00
    0.00000E+00         0.00000E+00        -0.20110E+08
 
   -0.20107E+08         0.77309E+05         0.00000E+00
    0.77309E+05        -0.49981E+08         0.00000E+00
    0.00000E+00         0.00000E+00        -0.20104E+08
 
   -0.20110E+08         0.75051E+05         0.00000E+00
    0.75051E+05        -0.49979E+08         0.00000E+00
    0.00000E+00         0.00000E+00        -0.20099E+08
 
   -0.20111E+08         0.70722E+05         0.00000E+00
    0.70722E+05        -0.49978E+08         0.00000E+00
    0.00000E+00         0.00000E+00        -0.20096E+08
 
   -0.20113E+08         0.64829E+05         0.00000E+00
    0.64829E+05        -0.49978E+08         0.00000E+00
    0.00000E+00         0.00000E+00        -0.20095E+08
 
   -0.20113E+08         0.57883E+05         0.00000E+00
    0.57883E+05        -0.49980E+08         0.00000E+00
    0.00000E+00         0.00000E+00        -0.20095E+08
 
   -0.20114E+08         0.50349E+05         0.00000E+00
    0.50349E+05        -0.49982E+08         0.00000E+00
    0.00000E+00         0.00000E+00        -0.20098E+08
 
   -0.20114E+08         0.42600E+05         0.00000E+00
    0.42600E+05        -0.49986E+08         0.00000E+00
    0.00000E+00         0.00000E+00        -0.20103E+08
 
   -0.20113E+08         0.34906E+05         0.00000E+00
    0.34906E+05        -0.49991E+08         0.00000E+00
    0.00000E+00         0.00000E+00        -0.20110E+08
 
   -0.20079E+08         0.11582E+05         0.00000E+00
    0.11582E+05        -0.50000E+08         0.00000E+00
    0.00000E+00         0.00000E+00        -0.20156E+08
 
   -0.20081E+08         0.31646E+05         0.00000E+00
    0.31646E+05        -0.49999E+08         0.00000E+00
    0.00000E+00         0.00000E+00        -0.20152E+08
 
   -0.20085E+08         0.48202E+05         0.00000E+00
    0.48202E+05        -0.49997E+08         0.00000E+00
    0.00000E+00         0.00000E+00        -0.20147E+08
 
   -0.20089E+08         0.61252E+05         0.00000E+00
    0.61252E+05        -0.49995E+08         0.00000E+00
    0.00000E+00         0.00000E+00        -0.20140E+08
 
   -0.20093E+08         0.70798E+05         0.00000E+00
    0.70798E+05        -0.49992E+08         0.00000E+00
    0.00000E+00         0.00000E+00        -0.20132E+08
 
   -0.20098E+08         0.76872E+05         0.00000E+00
    0.76872E+05        -0.49990E+08         0.00000E+00
    0.00000E+00         0.00000E+00        -0.20124E+08
 
   -0.20104E+08         0.79582E+05         0.00000E+00
    0.79582E+05        -0.49987E+08         0.00000E+00
    0.00000E+00         0.00000E+00        -0.20116E+08
 
   -0.20109E+08         0.79163E+05         0.00000E+00
    0.79163E+05        -0.49986E+08         0.00000E+00
    0.00000E+00         0.00000E+00        -0.20108E+08
 
   -0.20113E+08         0.76003E+05         0.00000E+00
    0.76003E+05        -0.49985E+08         0.00000E+00
    0.00000E+00         0.00000E+00        -0.20103E+08
 
   -0.20117E+08         0.70618E+05         0.00000E+00
    0.70618E+05        -0.49985E+08         0.00000E+00
    0.00000E+00         0.00000E+00        -0.20099E+08
 
   -0.20120E+08         0.63593E+05         0.00000E+00
    0.63593E+05        -0.49987E+08         0.00000E+00
    0.00000E+00         0.00000E+00        -0.20098E+08
 
   -0.20121E+08         0.55503E+05         0.00000E+00
    0.55503E+05        -0.49989E+08         0.00000E+00
    0.00000E+00         0.00000E+00        -0.20100E+08
 
   -0.20122E+08         0.46843E+05         0.00000E+00
    0.46843E+05        -0.49992E+08         0.00000E+00
    0.00000E+00         0.00000E+00        -0.20103E+08
 
   -0.20122E+08         0.37995E+05         0.00000E+00
    0.37995E+05        -0.49997E+08         0.00000E+00
    0.00000E+00         0.00000E+00        -0.20109E+08
 
   -0.20122E+08         0.29212E+05         0.00000E+00
    0.29212E+05        -0.50002E+08         0.00000E+00
    0.00000E+00         0.00000E+00        -0.20117E+08
 
   -0.20057E+08         0.12081E+05         0.00000E+00
    0.12081E+05        -0.50000E+08         0.00000E+00
    0.00000E+00         0.00000E+00        -0.20179E+08
 
   -0.20063E+08         0.32934E+05         0.00000E+00
    0.32934E+05        -0.49999E+08         0.00000E+00
    0.00000E+00         0.00000E+00        -0.20172E+08
 
   -0.20070E+08         0.50046E+05         0.00000E+00
    0.50046E+05        -0.49997E+08         0.00000E+00
    0.00000E+00         0.00000E+00        -0.20163E+08
 
   -0.20077E+08         0.63384E+05         0.00000E+00
    0.63384E+05        -0.49996E+08         0.00000E+00
    0.00000E+00         0.00000E+00        -0.20153E+08
 
   -0.20085E+08         0.72925E+05         0.00000E+00
    0.72925E+05        -0.49994E+08         0.00000E+00
    0.00000E+00         0.00000E+00        -0.20142E+08
 
   -0.20094E+08         0.78690E+05         0.00000E+00
    0.78690E+05        -0.49993E+08         0.00000E+00
    0.00000E+00         0.00000E+00        -0.20132E+08
 
   -0.20103E+08         0.80828E+05         0.00000E+00
    0.80828E+05        -0.49992E+08         0.00000E+00
    0.00000E+00         0.00000E+00        -0.20122E+08
 
   -0.20111E+08         0.79643E+05         0.00000E+00
    0.79643E+05        -0.49992E+08         0.00000E+00
    0.00000E+00         0.00000E+00        -0.20114E+08
 
   -0.20118E+08         0.75591E+05         0.00000E+00
    0.75591E+05        -0.49993E+08         0.00000E+00
    0.00000E+00         0.00000E+00        -0.20108E+08
 
   -0.20124E+08         0.69243E+05         0.00000E+00
    0.69243E+05        -0.49994E+08         0.00000E+00
    0.00000E+00         0.00000E+00        -0.20104E+08
 
   -0.20128E+08         0.61218E+05         0.00000E+00
    0.61218E+05        -0.49997E+08         0.00000E+00
    0.00000E+00         0.00000E+00        -0.20104E+08
 
   -0.20130E+08         0.52115E+05         0.00000E+00
    0.52115E+05        -0.50000E+08         0.00000E+00
    0.00000E+00         0.00000E+00        -0.20106E+08
 
   -0.20131E+08         0.42445E+05         0.00000E+00
    0.42445E+05        -0.50005E+08         0.00000E+00
    0.00000E+00         0.00000E+00        -0.20110E+08
 
   -0.20131E+08         0.32590E+05         0.00000E+00
    0.32590E+05        -0.50010E+08         0.00000E+00
    0.00000E+00         0.00000E+00        -0.20117E+08
 
   -0.20131E+08         0.22783E+05         0.00000E+00
    0.22783E+05        -0.50016E+08         0.00000E+00
    0.00000E+00         0.00000E+00        -0.20126E+08
 
   -0.20034E+08         0.12512E+05         0.00000E+00
    0.12512E+05        -0.50000E+08         0.00000E+00
    0.00000E+00         0.00000E+00        -0.20202E+08
 
   -0.20043E+08         0.33967E+05         0.00000E+00
    0.33967E+05        -0.49999E+08         0.00000E+00
    0.00000E+00         0.00000E+00        -0.20191E+08
 
   -0.20054E+08         0.51396E+05         0.00000E+00
    0.51396E+05        -0.49998E+08         0.00000E+00
    0.00000E+00         0.00000E+00        -0.20179E+08
 
   -0.20066E+08         0.64712E+05         0.00000E+00
    0.64712E+05        -0.49997E+08         0.00000E+00
    0.00000E+00         0.00000E+00        -0.20166E+08
 
   -0.20078E+08         0.73878E+05         0.00000E+00
    0.73878E+05        -0.49997E+08         0.00000E+00
    0.00000E+00         0.00000E+00        -0.20153E+08
 
   -0.20091E+08         0.78996E+05         0.00000E+00
    0.78996E+05        -0.49997E+08         0.00000E+00
    0.00000E+00         0.00000E+00        -0.20141E+08
 
   -0.20103E+08         0.80332E+05         0.00000E+00
    0.80332E+05        -0.49998E+08         0.00000E+00
    0.00000E+00         0.00000E+00        -0.20130E+08
 
   -0.20114E+08         0.78331E+05         0.00000E+00
    0.78331E+05        -0.50000E+08         0.00000E+00
    0.00000E+00         0.00000E+00        -0.20122E+08
 
   -0.20124E+08         0.73522E+05         0.00000E+00
    0.73522E+05        -0.50003E+08         0.00000E+00
    0.00000E+00         0.00000E+00        -0.20115E+08
 
   -0.20131E+08         0.66460E+05         0.00000E+00
    0.66460E+05        -0.50006E+08         0.00000E+00
    0.00000E+00         0.00000E+00        -0.20112E+08
 
   -0.20137E+08         0.57708E+05         0.00000E+00
    0.57708E+05        -0.50010E+08         0.00000E+00
    0.00000E+00         0.00000E+00        -0.20111E+08
 
   -0.20140E+08         0.47827E+05         0.00000E+00
    0.47827E+05        -0.50014E+08         0.00000E+00
    0.00000E+00         0.00000E+00        -0.20114E+08
 
   -0.20142E+08         0.37325E+05         0.00000E+00
    0.37325E+05        -0.50019E+08         0.00000E+00
    0.00000E+00         0.00000E+00        -0.20119E+08
 
   -0.20142E+08         0.26590E+05         0.00000E+00
    0.26590E+05        -0.50025E+08         0.00000E+00
    0.00000E+00         0.00000E+00        -0.20126E+08
 
   -0.20141E+08         0.15856E+05         0.00000E+00
    0.15856E+05        -0.50031E+08         0.00000E+00
    0.00000E+00         0.00000E+00        -0.20136E+08
 
   -0.20010E+08         0.12874E+05         0.00000E+00
    0.12874E+05        -0.50000E+08         0.00000E+00
    0.00000E+00         0.00000E+00        -0.20226E+08
 
   -0.20024E+08         0.34703E+05         0.00000E+00
    0.34703E+05        -0.49999E+08         0.00000E+00
    0.00000E+00         0.00000E+00        -0.20211E+08
 
   -0.20039E+08         0.52110E+05         0.00000E+00
    0.52110E+05        -0.49999E+08         0.00000E+00
    0.00000E+00         0.00000E+00        -0.20196E+08
 
   -0.20055E+08         0.64955E+05         0.00000E+00
    0.64955E+05        -0.49999E+08         0.00000E+00
    0.00000E+00         0.00000E+00        -0.20180E+08
 
   -0.20071E+08         0.73251E+05         0.00000E+00
    0.73251E+05        -0.50000E+08         0.00000E+00
    0.00000E+00         0.00000E+00        -0.20164E+08
 
   -0.20088E+08         0.77278E+05         0.00000E+00
    0.77278E+05        -0.50002E+08         0.00000E+00
    0.00000E+00         0.00000E+00        -0.20151E+08
 
   -0.20104E+08         0.77592E+05         0.00000E+00
    0.77592E+05        -0.50006E+08         0.00000E+00
    0.00000E+00         0.00000E+00        -0.20140E+08
 
   -0.20118E+08         0.74827E+05         0.00000E+00
    0.74827E+05        -0.50010E+08         0.00000E+00
    0.00000E+00         0.00000E+00        -0.20131E+08
 
   -0.20130E+08         0.69549E+05         0.00000E+00
    0.69549E+05        -0.50015E+08         0.00000E+00
    0.00000E+00         0.00000E+00        -0.20125E+08
 
   -0.20140E+08         0.62192E+05         0.00000E+00
    0.62192E+05        -0.50020E+08         0.00000E+00
    0.00000E+00         0.00000E+00        -0.20122E+08
 
   -0.20146E+08         0.53143E+05         0.00000E+00
    0.53143E+05        -0.50025E+08         0.00000E+00
    0.00000E+00         0.00000E+00        -0.20122E+08
 
   -0.20151E+08         0.42830E+05         0.00000E+00
    0.42830E+05        -0.50030E+08         0.00000E+00
    0.00000E+00         0.00000E+00        -0.20125E+08
 
   -0.20152E+08         0.31734E+05         0.00000E+00
    0.31734E+05        -0.50036E+08         0.00000E+00
    0.00000E+00         0.00000E+00        -0.20130E+08
 
   -0.20153E+08         0.20278E+05         0.00000E+00
    0.20278E+05        -0.50042E+08         0.00000E+00
    0.00000E+00         0.00000E+00        -0.20137E+08
 
   -0.20152E+08         0.87310E+04         0.00000E+00
    0.87310E+04        -0.50048E+08         0.00000E+00
    0.00000E+00         0.00000E+00        -0.20147E+08
 
   -0.19986E+08         0.13163E+05         0.00000E+00
    0.13163E+05        -0.50000E+08         0.00000E+00
    0.00000E+00         0.00000E+00        -0.20251E+08
 
   -0.20004E+08         0.35063E+05         0.00000E+00
    0.35063E+05        -0.50000E+08         0.00000E+00
    0.00000E+00         0.00000E+00        -0.20232E+08
 
   -0.20024E+08         0.51954E+05         0.00000E+00
    0.51954E+05        -0.50000E+08         0.00000E+00
    0.00000E+00         0.00000E+00        -0.20212E+08
 
   -0.20045E+08         0.63678E+05         0.00000E+00
    0.63678E+05        -0.50001E+08         0.00000E+00
    0.00000E+00         0.00000E+00        -0.20193E+08
 
   -0.20066E+08         0.70455E+05         0.00000E+00
    0.70455E+05        -0.50005E+08         0.00000E+00
    0.00000E+00         0.00000E+00        -0.20176E+08
 
   -0.20086E+08         0.72982E+05         0.00000E+00
    0.72982E+05        -0.50010E+08         0.00000E+00
    0.00000E+00         0.00000E+00        -0.20162E+08
 
   -0.20105E+08         0.72181E+05         0.00000E+00
    0.72181E+05        -0.50016E+08         0.00000E+00
    0.00000E+00         0.00000E+00        -0.20152E+08
 
   -0.20122E+08         0.68858E+05         0.00000E+00
    0.68858E+05        -0.50023E+08         0.00000E+00
    0.00000E+00         0.00000E+00        -0.20144E+08
 
   -0.20136E+08         0.63522E+05         0.00000E+00
    0.63522E+05        -0.50030E+08         0.00000E+00
    0.00000E+00         0.00000E+00        -0.20139E+08
 
   -0.20148E+08         0.56410E+05         0.00000E+00
    0.56410E+05        -0.50037E+08         0.00000E+00
    0.00000E+00         0.00000E+00        -0.20137E+08
 
   -0.20156E+08         0.47634E+05         0.00000E+00
    0.47634E+05        -0.50043E+08         0.00000E+00
    0.00000E+00         0.00000E+00        -0.20136E+08
 
   -0.20161E+08         0.37370E+05         0.00000E+00
    0.37370E+05        -0.50049E+08         0.00000E+00
    0.00000E+00         0.00000E+00        -0.20138E+08
 
   -0.20164E+08         0.25999E+05         0.00000E+00
    0.25999E+05        -0.50054E+08         0.00000E+00
    0.00000E+00         0.00000E+00        -0.20143E+08
 
   -0.20165E+08         0.14009E+05         0.00000E+00
    0.14009E+05        -0.50060E+08         0.00000E+00
    0.00000E+00         0.00000E+00        -0.20150E+08
 
   -0.20164E+08         0.17727E+04         0.00000E+00
    0.17727E+04        -0.50067E+08         0.00000E+00
    0.00000E+00         0.00000E+00        -0.20159E+08
 
   -0.19962E+08         0.13370E+05         0.00000E+00
    0.13370E+05        -0.50000E+08         0.00000E+00
    0.00000E+00         0.00000E+00        -0.20276E+08
 
   -0.19985E+08         0.34889E+05         0.00000E+00
    0.34889E+05        -0.50000E+08         0.00000E+00
    0.00000E+00         0.00000E+00        -0.20252E+08
 
   -0.20010E+08         0.50489E+05         0.00000E+00
    0.50489E+05        -0.50001E+08         0.00000E+00
    0.00000E+00         0.00000E+00        -0.20228E+08
 
   -0.20036E+08         0.60170E+05         0.00000E+00
    0.60170E+05        -0.50005E+08         0.00000E+00
    0.00000E+00         0.00000E+00        -0.20206E+08
 
   -0.20062E+08         0.64762E+05         0.00000E+00
    0.64762E+05        -0.50011E+08         0.00000E+00
    0.00000E+00         0.00000E+00        -0.20189E+08
 
   -0.20086E+08         0.65613E+05         0.00000E+00
    0.65613E+05        -0.50020E+08         0.00000E+00
    0.00000E+00         0.00000E+00        -0.20176E+08
 
   -0.20108E+08         0.63911E+05         0.00000E+00
    0.63911E+05        -0.50029E+08         0.00000E+00
    0.00000E+00         0.00000E+00        -0.20166E+08
 
   -0.20126E+08         0.60402E+05         0.00000E+00
    0.60402E+05        -0.50039E+08         0.00000E+00
    0.00000E+00         0.00000E+00        -0.20160E+08
 
   -0.20142E+08         0.55441E+05         0.00000E+00
    0.55441E+05        -0.50048E+08         0.00000E+00
    0.00000E+00         0.00000E+00        -0.20157E+08
 
   -0.20155E+08         0.49100E+05         0.00000E+00
    0.49100E+05        -0.50057E+08         0.00000E+00
    0.00000E+00         0.00000E+00        -0.20155E+08
 
   -0.20165E+08         0.41237E+05         0.00000E+00
    0.41237E+05        -0.50064E+08         0.00000E+00
    0.00000E+00         0.00000E+00        -0.20154E+08
 
   -0.20172E+08         0.31676E+05         0.00000E+00
    0.31676E+05        -0.50070E+08         0.00000E+00
    0.00000E+00         0.00000E+00        -0.20156E+08
 
   -0.20176E+08         0.20504E+05         0.00000E+00
    0.20504E+05        -0.50076E+08         0.00000E+00
    0.00000E+00         0.00000E+00        -0.20159E+08
 
   -0.20177E+08         0.82277E+04         0.00000E+00
    0.82277E+04        -0.50081E+08         0.00000E+00
    0.00000E+00         0.00000E+00        -0.20165E+08
 
   -0.20177E+08        -0.45713E+04         0.00000E+00
   -0.45713E+04        -0.50087E+08         0.00000E+00
    0.00000E+00         0.00000E+00        -0.20173E+08
 
   -0.19937E+08         0.13464E+05         0.00000E+00
    0.13464E+05        -0.50000E+08         0.00000E+00
    0.00000E+00         0.00000E+00        -0.20300E+08
 
   -0.19967E+08         0.33807E+05         0.00000E+00
    0.33807E+05        -0.50001E+08         0.00000E+00
    0.00000E+00         0.00000E+00        -0.20271E+08
 
   -0.19999E+08         0.46833E+05         0.00000E+00
    0.46833E+05        -0.50004E+08         0.00000E+00
    0.00000E+00         0.00000E+00        -0.20243E+08
 
   -0.20031E+08         0.53389E+05         0.00000E+00
    0.53389E+05        -0.50012E+08         0.00000E+00
    0.00000E+00         0.00000E+00        -0.20221E+08
 
   -0.20060E+08         0.55518E+05         0.00000E+00
    0.55518E+05        -0.50022E+08         0.00000E+00
    0.00000E+00         0.00000E+00        -0.20204E+08
 
   -0.20087E+08         0.55027E+05         0.00000E+00
    0.55027E+05        -0.50033E+08         0.00000E+00
    0.00000E+00         0.00000E+00        -0.20193E+08
 
   -0.20110E+08         0.52924E+05         0.00000E+00
    0.52924E+05        -0.50045E+08         0.00000E+00
    0.00000E+00         0.00000E+00        -0.20185E+08
 
   -0.20130E+08         0.49686E+05         0.00000E+00
    0.49686E+05        -0.50057E+08         0.00000E+00
    0.00000E+00         0.00000E+00        -0.20181E+08
 
   -0.20147E+08         0.45486E+05         0.00000E+00
    0.45486E+05        -0.50069E+08         0.00000E+00
    0.00000E+00         0.00000E+00        -0.20178E+08
 
   -0.20162E+08         0.40291E+05         0.00000E+00
    0.40291E+05        -0.50079E+08         0.00000E+00
    0.00000E+00         0.00000E+00        -0.20177E+08
 
   -0.20173E+08         0.33875E+05         0.00000E+00
    0.33875E+05        -0.50087E+08         0.00000E+00
    0.00000E+00         0.00000E+00        -0.20177E+08
 
   -0.20182E+08         0.25803E+05         0.00000E+00
    0.25803E+05        -0.50094E+08         0.00000E+00
    0.00000E+00         0.00000E+00        -0.20178E+08
 
   -0.20187E+08         0.15625E+05         0.00000E+00
    0.15625E+05        -0.50099E+08         0.00000E+00
    0.00000E+00         0.00000E+00        -0.20179E+08
 
   -0.20189E+08         0.34940E+04         0.00000E+00
    0.34940E+04        -0.50104E+08         0.00000E+00
    0.00000E+00         0.00000E+00        -0.20182E+08
 
   -0.20190E+08        -0.97302E+04         0.00000E+00
   -0.97302E+04        -0.50108E+08         0.00000E+00
    0.00000E+00         0.00000E+00        -0.20187E+08
 
   -0.19914E+08         0.13327E+05         0.00000E+00
    0.13327E+05        -0.50000E+08         0.00000E+00
    0.00000E+00         0.00000E+00        -0.20325E+08
 
   -0.19952E+08         0.30828E+05         0.00000E+00
    0.30828E+05        -0.50003E+08         0.00000E+00
    0.00000E+00         0.00000E+00        -0.20289E+08
 
   -0.19991E+08         0.39391E+05         0.00000E+00
    0.39391E+05        -0.50010E+08         0.00000E+00
    0.00000E+00         0.00000E+00        -0.20259E+08
 
   -0.20028E+08         0.42347E+05         0.00000E+00
    0.42347E+05        -0.50022E+08         0.00000E+00
    0.00000E+00         0.00000E+00        -0.20237E+08
 
   -0.20060E+08         0.42650E+05         0.00000E+00
    0.42650E+05        -0.50036E+08         0.00000E+00
    0.00000E+00         0.00000E+00        -0.20223E+08
 
   -0.20089E+08         0.41582E+05         0.00000E+00
    0.41582E+05        -0.50050E+08         0.00000E+00
    0.00000E+00         0.00000E+00        -0.20214E+08
 
   -0.20113E+08         0.39659E+05         0.00000E+00
    0.39659E+05        -0.50065E+08         0.00000E+00
    0.00000E+00         0.00000E+00        -0.20208E+08
 
   -0.20134E+08         0.37093E+05         0.00000E+00
    0.37093E+05        -0.50079E+08         0.00000E+00
    0.00000E+00         0.00000E+00        -0.20205E+08
 
   -0.20151E+08         0.33931E+05         0.00000E+00
    0.33931E+05        -0.50091E+08         0.00000E+00
    0.00000E+00         0.00000E+00        -0.20204E+08
 
   -0.20167E+08         0.30109E+05         0.00000E+00
    0.30109E+05        -0.50103E+08         0.00000E+00
    0.00000E+00         0.00000E+00        -0.20204E+08
 
   -0.20179E+08         0.25427E+05         0.00000E+00
    0.25427E+05        -0.50113E+08         0.00000E+00
    0.00000E+00         0.00000E+00        -0.20204E+08
 
   -0.20190E+08         0.19469E+05         0.00000E+00
    0.19469E+05        -0.50120E+08         0.00000E+00
    0.00000E+00         0.00000E+00        -0.20204E+08
 
   -0.20197E+08         0.11467E+05         0.00000E+00
    0.11467E+05        -0.50126E+08         0.00000E+00
    0.00000E+00         0.00000E+00        -0.20203E+08
 
   -0.20202E+08         0.50980E+03         0.00000E+00
    0.50980E+03        -0.50129E+08         0.00000E+00
    0.00000E+00         0.00000E+00        -0.20203E+08
 
   -0.20204E+08        -0.12871E+05         0.00000E+00
   -0.12871E+05        -0.50130E+08         0.00000E+00
    0.00000E+00         0.00000E+00        -0.20203E+08
 
   -0.19893E+08         0.12291E+05         0.00000E+00
    0.12291E+05        -0.50001E+08         0.00000E+00
    0.00000E+00         0.00000E+00        -0.20347E+08
 
   -0.19942E+08         0.23396E+05         0.00000E+00
    0.23396E+05        -0.50008E+08         0.00000E+00
    0.00000E+00         0.00000E+00        -0.20307E+08
 
   -0.19988E+08         0.26520E+05         0.00000E+00
    0.26520E+05        -0.50022E+08         0.00000E+00
    0.00000E+00         0.00000E+00        -0.20278E+08
 
   -0.20027E+08         0.27211E+05         0.00000E+00
    0.27211E+05        -0.50038E+08         0.00000E+00
    0.00000E+00         0.00000E+00        -0.20259E+08
 
   -0.20061E+08         0.26875E+05         0.00000E+00
    0.26875E+05        -0.50054E+08         0.00000E+00
    0.00000E+00         0.00000E+00        -0.20247E+08
 
   -0.20090E+08         0.25961E+05         0.00000E+00
    0.25961E+05        -0.50071E+08         0.00000E+00
    0.00000E+00         0.00000E+00        -0.20239E+08
 
   -0.20115E+08         0.24654E+05         0.00000E+00
    0.24654E+05        -0.50087E+08         0.00000E+00
    0.00000E+00         0.00000E+00        -0.20236E+08
 
   -0.20136E+08         0.23025E+05         0.00000E+00
    0.23025E+05        -0.50102E+08         0.00000E+00
    0.00000E+00         0.00000E+00        -0.20234E+08
 
   -0.20154E+08         0.21077E+05         0.00000E+00
    0.21077E+05        -0.50116E+08         0.00000E+00
    0.00000E+00         0.00000E+00        -0.20234E+08
 
   -0.20170E+08         0.18752E+05         0.00000E+00
    0.18752E+05        -0.50129E+08         0.00000E+00
    0.00000E+00         0.00000E+00        -0.20235E+08
 
   -0.20184E+08         0.15916E+05         0.00000E+00
    0.15916E+05        -0.50140E+08         0.00000E+00
    0.00000E+00         0.00000E+00        -0.20236E+08
 
   -0.20195E+08         0.12307E+05         0.00000E+00
    0.12307E+05        -0.50148E+08         0.00000E+00
    0.00000E+00         0.00000E+00        -0.20235E+08
 
   -0.20205E+08         0.73687E+04         0.00000E+00
    0.73687E+04        -0.50154E+08         0.00000E+00
    0.00000E+00         0.00000E+00        -0.20233E+08
 
   -0.20213E+08        -0.21069E+03         0.00000E+00
   -0.21069E+03        -0.50156E+08         0.00000E+00
    0.00000E+00         0.00000E+00        -0.20228E+08
 
   -0.20217E+08        -0.12654E+05         0.00000E+00
   -0.12654E+05        -0.50155E+08         0.00000E+00
    0.00000E+00         0.00000E+00        -0.20222E+08
 
   -0.19879E+08         0.63057E+04         0.00000E+00
    0.63057E+04        -0.50009E+08         0.00000E+00
    0.00000E+00         0.00000E+00        -0.20372E+08
 
   -0.19939E+08         0.84889E+04         0.00000E+00
    0.84889E+04        -0.50022E+08         0.00000E+00
    0.00000E+00         0.00000E+00        -0.20329E+08
 
   -0.19987E+08         0.92481E+04         0.00000E+00
    0.92481E+04        -0.50040E+08         0.00000E+00
    0.00000E+00         0.00000E+00        -0.20303E+08
 
   -0.20027E+08         0.93763E+04         0.00000E+00
    0.93763E+04        -0.50058E+08         0.00000E+00
    0.00000E+00         0.00000E+00        -0.20286E+08
 
   -0.20062E+08         0.91958E+04         0.00000E+00
    0.91958E+04        -0.50077E+08         0.00000E+00
    0.00000E+00         0.00000E+00        -0.20276E+08
 
   -0.20091E+08         0.88504E+04         0.00000E+00
    0.88504E+04        -0.50095E+08         0.00000E+00
    0.00000E+00         0.00000E+00        -0.20270E+08
 
   -0.20116E+08         0.83911E+04         0.00000E+00
    0.83911E+04        -0.50112E+08         0.00000E+00
    0.00000E+00         0.00000E+00        -0.20267E+08
 
   -0.20137E+08         0.78353E+04         0.00000E+00
    0.78353E+04        -0.50128E+08         0.00000E+00
    0.00000E+00         0.00000E+00        -0.20267E+08
 
   -0.20156E+08         0.71800E+04         0.00000E+00
    0.71800E+04        -0.50143E+08         0.00000E+00
    0.00000E+00         0.00000E+00        -0.20268E+08
 
   -0.20172E+08         0.64027E+04         0.00000E+00
    0.64027E+04        -0.50157E+08         0.00000E+00
    0.00000E+00         0.00000E+00        -0.20270E+08
 
   -0.20186E+08         0.54542E+04         0.00000E+00
    0.54542E+04        -0.50168E+08         0.00000E+00
    0.00000E+00         0.00000E+00        -0.20271E+08
 
   -0.20198E+08         0.42415E+04         0.00000E+00
    0.42415E+04        -0.50178E+08         0.00000E+00
    0.00000E+00         0.00000E+00        -0.20272E+08
 
   -0.20209E+08         0.25887E+04         0.00000E+00
    0.25887E+04        -0.50185E+08         0.00000E+00
    0.00000E+00         0.00000E+00        -0.20270E+08
 
   -0.20220E+08         0.86992E+01         0.00000E+00
    0.86992E+01        -0.50188E+08         0.00000E+00
    0.00000E+00         0.00000E+00        -0.20263E+08
 
   -0.20228E+08        -0.56930E+04         0.00000E+00
   -0.56930E+04        -0.50181E+08         0.00000E+00
    0.00000E+00         0.00000E+00        -0.20246E+08
 
TENSORS stresstot double 
   -0.30273E+08         0.15138E+03         0.00000E+00
    0.15138E+03        -0.60000E+08         0.00000E+00
    0.00000E+00         0.00000E+00        -0.29964E+08
 
   -0.30247E+08         0.43446E+03         0.00000E+00
    0.43446E+03        -0.59999E+08         0.00000E+00
    0.00000E+00         0.00000E+00        -0.29989E+08
 
   -0.30222E+08         0.69329E+03         0.00000E+00
    0.69329E+03        -0.59998E+08         0.00000E+00
    0.00000E+00         0.00000E+00        -0.30011E+08
 
   -0.30200E+08         0.92910E+03         0.00000E+00
    0.92910E+03        -0.59996E+08         0.00000E+00
    0.00000E+00         0.00000E+00        -0.30031E+08
 
   -0.30179E+08         0.11431E+04         0.00000E+00
    0.11431E+04        -0.59994E+08         0.00000E+00
    0.00000E+00         0.00000E+00        -0.30049E+08
 
   -0.30161E+08         0.13366E+04         0.00000E+00
    0.13366E+04        -0.59992E+08         0.00000E+00
    0.00000E+00         0.00000E+00        -0.30064E+08
 
   -0.30145E+08         0.15110E+04         0.00000E+00
    0.15110E+04        -0.59989E+08         0.00000E+00
    0.00000E+00         0.00000E+00        -0.30076E+08
 
   -0.30131E+08         0.16673E+04         0.00000E+00
    0.16673E+04        -0.59986E+08         0.00000E+00
    0.00000E+00         0.00000E+00        -0.30086E+08
 
   -0.30118E+08         0.18068E+04         0.00000E+00
    0.18068E+04        -0.59982E+08         0.00000E+00
    0.00000E+00         0.00000E+00        -0.30094E+08
 
   -0.30108E+08         0.19308E+04         0.00000E+00
    0.19308E+04        -0.59979E+08         0.00000E+00
    0.00000E+00         0.00000E+00        -0.30099E+08
 
   -0.30100E+08         0.20409E+04         0.00000E+00
    0.20409E+04        -0.59975E+08         0.00000E+00
    0.00000E+00         0.00000E+00        -0.30102E+08
 
   -0.30094E+08         0.21386E+04         0.00000E+00
    0.21386E+04        -0.59970E+08         0.00000E+00
    0.00000E+00         0.00000E+00        -0.30102E+08
 
   -0.30090E+08         0.22258E+04         0.00000E+00
    0.22258E+04        -0.59966E+08         0.00000E+00
    0.00000E+00         0.00000E+00        -0.30101E+08
 
   -0.30088E+08         0.23043E+04         0.00000E+00
    0.23043E+04        -0.59962E+08         0.00000E+00
    0.00000E+00         0.00000E+00        -0.30097E+08
 
   -0.30087E+08         0.23765E+04         0.00000E+00
    0.23765E+04        -0.59957E+08         0.00000E+00
    0.00000E+00         0.00000E+00        -0.30091E+08
 
   -0.30273E+08         0.45802E+03         0.00000E+00
    0.45802E+03        -0.60000E+08         0.00000E+00
    0.00000E+00         0.00000E+00        -0.29964E+08
 
   -0.30246E+08         0.13135E+04         0.00000E+00
    0.13135E+04        -0.59999E+08         0.00000E+00
    0.00000E+00         0.00000E+00        -0.29989E+08
 
   -0.30222E+08         0.20943E+04         0.00000E+00
    0.20943E+04        -0.59998E+08         0.00000E+00
    0.00000E+00         0.00000E+00        -0.30012E+08
 
   -0.30199E+08         0.28044E+04         0.00000E+00
    0.28044E+04        -0.59996E+08         0.00000E+00
    0.00000E+00         0.00000E+00        -0.30032E+08
 
   -0.30179E+08         0.34476E+04         0.00000E+00
    0.34476E+04        -0.59994E+08         0.00000E+00
    0.00000E+00         0.00000E+00        -0.30049E+08
 
   -0.30161E+08         0.40279E+04         0.00000E+00
    0.40279E+04        -0.59992E+08         0.00000E+00
    0.00000E+00         0.00000E+00        -0.30064E+08
 
   -0.30144E+08         0.45497E+04         0.00000E+00
    0.45497E+04        -0.59989E+08         0.00000E+00
    0.00000E+00         0.00000E+00        -0.30076E+08
 
   -0.30130E+08         0.50163E+04         0.00000E+00
    0.50163E+04        -0.59986E+08         0.00000E+00
    0.00000E+00         0.00000E+00        -0.30086E+08
 
   -0.30118E+08         0.54316E+04         0.00000E+00
    0.54316E+04        -0.59982E+08         0.00000E+00
    0.00000E+00         0.00000E+00        -0.30094E+08
 
   -0.30108E+08         0.58001E+04         0.00000E+00
    0.58001E+04        -0.59978E+08         0.00000E+00
    0.00000E+00         0.00000E+00        -0.30099E+08
 
   -0.30100E+08         0.61262E+04         0.00000E+00
    0.61262E+04        -0.59974E+08         0.00000E+00
    0.00000E+00         0.00000E+00        -0.30102E+08
 
   -0.30094E+08         0.64150E+04         0.00000E+00
    0.64150E+04        -0.59970E+08         0.00000E+00
    0.00000E+00         0.00000E+00        -0.30102E+08
 
   -0.30090E+08         0.66720E+04         0.00000E+00
    0.66720E+04        -0.59966E+08         0.00000E+00
    0.00000E+00         0.00000E+00        -0.30101E+08
 
   -0.30087E+08         0.69032E+04         0.00000E+00
    0.69032E+04        -0.59961E+08         0.00000E+00
    0.00000E+00         0.00000E+00        -0.30097E+08
 
   -0.30087E+08         0.71153E+04         0.00000E+00
    0.71153E+04        -0.59957E+08         0.00000E+00
    0.00000E+00         0.00000E+00        -0.30091E+08
 
   -0.30271E+08         0.77625E+03         0.00000E+00
    0.77625E+03        -0.60000E+08         0.00000E+00
    0.00000E+00         0.00000E+00        -0.29965E+08
 
   -0.30245E+08         0.22225E+04         0.00000E+00
    0.22225E+04        -0.59999E+08         0.00000E+00
    0.00000E+00         0.00000E+00        -0.29990E+08
 
   -0.30221E+08         0.35384E+04         0.00000E+00
    0.35384E+04        -0.59998E+08         0.00000E+00
    0.00000E+00         0.00000E+00        -0.30013E+08
 
   -0.30198E+08         0.47309E+04         0.00000E+00
    0.47309E+04        -0.59996E+08         0.00000E+00
    0.00000E+00         0.00000E+00        -0.30032E+08
 
   -0.30178E+08         0.58067E+04         0.00000E+00
    0.58067E+04        -0.59994E+08         0.00000E+00
    0.00000E+00         0.00000E+00        -0.30050E+08
 
   -0.30160E+08         0.67731E+04         0.00000E+00
    0.67731E+04        -0.59991E+08         0.00000E+00
    0.00000E+00         0.00000E+00        -0.30064E+08
 
   -0.30144E+08         0.76379E+04         0.00000E+00
    0.76379E+04        -0.59988E+08         0.00000E+00
    0.00000E+00         0.00000E+00        -0.30076E+08
 
   -0.30130E+08         0.84079E+04         0.00000E+00
    0.84079E+04        -0.59985E+08         0.00000E+00
    0.00000E+00         0.00000E+00        -0.30086E+08
 
   -0.30118E+08         0.90898E+04         0.00000E+00
    0.90898E+04        -0.59982E+08         0.00000E+00
    0.00000E+00         0.00000E+00        -0.30093E+08
 
   -0.30108E+08         0.96915E+04         0.00000E+00
    0.96915E+04        -0.59978E+08         0.00000E+00
    0.00000E+00         0.00000E+00        -0.30099E+08
 
   -0.30100E+08         0.10221E+05         0.00000E+00
    0.10221E+05        -0.59974E+08         0.00000E+00
    0.00000E+00         0.00000E+00        -0.30101E+08
 
   -0.30093E+08         0.10688E+05         0.00000E+00
    0.10688E+05        -0.59970E+08         0.00000E+00
    0.00000E+00         0.00000E+00        -0.30102E+08
 
   -0.30089E+08         0.11102E+05         0.00000E+00
    0.11102E+05        -0.59965E+08         0.00000E+00
    0.00000E+00         0.00000E+00        -0.30100E+08
 
   -0.30087E+08         0.11472E+05         0.00000E+00
    0.11472E+05        -0.59961E+08         0.00000E+00
    0.00000E+00         0.00000E+00        -0.30097E+08
 
   -0.30087E+08         0.11811E+05         0.00000E+00
    0.11811E+05        -0.59956E+08         0.00000E+00
    0.00000E+00         0.00000E+00        -0.30091E+08
 
   -0.30270E+08         0.11136E+04         0.00000E+00
    0.11136E+04        -0.60000E+08         0.00000E+00
    0.00000E+00         0.00000E+00        -0.29967E+08
 
   -0.30243E+08         0.31811E+04         0.00000E+00
    0.31811E+04        -0.59999E+08         0.00000E+00
    0.00000E+00         0.00000E+00        -0.29992E+08
 
   -0.30219E+08         0.50536E+04         0.00000E+00
    0.50536E+04        -0.59998E+08         0.00000E+00
    0.00000E+00         0.00000E+00        -0.30014E+08
 
   -0.30197E+08         0.67414E+04         0.00000E+00
    0.67414E+04        -0.59996E+08         0.00000E+00
    0.00000E+00         0.00000E+00        -0.30033E+08
 
   -0.30177E+08         0.82554E+04         0.00000E+00
    0.82554E+04        -0.59994E+08         0.00000E+00
    0.00000E+00         0.00000E+00        -0.30050E+08
 
   -0.30159E+08         0.96066E+04         0.00000E+00
    0.96066E+04        -0.59991E+08         0.00000E+00
    0.00000E+00         0.00000E+00        -0.30065E+08
 
   -0.30143E+08         0.10807E+05         0.00000E+00
    0.10807E+05        -0.59988E+08         0.00000E+00
    0.00000E+00         0.00000E+00        -0.30077E+08
 
   -0.30129E+08         0.11869E+05         0.00000E+00
    0.11869E+05        -0.59984E+08         0.00000E+00
    0.00000E+00         0.00000E+00        -0.30086E+08
 
   -0.30117E+08         0.12802E+05         0.00000E+00
    0.12802E+05        -0.59981E+08         0.00000E+00
    0.00000E+00         0.00000E+00        -0.30093E+08
 
   -0.30107E+08         0.13618E+05         0.00000E+00
    0.13618E+05        -0.59977E+08         0.00000E+00
    0.00000E+00         0.00000E+00        -0.30098E+08
 
   -0.30099E+08         0.14331E+05         0.00000E+00
    0.14331E+05        -0.59973E+08         0.00000E+00
    0.00000E+00         0.00000E+00        -0.30101E+08
 
   -0.30093E+08         0.14954E+05         0.00000E+00
    0.14954E+05        -0.59969E+08         0.00000E+00
    0.00000E+00         0.00000E+00        -0.30101E+08
 
   -0.30089E+08         0.15502E+05         0.00000E+00
    0.15502E+05        -0.59965E+08         0.00000E+00
    0.00000E+00         0.00000E+00        -0.30100E+08
 
   -0.30087E+08         0.15989E+05         0.00000E+00
    0.15989E+05        -0.59960E+08         0.00000E+00
    0.00000E+00         0.00000E+00        -0.30096E+08
 
   -0.30087E+08         0.16433E+05         0.00000E+00
    0.16433E+05        -0.59956E+08         0.00000E+00
    0.00000E+00         0.00000E+00        -0.30090E+08
 
   -0.30267E+08         0.14774E+04         0.00000E+00
    0.14774E+04        -0.60000E+08         0.00000E+00
    0.00000E+00         0.00000E+00        -0.29969E+08
 
   -0.30241E+08         0.42080E+04         0.00000E+00
    0.42080E+04        -0.59999E+08         0.00000E+00
    0.00000E+00         0.00000E+00        -0.29994E+08
 
   -0.30217E+08         0.66663E+04         0.00000E+00
    0.66663E+04        -0.59998E+08         0.00000E+00
    0.00000E+00         0.00000E+00        -0.30016E+08
 
   -0.30195E+08         0.88673E+04         0.00000E+00
    0.88673E+04        -0.59996E+08         0.00000E+00
    0.00000E+00         0.00000E+00        -0.30035E+08
 
   -0.30175E+08         0.10827E+05         0.00000E+00
    0.10827E+05        -0.59993E+08         0.00000E+00
    0.00000E+00         0.00000E+00        -0.30051E+08
 
   -0.30157E+08         0.12561E+05         0.00000E+00
    0.12561E+05        -0.59990E+08         0.00000E+00
    0.00000E+00         0.00000E+00        -0.30065E+08
 
   -0.30142E+08         0.14087E+05         0.00000E+00
    0.14087E+05        -0.59987E+08         0.00000E+00
    0.00000E+00         0.00000E+00        -0.30077E+08
 
   -0.30128E+08         0.15424E+05         0.00000E+00
    0.15424E+05        -0.59984E+08         0.00000E+00
    0.00000E+00         0.00000E+00        -0.30086E+08
 
   -0.30116E+08         0.16585E+05         0.00000E+00
    0.16585E+05        -0.59980E+08         0.00000E+00
    0.00000E+00         0.00000E+00        -0.30093E+08
 
   -0.30106E+08         0.17591E+05         0.00000E+00
    0.17591E+05        -0.59976E+08         0.00000E+00
    0.00000E+00         0.00000E+00        -0.30098E+08
 
   -0.30098E+08         0.18458E+05         0.00000E+00
    0.18458E+05        -0.59972E+08         0.00000E+00
    0.00000E+00         0.00000E+00        -0.30100E+08
 
   -0.30092E+08         0.19207E+05         0.00000E+00
    0.19207E+05        -0.59968E+08         0.00000E+00
    0.00000E+00         0.00000E+00        -0.30101E+08
 
   -0.30088E+08         0.19857E+05         0.00000E+00
    0.19857E+05        -0.59964E+08         0.00000E+00
    0.00000E+00         0.00000E+00        -0.30099E+08
 
   -0.30086E+08         0.20429E+05         0.00000E+00
    0.20429E+05        -0.59959E+08         0.00000E+00
    0.00000E+00         0.00000E+00        -0.30095E+08
 
   -0.30086E+08         0.20947E+05         0.00000E+00
    0.20947E+05        -0.59955E+08         0.00000E+00
    0.00000E+00         0.00000E+00        -0.30090E+08
 
   -0.30264E+08         0.18744E+04         0.00000E+00
    0.18744E+04        -0.60000E+08         0.00000E+00
    0.00000E+00         0.00000E+00        -0.29973E+08
 
   -0.30238E+08         0.53205E+04         0.00000E+00
    0.53205E+04        -0.59999E+08         0.00000E+00
    0.00000E+00         0.00000E+00        -0.29997E+08
 
   -0.30215E+08         0.84012E+04         0.00000E+00
    0.84012E+04        -0.59997E+08         0.00000E+00
    0.00000E+00         0.00000E+00        -0.30018E+08
 
   -0.30193E+08         0.11137E+05         0.00000E+00
    0.11137E+05        -0.59995E+08         0.00000E+00
    0.00000E+00         0.00000E+00        -0.30037E+08
 
   -0.30173E+08         0.13551E+05         0.00000E+00
    0.13551E+05        -0.59993E+08         0.00000E+00
    0.00000E+00         0.00000E+00        -0.30053E+08
 
   -0.30156E+08         0.15665E+05         0.00000E+00
    0.15665E+05        -0.59990E+08         0.00000E+00
    0.00000E+00         0.00000E+00        -0.30066E+08
 
   -0.30140E+08         0.17504E+05         0.00000E+00
    0.17504E+05        -0.59986E+08         0.00000E+00
    0.00000E+00         0.00000E+00        -0.30077E+08
 
   -0.30126E+08         0.19093E+05         0.00000E+00
    0.19093E+05        -0.59983E+08         0.00000E+00
    0.00000E+00         0.00000E+00        -0.30086E+08
 
   -0.30115E+08         0.20455E+05         0.00000E+00
    0.20455E+05        -0.59979E+08         0.00000E+00
    0.00000E+00         0.00000E+00        -0.30093E+08
 
   -0.30105E+08         0.21616E+05         0.00000E+00
    0.21616E+05        -0.59975E+08         0.00000E+00
    0.00000E+00         0.00000E+00        -0.30097E+08
 
   -0.30097E+08         0.22601E+05         0.00000E+00
    0.22601E+05        -0.59971E+08         0.00000E+00
    0.00000E+00         0.00000E+00        -0.30100E+08
 
   -0.30092E+08         0.23436E+05         0.00000E+00
    0.23436E+05        -0.59967E+08         0.00000E+00
    0.00000E+00         0.00000E+00        -0.30100E+08
 
   -0.30088E+08         0.24147E+05         0.00000E+00
    0.24147E+05        -0.59962E+08         0.00000E+00
    0.00000E+00         0.00000E+00        -0.30098E+08
 
   -0.30086E+08         0.24764E+05         0.00000E+00
    0.24764E+05        -0.59958E+08         0.00000E+00
    0.00000E+00         0.00000E+00        -0.30095E+08
 
   -0.30086E+08         0.25316E+05         0.00000E+00
    0.25316E+05        -0.59954E+08         0.00000E+00
    0.00000E+00         0.00000E+00        -0.30089E+08
 
   -0.30260E+08         0.23106E+04         0.00000E+00
    0.23106E+04        -0.60000E+08         0.00000E+00
    0.00000E+00         0.00000E+00        -0.29977E+08
 
   -0.30235E+08         0.65341E+04         0.00000E+00
    0.65341E+04        -0.59999E+08         0.00000E+00
    0.00000E+00         0.00000E+00        -0.30000E+08
 
   -0.30211E+08         0.10280E+05         0.00000E+00
    0.10280E+05        -0.59997E+08         0.00000E+00
    0.00000E+00         0.00000E+00        -0.30021E+08
 
   -0.30190E+08         0.13576E+05         0.00000E+00
    0.13576E+05        -0.59995E+08         0.00000E+00
    0.00000E+00         0.00000E+00        -0.30039E+08
 
   -0.30171E+08         0.16453E+05         0.00000E+00
    0.16453E+05        -0.59992E+08         0.00000E+00
    0.00000E+00         0.00000E+00        -0.30054E+08
 
   -0.30153E+08         0.18943E+05         0.00000E+00
    0.18943E+05        -0.59989E+08         0.00000E+00
    0.00000E+00         0.00000E+00        -0.30067E+08
 
   -0.30138E+08         0.21078E+05         0.00000E+00
    0.21078E+05        -0.59985E+08         0.00000E+00
    0.00000E+00         0.00000E+00        -0.30078E+08
 
   -0.30125E+08         0.22893E+05         0.00000E+00
    0.22893E+05        -0.59982E+08         0.00000E+00
    0.00000E+00         0.00000E+00        -0.30086E+08
 
   -0.30113E+08         0.24422E+05         0.00000E+00
    0.24422E+05        -0.59978E+08         0.00000E+00
    0.00000E+00         0.00000E+00        -0.30093E+08
 
   -0.30104E+08         0.25698E+05         0.00000E+00
    0.25698E+05        -0.59974E+08         0.00000E+00
    0.00000E+00         0.00000E+00        -0.30097E+08
 
   -0.30096E+08         0.26755E+05         0.00000E+00
    0.26755E+05        -0.59970E+08         0.00000E+00
    0.00000E+00         0.00000E+00        -0.30099E+08
 
   -0.30091E+08         0.27627E+05         0.00000E+00
    0.27627E+05        -0.59965E+08         0.00000E+00
    0.00000E+00         0.00000E+00        -0.30099E+08
 
   -0.30087E+08         0.28350E+05         0.00000E+00
    0.28350E+05        -0.59961E+08         0.00000E+00
    0.00000E+00         0.00000E+00        -0.30097E+08
 
   -0.30085E+08         0.28960E+05         0.00000E+00
    0.28960E+05        -0.59957E+08         0.00000E+00
    0.00000E+00         0.00000E+00        -0.30094E+08
 
   -0.30085E+08         0.29498E+05         0.00000E+00
    0.29498E+05        -0.59953E+08         0.00000E+00
    0.00000E+00         0.00000E+00        -0.30089E+08
 
   -0.30255E+08         0.27912E+04         0.00000E+00
    0.27912E+04        -0.60000E+08         0.00000E+00
    0.00000E+00         0.00000E+00        -0.29981E+08
 
   -0.30230E+08         0.78618E+04         0.00000E+00
    0.78618E+04        -0.59999E+08         0.00000E+00
    0.00000E+00         0.00000E+00        -0.30004E+08
 
   -0.30207E+08         0.12321E+05         0.00000E+00
    0.12321E+05        -0.59997E+08         0.00000E+00
    0.00000E+00         0.00000E+00        -0.30024E+08
 
   -0.30187E+08         0.16206E+05         0.00000E+00
    0.16206E+05        -0.59994E+08         0.00000E+00
    0.00000E+00         0.00000E+00        -0.30042E+08
 
   -0.30168E+08         0.19556E+05         0.00000E+00
    0.19556E+05        -0.59991E+08         0.00000E+00
    0.00000E+00         0.00000E+00        -0.30056E+08
 
   -0.30151E+08         0.22415E+05         0.00000E+00
    0.22415E+05        -0.59988E+08         0.00000E+00
    0.00000E+00         0.00000E+00        -0.30069E+08
 
   -0.30136E+08         0.24826E+05         0.00000E+00
    0.24826E+05        -0.59984E+08         0.00000E+00
    0.00000E+00         0.00000E+00        -0.30079E+08
 
   -0.30123E+08         0.26836E+05         0.00000E+00
    0.26836E+05        -0.59980E+08         0.00000E+00
    0.00000E+00         0.00000E+00        -0.30087E+08
 
   -0.30112E+08         0.28490E+05         0.00000E+00
    0.28490E+05        -0.59976E+08         0.00000E+00
    0.00000E+00         0.00000E+00        -0.30092E+08
 
   -0.30103E+08         0.29833E+05         0.00000E+00
    0.29833E+05        -0.59972E+08         0.00000E+00
    0.00000E+00         0.00000E+00        -0.30096E+08
 
   -0.30095E+08         0.30908E+05         0.00000E+00
    0.30908E+05        -0.59968E+08         0.00000E+00
    0.00000E+00         0.00000E+00        -0.30098E+08
 
   -0.30090E+08         0.31760E+05         0.00000E+00
    0.31760E+05        -0.59964E+08         0.00000E+00
    0.00000E+00         0.00000E+00        -0.30098E+08
 
   -0.30086E+08         0.32435E+05         0.00000E+00
    0.32435E+05        -0.59960E+08         0.00000E+00
    0.00000E+00         0.00000E+00        -0.30096E+08
 
   -0.30085E+08         0.32979E+05         0.00000E+00
    0.32979E+05        -0.59956E+08         0.00000E+00
    0.00000E+00         0.00000E+00        -0.30093E+08
 
   -0.30085E+08         0.33443E+05         0.00000E+00
    0.33443E+05        -0.59952E+08         0.00000E+00
    0.00000E+00         0.00000E+00        -0.30088E+08
 
   -0.30249E+08         0.33200E+04         0.00000E+00
    0.33200E+04        -0.60000E+08         0.00000E+00
    0.00000E+00         0.00000E+00        -0.29987E+08
 
   -0.30225E+08         0.93130E+04         0.00000E+00
    0.93130E+04        -0.59999E+08         0.00000E+00
    0.00000E+00         0.00000E+00        -0.30009E+08
 
   -0.30203E+08         0.14537E+05         0.00000E+00
    0.14537E+05        -0.59997E+08         0.00000E+00
    0.00000E+00         0.00000E+00        -0.30029E+08
 
   -0.30183E+08         0.19040E+05         0.00000E+00
    0.19040E+05        -0.59994E+08         0.00000E+00
    0.00000E+00         0.00000E+00        -0.30045E+08
 
   -0.30165E+08         0.22873E+05         0.00000E+00
    0.22873E+05        -0.59991E+08         0.00000E+00
    0.00000E+00         0.00000E+00        -0.30059E+08
 
   -0.30148E+08         0.26093E+05         0.00000E+00
    0.26093E+05        -0.59987E+08         0.00000E+00
    0.00000E+00         0.00000E+00        -0.30070E+08
 
   -0.30134E+08         0.28758E+05         0.00000E+00
    0.28758E+05        -0.59983E+08         0.00000E+00
    0.00000E+00         0.00000E+00        -0.30080E+08
 
   -0.30121E+08         0.30927E+05         0.00000E+00
    0.30927E+05        -0.59979E+08         0.00000E+00
    0.00000E+00         0.00000E+00        -0.30087E+08
 
   -0.30110E+08         0.32660E+05         0.00000E+00
    0.32660E+05        -0.59975E+08         0.00000E+00
    0.00000E+00         0.00000E+00        -0.30092E+08
 
   -0.30102E+08         0.34013E+05         0.00000E+00
    0.34013E+05        -0.59971E+08         0.00000E+00
    0.00000E+00         0.00000E+00        -0.30095E+08
 
   -0.30095E+08         0.35044E+05         0.00000E+00
    0.35044E+05        -0.59967E+08         0.00000E+00
    0.00000E+00         0.00000E+00        -0.30097E+08
 
   -0.30089E+08         0.35809E+05         0.00000E+00
    0.35809E+05        -0.59963E+08         0.00000E+00
    0.00000E+00         0.00000E+00        -0.30097E+08
 
   -0.30086E+08         0.36366E+05         0.00000E+00
    0.36366E+05        -0.59959E+08         0.00000E+00
    0.00000E+00         0.00000E+00        -0.30095E+08
 
   -0.30084E+08         0.36773E+05         0.00000E+00
    0.36773E+05        -0.59955E+08         0.00000E+00
    0.00000E+00         0.00000E+00        -0.30092E+08
 
   -0.30084E+08         0.37095E+05         0.00000E+00
    0.37095E+05        -0.59951E+08         0.00000E+00
    0.00000E+00         0.00000E+00        -0.30087E+08
 
   -0.30242E+08         0.38992E+04         0.00000E+00
    0.38992E+04        -0.60000E+08         0.00000E+00
    0.00000E+00         0.00000E+00        -0.29994E+08
 
   -0.30219E+08         0.10893E+05         0.00000E+00
    0.10893E+05        -0.59998E+08         0.00000E+00
    0.00000E+00         0.00000E+00        -0.30015E+08
 
   -0.30198E+08         0.16935E+05         0.00000E+00
    0.16935E+05        -0.59996E+08         0.00000E+00
    0.00000E+00         0.00000E+00        -0.30033E+08
 
   -0.30178E+08         0.22086E+05         0.00000E+00
    0.22086E+05        -0.59993E+08         0.00000E+00
    0.00000E+00         0.00000E+00        -0.30049E+08
 
   -0.30161E+08         0.26412E+05         0.00000E+00
    0.26412E+05        -0.59990E+08         0.00000E+00
    0.00000E+00         0.00000E+00        -0.30062E+08
 
   -0.30145E+08         0.29985E+05         0.00000E+00
    0.29985E+05        -0.59986E+08         0.00000E+00
    0.00000E+00         0.00000E+00        -0.30072E+08
 
   -0.30131E+08         0.32877E+05         0.00000E+00
    0.32877E+05        -0.59982E+08         0.00000E+00
    0.00000E+00         0.00000E+00        -0.30081E+08
 
   -0.30119E+08         0.35165E+05         0.00000E+00
    0.35165E+05        -0.59978E+08         0.00000E+00
    0.00000E+00         0.00000E+00        -0.30087E+08
 
   -0.30109E+08         0.36923E+05         0.00000E+00
    0.36923E+05        -0.59974E+08         0.00000E+00
    0.00000E+00         0.00000E+00        -0.30092E+08
 
   -0.30100E+08         0.38225E+05         0.00000E+00
    0.38225E+05        -0.59969E+08         0.00000E+00
    0.00000E+00         0.00000E+00        -0.30095E+08
 
   -0.30094E+08         0.39140E+05         0.00000E+00
    0.39140E+05        -0.59965E+08         0.00000E+00
    0.00000E+00         0.00000E+00        -0.30096E+08
 
   -0.30089E+08         0.39741E+05         0.00000E+00
    0.39741E+05        -0.59961E+08         0.00000E+00
    0.00000E+00         0.00000E+00        -0.30096E+08
 
   -0.30085E+08         0.40099E+05         0.00000E+00
    0.40099E+05        -0.59958E+08         0.00000E+00
    0.00000E+00         0.00000E+00        -0.30094E+08
 
   -0.30084E+08         0.40289E+05         0.00000E+00
    0.40289E+05        -0.59954E+08         0.00000E+00
    0.00000E+00         0.00000E+00        -0.30091E+08
 
   -0.30084E+08         0.40388E+05         0.00000E+00
    0.40388E+05        -0.59951E+08         0.00000E+00
    0.00000E+00         0.00000E+00        -0.30087E+08
 
   -0.30234E+08         0.45286E+04         0.00000E+00
    0.45286E+04        -0.60000E+08         0.00000E+00
    0.00000E+00         0.00000E+00        -0.30002E+08
 
   -0.30212E+08         0.12601E+05         0.00000E+00
    0.12601E+05        -0.59998E+08         0.00000E+00
    0.00000E+00         0.00000E+00        -0.30022E+08
 
   -0.30192E+08         0.19515E+05         0.00000E+00
    0.19515E+05        -0.59996E+08         0.00000E+00
    0.00000E+00         0.00000E+00        -0.30039E+08
 
   -0.30173E+08         0.25344E+05         0.00000E+00
    0.25344E+05        -0.59993E+08         0.00000E+00
    0.00000E+00         0.00000E+00        -0.30053E+08
 
   -0.30157E+08         0.30172E+05         0.00000E+00
    0.30172E+05        -0.59989E+08         0.00000E+00
    0.00000E+00         0.00000E+00        -0.30065E+08
 
   -0.30142E+08         0.34086E+05         0.00000E+00
    0.34086E+05        -0.59985E+08         0.00000E+00
    0.00000E+00         0.00000E+00        -0.30075E+08
 
   -0.30129E+08         0.37178E+05         0.00000E+00
    0.37178E+05        -0.59981E+08         0.00000E+00
    0.00000E+00         0.00000E+00        -0.30082E+08
 
   -0.30117E+08         0.39540E+05         0.00000E+00
    0.39540E+05        -0.59977E+08         0.00000E+00
    0.00000E+00         0.00000E+00        -0.30088E+08
 
   -0.30107E+08         0.41265E+05         0.00000E+00
    0.41265E+05        -0.59972E+08         0.00000E+00
    0.00000E+00         0.00000E+00        -0.30092E+08
 
   -0.30099E+08         0.42445E+05         0.00000E+00
    0.42445E+05        -0.59968E+08         0.00000E+00
    0.00000E+00         0.00000E+00        -0.30094E+08
 
   -0.30093E+08         0.43165E+05         0.00000E+00
    0.43165E+05        -0.59964E+08         0.00000E+00
    0.00000E+00         0.00000E+00        -0.30095E+08
 
   -0.30088E+08         0.43514E+05         0.00000E+00
    0.43514E+05        -0.59960E+08         0.00000E+00
    0.00000E+00         0.00000E+00        -0.30095E+08
 
   -0.30085E+08         0.43582E+05         0.00000E+00
    0.43582E+05        -0.59957E+08         0.00000E+00
    0.00000E+00         0.00000E+00        -0.30093E+08
 
   -0.30084E+08         0.43461E+05         0.00000E+00
    0.43461E+05        -0.59953E+08         0.00000E+00
    0.00000E+00         0.00000E+00        -0.30090E+08
 
   -0.30084E+08         0.43249E+05         0.00000E+00
    0.43249E+05        -0.59951E+08         0.00000E+00
    0.00000E+00         0.00000E+00        -0.30087E+08
 
   -0.30225E+08         0.52053E+04         0.00000E+00
    0.52053E+04        -0.59999E+08         0.00000E+00
    0.00000E+00         0.00000E+00        -0.30011E+08
 
   -0.30204E+08         0.14431E+05         0.00000E+00
    0.14431E+05        -0.59998E+08         0.00000E+00
    0.00000E+00         0.00000E+00        -0.30030E+08
 
   -0.30185E+08         0.22267E+05         0.00000E+00
    0.22267E+05        -0.59996E+08         0.00000E+00
    0.00000E+00         0.00000E+00        -0.30045E+08
 
   -0.30168E+08         0.28804E+05         0.00000E+00
    0.28804E+05        -0.59993E+08         0.00000E+00
    0.00000E+00         0.00000E+00        -0.30058E+08
 
   -0.30152E+08         0.34141E+05         0.00000E+00
    0.34141E+05        -0.59989E+08         0.00000E+00
    0.00000E+00         0.00000E+00        -0.30069E+08
 
   -0.30138E+08         0.38385E+05         0.00000E+00
    0.38385E+05        -0.59985E+08         0.00000E+00
    0.00000E+00         0.00000E+00        -0.30077E+08
 
   -0.30126E+08         0.41645E+05         0.00000E+00
    0.41645E+05        -0.59980E+08         0.00000E+00
    0.00000E+00         0.00000E+00        -0.30084E+08
 
   -0.30115E+08         0.44034E+05         0.00000E+00
    0.44034E+05        -0.59976E+08         0.00000E+00
    0.00000E+00         0.00000E+00        -0.30088E+08
 
   -0.30106E+08         0.45663E+05         0.00000E+00
    0.45663E+05        -0.59971E+08         0.00000E+00
    0.00000E+00         0.00000E+00        -0.30091E+08
 
   -0.30099E+08         0.46641E+05         0.00000E+00
    0.46641E+05        -0.59967E+08         0.00000E+00
    0.00000E+00         0.00000E+00        -0.30093E+08
 
   -0.30093E+08         0.47076E+05         0.00000E+00
    0.47076E+05        -0.59963E+08         0.00000E+00
    0.00000E+00         0.00000E+00        -0.30094E+08
 
   -0.30088E+08         0.47077E+05         0.00000E+00
    0.47077E+05        -0.59959E+08         0.00000E+00
    0.00000E+00         0.00000E+00        -0.30093E+08
 
   -0.30086E+08         0.46753E+05         0.00000E+00
    0.46753E+05        -0.59956E+08         0.00000E+00
    0.00000E+00         0.00000E+00        -0.30092E+08
 
   -0.30084E+08         0.46218E+05         0.00000E+00
    0.46218E+05        -0.59953E+08         0.00000E+00
    0.00000E+00         0.00000E+00        -0.30090E+08
 
   -0.30084E+08         0.45592E+05         0.00000E+00
    0.45592E+05        -0.59951E+08         0.00000E+00
    0.00000E+00         0.00000E+00        -0.30087E+08
 
   -0.30214E+08         0.59235E+04         0.00000E+00
    0.59235E+04        -0.59999E+08         0.00000E+00
    0.00000E+00         0.00000E+00        -0.30021E+08
 
   -0.30195E+08         0.16367E+05         0.00000E+00
    0.16367E+05        -0.59998E+08         0.00000E+00
    0.00000E+00         0.00000E+00        -0.30038E+08
 
   -0.30177E+08         0.25172E+05         0.00000E+00
    0.25172E+05        -0.59996E+08         0.00000E+00
    0.00000E+00         0.00000E+00        -0.30053E+08
 
   -0.30161E+08         0.32444E+05         0.00000E+00
    0.32444E+05        -0.59992E+08         0.00000E+00
    0.00000E+00         0.00000E+00        -0.30064E+08
 
   -0.30147E+08         0.38298E+05         0.00000E+00
    0.38298E+05        -0.59988E+08         0.00000E+00
    0.00000E+00         0.00000E+00        -0.30073E+08
 
   -0.30134E+08         0.42859E+05         0.00000E+00
    0.42859E+05        -0.59984E+08         0.00000E+00
    0.00000E+00         0.00000E+00        -0.30080E+08
 
   -0.30123E+08         0.46256E+05         0.00000E+00
    0.46256E+05        -0.59979E+08         0.00000E+00
    0.00000E+00         0.00000E+00        -0.30085E+08
 
   -0.30113E+08         0.48619E+05         0.00000E+00
    0.48619E+05        -0.59975E+08         0.00000E+00
    0.00000E+00         0.00000E+00        -0.30089E+08
 
   -0.30105E+08         0.50081E+05         0.00000E+00
    0.50081E+05        -0.59970E+08         0.00000E+00
    0.00000E+00         0.00000E+00        -0.30091E+08
 
   -0.30098E+08         0.50772E+05         0.00000E+00
    0.50772E+05        -0.59966E+08         0.00000E+00
    0.00000E+00         0.00000E+00        -0.30093E+08
 
   -0.30093E+08         0.50823E+05         0.00000E+00
    0.50823E+05        -0.59962E+08         0.00000E+00
    0.00000E+00         0.00000E+00        -0.30093E+08
 
   -0.30089E+08         0.50366E+05         0.00000E+00
    0.50366E+05        -0.59959E+08         0.00000E+00
    0.00000E+00         0.00000E+00        -0.30092E+08
 
   -0.30086E+08         0.49537E+05         0.00000E+00
    0.49537E+05        -0.59956E+08         0.00000E+00
    0.00000E+00         0.00000E+00        -0.30091E+08
 
   -0.30085E+08         0.48476E+05         0.00000E+00
    0.48476E+05        -0.59954E+08         0.00000E+00
    0.00000E+00         0.00000E+00        -0.30089E+08
 
   -0.30085E+08         0.47327E+05         0.00000E+00
    0.47327E+05        -0.59952E+08         0.00000E+00
    0.00000E+00         0.00000E+00        -0.30087E+08
 
   -0.30202E+08         0.66737E+04         0.00000E+00
    0.66737E+04        -0.59999E+08         0.00000E+00
    0.00000E+00         0.00000E+00        -0.30033E+08
 
   -0.30185E+08         0.18387E+05         0.00000E+00
    0.18387E+05        -0.59998E+08         0.00000E+00
    0.00000E+00         0.00000E+00        -0.30048E+08
 
   -0.30169E+08         0.28200E+05         0.00000E+00
    0.28200E+05        -0.59995E+08         0.00000E+00
    0.00000E+00         0.00000E+00        -0.30061E+08
 
   -0.30155E+08         0.36231E+05         0.00000E+00
    0.36231E+05        -0.59992E+08         0.00000E+00
    0.00000E+00         0.00000E+00        -0.30070E+08
 
   -0.30142E+08         0.42609E+05         0.00000E+00
    0.42609E+05        -0.59988E+08         0.00000E+00
    0.00000E+00         0.00000E+00        -0.30078E+08
 
   -0.30130E+08         0.47474E+05         0.00000E+00
    0.47474E+05        -0.59983E+08         0.00000E+00
    0.00000E+00         0.00000E+00        -0.30083E+08
 
   -0.30120E+08         0.50972E+05         0.00000E+00
    0.50972E+05        -0.59979E+08         0.00000E+00
    0.00000E+00         0.00000E+00        -0.30087E+08
 
   -0.30111E+08         0.53255E+05         0.00000E+00
    0.53255E+05        -0.59974E+08         0.00000E+00
    0.00000E+00         0.00000E+00        -0.30090E+08
 
   -0.30104E+08         0.54473E+05         0.00000E+00
    0.54473E+05        -0.59969E+08         0.00000E+00
    0.00000E+00         0.00000E+00        -0.30091E+08
 
   -0.30098E+08         0.54782E+05         0.00000E+00
    0.54782E+05        -0.59965E+08         0.00000E+00
    0.00000E+00         0.00000E+00        -0.30092E+08
 
   -0.30093E+08         0.54339E+05         0.00000E+00
    0.54339E+05        -0.59962E+08         0.00000E+00
    0.00000E+00         0.00000E+00        -0.30092E+08
 
   -0.30090E+08         0.53307E+05         0.00000E+00
    0.53307E+05        -0.59959E+08         0.00000E+00
    0.00000E+00         0.00000E+00        -0.30091E+08
 
   -0.30087E+08         0.51851E+05         0.00000E+00
    0.51851E+05        -0.59956E+08         0.00000E+00
    0.00000E+00         0.00000E+00        -0.30091E+08
 
   -0.30086E+08         0.50142E+05         0.00000E+00
    0.50142E+05        -0.59955E+08         0.00000E+00
    0.00000E+00         0.00000E+00        -0.30089E+08
 
   -0.30087E+08         0.48352E+05         0.00000E+00
    0.48352E+05        -0.59954E+08         0.00000E+00
    0.00000E+00         0.00000E+00        -0.30088E+08
 
   -0.30189E+08         0.74434E+04         0.00000E+00
    0.74434E+04        -0.59999E+08         0.00000E+00
    0.00000E+00         0.00000E+00        -0.30046E+08
 
   -0.30173E+08         0.20459E+05         0.00000E+00
    0.20459E+05        -0.59998E+08         0.00000E+00
    0.00000E+00         0.00000E+00        -0.30060E+08
 
   -0.30160E+08         0.31309E+05         0.00000E+00
    0.31309E+05        -0.59995E+08         0.00000E+00
    0.00000E+00         0.00000E+00        -0.30070E+08
 
   -0.30147E+08         0.40118E+05         0.00000E+00
    0.40118E+05        -0.59992E+08         0.00000E+00
    0.00000E+00         0.00000E+00        -0.30078E+08
 
   -0.30136E+08         0.47025E+05         0.00000E+00
    0.47025E+05        -0.59988E+08         0.00000E+00
    0.00000E+00         0.00000E+00        -0.30083E+08
 
   -0.30126E+08         0.52181E+05         0.00000E+00
    0.52181E+05        -0.59983E+08         0.00000E+00
    0.00000E+00         0.00000E+00        -0.30087E+08
 
   -0.30117E+08         0.55745E+05         0.00000E+00
    0.55745E+05        -0.59978E+08         0.00000E+00
    0.00000E+00         0.00000E+00        -0.30090E+08
 
   -0.30110E+08         0.57885E+05         0.00000E+00
    0.57885E+05        -0.59974E+08         0.00000E+00
    0.00000E+00         0.00000E+00        -0.30091E+08
 
   -0.30103E+08         0.58775E+05         0.00000E+00
    0.58775E+05        -0.59969E+08         0.00000E+00
    0.00000E+00         0.00000E+00        -0.30092E+08
 
   -0.30098E+08         0.58598E+05         0.00000E+00
    0.58598E+05        -0.59965E+08         0.00000E+00
    0.00000E+00         0.00000E+00        -0.30092E+08
 
   -0.30094E+08         0.57544E+05         0.00000E+00
    0.57544E+05        -0.59962E+08         0.00000E+00
    0.00000E+00         0.00000E+00        -0.30091E+08
 
   -0.30091E+08         0.55809E+05         0.00000E+00
    0.55809E+05        -0.59959E+08         0.00000E+00
    0.00000E+00         0.00000E+00        -0.30091E+08
 
   -0.30089E+08         0.53598E+05         0.00000E+00
    0.53598E+05        -0.59957E+08         0.00000E+00
    0.00000E+00         0.00000E+00        -0.30090E+08
 
   -0.30089E+08         0.51117E+05         0.00000E+00
    0.51117E+05        -0.59956E+08         0.00000E+00
    0.00000E+00         0.00000E+00        -0.30090E+08
 
   -0.30089E+08         0.48567E+05         0.00000E+00
    0.48567E+05        -0.59956E+08         0.00000E+00
    0.00000E+00         0.00000E+00        -0.30089E+08
 
   -0.30174E+08         0.82168E+04         0.00000E+00
    0.82168E+04        -0.59999E+08         0.00000E+00
    0.00000E+00         0.00000E+00        -0.30061E+08
 
   -0.30161E+08         0.22546E+05         0.00000E+00
    0.22546E+05        -0.59998E+08         0.00000E+00
    0.00000E+00         0.00000E+00        -0.30072E+08
 
   -0.30149E+08         0.34447E+05         0.00000E+00
    0.34447E+05        -0.59995E+08         0.00000E+00
    0.00000E+00         0.00000E+00        -0.30080E+08
 
   -0.30139E+08         0.44046E+05         0.00000E+00
    0.44046E+05        -0.59992E+08         0.00000E+00
    0.00000E+00         0.00000E+00        -0.30086E+08
 
   -0.30130E+08         0.51485E+05         0.00000E+00
    0.51485E+05        -0.59988E+08         0.00000E+00
    0.00000E+00         0.00000E+00        -0.30090E+08
 
   -0.30122E+08         0.56915E+05         0.00000E+00
    0.56915E+05        -0.59983E+08         0.00000E+00
    0.00000E+00         0.00000E+00        -0.30092E+08
 
   -0.30114E+08         0.60504E+05         0.00000E+00
    0.60504E+05        -0.59978E+08         0.00000E+00
    0.00000E+00         0.00000E+00        -0.30093E+08
 
   -0.30108E+08         0.62435E+05         0.00000E+00
    0.62435E+05        -0.59974E+08         0.00000E+00
    0.00000E+00         0.00000E+00        -0.30093E+08
 
   -0.30103E+08         0.62905E+05         0.00000E+00
    0.62905E+05        -0.59970E+08         0.00000E+00
    0.00000E+00         0.00000E+00        -0.30092E+08
 
   -0.30099E+08         0.62129E+05         0.00000E+00
    0.62129E+05        -0.59966E+08         0.00000E+00
    0.00000E+00         0.00000E+00        -0.30092E+08
 
   -0.30096E+08         0.60337E+05         0.00000E+00
    0.60337E+05        -0.59963E+08         0.00000E+00
    0.00000E+00         0.00000E+00        -0.30091E+08
 
   -0.30094E+08         0.57770E+05         0.00000E+00
    0.57770E+05        -0.59961E+08         0.00000E+00
    0.00000E+00         0.00000E+00        -0.30090E+08
 
   -0.30092E+08         0.54676E+05         0.00000E+00
    0.54676E+05        -0.59960E+08         0.00000E+00
    0.00000E+00         0.00000E+00        -0.30090E+08
 
   -0.30092E+08         0.51301E+05         0.00000E+00
    0.51301E+05        -0.59959E+08         0.00000E+00
    0.00000E+00         0.00000E+00        -0.30091E+08
 
   -0.30092E+08         0.47875E+05         0.00000E+00
    0.47875E+05        -0.59960E+08         0.00000E+00
    0.00000E+00         0.00000E+00        -0.30091E+08
 
   -0.30157E+08         0.89767E+04         0.00000E+00
    0.89767E+04        -0.60000E+08         0.00000E+00
    0.00000E+00         0.00000E+00        -0.30077E+08
 
   -0.30147E+08         0.24602E+05         0.00000E+00
    0.24602E+05        -0.59998E+08         0.00000E+00
    0.00000E+00         0.00000E+00        -0.30086E+08
 
   -0.30138E+08         0.37551E+05         0.00000E+00
    0.37551E+05        -0.59996E+08         0.00000E+00
    0.00000E+00         0.00000E+00        -0.30092E+08
 
   -0.30130E+08         0.47943E+05         0.00000E+00
    0.47943E+05        -0.59992E+08         0.00000E+00
    0.00000E+00         0.00000E+00        -0.30095E+08
 
   -0.30123E+08         0.55907E+05         0.00000E+00
    0.55907E+05        -0.59988E+08         0.00000E+00
    0.00000E+00         0.00000E+00        -0.30097E+08
 
   -0.30117E+08         0.61591E+05         0.00000E+00
    0.61591E+05        -0.59983E+08         0.00000E+00
    0.00000E+00         0.00000E+00        -0.30097E+08
 
   -0.30112E+08         0.65160E+05         0.00000E+00
    0.65160E+05        -0.59979E+08         0.00000E+00
    0.00000E+00         0.00000E+00        -0.30096E+08
 
   -0.30107E+08         0.66807E+05         0.00000E+00
    0.66807E+05        -0.59974E+08         0.00000E+00
    0.00000E+00         0.00000E+00        -0.30095E+08
 
   -0.30104E+08         0.66756E+05         0.00000E+00
    0.66756E+05        -0.59970E+08         0.00000E+00
    0.00000E+00         0.00000E+00        -0.30093E+08
 
   -0.30101E+08         0.65261E+05         0.00000E+00
    0.65261E+05        -0.59967E+08         0.00000E+00
    0.00000E+00         0.00000E+00        -0.30092E+08
 
   -0.30099E+08         0.62601E+05         0.00000E+00
    0.62601E+05        -0.59965E+08         0.00000E+00
    0.00000E+00         0.00000E+00        -0.30091E+08
 
   -0.30097E+08         0.59073E+05         0.00000E+00
    0.59073E+05        -0.59963E+08         0.00000E+00
    0.00000E+00         0.00000E+00        -0.30090E+08
 
   -0.30096E+08         0.54979E+05         0.00000E+00
    0.54979E+05        -0.59963E+08         0.00000E+00
    0.00000E+00         0.00000E+00        -0.30091E+08
 
   -0.30095E+08         0.50599E+05         0.00000E+00
    0.50599E+05        -0.59964E+08         0.00000E+00
    0.00000E+00         0.00000E+00        -0.30092E+08
 
   -0.30096E+08         0.46194E+05         0.00000E+00
    0.46194E+05        -0.59965E+08         0.00000E+00
    0.00000E+00         0.00000E+00        -0.30094E+08
 
   -0.30140E+08         0.97058E+04         0.00000E+00
    0.97058E+04        -0.60000E+08         0.00000E+00
    0.00000E+00         0.00000E+00        -0.30095E+08
 
   -0.30132E+08         0.26582E+05         0.00000E+00
    0.26582E+05        -0.59998E+08         0.00000E+00
    0.00000E+00         0.00000E+00        -0.30101E+08
 
   -0.30126E+08         0.40553E+05         0.00000E+00
    0.40553E+05        -0.59996E+08         0.00000E+00
    0.00000E+00         0.00000E+00        -0.30104E+08
 
   -0.30121E+08         0.51720E+05         0.00000E+00
    0.51720E+05        -0.59992E+08         0.00000E+00
    0.00000E+00         0.00000E+00        -0.30105E+08
 
   -0.30116E+08         0.60192E+05         0.00000E+00
    0.60192E+05        -0.59988E+08         0.00000E+00
    0.00000E+00         0.00000E+00        -0.30104E+08
 
   -0.30112E+08         0.66096E+05         0.00000E+00
    0.66096E+05        -0.59984E+08         0.00000E+00
    0.00000E+00         0.00000E+00        -0.30103E+08
 
   -0.30109E+08         0.69588E+05         0.00000E+00
    0.69588E+05        -0.59980E+08         0.00000E+00
    0.00000E+00         0.00000E+00        -0.30100E+08
 
   -0.30107E+08         0.70868E+05         0.00000E+00
    0.70868E+05        -0.59976E+08         0.00000E+00
    0.00000E+00         0.00000E+00        -0.30097E+08
 
   -0.30105E+08         0.70189E+05         0.00000E+00
    0.70189E+05        -0.59972E+08         0.00000E+00
    0.00000E+00         0.00000E+00        -0.30094E+08
 
   -0.30103E+08         0.67852E+05         0.00000E+00
    0.67852E+05        -0.59970E+08         0.00000E+00
    0.00000E+00         0.00000E+00        -0.30092E+08
 
   -0.30102E+08         0.64201E+05         0.00000E+00
    0.64201E+05        -0.59968E+08         0.00000E+00
    0.00000E+00         0.00000E+00        -0.30091E+08
 
   -0.30101E+08         0.59600E+05         0.00000E+00
    0.59600E+05        -0.59967E+08         0.00000E+00
    0.00000E+00         0.00000E+00        -0.30091E+08
 
   -0.30101E+08         0.54403E+05         0.00000E+00
    0.54403E+05        -0.59968E+08         0.00000E+00
    0.00000E+00         0.00000E+00        -0.30092E+08
 
   -0.30100E+08         0.48938E+05         0.00000E+00
    0.48938E+05        -0.59969E+08         0.00000E+00
    0.00000E+00         0.00000E+00        -0.30095E+08
 
   -0.30100E+08         0.43471E+05         0.00000E+00
    0.43471E+05        -0.59972E+08         0.00000E+00
    0.00000E+00         0.00000E+00        -0.30098E+08
 
   -0.30121E+08         0.10389E+05         0.00000E+00
    0.10389E+05        -0.60000E+08         0.00000E+00
    0.00000E+00         0.00000E+00        -0.30114E+08
 
   -0.30116E+08         0.28441E+05         0.00000E+00
    0.28441E+05        -0.59998E+08         0.00000E+00
    0.00000E+00         0.00000E+00        -0.30117E+08
 
   -0.30113E+08         0.43379E+05         0.00000E+00
    0.43379E+05        -0.59996E+08         0.00000E+00
    0.00000E+00         0.00000E+00        -0.30117E+08
 
   -0.30110E+08         0.55277E+05         0.00000E+00
    0.55277E+05        -0.59993E+08         0.00000E+00
    0.00000E+00         0.00000E+00        -0.30116E+08
 
   -0.30109E+08         0.64213E+05         0.00000E+00
    0.64213E+05        -0.59989E+08         0.00000E+00
    0.00000E+00         0.00000E+00        -0.30113E+08
 
   -0.30108E+08         0.70284E+05         0.00000E+00
    0.70284E+05        -0.59985E+08         0.00000E+00
    0.00000E+00         0.00000E+00        -0.30109E+08
 
   -0.30107E+08         0.73627E+05         0.00000E+00
    0.73627E+05        -0.59982E+08         0.00000E+00
    0.00000E+00         0.00000E+00        -0.30104E+08
 
   -0.30107E+08         0.74446E+05         0.00000E+00
    0.74446E+05        -0.59978E+08         0.00000E+00
    0.00000E+00         0.00000E+00        -0.30100E+08
 
   -0.30107E+08         0.73026E+05         0.00000E+00
    0.73026E+05        -0.59975E+08         0.00000E+00
    0.00000E+00         0.00000E+00        -0.30096E+08
 
   -0.30107E+08         0.69735E+05         0.00000E+00
    0.69735E+05        -0.59973E+08         0.00000E+00
    0.00000E+00         0.00000E+00        -0.30094E+08
 
   -0.30107E+08         0.64992E+05         0.00000E+00
    0.64992E+05        -0.59972E+08         0.00000E+00
    0.00000E+00         0.00000E+00        -0.30092E+08
 
   -0.30107E+08         0.59233E+05         0.00000E+00
    0.59233E+05        -0.59973E+08         0.00000E+00
    0.00000E+00         0.00000E+00        -0.30093E+08
 
   -0.30107E+08         0.52874E+05         0.00000E+00
    0.52874E+05        -0.59974E+08         0.00000E+00
    0.00000E+00         0.00000E+00        -0.30095E+08
 
   -0.30106E+08         0.46269E+05         0.00000E+00
    0.46269E+05        -0.59977E+08         0.00000E+00
    0.00000E+00         0.00000E+00        -0.30098E+08
 
   -0.30106E+08         0.39694E+05         0.00000E+00
    0.39694E+05        -0.59980E+08         0.00000E+00
    0.00000E+00         0.00000E+00        -0.30103E+08
 
   -0.30100E+08         0.11016E+05         0.00000E+00
    0.11016E+05        -0.60000E+08         0.00000E+00
    0.00000E+00         0.00000E+00        -0.30134E+08
 
   -0.30099E+08         0.30140E+05         0.00000E+00
    0.30140E+05        -0.59999E+08         0.00000E+00
    0.00000E+00         0.00000E+00        -0.30134E+08
 
   -0.30099E+08         0.45954E+05         0.00000E+00
    0.45954E+05        -0.59996E+08         0.00000E+00
    0.00000E+00         0.00000E+00        -0.30132E+08
 
   -0.30100E+08         0.58498E+05         0.00000E+00
    0.58498E+05        -0.59994E+08         0.00000E+00
    0.00000E+00         0.00000E+00        -0.30128E+08
 
   -0.30101E+08         0.67813E+05         0.00000E+00
    0.67813E+05        -0.59991E+08         0.00000E+00
    0.00000E+00         0.00000E+00        -0.30122E+08
 
   -0.30103E+08         0.73960E+05         0.00000E+00
    0.73960E+05        -0.59987E+08         0.00000E+00
    0.00000E+00         0.00000E+00        -0.30116E+08
 
   -0.30105E+08         0.77055E+05         0.00000E+00
    0.77055E+05        -0.59984E+08         0.00000E+00
    0.00000E+00         0.00000E+00        -0.30110E+08
 
   -0.30107E+08         0.77309E+05         0.00000E+00
    0.77309E+05        -0.59981E+08         0.00000E+00
    0.00000E+00         0.00000E+00        -0.30104E+08
 
   -0.30110E+08         0.75051E+05         0.00000E+00
    0.75051E+05        -0.59979E+08         0.00000E+00
    0.00000E+00         0.00000E+00        -0.30099E+08
 
   -0.30111E+08         0.70722E+05         0.00000E+00
    0.70722E+05        -0.59978E+08         0.00000E+00
    0.00000E+00         0.00000E+00        -0.30096E+08
 
   -0.30113E+08         0.64829E+05         0.00000E+00
    0.64829E+05        -0.59978E+08         0.00000E+00
    0.00000E+00         0.00000E+00        -0.30095E+08
 
   -0.30114E+08         0.57883E+05         0.00000E+00
    0.57883E+05        -0.59980E+08         0.00000E+00
    0.00000E+00         0.00000E+00        -0.30095E+08
 
   -0.30114E+08         0.50349E+05         0.00000E+00
    0.50349E+05        -0.59982E+08         0.00000E+00
    0.00000E+00         0.00000E+00        -0.30098E+08
 
   -0.30114E+08         0.42600E+05         0.00000E+00
    0.42600E+05        -0.59986E+08         0.00000E+00
    0.00000E+00         0.00000E+00        -0.30103E+08
 
   -0.30113E+08         0.34906E+05         0.00000E+00
    0.34906E+05        -0.59991E+08         0.00000E+00
    0.00000E+00         0.00000E+00        -0.30110E+08
 
   -0.30079E+08         0.11582E+05         0.00000E+00
    0.11582E+05        -0.60000E+08         0.00000E+00
    0.00000E+00         0.00000E+00        -0.30156E+08
 
   -0.30081E+08         0.31646E+05         0.00000E+00
    0.31646E+05        -0.59999E+08         0.00000E+00
    0.00000E+00         0.00000E+00        -0.30152E+08
 
   -0.30085E+08         0.48202E+05         0.00000E+00
    0.48202E+05        -0.59997E+08         0.00000E+00
    0.00000E+00         0.00000E+00        -0.30147E+08
 
   -0.30089E+08         0.61252E+05         0.00000E+00
    0.61252E+05        -0.59995E+08         0.00000E+00
    0.00000E+00         0.00000E+00        -0.30140E+08
 
   -0.30093E+08         0.70798E+05         0.00000E+00
    0.70798E+05        -0.59992E+08         0.00000E+00
    0.00000E+00         0.00000E+00        -0.30132E+08
 
   -0.30098E+08         0.76872E+05         0.00000E+00
    0.76872E+05        -0.59990E+08         0.00000E+00
    0.00000E+00         0.00000E+00        -0.30124E+08
 
   -0.30104E+08         0.79582E+05         0.00000E+00
    0.79582E+05        -0.59987E+08         0.00000E+00
    0.00000E+00         0.00000E+00        -0.30116E+08
 
   -0.30109E+08         0.79163E+05         0.00000E+00
    0.79163E+05        -0.59986E+08         0.00000E+00
    0.00000E+00         0.00000E+00        -0.30108E+08
 
   -0.30113E+08         0.76003E+05         0.00000E+00
    0.76003E+05        -0.59985E+08         0.00000E+00
    0.00000E+00         0.00000E+00        -0.30103E+08
 
   -0.30117E+08         0.70618E+05         0.00000E+00
    0.70618E+05        -0.59985E+08         0.00000E+00
    0.00000E+00         0.00000E+00        -0.30099E+08
 
   -0.30120E+08         0.63593E+05         0.00000E+00
    0.63593E+05        -0.59987E+08         0.00000E+00
    0.00000E+00         0.00000E+00        -0.30098E+08
 
   -0.30121E+08         0.55503E+05         0.00000E+00
    0.55503E+05        -0.59989E+08         0.00000E+00
    0.00000E+00         0.00000E+00        -0.30100E+08
 
   -0.30122E+08         0.46843E+05         0.00000E+00
    0.46843E+05        -0.59992E+08         0.00000E+00
    0.00000E+00         0.00000E+00        -0.30103E+08
 
   -0.30122E+08         0.37995E+05         0.00000E+00
    0.37995E+05        -0.59997E+08         0.00000E+00
    0.00000E+00         0.00000E+00        -0.30109E+08
 
   -0.30122E+08         0.29212E+05         0.00000E+00
    0.29212E+05        -0.60002E+08         0.00000E+00
    0.00000E+00         0.00000E+00        -0.30117E+08
 
   -0.30057E+08         0.12081E+05         0.00000E+00
    0.12081E+05        -0.60000E+08         0.00000E+00
    0.00000E+00         0.00000E+00        -0.30179E+08
 
   -0.30063E+08         0.32934E+05         0.00000E+00
    0.32934E+05        -0.59999E+08         0.00000E+00
    0.00000E+00         0.00000E+00        -0.30172E+08
 
   -0.30070E+08         0.50046E+05         0.00000E+00
    0.50046E+05        -0.59997E+08         0.00000E+00
    0.00000E+00         0.00000E+00        -0.30163E+08
 
   -0.30077E+08         0.63384E+05         0.00000E+00
    0.63384E+05        -0.59996E+08         0.00000E+00
    0.00000E+00         0.00000E+00        -0.30153E+08
 
   -0.30085E+08         0.72925E+05         0.00000E+00
    0.72925E+05        -0.59994E+08         0.00000E+00
    0.00000E+00         0.00000E+00        -0.30143E+08
 
   -0.30094E+08         0.78690E+05         0.00000E+00
    0.78690E+05        -0.59993E+08         0.00000E+00
    0.00000E+00         0.00000E+00        -0.30132E+08
 
   -0.30103E+08         0.80828E+05         0.00000E+00
    0.80828E+05        -0.59992E+08         0.00000E+00
    0.00000E+00         0.00000E+00        -0.30122E+08
 
   -0.30111E+08         0.79643E+05         0.00000E+00
    0.79643E+05        -0.59992E+08         0.00000E+00
    0.00000E+00         0.00000E+00        -0.30114E+08
 
   -0.30118E+08         0.75591E+05         0.00000E+00
    0.75591E+05        -0.59993E+08         0.00000E+00
    0.00000E+00         0.00000E+00        -0.30108E+08
 
   -0.30124E+08         0.69243E+05         0.00000E+00
    0.69243E+05        -0.59994E+08         0.00000E+00
    0.00000E+00         0.00000E+00        -0.30104E+08
 
   -0.30128E+08         0.61218E+05         0.00000E+00
    0.61218E+05        -0.59997E+08         0.00000E+00
    0.00000E+00         0.00000E+00        -0.30104E+08
 
   -0.30130E+08         0.52115E+05         0.00000E+00
    0.52115E+05        -0.60000E+08         0.00000E+00
    0.00000E+00         0.00000E+00        -0.30106E+08
 
   -0.30131E+08         0.42445E+05         0.00000E+00
    0.42445E+05        -0.60005E+08         0.00000E+00
    0.00000E+00         0.00000E+00        -0.30110E+08
 
   -0.30131E+08         0.32590E+05         0.00000E+00
    0.32590E+05        -0.60010E+08         0.00000E+00
    0.00000E+00         0.00000E+00        -0.30117E+08
 
   -0.30131E+08         0.22783E+05         0.00000E+00
    0.22783E+05        -0.60016E+08         0.00000E+00
    0.00000E+00         0.00000E+00        -0.30126E+08
 
   -0.30034E+08         0.12512E+05         0.00000E+00
    0.12512E+05        -0.60000E+08         0.00000E+00
    0.00000E+00         0.00000E+00        -0.30202E+08
 
   -0.30043E+08         0.33967E+05         0.00000E+00
    0.33967E+05        -0.59999E+08         0.00000E+00
    0.00000E+00         0.00000E+00        -0.30191E+08
 
   -0.30054E+08         0.51396E+05         0.00000E+00
    0.51396E+05        -0.59998E+08         0.00000E+00
    0.00000E+00         0.00000E+00        -0.30179E+08
 
   -0.30066E+08         0.64712E+05         0.00000E+00
    0.64712E+05        -0.59997E+08         0.00000E+00
    0.00000E+00         0.00000E+00        -0.30166E+08
 
   -0.30078E+08         0.73878E+05         0.00000E+00
    0.73878E+05        -0.59997E+08         0.00000E+00
    0.00000E+00         0.00000E+00        -0.30153E+08
 
   -0.30091E+08         0.78996E+05         0.00000E+00
    0.78996E+05        -0.59997E+08         0.00000E+00
    0.00000E+00         0.00000E+00        -0.30141E+08
 
   -0.30103E+08         0.80332E+05         0.00000E+00
    0.80332E+05        -0.59998E+08         0.00000E+00
    0.00000E+00         0.00000E+00        -0.30130E+08
 
   -0.30114E+08         0.78331E+05         0.00000E+00
    0.78331E+05        -0.60000E+08         0.00000E+00
    0.00000E+00         0.00000E+00        -0.30122E+08
 
   -0.30124E+08         0.73522E+05         0.00000E+00
    0.73522E+05        -0.60003E+08         0.00000E+00
    0.00000E+00         0.00000E+00        -0.30115E+08
 
   -0.30131E+08         0.66460E+05         0.00000E+00
    0.66460E+05        -0.60006E+08         0.00000E+00
    0.00000E+00         0.00000E+00        -0.30112E+08
 
   -0.30137E+08         0.57708E+05         0.00000E+00
    0.57708E+05        -0.60010E+08         0.00000E+00
    0.00000E+00         0.00000E+00        -0.30111E+08
 
   -0.30140E+08         0.47827E+05         0.00000E+00
    0.47827E+05        -0.60014E+08         0.00000E+00
    0.00000E+00         0.00000E+00        -0.30114E+08
 
   -0.30142E+08         0.37325E+05         0.00000E+00
    0.37325E+05        -0.60019E+08         0.00000E+00
    0.00000E+00         0.00000E+00        -0.30119E+08
 
   -0.30142E+08         0.26590E+05         0.00000E+00
    0.26590E+05        -0.60025E+08         0.00000E+00
    0.00000E+00         0.00000E+00        -0.30126E+08
 
   -0.30141E+08         0.15856E+05         0.00000E+00
    0.15856E+05        -0.60031E+08         0.00000E+00
    0.00000E+00         0.00000E+00        -0.30136E+08
 
   -0.30010E+08         0.12874E+05         0.00000E+00
    0.12874E+05        -0.60000E+08         0.00000E+00
    0.00000E+00         0.00000E+00        -0.30226E+08
 
   -0.30024E+08         0.34703E+05         0.00000E+00
    0.34703E+05        -0.59999E+08         0.00000E+00
    0.00000E+00         0.00000E+00        -0.30211E+08
 
   -0.30039E+08         0.52110E+05         0.00000E+00
    0.52110E+05        -0.59999E+08         0.00000E+00
    0.00000E+00         0.00000E+00        -0.30196E+08
 
   -0.30055E+08         0.64955E+05         0.00000E+00
    0.64955E+05        -0.59999E+08         0.00000E+00
    0.00000E+00         0.00000E+00        -0.30180E+08
 
   -0.30071E+08         0.73251E+05         0.00000E+00
    0.73251E+05        -0.60000E+08         0.00000E+00
    0.00000E+00         0.00000E+00        -0.30165E+08
 
   -0.30088E+08         0.77278E+05         0.00000E+00
    0.77278E+05        -0.60002E+08         0.00000E+00
    0.00000E+00         0.00000E+00        -0.30151E+08
 
   -0.30104E+08         0.77592E+05         0.00000E+00
    0.77592E+05        -0.60006E+08         0.00000E+00
    0.00000E+00         0.00000E+00        -0.30140E+08
 
   -0.30118E+08         0.74827E+05         0.00000E+00
    0.74827E+05        -0.60010E+08         0.00000E+00
    0.00000E+00         0.00000E+00        -0.30131E+08
 
   -0.30130E+08         0.69549E+05         0.00000E+00
    0.69549E+05        -0.60015E+08         0.00000E+00
    0.00000E+00         0.00000E+00        -0.30125E+08
 
   -0.30140E+08         0.62192E+05         0.00000E+00
    0.62192E+05        -0.60020E+08         0.00000E+00
    0.00000E+00         0.00000E+00        -0.30122E+08
 
   -0.30146E+08         0.53143E+05         0.00000E+00
    0.53143E+05        -0.60025E+08         0.00000E+00
    0.00000E+00         0.00000E+00        -0.30122E+08
 
   -0.30151E+08         0.42830E+05         0.00000E+00
    0.42830E+05        -0.60030E+08         0.00000E+00
    0.00000E+00         0.00000E+00        -0.30125E+08
 
   -0.30152E+08         0.31734E+05         0.00000E+00
    0.31734E+05        -0.60036E+08         0.00000E+00
    0.00000E+00         0.00000E+00        -0.30130E+08
 
   -0.30153E+08         0.20278E+05         0.00000E+00
    0.20278E+05        -0.60042E+08         0.00000E+00
    0.00000E+00         0.00000E+00        -0.30137E+08
 
   -0.30152E+08         0.87310E+04         0.00000E+00
    0.87310E+04        -0.60048E+08         0.00000E+00
    0.00000E+00         0.00000E+00        -0.30147E+08
 
   -0.29986E+08         0.13163E+05         0.00000E+00
    0.13163E+05        -0.60000E+08         0.00000E+00
    0.00000E+00         0.00000E+00        -0.30251E+08
 
   -0.30004E+08         0.35063E+05         0.00000E+00
    0.35063E+05        -0.60000E+08         0.00000E+00
    0.00000E+00         0.00000E+00        -0.30232E+08
 
   -0.30024E+08         0.51954E+05         0.00000E+00
    0.51954E+05        -0.60000E+08         0.00000E+00
    0.00000E+00         0.00000E+00        -0.30212E+08
 
   -0.30045E+08         0.63678E+05         0.00000E+00
    0.63678E+05        -0.60001E+08         0.00000E+00
    0.00000E+00         0.00000E+00        -0.30193E+08
 
   -0.30066E+08         0.70455E+05         0.00000E+00
    0.70455E+05        -0.60005E+08         0.00000E+00
    0.00000E+00         0.00000E+00        -0.30176E+08
 
   -0.30086E+08         0.72982E+05         0.00000E+00
    0.72982E+05        -0.60010E+08         0.00000E+00
    0.00000E+00         0.00000E+00        -0.30162E+08
 
   -0.30105E+08         0.72181E+05         0.00000E+00
    0.72181E+05        -0.60016E+08         0.00000E+00
    0.00000E+00         0.00000E+00        -0.30152E+08
 
   -0.30122E+08         0.68858E+05         0.00000E+00
    0.68858E+05        -0.60023E+08         0.00000E+00
    0.00000E+00         0.00000E+00        -0.30144E+08
 
   -0.30136E+08         0.63522E+05         0.00000E+00
    0.63522E+05        -0.60030E+08         0.00000E+00
    0.00000E+00         0.00000E+00        -0.30139E+08
 
   -0.30148E+08         0.56410E+05         0.00000E+00
    0.56410E+05        -0.60037E+08         0.00000E+00
    0.00000E+00         0.00000E+00        -0.30137E+08
 
   -0.30156E+08         0.47634E+05         0.00000E+00
    0.47634E+05        -0.60043E+08         0.00000E+00
    0.00000E+00         0.00000E+00        -0.30136E+08
 
   -0.30161E+08         0.37370E+05         0.00000E+00
    0.37370E+05        -0.60049E+08         0.00000E+00
    0.00000E+00         0.00000E+00        -0.30138E+08
 
   -0.30164E+08         0.25999E+05         0.00000E+00
    0.25999E+05        -0.60055E+08         0.00000E+00
    0.00000E+00         0.00000E+00        -0.30143E+08
 
   -0.30165E+08         0.14009E+05         0.00000E+00
    0.14009E+05        -0.60060E+08         0.00000E+00
    0.00000E+00         0.00000E+00        -0.30150E+08
 
   -0.30164E+08         0.17727E+04         0.00000E+00
    0.17727E+04        -0.60067E+08         0.00000E+00
    0.00000E+00         0.00000E+00        -0.30159E+08
 
   -0.29962E+08         0.13370E+05         0.00000E+00
    0.13370E+05        -0.60000E+08         0.00000E+00
    0.00000E+00         0.00000E+00        -0.30276E+08
 
   -0.29985E+08         0.34889E+05         0.00000E+00
    0.34889E+05        -0.60000E+08         0.00000E+00
    0.00000E+00         0.00000E+00        -0.30252E+08
 
   -0.30010E+08         0.50489E+05         0.00000E+00
    0.50489E+05        -0.60001E+08         0.00000E+00
    0.00000E+00         0.00000E+00        -0.30228E+08
 
   -0.30037E+08         0.60170E+05         0.00000E+00
    0.60170E+05        -0.60005E+08         0.00000E+00
    0.00000E+00         0.00000E+00        -0.30206E+08
 
   -0.30062E+08         0.64762E+05         0.00000E+00
    0.64762E+05        -0.60012E+08         0.00000E+00
    0.00000E+00         0.00000E+00        -0.30189E+08
 
   -0.30086E+08         0.65613E+05         0.00000E+00
    0.65613E+05        -0.60020E+08         0.00000E+00
    0.00000E+00         0.00000E+00        -0.30176E+08
 
   -0.30108E+08         0.63911E+05         0.00000E+00
    0.63911E+05        -0.60029E+08         0.00000E+00
    0.00000E+00         0.00000E+00        -0.30166E+08
 
   -0.30126E+08         0.60402E+05         0.00000E+00
    0.60402E+05        -0.60039E+08         0.00000E+00
    0.00000E+00         0.00000E+00        -0.30160E+08
 
   -0.30142E+08         0.55441E+05         0.00000E+00
    0.55441E+05        -0.60048E+08         0.00000E+00
    0.00000E+00         0.00000E+00        -0.30157E+08
 
   -0.30155E+08         0.49100E+05         0.00000E+00
    0.49100E+05        -0.60057E+08         0.00000E+00
    0.00000E+00         0.00000E+00        -0.30155E+08
 
   -0.30165E+08         0.41237E+05         0.00000E+00
    0.41237E+05        -0.60064E+08         0.00000E+00
    0.00000E+00         0.00000E+00        -0.30155E+08
 
   -0.30172E+08         0.31676E+05         0.00000E+00
    0.31676E+05        -0.60070E+08         0.00000E+00
    0.00000E+00         0.00000E+00        -0.30156E+08
 
   -0.30176E+08         0.20504E+05         0.00000E+00
    0.20504E+05        -0.60076E+08         0.00000E+00
    0.00000E+00         0.00000E+00        -0.30159E+08
 
   -0.30177E+08         0.82277E+04         0.00000E+00
    0.82277E+04        -0.60081E+08         0.00000E+00
    0.00000E+00         0.00000E+00        -0.30165E+08
 
   -0.30177E+08        -0.45713E+04         0.00000E+00
   -0.45713E+04        -0.60087E+08         0.00000E+00
    0.00000E+00         0.00000E+00        -0.30173E+08
 
   -0.29937E+08         0.13464E+05         0.00000E+00
    0.13464E+05        -0.60000E+08         0.00000E+00
    0.00000E+00         0.00000E+00        -0.30300E+08
 
   -0.29967E+08         0.33807E+05         0.00000E+00
    0.33807E+05        -0.60001E+08         0.00000E+00
    0.00000E+00         0.00000E+00        -0.30271E+08
 
   -0.29999E+08         0.46833E+05         0.00000E+00
    0.46833E+05        -0.60004E+08         0.00000E+00
    0.00000E+00         0.00000E+00        -0.30243E+08
 
   -0.30031E+08         0.53389E+05         0.00000E+00
    0.53389E+05        -0.60012E+08         0.00000E+00
    0.00000E+00         0.00000E+00        -0.30221E+08
 
   -0.30060E+08         0.55518E+05         0.00000E+00
    0.55518E+05        -0.60022E+08         0.00000E+00
    0.00000E+00         0.00000E+00        -0.30204E+08
 
   -0.30087E+08         0.55027E+05         0.00000E+00
    0.55027E+05        -0.60033E+08         0.00000E+00
    0.00000E+00         0.00000E+00        -0.30193E+08
 
   -0.30110E+08         0.52924E+05         0.00000E+00
    0.52924E+05        -0.60045E+08         0.00000E+00
    0.00000E+00         0.00000E+00        -0.30185E+08
 
   -0.30130E+08         0.49686E+05         0.00000E+00
    0.49686E+05        -0.60057E+08         0.00000E+00
    0.00000E+00         0.00000E+00        -0.30181E+08
 
   -0.30147E+08         0.45486E+05         0.00000E+00
    0.45486E+05        -0.60069E+08         0.00000E+00
    0.00000E+00         0.00000E+00        -0.30178E+08
 
   -0.30162E+08         0.40291E+05         0.00000E+00
    0.40291E+05        -0.60079E+08         0.00000E+00
    0.00000E+00         0.00000E+00        -0.30177E+08
 
   -0.30173E+08         0.33875E+05         0.00000E+00
    0.33875E+05        -0.60087E+08         0.00000E+00
    0.00000E+00         0.00000E+00        -0.30177E+08
 
   -0.30182E+08         0.25803E+05         0.00000E+00
    0.25803E+05        -0.60094E+08         0.00000E+00
    0.00000E+00         0.00000E+00        -0.30178E+08
 
   -0.30187E+08         0.15625E+05         0.00000E+00
    0.15625E+05        -0.60099E+08         0.00000E+00
    0.00000E+00         0.00000E+00        -0.30179E+08
 
   -0.30189E+08         0.34940E+04         0.00000E+00
    0.34940E+04        -0.60104E+08         0.00000E+00
    0.00000E+00         0.00000E+00        -0.30182E+08
 
   -0.30190E+08        -0.97302E+04         0.00000E+00
   -0.97302E+04        -0.60108E+08         0.00000E+00
    0.00000E+00         0.00000E+00        -0.30187E+08
 
   -0.29914E+08         0.13327E+05         0.00000E+00
    0.13327E+05        -0.60000E+08         0.00000E+00
    0.00000E+00         0.00000E+00        -0.30325E+08
 
   -0.29952E+08         0.30828E+05         0.00000E+00
    0.30828E+05        -0.60003E+08         0.00000E+00
    0.00000E+00         0.00000E+00        -0.30289E+08
 
   -0.29991E+08         0.39391E+05         0.00000E+00
    0.39391E+05        -0.60010E+08         0.00000E+00
    0.00000E+00         0.00000E+00        -0.30259E+08
 
   -0.30028E+08         0.42347E+05         0.00000E+00
    0.42347E+05        -0.60022E+08         0.00000E+00
    0.00000E+00         0.00000E+00        -0.30237E+08
 
   -0.30060E+08         0.42650E+05         0.00000E+00
    0.42650E+05        -0.60036E+08         0.00000E+00
    0.00000E+00         0.00000E+00        -0.30223E+08
 
   -0.30089E+08         0.41582E+05         0.00000E+00
    0.41582E+05        -0.60050E+08         0.00000E+00
    0.00000E+00         0.00000E+00        -0.30214E+08
 
   -0.30113E+08         0.39659E+05         0.00000E+00
    0.39659E+05        -0.60065E+08         0.00000E+00
    0.00000E+00         0.00000E+00        -0.30208E+08
 
   -0.30134E+08         0.37093E+05         0.00000E+00
    0.37093E+05        -0.60079E+08         0.00000E+00
    0.00000E+00         0.00000E+00        -0.30205E+08
 
   -0.30151E+08         0.33931E+05         0.00000E+00
    0.33931E+05        -0.60091E+08         0.00000E+00
    0.00000E+00         0.00000E+00        -0.30204E+08
 
   -0.30167E+08         0.30109E+05         0.00000E+00
    0.30109E+05        -0.60103E+08         0.00000E+00
    0.00000E+00         0.00000E+00        -0.30204E+08
 
   -0.30179E+08         0.25427E+05         0.00000E+00
    0.25427E+05        -0.60113E+08         0.00000E+00
    0.00000E+00         0.00000E+00        -0.30204E+08
 
   -0.30190E+08         0.19469E+05         0.00000E+00
    0.19469E+05        -0.60120E+08         0.00000E+00
    0.00000E+00         0.00000E+00        -0.30204E+08
 
   -0.30197E+08         0.11467E+05         0.00000E+00
    0.11467E+05        -0.60126E+08         0.00000E+00
    0.00000E+00         0.00000E+00        -0.30203E+08
 
   -0.30202E+08         0.50980E+03         0.00000E+00
    0.50980E+03        -0.60129E+08         0.00000E+00
    0.00000E+00         0.00000E+00        -0.30203E+08
 
   -0.30204E+08        -0.12871E+05         0.00000E+00
   -0.12871E+05        -0.60130E+08         0.00000E+00
    0.00000E+00         0.00000E+00        -0.30203E+08
 
   -0.29893E+08         0.12291E+05         0.00000E+00
    0.12291E+05        -0.60001E+08         0.00000E+00
    0.00000E+00         0.00000E+00        -0.30347E+08
 
   -0.29942E+08         0.23396E+05         0.00000E+00
    0.23396E+05        -0.60008E+08         0.00000E+00
    0.00000E+00         0.00000E+00        -0.30307E+08
 
   -0.29988E+08         0.26520E+05         0.00000E+00
    0.26520E+05        -0.60022E+08         0.00000E+00
    0.00000E+00         0.00000E+00        -0.30278E+08
 
   -0.30027E+08         0.27211E+05         0.00000E+00
    0.27211E+05        -0.60038E+08         0.00000E+00
    0.00000E+00         0.00000E+00        -0.30259E+08
 
   -0.30061E+08         0.26875E+05         0.00000E+00
    0.26875E+05        -0.60054E+08         0.00000E+00
    0.00000E+00         0.00000E+00        -0.30247E+08
 
   -0.30090E+08         0.25961E+05         0.00000E+00
    0.25961E+05        -0.60071E+08         0.00000E+00
    0.00000E+00         0.00000E+00        -0.30239E+08
 
   -0.30115E+08         0.24654E+05         0.00000E+00
    0.24654E+05        -0.60087E+08         0.00000E+00
    0.00000E+00         0.00000E+00        -0.30236E+08
 
   -0.30136E+08         0.23025E+05         0.00000E+00
    0.23025E+05        -0.60102E+08         0.00000E+00
    0.00000E+00         0.00000E+00        -0.30234E+08
 
   -0.30154E+08         0.21077E+05         0.00000E+00
    0.21077E+05        -0.60116E+08         0.00000E+00
    0.00000E+00         0.00000E+00        -0.30234E+08
 
   -0.30170E+08         0.18752E+05         0.00000E+00
    0.18752E+05        -0.60129E+08         0.00000E+00
    0.00000E+00         0.00000E+00        -0.30235E+08
 
   -0.30184E+08         0.15916E+05         0.00000E+00
    0.15916E+05        -0.60140E+08         0.00000E+00
    0.00000E+00         0.00000E+00        -0.30236E+08
 
   -0.30195E+08         0.12307E+05         0.00000E+00
    0.12307E+05        -0.60148E+08         0.00000E+00
    0.00000E+00         0.00000E+00        -0.30235E+08
 
   -0.30205E+08         0.73687E+04         0.00000E+00
    0.73687E+04        -0.60154E+08         0.00000E+00
    0.00000E+00         0.00000E+00        -0.30233E+08
 
   -0.30213E+08        -0.21069E+03         0.00000E+00
   -0.21069E+03        -0.60156E+08         0.00000E+00
    0.00000E+00         0.00000E+00        -0.30228E+08
 
   -0.30217E+08        -0.12654E+05         0.00000E+00
   -0.12654E+05        -0.60155E+08         0.00000E+00
    0.00000E+00         0.00000E+00        -0.30222E+08
 
   -0.29879E+08         0.63057E+04         0.00000E+00
    0.63057E+04        -0.60009E+08         0.00000E+00
    0.00000E+00         0.00000E+00        -0.30372E+08
 
   -0.29939E+08         0.84889E+04         0.00000E+00
    0.84889E+04        -0.60022E+08         0.00000E+00
    0.00000E+00         0.00000E+00        -0.30329E+08
 
   -0.29987E+08         0.92481E+04         0.00000E+00
    0.92481E+04        -0.60040E+08         0.00000E+00
    0.00000E+00         0.00000E+00        -0.30303E+08
 
   -0.30027E+08         0.93763E+04         0.00000E+00
    0.93763E+04        -0.60058E+08         0.00000E+00
    0.00000E+00         0.00000E+00        -0.30286E+08
 
   -0.30062E+08         0.91958E+04         0.00000E+00
    0.91958E+04        -0.60077E+08         0.00000E+00
    0.00000E+00         0.00000E+00        -0.30276E+08
 
   -0.30091E+08         0.88504E+04         0.00000E+00
    0.88504E+04        -0.60095E+08         0.00000E+00
    0.00000E+00         0.00000E+00        -0.30270E+08
 
   -0.30116E+08         0.83911E+04         0.00000E+00
    0.83911E+04        -0.60112E+08         0.00000E+00
    0.00000E+00         0.00000E+00        -0.30267E+08
 
   -0.30137E+08         0.78353E+04         0.00000E+00
    0.78353E+04        -0.60128E+08         0.00000E+00
    0.00000E+00         0.00000E+00        -0.30267E+08
 
   -0.30156E+08         0.71800E+04         0.00000E+00
    0.71800E+04        -0.60143E+08         0.00000E+00
    0.00000E+00         0.00000E+00        -0.30268E+08
 
   -0.30172E+08         0.64027E+04         0.00000E+00
    0.64027E+04        -0.60157E+08         0.00000E+00
    0.00000E+00         0.00000E+00        -0.30270E+08
 
   -0.30186E+08         0.54542E+04         0.00000E+00
    0.54542E+04        -0.60168E+08         0.00000E+00
    0.00000E+00         0.00000E+00        -0.30271E+08
 
   -0.30198E+08         0.42415E+04         0.00000E+00
    0.42415E+04        -0.60178E+08         0.00000E+00
    0.00000E+00         0.00000E+00        -0.30272E+08
 
   -0.30209E+08         0.25887E+04         0.00000E+00
    0.25887E+04        -0.60185E+08         0.00000E+00
    0.00000E+00         0.00000E+00        -0.30270E+08
 
   -0.30220E+08         0.86992E+01         0.00000E+00
    0.86992E+01        -0.60188E+08         0.00000E+00
    0.00000E+00         0.00000E+00        -0.30263E+08
 
   -0.30228E+08        -0.56930E+04         0.00000E+00
   -0.56930E+04        -0.60181E+08         0.00000E+00
    0.00000E+00         0.00000E+00        -0.30246E+08
 
SCALARS stressS double 
LOOKUP_TABLE default
  -40078828.3848137     
  -40078183.0206256     
  -40077165.9259146     
  -40075805.2045422     
  -40074128.1166932     
  -40072160.9645938     
  -40069928.7684702     
  -40067455.4174789     
  -40064763.8478041     
  -40061875.7384249     
  -40058811.2936905     
  -40055589.0346953     
  -40052225.5559824     
  -40048735.2312879     
  -40045129.8373782     
  -40078820.6379241     
  -40078165.5682274     
  -40077130.5080861     
  -40075746.2440272     
  -40074042.5093454     
  -40072047.7998851     
  -40069789.2347386     
  -40067292.2945124     
  -40064581.2366343     
  -40061678.8565896     
  -40058606.1371757     
  -40055382.1206924     
  -40052023.6996675     
  -40048545.3507102     
  -40044958.7666364     
  -40078805.1105209     
  -40078130.8309341     
  -40077060.1720970     
  -40075629.2610520     
  -40073872.7750132     
  -40071823.7073794     
  -40069513.0633922     
  -40066969.6073217     
  -40064220.4064707     
  -40061290.2958356     
  -40058201.8248830     
  -40054975.0883167     
  -40051627.5891730     
  -40048174.0137712     
  -40044625.8969701     
  -40078781.7598279     
  -40078079.1776694     
  -40076955.9919056     
  -40075456.2956834     
  -40073622.0846287     
  -40071492.9569345     
  -40069105.9569936     
  -40066494.7871608     
  -40063690.3209326     
  -40060720.5784022     
  -40057610.4340358     
  -40054381.5873336     
  -40051052.4910244     
  -40047638.1620685     
  -40044149.8866980     
  -40078750.5617819     
  -40078011.2523362     
  -40076819.7409506     
  -40075230.6475269     
  -40073295.6771412     
  -40071063.0638951     
  -40068577.4968118     
  -40065879.4060303     
  -40063004.7802478     
  -40059985.7424036     
  -40056850.2649390     
  -40053622.2408766     
  -40050321.4137451     
  -40046963.2850579     
  -40043558.8173757     
  -40078711.5598438     
  -40077928.0614040     
  -40076654.0570191     
  -40074957.1021629     
  -40072900.7776332     
  -40070544.1229298     
  -40067940.7821652     
  -40065139.4275967     
  -40062182.7002473     
  -40059107.5802836     
  -40055946.0842889     
  -40052724.8382157     
  -40049465.2687591     
  -40046183.5406742     
  -40042890.3028773     
  -40078664.9418836     
  -40077831.1260901     
  -40076462.6576157     
  -40074642.2126852     
  -40072447.2547154     
  -40069949.0673941     
  -40067212.6466628     
  -40064295.7495578     
  -40061248.3174457     
  -40058114.0399041     
  -40054929.4436587     
  -40051724.6096590     
  -40048523.1198977     
  -40045342.0621625     
  -40042191.7580050     
  -40078611.2427536     
  -40077722.5567024     
  -40076250.5504204     
  -40074294.7402783     
  -40071948.0424519     
  -40069295.8005185     
  -40066414.8314997     
  -40063373.8653760     
  -40060232.0430647     
  -40057039.6291291     
  -40053839.0473820     
  -40050664.5610061     
  -40047542.5389213     
  -40044491.2880972     
  -40041520.7760909     
  -40078550.8428211     
  -40077605.2702349     
  -40076024.3809822     
  -40073925.9650736     
  -40071419.6728529     
  -40068605.8506713     
  -40065574.9596535     
  -40062406.5936472     
  -40059170.5833344     
  -40055925.8324101     
  -40052721.0975784     
  -40049595.9489541     
  -40046580.1126156     
  -40043693.4500560     
  -40040945.5938577     
  -40078485.2084435     
  -40077483.1238325     
  -40075792.6141672     
  -40073549.9864385     
  -40070882.1893718     
  -40067905.4048095     
  -40064724.0920559     
  -40061431.1202080     
  -40058107.4139299     
  -40054821.1894086     
  -40051629.8954650     
  -40048578.9152780     
  -40045702.1219107     
  -40043021.2997300     
  -40040545.6912861     
  -40078416.0982455     
  -40077361.2555992     
  -40075565.6967382     
  -40073183.7705786     
  -40070359.5053939     
  -40067225.1440622     
  -40063900.2765105     
  -40060491.4466440     
  -40057092.0540882     
  -40053782.3159456     
  -40050628.4819604     
  -40047683.2592330     
  -40044985.4479249     
  -40042558.9352563     
  -40040412.4508264     
  -40078345.8689186     
  -40077245.7716697     
  -40075356.0063516     
  -40072847.1171573     
  -40069879.2239764     
  -40066600.5027682     
  -40063146.1492234     
  -40059637.7975418     
  -40056182.7836656     
  -40052874.1711807     
  -40049789.2798610     
  -40046989.5303072     
  -40044518.6542739     
  -40042402.7426965     
  -40040649.6404883     
  -40078277.6438016     
  -40077143.7193976     
  -40075177.4215246     
  -40072562.1571572     
  -40069472.1058171     
  -40066070.6716855     
  -40062509.1528646     
  -40058925.4535132     
  -40055443.4020324     
  -40052170.2081271     
  -40049195.6196057     
  -40046590.1796137     
  -40044403.2141711     
  -40042662.2058237     
  -40041373.4318602     
  -40078215.1979815     
  -40077062.8566359     
  -40075044.6656228     
  -40072352.2712596     
  -40069170.8679373     
  -40065677.9223168     
  -40062041.2729939     
  -40058416.9508994     
  -40054946.4401211     
  -40051754.1141567     
  -40048942.6070726     
  -40046591.2279388     
  -40044754.6403156     
  -40043460.2093063     
  -40042711.5089650     
  -40078162.8077371     
  -40077010.9546460     
  -40074972.1950804     
  -40072240.6554024     
  -40069008.8059243     
  -40065466.4791102     
  -40061798.4731919     
  -40058180.4287428     
  -40054773.8140268     
  -40051720.7712937     
  -40049138.6809410     
  -40047114.0980849     
  -40045703.1147470     
  -40044932.4660056     
  -40044800.7579894     
  -40078124.9318088     
  -40076994.8891951     
  -40074972.5311675     
  -40072248.3133909     
  -40069017.8591545     
  -40065481.3875875     
  -40061840.3862614     
  -40058291.4747931     
  -40055017.9557856     
  -40052180.3017551     
  -40049908.3235600     
  -40048295.2209836     
  -40047394.0656065     
  -40047225.0740610     
  -40047782.9552224     
  -40078105.7555936     
  -40077019.5705968     
  -40075054.3284944     
  -40072391.7204053     
  -40069226.6523900     
  -40065767.2455537     
  -40062230.8984943     
  -40058835.3628717     
  -40055785.6799074     
  -40053259.8487104     
  -40051396.4615612     
  -40050288.5662047     
  -40049983.8210913     
  -40050490.9749133     
  -40051797.1160819     
  -40078108.8217428     
  -40077086.7610082     
  -40075220.6798993     
  -40072680.8480403     
  -40069658.8353216     
  -40066368.0273276     
  -40063039.4566969     
  -40059909.8685080     
  -40057203.0573704     
  -40055109.1643316     
  -40053768.7855914     
  -40053266.8106265     
  -40053638.2733210     
  -40054880.5417504     
  -40056972.0018129     
  -40078135.8017191     
  -40077194.6505252     
  -40075468.4579165     
  -40073118.4878002     
  -40070332.7849848     
  -40067328.1232421     
  -40064344.8345633     
  -40061631.6102135     
  -40059421.2635780     
  -40057904.5788810     
  -40057212.5747504     
  -40057413.7621613     
  -40058525.3047894     
  -40060533.6509301     
  -40063413.8199529     
  -40078188.2021109     
  -40077337.3710017     
  -40075789.7468796     
  -40073702.0532278     
  -40071264.1082758     
  -40068696.6485054     
  -40066241.8562088     
  -40064144.5954499     
  -40062624.9583595     
  -40061853.0176335     
  -40061935.1772600     
  -40062917.3744315     
  -40064801.6728978     
  -40067568.3081530     
  -40071196.1525095     
  -40078264.2460249     
  -40077511.0816155     
  -40076175.1851342     
  -40074428.9494615     
  -40072473.9703046     
  -40070537.6396127     
  -40068853.1804627     
  -40067630.7172240     
  -40067038.0269426     
  -40067190.8834685     
  -40068155.8410750     
  -40069959.2820207     
  -40072600.5812399     
  -40076067.8518255     
  -40080353.8511700     
  -40078369.0784236     
  -40077715.5816763     
  -40076626.0600303     
  -40075309.6278648     
  -40074005.4278393     
  -40072952.0172621     
  -40072347.3092927     
  -40072318.5121540     
  -40072920.2756384     
  -40074172.0524352     
  -40076090.8078046     
  -40078700.0332409     
  -40082022.4708164     
  -40086075.5217391     
  -40090877.6401711     
  -40078500.3571245     
  -40077951.9214200     
  -40077157.7382715     
  -40076393.8824335     
  -40075961.9541249     
  -40076112.4612789     
  -40076963.3572948     
  -40078480.9440368     
  -40080544.1773737     
  -40083039.4217466     
  -40085931.9029332     
  -40089268.1454987     
  -40093130.7138532     
  -40097595.3921182     
  -40102718.9587557     
  -40078658.6940261     
  -40078222.4997756     
  -40077803.1621637     
  -40077792.8590119     
  -40078563.1334426     
  -40080323.8020178     
  -40083027.1367925     
  -40086410.0529507     
  -40090144.0543283     
  -40093978.4433716     
  -40097822.6067881     
  -40101756.9529750     
  -40105958.8655544     
  -40110600.8814474     
  -40115799.4008657     
  -40078843.3075808     
  -40078544.6457341     
  -40078653.4067522     
  -40079740.0200455     
  -40082204.4991226     
  -40086055.9313753     
  -40090940.1567089     
  -40096360.7058251     
  -40101850.0514249     
  -40107061.2966647     
  -40111831.4575574     
  -40116230.3571000     
  -40120532.7382554     
  -40125057.6773555     
  -40130026.6988462     
  -40079053.0280988     
  -40078964.5666334     
  -40079936.3654191     
  -40082729.7642778     
  -40087534.9153206     
  -40093884.0128277     
  -40101076.0749906     
  -40108490.1371958     
  -40115652.9423248     
  -40122207.4539790     
  -40127912.5246702     
  -40132725.0642983     
  -40136904.7734910     
  -40140962.3756080     
  -40145316.3081088     
  -40079285.5080671     
  -40079643.9117227     
  -40082220.6675274     
  -40087682.4804309     
  -40095390.1848421     
  -40104312.1819176     
  -40113635.1318166     
  -40122805.8932268     
  -40131433.9257259     
  -40139213.9176107     
  -40145873.3547603     
  -40151189.2038228     
  -40155196.3904318     
  -40158397.2847971     
  -40161639.4760982     
  -40079609.7420379     
  -40081151.9054264     
  -40086870.7427467     
  -40095834.4158602     
  -40106418.7539769     
  -40117544.9963369     
  -40128595.4026186     
  -40139180.1780063     
  -40149015.7813549     
  -40157852.4597605     
  -40165425.5160872     
  -40171414.6583482     
  -40175453.0965886     
  -40177697.2597039     
  -40179050.5248924     
  -40080377.2699387     
  -40085761.2733049     
  -40095832.0805415     
  -40107967.7278382     
  -40120726.8986466     
  -40133455.2041214     
  -40145775.3220418     
  -40157433.7814016     
  -40168223.9434505     
  -40177940.4995791     
  -40186337.0723893     
  -40193067.7628935     
  -40197602.7615369     
  -40199016.4242919     
  -40198220.5126511     
  -40086688.0545246     
  -40096730.0068730     
  -40109917.1966032     
  -40123935.8808667     
  -40138023.7175579     
  -40151781.4837274     
  -40164967.1667454     
  -40177401.7074329     
  -40188924.8687341     
  -40199362.4257997     
  -40208489.5628968     
  -40215974.1005434     
  -40221252.0569961     
  -40223240.2092483     
  -40218442.0547328     
SCALARS 2waySource double 
LOOKUP_TABLE default
 -4.943035250301516E-009
 -4.953183128909686E-009
 -4.959531824589399E-009
 -4.961363433386985E-009
 -4.958017104483611E-009
 -4.948882908240435E-009
 -4.933393337006829E-009
 -4.911019065138304E-009
 -4.881259393561794E-009
 -4.843638912014354E-009
 -4.797705678226064E-009
 -4.743032147603316E-009
 -4.679219330341748E-009
 -4.605904078180513E-009
 -4.522769630270553E-009
 -4.923400898640980E-009
 -4.933963196592887E-009
 -4.940902046867044E-009
 -4.943469947523308E-009
 -4.940978136941709E-009
 -4.932789615598602E-009
 -4.918311637330200E-009
 -4.896991415166475E-009
 -4.868307274865188E-009
 -4.831765471287830E-009
 -4.786898734165453E-009
 -4.733267418807229E-009
 -4.670463749942439E-009
 -4.598119065084026E-009
 -4.515914183100573E-009
 -4.890092580001910E-009
 -4.901190051988521E-009
 -4.908989521856547E-009
 -4.912689358729401E-009
 -4.911548747762620E-009
 -4.904881055822125E-009
 -4.892047094267561E-009
 -4.872451158610605E-009
 -4.845533692320467E-009
 -4.810768299151375E-009
 -4.767661035398916E-009
 -4.715751892727675E-009
 -4.654619192034830E-009
 -4.583886617376676E-009
 -4.503233279082706E-009
 -4.843190224197300E-009
 -4.854950397255288E-009
 -4.863889148377845E-009
 -4.869124756792072E-009
 -4.869838926112319E-009
 -4.865271406438185E-009
 -4.854714259899728E-009
 -4.837508475898939E-009
 -4.813039099113636E-009
 -4.780732468861332E-009
 -4.740056516446703E-009
 -4.690522690017180E-009
 -4.631690365836385E-009
 -4.563173607592331E-009
 -4.484650560054435E-009
 -4.782821264481859E-009
 -4.795378498671927E-009
 -4.805743658436872E-009
 -4.812926936223954E-009
 -4.816005586918602E-009
 -4.814119884442633E-009
 -4.806469278417113E-009
 -4.792310176801121E-009
 -4.770953950555338E-009
 -4.741764700226060E-009
 -4.704160669780264E-009
 -4.657616660468118E-009
 -4.601668211730566E-009
 -4.535917843997085E-009
 -4.460043490030241E-009
 -4.709159260963310E-009
 -4.722654226417546E-009
 -4.734740207516837E-009
 -4.744289427874303E-009
 -4.750245464051347E-009
 -4.751621324403306E-009
 -4.747498698231220E-009
 -4.737026994780315E-009
 -4.719424952148155E-009
 -4.693979070148782E-009
 -4.660046316537981E-009
 -4.617056675371285E-009
 -4.564516965712025E-009
 -4.502016239131359E-009
 -4.429232838687883E-009
 -4.622421971604223E-009
 -4.637000257698176E-009
 -4.651105745137250E-009
 -4.663441018709203E-009
 -4.672784768982921E-009
 -4.677993476041764E-009
 -4.678004212344025E-009
 -4.671836644343605E-009
 -4.658596834130730E-009
 -4.637478397072853E-009
 -4.607765115953997E-009
 -4.568833818783965E-009
 -4.520157539234338E-009
 -4.461309662044610E-009
 -4.391969307644248E-009
 -4.522869468315843E-009
 -4.538678446664443E-009
 -4.555100686911079E-009
 -4.570636058090142E-009
 -4.583866036993561E-009
 -4.593460209646634E-009
 -4.598183418007674E-009
 -4.596902030022615E-009
 -4.588589758371987E-009
 -4.572331269455179E-009
 -4.547325006522972E-009
 -4.512885853422784E-009
 -4.468447454029994E-009
 -4.413564795757830E-009
 -4.347917655404421E-009
 -4.410801456077012E-009
 -4.427985192772882E-009
 -4.447010296082521E-009
 -4.466141588700239E-009
 -4.483730831280110E-009
 -4.498230349004723E-009
 -4.508205501572512E-009
 -4.512345657230582E-009
 -4.509472279464719E-009
 -4.498544961204461E-009
 -4.478663807600679E-009
 -4.449072131961670E-009
 -4.409157561082714E-009
 -4.358453160494381E-009
 -4.296638632943413E-009
 -4.286554594051276E-009
 -4.305245332267572E-009
 -4.327134102737910E-009
 -4.350220805000706E-009
 -4.372598086774830E-009
 -4.392472063461360E-009
 -4.408182593625166E-009
 -4.418218864070431E-009
 -4.421230518785546E-009
 -4.416034695903898E-009
 -4.401619375794185E-009
 -4.377145114050156E-009
 -4.341945638174405E-009
 -4.295527639966013E-009
 -4.237569356135480E-009
 -4.150498817843781E-009
 -4.170804836667226E-009
 -4.195771886124229E-009
 -4.223113449717230E-009
 -4.250638675459901E-009
 -4.276283205260184E-009
 -4.298137594192331E-009
 -4.314468669683305E-009
 -4.323733884617295E-009
 -4.324589882396684E-009
 -4.315896475965548E-009
 -4.296718619963136E-009
 -4.266327031242345E-009
 -4.224196763022848E-009
 -4.170002951994703E-009
 -4.003033453150068E-009
 -4.025021937129014E-009
 -4.053208451235983E-009
 -4.085012639667884E-009
 -4.117946736194022E-009
 -4.149658435097207E-009
 -4.177968890041381E-009
 -4.200901126479695E-009
 -4.216698753191415E-009
 -4.223837365732173E-009
 -4.221030418388126E-009
 -4.207232852318417E-009
 -4.181642352935732E-009
 -4.143697464862018E-009
 -4.093068961139026E-009
 -3.844583079331806E-009
 -3.868257753338157E-009
 -3.899697013196949E-009
 -3.936041537233588E-009
 -3.974510059026518E-009
 -4.012455483791839E-009
 -4.047414072831626E-009
 -4.077143508038793E-009
 -4.099649293171774E-009
 -4.113201861208475E-009
 -4.116347580819995E-009
 -4.107915877782945E-009
 -4.087022809205805E-009
 -4.053067595854157E-009
 -4.005717108422776E-009
 -3.675593241002437E-009
 -3.700868189458666E-009
 -3.735445351917256E-009
 -3.776232740217197E-009
 -3.820183730022449E-009
 -3.864364040289071E-009
 -3.906015035920992E-009
 -3.942606527216668E-009
 -3.971877023578655E-009
 -3.991863278694739E-009
 -4.000921522703129E-009
 -3.997741727369243E-009
 -3.981354053794625E-009
 -3.951120813542916E-009
 -3.906708585643521E-009
 -3.496526565637914E-009
 -3.523200213257698E-009
 -3.560609928334551E-009
 -3.605518815185841E-009
 -3.654674245888332E-009
 -3.704882331685869E-009
 -3.753087168895170E-009
 -3.796446363253399E-009
 -3.832396922052786E-009
 -3.858708472417646E-009
 -3.873523861329275E-009
 -3.875385263447310E-009
 -3.863241214307690E-009
 -3.836428479972722E-009
 -3.794620770267579E-009
 -3.307860503174731E-009
 -3.335595998275251E-009
 -3.375306416705385E-009
 -3.423742329096561E-009
 -3.477542985928694E-009
 -3.533308656934187E-009
 -3.587696080058705E-009
 -3.637527188183001E-009
 -3.679898100432390E-009
 -3.712275108914743E-009
 -3.732568422529266E-009
 -3.739174832144641E-009
 -3.730979983184493E-009
 -3.707315601180449E-009
 -3.667872739301110E-009
 -3.110087205177399E-009
 -3.138409840643573E-009
 -3.179643556976617E-009
 -3.230697390686000E-009
 -3.288240709915972E-009
 -3.348756449152549E-009
 -3.408646442729242E-009
 -3.464383204266131E-009
 -3.512685120433319E-009
 -3.550683217364073E-009
 -3.576047352703987E-009
 -3.587047910593861E-009
 -3.582540787735182E-009
 -3.561880158923316E-009
 -3.524778687134158E-009
 -2.903716442305351E-009
 -2.932039376188017E-009
 -2.973785332609253E-009
 -3.026210213754670E-009
 -3.086184058766809E-009
 -3.150203030109877E-009
 -3.214487745035541E-009
 -3.275179355676714E-009
 -3.328605696684883E-009
 -3.371552060471354E-009
 -3.401462111444981E-009
 -3.416516243564873E-009
 -3.415578566491303E-009
 -3.398043965875431E-009
 -3.363632960223986E-009
 -2.689281582443950E-009
 -2.716965806663365E-009
 -2.758035310769963E-009
 -2.810256938738093E-009
 -2.870878435909226E-009
 -2.936580704725778E-009
 -3.003543684721390E-009
 -3.067672788109945E-009
 -3.124964765161533E-009
 -3.171905609138529E-009
 -3.205759269418124E-009
 -3.224654804183008E-009
 -3.227477443514350E-009
 -3.213640172040247E-009
 -3.182821625425644E-009
 -2.467349031280808E-009
 -2.493793441677595E-009
 -2.532923024743851E-009
 -2.583097667445054E-009
 -2.642074776066508E-009
 -2.706908334611574E-009
 -2.773971663384607E-009
 -2.839184564275995E-009
 -2.898438936772661E-009
 -2.948086911929415E-009
 -2.985293789750406E-009
 -3.008131522787099E-009
 -3.015434167836124E-009
 -3.006527862627169E-009
 -2.980944503604768E-009
 -2.238528902947003E-009
 -2.263275322069912E-009
 -2.299260108534326E-009
 -2.345379557583494E-009
 -2.399912308045532E-009
 -2.460433626194263E-009
 -2.523851494839462E-009
 -2.586611979784539E-009
 -2.645042569324634E-009
 -2.695735960669488E-009
 -2.735857771161421E-009
 -2.763288038361179E-009
 -2.776569043569013E-009
 -2.774707879029569E-009
 -2.756921661316640E-009
 -2.003490685354517E-009
 -2.026314451076382E-009
 -2.058136019491026E-009
 -2.098139223594506E-009
 -2.144945087693235E-009
 -2.196694219359126E-009
 -2.251281110918562E-009
 -2.306552770069636E-009
 -2.360269655242757E-009
 -2.409935115200242E-009
 -2.452815724565914E-009
 -2.486255478516049E-009
 -2.508019573026514E-009
 -2.516398145026456E-009
 -2.510055430554079E-009
 -1.762985382086557E-009
 -1.783949316074005E-009
 -1.810830679873186E-009
 -1.842624619489855E-009
 -1.877892636867146E-009
 -1.915319556367351E-009
 -1.954420466932089E-009
 -1.995668681413528E-009
 -2.039632753992347E-009
 -2.085681708133903E-009
 -2.131379060493578E-009
 -2.173053415383980E-009
 -2.206947452795869E-009
 -2.230016041973548E-009
 -2.240027107044807E-009
 -1.517886036441729E-009
 -1.537343002076264E-009
 -1.558643783415861E-009
 -1.579833882828773E-009
 -1.598913495036523E-009
 -1.615377730760702E-009
 -1.631424513759522E-009
 -1.651428015246739E-009
 -1.679841329465536E-009
 -1.718873346304171E-009
 -1.767063433791329E-009
 -1.819610582027161E-009
 -1.870375145659327E-009
 -1.914016479728641E-009
 -1.946819328703652E-009
 -1.269258965659720E-009
 -1.287791568684728E-009
 -1.302567572691115E-009
 -1.309585560198401E-009
 -1.306238935695160E-009
 -1.294320224023528E-009
 -1.280397592817292E-009
 -1.273160596498020E-009
 -1.280544519570931E-009
 -1.307953484687848E-009
 -1.356535611342217E-009
 -1.421752439819994E-009
 -1.494784855520759E-009
 -1.566514926747416E-009
 -1.630565911942285E-009
 -1.018510355724833E-009
 -1.036694139616730E-009
 -1.042458988174302E-009
 -1.028652585325435E-009
 -9.943310833925556E-010
 -9.473715349299882E-010
 -8.998520483103989E-010
 -8.628515546565949E-010
 -8.456857542443331E-010
 -8.561068819375521E-010
 -8.994520249358512E-010
 -9.756325678936097E-010
 -1.075465058118850E-009
 -1.184570110111823E-009
 -1.291306343378653E-009
 -7.676470047037107E-010
 -7.851520478663196E-010
 -7.744978609616853E-010
 -7.274742132691689E-010
 -6.529799712990063E-010
 -5.691412043777548E-010
 -4.897504900147164E-010
 -4.248700178923184E-010
 -3.829822055611780E-010
 -3.724804161334164E-010
 -4.022245818148406E-010
 -4.800367296795259E-010
 -6.061441484187125E-010
 -7.626432503340592E-010
 -9.287233339169260E-010
 -5.199653433100742E-010
 -5.309874692335869E-010
 -4.845828631667573E-010
 -3.869735454030778E-010
 -2.718763101160702E-010
 -1.569235971854466E-010
 -5.206898991262037E-011
  3.539452620911430E-011
  9.862902670992479E-011
  1.299743366936407E-010
  1.197183531311159E-010
  5.482113196429168E-011
 -8.026781087023023E-011
 -2.903747057819977E-010
 -5.414777628718030E-010
 -2.778275725462705E-010
 -2.576899248499312E-010
 -1.342272338273282E-010
  9.113064399188878E-012
  1.525362041790580E-010
  2.880281610826370E-010
  4.099404301297332E-010
  5.130200420424220E-010
  5.916714962798152E-010
  6.392784212748037E-010
  6.471608767300271E-010
  6.025693373995566E-010
  4.845697450212838E-010
  2.581744362277616E-010
 -1.315405315461230E-010
 -4.562906848426926E-011
  1.310677466669053E-010
  2.990795544042237E-010
  4.615206449330444E-010
  6.172519436175320E-010
  7.625102507914453E-010
  8.930478929273527E-010
  1.004300906612020E-009
  1.091186629765419E-009
  1.147667703245861E-009
  1.165977671542186E-009
  1.135103608067662E-009
  1.037041349576799E-009
  8.342385244013245E-010
  3.838323404865990E-010
SCALARS poroP double 
LOOKUP_TABLE default
  1.813678486777144E-005
  1.814452782342624E-005
  1.814781701736511E-005
  1.814658667998463E-005
  1.814074120415806E-005
  1.813017017105865E-005
  1.811475663886264E-005
  1.809439113609017E-005
  1.806898831507047E-005
  1.803849010799152E-005
  1.800287183342397E-005
  1.796214854455678E-005
  1.791638077777800E-005
  1.786567945113925E-005
  1.781020904087062E-005
  1.813509749977247E-005
  1.814283357422323E-005
  1.814612243494848E-005
  1.814490119915378E-005
  1.813907742837309E-005
  1.812854426556606E-005
  1.811318968214725E-005
  1.809290625438010E-005
  1.806760875334939E-005
  1.803724010850727E-005
  1.800177558204365E-005
  1.796122940544680E-005
  1.791566080797066E-005
  1.786517914129263E-005
  1.780994736548638E-005
  1.813170235665525E-005
  1.813942431877161E-005
  1.814271321457015E-005
  1.814151180790666E-005
  1.813573418818204E-005
  1.812528032576054E-005
  1.811004659263852E-005
  1.808993002967521E-005
  1.806484648117723E-005
  1.803474032515748E-005
  1.799958626054400E-005
  1.795939678435714E-005
  1.791422856675416E-005
  1.786418795711877E-005
  1.780943475096054E-005
  1.812655815473312E-005
  1.813425833093634E-005
  1.813754937520016E-005
  1.813638211886028E-005
  1.813068030011183E-005
  1.812035416489178E-005
  1.810530915118000E-005
  1.808545000772847E-005
  1.806069601313401E-005
  1.803099163002372E-005
  1.799631037266652E-005
  1.795666198063498E-005
  1.791209933733305E-005
  1.786272440117565E-005
  1.780869247022301E-005
  1.811960200090059E-005
  1.812727250202708E-005
  1.813057098312767E-005
  1.812945824622076E-005
  1.812386976607181E-005
  1.811372721060485E-005
  1.809894878757616E-005
  1.807944939882877E-005
  1.805515035310957E-005
  1.802599596209151E-005
  1.799195776698103E-005
  1.795304171233881E-005
  1.790929568972462E-005
  1.786081599865331E-005
  1.780775248531197E-005
  1.811074860057497E-005
  1.811838194668495E-005
  1.812169808436600E-005
  1.812066865398156E-005
  1.811524230834060E-005
  1.810535255826438E-005
  1.809093177515384E-005
  1.807190724412405E-005
  1.804820125599749E-005
  1.801975630758007E-005
  1.798654144820036E-005
  1.794855776893362E-005
  1.790584702165742E-005
  1.785849906804816E-005
  1.780665757029512E-005
  1.809988972320806E-005
  1.810747996845909E-005
  1.811083126207477E-005
  1.810992546155431E-005
  1.810472456609805E-005
  1.809517608193072E-005
  1.808122133869038E-005
  1.806279998593648E-005
  1.803983938599703E-005
  1.801227658431571E-005
  1.798007731435025E-005
  1.794323647413621E-005
  1.790178901211561E-005
  1.785581810977461E-005
  1.780546107123234E-005
  1.808689548713566E-005
  1.809443909457709E-005
  1.809785316289331E-005
  1.809712674874761E-005
  1.809223355749314E-005
  1.808313295920727E-005
  1.806977416922512E-005
  1.805210342575780E-005
  1.803005467305363E-005
  1.800356192297914E-005
  1.797258340654020E-005
  1.793710755479376E-005
  1.789716257628469E-005
  1.785282526011325E-005
  1.780422712868173E-005
  1.807161732203203E-005
  1.807911421920914E-005
  1.808263107827330E-005
  1.808215886191903E-005
  1.807767741744423E-005
  1.806915382829967E-005
  1.805654019413942E-005
  1.803978747958334E-005
  1.801883692571298E-005
  1.799361704255105E-005
  1.796407787412415E-005
  1.793020230137042E-005
  1.789201258204205E-005
  1.784957988875558E-005
  1.780303110399140E-005
  1.805388731819450E-005
  1.806134673246575E-005
  1.806502193281486E-005
  1.806489930169935E-005
  1.806095755647424E-005
  1.805316382872261E-005
  1.804147086605535E-005
  1.802582475593493E-005
  1.800617201315852E-005
  1.798244233336217E-005
  1.795457583370148E-005
  1.792255141513056E-005
  1.788638653768757E-005
  1.784614822031730E-005
  1.780195990918061E-005
  1.803352958993714E-005
  1.804096895055008E-005
  1.804487740485698E-005
  1.804522200780404E-005
  1.804197154473215E-005
  1.803508477656033E-005
  1.802450832447511E-005
  1.801017880056983E-005
  1.799203966958789E-005
  1.797002980006250E-005
  1.794408648354456E-005
  1.791418233014309E-005
  1.788033314527300E-005
  1.784260313386395E-005
  1.780111260303395E-005
  1.801037442467304E-005
  1.801781697463586E-005
  1.802205027221188E-005
  1.802300222193529E-005
  1.802061581245429E-005
  1.801483237619321E-005
  1.800558439826240E-005
  1.799279712627709E-005
  1.797640511233701E-005
  1.795636002700108E-005
  1.793260781251902E-005
  1.790511610398208E-005
  1.787390114345711E-005
  1.783902430903221E-005
  1.780060083257437E-005
  1.798427517514286E-005
  1.799174706856186E-005
  1.799640650111614E-005
  1.799812040653711E-005
  1.799678585381681E-005
  1.799231313779725E-005
  1.798461527067839E-005
  1.797360775745294E-005
  1.795921596071299E-005
  1.794139617517929E-005
  1.792012087288947E-005
  1.789536459269642E-005
  1.786713849531633E-005
  1.783549883188244E-005
  1.780054900473495E-005
  1.795513135861431E-005
  1.796265359459412E-005
  1.796783933361241E-005
  1.797046935941862E-005
  1.797037522302944E-005
  1.796742103864241E-005
  1.796149484959104E-005
  1.795250443772622E-005
  1.794037825497855E-005
  1.792507439562836E-005
  1.790658981518759E-005
  1.788492765149350E-005
  1.786009256201316E-005
  1.783212196674873E-005
  1.780109366319159E-005
  1.792291649664659E-005
  1.793049098546105E-005
  1.793628317704257E-005
  1.793996230617381E-005
  1.794127541728001E-005
  1.794002985529492E-005
  1.793608418509071E-005
  1.792934300326563E-005
  1.791975118809142E-005
  1.790728637682312E-005
  1.789195769402329E-005
  1.787379568660028E-005
  1.785281023034292E-005
  1.782899734126464E-005
  1.780238136221898E-005
  1.788770814648201E-005
  1.789529757957444E-005
  1.790172896111963E-005
  1.790653953527961E-005
  1.790937714575105E-005
  1.790998649522352E-005
  1.790820027947744E-005
  1.790392927133247E-005
  1.789714739470793E-005
  1.788787049535424E-005
  1.787613014627765E-005
  1.786195318255827E-005
  1.784534048982469E-005
  1.782623571045310E-005
  1.780456371839254E-005
  1.784971581850271E-005
  1.785721840763634E-005
  1.786423954328895E-005
  1.787017565227449E-005
  1.787457071948798E-005
  1.787710945927994E-005
  1.787761010499535E-005
  1.787600782306285E-005
  1.787232457165271E-005
  1.786662579717173E-005
  1.785897004062378E-005
  1.784936319224626E-005
  1.783773871727515E-005
  1.782395130889342E-005
  1.780778885190907E-005
  1.780930125387592E-005
  1.781652230354442E-005
  1.782396329170306E-005
  1.783088864598722E-005
  1.783674990525985E-005
  1.784118829809375E-005
  1.784403097173191E-005
  1.784526531680728E-005
  1.784498471173370E-005
  1.784331226353320E-005
  1.784031931861125E-005
  1.783596050808959E-005
  1.783004333367460E-005
  1.782225354823841E-005
  1.781218704439924E-005
  1.776697994949632E-005
  1.777360846394696E-005
  1.778114377850150E-005
  1.778875054000590E-005
  1.779582154521157E-005
  1.780199156531031E-005
  1.780713887900340E-005
  1.781134269174047E-005
  1.781479189796396E-005
  1.781766354663443E-005
  1.782000682527047E-005
  1.782166572549618E-005
  1.782225797032766E-005
  1.782121431361173E-005
  1.781785650830463E-005
  1.772341921264421E-005
  1.772899691703262E-005
  1.773611974772347E-005
  1.774389764480564E-005
  1.775172100792706E-005
  1.775928785649593E-005
  1.776659647310831E-005
  1.777386967040408E-005
  1.778140704769006E-005
  1.778941122557414E-005
  1.779784669412579E-005
  1.780636978429724E-005
  1.781433143273604E-005
  1.782083396261730E-005
  1.782483581646947E-005
  1.767940281117479E-005
  1.768331459466473E-005
  1.768931524007416E-005
  1.769653247778149E-005
  1.770443329471170E-005
  1.771288554369579E-005
  1.772211231275307E-005
  1.773253438353835E-005
  1.774454851561430E-005
  1.775831630347392E-005
  1.777363257082712E-005
  1.778988963972132E-005
  1.780610819779744E-005
  1.782100190767883E-005
  1.783307881920288E-005
  1.763568510034942E-005
  1.763722061204088E-005
  1.764122104065680E-005
  1.764692109038366E-005
  1.765401657245108E-005
  1.766270338231512E-005
  1.767354788309129E-005
  1.768719731843135E-005
  1.770407542167677E-005
  1.772419733384475E-005
  1.774711102861579E-005
  1.777190823380926E-005
  1.779725784782206E-005
  1.782144440816835E-005
  1.784243467034302E-005
  1.759299231318346E-005
  1.759129012264575E-005
  1.759227610952495E-005
  1.759536296142685E-005
  1.760065264521553E-005
  1.760889073171490E-005
  1.762108763005915E-005
  1.763804576267384E-005
  1.766007389486419E-005
  1.768694006368355E-005
  1.771793496024387E-005
  1.775190028386841E-005
  1.778719742252735E-005
  1.782166532829965E-005
  1.785262704555678E-005
  1.755197011691127E-005
  1.754598133317547E-005
  1.754277085407049E-005
  1.754209105814708E-005
  1.754469851121788E-005
  1.755203020563031E-005
  1.756546231920752E-005
  1.758574363556085E-005
  1.761291160007566E-005
  1.764648645805348E-005
  1.768562055344174E-005
  1.772907031975544E-005
  1.777502090442563E-005
  1.782089203903374E-005
  1.786324188077120E-005
  1.751308246197903E-005
  1.750152031901906E-005
  1.749278601554152E-005
  1.748731224527651E-005
  1.748683014059282E-005
  1.749334489918478E-005
  1.750811461434098E-005
  1.753148803549118E-005
  1.756323540295320E-005
  1.760283679471605E-005
  1.764956261400318E-005
  1.770234855006404E-005
  1.775945875737549E-005
  1.781801780140946E-005
  1.787370403490893E-005
  1.747651984714965E-005
  1.745774279356103E-005
  1.744215736723403E-005
  1.743147505309310E-005
  1.742843403366546E-005
  1.743481716698036E-005
  1.745103525268554E-005
  1.747684860748530E-005
  1.751195710484194E-005
  1.755614538423579E-005
  1.760916924187595E-005
  1.767050196154542E-005
  1.773888158177707E-005
  1.781153630509757E-005
  1.788324795872113E-005
  1.744203971347951E-005
  1.741400361280309E-005
  1.739081843394287E-005
  1.737596520240785E-005
  1.737190164119384E-005
  1.737887973929015E-005
  1.739622693620852E-005
  1.742338614877203E-005
  1.746022089587530E-005
  1.750699221810755E-005
  1.756421054763758E-005
  1.763237931909543E-005
  1.771141439910601E-005
  1.779941788166572E-005
  1.789084868768454E-005
  1.740878322063910E-005
  1.736952500200744E-005
  1.734025079760010E-005
  1.732379004328144E-005
  1.731998512475909E-005
  1.732744415868284E-005
  1.734506410796593E-005
  1.737234557457528E-005
  1.740934462021226E-005
  1.745666115343481E-005
  1.751547297884399E-005
  1.758753005387780E-005
  1.767503841606463E-005
  1.777906940067824E-005
  1.789502179447799E-005
  1.737491811753202E-005
  1.732650915936510E-005
  1.729481431692122E-005
  1.727809403463189E-005
  1.727412439625794E-005
  1.728111398488232E-005
  1.729807132133891E-005
  1.732457311093026E-005
  1.736070217053688E-005
  1.740711553370326E-005
  1.746524762226413E-005
  1.753769246968011E-005
  1.762876304532668E-005
  1.774597551600349E-005
  1.789360068519313E-005
  1.734784586329147E-005
  1.729236631315653E-005
  1.725752771271282E-005
  1.723922640755045E-005
  1.723389960416822E-005
  1.723964414131052E-005
  1.725541072217609E-005
  1.728071120996831E-005
  1.731554010708109E-005
  1.736044992263490E-005
  1.741680007846896E-005
  1.748731176563905E-005
  1.757733407956286E-005
  1.769777602371792E-005
  1.787982257281674E-005
SCALARS elementIsPlast double 
LOOKUP_TABLE default
   1.00000000000000     
   1.00000000000000     
   1.00000000000000     
   1.00000000000000     
   1.00000000000000     
   1.00000000000000     
   1.00000000000000     
   1.00000000000000     
   1.00000000000000     
   1.00000000000000     
   1.00000000000000     
   1.00000000000000     
   1.00000000000000     
   1.00000000000000     
   1.00000000000000     
   1.00000000000000     
   1.00000000000000     
   1.00000000000000     
   1.00000000000000     
   1.00000000000000     
   1.00000000000000     
   1.00000000000000     
   1.00000000000000     
   1.00000000000000     
   1.00000000000000     
   1.00000000000000     
   1.00000000000000     
   1.00000000000000     
   1.00000000000000     
   1.00000000000000     
   1.00000000000000     
   1.00000000000000     
   1.00000000000000     
   1.00000000000000     
   1.00000000000000     
   1.00000000000000     
   1.00000000000000     
   1.00000000000000     
   1.00000000000000     
   1.00000000000000     
   1.00000000000000     
   1.00000000000000     
   1.00000000000000     
   1.00000000000000     
   1.00000000000000     
   1.00000000000000     
   1.00000000000000     
   1.00000000000000     
   1.00000000000000     
   1.00000000000000     
   1.00000000000000     
   1.00000000000000     
   1.00000000000000     
   1.00000000000000     
   1.00000000000000     
   1.00000000000000     
   1.00000000000000     
   1.00000000000000     
   1.00000000000000     
   1.00000000000000     
   1.00000000000000     
   1.00000000000000     
   1.00000000000000     
   1.00000000000000     
   1.00000000000000     
   1.00000000000000     
   1.00000000000000     
   1.00000000000000     
   1.00000000000000     
   1.00000000000000     
   1.00000000000000     
   1.00000000000000     
   1.00000000000000     
   1.00000000000000     
   1.00000000000000     
   1.00000000000000     
   1.00000000000000     
   1.00000000000000     
   1.00000000000000     
   1.00000000000000     
   1.00000000000000     
   1.00000000000000     
   1.00000000000000     
   1.00000000000000     
   1.00000000000000     
   1.00000000000000     
   1.00000000000000     
   1.00000000000000     
   1.00000000000000     
   1.00000000000000     
   1.00000000000000     
   1.00000000000000     
   1.00000000000000     
   1.00000000000000     
   1.00000000000000     
   1.00000000000000     
   1.00000000000000     
   1.00000000000000     
   1.00000000000000     
   1.00000000000000     
   1.00000000000000     
   1.00000000000000     
   1.00000000000000     
   1.00000000000000     
   1.00000000000000     
   1.00000000000000     
   1.00000000000000     
   1.00000000000000     
   1.00000000000000     
   1.00000000000000     
   1.00000000000000     
   1.00000000000000     
   1.00000000000000     
   1.00000000000000     
   1.00000000000000     
   1.00000000000000     
   1.00000000000000     
   1.00000000000000     
   1.00000000000000     
   1.00000000000000     
   1.00000000000000     
   1.00000000000000     
   1.00000000000000     
   1.00000000000000     
   1.00000000000000     
   1.00000000000000     
   1.00000000000000     
   1.00000000000000     
   1.00000000000000     
   1.00000000000000     
   1.00000000000000     
   1.00000000000000     
   1.00000000000000     
   1.00000000000000     
   1.00000000000000     
   1.00000000000000     
   1.00000000000000     
   1.00000000000000     
   1.00000000000000     
   1.00000000000000     
   1.00000000000000     
   1.00000000000000     
   1.00000000000000     
   1.00000000000000     
   1.00000000000000     
   1.00000000000000     
   1.00000000000000     
   1.00000000000000     
   1.00000000000000     
   1.00000000000000     
   1.00000000000000     
   1.00000000000000     
   1.00000000000000     
   1.00000000000000     
   1.00000000000000     
   1.00000000000000     
   1.00000000000000     
   1.00000000000000     
   1.00000000000000     
   1.00000000000000     
   1.00000000000000     
   1.00000000000000     
   1.00000000000000     
   1.00000000000000     
   1.00000000000000     
   1.00000000000000     
   1.00000000000000     
   1.00000000000000     
   1.00000000000000     
   1.00000000000000     
   1.00000000000000     
   1.00000000000000     
   1.00000000000000     
   1.00000000000000     
   1.00000000000000     
   1.00000000000000     
   1.00000000000000     
   1.00000000000000     
   1.00000000000000     
   1.00000000000000     
   1.00000000000000     
   1.00000000000000     
   1.00000000000000     
   1.00000000000000     
   1.00000000000000     
   1.00000000000000     
   1.00000000000000     
   1.00000000000000     
   1.00000000000000     
   1.00000000000000     
   1.00000000000000     
   1.00000000000000     
   1.00000000000000     
   1.00000000000000     
   1.00000000000000     
   1.00000000000000     
   1.00000000000000     
   1.00000000000000     
   1.00000000000000     
   1.00000000000000     
   1.00000000000000     
   1.00000000000000     
   1.00000000000000     
   1.00000000000000     
   1.00000000000000     
   1.00000000000000     
   1.00000000000000     
   1.00000000000000     
   1.00000000000000     
   1.00000000000000     
   1.00000000000000     
   1.00000000000000     
   1.00000000000000     
   1.00000000000000     
   1.00000000000000     
   1.00000000000000     
   1.00000000000000     
   1.00000000000000     
   1.00000000000000     
   1.00000000000000     
   1.00000000000000     
   1.00000000000000     
   1.00000000000000     
   1.00000000000000     
   1.00000000000000     
   1.00000000000000     
   1.00000000000000     
   1.00000000000000     
   1.00000000000000     
   1.00000000000000     
   1.00000000000000     
   1.00000000000000     
   1.00000000000000     
   1.00000000000000     
   1.00000000000000     
   1.00000000000000     
   1.00000000000000     
   1.00000000000000     
   1.00000000000000     
   1.00000000000000     
   1.00000000000000     
   1.00000000000000     
   1.00000000000000     
   1.00000000000000     
   1.00000000000000     
   1.00000000000000     
   1.00000000000000     
   1.00000000000000     
   1.00000000000000     
   1.00000000000000     
   1.00000000000000     
   1.00000000000000     
   1.00000000000000     
   1.00000000000000     
   1.00000000000000     
   1.00000000000000     
   1.00000000000000     
   1.00000000000000     
   1.00000000000000     
   1.00000000000000     
   1.00000000000000     
   1.00000000000000     
   1.00000000000000     
   1.00000000000000     
   1.00000000000000     
   1.00000000000000     
   1.00000000000000     
   1.00000000000000     
   1.00000000000000     
   1.00000000000000     
   1.00000000000000     
   1.00000000000000     
   1.00000000000000     
   1.00000000000000     
   1.00000000000000     
   1.00000000000000     
   1.00000000000000     
   1.00000000000000     
   1.00000000000000     
   1.00000000000000     
   1.00000000000000     
   1.00000000000000     
   1.00000000000000     
   1.00000000000000     
   1.00000000000000     
   1.00000000000000     
   1.00000000000000     
   1.00000000000000     
   1.00000000000000     
   1.00000000000000     
   1.00000000000000     
   1.00000000000000     
   1.00000000000000     
   1.00000000000000     
   1.00000000000000     
   1.00000000000000     
   1.00000000000000     
   1.00000000000000     
   1.00000000000000     
   1.00000000000000     
   1.00000000000000     
   1.00000000000000     
   1.00000000000000     
   1.00000000000000     
   1.00000000000000     
   1.00000000000000     
   1.00000000000000     
   1.00000000000000     
   1.00000000000000     
   1.00000000000000     
   1.00000000000000     
   1.00000000000000     
   1.00000000000000     
   1.00000000000000     
   1.00000000000000     
   1.00000000000000     
   1.00000000000000     
   1.00000000000000     
   1.00000000000000     
   1.00000000000000     
   1.00000000000000     
   1.00000000000000     
   1.00000000000000     
   1.00000000000000     
   1.00000000000000     
   1.00000000000000     
   1.00000000000000     
   1.00000000000000     
   1.00000000000000     
   1.00000000000000     
   1.00000000000000     
   1.00000000000000     
   1.00000000000000     
   1.00000000000000     
   1.00000000000000     
   1.00000000000000     
   1.00000000000000     
   1.00000000000000     
   1.00000000000000     
   1.00000000000000     
   1.00000000000000     
   1.00000000000000     
   1.00000000000000     
   1.00000000000000     
   1.00000000000000     
   1.00000000000000     
   1.00000000000000     
   1.00000000000000     
   1.00000000000000     
   1.00000000000000     
   1.00000000000000     
   1.00000000000000     
   1.00000000000000     
   1.00000000000000     
   1.00000000000000     
   1.00000000000000     
   1.00000000000000     
   1.00000000000000     
   1.00000000000000     
   1.00000000000000     
   1.00000000000000     
   1.00000000000000     
   1.00000000000000     
   1.00000000000000     
   1.00000000000000     
   1.00000000000000     
   1.00000000000000     
   1.00000000000000     
   1.00000000000000     
   1.00000000000000     
   1.00000000000000     
   1.00000000000000     
   1.00000000000000     
   1.00000000000000     
   1.00000000000000     
   1.00000000000000     
   1.00000000000000     
   1.00000000000000     
   1.00000000000000     
   1.00000000000000     
   1.00000000000000     
   1.00000000000000     
   1.00000000000000     
   1.00000000000000     
   1.00000000000000     
   1.00000000000000     
   1.00000000000000     
   1.00000000000000     
   1.00000000000000     
   1.00000000000000     
   1.00000000000000     
   1.00000000000000     
   1.00000000000000     
   1.00000000000000     
   1.00000000000000     
   1.00000000000000     
   1.00000000000000     
   1.00000000000000     
   1.00000000000000     
   1.00000000000000     
   1.00000000000000     
   1.00000000000000     
   1.00000000000000     
   1.00000000000000     
   1.00000000000000     
   1.00000000000000     
   1.00000000000000     
   1.00000000000000     
   1.00000000000000     
   1.00000000000000     
   1.00000000000000     
   1.00000000000000     
   1.00000000000000     
   1.00000000000000     
   1.00000000000000     
   1.00000000000000     
   1.00000000000000     
   1.00000000000000     
   1.00000000000000     
   1.00000000000000     
   1.00000000000000     
   1.00000000000000     
   1.00000000000000     
   1.00000000000000     
   1.00000000000000     
   1.00000000000000     
   1.00000000000000     
   1.00000000000000     
   1.00000000000000     
   1.00000000000000     
   1.00000000000000     
   1.00000000000000     
   1.00000000000000     
   1.00000000000000     
   1.00000000000000     
   1.00000000000000     
   1.00000000000000     
   1.00000000000000     
   1.00000000000000     
   1.00000000000000     
   1.00000000000000     
   1.00000000000000     
   1.00000000000000     
   1.00000000000000     
   1.00000000000000     
   1.00000000000000     
   1.00000000000000     
   1.00000000000000     
   1.00000000000000     
   1.00000000000000     
SCALARS poroL double 
LOOKUP_TABLE default
  0.155786761405924     
  0.155786774113184     
  0.155786785226120     
  0.155786794462785     
  0.155786801517885     
  0.155786806078682     
  0.155786807835776     
  0.155786806495938     
  0.155786801797392     
  0.155786793515313     
  0.155786781469605     
  0.155786765532853     
  0.155786745637945     
  0.155786721785233     
  0.155786694048603     
  0.155786759777514     
  0.155786772552551     
  0.155786783803349     
  0.155786793230214     
  0.155786800511994     
  0.155786805322642     
  0.155786807341523     
  0.155786806265216     
  0.155786801821900     
  0.155786793779159     
  0.155786781950850     
  0.155786766204730     
  0.155786746470086     
  0.155786722744913     
  0.155786695102227     
  0.155786756500546     
  0.155786769409240     
  0.155786780933910     
  0.155786790739427     
  0.155786798473139     
  0.155786803781228     
  0.155786806321567     
  0.155786805769940     
  0.155786801833985     
  0.155786794267045     
  0.155786782870365     
  0.155786767501869     
  0.155786748083591     
  0.155786724608910     
  0.155786697148891     
  0.155786751534071     
  0.155786764638691     
  0.155786776569564     
  0.155786786938349     
  0.155786795345749     
  0.155786801397412     
  0.155786804713826     
  0.155786804940495     
  0.155786801759213     
  0.155786794898908     
  0.155786784141754     
  0.155786769330575     
  0.155786750376312     
  0.155786727265409     
  0.155786700066347     
  0.155786744815387     
  0.155786758172850     
  0.155786770636742     
  0.155786781747719     
  0.155786791043530     
  0.155786798074818     
  0.155786802416033     
  0.155786803671081     
  0.155786801484439     
  0.155786795553322     
  0.155786785634102     
  0.155786771548934     
  0.155786753193837     
  0.155786730545870     
  0.155786703670552     
  0.155786736258871     
  0.155786749919095     
  0.155786763035207     
  0.155786775059195     
  0.155786785450637     
  0.155786793688897     
  0.155786799293706     
  0.155786801817951     
  0.155786800855919     
  0.155786796065648     
  0.155786787169908     
  0.155786773964979     
  0.155786756327791     
  0.155786734223866     
  0.155786707714949     
  0.155786725754858     
  0.155786739759039     
  0.155786753636955     
  0.155786766734499     
  0.155786778417805     
  0.155786788086046     
  0.155786795180590     
  0.155786799196805     
  0.155786799677893     
  0.155786796224830     
  0.155786788522376     
  0.155786776334040     
  0.155786759513373     
  0.155786738012112     
  0.155786711888165     
  0.155786713169364     
  0.155786727548987     
  0.155786742286124     
  0.155786756604329     
  0.155786769762571     
  0.155786781063738     
  0.155786789866148     
  0.155786795587353     
  0.155786797706370     
  0.155786795770564     
  0.155786789411832     
  0.155786778355044     
  0.155786762425572     
  0.155786741559384     
  0.155786715811329     
  0.155786698350905     
  0.155786713121408     
  0.155786728798900     
  0.155786744468273     
  0.155786759265915     
  0.155786772387020     
  0.155786783087837     
  0.155786790707074     
  0.155786794648817     
  0.155786794388474     
  0.155786789501040     
  0.155786779665012     
  0.155786764673988     
  0.155786744446361     
  0.155786719034916     
  0.155786681120308     
  0.155786696288037     
  0.155786712967107     
  0.155786730095391     
  0.155786746675082     
  0.155786761779610     
  0.155786774558193     
  0.155786784242547     
  0.155786790156690     
  0.155786791705582     
  0.155786788387430     
  0.155786779832033     
  0.155786765796292     
  0.155786746179654     
  0.155786721034470     
  0.155786661288175     
  0.155786676841684     
  0.155786694562082     
  0.155786713229131     
  0.155786731703710     
  0.155786748927332     
  0.155786763926700     
  0.155786775818861     
  0.155786783828823     
  0.155786787278405     
  0.155786785595286     
  0.155786778346640     
  0.155786765249809     
  0.155786746185252     
  0.155786721206126     
  0.155786638666685     
  0.155786654571498     
  0.155786673341408     
  0.155786693592447     
  0.155786714035917     
  0.155786733473338     
  0.155786750797233     
  0.155786764997205     
  0.155786775182147     
  0.155786780587860     
  0.155786780565520     
  0.155786774610298     
  0.155786762402039     
  0.155786743801422     
  0.155786718863334     
  0.155786613085185     
  0.155786629279552     
  0.155786649064314     
  0.155786670895586     
  0.155786693330597     
  0.155786715022691     
  0.155786734721053     
  0.155786751280388     
  0.155786763673537     
  0.155786771032106     
  0.155786772638200     
  0.155786767923722     
  0.155786756520402     
  0.155786738273088     
  0.155786713236895     
  0.155786584414175     
  0.155786600800556     
  0.155786621510808     
  0.155786644851514     
  0.155786669229657     
  0.155786693144226     
  0.155786715192201     
  0.155786734081129     
  0.155786748651125     
  0.155786757903566     
  0.155786761045916     
  0.155786757471246     
  0.155786746763724     
  0.155786728750270     
  0.155786703481190     
  0.155786552594305     
  0.155786569029187     
  0.155786590504116     
  0.155786615195050     
  0.155786641368497     
  0.155786667371553     
  0.155786691641261     
  0.155786712731139     
  0.155786729344004     
  0.155786740364092     
  0.155786744897603     
  0.155786742309277     
  0.155786732177514     
  0.155786714292675     
  0.155786688689826     
  0.155786517668860     
  0.155786533950917     
  0.155786555938876     
  0.155786581704942     
  0.155786609392165     
  0.155786637205103     
  0.155786663426548     
  0.155786686454818     
  0.155786704853818     
  0.155786717404990     
  0.155786723141365     
  0.155786721372856     
  0.155786711692108     
  0.155786693887250     
  0.155786667923857     
  0.155786479815182     
  0.155786495673032     
  0.155786517811399     
  0.155786544229088     
  0.155786572970807     
  0.155786602120341     
  0.155786629823627     
  0.155786654340820     
  0.155786674116640     
  0.155786687847310     
  0.155786694525278     
  0.155786693440682     
  0.155786684160385     
  0.155786666471783     
  0.155786640262082     
  0.155786439367788     
  0.155786454450839     
  0.155786476246289     
  0.155786502708801     
  0.155786531816298     
  0.155786561568583     
  0.155786590015629     
  0.155786615323712     
  0.155786635864714     
  0.155786650299120     
  0.155786657616766     
  0.155786657119289     
  0.155786648344700     
  0.155786630998998     
  0.155786604844336     
  0.155786396829348     
  0.155786410697487     
  0.155786431511206     
  0.155786457194660     
  0.155786485694146     
  0.155786514976947     
  0.155786543072631     
  0.155786568147396     
  0.155786588599264     
  0.155786603137713     
  0.155786610804095     
  0.155786610915396     
  0.155786602957309     
  0.155786586464833     
  0.155786560951880     
  0.155786352855610     
  0.155786364978173     
  0.155786384005813     
  0.155786407842902     
  0.155786434419698     
  0.155786461736248     
  0.155786487927893     
  0.155786511333874     
  0.155786530560775     
  0.155786544502965     
  0.155786552306441     
  0.155786553274172     
  0.155786546741219     
  0.155786531961941     
  0.155786508057300     
  0.155786308244042     
  0.155786317949407     
  0.155786334226195     
  0.155786354876036     
  0.155786377815178     
  0.155786401162302     
  0.155786423346474     
  0.155786443172130     
  0.155786459745439     
  0.155786472337425     
  0.155786480230956     
  0.155786482615413     
  0.155786478516293     
  0.155786466738696     
  0.155786445846384     
  0.155786263709457     
  0.155786270271880     
  0.155786282653269     
  0.155786298479751     
  0.155786315607577     
  0.155786332397583     
  0.155786347893722     
  0.155786361764709     
  0.155786374013895     
  0.155786384506783     
  0.155786392660845     
  0.155786397387104     
  0.155786397179519     
  0.155786390188773     
  0.155786374239667     
  0.155786219996139     
  0.155786222512703     
  0.155786229607822     
  0.155786238570530     
  0.155786247182787     
  0.155786254263176     
  0.155786259914771     
  0.155786265199208     
  0.155786271356358     
  0.155786279028378     
  0.155786287773451     
  0.155786296075395     
  0.155786301660488     
  0.155786301784727     
  0.155786293334399     
  0.155786177745084     
  0.155786175111663     
  0.155786175126896     
  0.155786174526405     
  0.155786171208728     
  0.155786164996879     
  0.155786157634171     
  0.155786151893114     
  0.155786150338045     
  0.155786154417649     
  0.155786163981296     
  0.155786177166891     
  0.155786190795094     
  0.155786200958429     
  0.155786203319666     
  0.155786137426291     
  0.155786128161573     
  0.155786118590690     
  0.155786104758413     
  0.155786085318843     
  0.155786062207268     
  0.155786039406089     
  0.155786021083044     
  0.155786010604737     
  0.155786010119680     
  0.155786020151998     
  0.155786039100280     
  0.155786063115273     
  0.155786086867110     
  0.155786104330109     
  0.155786099239297     
  0.155786081142744     
  0.155786058081990     
  0.155786025912053     
  0.155785985908403     
  0.155785943452398     
  0.155785904347001     
  0.155785873129178     
  0.155785853139238     
  0.155785846908253     
  0.155785856046999     
  0.155785880360220     
  0.155785916588258     
  0.155785958030674     
  0.155785996250548     
  0.155786062959638     
  0.155786032166615     
  0.155785989160286     
  0.155785932293170     
  0.155785868939643     
  0.155785807287066     
  0.155785752919335     
  0.155785709534297     
  0.155785679999625     
  0.155785666924911     
  0.155785672916847     
  0.155785700194508     
  0.155785748405102     
  0.155785811786337     
  0.155785878277219     
  0.155786027197791     
  0.155785976076804     
  0.155785902811587     
  0.155785817399556     
  0.155785732176713     
  0.155785654049330     
  0.155785586666217     
  0.155785532526393     
  0.155785493867006     
  0.155785473209137     
  0.155785473766724     
  0.155785499753506     
  0.155785556196983     
  0.155785642965189     
  0.155785748507858     
  0.155785987417393     
  0.155785897593046     
  0.155785788430490     
  0.155785678359115     
  0.155785576242053     
  0.155785485321645     
  0.155785407508888     
  0.155785344330263     
  0.155785297458115     
  0.155785269128773     
  0.155785262671869     
  0.155785283342198     
  0.155785339528186     
  0.155785445866339     
  0.155785599613911     
  0.155785911789470     
  0.155785779064141     
  0.155785642785633     
  0.155785516648311     
  0.155785402953550     
  0.155785302869134     
  0.155785217207400     
  0.155785146857591     
  0.155785093046800     
  0.155785057667728     
  0.155785043809148     
  0.155785056747477     
  0.155785106170133     
  0.155785211318602     
  0.155785430274035     
