# vtk DataFile Version 3.0
vtk output
ASCII
DATASET UNSTRUCTURED_GRID
POINTS       496 double 
  0.00000000E+00  3.00000000E+02  0.00000000E+00
  0.00000000E+00  2.80000000E+02  0.00000000E+00
  0.00000000E+00  2.60000000E+02  0.00000000E+00
  0.00000000E+00  2.40000000E+02  0.00000000E+00
  0.00000000E+00  2.20000000E+02  0.00000000E+00
  0.00000000E+00  2.00000000E+02  0.00000000E+00
  0.00000000E+00  1.80000000E+02  0.00000000E+00
  0.00000000E+00  1.60000000E+02  0.00000000E+00
  0.00000000E+00  1.40000000E+02  0.00000000E+00
  0.00000000E+00  1.20000000E+02  0.00000000E+00
  0.00000000E+00  1.00000000E+02  0.00000000E+00
  0.00000000E+00  8.00000000E+01  0.00000000E+00
  0.00000000E+00  6.00000000E+01  0.00000000E+00
  0.00000000E+00  4.00000000E+01  0.00000000E+00
  0.00000000E+00  2.00000000E+01  0.00000000E+00
  0.00000000E+00  4.99600361E-14  0.00000000E+00
  2.00000000E+01  3.00000000E+02  0.00000000E+00
  2.00000000E+01  2.80000000E+02  0.00000000E+00
  2.00000000E+01  2.60000000E+02  0.00000000E+00
  2.00000000E+01  2.40000000E+02  0.00000000E+00
  2.00000000E+01  2.20000000E+02  0.00000000E+00
  2.00000000E+01  2.00000000E+02  0.00000000E+00
  2.00000000E+01  1.80000000E+02  0.00000000E+00
  2.00000000E+01  1.60000000E+02  0.00000000E+00
  2.00000000E+01  1.40000000E+02  0.00000000E+00
  2.00000000E+01  1.20000000E+02  0.00000000E+00
  2.00000000E+01  1.00000000E+02  0.00000000E+00
  2.00000000E+01  8.00000000E+01  0.00000000E+00
  2.00000000E+01  6.00000000E+01  0.00000000E+00
  2.00000000E+01  4.00000000E+01  0.00000000E+00
  2.00000000E+01  2.00000000E+01  0.00000000E+00
  2.00000000E+01  4.99600361E-14  0.00000000E+00
  4.00000000E+01  3.00000000E+02  0.00000000E+00
  4.00000000E+01  2.80000000E+02  0.00000000E+00
  4.00000000E+01  2.60000000E+02  0.00000000E+00
  4.00000000E+01  2.40000000E+02  0.00000000E+00
  4.00000000E+01  2.20000000E+02  0.00000000E+00
  4.00000000E+01  2.00000000E+02  0.00000000E+00
  4.00000000E+01  1.80000000E+02  0.00000000E+00
  4.00000000E+01  1.60000000E+02  0.00000000E+00
  4.00000000E+01  1.40000000E+02  0.00000000E+00
  4.00000000E+01  1.20000000E+02  0.00000000E+00
  4.00000000E+01  1.00000000E+02  0.00000000E+00
  4.00000000E+01  8.00000000E+01  0.00000000E+00
  4.00000000E+01  6.00000000E+01  0.00000000E+00
  4.00000000E+01  4.00000000E+01  0.00000000E+00
  4.00000000E+01  2.00000000E+01  0.00000000E+00
  4.00000000E+01  4.99600361E-14  0.00000000E+00
  6.00000000E+01  3.00000000E+02  0.00000000E+00
  6.00000000E+01  2.80000000E+02  0.00000000E+00
  6.00000000E+01  2.60000000E+02  0.00000000E+00
  6.00000000E+01  2.40000000E+02  0.00000000E+00
  6.00000000E+01  2.20000000E+02  0.00000000E+00
  6.00000000E+01  2.00000000E+02  0.00000000E+00
  6.00000000E+01  1.80000000E+02  0.00000000E+00
  6.00000000E+01  1.60000000E+02  0.00000000E+00
  6.00000000E+01  1.40000000E+02  0.00000000E+00
  6.00000000E+01  1.20000000E+02  0.00000000E+00
  6.00000000E+01  1.00000000E+02  0.00000000E+00
  6.00000000E+01  8.00000000E+01  0.00000000E+00
  6.00000000E+01  6.00000000E+01  0.00000000E+00
  6.00000000E+01  4.00000000E+01  0.00000000E+00
  6.00000000E+01  2.00000000E+01  0.00000000E+00
  6.00000000E+01  4.99600361E-14  0.00000000E+00
  8.00000000E+01  3.00000000E+02  0.00000000E+00
  8.00000000E+01  2.80000000E+02  0.00000000E+00
  8.00000000E+01  2.60000000E+02  0.00000000E+00
  8.00000000E+01  2.40000000E+02  0.00000000E+00
  8.00000000E+01  2.20000000E+02  0.00000000E+00
  8.00000000E+01  2.00000000E+02  0.00000000E+00
  8.00000000E+01  1.80000000E+02  0.00000000E+00
  8.00000000E+01  1.60000000E+02  0.00000000E+00
  8.00000000E+01  1.40000000E+02  0.00000000E+00
  8.00000000E+01  1.20000000E+02  0.00000000E+00
  8.00000000E+01  1.00000000E+02  0.00000000E+00
  8.00000000E+01  8.00000000E+01  0.00000000E+00
  8.00000000E+01  6.00000000E+01  0.00000000E+00
  8.00000000E+01  4.00000000E+01  0.00000000E+00
  8.00000000E+01  2.00000000E+01  0.00000000E+00
  8.00000000E+01  4.99600361E-14  0.00000000E+00
  1.00000000E+02  3.00000000E+02  0.00000000E+00
  1.00000000E+02  2.80000000E+02  0.00000000E+00
  1.00000000E+02  2.60000000E+02  0.00000000E+00
  1.00000000E+02  2.40000000E+02  0.00000000E+00
  1.00000000E+02  2.20000000E+02  0.00000000E+00
  1.00000000E+02  2.00000000E+02  0.00000000E+00
  1.00000000E+02  1.80000000E+02  0.00000000E+00
  1.00000000E+02  1.60000000E+02  0.00000000E+00
  1.00000000E+02  1.40000000E+02  0.00000000E+00
  1.00000000E+02  1.20000000E+02  0.00000000E+00
  1.00000000E+02  1.00000000E+02  0.00000000E+00
  1.00000000E+02  8.00000000E+01  0.00000000E+00
  1.00000000E+02  6.00000000E+01  0.00000000E+00
  1.00000000E+02  4.00000000E+01  0.00000000E+00
  1.00000000E+02  2.00000000E+01  0.00000000E+00
  1.00000000E+02  4.99600361E-14  0.00000000E+00
  1.20000000E+02  3.00000000E+02  0.00000000E+00
  1.20000000E+02  2.80000000E+02  0.00000000E+00
  1.20000000E+02  2.60000000E+02  0.00000000E+00
  1.20000000E+02  2.40000000E+02  0.00000000E+00
  1.20000000E+02  2.20000000E+02  0.00000000E+00
  1.20000000E+02  2.00000000E+02  0.00000000E+00
  1.20000000E+02  1.80000000E+02  0.00000000E+00
  1.20000000E+02  1.60000000E+02  0.00000000E+00
  1.20000000E+02  1.40000000E+02  0.00000000E+00
  1.20000000E+02  1.20000000E+02  0.00000000E+00
  1.20000000E+02  1.00000000E+02  0.00000000E+00
  1.20000000E+02  8.00000000E+01  0.00000000E+00
  1.20000000E+02  6.00000000E+01  0.00000000E+00
  1.20000000E+02  4.00000000E+01  0.00000000E+00
  1.20000000E+02  2.00000000E+01  0.00000000E+00
  1.20000000E+02  4.99600361E-14  0.00000000E+00
  1.40000000E+02  3.00000000E+02  0.00000000E+00
  1.40000000E+02  2.80000000E+02  0.00000000E+00
  1.40000000E+02  2.60000000E+02  0.00000000E+00
  1.40000000E+02  2.40000000E+02  0.00000000E+00
  1.40000000E+02  2.20000000E+02  0.00000000E+00
  1.40000000E+02  2.00000000E+02  0.00000000E+00
  1.40000000E+02  1.80000000E+02  0.00000000E+00
  1.40000000E+02  1.60000000E+02  0.00000000E+00
  1.40000000E+02  1.40000000E+02  0.00000000E+00
  1.40000000E+02  1.20000000E+02  0.00000000E+00
  1.40000000E+02  1.00000000E+02  0.00000000E+00
  1.40000000E+02  8.00000000E+01  0.00000000E+00
  1.40000000E+02  6.00000000E+01  0.00000000E+00
  1.40000000E+02  4.00000000E+01  0.00000000E+00
  1.40000000E+02  2.00000000E+01  0.00000000E+00
  1.40000000E+02  4.99600361E-14  0.00000000E+00
  1.60000000E+02  3.00000000E+02  0.00000000E+00
  1.60000000E+02  2.80000000E+02  0.00000000E+00
  1.60000000E+02  2.60000000E+02  0.00000000E+00
  1.60000000E+02  2.40000000E+02  0.00000000E+00
  1.60000000E+02  2.20000000E+02  0.00000000E+00
  1.60000000E+02  2.00000000E+02  0.00000000E+00
  1.60000000E+02  1.80000000E+02  0.00000000E+00
  1.60000000E+02  1.60000000E+02  0.00000000E+00
  1.60000000E+02  1.40000000E+02  0.00000000E+00
  1.60000000E+02  1.20000000E+02  0.00000000E+00
  1.60000000E+02  1.00000000E+02  0.00000000E+00
  1.60000000E+02  8.00000000E+01  0.00000000E+00
  1.60000000E+02  6.00000000E+01  0.00000000E+00
  1.60000000E+02  4.00000000E+01  0.00000000E+00
  1.60000000E+02  2.00000000E+01  0.00000000E+00
  1.60000000E+02  4.99600361E-14  0.00000000E+00
  1.80000000E+02  3.00000000E+02  0.00000000E+00
  1.80000000E+02  2.80000000E+02  0.00000000E+00
  1.80000000E+02  2.60000000E+02  0.00000000E+00
  1.80000000E+02  2.40000000E+02  0.00000000E+00
  1.80000000E+02  2.20000000E+02  0.00000000E+00
  1.80000000E+02  2.00000000E+02  0.00000000E+00
  1.80000000E+02  1.80000000E+02  0.00000000E+00
  1.80000000E+02  1.60000000E+02  0.00000000E+00
  1.80000000E+02  1.40000000E+02  0.00000000E+00
  1.80000000E+02  1.20000000E+02  0.00000000E+00
  1.80000000E+02  1.00000000E+02  0.00000000E+00
  1.80000000E+02  8.00000000E+01  0.00000000E+00
  1.80000000E+02  6.00000000E+01  0.00000000E+00
  1.80000000E+02  4.00000000E+01  0.00000000E+00
  1.80000000E+02  2.00000000E+01  0.00000000E+00
  1.80000000E+02  4.99600361E-14  0.00000000E+00
  2.00000000E+02  3.00000000E+02  0.00000000E+00
  2.00000000E+02  2.80000000E+02  0.00000000E+00
  2.00000000E+02  2.60000000E+02  0.00000000E+00
  2.00000000E+02  2.40000000E+02  0.00000000E+00
  2.00000000E+02  2.20000000E+02  0.00000000E+00
  2.00000000E+02  2.00000000E+02  0.00000000E+00
  2.00000000E+02  1.80000000E+02  0.00000000E+00
  2.00000000E+02  1.60000000E+02  0.00000000E+00
  2.00000000E+02  1.40000000E+02  0.00000000E+00
  2.00000000E+02  1.20000000E+02  0.00000000E+00
  2.00000000E+02  1.00000000E+02  0.00000000E+00
  2.00000000E+02  8.00000000E+01  0.00000000E+00
  2.00000000E+02  6.00000000E+01  0.00000000E+00
  2.00000000E+02  4.00000000E+01  0.00000000E+00
  2.00000000E+02  2.00000000E+01  0.00000000E+00
  2.00000000E+02  4.99600361E-14  0.00000000E+00
  2.20000000E+02  3.00000000E+02  0.00000000E+00
  2.20000000E+02  2.80000000E+02  0.00000000E+00
  2.20000000E+02  2.60000000E+02  0.00000000E+00
  2.20000000E+02  2.40000000E+02  0.00000000E+00
  2.20000000E+02  2.20000000E+02  0.00000000E+00
  2.20000000E+02  2.00000000E+02  0.00000000E+00
  2.20000000E+02  1.80000000E+02  0.00000000E+00
  2.20000000E+02  1.60000000E+02  0.00000000E+00
  2.20000000E+02  1.40000000E+02  0.00000000E+00
  2.20000000E+02  1.20000000E+02  0.00000000E+00
  2.20000000E+02  1.00000000E+02  0.00000000E+00
  2.20000000E+02  8.00000000E+01  0.00000000E+00
  2.20000000E+02  6.00000000E+01  0.00000000E+00
  2.20000000E+02  4.00000000E+01  0.00000000E+00
  2.20000000E+02  2.00000000E+01  0.00000000E+00
  2.20000000E+02  4.99600361E-14  0.00000000E+00
  2.40000000E+02  3.00000000E+02  0.00000000E+00
  2.40000000E+02  2.80000000E+02  0.00000000E+00
  2.40000000E+02  2.60000000E+02  0.00000000E+00
  2.40000000E+02  2.40000000E+02  0.00000000E+00
  2.40000000E+02  2.20000000E+02  0.00000000E+00
  2.40000000E+02  2.00000000E+02  0.00000000E+00
  2.40000000E+02  1.80000000E+02  0.00000000E+00
  2.40000000E+02  1.60000000E+02  0.00000000E+00
  2.40000000E+02  1.40000000E+02  0.00000000E+00
  2.40000000E+02  1.20000000E+02  0.00000000E+00
  2.40000000E+02  1.00000000E+02  0.00000000E+00
  2.40000000E+02  8.00000000E+01  0.00000000E+00
  2.40000000E+02  6.00000000E+01  0.00000000E+00
  2.40000000E+02  4.00000000E+01  0.00000000E+00
  2.40000000E+02  2.00000000E+01  0.00000000E+00
  2.40000000E+02  4.99600361E-14  0.00000000E+00
  2.60000000E+02  3.00000000E+02  0.00000000E+00
  2.60000000E+02  2.80000000E+02  0.00000000E+00
  2.60000000E+02  2.60000000E+02  0.00000000E+00
  2.60000000E+02  2.40000000E+02  0.00000000E+00
  2.60000000E+02  2.20000000E+02  0.00000000E+00
  2.60000000E+02  2.00000000E+02  0.00000000E+00
  2.60000000E+02  1.80000000E+02  0.00000000E+00
  2.60000000E+02  1.60000000E+02  0.00000000E+00
  2.60000000E+02  1.40000000E+02  0.00000000E+00
  2.60000000E+02  1.20000000E+02  0.00000000E+00
  2.60000000E+02  1.00000000E+02  0.00000000E+00
  2.60000000E+02  8.00000000E+01  0.00000000E+00
  2.60000000E+02  6.00000000E+01  0.00000000E+00
  2.60000000E+02  4.00000000E+01  0.00000000E+00
  2.60000000E+02  2.00000000E+01  0.00000000E+00
  2.60000000E+02  4.99600361E-14  0.00000000E+00
  2.80000000E+02  3.00000000E+02  0.00000000E+00
  2.80000000E+02  2.80000000E+02  0.00000000E+00
  2.80000000E+02  2.60000000E+02  0.00000000E+00
  2.80000000E+02  2.40000000E+02  0.00000000E+00
  2.80000000E+02  2.20000000E+02  0.00000000E+00
  2.80000000E+02  2.00000000E+02  0.00000000E+00
  2.80000000E+02  1.80000000E+02  0.00000000E+00
  2.80000000E+02  1.60000000E+02  0.00000000E+00
  2.80000000E+02  1.40000000E+02  0.00000000E+00
  2.80000000E+02  1.20000000E+02  0.00000000E+00
  2.80000000E+02  1.00000000E+02  0.00000000E+00
  2.80000000E+02  8.00000000E+01  0.00000000E+00
  2.80000000E+02  6.00000000E+01  0.00000000E+00
  2.80000000E+02  4.00000000E+01  0.00000000E+00
  2.80000000E+02  2.00000000E+01  0.00000000E+00
  2.80000000E+02  4.99600361E-14  0.00000000E+00
  3.00000000E+02  3.00000000E+02  0.00000000E+00
  3.00000000E+02  2.80000000E+02  0.00000000E+00
  3.00000000E+02  2.60000000E+02  0.00000000E+00
  3.00000000E+02  2.40000000E+02  0.00000000E+00
  3.00000000E+02  2.20000000E+02  0.00000000E+00
  3.00000000E+02  2.00000000E+02  0.00000000E+00
  3.00000000E+02  1.80000000E+02  0.00000000E+00
  3.00000000E+02  1.60000000E+02  0.00000000E+00
  3.00000000E+02  1.40000000E+02  0.00000000E+00
  3.00000000E+02  1.20000000E+02  0.00000000E+00
  3.00000000E+02  1.00000000E+02  0.00000000E+00
  3.00000000E+02  8.00000000E+01  0.00000000E+00
  3.00000000E+02  6.00000000E+01  0.00000000E+00
  3.00000000E+02  4.00000000E+01  0.00000000E+00
  3.00000000E+02  2.00000000E+01  0.00000000E+00
  3.00000000E+02  4.99600361E-14  0.00000000E+00
  3.20000000E+02  3.00000000E+02  0.00000000E+00
  3.20000000E+02  2.80000000E+02  0.00000000E+00
  3.20000000E+02  2.60000000E+02  0.00000000E+00
  3.20000000E+02  2.40000000E+02  0.00000000E+00
  3.20000000E+02  2.20000000E+02  0.00000000E+00
  3.20000000E+02  2.00000000E+02  0.00000000E+00
  3.20000000E+02  1.80000000E+02  0.00000000E+00
  3.20000000E+02  1.60000000E+02  0.00000000E+00
  3.20000000E+02  1.40000000E+02  0.00000000E+00
  3.20000000E+02  1.20000000E+02  0.00000000E+00
  3.20000000E+02  1.00000000E+02  0.00000000E+00
  3.20000000E+02  8.00000000E+01  0.00000000E+00
  3.20000000E+02  6.00000000E+01  0.00000000E+00
  3.20000000E+02  4.00000000E+01  0.00000000E+00
  3.20000000E+02  2.00000000E+01  0.00000000E+00
  3.20000000E+02  4.99600361E-14  0.00000000E+00
  3.40000000E+02  3.00000000E+02  0.00000000E+00
  3.40000000E+02  2.80000000E+02  0.00000000E+00
  3.40000000E+02  2.60000000E+02  0.00000000E+00
  3.40000000E+02  2.40000000E+02  0.00000000E+00
  3.40000000E+02  2.20000000E+02  0.00000000E+00
  3.40000000E+02  2.00000000E+02  0.00000000E+00
  3.40000000E+02  1.80000000E+02  0.00000000E+00
  3.40000000E+02  1.60000000E+02  0.00000000E+00
  3.40000000E+02  1.40000000E+02  0.00000000E+00
  3.40000000E+02  1.20000000E+02  0.00000000E+00
  3.40000000E+02  1.00000000E+02  0.00000000E+00
  3.40000000E+02  8.00000000E+01  0.00000000E+00
  3.40000000E+02  6.00000000E+01  0.00000000E+00
  3.40000000E+02  4.00000000E+01  0.00000000E+00
  3.40000000E+02  2.00000000E+01  0.00000000E+00
  3.40000000E+02  4.99600361E-14  0.00000000E+00
  3.60000000E+02  3.00000000E+02  0.00000000E+00
  3.60000000E+02  2.80000000E+02  0.00000000E+00
  3.60000000E+02  2.60000000E+02  0.00000000E+00
  3.60000000E+02  2.40000000E+02  0.00000000E+00
  3.60000000E+02  2.20000000E+02  0.00000000E+00
  3.60000000E+02  2.00000000E+02  0.00000000E+00
  3.60000000E+02  1.80000000E+02  0.00000000E+00
  3.60000000E+02  1.60000000E+02  0.00000000E+00
  3.60000000E+02  1.40000000E+02  0.00000000E+00
  3.60000000E+02  1.20000000E+02  0.00000000E+00
  3.60000000E+02  1.00000000E+02  0.00000000E+00
  3.60000000E+02  8.00000000E+01  0.00000000E+00
  3.60000000E+02  6.00000000E+01  0.00000000E+00
  3.60000000E+02  4.00000000E+01  0.00000000E+00
  3.60000000E+02  2.00000000E+01  0.00000000E+00
  3.60000000E+02  4.99600361E-14  0.00000000E+00
  3.80000000E+02  3.00000000E+02  0.00000000E+00
  3.80000000E+02  2.80000000E+02  0.00000000E+00
  3.80000000E+02  2.60000000E+02  0.00000000E+00
  3.80000000E+02  2.40000000E+02  0.00000000E+00
  3.80000000E+02  2.20000000E+02  0.00000000E+00
  3.80000000E+02  2.00000000E+02  0.00000000E+00
  3.80000000E+02  1.80000000E+02  0.00000000E+00
  3.80000000E+02  1.60000000E+02  0.00000000E+00
  3.80000000E+02  1.40000000E+02  0.00000000E+00
  3.80000000E+02  1.20000000E+02  0.00000000E+00
  3.80000000E+02  1.00000000E+02  0.00000000E+00
  3.80000000E+02  8.00000000E+01  0.00000000E+00
  3.80000000E+02  6.00000000E+01  0.00000000E+00
  3.80000000E+02  4.00000000E+01  0.00000000E+00
  3.80000000E+02  2.00000000E+01  0.00000000E+00
  3.80000000E+02  4.99600361E-14  0.00000000E+00
  4.00000000E+02  3.00000000E+02  0.00000000E+00
  4.00000000E+02  2.80000000E+02  0.00000000E+00
  4.00000000E+02  2.60000000E+02  0.00000000E+00
  4.00000000E+02  2.40000000E+02  0.00000000E+00
  4.00000000E+02  2.20000000E+02  0.00000000E+00
  4.00000000E+02  2.00000000E+02  0.00000000E+00
  4.00000000E+02  1.80000000E+02  0.00000000E+00
  4.00000000E+02  1.60000000E+02  0.00000000E+00
  4.00000000E+02  1.40000000E+02  0.00000000E+00
  4.00000000E+02  1.20000000E+02  0.00000000E+00
  4.00000000E+02  1.00000000E+02  0.00000000E+00
  4.00000000E+02  8.00000000E+01  0.00000000E+00
  4.00000000E+02  6.00000000E+01  0.00000000E+00
  4.00000000E+02  4.00000000E+01  0.00000000E+00
  4.00000000E+02  2.00000000E+01  0.00000000E+00
  4.00000000E+02  4.99600361E-14  0.00000000E+00
  4.20000000E+02  3.00000000E+02  0.00000000E+00
  4.20000000E+02  2.80000000E+02  0.00000000E+00
  4.20000000E+02  2.60000000E+02  0.00000000E+00
  4.20000000E+02  2.40000000E+02  0.00000000E+00
  4.20000000E+02  2.20000000E+02  0.00000000E+00
  4.20000000E+02  2.00000000E+02  0.00000000E+00
  4.20000000E+02  1.80000000E+02  0.00000000E+00
  4.20000000E+02  1.60000000E+02  0.00000000E+00
  4.20000000E+02  1.40000000E+02  0.00000000E+00
  4.20000000E+02  1.20000000E+02  0.00000000E+00
  4.20000000E+02  1.00000000E+02  0.00000000E+00
  4.20000000E+02  8.00000000E+01  0.00000000E+00
  4.20000000E+02  6.00000000E+01  0.00000000E+00
  4.20000000E+02  4.00000000E+01  0.00000000E+00
  4.20000000E+02  2.00000000E+01  0.00000000E+00
  4.20000000E+02  4.99600361E-14  0.00000000E+00
  4.40000000E+02  3.00000000E+02  0.00000000E+00
  4.40000000E+02  2.80000000E+02  0.00000000E+00
  4.40000000E+02  2.60000000E+02  0.00000000E+00
  4.40000000E+02  2.40000000E+02  0.00000000E+00
  4.40000000E+02  2.20000000E+02  0.00000000E+00
  4.40000000E+02  2.00000000E+02  0.00000000E+00
  4.40000000E+02  1.80000000E+02  0.00000000E+00
  4.40000000E+02  1.60000000E+02  0.00000000E+00
  4.40000000E+02  1.40000000E+02  0.00000000E+00
  4.40000000E+02  1.20000000E+02  0.00000000E+00
  4.40000000E+02  1.00000000E+02  0.00000000E+00
  4.40000000E+02  8.00000000E+01  0.00000000E+00
  4.40000000E+02  6.00000000E+01  0.00000000E+00
  4.40000000E+02  4.00000000E+01  0.00000000E+00
  4.40000000E+02  2.00000000E+01  0.00000000E+00
  4.40000000E+02  4.99600361E-14  0.00000000E+00
  4.60000000E+02  3.00000000E+02  0.00000000E+00
  4.60000000E+02  2.80000000E+02  0.00000000E+00
  4.60000000E+02  2.60000000E+02  0.00000000E+00
  4.60000000E+02  2.40000000E+02  0.00000000E+00
  4.60000000E+02  2.20000000E+02  0.00000000E+00
  4.60000000E+02  2.00000000E+02  0.00000000E+00
  4.60000000E+02  1.80000000E+02  0.00000000E+00
  4.60000000E+02  1.60000000E+02  0.00000000E+00
  4.60000000E+02  1.40000000E+02  0.00000000E+00
  4.60000000E+02  1.20000000E+02  0.00000000E+00
  4.60000000E+02  1.00000000E+02  0.00000000E+00
  4.60000000E+02  8.00000000E+01  0.00000000E+00
  4.60000000E+02  6.00000000E+01  0.00000000E+00
  4.60000000E+02  4.00000000E+01  0.00000000E+00
  4.60000000E+02  2.00000000E+01  0.00000000E+00
  4.60000000E+02  4.99600361E-14  0.00000000E+00
  4.80000000E+02  3.00000000E+02  0.00000000E+00
  4.80000000E+02  2.80000000E+02  0.00000000E+00
  4.80000000E+02  2.60000000E+02  0.00000000E+00
  4.80000000E+02  2.40000000E+02  0.00000000E+00
  4.80000000E+02  2.20000000E+02  0.00000000E+00
  4.80000000E+02  2.00000000E+02  0.00000000E+00
  4.80000000E+02  1.80000000E+02  0.00000000E+00
  4.80000000E+02  1.60000000E+02  0.00000000E+00
  4.80000000E+02  1.40000000E+02  0.00000000E+00
  4.80000000E+02  1.20000000E+02  0.00000000E+00
  4.80000000E+02  1.00000000E+02  0.00000000E+00
  4.80000000E+02  8.00000000E+01  0.00000000E+00
  4.80000000E+02  6.00000000E+01  0.00000000E+00
  4.80000000E+02  4.00000000E+01  0.00000000E+00
  4.80000000E+02  2.00000000E+01  0.00000000E+00
  4.80000000E+02  4.99600361E-14  0.00000000E+00
  5.00000000E+02  3.00000000E+02  0.00000000E+00
  5.00000000E+02  2.80000000E+02  0.00000000E+00
  5.00000000E+02  2.60000000E+02  0.00000000E+00
  5.00000000E+02  2.40000000E+02  0.00000000E+00
  5.00000000E+02  2.20000000E+02  0.00000000E+00
  5.00000000E+02  2.00000000E+02  0.00000000E+00
  5.00000000E+02  1.80000000E+02  0.00000000E+00
  5.00000000E+02  1.60000000E+02  0.00000000E+00
  5.00000000E+02  1.40000000E+02  0.00000000E+00
  5.00000000E+02  1.20000000E+02  0.00000000E+00
  5.00000000E+02  1.00000000E+02  0.00000000E+00
  5.00000000E+02  8.00000000E+01  0.00000000E+00
  5.00000000E+02  6.00000000E+01  0.00000000E+00
  5.00000000E+02  4.00000000E+01  0.00000000E+00
  5.00000000E+02  2.00000000E+01  0.00000000E+00
  5.00000000E+02  4.99600361E-14  0.00000000E+00
  5.20000000E+02  3.00000000E+02  0.00000000E+00
  5.20000000E+02  2.80000000E+02  0.00000000E+00
  5.20000000E+02  2.60000000E+02  0.00000000E+00
  5.20000000E+02  2.40000000E+02  0.00000000E+00
  5.20000000E+02  2.20000000E+02  0.00000000E+00
  5.20000000E+02  2.00000000E+02  0.00000000E+00
  5.20000000E+02  1.80000000E+02  0.00000000E+00
  5.20000000E+02  1.60000000E+02  0.00000000E+00
  5.20000000E+02  1.40000000E+02  0.00000000E+00
  5.20000000E+02  1.20000000E+02  0.00000000E+00
  5.20000000E+02  1.00000000E+02  0.00000000E+00
  5.20000000E+02  8.00000000E+01  0.00000000E+00
  5.20000000E+02  6.00000000E+01  0.00000000E+00
  5.20000000E+02  4.00000000E+01  0.00000000E+00
  5.20000000E+02  2.00000000E+01  0.00000000E+00
  5.20000000E+02  4.99600361E-14  0.00000000E+00
  5.40000000E+02  3.00000000E+02  0.00000000E+00
  5.40000000E+02  2.80000000E+02  0.00000000E+00
  5.40000000E+02  2.60000000E+02  0.00000000E+00
  5.40000000E+02  2.40000000E+02  0.00000000E+00
  5.40000000E+02  2.20000000E+02  0.00000000E+00
  5.40000000E+02  2.00000000E+02  0.00000000E+00
  5.40000000E+02  1.80000000E+02  0.00000000E+00
  5.40000000E+02  1.60000000E+02  0.00000000E+00
  5.40000000E+02  1.40000000E+02  0.00000000E+00
  5.40000000E+02  1.20000000E+02  0.00000000E+00
  5.40000000E+02  1.00000000E+02  0.00000000E+00
  5.40000000E+02  8.00000000E+01  0.00000000E+00
  5.40000000E+02  6.00000000E+01  0.00000000E+00
  5.40000000E+02  4.00000000E+01  0.00000000E+00
  5.40000000E+02  2.00000000E+01  0.00000000E+00
  5.40000000E+02  4.99600361E-14  0.00000000E+00
  5.60000000E+02  3.00000000E+02  0.00000000E+00
  5.60000000E+02  2.80000000E+02  0.00000000E+00
  5.60000000E+02  2.60000000E+02  0.00000000E+00
  5.60000000E+02  2.40000000E+02  0.00000000E+00
  5.60000000E+02  2.20000000E+02  0.00000000E+00
  5.60000000E+02  2.00000000E+02  0.00000000E+00
  5.60000000E+02  1.80000000E+02  0.00000000E+00
  5.60000000E+02  1.60000000E+02  0.00000000E+00
  5.60000000E+02  1.40000000E+02  0.00000000E+00
  5.60000000E+02  1.20000000E+02  0.00000000E+00
  5.60000000E+02  1.00000000E+02  0.00000000E+00
  5.60000000E+02  8.00000000E+01  0.00000000E+00
  5.60000000E+02  6.00000000E+01  0.00000000E+00
  5.60000000E+02  4.00000000E+01  0.00000000E+00
  5.60000000E+02  2.00000000E+01  0.00000000E+00
  5.60000000E+02  4.99600361E-14  0.00000000E+00
  5.80000000E+02  3.00000000E+02  0.00000000E+00
  5.80000000E+02  2.80000000E+02  0.00000000E+00
  5.80000000E+02  2.60000000E+02  0.00000000E+00
  5.80000000E+02  2.40000000E+02  0.00000000E+00
  5.80000000E+02  2.20000000E+02  0.00000000E+00
  5.80000000E+02  2.00000000E+02  0.00000000E+00
  5.80000000E+02  1.80000000E+02  0.00000000E+00
  5.80000000E+02  1.60000000E+02  0.00000000E+00
  5.80000000E+02  1.40000000E+02  0.00000000E+00
  5.80000000E+02  1.20000000E+02  0.00000000E+00
  5.80000000E+02  1.00000000E+02  0.00000000E+00
  5.80000000E+02  8.00000000E+01  0.00000000E+00
  5.80000000E+02  6.00000000E+01  0.00000000E+00
  5.80000000E+02  4.00000000E+01  0.00000000E+00
  5.80000000E+02  2.00000000E+01  0.00000000E+00
  5.80000000E+02  4.99600361E-14  0.00000000E+00
  6.00000000E+02  3.00000000E+02  0.00000000E+00
  6.00000000E+02  2.80000000E+02  0.00000000E+00
  6.00000000E+02  2.60000000E+02  0.00000000E+00
  6.00000000E+02  2.40000000E+02  0.00000000E+00
  6.00000000E+02  2.20000000E+02  0.00000000E+00
  6.00000000E+02  2.00000000E+02  0.00000000E+00
  6.00000000E+02  1.80000000E+02  0.00000000E+00
  6.00000000E+02  1.60000000E+02  0.00000000E+00
  6.00000000E+02  1.40000000E+02  0.00000000E+00
  6.00000000E+02  1.20000000E+02  0.00000000E+00
  6.00000000E+02  1.00000000E+02  0.00000000E+00
  6.00000000E+02  8.00000000E+01  0.00000000E+00
  6.00000000E+02  6.00000000E+01  0.00000000E+00
  6.00000000E+02  4.00000000E+01  0.00000000E+00
  6.00000000E+02  2.00000000E+01  0.00000000E+00
  6.00000000E+02  4.99600361E-14  0.00000000E+00
CELLS       450      2250
         4           0           1          17          16
         4           1           2          18          17
         4           2           3          19          18
         4           3           4          20          19
         4           4           5          21          20
         4           5           6          22          21
         4           6           7          23          22
         4           7           8          24          23
         4           8           9          25          24
         4           9          10          26          25
         4          10          11          27          26
         4          11          12          28          27
         4          12          13          29          28
         4          13          14          30          29
         4          14          15          31          30
         4          16          17          33          32
         4          17          18          34          33
         4          18          19          35          34
         4          19          20          36          35
         4          20          21          37          36
         4          21          22          38          37
         4          22          23          39          38
         4          23          24          40          39
         4          24          25          41          40
         4          25          26          42          41
         4          26          27          43          42
         4          27          28          44          43
         4          28          29          45          44
         4          29          30          46          45
         4          30          31          47          46
         4          32          33          49          48
         4          33          34          50          49
         4          34          35          51          50
         4          35          36          52          51
         4          36          37          53          52
         4          37          38          54          53
         4          38          39          55          54
         4          39          40          56          55
         4          40          41          57          56
         4          41          42          58          57
         4          42          43          59          58
         4          43          44          60          59
         4          44          45          61          60
         4          45          46          62          61
         4          46          47          63          62
         4          48          49          65          64
         4          49          50          66          65
         4          50          51          67          66
         4          51          52          68          67
         4          52          53          69          68
         4          53          54          70          69
         4          54          55          71          70
         4          55          56          72          71
         4          56          57          73          72
         4          57          58          74          73
         4          58          59          75          74
         4          59          60          76          75
         4          60          61          77          76
         4          61          62          78          77
         4          62          63          79          78
         4          64          65          81          80
         4          65          66          82          81
         4          66          67          83          82
         4          67          68          84          83
         4          68          69          85          84
         4          69          70          86          85
         4          70          71          87          86
         4          71          72          88          87
         4          72          73          89          88
         4          73          74          90          89
         4          74          75          91          90
         4          75          76          92          91
         4          76          77          93          92
         4          77          78          94          93
         4          78          79          95          94
         4          80          81          97          96
         4          81          82          98          97
         4          82          83          99          98
         4          83          84         100          99
         4          84          85         101         100
         4          85          86         102         101
         4          86          87         103         102
         4          87          88         104         103
         4          88          89         105         104
         4          89          90         106         105
         4          90          91         107         106
         4          91          92         108         107
         4          92          93         109         108
         4          93          94         110         109
         4          94          95         111         110
         4          96          97         113         112
         4          97          98         114         113
         4          98          99         115         114
         4          99         100         116         115
         4         100         101         117         116
         4         101         102         118         117
         4         102         103         119         118
         4         103         104         120         119
         4         104         105         121         120
         4         105         106         122         121
         4         106         107         123         122
         4         107         108         124         123
         4         108         109         125         124
         4         109         110         126         125
         4         110         111         127         126
         4         112         113         129         128
         4         113         114         130         129
         4         114         115         131         130
         4         115         116         132         131
         4         116         117         133         132
         4         117         118         134         133
         4         118         119         135         134
         4         119         120         136         135
         4         120         121         137         136
         4         121         122         138         137
         4         122         123         139         138
         4         123         124         140         139
         4         124         125         141         140
         4         125         126         142         141
         4         126         127         143         142
         4         128         129         145         144
         4         129         130         146         145
         4         130         131         147         146
         4         131         132         148         147
         4         132         133         149         148
         4         133         134         150         149
         4         134         135         151         150
         4         135         136         152         151
         4         136         137         153         152
         4         137         138         154         153
         4         138         139         155         154
         4         139         140         156         155
         4         140         141         157         156
         4         141         142         158         157
         4         142         143         159         158
         4         144         145         161         160
         4         145         146         162         161
         4         146         147         163         162
         4         147         148         164         163
         4         148         149         165         164
         4         149         150         166         165
         4         150         151         167         166
         4         151         152         168         167
         4         152         153         169         168
         4         153         154         170         169
         4         154         155         171         170
         4         155         156         172         171
         4         156         157         173         172
         4         157         158         174         173
         4         158         159         175         174
         4         160         161         177         176
         4         161         162         178         177
         4         162         163         179         178
         4         163         164         180         179
         4         164         165         181         180
         4         165         166         182         181
         4         166         167         183         182
         4         167         168         184         183
         4         168         169         185         184
         4         169         170         186         185
         4         170         171         187         186
         4         171         172         188         187
         4         172         173         189         188
         4         173         174         190         189
         4         174         175         191         190
         4         176         177         193         192
         4         177         178         194         193
         4         178         179         195         194
         4         179         180         196         195
         4         180         181         197         196
         4         181         182         198         197
         4         182         183         199         198
         4         183         184         200         199
         4         184         185         201         200
         4         185         186         202         201
         4         186         187         203         202
         4         187         188         204         203
         4         188         189         205         204
         4         189         190         206         205
         4         190         191         207         206
         4         192         193         209         208
         4         193         194         210         209
         4         194         195         211         210
         4         195         196         212         211
         4         196         197         213         212
         4         197         198         214         213
         4         198         199         215         214
         4         199         200         216         215
         4         200         201         217         216
         4         201         202         218         217
         4         202         203         219         218
         4         203         204         220         219
         4         204         205         221         220
         4         205         206         222         221
         4         206         207         223         222
         4         208         209         225         224
         4         209         210         226         225
         4         210         211         227         226
         4         211         212         228         227
         4         212         213         229         228
         4         213         214         230         229
         4         214         215         231         230
         4         215         216         232         231
         4         216         217         233         232
         4         217         218         234         233
         4         218         219         235         234
         4         219         220         236         235
         4         220         221         237         236
         4         221         222         238         237
         4         222         223         239         238
         4         224         225         241         240
         4         225         226         242         241
         4         226         227         243         242
         4         227         228         244         243
         4         228         229         245         244
         4         229         230         246         245
         4         230         231         247         246
         4         231         232         248         247
         4         232         233         249         248
         4         233         234         250         249
         4         234         235         251         250
         4         235         236         252         251
         4         236         237         253         252
         4         237         238         254         253
         4         238         239         255         254
         4         240         241         257         256
         4         241         242         258         257
         4         242         243         259         258
         4         243         244         260         259
         4         244         245         261         260
         4         245         246         262         261
         4         246         247         263         262
         4         247         248         264         263
         4         248         249         265         264
         4         249         250         266         265
         4         250         251         267         266
         4         251         252         268         267
         4         252         253         269         268
         4         253         254         270         269
         4         254         255         271         270
         4         256         257         273         272
         4         257         258         274         273
         4         258         259         275         274
         4         259         260         276         275
         4         260         261         277         276
         4         261         262         278         277
         4         262         263         279         278
         4         263         264         280         279
         4         264         265         281         280
         4         265         266         282         281
         4         266         267         283         282
         4         267         268         284         283
         4         268         269         285         284
         4         269         270         286         285
         4         270         271         287         286
         4         272         273         289         288
         4         273         274         290         289
         4         274         275         291         290
         4         275         276         292         291
         4         276         277         293         292
         4         277         278         294         293
         4         278         279         295         294
         4         279         280         296         295
         4         280         281         297         296
         4         281         282         298         297
         4         282         283         299         298
         4         283         284         300         299
         4         284         285         301         300
         4         285         286         302         301
         4         286         287         303         302
         4         288         289         305         304
         4         289         290         306         305
         4         290         291         307         306
         4         291         292         308         307
         4         292         293         309         308
         4         293         294         310         309
         4         294         295         311         310
         4         295         296         312         311
         4         296         297         313         312
         4         297         298         314         313
         4         298         299         315         314
         4         299         300         316         315
         4         300         301         317         316
         4         301         302         318         317
         4         302         303         319         318
         4         304         305         321         320
         4         305         306         322         321
         4         306         307         323         322
         4         307         308         324         323
         4         308         309         325         324
         4         309         310         326         325
         4         310         311         327         326
         4         311         312         328         327
         4         312         313         329         328
         4         313         314         330         329
         4         314         315         331         330
         4         315         316         332         331
         4         316         317         333         332
         4         317         318         334         333
         4         318         319         335         334
         4         320         321         337         336
         4         321         322         338         337
         4         322         323         339         338
         4         323         324         340         339
         4         324         325         341         340
         4         325         326         342         341
         4         326         327         343         342
         4         327         328         344         343
         4         328         329         345         344
         4         329         330         346         345
         4         330         331         347         346
         4         331         332         348         347
         4         332         333         349         348
         4         333         334         350         349
         4         334         335         351         350
         4         336         337         353         352
         4         337         338         354         353
         4         338         339         355         354
         4         339         340         356         355
         4         340         341         357         356
         4         341         342         358         357
         4         342         343         359         358
         4         343         344         360         359
         4         344         345         361         360
         4         345         346         362         361
         4         346         347         363         362
         4         347         348         364         363
         4         348         349         365         364
         4         349         350         366         365
         4         350         351         367         366
         4         352         353         369         368
         4         353         354         370         369
         4         354         355         371         370
         4         355         356         372         371
         4         356         357         373         372
         4         357         358         374         373
         4         358         359         375         374
         4         359         360         376         375
         4         360         361         377         376
         4         361         362         378         377
         4         362         363         379         378
         4         363         364         380         379
         4         364         365         381         380
         4         365         366         382         381
         4         366         367         383         382
         4         368         369         385         384
         4         369         370         386         385
         4         370         371         387         386
         4         371         372         388         387
         4         372         373         389         388
         4         373         374         390         389
         4         374         375         391         390
         4         375         376         392         391
         4         376         377         393         392
         4         377         378         394         393
         4         378         379         395         394
         4         379         380         396         395
         4         380         381         397         396
         4         381         382         398         397
         4         382         383         399         398
         4         384         385         401         400
         4         385         386         402         401
         4         386         387         403         402
         4         387         388         404         403
         4         388         389         405         404
         4         389         390         406         405
         4         390         391         407         406
         4         391         392         408         407
         4         392         393         409         408
         4         393         394         410         409
         4         394         395         411         410
         4         395         396         412         411
         4         396         397         413         412
         4         397         398         414         413
         4         398         399         415         414
         4         400         401         417         416
         4         401         402         418         417
         4         402         403         419         418
         4         403         404         420         419
         4         404         405         421         420
         4         405         406         422         421
         4         406         407         423         422
         4         407         408         424         423
         4         408         409         425         424
         4         409         410         426         425
         4         410         411         427         426
         4         411         412         428         427
         4         412         413         429         428
         4         413         414         430         429
         4         414         415         431         430
         4         416         417         433         432
         4         417         418         434         433
         4         418         419         435         434
         4         419         420         436         435
         4         420         421         437         436
         4         421         422         438         437
         4         422         423         439         438
         4         423         424         440         439
         4         424         425         441         440
         4         425         426         442         441
         4         426         427         443         442
         4         427         428         444         443
         4         428         429         445         444
         4         429         430         446         445
         4         430         431         447         446
         4         432         433         449         448
         4         433         434         450         449
         4         434         435         451         450
         4         435         436         452         451
         4         436         437         453         452
         4         437         438         454         453
         4         438         439         455         454
         4         439         440         456         455
         4         440         441         457         456
         4         441         442         458         457
         4         442         443         459         458
         4         443         444         460         459
         4         444         445         461         460
         4         445         446         462         461
         4         446         447         463         462
         4         448         449         465         464
         4         449         450         466         465
         4         450         451         467         466
         4         451         452         468         467
         4         452         453         469         468
         4         453         454         470         469
         4         454         455         471         470
         4         455         456         472         471
         4         456         457         473         472
         4         457         458         474         473
         4         458         459         475         474
         4         459         460         476         475
         4         460         461         477         476
         4         461         462         478         477
         4         462         463         479         478
         4         464         465         481         480
         4         465         466         482         481
         4         466         467         483         482
         4         467         468         484         483
         4         468         469         485         484
         4         469         470         486         485
         4         470         471         487         486
         4         471         472         488         487
         4         472         473         489         488
         4         473         474         490         489
         4         474         475         491         490
         4         475         476         492         491
         4         476         477         493         492
         4         477         478         494         493
         4         478         479         495         494
CELL_TYPES        450
9
9
9
9
9
9
9
9
9
9
9
9
9
9
9
9
9
9
9
9
9
9
9
9
9
9
9
9
9
9
9
9
9
9
9
9
9
9
9
9
9
9
9
9
9
9
9
9
9
9
9
9
9
9
9
9
9
9
9
9
9
9
9
9
9
9
9
9
9
9
9
9
9
9
9
9
9
9
9
9
9
9
9
9
9
9
9
9
9
9
9
9
9
9
9
9
9
9
9
9
9
9
9
9
9
9
9
9
9
9
9
9
9
9
9
9
9
9
9
9
9
9
9
9
9
9
9
9
9
9
9
9
9
9
9
9
9
9
9
9
9
9
9
9
9
9
9
9
9
9
9
9
9
9
9
9
9
9
9
9
9
9
9
9
9
9
9
9
9
9
9
9
9
9
9
9
9
9
9
9
9
9
9
9
9
9
9
9
9
9
9
9
9
9
9
9
9
9
9
9
9
9
9
9
9
9
9
9
9
9
9
9
9
9
9
9
9
9
9
9
9
9
9
9
9
9
9
9
9
9
9
9
9
9
9
9
9
9
9
9
9
9
9
9
9
9
9
9
9
9
9
9
9
9
9
9
9
9
9
9
9
9
9
9
9
9
9
9
9
9
9
9
9
9
9
9
9
9
9
9
9
9
9
9
9
9
9
9
9
9
9
9
9
9
9
9
9
9
9
9
9
9
9
9
9
9
9
9
9
9
9
9
9
9
9
9
9
9
9
9
9
9
9
9
9
9
9
9
9
9
9
9
9
9
9
9
9
9
9
9
9
9
9
9
9
9
9
9
9
9
9
9
9
9
9
9
9
9
9
9
9
9
9
9
9
9
9
9
9
9
9
9
9
9
9
9
9
9
9
9
9
9
9
9
9
9
9
9
9
9
9
9
9
9
9
9
9
9
9
9
9
9
9
9
9
9
9
9
9
9
9
9
9
9
9
9
9
9
9
9
9
9
9
9
9
9
9
9
9
9
9
9
9
9
9
9
9
9
9
9
9
9
9
9
9
9
9
9
9
9
POINT_DATA       496
SCALARS p double 
LOOKUP_TABLE default
   70990586.7890578     
   70990805.6939110     
   70991433.8155965     
   70992357.8046358     
   70993440.0007968     
   70994583.5691386     
   70995708.6930935     
   70996730.2670600     
   70997615.7568258     
   70998403.8719795     
   70999118.6637784     
   70999761.7645464     
   71000329.6907806     
   71000812.0277154     
   71001191.2784076     
   71001352.6133449     
   68965976.6218047     
   68966135.8371302     
   68966498.7212682     
   68966935.1542225     
   68967427.0825590     
   68967959.5721245     
   68968503.2201526     
   68969058.1921993     
   68969628.9086755     
   68970183.4256476     
   68970697.5028677     
   68971160.2952954     
   68971559.2625007     
   68971877.5629856     
   68972081.0222494     
   68972147.9757833     
   66939781.3016916     
   66939835.0995918     
   66939956.8154784     
   66940100.1048402     
   66940258.2683209     
   66940448.2941437     
   66940702.7960697     
   66941019.9153724     
   66941365.3493050     
   66941714.2565955     
   66942048.5142680     
   66942350.2992505     
   66942604.2783273     
   66942793.5886417     
   66942905.3554493     
   66942940.9315531     
   64912213.3531981     
   64912172.8006536     
   64912112.3014928     
   64912106.4050412     
   64912163.5490216     
   64912269.5445329     
   64912408.7180542     
   64912573.2810348     
   64912757.6549010     
   64912950.4010973     
   64913138.0524658     
   64913307.7031053     
   64913446.7352850     
   64913545.3460377     
   64913599.7050626     
   64913615.8259824     
   62883656.7584115     
   62883625.2276309     
   62883579.3193687     
   62883564.5746056     
   62883576.0506990     
   62883608.5399907     
   62883656.8094692     
   62883717.4830968     
   62883787.7212872     
   62883863.7550036     
   62883939.3232075     
   62884006.8570630     
   62884059.4763238     
   62884092.9043716     
   62884107.7896533     
   62884111.0550080     
   60854650.6310070     
   60854636.2297033     
   60854600.6703082     
   60854562.2560009     
   60854530.8626463     
   60854504.8827635     
   60854483.0142318     
   60854464.9558902     
   60854450.9434486     
   60854440.5720810     
   60854432.2722402     
   60854423.5917511     
   60854412.4400816     
   60854398.6852788     
   60854385.4490749     
   60854379.5865349     
   58825245.4732133     
   58825228.7039704     
   58825184.8483440     
   58825124.7389934     
   58825055.7901185     
   58824981.7971142     
   58824904.3861549     
   58824825.5277870     
   58824747.5072475     
   58824672.4265712     
   58824601.8295659     
   58824536.8813487     
   58824479.0505942     
   58824431.0267197     
   58824397.4379466     
   58824384.9667649     
   56795424.4730970     
   56795403.9698924     
   56795347.8633491     
   56795265.9713177     
   56795165.7776730     
   56795052.6761162     
   56794930.9097201     
   56794804.3780758     
   56794677.0861673     
   56794552.9984006     
   56794435.8791801     
   56794329.3667151     
   56794237.3229384     
   56794164.2968677     
   56794115.8533422     
   56794098.5416676     
   54765189.6050612     
   54765165.1619349     
   54765097.3744970     
   54764996.2503186     
   54764869.9375060     
   54764725.2038323     
   54764567.9638011     
   54764403.7894960     
   54764238.1709181     
   54764076.5656025     
   54763924.3521021     
   54763786.8630594     
   54763669.5354455     
   54763578.1058451     
   54763518.7182939     
   54763497.8286555     
   52734544.8172560     
   52734517.0214180     
   52734439.2792814     
   52734322.0393342     
   52734174.2802001     
   52734003.9296838     
   52733818.2545221     
   52733624.1736726     
   52733428.4529491     
   52733237.7701720     
   52733058.7178167     
   52732897.8100571     
   52732761.5253502     
   52732656.3547528     
   52732588.7939143     
   52732565.2258118     
   50703494.8796283     
   50703464.3453314     
   50703378.4508430     
   50703248.0036680     
   50703082.7407225     
   50702891.5997387     
   50702682.9735670     
   50702464.9146059     
   50702245.2633028     
   50702031.7026269     
   50701831.7625519     
   50701652.8074607     
   50701502.0215041     
   50701386.3823478     
   50701312.5980009     
   50701286.9877459     
   48672044.3088447     
   48672011.5485615     
   48671918.9888797     
   48671777.6994966     
   48671598.0603933     
   48671389.8729258     
   48671162.4896523     
   48670924.9258882     
   48670685.9322659     
   48670454.0231288     
   48670237.4695735     
   48670044.2700337     
   48669882.1060818     
   48669758.2811224     
   48669679.6344006     
   48669652.4277392     
   46640197.0814011     
   46640162.4558358     
   46640064.3061184     
   46639913.9199979     
   46639722.2304372     
   46639499.7843805     
   46639256.7606568     
   46639003.0005078     
   46638748.0281226     
   46638501.0507069     
   46638270.9364783     
   46638066.1733003     
   46637894.8101604     
   46637764.3814438     
   46637681.8136976     
   46637653.3191387     
   44607956.5129298     
   44607920.2380513     
   44607817.1781192     
   44607658.8624500     
   44607456.7352443     
   44607222.0083909     
   44606965.5851638     
   44606698.0215459     
   44606429.5017000     
   44606169.8126251     
   44605928.3096374     
   44605713.8684548     
   44605534.8217806     
   44605398.8796780     
   44605313.0354794     
   44605283.4635605     
   42575325.2355794     
   42575287.4054723     
   42575179.7820307     
   42575014.2200893     
   42574802.6836471     
   42574557.0081012     
   42574288.7487164     
   42574009.0867118     
   42573728.7696258     
   42573458.0678170     
   42573206.7335696     
   42572983.9531065     
   42572798.2851285     
   42572657.5829284     
   42572568.9012043     
   42572538.3937841     
   40542305.2125829     
   40542265.8277054     
   40542153.7316598     
   40541981.2380610     
   40541760.8835696     
   40541505.1206943     
   40541226.1091819     
   40540935.5821661     
   40540644.7642447     
   40540364.3206363     
   40540104.3191930     
   40539874.1903375     
   40539682.6739896     
   40539537.7471226     
   40539446.5310625     
   40539415.1838003     
   38508897.7679836     
   38508856.7636929     
   38508740.1101305     
   38508560.7521473     
   38508331.8881026     
   38508066.6092078     
   38507777.6501658     
   38507477.2314931     
   38507176.9707307     
   38506887.8384356     
   38506620.1355804     
   38506383.4716829     
   38506186.7273745     
   38506037.9908077     
   38505944.4642023     
   38505912.3445408     
   36475103.6200953     
   36475060.8937850     
   36474939.4998790     
   36474753.2188594     
   36474516.0282942     
   36474241.6994562     
   36473943.5215898     
   36473634.1374381     
   36473325.4658500     
   36473028.6825148     
   36472754.2288115     
   36472511.8212368     
   36472310.4386716     
   36472158.2717043     
   36472062.6269860     
   36472029.7892542     
   34440922.9137532     
   34440878.3501324     
   34440752.0097194     
   34440558.7412364     
   34440313.4412196     
   34440030.6134675     
   34439724.0799253     
   34439406.8283407     
   34439090.9683111     
   34438787.7590645     
   34438507.6700932     
   34438260.4383625     
   34438055.0916478     
   34437899.9161915     
   34437802.3576370     
   34437768.8563283     
   32406355.2493768     
   32406308.7439544     
   32406177.2992087     
   32405977.0932269     
   32405724.0990437     
   32405433.6073045     
   32405119.9369128     
   32404796.3176087     
   32404474.9070590     
   32404166.8935405     
   32403882.6333433     
   32403631.7758547     
   32403423.3371355     
   32403265.6932960     
   32403166.4774806     
   32403132.3793177     
   30371399.7086914     
   30371351.1896519     
   30371214.6012482     
   30371007.7457297     
   30370747.8447213     
   30370451.0208714     
   30370132.0247615     
   30369804.1829013     
   30369479.5116883     
   30369168.9294804     
   30368882.5000015     
   30368629.6485569     
   30368419.3032433     
   30368259.9244441     
   30368159.3990801     
   30368124.7941528     
   28336054.8773351     
   28336004.3265082     
   28335862.7452647     
   28335649.8994019     
   28335384.4425940     
   28335083.3499918     
   28334761.6878271     
   28334432.6721164     
   28334107.9275885     
   28333797.8497048     
   28333511.9851521     
   28333259.3639296     
   28333048.7291323     
   28332888.6182127     
   28332787.2599655     
   28332752.2720125     
   26300318.8662857     
   26300266.3400862     
   26300120.1854412     
   26299902.5339786     
   26299633.6591975     
   26299331.3584942     
   26299010.8160778     
   26298684.8452760     
   26298364.3567226     
   26298058.9130681     
   26297777.2727516     
   26297527.8598292     
   26297319.1072608     
   26297159.6155564     
   26297058.0677883     
   26297022.8636847     
   24264189.3337532     
   24264134.9867128     
   24263985.0433939     
   24263764.4940088     
   24263495.4037060     
   24263196.2621614     
   24262882.0461221     
   24262564.7654333     
   24262254.2223308     
   24261958.7920776     
   24261686.1370658     
   24261443.8242386     
   24261239.8108520     
   24261082.7254061     
   24260981.8387913     
   24260946.6378651     
   22227663.5052370     
   22227607.6237929     
   22227455.1845396     
   22227234.6520939     
   22226969.9848212     
   22226680.0420463     
   22226379.0716479     
   22226077.7560087     
   22225784.3496411     
   22225505.6826721     
   22225248.0094800     
   22225017.7540499     
   22224822.1698770     
   22224669.8227382     
   22224570.7072062     
   22224535.7927362     
   20190738.1970389     
   20190681.2577493     
   20190528.3689723     
   20190312.2352225     
   20190058.5936980     
   20189785.9832835     
   20189507.1226250     
   20189230.7420261     
   20188963.1426177     
   20188709.3375328     
   20188473.9221785     
   20188261.8813946     
   20188079.4361022     
   20187934.8685637     
   20187838.9786941     
   20187804.7154258     
   18153409.8582996     
   18153352.6475395     
   18153202.5874428     
   18152997.5063953     
   18152764.2185857     
   18152519.5835945     
   18152273.6722065     
   18152032.6721872     
   18151800.7206262     
   18151580.9509344     
   18151376.2274291     
   18151189.8442752     
   18151026.5342993     
   18150893.7889593     
   18150803.0905221     
   18150769.9732799     
   16115674.6056300     
   16115618.5390385     
   16115476.8927355     
   16115293.2557528     
   16115093.3624733     
   16114889.9713983     
   16114689.3453507     
   16114494.9673629     
   16114308.9647426     
   16114132.8452327     
   16113967.9495416     
   16113815.9155983     
   16113679.3853003     
   16113564.0830001     
   16113481.4575301     
   16113450.1673138     
   14077528.4266678     
   14077476.4102015     
   14077353.6316623     
   14077208.2336070     
   14077058.9906384     
   14076911.6310649     
   14076768.8235958     
   14076631.8554045     
   14076501.4299312     
   14076377.9757363     
   14076261.8226208     
   14076153.3607204     
   14076053.4222410     
   14075963.8464305     
   14075893.9508591     
   14075865.9452057     
   12038967.4743397     
   12038927.4366308     
   12038846.3030114     
   12038764.2233807     
   12038683.5427261     
   12038605.7488022     
   12038531.2992021     
   12038460.3937715     
   12038393.0995293     
   12038329.4119746     
   12038269.2751935     
   12038212.5959244     
   12038159.2234119     
   12038109.2929878     
   12038061.6349825     
   12038038.0289588     
   10000000.0000000     
   10000000.0000000     
   10000000.0000000     
   10000000.0000000     
   10000000.0000000     
   10000000.0000000     
   10000000.0000000     
   10000000.0000000     
   10000000.0000000     
   10000000.0000000     
   10000000.0000000     
   10000000.0000000     
   10000000.0000000     
  10000000.00000000     
   10000000.0000000     
   10000000.0000000     
VECTORS u double 
    0.00000E+00        -0.38802E-02         0.00000E+00
    0.00000E+00        -0.25821E-02         0.00000E+00
    0.00000E+00        -0.15417E-02         0.00000E+00
    0.00000E+00        -0.88712E-03         0.00000E+00
    0.00000E+00        -0.57734E-03         0.00000E+00
    0.00000E+00        -0.44796E-03         0.00000E+00
    0.00000E+00        -0.37086E-03         0.00000E+00
    0.00000E+00        -0.26575E-03         0.00000E+00
    0.00000E+00        -0.13658E-03         0.00000E+00
    0.00000E+00         0.48172E-05         0.00000E+00
    0.00000E+00         0.14245E-03         0.00000E+00
    0.00000E+00         0.25868E-03         0.00000E+00
    0.00000E+00         0.33385E-03         0.00000E+00
    0.00000E+00         0.34401E-03         0.00000E+00
    0.00000E+00         0.25612E-03         0.00000E+00
    0.00000E+00         0.00000E+00         0.00000E+00
    0.46766E-02        -0.38486E-02         0.00000E+00
    0.44359E-02        -0.26981E-02         0.00000E+00
    0.38747E-02        -0.18455E-02         0.00000E+00
    0.32087E-02        -0.12953E-02         0.00000E+00
    0.26050E-02        -0.97085E-03         0.00000E+00
    0.21358E-02        -0.77329E-03         0.00000E+00
    0.17642E-02        -0.61133E-03         0.00000E+00
    0.14992E-02        -0.44137E-03         0.00000E+00
    0.13373E-02        -0.26925E-03         0.00000E+00
    0.11987E-02        -0.10004E-03         0.00000E+00
    0.10637E-02         0.57961E-04         0.00000E+00
    0.92243E-03         0.19042E-03         0.00000E+00
    0.76602E-03         0.27936E-03         0.00000E+00
    0.58270E-03         0.30192E-03         0.00000E+00
    0.35116E-03         0.22561E-03         0.00000E+00
    0.00000E+00         0.00000E+00         0.00000E+00
    0.84560E-02        -0.40047E-02         0.00000E+00
    0.76886E-02        -0.32338E-02         0.00000E+00
    0.66465E-02        -0.26705E-02         0.00000E+00
    0.55852E-02        -0.22247E-02         0.00000E+00
    0.46407E-02        -0.18445E-02         0.00000E+00
    0.38618E-02        -0.15072E-02         0.00000E+00
    0.32833E-02        -0.11956E-02         0.00000E+00
    0.28701E-02        -0.90759E-03         0.00000E+00
    0.25478E-02        -0.64191E-03         0.00000E+00
    0.22671E-02        -0.40131E-03         0.00000E+00
    0.19951E-02        -0.18724E-03         0.00000E+00
    0.17123E-02        -0.80952E-05         0.00000E+00
    0.14017E-02         0.12202E-03         0.00000E+00
    0.10416E-02         0.18355E-03         0.00000E+00
    0.59563E-03         0.15059E-03         0.00000E+00
    0.00000E+00         0.00000E+00         0.00000E+00
    0.11202E-01        -0.49249E-02         0.00000E+00
    0.98990E-02        -0.43455E-02         0.00000E+00
    0.85512E-02        -0.38504E-02         0.00000E+00
    0.73180E-02        -0.33669E-02         0.00000E+00
    0.62544E-02        -0.28880E-02         0.00000E+00
    0.53805E-02        -0.24233E-02         0.00000E+00
    0.46780E-02        -0.19814E-02         0.00000E+00
    0.41162E-02        -0.15726E-02         0.00000E+00
    0.36463E-02        -0.12015E-02         0.00000E+00
    0.32235E-02        -0.86739E-03         0.00000E+00
    0.28139E-02        -0.57204E-03         0.00000E+00
    0.23912E-02        -0.32061E-03         0.00000E+00
    0.19316E-02        -0.12321E-03         0.00000E+00
    0.14072E-02         0.58106E-05         0.00000E+00
    0.78034E-03         0.50648E-04         0.00000E+00
    0.00000E+00         0.00000E+00         0.00000E+00
    0.13138E-01        -0.63997E-02         0.00000E+00
    0.11561E-01        -0.57924E-02         0.00000E+00
    0.10135E-01        -0.52060E-02         0.00000E+00
    0.88483E-02        -0.46174E-02         0.00000E+00
    0.77183E-02        -0.40299E-02         0.00000E+00
    0.67519E-02        -0.34538E-02         0.00000E+00
    0.59360E-02        -0.29012E-02         0.00000E+00
    0.52430E-02        -0.23814E-02         0.00000E+00
    0.46363E-02        -0.19011E-02         0.00000E+00
    0.40781E-02        -0.14633E-02         0.00000E+00
    0.35349E-02        -0.10704E-02         0.00000E+00
    0.29773E-02        -0.72657E-03         0.00000E+00
    0.23776E-02        -0.43892E-03         0.00000E+00
    0.17058E-02        -0.21665E-03         0.00000E+00
    0.92682E-03        -0.68746E-04         0.00000E+00
    0.00000E+00         0.00000E+00         0.00000E+00
    0.14751E-01        -0.81010E-02         0.00000E+00
    0.13084E-01        -0.73769E-02         0.00000E+00
    0.11580E-01        -0.66666E-02         0.00000E+00
    0.10230E-01        -0.59654E-02         0.00000E+00
    0.90301E-02        -0.52705E-02         0.00000E+00
    0.79779E-02        -0.45881E-02         0.00000E+00
    0.70592E-02        -0.39279E-02         0.00000E+00
    0.62502E-02        -0.32988E-02         0.00000E+00
    0.55204E-02        -0.27079E-02         0.00000E+00
    0.48371E-02        -0.21598E-02         0.00000E+00
    0.41684E-02        -0.16579E-02         0.00000E+00
    0.34846E-02        -0.12062E-02         0.00000E+00
    0.27566E-02        -0.80959E-03         0.00000E+00
    0.19546E-02        -0.47383E-03         0.00000E+00
    0.10467E-02        -0.20351E-03         0.00000E+00
    0.00000E+00         0.00000E+00         0.00000E+00
    0.16217E-01        -0.98994E-02         0.00000E+00
    0.14465E-01        -0.90560E-02         0.00000E+00
    0.12887E-01        -0.82281E-02         0.00000E+00
    0.11467E-01        -0.74112E-02         0.00000E+00
    0.10197E-01        -0.66054E-02         0.00000E+00
    0.90638E-02        -0.58143E-02         0.00000E+00
    0.80526E-02        -0.50447E-02         0.00000E+00
    0.71409E-02        -0.43042E-02         0.00000E+00
    0.63017E-02        -0.35991E-02         0.00000E+00
    0.55054E-02        -0.29346E-02         0.00000E+00
    0.47225E-02        -0.23146E-02         0.00000E+00
    0.39237E-02        -0.17428E-02         0.00000E+00
    0.30806E-02        -0.12228E-02         0.00000E+00
    0.21645E-02        -0.75798E-03         0.00000E+00
    0.11470E-02        -0.35051E-03         0.00000E+00
    0.00000E+00         0.00000E+00         0.00000E+00
    0.17529E-01        -0.11784E-01         0.00000E+00
    0.15700E-01        -0.10824E-01         0.00000E+00
    0.14050E-01        -0.98779E-02         0.00000E+00
    0.12563E-01        -0.89451E-02         0.00000E+00
    0.11224E-01        -0.80253E-02         0.00000E+00
    0.10016E-01        -0.71214E-02         0.00000E+00
    0.89221E-02        -0.62384E-02         0.00000E+00
    0.79198E-02        -0.53822E-02         0.00000E+00
    0.69841E-02        -0.45582E-02         0.00000E+00
    0.60879E-02        -0.37713E-02         0.00000E+00
    0.52032E-02        -0.30253E-02         0.00000E+00
    0.43023E-02        -0.23236E-02         0.00000E+00
    0.33578E-02        -0.16688E-02         0.00000E+00
    0.23429E-02        -0.10631E-02         0.00000E+00
    0.12317E-02        -0.50722E-03         0.00000E+00
    0.00000E+00         0.00000E+00         0.00000E+00
    0.18683E-01        -0.13747E-01         0.00000E+00
    0.16785E-01        -0.12669E-01         0.00000E+00
    0.15070E-01        -0.11606E-01         0.00000E+00
    0.13520E-01        -0.10556E-01         0.00000E+00
    0.12116E-01        -0.95191E-02         0.00000E+00
    0.10841E-01        -0.84985E-02         0.00000E+00
    0.96732E-02        -0.74976E-02         0.00000E+00
    0.85919E-02        -0.65207E-02         0.00000E+00
    0.75724E-02        -0.55726E-02         0.00000E+00
    0.65893E-02        -0.46574E-02         0.00000E+00
    0.56159E-02        -0.37785E-02         0.00000E+00
    0.46261E-02        -0.29388E-02         0.00000E+00
    0.35939E-02        -0.21404E-02         0.00000E+00
    0.24942E-02        -0.13846E-02         0.00000E+00
    0.13035E-02        -0.67162E-03         0.00000E+00
    0.00000E+00         0.00000E+00         0.00000E+00
    0.19676E-01        -0.15776E-01         0.00000E+00
    0.17718E-01        -0.14581E-01         0.00000E+00
    0.15946E-01        -0.13400E-01         0.00000E+00
    0.14339E-01        -0.12231E-01         0.00000E+00
    0.12878E-01        -0.11076E-01         0.00000E+00
    0.11542E-01        -0.99349E-02         0.00000E+00
    0.10311E-01        -0.88117E-02         0.00000E+00
    0.91619E-02        -0.77096E-02         0.00000E+00
    0.80710E-02        -0.66322E-02         0.00000E+00
    0.70138E-02        -0.55831E-02         0.00000E+00
    0.59650E-02        -0.45651E-02         0.00000E+00
    0.48995E-02        -0.35808E-02         0.00000E+00
    0.37929E-02        -0.26318E-02         0.00000E+00
    0.26216E-02        -0.17189E-02         0.00000E+00
    0.13639E-02        -0.84207E-03         0.00000E+00
    0.00000E+00         0.00000E+00         0.00000E+00
    0.20506E-01        -0.17860E-01         0.00000E+00
    0.18498E-01        -0.16550E-01         0.00000E+00
    0.16677E-01        -0.15250E-01         0.00000E+00
    0.15022E-01        -0.13962E-01         0.00000E+00
    0.13511E-01        -0.12685E-01         0.00000E+00
    0.12125E-01        -0.11421E-01         0.00000E+00
    0.10840E-01        -0.10171E-01         0.00000E+00
    0.96342E-02        -0.89396E-02         0.00000E+00
    0.84840E-02        -0.77284E-02         0.00000E+00
    0.73654E-02        -0.65405E-02         0.00000E+00
    0.62541E-02        -0.53783E-02         0.00000E+00
    0.51259E-02        -0.42439E-02         0.00000E+00
    0.39577E-02        -0.31386E-02         0.00000E+00
    0.27272E-02        -0.20631E-02         0.00000E+00
    0.14141E-02        -0.10173E-02         0.00000E+00
    0.00000E+00         0.00000E+00         0.00000E+00
    0.21172E-01        -0.19991E-01         0.00000E+00
    0.19124E-01        -0.18564E-01         0.00000E+00
    0.17263E-01        -0.17146E-01         0.00000E+00
    0.15569E-01        -0.15736E-01         0.00000E+00
    0.14019E-01        -0.14336E-01         0.00000E+00
    0.12591E-01        -0.12946E-01         0.00000E+00
    0.11263E-01        -0.11567E-01         0.00000E+00
    0.10012E-01        -0.10203E-01         0.00000E+00
    0.88149E-02        -0.88537E-02         0.00000E+00
    0.76474E-02        -0.75228E-02         0.00000E+00
    0.64862E-02        -0.62121E-02         0.00000E+00
    0.53080E-02        -0.49232E-02         0.00000E+00
    0.40904E-02        -0.36573E-02         0.00000E+00
    0.28124E-02        -0.24150E-02         0.00000E+00
    0.14547E-02        -0.11961E-02         0.00000E+00
    0.00000E+00         0.00000E+00         0.00000E+00
    0.21676E-01        -0.22157E-01         0.00000E+00
    0.19597E-01        -0.20613E-01         0.00000E+00
    0.17706E-01        -0.19076E-01         0.00000E+00
    0.15982E-01        -0.17545E-01         0.00000E+00
    0.14401E-01        -0.16020E-01         0.00000E+00
    0.12943E-01        -0.14502E-01         0.00000E+00
    0.11583E-01        -0.12992E-01         0.00000E+00
    0.10299E-01        -0.11491E-01         0.00000E+00
    0.90665E-02        -0.10001E-01         0.00000E+00
    0.78625E-02        -0.85242E-02         0.00000E+00
    0.66638E-02        -0.70616E-02         0.00000E+00
    0.54477E-02        -0.56148E-02         0.00000E+00
    0.41927E-02        -0.41849E-02         0.00000E+00
    0.28783E-02        -0.27725E-02         0.00000E+00
    0.14863E-02        -0.13776E-02         0.00000E+00
    0.00000E+00         0.00000E+00         0.00000E+00
    0.22015E-01        -0.24349E-01         0.00000E+00
    0.19915E-01        -0.22689E-01         0.00000E+00
    0.18004E-01        -0.21033E-01         0.00000E+00
    0.16260E-01        -0.19380E-01         0.00000E+00
    0.14661E-01        -0.17729E-01         0.00000E+00
    0.13183E-01        -0.16082E-01         0.00000E+00
    0.11802E-01        -0.14438E-01         0.00000E+00
    0.10496E-01        -0.12799E-01         0.00000E+00
    0.92411E-02        -0.11165E-01         0.00000E+00
    0.80129E-02        -0.95393E-02         0.00000E+00
    0.67889E-02        -0.79221E-02         0.00000E+00
    0.55469E-02        -0.63149E-02         0.00000E+00
    0.42658E-02        -0.47186E-02         0.00000E+00
    0.29259E-02        -0.31339E-02         0.00000E+00
    0.15092E-02        -0.15611E-02         0.00000E+00
    0.00000E+00         0.00000E+00         0.00000E+00
    0.22191E-01        -0.26558E-01         0.00000E+00
    0.20079E-01        -0.24782E-01         0.00000E+00
    0.18158E-01        -0.23006E-01         0.00000E+00
    0.16405E-01        -0.21231E-01         0.00000E+00
    0.14797E-01        -0.19454E-01         0.00000E+00
    0.13311E-01        -0.17676E-01         0.00000E+00
    0.11922E-01        -0.15897E-01         0.00000E+00
    0.10607E-01        -0.14118E-01         0.00000E+00
    0.93405E-02        -0.12339E-01         0.00000E+00
    0.81002E-02        -0.10563E-01         0.00000E+00
    0.68630E-02        -0.87896E-02         0.00000E+00
    0.56067E-02        -0.70203E-02         0.00000E+00
    0.43107E-02        -0.52561E-02         0.00000E+00
    0.29556E-02        -0.34976E-02         0.00000E+00
    0.15239E-02        -0.17455E-02         0.00000E+00
    0.00000E+00         0.00000E+00         0.00000E+00
    0.22201E-01        -0.28775E-01         0.00000E+00
    0.20087E-01        -0.26883E-01         0.00000E+00
    0.18166E-01        -0.24989E-01         0.00000E+00
    0.16416E-01        -0.23090E-01         0.00000E+00
    0.14811E-01        -0.21187E-01         0.00000E+00
    0.13329E-01        -0.19277E-01         0.00000E+00
    0.11943E-01        -0.17363E-01         0.00000E+00
    0.10631E-01        -0.15443E-01         0.00000E+00
    0.93658E-02        -0.13518E-01         0.00000E+00
    0.81257E-02        -0.11590E-01         0.00000E+00
    0.68871E-02        -0.96597E-02         0.00000E+00
    0.56281E-02        -0.77276E-02         0.00000E+00
    0.43282E-02        -0.57948E-02         0.00000E+00
    0.29680E-02        -0.38621E-02         0.00000E+00
    0.15304E-02        -0.19303E-02         0.00000E+00
    0.00000E+00         0.00000E+00         0.00000E+00
    0.22045E-01        -0.30991E-01         0.00000E+00
    0.19939E-01        -0.28983E-01         0.00000E+00
    0.18029E-01        -0.26970E-01         0.00000E+00
    0.16292E-01        -0.24949E-01         0.00000E+00
    0.14703E-01        -0.22919E-01         0.00000E+00
    0.13237E-01        -0.20879E-01         0.00000E+00
    0.11867E-01        -0.18828E-01         0.00000E+00
    0.10569E-01        -0.16766E-01         0.00000E+00
    0.93180E-02        -0.14696E-01         0.00000E+00
    0.80900E-02        -0.12616E-01         0.00000E+00
    0.68619E-02        -0.10528E-01         0.00000E+00
    0.56116E-02        -0.84334E-02         0.00000E+00
    0.43185E-02        -0.63323E-02         0.00000E+00
    0.29634E-02        -0.42257E-02         0.00000E+00
    0.15290E-02        -0.21146E-02         0.00000E+00
    0.00000E+00         0.00000E+00         0.00000E+00
    0.21720E-01        -0.33197E-01         0.00000E+00
    0.19632E-01        -0.31074E-01         0.00000E+00
    0.17744E-01        -0.28943E-01         0.00000E+00
    0.16033E-01        -0.26800E-01         0.00000E+00
    0.14472E-01        -0.24643E-01         0.00000E+00
    0.13034E-01        -0.22471E-01         0.00000E+00
    0.11693E-01        -0.20284E-01         0.00000E+00
    0.10422E-01        -0.18082E-01         0.00000E+00
    0.91973E-02        -0.15866E-01         0.00000E+00
    0.79936E-02        -0.13635E-01         0.00000E+00
    0.67877E-02        -0.11391E-01         0.00000E+00
    0.55574E-02        -0.91343E-02         0.00000E+00
    0.42819E-02        -0.68660E-02         0.00000E+00
    0.29418E-02        -0.45867E-02         0.00000E+00
    0.15196E-02        -0.22977E-02         0.00000E+00
    0.00000E+00         0.00000E+00         0.00000E+00
    0.21223E-01        -0.35383E-01         0.00000E+00
    0.19164E-01        -0.33146E-01         0.00000E+00
    0.17311E-01        -0.30897E-01         0.00000E+00
    0.15639E-01        -0.28632E-01         0.00000E+00
    0.14118E-01        -0.26349E-01         0.00000E+00
    0.12721E-01        -0.24047E-01         0.00000E+00
    0.11421E-01        -0.21724E-01         0.00000E+00
    0.10190E-01        -0.19382E-01         0.00000E+00
    0.90038E-02        -0.17021E-01         0.00000E+00
    0.78363E-02        -0.14641E-01         0.00000E+00
    0.66643E-02        -0.12243E-01         0.00000E+00
    0.54653E-02        -0.98265E-02         0.00000E+00
    0.42181E-02        -0.73931E-02         0.00000E+00
    0.29031E-02        -0.49434E-02         0.00000E+00
    0.15023E-02        -0.24786E-02         0.00000E+00
    0.00000E+00         0.00000E+00         0.00000E+00
    0.20551E-01        -0.37538E-01         0.00000E+00
    0.18532E-01        -0.35188E-01         0.00000E+00
    0.16727E-01        -0.32822E-01         0.00000E+00
    0.15106E-01        -0.30436E-01         0.00000E+00
    0.13639E-01        -0.28028E-01         0.00000E+00
    0.12297E-01        -0.25595E-01         0.00000E+00
    0.11051E-01        -0.23139E-01         0.00000E+00
    0.98730E-02        -0.20659E-01         0.00000E+00
    0.87368E-02        -0.18155E-01         0.00000E+00
    0.76174E-02        -0.15628E-01         0.00000E+00
    0.64909E-02        -0.13078E-01         0.00000E+00
    0.53345E-02        -0.10506E-01         0.00000E+00
    0.41265E-02        -0.79106E-02         0.00000E+00
    0.28469E-02        -0.52938E-02         0.00000E+00
    0.14769E-02        -0.26564E-02         0.00000E+00
    0.00000E+00         0.00000E+00         0.00000E+00
    0.19699E-01        -0.39651E-01         0.00000E+00
    0.17734E-01        -0.37189E-01         0.00000E+00
    0.15990E-01        -0.34707E-01         0.00000E+00
    0.14435E-01        -0.32200E-01         0.00000E+00
    0.13036E-01        -0.29667E-01         0.00000E+00
    0.11762E-01        -0.27107E-01         0.00000E+00
    0.10582E-01        -0.24518E-01         0.00000E+00
    0.94691E-02        -0.21902E-01         0.00000E+00
    0.83953E-02        -0.19259E-01         0.00000E+00
    0.73357E-02        -0.16589E-01         0.00000E+00
    0.62662E-02        -0.13892E-01         0.00000E+00
    0.51636E-02        -0.11167E-01         0.00000E+00
    0.40059E-02        -0.84149E-02         0.00000E+00
    0.27722E-02        -0.56357E-02         0.00000E+00
    0.14428E-02        -0.28301E-02         0.00000E+00
    0.00000E+00         0.00000E+00         0.00000E+00
    0.18663E-01        -0.41708E-01         0.00000E+00
    0.16765E-01        -0.39135E-01         0.00000E+00
    0.15098E-01        -0.36538E-01         0.00000E+00
    0.13623E-01        -0.33912E-01         0.00000E+00
    0.12307E-01        -0.31256E-01         0.00000E+00
    0.11114E-01        -0.28568E-01         0.00000E+00
    0.10014E-01        -0.25850E-01         0.00000E+00
    0.89775E-02        -0.23102E-01         0.00000E+00
    0.79777E-02        -0.20323E-01         0.00000E+00
    0.69893E-02        -0.17515E-01         0.00000E+00
    0.59880E-02        -0.14676E-01         0.00000E+00
    0.49506E-02        -0.11805E-01         0.00000E+00
    0.38545E-02        -0.89023E-02         0.00000E+00
    0.26777E-02        -0.59666E-02         0.00000E+00
    0.13993E-02        -0.29986E-02         0.00000E+00
    0.00000E+00         0.00000E+00         0.00000E+00
    0.17435E-01        -0.43695E-01         0.00000E+00
    0.15623E-01        -0.41013E-01         0.00000E+00
    0.14048E-01        -0.38301E-01         0.00000E+00
    0.12670E-01        -0.35557E-01         0.00000E+00
    0.11450E-01        -0.32779E-01         0.00000E+00
    0.10353E-01        -0.29966E-01         0.00000E+00
    0.93444E-02        -0.27122E-01         0.00000E+00
    0.83963E-02        -0.24245E-01         0.00000E+00
    0.74815E-02        -0.21337E-01         0.00000E+00
    0.65750E-02        -0.18397E-01         0.00000E+00
    0.56530E-02        -0.15423E-01         0.00000E+00
    0.46921E-02        -0.12414E-01         0.00000E+00
    0.36692E-02        -0.93683E-02         0.00000E+00
    0.25612E-02        -0.62839E-02         0.00000E+00
    0.13454E-02        -0.31607E-02         0.00000E+00
    0.00000E+00         0.00000E+00         0.00000E+00
    0.16012E-01        -0.45595E-01         0.00000E+00
    0.14303E-01        -0.42804E-01         0.00000E+00
    0.12839E-01        -0.39979E-01         0.00000E+00
    0.11575E-01        -0.37117E-01         0.00000E+00
    0.10467E-01        -0.34218E-01         0.00000E+00
    0.94772E-02        -0.31285E-01         0.00000E+00
    0.85724E-02        -0.28317E-01         0.00000E+00
    0.77232E-02        -0.25318E-01         0.00000E+00
    0.69034E-02        -0.22287E-01         0.00000E+00
    0.60890E-02        -0.19223E-01         0.00000E+00
    0.52567E-02        -0.16124E-01         0.00000E+00
    0.43836E-02        -0.12987E-01         0.00000E+00
    0.34460E-02        -0.98081E-02         0.00000E+00
    0.24196E-02        -0.65846E-02         0.00000E+00
    0.12792E-02        -0.33150E-02         0.00000E+00
    0.00000E+00         0.00000E+00         0.00000E+00
    0.14385E-01        -0.47386E-01         0.00000E+00
    0.12801E-01        -0.44488E-01         0.00000E+00
    0.11470E-01        -0.41551E-01         0.00000E+00
    0.10337E-01        -0.38573E-01         0.00000E+00
    0.93560E-02        -0.35556E-01         0.00000E+00
    0.84868E-02        -0.32504E-01         0.00000E+00
    0.76959E-02        -0.29420E-01         0.00000E+00
    0.69548E-02        -0.26305E-01         0.00000E+00
    0.62389E-02        -0.23160E-01         0.00000E+00
    0.55256E-02        -0.19983E-01         0.00000E+00
    0.47929E-02        -0.16770E-01         0.00000E+00
    0.40187E-02        -0.13516E-01         0.00000E+00
    0.31791E-02        -0.10216E-01         0.00000E+00
    0.22484E-02        -0.68654E-02         0.00000E+00
    0.11985E-02        -0.34601E-02         0.00000E+00
    0.00000E+00         0.00000E+00         0.00000E+00
    0.12549E-01        -0.49046E-01         0.00000E+00
    0.11116E-01        -0.46042E-01         0.00000E+00
    0.99391E-02        -0.42993E-01         0.00000E+00
    0.89572E-02        -0.39900E-01         0.00000E+00
    0.81180E-02        -0.36768E-01         0.00000E+00
    0.73806E-02        -0.33603E-01         0.00000E+00
    0.67123E-02        -0.30410E-01         0.00000E+00
    0.60870E-02        -0.27189E-01         0.00000E+00
    0.54823E-02        -0.23941E-01         0.00000E+00
    0.48778E-02        -0.20662E-01         0.00000E+00
    0.42536E-02        -0.17348E-01         0.00000E+00
    0.35890E-02        -0.13992E-01         0.00000E+00
    0.28607E-02        -0.10586E-01         0.00000E+00
    0.20414E-02        -0.71225E-02         0.00000E+00
    0.10997E-02        -0.35946E-02         0.00000E+00
    0.00000E+00         0.00000E+00         0.00000E+00
    0.10496E-01        -0.50546E-01         0.00000E+00
    0.92444E-02        -0.47437E-01         0.00000E+00
    0.82492E-02        -0.44277E-01         0.00000E+00
    0.74375E-02        -0.41071E-01         0.00000E+00
    0.67537E-02        -0.37829E-01         0.00000E+00
    0.61571E-02        -0.34558E-01         0.00000E+00
    0.56182E-02        -0.31265E-01         0.00000E+00
    0.51142E-02        -0.27950E-01         0.00000E+00
    0.46260E-02        -0.24612E-01         0.00000E+00
    0.41365E-02        -0.21246E-01         0.00000E+00
    0.36286E-02        -0.17847E-01         0.00000E+00
    0.30837E-02        -0.14406E-01         0.00000E+00
    0.24800E-02        -0.10911E-01         0.00000E+00
    0.17898E-02        -0.73517E-02         0.00000E+00
    0.97764E-03        -0.37166E-02         0.00000E+00
    0.00000E+00         0.00000E+00         0.00000E+00
    0.82191E-02        -0.51851E-01         0.00000E+00
    0.71879E-02        -0.48638E-01         0.00000E+00
    0.64038E-02        -0.45367E-01         0.00000E+00
    0.57812E-02        -0.42051E-01         0.00000E+00
    0.52633E-02        -0.38707E-01         0.00000E+00
    0.48138E-02        -0.35342E-01         0.00000E+00
    0.44085E-02        -0.31962E-01         0.00000E+00
    0.40292E-02        -0.28568E-01         0.00000E+00
    0.36612E-02        -0.25156E-01         0.00000E+00
    0.32910E-02        -0.21721E-01         0.00000E+00
    0.29053E-02        -0.18254E-01         0.00000E+00
    0.24890E-02        -0.14746E-01         0.00000E+00
    0.20230E-02        -0.11183E-01         0.00000E+00
    0.14812E-02        -0.75477E-02         0.00000E+00
    0.82487E-03        -0.38242E-02         0.00000E+00
    0.00000E+00         0.00000E+00         0.00000E+00
    0.57118E-02        -0.52913E-01         0.00000E+00
    0.49511E-02        -0.49596E-01         0.00000E+00
    0.44100E-02        -0.46217E-01         0.00000E+00
    0.39913E-02        -0.42801E-01         0.00000E+00
    0.36455E-02        -0.39369E-01         0.00000E+00
    0.33460E-02        -0.35928E-01         0.00000E+00
    0.30759E-02        -0.32481E-01         0.00000E+00
    0.28229E-02        -0.29026E-01         0.00000E+00
    0.25770E-02        -0.25558E-01         0.00000E+00
    0.23290E-02        -0.22072E-01         0.00000E+00
    0.20698E-02        -0.18557E-01         0.00000E+00
    0.17887E-02        -0.15002E-01         0.00000E+00
    0.14716E-02        -0.11390E-01         0.00000E+00
    0.10978E-02        -0.77036E-02         0.00000E+00
    0.62947E-03        -0.39148E-02         0.00000E+00
    0.00000E+00         0.00000E+00         0.00000E+00
    0.29683E-02        -0.53667E-01         0.00000E+00
    0.25481E-02        -0.50246E-01         0.00000E+00
    0.22763E-02        -0.46769E-01         0.00000E+00
    0.20671E-02        -0.43277E-01         0.00000E+00
    0.18947E-02        -0.39783E-01         0.00000E+00
    0.17454E-02        -0.36291E-01         0.00000E+00
    0.16106E-02        -0.32800E-01         0.00000E+00
    0.14841E-02        -0.29307E-01         0.00000E+00
    0.13611E-02        -0.25806E-01         0.00000E+00
    0.12368E-02        -0.22288E-01         0.00000E+00
    0.11066E-02        -0.18744E-01         0.00000E+00
    0.96503E-03        -0.15161E-01         0.00000E+00
    0.80466E-03        -0.11523E-01         0.00000E+00
    0.61374E-03        -0.78077E-02         0.00000E+00
    0.37010E-03        -0.39840E-02         0.00000E+00
    0.00000E+00         0.00000E+00         0.00000E+00
    0.00000E+00        -0.53988E-01         0.00000E+00
    0.00000E+00        -0.50486E-01         0.00000E+00
    0.00000E+00        -0.46962E-01         0.00000E+00
    0.00000E+00        -0.43440E-01         0.00000E+00
    0.00000E+00        -0.39924E-01         0.00000E+00
    0.00000E+00        -0.36414E-01         0.00000E+00
    0.00000E+00        -0.32908E-01         0.00000E+00
    0.00000E+00        -0.29402E-01         0.00000E+00
    0.00000E+00        -0.25889E-01         0.00000E+00
    0.00000E+00        -0.22361E-01         0.00000E+00
    0.00000E+00        -0.18807E-01         0.00000E+00
    0.00000E+00        -0.15215E-01         0.00000E+00
    0.00000E+00        -0.11568E-01         0.00000E+00
    0.00000E+00        -0.78448E-02         0.00000E+00
    0.00000E+00        -0.40126E-02         0.00000E+00
    0.00000E+00         0.00000E+00         0.00000E+00
CELL_DATA        450
VECTORS vDarcy double 
    0.11601E-05         0.10833E-09         0.00000E+00
    0.11601E-05         0.28389E-09         0.00000E+00
    0.11601E-05         0.38964E-09         0.00000E+00
    0.11600E-05         0.45071E-09         0.00000E+00
    0.11600E-05         0.47975E-09         0.00000E+00
    0.11600E-05         0.47751E-09         0.00000E+00
    0.11600E-05         0.45100E-09         0.00000E+00
    0.11600E-05         0.41649E-09         0.00000E+00
    0.11600E-05         0.38396E-09         0.00000E+00
    0.11600E-05         0.35139E-09         0.00000E+00
    0.11600E-05         0.31620E-09         0.00000E+00
    0.11600E-05         0.27643E-09         0.00000E+00
    0.11600E-05         0.22888E-09         0.00000E+00
    0.11600E-05         0.16656E-09         0.00000E+00
    0.11599E-05         0.65248E-10         0.00000E+00
    0.11603E-05         0.60989E-10         0.00000E+00
    0.11602E-05         0.13872E-09         0.00000E+00
    0.11601E-05         0.16592E-09         0.00000E+00
    0.11601E-05         0.18602E-09         0.00000E+00
    0.11600E-05         0.20671E-09         0.00000E+00
    0.11600E-05         0.22830E-09         0.00000E+00
    0.11600E-05         0.24942E-09         0.00000E+00
    0.11600E-05         0.26199E-09         0.00000E+00
    0.11600E-05         0.25832E-09         0.00000E+00
    0.11600E-05         0.24254E-09         0.00000E+00
    0.11599E-05         0.21858E-09         0.00000E+00
    0.11599E-05         0.18665E-09         0.00000E+00
    0.11599E-05         0.14509E-09         0.00000E+00
    0.11599E-05         0.90095E-10         0.00000E+00
    0.11598E-05         0.29302E-10         0.00000E+00
    0.11604E-05         0.37900E-11         0.00000E+00
    0.11602E-05         0.17513E-10         0.00000E+00
    0.11601E-05         0.39299E-10         0.00000E+00
    0.11601E-05         0.61580E-10         0.00000E+00
    0.11600E-05         0.84659E-10         0.00000E+00
    0.11600E-05         0.11258E-09         0.00000E+00
    0.11600E-05         0.13773E-09         0.00000E+00
    0.11600E-05         0.15148E-09         0.00000E+00
    0.11600E-05         0.15485E-09         0.00000E+00
    0.11599E-05         0.14919E-09         0.00000E+00
    0.11599E-05         0.13476E-09         0.00000E+00
    0.11599E-05         0.11233E-09         0.00000E+00
    0.11599E-05         0.82287E-10         0.00000E+00
    0.11598E-05         0.47475E-10         0.00000E+00
    0.11598E-05         0.14773E-10         0.00000E+00
    0.11603E-05        -0.20616E-10         0.00000E+00
    0.11602E-05        -0.30429E-10         0.00000E+00
    0.11601E-05        -0.59025E-11         0.00000E+00
    0.11601E-05         0.19621E-10         0.00000E+00
    0.11601E-05         0.39596E-10         0.00000E+00
    0.11600E-05         0.53591E-10         0.00000E+00
    0.11600E-05         0.64392E-10         0.00000E+00
    0.11600E-05         0.72784E-10         0.00000E+00
    0.11600E-05         0.76828E-10         0.00000E+00
    0.11599E-05         0.75233E-10         0.00000E+00
    0.11599E-05         0.67787E-10         0.00000E+00
    0.11599E-05         0.54770E-10         0.00000E+00
    0.11599E-05         0.37731E-10         0.00000E+00
    0.11598E-05         0.19786E-10         0.00000E+00
    0.11598E-05         0.55392E-11         0.00000E+00
    0.11603E-05        -0.13133E-10         0.00000E+00
    0.11602E-05        -0.23293E-10         0.00000E+00
    0.11602E-05        -0.15198E-10         0.00000E+00
    0.11601E-05        -0.56940E-11         0.00000E+00
    0.11601E-05         0.18608E-11         0.00000E+00
    0.11601E-05         0.75467E-11         0.00000E+00
    0.11600E-05         0.12181E-10         0.00000E+00
    0.11600E-05         0.16070E-10         0.00000E+00
    0.11600E-05         0.18766E-10         0.00000E+00
    0.11599E-05         0.19223E-10         0.00000E+00
    0.11599E-05         0.16818E-10         0.00000E+00
    0.11599E-05         0.11849E-10         0.00000E+00
    0.11598E-05         0.56211E-11         0.00000E+00
    0.11598E-05         0.47116E-12         0.00000E+00
    0.11598E-05        -0.74201E-12         0.00000E+00
    0.11603E-05        -0.89106E-11         0.00000E+00
    0.11602E-05        -0.22701E-10         0.00000E+00
    0.11602E-05        -0.28162E-10         0.00000E+00
    0.11601E-05        -0.28680E-10         0.00000E+00
    0.11601E-05        -0.28573E-10         0.00000E+00
    0.11601E-05        -0.28373E-10         0.00000E+00
    0.11600E-05        -0.27696E-10         0.00000E+00
    0.11600E-05        -0.26299E-10         0.00000E+00
    0.11600E-05        -0.24417E-10         0.00000E+00
    0.11599E-05        -0.22543E-10         0.00000E+00
    0.11599E-05        -0.21037E-10         0.00000E+00
    0.11599E-05        -0.19708E-10         0.00000E+00
    0.11598E-05        -0.17649E-10         0.00000E+00
    0.11598E-05        -0.13377E-10         0.00000E+00
    0.11598E-05        -0.52372E-11         0.00000E+00
    0.11603E-05        -0.10653E-10         0.00000E+00
    0.11602E-05        -0.28568E-10         0.00000E+00
    0.11602E-05        -0.40580E-10         0.00000E+00
    0.11601E-05        -0.48334E-10         0.00000E+00
    0.11601E-05        -0.53462E-10         0.00000E+00
    0.11601E-05        -0.56912E-10         0.00000E+00
    0.11600E-05        -0.58684E-10         0.00000E+00
    0.11600E-05        -0.58659E-10         0.00000E+00
    0.11600E-05        -0.56901E-10         0.00000E+00
    0.11599E-05        -0.53627E-10         0.00000E+00
    0.11599E-05        -0.48980E-10         0.00000E+00
    0.11599E-05        -0.42812E-10         0.00000E+00
    0.11599E-05        -0.34577E-10         0.00000E+00
    0.11598E-05        -0.23431E-10         0.00000E+00
    0.11598E-05        -0.85067E-11         0.00000E+00
    0.11602E-05        -0.12843E-10         0.00000E+00
    0.11602E-05        -0.35400E-10         0.00000E+00
    0.11601E-05        -0.52290E-10         0.00000E+00
    0.11601E-05        -0.64713E-10         0.00000E+00
    0.11601E-05        -0.73661E-10         0.00000E+00
    0.11600E-05        -0.79706E-10         0.00000E+00
    0.11600E-05        -0.83045E-10         0.00000E+00
    0.11600E-05        -0.83671E-10         0.00000E+00
    0.11600E-05        -0.81606E-10         0.00000E+00
    0.11599E-05        -0.76930E-10         0.00000E+00
    0.11599E-05        -0.69692E-10         0.00000E+00
    0.11599E-05        -0.59798E-10         0.00000E+00
    0.11599E-05        -0.46968E-10         0.00000E+00
    0.11598E-05        -0.30796E-10         0.00000E+00
    0.11598E-05        -0.10910E-10         0.00000E+00
    0.11602E-05        -0.14923E-10         0.00000E+00
    0.11602E-05        -0.41572E-10         0.00000E+00
    0.11601E-05        -0.62376E-10         0.00000E+00
    0.11601E-05        -0.78287E-10         0.00000E+00
    0.11601E-05        -0.89998E-10         0.00000E+00
    0.11600E-05        -0.97944E-10         0.00000E+00
    0.11600E-05        -0.10232E-09         0.00000E+00
    0.11600E-05        -0.10320E-09         0.00000E+00
    0.11600E-05        -0.10061E-09         0.00000E+00
    0.11599E-05        -0.94604E-10         0.00000E+00
    0.11599E-05        -0.85214E-10         0.00000E+00
    0.11599E-05        -0.72423E-10         0.00000E+00
    0.11599E-05        -0.56140E-10         0.00000E+00
    0.11599E-05        -0.36250E-10         0.00000E+00
    0.11598E-05        -0.12695E-10         0.00000E+00
    0.11602E-05        -0.16660E-10         0.00000E+00
    0.11601E-05        -0.46735E-10         0.00000E+00
    0.11601E-05        -0.70737E-10         0.00000E+00
    0.11601E-05        -0.89394E-10         0.00000E+00
    0.11601E-05        -0.10323E-09         0.00000E+00
    0.11600E-05        -0.11260E-09         0.00000E+00
    0.11600E-05        -0.11769E-09         0.00000E+00
    0.11600E-05        -0.11861E-09         0.00000E+00
    0.11600E-05        -0.11543E-09         0.00000E+00
    0.11600E-05        -0.10821E-09         0.00000E+00
    0.11599E-05        -0.97039E-10         0.00000E+00
    0.11599E-05        -0.81964E-10         0.00000E+00
    0.11599E-05        -0.63044E-10         0.00000E+00
    0.11599E-05        -0.40355E-10         0.00000E+00
    0.11599E-05        -0.14040E-10         0.00000E+00
    0.11601E-05        -0.18073E-10         0.00000E+00
    0.11601E-05        -0.50955E-10         0.00000E+00
    0.11601E-05        -0.77589E-10         0.00000E+00
    0.11601E-05        -0.98477E-10         0.00000E+00
    0.11600E-05        -0.11401E-09         0.00000E+00
    0.11600E-05        -0.12448E-09         0.00000E+00
    0.11600E-05        -0.13008E-09         0.00000E+00
    0.11600E-05        -0.13094E-09         0.00000E+00
    0.11600E-05        -0.12718E-09         0.00000E+00
    0.11600E-05        -0.11890E-09         0.00000E+00
    0.11600E-05        -0.10624E-09         0.00000E+00
    0.11599E-05        -0.89338E-10         0.00000E+00
    0.11599E-05        -0.68359E-10         0.00000E+00
    0.11599E-05        -0.43513E-10         0.00000E+00
    0.11599E-05        -0.15077E-10         0.00000E+00
    0.11601E-05        -0.19237E-10         0.00000E+00
    0.11601E-05        -0.54443E-10         0.00000E+00
    0.11601E-05        -0.83264E-10         0.00000E+00
    0.11600E-05        -0.10600E-09         0.00000E+00
    0.11600E-05        -0.12293E-09         0.00000E+00
    0.11600E-05        -0.13428E-09         0.00000E+00
    0.11600E-05        -0.14025E-09         0.00000E+00
    0.11600E-05        -0.14100E-09         0.00000E+00
    0.11600E-05        -0.13669E-09         0.00000E+00
    0.11600E-05        -0.12749E-09         0.00000E+00
    0.11600E-05        -0.11359E-09         0.00000E+00
    0.11600E-05        -0.95197E-10         0.00000E+00
    0.11599E-05        -0.72569E-10         0.00000E+00
    0.11599E-05        -0.46013E-10         0.00000E+00
    0.11599E-05        -0.15898E-10         0.00000E+00
    0.11601E-05        -0.20236E-10         0.00000E+00
    0.11600E-05        -0.57427E-10         0.00000E+00
    0.11600E-05        -0.88106E-10         0.00000E+00
    0.11600E-05        -0.11240E-09         0.00000E+00
    0.11600E-05        -0.13048E-09         0.00000E+00
    0.11600E-05        -0.14254E-09         0.00000E+00
    0.11600E-05        -0.14878E-09         0.00000E+00
    0.11600E-05        -0.14940E-09         0.00000E+00
    0.11600E-05        -0.14460E-09         0.00000E+00
    0.11600E-05        -0.13459E-09         0.00000E+00
    0.11600E-05        -0.11963E-09         0.00000E+00
    0.11600E-05        -0.99999E-10         0.00000E+00
    0.11600E-05        -0.76016E-10         0.00000E+00
    0.11600E-05        -0.48060E-10         0.00000E+00
    0.11600E-05        -0.16570E-10         0.00000E+00
    0.11600E-05        -0.21146E-10         0.00000E+00
    0.11600E-05        -0.60118E-10         0.00000E+00
    0.11600E-05        -0.92417E-10         0.00000E+00
    0.11600E-05        -0.11804E-09         0.00000E+00
    0.11600E-05        -0.13708E-09         0.00000E+00
    0.11600E-05        -0.14971E-09         0.00000E+00
    0.11600E-05        -0.15614E-09         0.00000E+00
    0.11600E-05        -0.15660E-09         0.00000E+00
    0.11600E-05        -0.15134E-09         0.00000E+00
    0.11600E-05        -0.14062E-09         0.00000E+00
    0.11600E-05        -0.12475E-09         0.00000E+00
    0.11600E-05        -0.10406E-09         0.00000E+00
    0.11600E-05        -0.78935E-10         0.00000E+00
    0.11600E-05        -0.49797E-10         0.00000E+00
    0.11600E-05        -0.17142E-10         0.00000E+00
    0.11600E-05        -0.22028E-10         0.00000E+00
    0.11600E-05        -0.62682E-10         0.00000E+00
    0.11600E-05        -0.96442E-10         0.00000E+00
    0.11600E-05        -0.12321E-09         0.00000E+00
    0.11600E-05        -0.14305E-09         0.00000E+00
    0.11600E-05        -0.15613E-09         0.00000E+00
    0.11600E-05        -0.16267E-09         0.00000E+00
    0.11600E-05        -0.16294E-09         0.00000E+00
    0.11600E-05        -0.15723E-09         0.00000E+00
    0.11600E-05        -0.14588E-09         0.00000E+00
    0.11600E-05        -0.12921E-09         0.00000E+00
    0.11600E-05        -0.10760E-09         0.00000E+00
    0.11600E-05        -0.81485E-10         0.00000E+00
    0.11600E-05        -0.51322E-10         0.00000E+00
    0.11600E-05        -0.17646E-10         0.00000E+00
    0.11599E-05        -0.22929E-10         0.00000E+00
    0.11599E-05        -0.65244E-10         0.00000E+00
    0.11599E-05        -0.10036E-09         0.00000E+00
    0.11600E-05        -0.12813E-09         0.00000E+00
    0.11600E-05        -0.14861E-09         0.00000E+00
    0.11600E-05        -0.16200E-09         0.00000E+00
    0.11600E-05        -0.16855E-09         0.00000E+00
    0.11600E-05        -0.16859E-09         0.00000E+00
    0.11600E-05        -0.16246E-09         0.00000E+00
    0.11600E-05        -0.15052E-09         0.00000E+00
    0.11600E-05        -0.13315E-09         0.00000E+00
    0.11601E-05        -0.11075E-09         0.00000E+00
    0.11601E-05        -0.83764E-10         0.00000E+00
    0.11601E-05        -0.52695E-10         0.00000E+00
    0.11601E-05        -0.18103E-10         0.00000E+00
    0.11599E-05        -0.23876E-10         0.00000E+00
    0.11599E-05        -0.67881E-10         0.00000E+00
    0.11599E-05        -0.10427E-09         0.00000E+00
    0.11599E-05        -0.13290E-09         0.00000E+00
    0.11600E-05        -0.15388E-09         0.00000E+00
    0.11600E-05        -0.16743E-09         0.00000E+00
    0.11600E-05        -0.17390E-09         0.00000E+00
    0.11600E-05        -0.17365E-09         0.00000E+00
    0.11600E-05        -0.16709E-09         0.00000E+00
    0.11600E-05        -0.15461E-09         0.00000E+00
    0.11601E-05        -0.13662E-09         0.00000E+00
    0.11601E-05        -0.11354E-09         0.00000E+00
    0.11601E-05        -0.85815E-10         0.00000E+00
    0.11601E-05        -0.53950E-10         0.00000E+00
    0.11601E-05        -0.18525E-10         0.00000E+00
    0.11598E-05        -0.24885E-10         0.00000E+00
    0.11599E-05        -0.70627E-10         0.00000E+00
    0.11599E-05        -0.10821E-09         0.00000E+00
    0.11599E-05        -0.13756E-09         0.00000E+00
    0.11599E-05        -0.15885E-09         0.00000E+00
    0.11600E-05        -0.17241E-09         0.00000E+00
    0.11600E-05        -0.17867E-09         0.00000E+00
    0.11600E-05        -0.17807E-09         0.00000E+00
    0.11600E-05        -0.17108E-09         0.00000E+00
    0.11601E-05        -0.15812E-09         0.00000E+00
    0.11601E-05        -0.13961E-09         0.00000E+00
    0.11601E-05        -0.11598E-09         0.00000E+00
    0.11601E-05        -0.87637E-10         0.00000E+00
    0.11601E-05        -0.55091E-10         0.00000E+00
    0.11601E-05        -0.18917E-10         0.00000E+00
    0.11598E-05        -0.25957E-10         0.00000E+00
    0.11598E-05        -0.73476E-10         0.00000E+00
    0.11599E-05        -0.11215E-09         0.00000E+00
    0.11599E-05        -0.14204E-09         0.00000E+00
    0.11599E-05        -0.16342E-09         0.00000E+00
    0.11600E-05        -0.17679E-09         0.00000E+00
    0.11600E-05        -0.18269E-09         0.00000E+00
    0.11600E-05        -0.18167E-09         0.00000E+00
    0.11601E-05        -0.17425E-09         0.00000E+00
    0.11601E-05        -0.16089E-09         0.00000E+00
    0.11601E-05        -0.14200E-09         0.00000E+00
    0.11601E-05        -0.11797E-09         0.00000E+00
    0.11601E-05        -0.89185E-10         0.00000E+00
    0.11602E-05        -0.56101E-10         0.00000E+00
    0.11602E-05        -0.19273E-10         0.00000E+00
    0.11597E-05        -0.27078E-10         0.00000E+00
    0.11598E-05        -0.76379E-10         0.00000E+00
    0.11598E-05        -0.11600E-09         0.00000E+00
    0.11599E-05        -0.14617E-09         0.00000E+00
    0.11599E-05        -0.16738E-09         0.00000E+00
    0.11599E-05        -0.18031E-09         0.00000E+00
    0.11600E-05        -0.18567E-09         0.00000E+00
    0.11600E-05        -0.18415E-09         0.00000E+00
    0.11601E-05        -0.17632E-09         0.00000E+00
    0.11601E-05        -0.16267E-09         0.00000E+00
    0.11601E-05        -0.14358E-09         0.00000E+00
    0.11602E-05        -0.11937E-09         0.00000E+00
    0.11602E-05        -0.90369E-10         0.00000E+00
    0.11602E-05        -0.56938E-10         0.00000E+00
    0.11602E-05        -0.19585E-10         0.00000E+00
    0.11597E-05        -0.28224E-10         0.00000E+00
    0.11597E-05        -0.79250E-10         0.00000E+00
    0.11598E-05        -0.11958E-09         0.00000E+00
    0.11598E-05        -0.14969E-09         0.00000E+00
    0.11599E-05        -0.17037E-09         0.00000E+00
    0.11599E-05        -0.18255E-09         0.00000E+00
    0.11600E-05        -0.18718E-09         0.00000E+00
    0.11600E-05        -0.18506E-09         0.00000E+00
    0.11601E-05        -0.17688E-09         0.00000E+00
    0.11601E-05        -0.16310E-09         0.00000E+00
    0.11602E-05        -0.14406E-09         0.00000E+00
    0.11602E-05        -0.11998E-09         0.00000E+00
    0.11602E-05        -0.91058E-10         0.00000E+00
    0.11602E-05        -0.57540E-10         0.00000E+00
    0.11603E-05        -0.19836E-10         0.00000E+00
    0.11596E-05        -0.29358E-10         0.00000E+00
    0.11597E-05        -0.81956E-10         0.00000E+00
    0.11597E-05        -0.12263E-09         0.00000E+00
    0.11598E-05        -0.15221E-09         0.00000E+00
    0.11599E-05        -0.17189E-09         0.00000E+00
    0.11599E-05        -0.18296E-09         0.00000E+00
    0.11600E-05        -0.18661E-09         0.00000E+00
    0.11600E-05        -0.18384E-09         0.00000E+00
    0.11601E-05        -0.17538E-09         0.00000E+00
    0.11601E-05        -0.16171E-09         0.00000E+00
    0.11602E-05        -0.14306E-09         0.00000E+00
    0.11602E-05        -0.11951E-09         0.00000E+00
    0.11602E-05        -0.91077E-10         0.00000E+00
    0.11603E-05        -0.57824E-10         0.00000E+00
    0.11603E-05        -0.20004E-10         0.00000E+00
    0.11596E-05        -0.30432E-10         0.00000E+00
    0.11596E-05        -0.84318E-10         0.00000E+00
    0.11597E-05        -0.12479E-09         0.00000E+00
    0.11598E-05        -0.15321E-09         0.00000E+00
    0.11599E-05        -0.17130E-09         0.00000E+00
    0.11599E-05        -0.18080E-09         0.00000E+00
    0.11600E-05        -0.18323E-09         0.00000E+00
    0.11600E-05        -0.17976E-09         0.00000E+00
    0.11601E-05        -0.17118E-09         0.00000E+00
    0.11601E-05        -0.15792E-09         0.00000E+00
    0.11602E-05        -0.14010E-09         0.00000E+00
    0.11602E-05        -0.11760E-09         0.00000E+00
    0.11603E-05        -0.90202E-10         0.00000E+00
    0.11603E-05        -0.57681E-10         0.00000E+00
    0.11603E-05        -0.20061E-10         0.00000E+00
    0.11595E-05        -0.31379E-10         0.00000E+00
    0.11596E-05        -0.86088E-10         0.00000E+00
    0.11597E-05        -0.12558E-09         0.00000E+00
    0.11598E-05        -0.15198E-09         0.00000E+00
    0.11598E-05        -0.16775E-09         0.00000E+00
    0.11599E-05        -0.17519E-09         0.00000E+00
    0.11600E-05        -0.17618E-09         0.00000E+00
    0.11601E-05        -0.17202E-09         0.00000E+00
    0.11601E-05        -0.16352E-09         0.00000E+00
    0.11602E-05        -0.15106E-09         0.00000E+00
    0.11602E-05        -0.13462E-09         0.00000E+00
    0.11603E-05        -0.11384E-09         0.00000E+00
    0.11603E-05        -0.88154E-10         0.00000E+00
    0.11603E-05        -0.56980E-10         0.00000E+00
    0.11604E-05        -0.19976E-10         0.00000E+00
    0.11594E-05        -0.32109E-10         0.00000E+00
    0.11595E-05        -0.86906E-10         0.00000E+00
    0.11596E-05        -0.12430E-09         0.00000E+00
    0.11597E-05        -0.14755E-09         0.00000E+00
    0.11598E-05        -0.16016E-09         0.00000E+00
    0.11599E-05        -0.16509E-09         0.00000E+00
    0.11600E-05        -0.16450E-09         0.00000E+00
    0.11601E-05        -0.15976E-09         0.00000E+00
    0.11601E-05        -0.15164E-09         0.00000E+00
    0.11602E-05        -0.14043E-09         0.00000E+00
    0.11602E-05        -0.12598E-09         0.00000E+00
    0.11603E-05        -0.10768E-09         0.00000E+00
    0.11603E-05        -0.84576E-10         0.00000E+00
    0.11604E-05        -0.55550E-10         0.00000E+00
    0.11604E-05        -0.19707E-10         0.00000E+00
    0.11594E-05        -0.32479E-10         0.00000E+00
    0.11595E-05        -0.86208E-10         0.00000E+00
    0.11596E-05        -0.11988E-09         0.00000E+00
    0.11597E-05        -0.13859E-09         0.00000E+00
    0.11598E-05        -0.14723E-09         0.00000E+00
    0.11599E-05        -0.14939E-09         0.00000E+00
    0.11600E-05        -0.14730E-09         0.00000E+00
    0.11601E-05        -0.14223E-09         0.00000E+00
    0.11601E-05        -0.13485E-09         0.00000E+00
    0.11602E-05        -0.12534E-09         0.00000E+00
    0.11602E-05        -0.11346E-09         0.00000E+00
    0.11603E-05        -0.98470E-10         0.00000E+00
    0.11604E-05        -0.78982E-10         0.00000E+00
    0.11604E-05        -0.53145E-10         0.00000E+00
    0.11605E-05        -0.19193E-10         0.00000E+00
    0.11593E-05        -0.32223E-10         0.00000E+00
    0.11595E-05        -0.82990E-10         0.00000E+00
    0.11596E-05        -0.11060E-09         0.00000E+00
    0.11597E-05        -0.12327E-09         0.00000E+00
    0.11598E-05        -0.12751E-09         0.00000E+00
    0.11599E-05        -0.12710E-09         0.00000E+00
    0.11600E-05        -0.12393E-09         0.00000E+00
    0.11601E-05        -0.11898E-09         0.00000E+00
    0.11601E-05        -0.11271E-09         0.00000E+00
    0.11602E-05        -0.10524E-09         0.00000E+00
    0.11603E-05        -0.96361E-10         0.00000E+00
    0.11603E-05        -0.85382E-10         0.00000E+00
    0.11604E-05        -0.70638E-10         0.00000E+00
    0.11604E-05        -0.49362E-10         0.00000E+00
    0.11605E-05        -0.18344E-10         0.00000E+00
    0.11592E-05        -0.30737E-10         0.00000E+00
    0.11594E-05        -0.75211E-10         0.00000E+00
    0.11596E-05        -0.93603E-10         0.00000E+00
    0.11597E-05        -0.99335E-10         0.00000E+00
    0.11598E-05        -0.99806E-10         0.00000E+00
    0.11599E-05        -0.97735E-10         0.00000E+00
    0.11600E-05        -0.94304E-10         0.00000E+00
    0.11601E-05        -0.90066E-10         0.00000E+00
    0.11601E-05        -0.85276E-10         0.00000E+00
    0.11602E-05        -0.80009E-10         0.00000E+00
    0.11603E-05        -0.74164E-10         0.00000E+00
    0.11603E-05        -0.67328E-10         0.00000E+00
    0.11604E-05        -0.58337E-10         0.00000E+00
    0.11605E-05        -0.43432E-10         0.00000E+00
    0.11605E-05        -0.16886E-10         0.00000E+00
    0.11592E-05        -0.26172E-10         0.00000E+00
    0.11594E-05        -0.57987E-10         0.00000E+00
    0.11596E-05        -0.64700E-10         0.00000E+00
    0.11597E-05        -0.65406E-10         0.00000E+00
    0.11598E-05        -0.64057E-10         0.00000E+00
    0.11599E-05        -0.61818E-10         0.00000E+00
    0.11600E-05        -0.59154E-10         0.00000E+00
    0.11601E-05        -0.56270E-10         0.00000E+00
    0.11601E-05        -0.53264E-10         0.00000E+00
    0.11602E-05        -0.50179E-10         0.00000E+00
    0.11603E-05        -0.47010E-10         0.00000E+00
    0.11603E-05        -0.43645E-10         0.00000E+00
    0.11604E-05        -0.39718E-10         0.00000E+00
    0.11605E-05        -0.33471E-10         0.00000E+00
    0.11606E-05        -0.14697E-10         0.00000E+00
    0.11591E-05        -0.11381E-10         0.00000E+00
    0.11594E-05        -0.23068E-10         0.00000E+00
    0.11596E-05        -0.23342E-10         0.00000E+00
    0.11597E-05        -0.22947E-10         0.00000E+00
    0.11598E-05        -0.22129E-10         0.00000E+00
    0.11599E-05        -0.21181E-10         0.00000E+00
    0.11600E-05        -0.20174E-10         0.00000E+00
    0.11601E-05        -0.19149E-10         0.00000E+00
    0.11601E-05        -0.18124E-10         0.00000E+00
    0.11602E-05        -0.17115E-10         0.00000E+00
    0.11603E-05        -0.16132E-10         0.00000E+00
    0.11603E-05        -0.15192E-10         0.00000E+00
    0.11604E-05        -0.14214E-10         0.00000E+00
    0.11605E-05        -0.13568E-10         0.00000E+00
    0.11606E-05        -0.67213E-11         0.00000E+00
POINT_DATA        496
VECTORS vDarcyNodal double 
    0.11601E-05         0.12543E-09         0.00000E+00
    0.11601E-05         0.24266E-09         0.00000E+00
    0.11600E-05         0.44458E-09         0.00000E+00
    0.11600E-05         0.57450E-09         0.00000E+00
    0.11600E-05         0.63719E-09         0.00000E+00
    0.11600E-05         0.64928E-09         0.00000E+00
    0.11600E-05         0.61419E-09         0.00000E+00
    0.11600E-05         0.54550E-09         0.00000E+00
    0.11600E-05         0.47864E-09         0.00000E+00
    0.11600E-05         0.42977E-09         0.00000E+00
    0.11600E-05         0.38827E-09         0.00000E+00
    0.11600E-05         0.34624E-09         0.00000E+00
    0.11600E-05         0.30025E-09         0.00000E+00
    0.11600E-05         0.24629E-09         0.00000E+00
    0.11600E-05         0.15452E-09         0.00000E+00
    0.11599E-05         0.92223E-10         0.00000E+00
    0.11602E-05         0.91201E-10         0.00000E+00
    0.11601E-05         0.14952E-09         0.00000E+00
    0.11601E-05         0.22887E-09         0.00000E+00
    0.11600E-05         0.26576E-09         0.00000E+00
    0.11600E-05         0.29319E-09         0.00000E+00
    0.11600E-05         0.30791E-09         0.00000E+00
    0.11600E-05         0.31427E-09         0.00000E+00
    0.11600E-05         0.32196E-09         0.00000E+00
    0.11600E-05         0.32179E-09         0.00000E+00
    0.11600E-05         0.30556E-09         0.00000E+00
    0.11600E-05         0.27930E-09         0.00000E+00
    0.11600E-05         0.24637E-09         0.00000E+00
    0.11600E-05         0.20504E-09         0.00000E+00
    0.11599E-05         0.14914E-09         0.00000E+00
    0.11599E-05         0.77289E-10         0.00000E+00
    0.11599E-05         0.38271E-10         0.00000E+00
    0.11603E-05         0.30797E-10         0.00000E+00
    0.11602E-05         0.50229E-10         0.00000E+00
    0.11601E-05         0.75829E-10         0.00000E+00
    0.11601E-05         0.86245E-10         0.00000E+00
    0.11601E-05         0.99603E-10         0.00000E+00
    0.11600E-05         0.12714E-09         0.00000E+00
    0.11600E-05         0.16348E-09         0.00000E+00
    0.11600E-05         0.18946E-09         0.00000E+00
    0.11600E-05         0.19853E-09         0.00000E+00
    0.11600E-05         0.19532E-09         0.00000E+00
    0.11599E-05         0.18183E-09         0.00000E+00
    0.11599E-05         0.15887E-09         0.00000E+00
    0.11599E-05         0.12670E-09         0.00000E+00
    0.11599E-05         0.86050E-10         0.00000E+00
    0.11598E-05         0.42109E-10         0.00000E+00
    0.11598E-05         0.20333E-10         0.00000E+00
    0.11603E-05        -0.23202E-10         0.00000E+00
    0.11603E-05        -0.28905E-10         0.00000E+00
    0.11602E-05        -0.18990E-10         0.00000E+00
    0.11601E-05         0.14655E-10         0.00000E+00
    0.11601E-05         0.46652E-10         0.00000E+00
    0.11600E-05         0.70105E-10         0.00000E+00
    0.11600E-05         0.86846E-10         0.00000E+00
    0.11600E-05         0.99762E-10         0.00000E+00
    0.11600E-05         0.10781E-09         0.00000E+00
    0.11599E-05         0.10874E-09         0.00000E+00
    0.11599E-05         0.10213E-09         0.00000E+00
    0.11599E-05         0.88225E-10         0.00000E+00
    0.11599E-05         0.67916E-10         0.00000E+00
    0.11599E-05         0.43715E-10         0.00000E+00
    0.11598E-05         0.20140E-10         0.00000E+00
    0.11598E-05         0.92129E-11         0.00000E+00
    0.11603E-05        -0.18033E-10         0.00000E+00
    0.11603E-05        -0.22144E-10         0.00000E+00
    0.11602E-05        -0.17343E-10         0.00000E+00
    0.11601E-05        -0.93476E-12         0.00000E+00
    0.11601E-05         0.12570E-10         0.00000E+00
    0.11601E-05         0.23088E-10         0.00000E+00
    0.11600E-05         0.31143E-10         0.00000E+00
    0.11600E-05         0.37421E-10         0.00000E+00
    0.11600E-05         0.41808E-10         0.00000E+00
    0.11599E-05         0.43329E-10         0.00000E+00
    0.11599E-05         0.40897E-10         0.00000E+00
    0.11599E-05         0.34336E-10         0.00000E+00
    0.11599E-05         0.24588E-10         0.00000E+00
    0.11598E-05         0.13805E-10         0.00000E+00
    0.11598E-05         0.51861E-11         0.00000E+00
    0.11598E-05         0.18659E-11         0.00000E+00
    0.11603E-05        -0.82346E-11         0.00000E+00
    0.11602E-05        -0.14283E-10         0.00000E+00
    0.11602E-05        -0.21147E-10         0.00000E+00
    0.11601E-05        -0.19955E-10         0.00000E+00
    0.11601E-05        -0.16400E-10         0.00000E+00
    0.11601E-05        -0.13676E-10         0.00000E+00
    0.11600E-05        -0.11412E-10         0.00000E+00
    0.11600E-05        -0.91657E-11         0.00000E+00
    0.11600E-05        -0.69683E-11         0.00000E+00
    0.11599E-05        -0.53355E-11         0.00000E+00
    0.11599E-05        -0.48520E-11         0.00000E+00
    0.11599E-05        -0.56665E-11         0.00000E+00
    0.11599E-05        -0.71160E-11         0.00000E+00
    0.11598E-05        -0.77112E-11         0.00000E+00
    0.11598E-05        -0.54562E-11         0.00000E+00
    0.11598E-05        -0.33496E-11         0.00000E+00
    0.11603E-05        -0.95864E-11         0.00000E+00
    0.11602E-05        -0.17328E-10         0.00000E+00
    0.11602E-05        -0.29714E-10         0.00000E+00
    0.11601E-05        -0.36885E-10         0.00000E+00
    0.11601E-05        -0.40850E-10         0.00000E+00
    0.11601E-05        -0.43267E-10         0.00000E+00
    0.11600E-05        -0.44655E-10         0.00000E+00
    0.11600E-05        -0.44827E-10         0.00000E+00
    0.11600E-05        -0.43745E-10         0.00000E+00
    0.11599E-05        -0.41622E-10         0.00000E+00
    0.11599E-05        -0.38725E-10         0.00000E+00
    0.11599E-05        -0.35076E-10         0.00000E+00
    0.11599E-05        -0.30239E-10         0.00000E+00
    0.11598E-05        -0.23313E-10         0.00000E+00
    0.11598E-05        -0.13157E-10         0.00000E+00
    0.11598E-05        -0.71246E-11         0.00000E+00
    0.11602E-05        -0.11718E-10         0.00000E+00
    0.11602E-05        -0.21892E-10         0.00000E+00
    0.11602E-05        -0.39433E-10         0.00000E+00
    0.11601E-05        -0.52029E-10         0.00000E+00
    0.11601E-05        -0.60944E-10         0.00000E+00
    0.11601E-05        -0.67105E-10         0.00000E+00
    0.11600E-05        -0.70939E-10         0.00000E+00
    0.11600E-05        -0.72514E-10         0.00000E+00
    0.11600E-05        -0.71813E-10         0.00000E+00
    0.11600E-05        -0.68903E-10         0.00000E+00
    0.11599E-05        -0.63880E-10         0.00000E+00
    0.11599E-05        -0.56715E-10         0.00000E+00
    0.11599E-05        -0.47148E-10         0.00000E+00
    0.11598E-05        -0.34694E-10         0.00000E+00
    0.11598E-05        -0.18780E-10         0.00000E+00
    0.11598E-05        -0.98885E-11         0.00000E+00
    0.11602E-05        -0.13967E-10         0.00000E+00
    0.11602E-05        -0.26350E-10         0.00000E+00
    0.11602E-05        -0.48256E-10         0.00000E+00
    0.11601E-05        -0.64973E-10         0.00000E+00
    0.11601E-05        -0.77429E-10         0.00000E+00
    0.11601E-05        -0.86260E-10         0.00000E+00
    0.11600E-05        -0.91810E-10         0.00000E+00
    0.11600E-05        -0.94200E-10         0.00000E+00
    0.11600E-05        -0.93462E-10         0.00000E+00
    0.11600E-05        -0.89630E-10         0.00000E+00
    0.11599E-05        -0.82739E-10         0.00000E+00
    0.11599E-05        -0.72774E-10         0.00000E+00
    0.11599E-05        -0.59617E-10         0.00000E+00
    0.11599E-05        -0.43070E-10         0.00000E+00
    0.11598E-05        -0.22925E-10         0.00000E+00
    0.11598E-05        -0.11931E-10         0.00000E+00
    0.11602E-05        -0.15879E-10         0.00000E+00
    0.11602E-05        -0.30145E-10         0.00000E+00
    0.11601E-05        -0.55692E-10         0.00000E+00
    0.11601E-05        -0.75688E-10         0.00000E+00
    0.11601E-05        -0.90854E-10         0.00000E+00
    0.11601E-05        -0.10168E-09         0.00000E+00
    0.11600E-05        -0.10845E-09         0.00000E+00
    0.11600E-05        -0.11132E-09         0.00000E+00
    0.11600E-05        -0.11035E-09         0.00000E+00
    0.11600E-05        -0.10558E-09         0.00000E+00
    0.11599E-05        -0.97077E-10         0.00000E+00
    0.11599E-05        -0.84862E-10         0.00000E+00
    0.11599E-05        -0.68945E-10         0.00000E+00
    0.11599E-05        -0.49320E-10         0.00000E+00
    0.11599E-05        -0.26020E-10         0.00000E+00
    0.11599E-05        -0.13458E-10         0.00000E+00
    0.11602E-05        -0.17440E-10         0.00000E+00
    0.11601E-05        -0.33249E-10         0.00000E+00
    0.11601E-05        -0.61779E-10         0.00000E+00
    0.11601E-05        -0.84442E-10         0.00000E+00
    0.11601E-05        -0.10177E-09         0.00000E+00
    0.11600E-05        -0.11415E-09         0.00000E+00
    0.11600E-05        -0.12183E-09         0.00000E+00
    0.11600E-05        -0.12498E-09         0.00000E+00
    0.11600E-05        -0.12369E-09         0.00000E+00
    0.11600E-05        -0.11806E-09         0.00000E+00
    0.11600E-05        -0.10818E-09         0.00000E+00
    0.11599E-05        -0.94141E-10         0.00000E+00
    0.11599E-05        -0.76062E-10         0.00000E+00
    0.11599E-05        -0.54078E-10         0.00000E+00
    0.11599E-05        -0.28375E-10         0.00000E+00
    0.11599E-05        -0.14622E-10         0.00000E+00
    0.11601E-05        -0.18707E-10         0.00000E+00
    0.11601E-05        -0.35780E-10         0.00000E+00
    0.11601E-05        -0.66764E-10         0.00000E+00
    0.11601E-05        -0.91624E-10         0.00000E+00
    0.11600E-05        -0.11072E-09         0.00000E+00
    0.11600E-05        -0.12435E-09         0.00000E+00
    0.11600E-05        -0.13273E-09         0.00000E+00
    0.11600E-05        -0.13604E-09         0.00000E+00
    0.11600E-05        -0.13443E-09         0.00000E+00
    0.11600E-05        -0.12802E-09         0.00000E+00
    0.11600E-05        -0.11697E-09         0.00000E+00
    0.11600E-05        -0.10144E-09         0.00000E+00
    0.11599E-05        -0.81635E-10         0.00000E+00
    0.11599E-05        -0.57794E-10         0.00000E+00
    0.11599E-05        -0.30215E-10         0.00000E+00
    0.11599E-05        -0.15532E-10         0.00000E+00
    0.11601E-05        -0.19768E-10         0.00000E+00
    0.11601E-05        -0.37900E-10         0.00000E+00
    0.11601E-05        -0.70942E-10         0.00000E+00
    0.11600E-05        -0.97640E-10         0.00000E+00
    0.11600E-05        -0.11821E-09         0.00000E+00
    0.11600E-05        -0.13286E-09         0.00000E+00
    0.11600E-05        -0.14179E-09         0.00000E+00
    0.11600E-05        -0.14520E-09         0.00000E+00
    0.11600E-05        -0.14326E-09         0.00000E+00
    0.11600E-05        -0.13617E-09         0.00000E+00
    0.11600E-05        -0.12412E-09         0.00000E+00
    0.11600E-05        -0.10735E-09         0.00000E+00
    0.11600E-05        -0.86131E-10         0.00000E+00
    0.11600E-05        -0.60789E-10         0.00000E+00
    0.11599E-05        -0.31697E-10         0.00000E+00
    0.11599E-05        -0.16264E-10         0.00000E+00
    0.11600E-05        -0.20704E-10         0.00000E+00
    0.11600E-05        -0.39763E-10         0.00000E+00
    0.11600E-05        -0.74591E-10         0.00000E+00
    0.11600E-05        -0.10286E-09         0.00000E+00
    0.11600E-05        -0.12467E-09         0.00000E+00
    0.11600E-05        -0.14016E-09         0.00000E+00
    0.11600E-05        -0.14953E-09         0.00000E+00
    0.11600E-05        -0.15298E-09         0.00000E+00
    0.11600E-05        -0.15073E-09         0.00000E+00
    0.11600E-05        -0.14302E-09         0.00000E+00
    0.11600E-05        -0.13011E-09         0.00000E+00
    0.11600E-05        -0.11228E-09         0.00000E+00
    0.11600E-05        -0.89883E-10         0.00000E+00
    0.11600E-05        -0.63287E-10         0.00000E+00
    0.11600E-05        -0.32934E-10         0.00000E+00
    0.11600E-05        -0.16877E-10         0.00000E+00
    0.11600E-05        -0.21587E-10         0.00000E+00
    0.11600E-05        -0.41500E-10         0.00000E+00
    0.11600E-05        -0.77944E-10         0.00000E+00
    0.11600E-05        -0.10759E-09         0.00000E+00
    0.11600E-05        -0.13045E-09         0.00000E+00
    0.11600E-05        -0.14663E-09         0.00000E+00
    0.11600E-05        -0.15633E-09         0.00000E+00
    0.11600E-05        -0.15977E-09         0.00000E+00
    0.11600E-05        -0.15721E-09         0.00000E+00
    0.11600E-05        -0.14894E-09         0.00000E+00
    0.11600E-05        -0.13527E-09         0.00000E+00
    0.11600E-05        -0.11653E-09         0.00000E+00
    0.11600E-05        -0.93116E-10         0.00000E+00
    0.11600E-05        -0.65445E-10         0.00000E+00
    0.11600E-05        -0.34005E-10         0.00000E+00
    0.11600E-05        -0.17408E-10         0.00000E+00
    0.11600E-05        -0.22469E-10         0.00000E+00
    0.11600E-05        -0.43210E-10         0.00000E+00
    0.11600E-05        -0.81180E-10         0.00000E+00
    0.11600E-05        -0.11206E-09         0.00000E+00
    0.11600E-05        -0.13581E-09         0.00000E+00
    0.11600E-05        -0.15255E-09         0.00000E+00
    0.11600E-05        -0.16246E-09         0.00000E+00
    0.11600E-05        -0.16583E-09         0.00000E+00
    0.11600E-05        -0.16296E-09         0.00000E+00
    0.11600E-05        -0.15417E-09         0.00000E+00
    0.11600E-05        -0.13981E-09         0.00000E+00
    0.11600E-05        -0.12028E-09         0.00000E+00
    0.11600E-05        -0.95974E-10         0.00000E+00
    0.11600E-05        -0.67362E-10         0.00000E+00
    0.11600E-05        -0.34962E-10         0.00000E+00
    0.11600E-05        -0.17884E-10         0.00000E+00
    0.11599E-05        -0.23388E-10         0.00000E+00
    0.11599E-05        -0.44962E-10         0.00000E+00
    0.11599E-05        -0.84419E-10         0.00000E+00
    0.11599E-05        -0.11642E-09         0.00000E+00
    0.11600E-05        -0.14093E-09         0.00000E+00
    0.11600E-05        -0.15807E-09         0.00000E+00
    0.11600E-05        -0.16809E-09         0.00000E+00
    0.11600E-05        -0.17132E-09         0.00000E+00
    0.11600E-05        -0.16810E-09         0.00000E+00
    0.11600E-05        -0.15881E-09         0.00000E+00
    0.11600E-05        -0.14385E-09         0.00000E+00
    0.11601E-05        -0.12361E-09         0.00000E+00
    0.11601E-05        -0.98536E-10         0.00000E+00
    0.11601E-05        -0.69097E-10         0.00000E+00
    0.11601E-05        -0.35836E-10         0.00000E+00
    0.11601E-05        -0.18322E-10         0.00000E+00
    0.11599E-05        -0.24364E-10         0.00000E+00
    0.11599E-05        -0.46794E-10         0.00000E+00
    0.11599E-05        -0.87726E-10         0.00000E+00
    0.11599E-05        -0.12074E-09         0.00000E+00
    0.11599E-05        -0.14585E-09         0.00000E+00
    0.11600E-05        -0.16324E-09         0.00000E+00
    0.11600E-05        -0.17324E-09         0.00000E+00
    0.11600E-05        -0.17624E-09         0.00000E+00
    0.11600E-05        -0.17265E-09         0.00000E+00
    0.11600E-05        -0.16289E-09         0.00000E+00
    0.11601E-05        -0.14739E-09         0.00000E+00
    0.11601E-05        -0.12655E-09         0.00000E+00
    0.11601E-05        -0.10082E-09         0.00000E+00
    0.11601E-05        -0.70668E-10         0.00000E+00
    0.11601E-05        -0.36639E-10         0.00000E+00
    0.11601E-05        -0.18729E-10         0.00000E+00
    0.11598E-05        -0.25406E-10         0.00000E+00
    0.11598E-05        -0.48718E-10         0.00000E+00
    0.11599E-05        -0.91109E-10         0.00000E+00
    0.11599E-05        -0.12502E-09         0.00000E+00
    0.11599E-05        -0.15056E-09         0.00000E+00
    0.11599E-05        -0.16802E-09         0.00000E+00
    0.11600E-05        -0.17783E-09         0.00000E+00
    0.11600E-05        -0.18050E-09         0.00000E+00
    0.11600E-05        -0.17650E-09         0.00000E+00
    0.11601E-05        -0.16630E-09         0.00000E+00
    0.11601E-05        -0.15035E-09         0.00000E+00
    0.11601E-05        -0.12904E-09         0.00000E+00
    0.11601E-05        -0.10279E-09         0.00000E+00
    0.11601E-05        -0.72060E-10         0.00000E+00
    0.11602E-05        -0.37369E-10         0.00000E+00
    0.11602E-05        -0.19104E-10         0.00000E+00
    0.11598E-05        -0.26507E-10         0.00000E+00
    0.11598E-05        -0.50715E-10         0.00000E+00
    0.11598E-05        -0.94521E-10         0.00000E+00
    0.11599E-05        -0.12917E-09         0.00000E+00
    0.11599E-05        -0.15490E-09         0.00000E+00
    0.11599E-05        -0.17220E-09         0.00000E+00
    0.11600E-05        -0.18165E-09         0.00000E+00
    0.11600E-05        -0.18386E-09         0.00000E+00
    0.11600E-05        -0.17942E-09         0.00000E+00
    0.11601E-05        -0.16883E-09         0.00000E+00
    0.11601E-05        -0.15254E-09         0.00000E+00
    0.11601E-05        -0.13093E-09         0.00000E+00
    0.11602E-05        -0.10436E-09         0.00000E+00
    0.11602E-05        -0.73225E-10         0.00000E+00
    0.11602E-05        -0.38006E-10         0.00000E+00
    0.11602E-05        -0.19442E-10         0.00000E+00
    0.11597E-05        -0.27648E-10         0.00000E+00
    0.11597E-05        -0.52742E-10         0.00000E+00
    0.11598E-05        -0.97860E-10         0.00000E+00
    0.11598E-05        -0.13300E-09         0.00000E+00
    0.11599E-05        -0.15864E-09         0.00000E+00
    0.11599E-05        -0.17549E-09         0.00000E+00
    0.11600E-05        -0.18434E-09         0.00000E+00
    0.11600E-05        -0.18596E-09         0.00000E+00
    0.11601E-05        -0.18105E-09         0.00000E+00
    0.11601E-05        -0.17015E-09         0.00000E+00
    0.11601E-05        -0.15370E-09         0.00000E+00
    0.11602E-05        -0.13202E-09         0.00000E+00
    0.11602E-05        -0.10538E-09         0.00000E+00
    0.11602E-05        -0.74082E-10         0.00000E+00
    0.11602E-05        -0.38518E-10         0.00000E+00
    0.11602E-05        -0.19728E-10         0.00000E+00
    0.11597E-05        -0.28799E-10         0.00000E+00
    0.11597E-05        -0.54731E-10         0.00000E+00
    0.11597E-05        -0.10097E-09         0.00000E+00
    0.11598E-05        -0.13626E-09         0.00000E+00
    0.11599E-05        -0.16141E-09         0.00000E+00
    0.11599E-05        -0.17743E-09         0.00000E+00
    0.11600E-05        -0.18539E-09         0.00000E+00
    0.11600E-05        -0.18628E-09         0.00000E+00
    0.11601E-05        -0.18089E-09         0.00000E+00
    0.11601E-05        -0.16982E-09         0.00000E+00
    0.11601E-05        -0.15345E-09         0.00000E+00
    0.11602E-05        -0.13202E-09         0.00000E+00
    0.11602E-05        -0.10566E-09         0.00000E+00
    0.11602E-05        -0.74517E-10         0.00000E+00
    0.11603E-05        -0.38858E-10         0.00000E+00
    0.11603E-05        -0.19943E-10         0.00000E+00
    0.11596E-05        -0.29917E-10         0.00000E+00
    0.11596E-05        -0.56583E-10         0.00000E+00
    0.11597E-05        -0.10361E-09         0.00000E+00
    0.11598E-05        -0.13857E-09         0.00000E+00
    0.11598E-05        -0.16269E-09         0.00000E+00
    0.11599E-05        -0.17742E-09         0.00000E+00
    0.11600E-05        -0.18417E-09         0.00000E+00
    0.11600E-05        -0.18417E-09         0.00000E+00
    0.11601E-05        -0.17833E-09         0.00000E+00
    0.11601E-05        -0.16727E-09         0.00000E+00
    0.11602E-05        -0.15131E-09         0.00000E+00
    0.11602E-05        -0.13055E-09         0.00000E+00
    0.11602E-05        -0.10493E-09         0.00000E+00
    0.11603E-05        -0.74384E-10         0.00000E+00
    0.11603E-05        -0.38969E-10         0.00000E+00
    0.11603E-05        -0.20064E-10         0.00000E+00
    0.11595E-05        -0.30946E-10         0.00000E+00
    0.11596E-05        -0.58167E-10         0.00000E+00
    0.11597E-05        -0.10550E-09         0.00000E+00
    0.11597E-05        -0.13943E-09         0.00000E+00
    0.11598E-05        -0.16182E-09         0.00000E+00
    0.11599E-05        -0.17468E-09         0.00000E+00
    0.11600E-05        -0.17986E-09         0.00000E+00
    0.11600E-05        -0.17883E-09         0.00000E+00
    0.11601E-05        -0.17261E-09         0.00000E+00
    0.11601E-05        -0.16183E-09         0.00000E+00
    0.11602E-05        -0.14670E-09         0.00000E+00
    0.11602E-05        -0.12715E-09         0.00000E+00
    0.11603E-05        -0.10288E-09         0.00000E+00
    0.11603E-05        -0.73499E-10         0.00000E+00
    0.11603E-05        -0.38774E-10         0.00000E+00
    0.11604E-05        -0.20059E-10         0.00000E+00
    0.11595E-05        -0.31812E-10         0.00000E+00
    0.11595E-05        -0.59300E-10         0.00000E+00
    0.11596E-05        -0.10618E-09         0.00000E+00
    0.11597E-05        -0.13814E-09         0.00000E+00
    0.11598E-05        -0.15791E-09         0.00000E+00
    0.11599E-05        -0.16826E-09         0.00000E+00
    0.11600E-05        -0.17151E-09         0.00000E+00
    0.11600E-05        -0.16937E-09         0.00000E+00
    0.11601E-05        -0.16293E-09         0.00000E+00
    0.11601E-05        -0.15276E-09         0.00000E+00
    0.11602E-05        -0.13898E-09         0.00000E+00
    0.11602E-05        -0.12130E-09         0.00000E+00
    0.11603E-05        -0.99112E-10         0.00000E+00
    0.11603E-05        -0.71635E-10         0.00000E+00
    0.11604E-05        -0.38183E-10         0.00000E+00
    0.11604E-05        -0.19894E-10         0.00000E+00
    0.11594E-05        -0.32406E-10         0.00000E+00
    0.11595E-05        -0.59715E-10         0.00000E+00
    0.11596E-05        -0.10503E-09         0.00000E+00
    0.11597E-05        -0.13372E-09         0.00000E+00
    0.11598E-05        -0.14981E-09         0.00000E+00
    0.11599E-05        -0.15700E-09         0.00000E+00
    0.11600E-05        -0.15809E-09         0.00000E+00
    0.11600E-05        -0.15489E-09         0.00000E+00
    0.11601E-05        -0.14847E-09         0.00000E+00
    0.11602E-05        -0.13932E-09         0.00000E+00
    0.11602E-05        -0.12743E-09         0.00000E+00
    0.11603E-05        -0.11235E-09         0.00000E+00
    0.11603E-05        -0.93141E-10         0.00000E+00
    0.11604E-05        -0.68491E-10         0.00000E+00
    0.11604E-05        -0.37074E-10         0.00000E+00
    0.11604E-05        -0.19520E-10         0.00000E+00
    0.11593E-05        -0.32552E-10         0.00000E+00
    0.11594E-05        -0.58973E-10         0.00000E+00
    0.11595E-05        -0.10106E-09         0.00000E+00
    0.11597E-05        -0.12475E-09         0.00000E+00
    0.11598E-05        -0.13602E-09         0.00000E+00
    0.11599E-05        -0.13963E-09         0.00000E+00
    0.11600E-05        -0.13861E-09         0.00000E+00
    0.11600E-05        -0.13464E-09         0.00000E+00
    0.11601E-05        -0.12861E-09         0.00000E+00
    0.11602E-05        -0.12087E-09         0.00000E+00
    0.11602E-05        -0.11137E-09         0.00000E+00
    0.11603E-05        -0.99582E-10         0.00000E+00
    0.11603E-05        -0.84312E-10         0.00000E+00
    0.11604E-05        -0.63637E-10         0.00000E+00
    0.11604E-05        -0.35264E-10         0.00000E+00
    0.11605E-05        -0.18865E-10         0.00000E+00
    0.11593E-05        -0.31893E-10         0.00000E+00
    0.11594E-05        -0.56240E-10         0.00000E+00
    0.11595E-05        -0.92539E-10         0.00000E+00
    0.11597E-05        -0.10912E-09         0.00000E+00
    0.11598E-05        -0.11476E-09         0.00000E+00
    0.11599E-05        -0.11498E-09         0.00000E+00
    0.11600E-05        -0.11243E-09         0.00000E+00
    0.11600E-05        -0.10827E-09         0.00000E+00
    0.11601E-05        -0.10308E-09         0.00000E+00
    0.11602E-05        -0.97084E-10         0.00000E+00
    0.11602E-05        -0.90233E-10         0.00000E+00
    0.11603E-05        -0.82163E-10         0.00000E+00
    0.11603E-05        -0.71709E-10         0.00000E+00
    0.11604E-05        -0.56363E-10         0.00000E+00
    0.11605E-05        -0.32441E-10         0.00000E+00
    0.11605E-05        -0.17823E-10         0.00000E+00
    0.11592E-05        -0.29582E-10         0.00000E+00
    0.11593E-05        -0.49710E-10         0.00000E+00
    0.11595E-05        -0.76277E-10         0.00000E+00
    0.11597E-05        -0.83817E-10         0.00000E+00
    0.11598E-05        -0.84386E-10         0.00000E+00
    0.11599E-05        -0.82565E-10         0.00000E+00
    0.11600E-05        -0.79617E-10         0.00000E+00
    0.11600E-05        -0.76100E-10         0.00000E+00
    0.11601E-05        -0.72261E-10         0.00000E+00
    0.11602E-05        -0.68204E-10         0.00000E+00
    0.11602E-05        -0.63941E-10         0.00000E+00
    0.11603E-05        -0.59330E-10         0.00000E+00
    0.11604E-05        -0.53957E-10         0.00000E+00
    0.11604E-05        -0.45407E-10         0.00000E+00
    0.11605E-05        -0.27878E-10         0.00000E+00
    0.11605E-05        -0.15950E-10         0.00000E+00
    0.11592E-05        -0.22764E-10         0.00000E+00
    0.11593E-05        -0.34452E-10         0.00000E+00
    0.11595E-05        -0.46414E-10         0.00000E+00
    0.11596E-05        -0.46293E-10         0.00000E+00
    0.11598E-05        -0.45080E-10         0.00000E+00
    0.11599E-05        -0.43313E-10         0.00000E+00
    0.11600E-05        -0.41358E-10         0.00000E+00
    0.11600E-05        -0.39326E-10         0.00000E+00
    0.11601E-05        -0.37276E-10         0.00000E+00
    0.11602E-05        -0.35242E-10         0.00000E+00
    0.11602E-05        -0.33250E-10         0.00000E+00
    0.11603E-05        -0.31327E-10         0.00000E+00
    0.11604E-05        -0.29408E-10         0.00000E+00
    0.11604E-05        -0.27784E-10         0.00000E+00
    0.11605E-05        -0.20290E-10         0.00000E+00
    0.11606E-05        -0.13443E-10         0.00000E+00
    0.11592E-05         0.00000E+00         0.00000E+00
    0.11593E-05         0.00000E+00         0.00000E+00
    0.11595E-05        -0.33106E-20         0.00000E+00
    0.11596E-05         0.52835E-24         0.00000E+00
    0.11598E-05         0.36422E-20         0.00000E+00
    0.11599E-05         0.00000E+00         0.00000E+00
    0.11600E-05         0.00000E+00         0.00000E+00
    0.11600E-05        -0.33126E-20         0.00000E+00
    0.11601E-05        -0.33126E-20         0.00000E+00
    0.11602E-05         0.33132E-20         0.00000E+00
    0.11602E-05         0.36445E-20         0.00000E+00
    0.11603E-05        -0.36451E-20         0.00000E+00
    0.11604E-05        -0.33113E-21         0.00000E+00
    0.11604E-05         0.36455E-20         0.00000E+00
    0.11605E-05         0.66286E-21         0.00000E+00
    0.11606E-05         0.00000E+00         0.00000E+00
CELL_DATA        450
TENSORS stressef double 
    0.19458E+08         0.16492E+06         0.00000E+00
    0.16492E+06         0.10725E+08         0.00000E+00
    0.00000E+00         0.00000E+00         0.70863E+07
 
    0.19601E+08         0.16142E+06         0.00000E+00
    0.16142E+06         0.11128E+08         0.00000E+00
    0.00000E+00         0.00000E+00         0.73165E+07
 
    0.19382E+08         0.65940E+04         0.00000E+00
    0.65940E+04         0.11181E+08         0.00000E+00
    0.00000E+00         0.00000E+00         0.69292E+07
 
    0.18715E+08        -0.19646E+06         0.00000E+00
   -0.19646E+06         0.10801E+08         0.00000E+00
    0.00000E+00         0.00000E+00         0.58194E+07
 
    0.17440E+08        -0.35334E+06         0.00000E+00
   -0.35334E+06         0.10131E+08         0.00000E+00
    0.00000E+00         0.00000E+00         0.38067E+07
 
    0.15828E+08        -0.34952E+06         0.00000E+00
   -0.34952E+06         0.93555E+07         0.00000E+00
    0.00000E+00         0.00000E+00         0.14252E+07
 
    0.14115E+08        -0.34183E+06         0.00000E+00
   -0.34183E+06         0.86822E+07         0.00000E+00
    0.00000E+00         0.00000E+00        -0.86012E+06
 
    0.11844E+08        -0.35777E+06         0.00000E+00
   -0.35777E+06         0.80191E+07         0.00000E+00
    0.00000E+00         0.00000E+00        -0.19035E+07
 
    0.98887E+07        -0.24212E+06         0.00000E+00
   -0.24212E+06         0.74651E+07         0.00000E+00
    0.00000E+00         0.00000E+00        -0.24075E+07
 
    0.81475E+07        -0.13364E+06         0.00000E+00
   -0.13364E+06         0.71122E+07         0.00000E+00
    0.00000E+00         0.00000E+00        -0.28275E+07
 
    0.64408E+07        -0.29175E+05         0.00000E+00
   -0.29175E+05         0.69623E+07         0.00000E+00
    0.00000E+00         0.00000E+00        -0.31991E+07
 
    0.46561E+07         0.80638E+05         0.00000E+00
    0.80638E+05         0.70217E+07         0.00000E+00
    0.00000E+00         0.00000E+00        -0.35435E+07
 
    0.26743E+07         0.20993E+06         0.00000E+00
    0.20993E+06         0.73168E+07         0.00000E+00
    0.00000E+00         0.00000E+00        -0.38793E+07
 
    0.31050E+06         0.38577E+06         0.00000E+00
    0.38577E+06         0.79153E+07         0.00000E+00
    0.00000E+00         0.00000E+00        -0.42298E+07
 
   -0.29482E+07         0.77982E+06         0.00000E+00
    0.77982E+06         0.90247E+07         0.00000E+00
    0.00000E+00         0.00000E+00        -0.46562E+07
 
    0.17734E+08         0.37965E+06         0.00000E+00
    0.37965E+06         0.78748E+07         0.00000E+00
    0.00000E+00         0.00000E+00         0.42585E+07
 
    0.17453E+08         0.33032E+06         0.00000E+00
    0.33032E+06         0.76679E+07         0.00000E+00
    0.00000E+00         0.00000E+00         0.37470E+07
 
    0.17088E+08        -0.97730E+04         0.00000E+00
   -0.97730E+04         0.75576E+07         0.00000E+00
    0.00000E+00         0.00000E+00         0.30504E+07
 
    0.16366E+08        -0.40571E+06         0.00000E+00
   -0.40571E+06         0.75508E+07         0.00000E+00
    0.00000E+00         0.00000E+00         0.18536E+07
 
    0.15240E+08        -0.70283E+06         0.00000E+00
   -0.70283E+06         0.75565E+07         0.00000E+00
    0.00000E+00         0.00000E+00         0.23267E+06
 
    0.13861E+08        -0.86163E+06         0.00000E+00
   -0.86163E+06         0.74611E+07         0.00000E+00
    0.00000E+00         0.00000E+00        -0.13362E+07
 
    0.11926E+08        -0.90930E+06         0.00000E+00
   -0.90930E+06         0.70927E+07         0.00000E+00
    0.00000E+00         0.00000E+00        -0.20694E+07
 
    0.99650E+07        -0.86712E+06         0.00000E+00
   -0.86712E+06         0.67173E+07         0.00000E+00
    0.00000E+00         0.00000E+00        -0.25398E+07
 
    0.80565E+07        -0.62379E+06         0.00000E+00
   -0.62379E+06         0.64024E+07         0.00000E+00
    0.00000E+00         0.00000E+00        -0.29866E+07
 
    0.63162E+07        -0.34327E+06         0.00000E+00
   -0.34327E+06         0.61885E+07         0.00000E+00
    0.00000E+00         0.00000E+00        -0.33786E+07
 
    0.46169E+07        -0.51702E+05         0.00000E+00
   -0.51702E+05         0.61228E+07         0.00000E+00
    0.00000E+00         0.00000E+00        -0.37319E+07
 
    0.28579E+07         0.26697E+06         0.00000E+00
    0.26697E+06         0.62373E+07         0.00000E+00
    0.00000E+00         0.00000E+00        -0.40601E+07
 
    0.93830E+06         0.64801E+06         0.00000E+00
    0.64801E+06         0.65698E+07         0.00000E+00
    0.00000E+00         0.00000E+00        -0.43760E+07
 
   -0.12772E+07         0.11750E+07         0.00000E+00
    0.11750E+07         0.71837E+07         0.00000E+00
    0.00000E+00         0.00000E+00        -0.46938E+07
 
   -0.38133E+07         0.21196E+07         0.00000E+00
    0.21196E+07         0.81655E+07         0.00000E+00
    0.00000E+00         0.00000E+00        -0.50012E+07
 
    0.16025E+08         0.93447E+05         0.00000E+00
    0.93447E+05         0.54954E+07         0.00000E+00
    0.00000E+00         0.00000E+00         0.13354E+07
 
    0.15334E+08         0.20193E+06         0.00000E+00
    0.20193E+06         0.51112E+07         0.00000E+00
    0.00000E+00         0.00000E+00         0.73631E+05
 
    0.14665E+08        -0.57427E+05         0.00000E+00
   -0.57427E+05         0.50847E+07         0.00000E+00
    0.00000E+00         0.00000E+00        -0.10764E+07
 
    0.14002E+08        -0.42425E+06         0.00000E+00
   -0.42425E+06         0.51980E+07         0.00000E+00
    0.00000E+00         0.00000E+00        -0.18780E+07
 
    0.12919E+08        -0.75019E+06         0.00000E+00
   -0.75019E+06         0.52575E+07         0.00000E+00
    0.00000E+00         0.00000E+00        -0.22293E+07
 
    0.11586E+08        -0.10290E+07         0.00000E+00
   -0.10290E+07         0.52138E+07         0.00000E+00
    0.00000E+00         0.00000E+00        -0.25095E+07
 
    0.99184E+07        -0.11637E+07         0.00000E+00
   -0.11637E+07         0.51351E+07         0.00000E+00
    0.00000E+00         0.00000E+00        -0.28628E+07
 
    0.81036E+07        -0.10581E+07         0.00000E+00
   -0.10581E+07         0.50387E+07         0.00000E+00
    0.00000E+00         0.00000E+00        -0.32481E+07
 
    0.63334E+07        -0.79017E+06         0.00000E+00
   -0.79017E+06         0.49665E+07         0.00000E+00
    0.00000E+00         0.00000E+00        -0.36186E+07
 
    0.46337E+07        -0.41810E+06         0.00000E+00
   -0.41810E+06         0.49307E+07         0.00000E+00
    0.00000E+00         0.00000E+00        -0.39669E+07
 
    0.29710E+07         0.13515E+05         0.00000E+00
    0.13515E+05         0.49862E+07         0.00000E+00
    0.00000E+00         0.00000E+00        -0.42886E+07
 
    0.12736E+07         0.51121E+06         0.00000E+00
    0.51121E+06         0.51803E+07         0.00000E+00
    0.00000E+00         0.00000E+00        -0.45886E+07
 
   -0.52705E+06         0.11174E+07         0.00000E+00
    0.11174E+07         0.55547E+07         0.00000E+00
    0.00000E+00         0.00000E+00        -0.48722E+07
 
   -0.24682E+07         0.19300E+07         0.00000E+00
    0.19300E+07         0.61478E+07         0.00000E+00
    0.00000E+00         0.00000E+00        -0.51393E+07
 
   -0.44862E+07         0.31015E+07         0.00000E+00
    0.31015E+07         0.69313E+07         0.00000E+00
    0.00000E+00         0.00000E+00        -0.53829E+07
 
    0.14190E+08        -0.80843E+05         0.00000E+00
   -0.80843E+05         0.36214E+07         0.00000E+00
    0.00000E+00         0.00000E+00        -0.18810E+07
 
    0.13168E+08        -0.71219E+05         0.00000E+00
   -0.71219E+05         0.36323E+07         0.00000E+00
    0.00000E+00         0.00000E+00        -0.24848E+07
 
    0.12339E+08        -0.21206E+06         0.00000E+00
   -0.21206E+06         0.34774E+07         0.00000E+00
    0.00000E+00         0.00000E+00        -0.26894E+07
 
    0.11581E+08        -0.48708E+06         0.00000E+00
   -0.48708E+06         0.33179E+07         0.00000E+00
    0.00000E+00         0.00000E+00        -0.28796E+07
 
    0.10601E+08        -0.81309E+06         0.00000E+00
   -0.81309E+06         0.32224E+07         0.00000E+00
    0.00000E+00         0.00000E+00        -0.31004E+07
 
    0.93502E+07        -0.10568E+07         0.00000E+00
   -0.10568E+07         0.31852E+07         0.00000E+00
    0.00000E+00         0.00000E+00        -0.33629E+07
 
    0.78789E+07        -0.11596E+07         0.00000E+00
   -0.11596E+07         0.32121E+07         0.00000E+00
    0.00000E+00         0.00000E+00        -0.36557E+07
 
    0.62737E+07        -0.10581E+07         0.00000E+00
   -0.10581E+07         0.32728E+07         0.00000E+00
    0.00000E+00         0.00000E+00        -0.39676E+07
 
    0.46468E+07        -0.77324E+06         0.00000E+00
   -0.77324E+06         0.33431E+07         0.00000E+00
    0.00000E+00         0.00000E+00        -0.42810E+07
 
    0.30464E+07        -0.35236E+06         0.00000E+00
   -0.35236E+06         0.34437E+07         0.00000E+00
    0.00000E+00         0.00000E+00        -0.45821E+07
 
    0.14641E+07         0.17650E+06         0.00000E+00
    0.17650E+06         0.36059E+07         0.00000E+00
    0.00000E+00         0.00000E+00        -0.48663E+07
 
   -0.13167E+06         0.81342E+06         0.00000E+00
    0.81342E+06         0.38689E+07         0.00000E+00
    0.00000E+00         0.00000E+00        -0.51321E+07
 
   -0.17702E+07         0.15934E+07         0.00000E+00
    0.15934E+07         0.42645E+07         0.00000E+00
    0.00000E+00         0.00000E+00        -0.53791E+07
 
   -0.34468E+07         0.25822E+07         0.00000E+00
    0.25822E+07         0.48012E+07         0.00000E+00
    0.00000E+00         0.00000E+00        -0.56046E+07
 
   -0.50914E+07         0.38578E+07         0.00000E+00
    0.38578E+07         0.54438E+07         0.00000E+00
    0.00000E+00         0.00000E+00        -0.58017E+07
 
    0.12045E+08        -0.10354E+06         0.00000E+00
   -0.10354E+06         0.18327E+07         0.00000E+00
    0.00000E+00         0.00000E+00        -0.30619E+07
 
    0.11020E+08        -0.28088E+06         0.00000E+00
   -0.28088E+06         0.17827E+07         0.00000E+00
    0.00000E+00         0.00000E+00        -0.32855E+07
 
    0.10119E+08        -0.42037E+06         0.00000E+00
   -0.42037E+06         0.15946E+07         0.00000E+00
    0.00000E+00         0.00000E+00        -0.35109E+07
 
    0.92756E+07        -0.63449E+06         0.00000E+00
   -0.63449E+06         0.14240E+07         0.00000E+00
    0.00000E+00         0.00000E+00        -0.37204E+07
 
    0.83152E+07        -0.87232E+06         0.00000E+00
   -0.87232E+06         0.13241E+07         0.00000E+00
    0.00000E+00         0.00000E+00        -0.39381E+07
 
    0.71746E+07        -0.10443E+07         0.00000E+00
   -0.10443E+07         0.13095E+07         0.00000E+00
    0.00000E+00         0.00000E+00        -0.41739E+07
 
    0.58689E+07        -0.10837E+07         0.00000E+00
   -0.10837E+07         0.13667E+07         0.00000E+00
    0.00000E+00         0.00000E+00        -0.44274E+07
 
    0.44530E+07        -0.95266E+06         0.00000E+00
   -0.95266E+06         0.14778E+07         0.00000E+00
    0.00000E+00         0.00000E+00        -0.46913E+07
 
    0.29898E+07        -0.64661E+06         0.00000E+00
   -0.64661E+06         0.16239E+07         0.00000E+00
    0.00000E+00         0.00000E+00        -0.49566E+07
 
    0.15216E+07        -0.18520E+06         0.00000E+00
   -0.18520E+06         0.18035E+07         0.00000E+00
    0.00000E+00         0.00000E+00        -0.52154E+07
 
    0.59433E+05         0.41411E+06         0.00000E+00
    0.41411E+06         0.20339E+07         0.00000E+00
    0.00000E+00         0.00000E+00        -0.54620E+07
 
   -0.14022E+07         0.11517E+07         0.00000E+00
    0.11517E+07         0.23375E+07         0.00000E+00
    0.00000E+00         0.00000E+00        -0.56929E+07
 
   -0.28656E+07         0.20487E+07         0.00000E+00
    0.20487E+07         0.27308E+07         0.00000E+00
    0.00000E+00         0.00000E+00        -0.59053E+07
 
   -0.43101E+07         0.31418E+07         0.00000E+00
    0.31418E+07         0.32116E+07         0.00000E+00
    0.00000E+00         0.00000E+00        -0.60956E+07
 
   -0.56775E+07         0.44663E+07         0.00000E+00
    0.44663E+07         0.37490E+07         0.00000E+00
    0.00000E+00         0.00000E+00        -0.62584E+07
 
    0.97816E+07        -0.14611E+06         0.00000E+00
   -0.14611E+06        -0.17365E+06         0.00000E+00
    0.00000E+00         0.00000E+00        -0.39174E+07
 
    0.88045E+07        -0.38504E+06         0.00000E+00
   -0.38504E+06        -0.24427E+06         0.00000E+00
    0.00000E+00         0.00000E+00        -0.41354E+07
 
    0.79134E+07        -0.58100E+06         0.00000E+00
   -0.58100E+06        -0.34866E+06         0.00000E+00
    0.00000E+00         0.00000E+00        -0.43420E+07
 
    0.70415E+07        -0.76074E+06         0.00000E+00
   -0.76074E+06        -0.46636E+06         0.00000E+00
    0.00000E+00         0.00000E+00        -0.45464E+07
 
    0.61122E+07        -0.92121E+06         0.00000E+00
   -0.92121E+06        -0.53851E+06         0.00000E+00
    0.00000E+00         0.00000E+00        -0.47522E+07
 
    0.50701E+07        -0.10130E+07         0.00000E+00
   -0.10130E+07        -0.53942E+06         0.00000E+00
    0.00000E+00         0.00000E+00        -0.49654E+07
 
    0.39111E+07        -0.98573E+06         0.00000E+00
   -0.98573E+06        -0.46895E+06         0.00000E+00
    0.00000E+00         0.00000E+00        -0.51868E+07
 
    0.26632E+07        -0.80665E+06         0.00000E+00
   -0.80665E+06        -0.33982E+06         0.00000E+00
    0.00000E+00         0.00000E+00        -0.54134E+07
 
    0.13647E+07        -0.46443E+06         0.00000E+00
   -0.46443E+06        -0.16487E+06         0.00000E+00
    0.00000E+00         0.00000E+00        -0.56400E+07
 
    0.47250E+05         0.37337E+05         0.00000E+00
    0.37337E+05         0.50726E+05         0.00000E+00
    0.00000E+00         0.00000E+00        -0.58613E+07
 
   -0.12709E+07         0.69197E+06         0.00000E+00
    0.69197E+06         0.31160E+06         0.00000E+00
    0.00000E+00         0.00000E+00        -0.60729E+07
 
   -0.25803E+07         0.14999E+07         0.00000E+00
    0.14999E+07         0.62706E+06         0.00000E+00
    0.00000E+00         0.00000E+00        -0.62710E+07
 
   -0.38691E+07         0.24719E+07         0.00000E+00
    0.24719E+07         0.10022E+07         0.00000E+00
    0.00000E+00         0.00000E+00        -0.64522E+07
 
   -0.51120E+07         0.36246E+07         0.00000E+00
    0.36246E+07         0.14298E+07         0.00000E+00
    0.00000E+00         0.00000E+00        -0.66129E+07
 
   -0.62638E+07         0.49697E+07         0.00000E+00
    0.49697E+07         0.18860E+07         0.00000E+00
    0.00000E+00         0.00000E+00        -0.67488E+07
 
    0.74492E+07        -0.17725E+06         0.00000E+00
   -0.17725E+06        -0.22014E+07         0.00000E+00
    0.00000E+00         0.00000E+00        -0.47913E+07
 
    0.65446E+07        -0.46225E+06         0.00000E+00
   -0.46225E+06        -0.22451E+07         0.00000E+00
    0.00000E+00         0.00000E+00        -0.49893E+07
 
    0.56956E+07        -0.67815E+06         0.00000E+00
   -0.67815E+06        -0.23161E+07         0.00000E+00
    0.00000E+00         0.00000E+00        -0.51806E+07
 
    0.48573E+07        -0.84162E+06         0.00000E+00
   -0.84162E+06        -0.23846E+07         0.00000E+00
    0.00000E+00         0.00000E+00        -0.53682E+07
 
    0.39822E+07        -0.94746E+06         0.00000E+00
   -0.94746E+06        -0.24224E+07         0.00000E+00
    0.00000E+00         0.00000E+00        -0.55562E+07
 
    0.30367E+07        -0.97117E+06         0.00000E+00
   -0.97117E+06        -0.24064E+07         0.00000E+00
    0.00000E+00         0.00000E+00        -0.57465E+07
 
    0.20109E+07        -0.88016E+06         0.00000E+00
   -0.88016E+06        -0.23299E+07         0.00000E+00
    0.00000E+00         0.00000E+00        -0.59399E+07
 
    0.91713E+06        -0.64871E+06         0.00000E+00
   -0.64871E+06        -0.21974E+07         0.00000E+00
    0.00000E+00         0.00000E+00        -0.61348E+07
 
   -0.22177E+06        -0.26323E+06         0.00000E+00
   -0.26323E+06        -0.20171E+07         0.00000E+00
    0.00000E+00         0.00000E+00        -0.63283E+07
 
   -0.13824E+07         0.27983E+06         0.00000E+00
    0.27983E+06        -0.17946E+07         0.00000E+00
    0.00000E+00         0.00000E+00        -0.65169E+07
 
   -0.25460E+07         0.97986E+06         0.00000E+00
    0.97986E+06        -0.15310E+07         0.00000E+00
    0.00000E+00         0.00000E+00        -0.66970E+07
 
   -0.36968E+07         0.18375E+07         0.00000E+00
    0.18375E+07        -0.12255E+07         0.00000E+00
    0.00000E+00         0.00000E+00        -0.68653E+07
 
   -0.48173E+07         0.28568E+07         0.00000E+00
    0.28568E+07        -0.87974E+06         0.00000E+00
    0.00000E+00         0.00000E+00        -0.70187E+07
 
   -0.58828E+07         0.40425E+07         0.00000E+00
    0.40425E+07        -0.50280E+06         0.00000E+00
    0.00000E+00         0.00000E+00        -0.71541E+07
 
   -0.68588E+07         0.53935E+07         0.00000E+00
    0.53935E+07        -0.11274E+06         0.00000E+00
    0.00000E+00         0.00000E+00        -0.72682E+07
 
    0.50699E+07        -0.19727E+06         0.00000E+00
   -0.19727E+06        -0.42263E+07         0.00000E+00
    0.00000E+00         0.00000E+00        -0.56744E+07
 
    0.42568E+07        -0.51138E+06         0.00000E+00
   -0.51138E+06        -0.42532E+07         0.00000E+00
    0.00000E+00         0.00000E+00        -0.58505E+07
 
    0.34782E+07        -0.73653E+06         0.00000E+00
   -0.73653E+06        -0.42940E+07         0.00000E+00
    0.00000E+00         0.00000E+00        -0.60215E+07
 
    0.27050E+07        -0.88377E+06         0.00000E+00
   -0.88377E+06        -0.43302E+07         0.00000E+00
    0.00000E+00         0.00000E+00        -0.61894E+07
 
    0.19078E+07        -0.95010E+06         0.00000E+00
   -0.95010E+06        -0.43411E+07         0.00000E+00
    0.00000E+00         0.00000E+00        -0.63562E+07
 
    0.10644E+07        -0.92046E+06         0.00000E+00
   -0.92046E+06        -0.43111E+07         0.00000E+00
    0.00000E+00         0.00000E+00        -0.65231E+07
 
    0.16614E+06        -0.77435E+06         0.00000E+00
   -0.77435E+06        -0.42323E+07         0.00000E+00
    0.00000E+00         0.00000E+00        -0.66904E+07
 
   -0.78229E+06        -0.49303E+06         0.00000E+00
   -0.49303E+06        -0.41046E+07         0.00000E+00
    0.00000E+00         0.00000E+00        -0.68570E+07
 
   -0.17672E+07        -0.64047E+05         0.00000E+00
   -0.64047E+05        -0.39324E+07         0.00000E+00
    0.00000E+00         0.00000E+00        -0.70212E+07
 
   -0.27717E+07         0.51854E+06         0.00000E+00
    0.51854E+06        -0.37203E+07         0.00000E+00
    0.00000E+00         0.00000E+00        -0.71806E+07
 
   -0.37788E+07         0.12566E+07         0.00000E+00
    0.12566E+07        -0.34720E+07         0.00000E+00
    0.00000E+00         0.00000E+00        -0.73324E+07
 
   -0.47720E+07         0.21504E+07         0.00000E+00
    0.21504E+07        -0.31906E+07         0.00000E+00
    0.00000E+00         0.00000E+00        -0.74740E+07
 
   -0.57328E+07         0.31999E+07         0.00000E+00
    0.31999E+07        -0.28814E+07         0.00000E+00
    0.00000E+00         0.00000E+00        -0.76028E+07
 
   -0.66394E+07         0.44032E+07         0.00000E+00
    0.44032E+07        -0.25533E+07         0.00000E+00
    0.00000E+00         0.00000E+00        -0.77163E+07
 
   -0.74656E+07         0.57530E+07         0.00000E+00
    0.57530E+07        -0.22203E+07         0.00000E+00
    0.00000E+00         0.00000E+00        -0.78119E+07
 
    0.26617E+07        -0.20829E+06         0.00000E+00
   -0.20829E+06        -0.62534E+07         0.00000E+00
    0.00000E+00         0.00000E+00        -0.65642E+07
 
    0.19536E+07        -0.53885E+06         0.00000E+00
   -0.53885E+06        -0.62671E+07         0.00000E+00
    0.00000E+00         0.00000E+00        -0.67163E+07
 
    0.12647E+07        -0.76691E+06         0.00000E+00
   -0.76691E+06        -0.62873E+07         0.00000E+00
    0.00000E+00         0.00000E+00        -0.68649E+07
 
    0.57811E+06        -0.89989E+06         0.00000E+00
   -0.89989E+06        -0.63014E+07         0.00000E+00
    0.00000E+00         0.00000E+00        -0.70109E+07
 
   -0.12473E+06        -0.93567E+06         0.00000E+00
   -0.93567E+06        -0.62954E+07         0.00000E+00
    0.00000E+00         0.00000E+00        -0.71552E+07
 
   -0.85843E+06        -0.86461E+06         0.00000E+00
   -0.86461E+06        -0.62577E+07         0.00000E+00
    0.00000E+00         0.00000E+00        -0.72984E+07
 
   -0.16300E+07        -0.67315E+06         0.00000E+00
   -0.67315E+06        -0.61811E+07         0.00000E+00
    0.00000E+00         0.00000E+00        -0.74405E+07
 
   -0.24377E+07        -0.34801E+06         0.00000E+00
   -0.34801E+06        -0.60639E+07         0.00000E+00
    0.00000E+00         0.00000E+00        -0.75810E+07
 
   -0.32736E+07         0.12078E+06         0.00000E+00
    0.12078E+06        -0.59079E+07         0.00000E+00
    0.00000E+00         0.00000E+00        -0.77185E+07
 
   -0.41252E+07         0.73898E+06         0.00000E+00
    0.73898E+06        -0.57167E+07         0.00000E+00
    0.00000E+00         0.00000E+00        -0.78513E+07
 
   -0.49786E+07         0.15087E+07         0.00000E+00
    0.15087E+07        -0.54944E+07         0.00000E+00
    0.00000E+00         0.00000E+00        -0.79775E+07
 
   -0.58187E+07         0.24296E+07         0.00000E+00
    0.24296E+07        -0.52457E+07         0.00000E+00
    0.00000E+00         0.00000E+00        -0.80950E+07
 
   -0.66289E+07         0.34991E+07         0.00000E+00
    0.34991E+07        -0.49768E+07         0.00000E+00
    0.00000E+00         0.00000E+00        -0.82018E+07
 
   -0.73907E+07         0.47117E+07         0.00000E+00
    0.47117E+07        -0.46961E+07         0.00000E+00
    0.00000E+00         0.00000E+00        -0.82959E+07
 
   -0.80842E+07         0.60573E+07         0.00000E+00
    0.60573E+07        -0.44144E+07         0.00000E+00
    0.00000E+00         0.00000E+00        -0.83755E+07
 
    0.23826E+06        -0.21315E+06         0.00000E+00
   -0.21315E+06        -0.82821E+07         0.00000E+00
    0.00000E+00         0.00000E+00        -0.74577E+07
 
   -0.35729E+06        -0.55152E+06         0.00000E+00
   -0.55152E+06        -0.82876E+07         0.00000E+00
    0.00000E+00         0.00000E+00        -0.75854E+07
 
   -0.94334E+06        -0.77922E+06         0.00000E+00
   -0.77922E+06        -0.82951E+07         0.00000E+00
    0.00000E+00         0.00000E+00        -0.77106E+07
 
   -0.15288E+07        -0.90015E+06         0.00000E+00
   -0.90015E+06        -0.82967E+07         0.00000E+00
    0.00000E+00         0.00000E+00        -0.78335E+07
 
   -0.21251E+07        -0.91234E+06         0.00000E+00
   -0.91234E+06        -0.82825E+07         0.00000E+00
    0.00000E+00         0.00000E+00        -0.79545E+07
 
   -0.27422E+07        -0.80911E+06         0.00000E+00
   -0.80911E+06        -0.82438E+07         0.00000E+00
    0.00000E+00         0.00000E+00        -0.80739E+07
 
   -0.33854E+07        -0.58122E+06         0.00000E+00
   -0.58122E+06        -0.81748E+07         0.00000E+00
    0.00000E+00         0.00000E+00        -0.81917E+07
 
   -0.40547E+07        -0.21939E+06         0.00000E+00
   -0.21939E+06        -0.80728E+07         0.00000E+00
    0.00000E+00         0.00000E+00        -0.83073E+07
 
   -0.47451E+07         0.28377E+06         0.00000E+00
    0.28377E+06        -0.79385E+07         0.00000E+00
    0.00000E+00         0.00000E+00        -0.84198E+07
 
   -0.54479E+07         0.93268E+06         0.00000E+00
    0.93268E+06        -0.77743E+07         0.00000E+00
    0.00000E+00         0.00000E+00        -0.85281E+07
 
   -0.61521E+07         0.17287E+07         0.00000E+00
    0.17287E+07        -0.75840E+07         0.00000E+00
    0.00000E+00         0.00000E+00        -0.86309E+07
 
   -0.68451E+07         0.26705E+07         0.00000E+00
    0.26705E+07        -0.73725E+07         0.00000E+00
    0.00000E+00         0.00000E+00        -0.87264E+07
 
   -0.75130E+07         0.37539E+07         0.00000E+00
    0.37539E+07        -0.71458E+07         0.00000E+00
    0.00000E+00         0.00000E+00        -0.88132E+07
 
   -0.81409E+07         0.49715E+07         0.00000E+00
    0.49715E+07        -0.69111E+07         0.00000E+00
    0.00000E+00         0.00000E+00        -0.88899E+07
 
   -0.87138E+07         0.63122E+07         0.00000E+00
    0.63122E+07        -0.66768E+07         0.00000E+00
    0.00000E+00         0.00000E+00        -0.89550E+07
 
   -0.21917E+07        -0.21454E+06         0.00000E+00
   -0.21454E+06        -0.10312E+08         0.00000E+00
    0.00000E+00         0.00000E+00        -0.83533E+07
 
   -0.26714E+07        -0.55592E+06         0.00000E+00
   -0.55592E+06        -0.10314E+08         0.00000E+00
    0.00000E+00         0.00000E+00        -0.84566E+07
 
   -0.31461E+07        -0.78200E+06         0.00000E+00
   -0.78200E+06        -0.10316E+08         0.00000E+00
    0.00000E+00         0.00000E+00        -0.85580E+07
 
   -0.36202E+07        -0.89340E+06         0.00000E+00
   -0.89340E+06        -0.10313E+08         0.00000E+00
    0.00000E+00         0.00000E+00        -0.86574E+07
 
   -0.41010E+07        -0.88766E+06         0.00000E+00
   -0.88766E+06        -0.10298E+08         0.00000E+00
    0.00000E+00         0.00000E+00        -0.87549E+07
 
   -0.45954E+07        -0.75974E+06         0.00000E+00
   -0.75974E+06        -0.10265E+08         0.00000E+00
    0.00000E+00         0.00000E+00        -0.88506E+07
 
   -0.51079E+07        -0.50315E+06         0.00000E+00
   -0.50315E+06        -0.10208E+08         0.00000E+00
    0.00000E+00         0.00000E+00        -0.89444E+07
 
   -0.56394E+07        -0.11151E+06         0.00000E+00
   -0.11151E+06        -0.10126E+08         0.00000E+00
    0.00000E+00         0.00000E+00        -0.90360E+07
 
   -0.61870E+07         0.42021E+06         0.00000E+00
    0.42021E+06        -0.10017E+08         0.00000E+00
    0.00000E+00         0.00000E+00        -0.91249E+07
 
   -0.67448E+07         0.10948E+07         0.00000E+00
    0.10948E+07        -0.98834E+07         0.00000E+00
    0.00000E+00         0.00000E+00        -0.92102E+07
 
   -0.73045E+07         0.19125E+07         0.00000E+00
    0.19125E+07        -0.97284E+07         0.00000E+00
    0.00000E+00         0.00000E+00        -0.92911E+07
 
   -0.78564E+07         0.28707E+07         0.00000E+00
    0.28707E+07        -0.95562E+07         0.00000E+00
    0.00000E+00         0.00000E+00        -0.93663E+07
 
   -0.83894E+07         0.39644E+07         0.00000E+00
    0.39644E+07        -0.93721E+07         0.00000E+00
    0.00000E+00         0.00000E+00        -0.94347E+07
 
   -0.88918E+07         0.51851E+07         0.00000E+00
    0.51851E+07        -0.91820E+07         0.00000E+00
    0.00000E+00         0.00000E+00        -0.94953E+07
 
   -0.93524E+07         0.65215E+07         0.00000E+00
    0.65215E+07        -0.89925E+07         0.00000E+00
    0.00000E+00         0.00000E+00        -0.95471E+07
 
   -0.46240E+07        -0.21474E+06         0.00000E+00
   -0.21474E+06        -0.12344E+08         0.00000E+00
    0.00000E+00         0.00000E+00        -0.92500E+07
 
   -0.49868E+07        -0.55759E+06         0.00000E+00
   -0.55759E+06        -0.12345E+08         0.00000E+00
    0.00000E+00         0.00000E+00        -0.93295E+07
 
   -0.53447E+07        -0.78246E+06         0.00000E+00
   -0.78246E+06        -0.12347E+08         0.00000E+00
    0.00000E+00         0.00000E+00        -0.94072E+07
 
   -0.57001E+07        -0.88710E+06         0.00000E+00
   -0.88710E+06        -0.12346E+08         0.00000E+00
    0.00000E+00         0.00000E+00        -0.94828E+07
 
   -0.60584E+07        -0.86828E+06         0.00000E+00
   -0.86828E+06        -0.12338E+08         0.00000E+00
    0.00000E+00         0.00000E+00        -0.95566E+07
 
   -0.64252E+07        -0.72181E+06         0.00000E+00
   -0.72181E+06        -0.12315E+08         0.00000E+00
    0.00000E+00         0.00000E+00        -0.96286E+07
 
   -0.68045E+07        -0.44305E+06         0.00000E+00
   -0.44305E+06        -0.12276E+08         0.00000E+00
    0.00000E+00         0.00000E+00        -0.96988E+07
 
   -0.71980E+07        -0.27769E+05         0.00000E+00
   -0.27769E+05        -0.12216E+08         0.00000E+00
    0.00000E+00         0.00000E+00        -0.97671E+07
 
   -0.76045E+07         0.52707E+06         0.00000E+00
    0.52707E+06        -0.12135E+08         0.00000E+00
    0.00000E+00         0.00000E+00        -0.98331E+07
 
   -0.80204E+07         0.12227E+07         0.00000E+00
    0.12227E+07        -0.12034E+08         0.00000E+00
    0.00000E+00         0.00000E+00        -0.98965E+07
 
   -0.84399E+07         0.20580E+07         0.00000E+00
    0.20580E+07        -0.11916E+08         0.00000E+00
    0.00000E+00         0.00000E+00        -0.99566E+07
 
   -0.88559E+07         0.30296E+07         0.00000E+00
    0.30296E+07        -0.11784E+08         0.00000E+00
    0.00000E+00         0.00000E+00        -0.10013E+08
 
   -0.92600E+07         0.41314E+07         0.00000E+00
    0.41314E+07        -0.11642E+08         0.00000E+00
    0.00000E+00         0.00000E+00        -0.10064E+08
 
   -0.96436E+07         0.53546E+07         0.00000E+00
    0.53546E+07        -0.11495E+08         0.00000E+00
    0.00000E+00         0.00000E+00        -0.10110E+08
 
   -0.99981E+07         0.66879E+07         0.00000E+00
    0.66879E+07        -0.11348E+08         0.00000E+00
    0.00000E+00         0.00000E+00        -0.10149E+08
 
   -0.70581E+07        -0.21556E+06         0.00000E+00
   -0.21556E+06        -0.14377E+08         0.00000E+00
    0.00000E+00         0.00000E+00        -0.10148E+08
 
   -0.73039E+07        -0.56096E+06         0.00000E+00
   -0.56096E+06        -0.14380E+08         0.00000E+00
    0.00000E+00         0.00000E+00        -0.10204E+08
 
   -0.75411E+07        -0.78643E+06         0.00000E+00
   -0.78643E+06        -0.14387E+08         0.00000E+00
    0.00000E+00         0.00000E+00        -0.10258E+08
 
   -0.77723E+07        -0.88733E+06         0.00000E+00
   -0.88733E+06        -0.14394E+08         0.00000E+00
    0.00000E+00         0.00000E+00        -0.10310E+08
 
   -0.80027E+07        -0.85968E+06         0.00000E+00
   -0.85968E+06        -0.14396E+08         0.00000E+00
    0.00000E+00         0.00000E+00        -0.10360E+08
 
   -0.82375E+07        -0.69979E+06         0.00000E+00
   -0.69979E+06        -0.14389E+08         0.00000E+00
    0.00000E+00         0.00000E+00        -0.10408E+08
 
   -0.84811E+07        -0.40433E+06         0.00000E+00
   -0.40433E+06        -0.14370E+08         0.00000E+00
    0.00000E+00         0.00000E+00        -0.10455E+08
 
   -0.87359E+07         0.29293E+05         0.00000E+00
    0.29293E+05        -0.14335E+08         0.00000E+00
    0.00000E+00         0.00000E+00        -0.10500E+08
 
   -0.90024E+07         0.60247E+06         0.00000E+00
    0.60247E+06        -0.14284E+08         0.00000E+00
    0.00000E+00         0.00000E+00        -0.10544E+08
 
   -0.92788E+07         0.13150E+07         0.00000E+00
    0.13150E+07        -0.14217E+08         0.00000E+00
    0.00000E+00         0.00000E+00        -0.10586E+08
 
   -0.95616E+07         0.21647E+07         0.00000E+00
    0.21647E+07        -0.14137E+08         0.00000E+00
    0.00000E+00         0.00000E+00        -0.10626E+08
 
   -0.98459E+07         0.31472E+07         0.00000E+00
    0.31472E+07        -0.14045E+08         0.00000E+00
    0.00000E+00         0.00000E+00        -0.10664E+08
 
   -0.10126E+08         0.42559E+07         0.00000E+00
    0.42559E+07        -0.13944E+08         0.00000E+00
    0.00000E+00         0.00000E+00        -0.10699E+08
 
   -0.10396E+08         0.54817E+07         0.00000E+00
    0.54817E+07        -0.13839E+08         0.00000E+00
    0.00000E+00         0.00000E+00        -0.10730E+08
 
   -0.10649E+08         0.68133E+07         0.00000E+00
    0.68133E+07        -0.13733E+08         0.00000E+00
    0.00000E+00         0.00000E+00        -0.10758E+08
 
   -0.94965E+07        -0.21837E+06         0.00000E+00
   -0.21837E+06        -0.16410E+08         0.00000E+00
    0.00000E+00         0.00000E+00        -0.11047E+08
 
   -0.96248E+07        -0.56947E+06         0.00000E+00
   -0.56947E+06        -0.16418E+08         0.00000E+00
    0.00000E+00         0.00000E+00        -0.11080E+08
 
   -0.97379E+07        -0.79840E+06         0.00000E+00
   -0.79840E+06        -0.16433E+08         0.00000E+00
    0.00000E+00         0.00000E+00        -0.11110E+08
 
   -0.98404E+07        -0.89880E+06         0.00000E+00
   -0.89880E+06        -0.16451E+08         0.00000E+00
    0.00000E+00         0.00000E+00        -0.11138E+08
 
   -0.99381E+07        -0.86614E+06         0.00000E+00
   -0.86614E+06        -0.16469E+08         0.00000E+00
    0.00000E+00         0.00000E+00        -0.11164E+08
 
   -0.10037E+08        -0.69714E+06         0.00000E+00
   -0.69714E+06        -0.16480E+08         0.00000E+00
    0.00000E+00         0.00000E+00        -0.11188E+08
 
   -0.10143E+08        -0.38951E+06         0.00000E+00
   -0.38951E+06        -0.16484E+08         0.00000E+00
    0.00000E+00         0.00000E+00        -0.11212E+08
 
   -0.10258E+08         0.58001E+05         0.00000E+00
    0.58001E+05        -0.16476E+08         0.00000E+00
    0.00000E+00         0.00000E+00        -0.11234E+08
 
   -0.10385E+08         0.64543E+06         0.00000E+00
    0.64543E+06        -0.16456E+08         0.00000E+00
    0.00000E+00         0.00000E+00        -0.11256E+08
 
   -0.10523E+08         0.13713E+07         0.00000E+00
    0.13713E+07        -0.16423E+08         0.00000E+00
    0.00000E+00         0.00000E+00        -0.11277E+08
 
   -0.10672E+08         0.22326E+07         0.00000E+00
    0.22326E+07        -0.16380E+08         0.00000E+00
    0.00000E+00         0.00000E+00        -0.11298E+08
 
   -0.10828E+08         0.32243E+07         0.00000E+00
    0.32243E+07        -0.16327E+08         0.00000E+00
    0.00000E+00         0.00000E+00        -0.11318E+08
 
   -0.10988E+08         0.43391E+07         0.00000E+00
    0.43391E+07        -0.16267E+08         0.00000E+00
    0.00000E+00         0.00000E+00        -0.11337E+08
 
   -0.11147E+08         0.55679E+07         0.00000E+00
    0.55679E+07        -0.16203E+08         0.00000E+00
    0.00000E+00         0.00000E+00        -0.11355E+08
 
   -0.11303E+08         0.68994E+07         0.00000E+00
    0.68994E+07        -0.16136E+08         0.00000E+00
    0.00000E+00         0.00000E+00        -0.11371E+08
 
   -0.11944E+08        -0.22416E+06         0.00000E+00
   -0.22416E+06        -0.18444E+08         0.00000E+00
    0.00000E+00         0.00000E+00        -0.11949E+08
 
   -0.11953E+08        -0.58558E+06         0.00000E+00
   -0.58558E+06        -0.18459E+08         0.00000E+00
    0.00000E+00         0.00000E+00        -0.11959E+08
 
   -0.11939E+08        -0.82162E+06         0.00000E+00
   -0.82162E+06        -0.18484E+08         0.00000E+00
    0.00000E+00         0.00000E+00        -0.11965E+08
 
   -0.11908E+08        -0.92486E+06         0.00000E+00
   -0.92486E+06        -0.18516E+08         0.00000E+00
    0.00000E+00         0.00000E+00        -0.11968E+08
 
   -0.11869E+08        -0.89062E+06         0.00000E+00
   -0.89062E+06        -0.18551E+08         0.00000E+00
    0.00000E+00         0.00000E+00        -0.11970E+08
 
   -0.11828E+08        -0.71613E+06         0.00000E+00
   -0.71613E+06        -0.18584E+08         0.00000E+00
    0.00000E+00         0.00000E+00        -0.11970E+08
 
   -0.11793E+08        -0.40009E+06         0.00000E+00
   -0.40009E+06        -0.18611E+08         0.00000E+00
    0.00000E+00         0.00000E+00        -0.11969E+08
 
   -0.11768E+08         0.57587E+05         0.00000E+00
    0.57587E+05        -0.18630E+08         0.00000E+00
    0.00000E+00         0.00000E+00        -0.11969E+08
 
   -0.11755E+08         0.65576E+06         0.00000E+00
    0.65576E+06        -0.18641E+08         0.00000E+00
    0.00000E+00         0.00000E+00        -0.11968E+08
 
   -0.11757E+08         0.13920E+07         0.00000E+00
    0.13920E+07        -0.18643E+08         0.00000E+00
    0.00000E+00         0.00000E+00        -0.11969E+08
 
   -0.11773E+08         0.22625E+07         0.00000E+00
    0.22625E+07        -0.18636E+08         0.00000E+00
    0.00000E+00         0.00000E+00        -0.11970E+08
 
   -0.11803E+08         0.32616E+07         0.00000E+00
    0.32616E+07        -0.18621E+08         0.00000E+00
    0.00000E+00         0.00000E+00        -0.11973E+08
 
   -0.11845E+08         0.43820E+07         0.00000E+00
    0.43820E+07        -0.18601E+08         0.00000E+00
    0.00000E+00         0.00000E+00        -0.11976E+08
 
   -0.11897E+08         0.56143E+07         0.00000E+00
    0.56143E+07        -0.18576E+08         0.00000E+00
    0.00000E+00         0.00000E+00        -0.11981E+08
 
   -0.11957E+08         0.69472E+07         0.00000E+00
    0.69472E+07        -0.18548E+08         0.00000E+00
    0.00000E+00         0.00000E+00        -0.11986E+08
 
   -0.14406E+08        -0.23359E+06         0.00000E+00
   -0.23359E+06        -0.20479E+08         0.00000E+00
    0.00000E+00         0.00000E+00        -0.12855E+08
 
   -0.14293E+08        -0.61093E+06         0.00000E+00
   -0.61093E+06        -0.20500E+08         0.00000E+00
    0.00000E+00         0.00000E+00        -0.12840E+08
 
   -0.14146E+08        -0.85816E+06         0.00000E+00
   -0.85816E+06        -0.20538E+08         0.00000E+00
    0.00000E+00         0.00000E+00        -0.12822E+08
 
   -0.13978E+08        -0.96757E+06         0.00000E+00
   -0.96757E+06        -0.20586E+08         0.00000E+00
    0.00000E+00         0.00000E+00        -0.12800E+08
 
   -0.13797E+08        -0.93477E+06         0.00000E+00
   -0.93477E+06        -0.20639E+08         0.00000E+00
    0.00000E+00         0.00000E+00        -0.12776E+08
 
   -0.13614E+08        -0.75779E+06         0.00000E+00
   -0.75779E+06        -0.20693E+08         0.00000E+00
    0.00000E+00         0.00000E+00        -0.12751E+08
 
   -0.13436E+08        -0.43642E+06         0.00000E+00
   -0.43642E+06        -0.20744E+08         0.00000E+00
    0.00000E+00         0.00000E+00        -0.12727E+08
 
   -0.13269E+08         0.28272E+05         0.00000E+00
    0.28272E+05        -0.20791E+08         0.00000E+00
    0.00000E+00         0.00000E+00        -0.12703E+08
 
   -0.13117E+08         0.63413E+06         0.00000E+00
    0.63413E+06        -0.20831E+08         0.00000E+00
    0.00000E+00         0.00000E+00        -0.12680E+08
 
   -0.12983E+08         0.13779E+07         0.00000E+00
    0.13779E+07        -0.20865E+08         0.00000E+00
    0.00000E+00         0.00000E+00        -0.12660E+08
 
   -0.12868E+08         0.22553E+07         0.00000E+00
    0.22553E+07        -0.20894E+08         0.00000E+00
    0.00000E+00         0.00000E+00        -0.12642E+08
 
   -0.12773E+08         0.32604E+07         0.00000E+00
    0.32604E+07        -0.20917E+08         0.00000E+00
    0.00000E+00         0.00000E+00        -0.12627E+08
 
   -0.12699E+08         0.43857E+07         0.00000E+00
    0.43857E+07        -0.20935E+08         0.00000E+00
    0.00000E+00         0.00000E+00        -0.12615E+08
 
   -0.12645E+08         0.56220E+07         0.00000E+00
    0.56220E+07        -0.20948E+08         0.00000E+00
    0.00000E+00         0.00000E+00        -0.12607E+08
 
   -0.12611E+08         0.69578E+07         0.00000E+00
    0.69578E+07        -0.20958E+08         0.00000E+00
    0.00000E+00         0.00000E+00        -0.12601E+08
 
   -0.16890E+08        -0.24704E+06         0.00000E+00
   -0.24704E+06        -0.22515E+08         0.00000E+00
    0.00000E+00         0.00000E+00        -0.13765E+08
 
   -0.16649E+08        -0.64639E+06         0.00000E+00
   -0.64639E+06        -0.22543E+08         0.00000E+00
    0.00000E+00         0.00000E+00        -0.13726E+08
 
   -0.16365E+08        -0.90904E+06         0.00000E+00
   -0.90904E+06        -0.22593E+08         0.00000E+00
    0.00000E+00         0.00000E+00        -0.13682E+08
 
   -0.16053E+08        -0.10277E+07         0.00000E+00
   -0.10277E+07        -0.22657E+08         0.00000E+00
    0.00000E+00         0.00000E+00        -0.13634E+08
 
   -0.15727E+08        -0.99885E+06         0.00000E+00
   -0.99885E+06        -0.22728E+08         0.00000E+00
    0.00000E+00         0.00000E+00        -0.13584E+08
 
   -0.15398E+08        -0.82180E+06         0.00000E+00
   -0.82180E+06        -0.22803E+08         0.00000E+00
    0.00000E+00         0.00000E+00        -0.13533E+08
 
   -0.15075E+08        -0.49762E+06         0.00000E+00
   -0.49762E+06        -0.22877E+08         0.00000E+00
    0.00000E+00         0.00000E+00        -0.13483E+08
 
   -0.14765E+08        -0.28616E+05         0.00000E+00
   -0.28616E+05        -0.22949E+08         0.00000E+00
    0.00000E+00         0.00000E+00        -0.13435E+08
 
   -0.14473E+08         0.58210E+06         0.00000E+00
    0.58210E+06        -0.23017E+08         0.00000E+00
    0.00000E+00         0.00000E+00        -0.13390E+08
 
   -0.14203E+08         0.13307E+07         0.00000E+00
    0.13307E+07        -0.23082E+08         0.00000E+00
    0.00000E+00         0.00000E+00        -0.13348E+08
 
   -0.13957E+08         0.22125E+07         0.00000E+00
    0.22125E+07        -0.23144E+08         0.00000E+00
    0.00000E+00         0.00000E+00        -0.13311E+08
 
   -0.13738E+08         0.32217E+07         0.00000E+00
    0.32217E+07        -0.23202E+08         0.00000E+00
    0.00000E+00         0.00000E+00        -0.13279E+08
 
   -0.13548E+08         0.43511E+07         0.00000E+00
    0.43511E+07        -0.23258E+08         0.00000E+00
    0.00000E+00         0.00000E+00        -0.13251E+08
 
   -0.13389E+08         0.55916E+07         0.00000E+00
    0.55916E+07        -0.23309E+08         0.00000E+00
    0.00000E+00         0.00000E+00        -0.13230E+08
 
   -0.13262E+08         0.69317E+07         0.00000E+00
    0.69317E+07        -0.23356E+08         0.00000E+00
    0.00000E+00         0.00000E+00        -0.13214E+08
 
   -0.19404E+08        -0.26465E+06         0.00000E+00
   -0.26465E+06        -0.24551E+08         0.00000E+00
    0.00000E+00         0.00000E+00        -0.14682E+08
 
   -0.19027E+08        -0.69218E+06         0.00000E+00
   -0.69218E+06        -0.24586E+08         0.00000E+00
    0.00000E+00         0.00000E+00        -0.14616E+08
 
   -0.18598E+08        -0.97420E+06         0.00000E+00
   -0.97420E+06        -0.24648E+08         0.00000E+00
    0.00000E+00         0.00000E+00        -0.14544E+08
 
   -0.18137E+08        -0.11047E+07         0.00000E+00
   -0.11047E+07        -0.24727E+08         0.00000E+00
    0.00000E+00         0.00000E+00        -0.14469E+08
 
   -0.17660E+08        -0.10817E+07         0.00000E+00
   -0.10817E+07        -0.24815E+08         0.00000E+00
    0.00000E+00         0.00000E+00        -0.14391E+08
 
   -0.17181E+08        -0.90634E+06         0.00000E+00
   -0.90634E+06        -0.24908E+08         0.00000E+00
    0.00000E+00         0.00000E+00        -0.14314E+08
 
   -0.16711E+08        -0.58138E+06         0.00000E+00
   -0.58138E+06        -0.25002E+08         0.00000E+00
    0.00000E+00         0.00000E+00        -0.14238E+08
 
   -0.16257E+08        -0.11050E+06         0.00000E+00
   -0.11050E+06        -0.25096E+08         0.00000E+00
    0.00000E+00         0.00000E+00        -0.14165E+08
 
   -0.15826E+08         0.50225E+06         0.00000E+00
    0.50225E+06        -0.25189E+08         0.00000E+00
    0.00000E+00         0.00000E+00        -0.14097E+08
 
   -0.15420E+08         0.12526E+07         0.00000E+00
    0.12526E+07        -0.25282E+08         0.00000E+00
    0.00000E+00         0.00000E+00        -0.14033E+08
 
   -0.15044E+08         0.21360E+07         0.00000E+00
    0.21360E+07        -0.25374E+08         0.00000E+00
    0.00000E+00         0.00000E+00        -0.13976E+08
 
   -0.14701E+08         0.31470E+07         0.00000E+00
    0.31470E+07        -0.25467E+08         0.00000E+00
    0.00000E+00         0.00000E+00        -0.13926E+08
 
   -0.14394E+08         0.42790E+07         0.00000E+00
    0.42790E+07        -0.25559E+08         0.00000E+00
    0.00000E+00         0.00000E+00        -0.13883E+08
 
   -0.14129E+08         0.55234E+07         0.00000E+00
    0.55234E+07        -0.25648E+08         0.00000E+00
    0.00000E+00         0.00000E+00        -0.13848E+08
 
   -0.13908E+08         0.68691E+07         0.00000E+00
    0.68691E+07        -0.25732E+08         0.00000E+00
    0.00000E+00         0.00000E+00        -0.13821E+08
 
   -0.21955E+08        -0.28635E+06         0.00000E+00
   -0.28635E+06        -0.26587E+08         0.00000E+00
    0.00000E+00         0.00000E+00        -0.15607E+08
 
   -0.21431E+08        -0.74786E+06         0.00000E+00
   -0.74786E+06        -0.26629E+08         0.00000E+00
    0.00000E+00         0.00000E+00        -0.15512E+08
 
   -0.20848E+08        -0.10526E+07         0.00000E+00
   -0.10526E+07        -0.26702E+08         0.00000E+00
    0.00000E+00         0.00000E+00        -0.15411E+08
 
   -0.20230E+08        -0.11966E+07         0.00000E+00
   -0.11966E+07        -0.26794E+08         0.00000E+00
    0.00000E+00         0.00000E+00        -0.15305E+08
 
   -0.19597E+08        -0.11806E+07         0.00000E+00
   -0.11806E+07        -0.26896E+08         0.00000E+00
    0.00000E+00         0.00000E+00        -0.15199E+08
 
   -0.18966E+08        -0.10080E+07         0.00000E+00
   -0.10080E+07        -0.27003E+08         0.00000E+00
    0.00000E+00         0.00000E+00        -0.15093E+08
 
   -0.18347E+08        -0.68381E+06         0.00000E+00
   -0.68381E+06        -0.27113E+08         0.00000E+00
    0.00000E+00         0.00000E+00        -0.14990E+08
 
   -0.17750E+08        -0.21338E+06         0.00000E+00
   -0.21338E+06        -0.27223E+08         0.00000E+00
    0.00000E+00         0.00000E+00        -0.14891E+08
 
   -0.17179E+08         0.39834E+06         0.00000E+00
    0.39834E+06        -0.27337E+08         0.00000E+00
    0.00000E+00         0.00000E+00        -0.14798E+08
 
   -0.16638E+08         0.11469E+07         0.00000E+00
    0.11469E+07        -0.27453E+08         0.00000E+00
    0.00000E+00         0.00000E+00        -0.14712E+08
 
   -0.16131E+08         0.20281E+07         0.00000E+00
    0.20281E+07        -0.27573E+08         0.00000E+00
    0.00000E+00         0.00000E+00        -0.14635E+08
 
   -0.15663E+08         0.30376E+07         0.00000E+00
    0.30376E+07        -0.27698E+08         0.00000E+00
    0.00000E+00         0.00000E+00        -0.14566E+08
 
   -0.15238E+08         0.41699E+07         0.00000E+00
    0.41699E+07        -0.27825E+08         0.00000E+00
    0.00000E+00         0.00000E+00        -0.14507E+08
 
   -0.14864E+08         0.54173E+07         0.00000E+00
    0.54173E+07        -0.27952E+08         0.00000E+00
    0.00000E+00         0.00000E+00        -0.14458E+08
 
   -0.14547E+08         0.67694E+07         0.00000E+00
    0.67694E+07        -0.28074E+08         0.00000E+00
    0.00000E+00         0.00000E+00        -0.14421E+08
 
   -0.24549E+08        -0.31188E+06         0.00000E+00
   -0.31188E+06        -0.28623E+08         0.00000E+00
    0.00000E+00         0.00000E+00        -0.16541E+08
 
   -0.23866E+08        -0.81236E+06         0.00000E+00
   -0.81236E+06        -0.28672E+08         0.00000E+00
    0.00000E+00         0.00000E+00        -0.16414E+08
 
   -0.23117E+08        -0.11420E+07         0.00000E+00
   -0.11420E+07        -0.28753E+08         0.00000E+00
    0.00000E+00         0.00000E+00        -0.16281E+08
 
   -0.22333E+08        -0.13001E+07         0.00000E+00
   -0.13001E+07        -0.28854E+08         0.00000E+00
    0.00000E+00         0.00000E+00        -0.16143E+08
 
   -0.21539E+08        -0.12910E+07         0.00000E+00
   -0.12910E+07        -0.28966E+08         0.00000E+00
    0.00000E+00         0.00000E+00        -0.16005E+08
 
   -0.20752E+08        -0.11214E+07         0.00000E+00
   -0.11214E+07        -0.29081E+08         0.00000E+00
    0.00000E+00         0.00000E+00        -0.15869E+08
 
   -0.19985E+08        -0.79920E+06         0.00000E+00
   -0.79920E+06        -0.29200E+08         0.00000E+00
    0.00000E+00         0.00000E+00        -0.15737E+08
 
   -0.19245E+08        -0.33163E+06         0.00000E+00
   -0.33163E+06        -0.29321E+08         0.00000E+00
    0.00000E+00         0.00000E+00        -0.15612E+08
 
   -0.18535E+08         0.27545E+06         0.00000E+00
    0.27545E+06        -0.29448E+08         0.00000E+00
    0.00000E+00         0.00000E+00        -0.15494E+08
 
   -0.17861E+08         0.10177E+07         0.00000E+00
    0.10177E+07        -0.29583E+08         0.00000E+00
    0.00000E+00         0.00000E+00        -0.15384E+08
 
   -0.17223E+08         0.18918E+07         0.00000E+00
    0.18918E+07        -0.29727E+08         0.00000E+00
    0.00000E+00         0.00000E+00        -0.15285E+08
 
   -0.16629E+08         0.28951E+07         0.00000E+00
    0.28951E+07        -0.29881E+08         0.00000E+00
    0.00000E+00         0.00000E+00        -0.15198E+08
 
   -0.16083E+08         0.40239E+07         0.00000E+00
    0.40239E+07        -0.30043E+08         0.00000E+00
    0.00000E+00         0.00000E+00        -0.15122E+08
 
   -0.15595E+08         0.52725E+07         0.00000E+00
    0.52725E+07        -0.30208E+08         0.00000E+00
    0.00000E+00         0.00000E+00        -0.15059E+08
 
   -0.15178E+08         0.66314E+07         0.00000E+00
    0.66314E+07        -0.30370E+08         0.00000E+00
    0.00000E+00         0.00000E+00        -0.15009E+08
 
   -0.27194E+08        -0.34078E+06         0.00000E+00
   -0.34078E+06        -0.30660E+08         0.00000E+00
    0.00000E+00         0.00000E+00        -0.17486E+08
 
   -0.26333E+08        -0.88398E+06         0.00000E+00
   -0.88398E+06        -0.30713E+08         0.00000E+00
    0.00000E+00         0.00000E+00        -0.17323E+08
 
   -0.25405E+08        -0.12392E+07         0.00000E+00
   -0.12392E+07        -0.30800E+08         0.00000E+00
    0.00000E+00         0.00000E+00        -0.17154E+08
 
   -0.24446E+08        -0.14103E+07         0.00000E+00
   -0.14103E+07        -0.30906E+08         0.00000E+00
    0.00000E+00         0.00000E+00        -0.16981E+08
 
   -0.23486E+08        -0.14065E+07         0.00000E+00
   -0.14065E+07        -0.31019E+08         0.00000E+00
    0.00000E+00         0.00000E+00        -0.16809E+08
 
   -0.22542E+08        -0.12392E+07         0.00000E+00
   -0.12392E+07        -0.31135E+08         0.00000E+00
    0.00000E+00         0.00000E+00        -0.16641E+08
 
   -0.21626E+08        -0.91981E+06         0.00000E+00
   -0.91981E+06        -0.31254E+08         0.00000E+00
    0.00000E+00         0.00000E+00        -0.16479E+08
 
   -0.20745E+08        -0.45778E+06         0.00000E+00
   -0.45778E+06        -0.31377E+08         0.00000E+00
    0.00000E+00         0.00000E+00        -0.16325E+08
 
   -0.19901E+08         0.14017E+06         0.00000E+00
    0.14017E+06        -0.31510E+08         0.00000E+00
    0.00000E+00         0.00000E+00        -0.16181E+08
 
   -0.19094E+08         0.87012E+06         0.00000E+00
    0.87012E+06        -0.31657E+08         0.00000E+00
    0.00000E+00         0.00000E+00        -0.16048E+08
 
   -0.18326E+08         0.17305E+07         0.00000E+00
    0.17305E+07        -0.31820E+08         0.00000E+00
    0.00000E+00         0.00000E+00        -0.15926E+08
 
   -0.17602E+08         0.27210E+07         0.00000E+00
    0.27210E+07        -0.32001E+08         0.00000E+00
    0.00000E+00         0.00000E+00        -0.15818E+08
 
   -0.16931E+08         0.38408E+07         0.00000E+00
    0.38408E+07        -0.32197E+08         0.00000E+00
    0.00000E+00         0.00000E+00        -0.15725E+08
 
   -0.16324E+08         0.50871E+07         0.00000E+00
    0.50871E+07        -0.32402E+08         0.00000E+00
    0.00000E+00         0.00000E+00        -0.15646E+08
 
   -0.15798E+08         0.64525E+07         0.00000E+00
    0.64525E+07        -0.32606E+08         0.00000E+00
    0.00000E+00         0.00000E+00        -0.15584E+08
 
   -0.29894E+08        -0.37244E+06         0.00000E+00
   -0.37244E+06        -0.32696E+08         0.00000E+00
    0.00000E+00         0.00000E+00        -0.18442E+08
 
   -0.28835E+08        -0.96029E+06         0.00000E+00
   -0.96029E+06        -0.32752E+08         0.00000E+00
    0.00000E+00         0.00000E+00        -0.18239E+08
 
   -0.27711E+08        -0.13393E+07         0.00000E+00
   -0.13393E+07        -0.32842E+08         0.00000E+00
    0.00000E+00         0.00000E+00        -0.18029E+08
 
   -0.26567E+08        -0.15200E+07         0.00000E+00
   -0.15200E+07        -0.32945E+08         0.00000E+00
    0.00000E+00         0.00000E+00        -0.17818E+08
 
   -0.25435E+08        -0.15182E+07         0.00000E+00
   -0.15182E+07        -0.33051E+08         0.00000E+00
    0.00000E+00         0.00000E+00        -0.17609E+08
 
   -0.24333E+08        -0.13515E+07         0.00000E+00
   -0.13515E+07        -0.33157E+08         0.00000E+00
    0.00000E+00         0.00000E+00        -0.17407E+08
 
   -0.23273E+08        -0.10356E+07         0.00000E+00
   -0.10356E+07        -0.33264E+08         0.00000E+00
    0.00000E+00         0.00000E+00        -0.17213E+08
 
   -0.22256E+08        -0.58236E+06         0.00000E+00
   -0.58236E+06        -0.33378E+08         0.00000E+00
    0.00000E+00         0.00000E+00        -0.17029E+08
 
   -0.21280E+08         0.70756E+03         0.00000E+00
    0.70756E+03        -0.33507E+08         0.00000E+00
    0.00000E+00         0.00000E+00        -0.16858E+08
 
   -0.20344E+08         0.71066E+06         0.00000E+00
    0.71066E+06        -0.33658E+08         0.00000E+00
    0.00000E+00         0.00000E+00        -0.16700E+08
 
   -0.19447E+08         0.15483E+07         0.00000E+00
    0.15483E+07        -0.33835E+08         0.00000E+00
    0.00000E+00         0.00000E+00        -0.16556E+08
 
   -0.18592E+08         0.25167E+07         0.00000E+00
    0.25167E+07        -0.34040E+08         0.00000E+00
    0.00000E+00         0.00000E+00        -0.16427E+08
 
   -0.17789E+08         0.36195E+07         0.00000E+00
    0.36195E+07        -0.34270E+08         0.00000E+00
    0.00000E+00         0.00000E+00        -0.16314E+08
 
   -0.17053E+08         0.48581E+07         0.00000E+00
    0.48581E+07        -0.34518E+08         0.00000E+00
    0.00000E+00         0.00000E+00        -0.16219E+08
 
   -0.16407E+08         0.62287E+07         0.00000E+00
    0.62287E+07        -0.34769E+08         0.00000E+00
    0.00000E+00         0.00000E+00        -0.16143E+08
 
   -0.32653E+08        -0.40609E+06         0.00000E+00
   -0.40609E+06        -0.34733E+08         0.00000E+00
    0.00000E+00         0.00000E+00        -0.19410E+08
 
   -0.31369E+08        -0.10380E+07         0.00000E+00
   -0.10380E+07        -0.34790E+08         0.00000E+00
    0.00000E+00         0.00000E+00        -0.19161E+08
 
   -0.30030E+08        -0.14360E+07         0.00000E+00
   -0.14360E+07        -0.34875E+08         0.00000E+00
    0.00000E+00         0.00000E+00        -0.18906E+08
 
   -0.28690E+08        -0.16197E+07         0.00000E+00
   -0.16197E+07        -0.34967E+08         0.00000E+00
    0.00000E+00         0.00000E+00        -0.18652E+08
 
   -0.27382E+08        -0.16146E+07         0.00000E+00
   -0.16146E+07        -0.35054E+08         0.00000E+00
    0.00000E+00         0.00000E+00        -0.18403E+08
 
   -0.26127E+08        -0.14457E+07         0.00000E+00
   -0.14457E+07        -0.35135E+08         0.00000E+00
    0.00000E+00         0.00000E+00        -0.18164E+08
 
   -0.24927E+08        -0.11340E+07         0.00000E+00
   -0.11340E+07        -0.35217E+08         0.00000E+00
    0.00000E+00         0.00000E+00        -0.17937E+08
 
   -0.23782E+08        -0.69383E+06         0.00000E+00
   -0.69383E+06        -0.35309E+08         0.00000E+00
    0.00000E+00         0.00000E+00        -0.17723E+08
 
   -0.22683E+08        -0.13306E+06         0.00000E+00
   -0.13306E+06        -0.35423E+08         0.00000E+00
    0.00000E+00         0.00000E+00        -0.17524E+08
 
   -0.21623E+08         0.54685E+06         0.00000E+00
    0.54685E+06        -0.35568E+08         0.00000E+00
    0.00000E+00         0.00000E+00        -0.17340E+08
 
   -0.20598E+08         0.13498E+07         0.00000E+00
    0.13498E+07        -0.35751E+08         0.00000E+00
    0.00000E+00         0.00000E+00        -0.17172E+08
 
   -0.19609E+08         0.22837E+07         0.00000E+00
    0.22837E+07        -0.35977E+08         0.00000E+00
    0.00000E+00         0.00000E+00        -0.17021E+08
 
   -0.18665E+08         0.33581E+07         0.00000E+00
    0.33581E+07        -0.36243E+08         0.00000E+00
    0.00000E+00         0.00000E+00        -0.16887E+08
 
   -0.17787E+08         0.45808E+07         0.00000E+00
    0.45808E+07        -0.36537E+08         0.00000E+00
    0.00000E+00         0.00000E+00        -0.16773E+08
 
   -0.17004E+08         0.59535E+07         0.00000E+00
    0.59535E+07        -0.36842E+08         0.00000E+00
    0.00000E+00         0.00000E+00        -0.16681E+08
 
   -0.35472E+08        -0.44079E+06         0.00000E+00
   -0.44079E+06        -0.36770E+08         0.00000E+00
    0.00000E+00         0.00000E+00        -0.20390E+08
 
   -0.33930E+08        -0.11128E+07         0.00000E+00
   -0.11128E+07        -0.36824E+08         0.00000E+00
    0.00000E+00         0.00000E+00        -0.20087E+08
 
   -0.32354E+08        -0.15204E+07         0.00000E+00
   -0.15204E+07        -0.36897E+08         0.00000E+00
    0.00000E+00         0.00000E+00        -0.19781E+08
 
   -0.30807E+08        -0.16968E+07         0.00000E+00
   -0.16968E+07        -0.36964E+08         0.00000E+00
    0.00000E+00         0.00000E+00        -0.19480E+08
 
   -0.29324E+08        -0.16805E+07         0.00000E+00
   -0.16805E+07        -0.37016E+08         0.00000E+00
    0.00000E+00         0.00000E+00        -0.19188E+08
 
   -0.27920E+08        -0.15062E+07         0.00000E+00
   -0.15062E+07        -0.37057E+08         0.00000E+00
    0.00000E+00         0.00000E+00        -0.18910E+08
 
   -0.26592E+08        -0.12001E+07         0.00000E+00
   -0.12001E+07        -0.37097E+08         0.00000E+00
    0.00000E+00         0.00000E+00        -0.18648E+08
 
   -0.25329E+08        -0.77881E+06         0.00000E+00
   -0.77881E+06        -0.37152E+08         0.00000E+00
    0.00000E+00         0.00000E+00        -0.18404E+08
 
   -0.24117E+08        -0.24982E+06         0.00000E+00
   -0.24982E+06        -0.37237E+08         0.00000E+00
    0.00000E+00         0.00000E+00        -0.18177E+08
 
   -0.22942E+08         0.38741E+06         0.00000E+00
    0.38741E+06        -0.37365E+08         0.00000E+00
    0.00000E+00         0.00000E+00        -0.17967E+08
 
   -0.21792E+08         0.11406E+07         0.00000E+00
    0.11406E+07        -0.37548E+08         0.00000E+00
    0.00000E+00         0.00000E+00        -0.17774E+08
 
   -0.20666E+08         0.20234E+07         0.00000E+00
    0.20234E+07        -0.37791E+08         0.00000E+00
    0.00000E+00         0.00000E+00        -0.17599E+08
 
   -0.19572E+08         0.30535E+07         0.00000E+00
    0.30535E+07        -0.38093E+08         0.00000E+00
    0.00000E+00         0.00000E+00        -0.17442E+08
 
   -0.18533E+08         0.42480E+07         0.00000E+00
    0.42480E+07        -0.38439E+08         0.00000E+00
    0.00000E+00         0.00000E+00        -0.17308E+08
 
   -0.17590E+08         0.56174E+07         0.00000E+00
    0.56174E+07        -0.38808E+08         0.00000E+00
    0.00000E+00         0.00000E+00        -0.17196E+08
 
   -0.38349E+08        -0.47535E+06         0.00000E+00
   -0.47535E+06        -0.38806E+08         0.00000E+00
    0.00000E+00         0.00000E+00        -0.21382E+08
 
   -0.36509E+08        -0.11782E+07         0.00000E+00
   -0.11782E+07        -0.38853E+08         0.00000E+00
    0.00000E+00         0.00000E+00        -0.21017E+08
 
   -0.34670E+08        -0.15795E+07         0.00000E+00
   -0.15795E+07        -0.38903E+08         0.00000E+00
    0.00000E+00         0.00000E+00        -0.20652E+08
 
   -0.32908E+08        -0.17337E+07         0.00000E+00
   -0.17337E+07        -0.38928E+08         0.00000E+00
    0.00000E+00         0.00000E+00        -0.20297E+08
 
   -0.31254E+08        -0.16968E+07         0.00000E+00
   -0.16968E+07        -0.38923E+08         0.00000E+00
    0.00000E+00         0.00000E+00        -0.19959E+08
 
   -0.29714E+08        -0.15144E+07         0.00000E+00
   -0.15144E+07        -0.38902E+08         0.00000E+00
    0.00000E+00         0.00000E+00        -0.19641E+08
 
   -0.28272E+08        -0.12173E+07         0.00000E+00
   -0.12173E+07        -0.38882E+08         0.00000E+00
    0.00000E+00         0.00000E+00        -0.19345E+08
 
   -0.26908E+08        -0.82283E+06         0.00000E+00
   -0.82283E+06        -0.38884E+08         0.00000E+00
    0.00000E+00         0.00000E+00        -0.19069E+08
 
   -0.25596E+08        -0.33741E+06         0.00000E+00
   -0.33741E+06        -0.38927E+08         0.00000E+00
    0.00000E+00         0.00000E+00        -0.18814E+08
 
   -0.24316E+08         0.24193E+06         0.00000E+00
    0.24193E+06        -0.39028E+08         0.00000E+00
    0.00000E+00         0.00000E+00        -0.18578E+08
 
   -0.23048E+08         0.92681E+06         0.00000E+00
    0.92681E+06        -0.39202E+08         0.00000E+00
    0.00000E+00         0.00000E+00        -0.18360E+08
 
   -0.21783E+08         0.17374E+07         0.00000E+00
    0.17374E+07        -0.39458E+08         0.00000E+00
    0.00000E+00         0.00000E+00        -0.18160E+08
 
   -0.20526E+08         0.27015E+07         0.00000E+00
    0.27015E+07        -0.39796E+08         0.00000E+00
    0.00000E+00         0.00000E+00        -0.17979E+08
 
   -0.19304E+08         0.38497E+07         0.00000E+00
    0.38497E+07        -0.40204E+08         0.00000E+00
    0.00000E+00         0.00000E+00        -0.17819E+08
 
   -0.18165E+08         0.52065E+07         0.00000E+00
    0.52065E+07        -0.40651E+08         0.00000E+00
    0.00000E+00         0.00000E+00        -0.17685E+08
 
   -0.41278E+08        -0.50815E+06         0.00000E+00
   -0.50815E+06        -0.40842E+08         0.00000E+00
    0.00000E+00         0.00000E+00        -0.22385E+08
 
   -0.39086E+08        -0.12243E+07         0.00000E+00
   -0.12243E+07        -0.40875E+08         0.00000E+00
    0.00000E+00         0.00000E+00        -0.21944E+08
 
   -0.36958E+08        -0.15944E+07         0.00000E+00
   -0.15944E+07        -0.40883E+08         0.00000E+00
    0.00000E+00         0.00000E+00        -0.21511E+08
 
   -0.34978E+08        -0.17064E+07         0.00000E+00
   -0.17064E+07        -0.40838E+08         0.00000E+00
    0.00000E+00         0.00000E+00        -0.21097E+08
 
   -0.33167E+08        -0.16397E+07         0.00000E+00
   -0.16397E+07        -0.40751E+08         0.00000E+00
    0.00000E+00         0.00000E+00        -0.20710E+08
 
   -0.31510E+08        -0.14497E+07         0.00000E+00
   -0.14497E+07        -0.40644E+08         0.00000E+00
    0.00000E+00         0.00000E+00        -0.20352E+08
 
   -0.29975E+08        -0.11686E+07         0.00000E+00
   -0.11686E+07        -0.40546E+08         0.00000E+00
    0.00000E+00         0.00000E+00        -0.20022E+08
 
   -0.28528E+08        -0.81200E+06         0.00000E+00
   -0.81200E+06        -0.40480E+08         0.00000E+00
    0.00000E+00         0.00000E+00        -0.19717E+08
 
   -0.27135E+08        -0.38411E+06         0.00000E+00
   -0.38411E+06        -0.40470E+08         0.00000E+00
    0.00000E+00         0.00000E+00        -0.19435E+08
 
   -0.25763E+08         0.12032E+06         0.00000E+00
    0.12032E+06        -0.40534E+08         0.00000E+00
    0.00000E+00         0.00000E+00        -0.19174E+08
 
   -0.24386E+08         0.71588E+06         0.00000E+00
    0.71588E+06        -0.40690E+08         0.00000E+00
    0.00000E+00         0.00000E+00        -0.18930E+08
 
   -0.22985E+08         0.14285E+07         0.00000E+00
    0.14285E+07        -0.40952E+08         0.00000E+00
    0.00000E+00         0.00000E+00        -0.18704E+08
 
   -0.21553E+08         0.22974E+07         0.00000E+00
    0.22974E+07        -0.41328E+08         0.00000E+00
    0.00000E+00         0.00000E+00        -0.18496E+08
 
   -0.20116E+08         0.33723E+07         0.00000E+00
    0.33723E+07        -0.41807E+08         0.00000E+00
    0.00000E+00         0.00000E+00        -0.18308E+08
 
   -0.18736E+08         0.47010E+07         0.00000E+00
    0.47010E+07        -0.42352E+08         0.00000E+00
    0.00000E+00         0.00000E+00        -0.18145E+08
 
   -0.44246E+08        -0.53647E+06         0.00000E+00
   -0.53647E+06        -0.42877E+08         0.00000E+00
    0.00000E+00         0.00000E+00        -0.23395E+08
 
   -0.41632E+08        -0.12332E+07         0.00000E+00
   -0.12332E+07        -0.42882E+08         0.00000E+00
    0.00000E+00         0.00000E+00        -0.22862E+08
 
   -0.39191E+08        -0.15341E+07         0.00000E+00
   -0.15341E+07        -0.42814E+08         0.00000E+00
    0.00000E+00         0.00000E+00        -0.22349E+08
 
   -0.37005E+08        -0.15824E+07         0.00000E+00
   -0.15824E+07        -0.42662E+08         0.00000E+00
    0.00000E+00         0.00000E+00        -0.21871E+08
 
   -0.35062E+08        -0.14827E+07         0.00000E+00
   -0.14827E+07        -0.42459E+08         0.00000E+00
    0.00000E+00         0.00000E+00        -0.21435E+08
 
   -0.33316E+08        -0.12929E+07         0.00000E+00
   -0.12929E+07        -0.42246E+08         0.00000E+00
    0.00000E+00         0.00000E+00        -0.21038E+08
 
   -0.31713E+08        -0.10402E+07         0.00000E+00
   -0.10402E+07        -0.42056E+08         0.00000E+00
    0.00000E+00         0.00000E+00        -0.20676E+08
 
   -0.30204E+08        -0.73581E+06         0.00000E+00
   -0.73581E+06        -0.41914E+08         0.00000E+00
    0.00000E+00         0.00000E+00        -0.20344E+08
 
   -0.28748E+08        -0.38076E+06         0.00000E+00
   -0.38076E+06        -0.41843E+08         0.00000E+00
    0.00000E+00         0.00000E+00        -0.20038E+08
 
   -0.27303E+08         0.31584E+05         0.00000E+00
    0.31584E+05        -0.41862E+08         0.00000E+00
    0.00000E+00         0.00000E+00        -0.19753E+08
 
   -0.25833E+08         0.51661E+06         0.00000E+00
    0.51661E+06        -0.41992E+08         0.00000E+00
    0.00000E+00         0.00000E+00        -0.19486E+08
 
   -0.24302E+08         0.11024E+07         0.00000E+00
    0.11024E+07        -0.42252E+08         0.00000E+00
    0.00000E+00         0.00000E+00        -0.19234E+08
 
   -0.22688E+08         0.18379E+07         0.00000E+00
    0.18379E+07        -0.42660E+08         0.00000E+00
    0.00000E+00         0.00000E+00        -0.18995E+08
 
   -0.21000E+08         0.27983E+07         0.00000E+00
    0.27983E+07        -0.43220E+08         0.00000E+00
    0.00000E+00         0.00000E+00        -0.18773E+08
 
   -0.19311E+08         0.40713E+07         0.00000E+00
    0.40713E+07        -0.43891E+08         0.00000E+00
    0.00000E+00         0.00000E+00        -0.18574E+08
 
   -0.47225E+08        -0.55397E+06         0.00000E+00
   -0.55397E+06        -0.44908E+08         0.00000E+00
    0.00000E+00         0.00000E+00        -0.24407E+08
 
   -0.44095E+08        -0.11679E+07         0.00000E+00
   -0.11679E+07        -0.44851E+08         0.00000E+00
    0.00000E+00         0.00000E+00        -0.23754E+08
 
   -0.41336E+08        -0.13479E+07         0.00000E+00
   -0.13479E+07        -0.44647E+08         0.00000E+00
    0.00000E+00         0.00000E+00        -0.23149E+08
 
   -0.38983E+08        -0.13217E+07         0.00000E+00
   -0.13217E+07        -0.44334E+08         0.00000E+00
    0.00000E+00         0.00000E+00        -0.22606E+08
 
   -0.36950E+08        -0.12022E+07         0.00000E+00
   -0.12022E+07        -0.43989E+08         0.00000E+00
    0.00000E+00         0.00000E+00        -0.22123E+08
 
   -0.35147E+08        -0.10317E+07         0.00000E+00
   -0.10317E+07        -0.43658E+08         0.00000E+00
    0.00000E+00         0.00000E+00        -0.21692E+08
 
   -0.33500E+08        -0.82627E+06         0.00000E+00
   -0.82627E+06        -0.43373E+08         0.00000E+00
    0.00000E+00         0.00000E+00        -0.21303E+08
 
   -0.31951E+08        -0.59075E+06         0.00000E+00
   -0.59075E+06        -0.43156E+08         0.00000E+00
    0.00000E+00         0.00000E+00        -0.20948E+08
 
   -0.30451E+08        -0.32368E+06         0.00000E+00
   -0.32368E+06        -0.43025E+08         0.00000E+00
    0.00000E+00         0.00000E+00        -0.20622E+08
 
   -0.28953E+08        -0.18428E+05         0.00000E+00
   -0.18428E+05        -0.42998E+08         0.00000E+00
    0.00000E+00         0.00000E+00        -0.20318E+08
 
   -0.27409E+08         0.33823E+06         0.00000E+00
    0.33823E+06        -0.43096E+08         0.00000E+00
    0.00000E+00         0.00000E+00        -0.20030E+08
 
   -0.25769E+08         0.77088E+06         0.00000E+00
    0.77088E+06        -0.43341E+08         0.00000E+00
    0.00000E+00         0.00000E+00        -0.19753E+08
 
   -0.23979E+08         0.13272E+07         0.00000E+00
    0.13272E+07        -0.43768E+08         0.00000E+00
    0.00000E+00         0.00000E+00        -0.19482E+08
 
   -0.22005E+08         0.21084E+07         0.00000E+00
    0.21084E+07        -0.44411E+08         0.00000E+00
    0.00000E+00         0.00000E+00        -0.19219E+08
 
   -0.19912E+08         0.32732E+07         0.00000E+00
    0.32732E+07        -0.45245E+08         0.00000E+00
    0.00000E+00         0.00000E+00        -0.18971E+08
 
   -0.50148E+08        -0.53794E+06         0.00000E+00
   -0.53794E+06        -0.46921E+08         0.00000E+00
    0.00000E+00         0.00000E+00        -0.25403E+08
 
   -0.46393E+08        -0.93918E+06         0.00000E+00
   -0.93918E+06        -0.46702E+08         0.00000E+00
    0.00000E+00         0.00000E+00        -0.24590E+08
 
   -0.43379E+08        -0.96353E+06         0.00000E+00
   -0.96353E+06        -0.46255E+08         0.00000E+00
    0.00000E+00         0.00000E+00        -0.23885E+08
 
   -0.40934E+08        -0.89477E+06         0.00000E+00
   -0.89477E+06        -0.45748E+08         0.00000E+00
    0.00000E+00         0.00000E+00        -0.23285E+08
 
   -0.38856E+08        -0.79148E+06         0.00000E+00
   -0.79148E+06        -0.45259E+08         0.00000E+00
    0.00000E+00         0.00000E+00        -0.22765E+08
 
   -0.37025E+08        -0.66954E+06         0.00000E+00
   -0.66954E+06        -0.44822E+08         0.00000E+00
    0.00000E+00         0.00000E+00        -0.22308E+08
 
   -0.35356E+08        -0.53356E+06         0.00000E+00
   -0.53356E+06        -0.44457E+08         0.00000E+00
    0.00000E+00         0.00000E+00        -0.21899E+08
 
   -0.33785E+08        -0.38368E+06         0.00000E+00
   -0.38368E+06        -0.44178E+08         0.00000E+00
    0.00000E+00         0.00000E+00        -0.21528E+08
 
   -0.32259E+08        -0.21755E+06         0.00000E+00
   -0.21755E+06        -0.43999E+08         0.00000E+00
    0.00000E+00         0.00000E+00        -0.21187E+08
 
   -0.30726E+08        -0.30301E+05         0.00000E+00
   -0.30301E+05        -0.43934E+08         0.00000E+00
    0.00000E+00         0.00000E+00        -0.20868E+08
 
   -0.29133E+08         0.18672E+06         0.00000E+00
    0.18672E+06        -0.44000E+08         0.00000E+00
    0.00000E+00         0.00000E+00        -0.20564E+08
 
   -0.27416E+08         0.44950E+06         0.00000E+00
    0.44950E+06        -0.44224E+08         0.00000E+00
    0.00000E+00         0.00000E+00        -0.20267E+08
 
   -0.25490E+08         0.79077E+06         0.00000E+00
    0.79077E+06        -0.44646E+08         0.00000E+00
    0.00000E+00         0.00000E+00        -0.19968E+08
 
   -0.23223E+08         0.12932E+07         0.00000E+00
    0.12932E+07        -0.45335E+08         0.00000E+00
    0.00000E+00         0.00000E+00        -0.19655E+08
 
   -0.20586E+08         0.22309E+07         0.00000E+00
    0.22309E+07        -0.46385E+08         0.00000E+00
    0.00000E+00         0.00000E+00        -0.19340E+08
 
   -0.52827E+08        -0.33896E+06         0.00000E+00
   -0.33896E+06        -0.48738E+08         0.00000E+00
    0.00000E+00         0.00000E+00        -0.26312E+08
 
   -0.48471E+08        -0.38826E+06         0.00000E+00
   -0.38826E+06        -0.48117E+08         0.00000E+00
    0.00000E+00         0.00000E+00        -0.25296E+08
 
   -0.45380E+08        -0.35610E+06         0.00000E+00
   -0.35610E+06        -0.47421E+08         0.00000E+00
    0.00000E+00         0.00000E+00        -0.24526E+08
 
   -0.42907E+08        -0.31885E+06         0.00000E+00
   -0.31885E+06        -0.46768E+08         0.00000E+00
    0.00000E+00         0.00000E+00        -0.23892E+08
 
   -0.40816E+08        -0.27717E+06         0.00000E+00
   -0.27717E+06        -0.46186E+08         0.00000E+00
    0.00000E+00         0.00000E+00        -0.23351E+08
 
   -0.38975E+08        -0.23247E+06         0.00000E+00
   -0.23247E+06        -0.45685E+08         0.00000E+00
    0.00000E+00         0.00000E+00        -0.22879E+08
 
   -0.37297E+08        -0.18466E+06         0.00000E+00
   -0.18466E+06        -0.45273E+08         0.00000E+00
    0.00000E+00         0.00000E+00        -0.22460E+08
 
   -0.35717E+08        -0.13312E+06         0.00000E+00
   -0.13312E+06        -0.44960E+08         0.00000E+00
    0.00000E+00         0.00000E+00        -0.22080E+08
 
   -0.34179E+08        -0.76703E+05         0.00000E+00
   -0.76703E+05        -0.44753E+08         0.00000E+00
    0.00000E+00         0.00000E+00        -0.21732E+08
 
   -0.32630E+08        -0.13642E+05         0.00000E+00
   -0.13642E+05        -0.44665E+08         0.00000E+00
    0.00000E+00         0.00000E+00        -0.21405E+08
 
   -0.31013E+08         0.59033E+05         0.00000E+00
    0.59033E+05        -0.44713E+08         0.00000E+00
    0.00000E+00         0.00000E+00        -0.21093E+08
 
   -0.29257E+08         0.14663E+06         0.00000E+00
    0.14663E+06        -0.44920E+08         0.00000E+00
    0.00000E+00         0.00000E+00        -0.20785E+08
 
   -0.27257E+08         0.26067E+06         0.00000E+00
    0.26067E+06        -0.45328E+08         0.00000E+00
    0.00000E+00         0.00000E+00        -0.20469E+08
 
   -0.24831E+08         0.42725E+06         0.00000E+00
    0.42725E+06        -0.46016E+08         0.00000E+00
    0.00000E+00         0.00000E+00        -0.20122E+08
 
   -0.21457E+08         0.81827E+06         0.00000E+00
    0.81827E+06        -0.47202E+08         0.00000E+00
    0.00000E+00         0.00000E+00        -0.19685E+08
 
TENSORS stresstot double 
   -0.50520E+08         0.16492E+06         0.00000E+00
    0.16492E+06        -0.59253E+08         0.00000E+00
    0.00000E+00         0.00000E+00        -0.62892E+08
 
   -0.50378E+08         0.16142E+06         0.00000E+00
    0.16142E+06        -0.58850E+08         0.00000E+00
    0.00000E+00         0.00000E+00        -0.62662E+08
 
   -0.50598E+08         0.65940E+04         0.00000E+00
    0.65940E+04        -0.58798E+08         0.00000E+00
    0.00000E+00         0.00000E+00        -0.63050E+08
 
   -0.51265E+08        -0.19646E+06         0.00000E+00
   -0.19646E+06        -0.59179E+08         0.00000E+00
    0.00000E+00         0.00000E+00        -0.64161E+08
 
   -0.52541E+08        -0.35334E+06         0.00000E+00
   -0.35334E+06        -0.59850E+08         0.00000E+00
    0.00000E+00         0.00000E+00        -0.66174E+08
 
   -0.54154E+08        -0.34952E+06         0.00000E+00
   -0.34952E+06        -0.60626E+08         0.00000E+00
    0.00000E+00         0.00000E+00        -0.68556E+08
 
   -0.55867E+08        -0.34183E+06         0.00000E+00
   -0.34183E+06        -0.61300E+08         0.00000E+00
    0.00000E+00         0.00000E+00        -0.70843E+08
 
   -0.58139E+08        -0.35777E+06         0.00000E+00
   -0.35777E+06        -0.61964E+08         0.00000E+00
    0.00000E+00         0.00000E+00        -0.71887E+08
 
   -0.60095E+08        -0.24212E+06         0.00000E+00
   -0.24212E+06        -0.62519E+08         0.00000E+00
    0.00000E+00         0.00000E+00        -0.72391E+08
 
   -0.61837E+08        -0.13364E+06         0.00000E+00
   -0.13364E+06        -0.62872E+08         0.00000E+00
    0.00000E+00         0.00000E+00        -0.72812E+08
 
   -0.63544E+08        -0.29175E+05         0.00000E+00
   -0.29175E+05        -0.63023E+08         0.00000E+00
    0.00000E+00         0.00000E+00        -0.73184E+08
 
   -0.65330E+08         0.80638E+05         0.00000E+00
    0.80638E+05        -0.62964E+08         0.00000E+00
    0.00000E+00         0.00000E+00        -0.73529E+08
 
   -0.67312E+08         0.20993E+06         0.00000E+00
    0.20993E+06        -0.62669E+08         0.00000E+00
    0.00000E+00         0.00000E+00        -0.73865E+08
 
   -0.69676E+08         0.38577E+06         0.00000E+00
    0.38577E+06        -0.62071E+08         0.00000E+00
    0.00000E+00         0.00000E+00        -0.74216E+08
 
   -0.72935E+08         0.77982E+06         0.00000E+00
    0.77982E+06        -0.60962E+08         0.00000E+00
    0.00000E+00         0.00000E+00        -0.74643E+08
 
   -0.50219E+08         0.37965E+06         0.00000E+00
    0.37965E+06        -0.60078E+08         0.00000E+00
    0.00000E+00         0.00000E+00        -0.63694E+08
 
   -0.50500E+08         0.33032E+06         0.00000E+00
    0.33032E+06        -0.60285E+08         0.00000E+00
    0.00000E+00         0.00000E+00        -0.64206E+08
 
   -0.50865E+08        -0.97730E+04         0.00000E+00
   -0.97730E+04        -0.60396E+08         0.00000E+00
    0.00000E+00         0.00000E+00        -0.64903E+08
 
   -0.51588E+08        -0.40571E+06         0.00000E+00
   -0.40571E+06        -0.60403E+08         0.00000E+00
    0.00000E+00         0.00000E+00        -0.66100E+08
 
   -0.52714E+08        -0.70283E+06         0.00000E+00
   -0.70283E+06        -0.60398E+08         0.00000E+00
    0.00000E+00         0.00000E+00        -0.67721E+08
 
   -0.54093E+08        -0.86163E+06         0.00000E+00
   -0.86163E+06        -0.60493E+08         0.00000E+00
    0.00000E+00         0.00000E+00        -0.69291E+08
 
   -0.56029E+08        -0.90930E+06         0.00000E+00
   -0.90930E+06        -0.60862E+08         0.00000E+00
    0.00000E+00         0.00000E+00        -0.70024E+08
 
   -0.57990E+08        -0.86712E+06         0.00000E+00
   -0.86712E+06        -0.61238E+08         0.00000E+00
    0.00000E+00         0.00000E+00        -0.70495E+08
 
   -0.59899E+08        -0.62379E+06         0.00000E+00
   -0.62379E+06        -0.61553E+08         0.00000E+00
    0.00000E+00         0.00000E+00        -0.70942E+08
 
   -0.61640E+08        -0.34327E+06         0.00000E+00
   -0.34327E+06        -0.61768E+08         0.00000E+00
    0.00000E+00         0.00000E+00        -0.71335E+08
 
   -0.63340E+08        -0.51702E+05         0.00000E+00
   -0.51702E+05        -0.61834E+08         0.00000E+00
    0.00000E+00         0.00000E+00        -0.71688E+08
 
   -0.65099E+08         0.26697E+06         0.00000E+00
    0.26697E+06        -0.61720E+08         0.00000E+00
    0.00000E+00         0.00000E+00        -0.72017E+08
 
   -0.67019E+08         0.64801E+06         0.00000E+00
    0.64801E+06        -0.61387E+08         0.00000E+00
    0.00000E+00         0.00000E+00        -0.72333E+08
 
   -0.69235E+08         0.11750E+07         0.00000E+00
    0.11750E+07        -0.60774E+08         0.00000E+00
    0.00000E+00         0.00000E+00        -0.72651E+08
 
   -0.71771E+08         0.21196E+07         0.00000E+00
    0.21196E+07        -0.59792E+08         0.00000E+00
    0.00000E+00         0.00000E+00        -0.72959E+08
 
   -0.49901E+08         0.93447E+05         0.00000E+00
    0.93447E+05        -0.60431E+08         0.00000E+00
    0.00000E+00         0.00000E+00        -0.64591E+08
 
   -0.50592E+08         0.20193E+06         0.00000E+00
    0.20193E+06        -0.60815E+08         0.00000E+00
    0.00000E+00         0.00000E+00        -0.65852E+08
 
   -0.51261E+08        -0.57427E+05         0.00000E+00
   -0.57427E+05        -0.60841E+08         0.00000E+00
    0.00000E+00         0.00000E+00        -0.67002E+08
 
   -0.51924E+08        -0.42425E+06         0.00000E+00
   -0.42425E+06        -0.60728E+08         0.00000E+00
    0.00000E+00         0.00000E+00        -0.67804E+08
 
   -0.53007E+08        -0.75019E+06         0.00000E+00
   -0.75019E+06        -0.60669E+08         0.00000E+00
    0.00000E+00         0.00000E+00        -0.68156E+08
 
   -0.54340E+08        -0.10290E+07         0.00000E+00
   -0.10290E+07        -0.60713E+08         0.00000E+00
    0.00000E+00         0.00000E+00        -0.68436E+08
 
   -0.56008E+08        -0.11637E+07         0.00000E+00
   -0.11637E+07        -0.60792E+08         0.00000E+00
    0.00000E+00         0.00000E+00        -0.68789E+08
 
   -0.57823E+08        -0.10581E+07         0.00000E+00
   -0.10581E+07        -0.60888E+08         0.00000E+00
    0.00000E+00         0.00000E+00        -0.69175E+08
 
   -0.59594E+08        -0.79017E+06         0.00000E+00
   -0.79017E+06        -0.60961E+08         0.00000E+00
    0.00000E+00         0.00000E+00        -0.69546E+08
 
   -0.61294E+08        -0.41810E+06         0.00000E+00
   -0.41810E+06        -0.60997E+08         0.00000E+00
    0.00000E+00         0.00000E+00        -0.69894E+08
 
   -0.62957E+08         0.13515E+05         0.00000E+00
    0.13515E+05        -0.60941E+08         0.00000E+00
    0.00000E+00         0.00000E+00        -0.70216E+08
 
   -0.64654E+08         0.51121E+06         0.00000E+00
    0.51121E+06        -0.60748E+08         0.00000E+00
    0.00000E+00         0.00000E+00        -0.70516E+08
 
   -0.66455E+08         0.11174E+07         0.00000E+00
    0.11174E+07        -0.60373E+08         0.00000E+00
    0.00000E+00         0.00000E+00        -0.70800E+08
 
   -0.68396E+08         0.19300E+07         0.00000E+00
    0.19300E+07        -0.59780E+08         0.00000E+00
    0.00000E+00         0.00000E+00        -0.71068E+08
 
   -0.70415E+08         0.31015E+07         0.00000E+00
    0.31015E+07        -0.58997E+08         0.00000E+00
    0.00000E+00         0.00000E+00        -0.71311E+08
 
   -0.49708E+08        -0.80843E+05         0.00000E+00
   -0.80843E+05        -0.60277E+08         0.00000E+00
    0.00000E+00         0.00000E+00        -0.65779E+08
 
   -0.50729E+08        -0.71219E+05         0.00000E+00
   -0.71219E+05        -0.60266E+08         0.00000E+00
    0.00000E+00         0.00000E+00        -0.66383E+08
 
   -0.51559E+08        -0.21206E+06         0.00000E+00
   -0.21206E+06        -0.60420E+08         0.00000E+00
    0.00000E+00         0.00000E+00        -0.66587E+08
 
   -0.52317E+08        -0.48708E+06         0.00000E+00
   -0.48708E+06        -0.60580E+08         0.00000E+00
    0.00000E+00         0.00000E+00        -0.66777E+08
 
   -0.53296E+08        -0.81309E+06         0.00000E+00
   -0.81309E+06        -0.60675E+08         0.00000E+00
    0.00000E+00         0.00000E+00        -0.66998E+08
 
   -0.54548E+08        -0.10568E+07         0.00000E+00
   -0.10568E+07        -0.60713E+08         0.00000E+00
    0.00000E+00         0.00000E+00        -0.67261E+08
 
   -0.56019E+08        -0.11596E+07         0.00000E+00
   -0.11596E+07        -0.60686E+08         0.00000E+00
    0.00000E+00         0.00000E+00        -0.67554E+08
 
   -0.57624E+08        -0.10581E+07         0.00000E+00
   -0.10581E+07        -0.60625E+08         0.00000E+00
    0.00000E+00         0.00000E+00        -0.67866E+08
 
   -0.59252E+08        -0.77324E+06         0.00000E+00
   -0.77324E+06        -0.60555E+08         0.00000E+00
    0.00000E+00         0.00000E+00        -0.68179E+08
 
   -0.60852E+08        -0.35236E+06         0.00000E+00
   -0.35236E+06        -0.60455E+08         0.00000E+00
    0.00000E+00         0.00000E+00        -0.68481E+08
 
   -0.62434E+08         0.17650E+06         0.00000E+00
    0.17650E+06        -0.60293E+08         0.00000E+00
    0.00000E+00         0.00000E+00        -0.68765E+08
 
   -0.64030E+08         0.81342E+06         0.00000E+00
    0.81342E+06        -0.60030E+08         0.00000E+00
    0.00000E+00         0.00000E+00        -0.69031E+08
 
   -0.65669E+08         0.15934E+07         0.00000E+00
    0.15934E+07        -0.59634E+08         0.00000E+00
    0.00000E+00         0.00000E+00        -0.69278E+08
 
   -0.67346E+08         0.25822E+07         0.00000E+00
    0.25822E+07        -0.59098E+08         0.00000E+00
    0.00000E+00         0.00000E+00        -0.69503E+08
 
   -0.68990E+08         0.38578E+07         0.00000E+00
    0.38578E+07        -0.58455E+08         0.00000E+00
    0.00000E+00         0.00000E+00        -0.69701E+08
 
   -0.49824E+08        -0.10354E+06         0.00000E+00
   -0.10354E+06        -0.60036E+08         0.00000E+00
    0.00000E+00         0.00000E+00        -0.64931E+08
 
   -0.50849E+08        -0.28088E+06         0.00000E+00
   -0.28088E+06        -0.60086E+08         0.00000E+00
    0.00000E+00         0.00000E+00        -0.65155E+08
 
   -0.51750E+08        -0.42037E+06         0.00000E+00
   -0.42037E+06        -0.60274E+08         0.00000E+00
    0.00000E+00         0.00000E+00        -0.65380E+08
 
   -0.52593E+08        -0.63449E+06         0.00000E+00
   -0.63449E+06        -0.60445E+08         0.00000E+00
    0.00000E+00         0.00000E+00        -0.65589E+08
 
   -0.53554E+08        -0.87232E+06         0.00000E+00
   -0.87232E+06        -0.60545E+08         0.00000E+00
    0.00000E+00         0.00000E+00        -0.65807E+08
 
   -0.54695E+08        -0.10443E+07         0.00000E+00
   -0.10443E+07        -0.60560E+08         0.00000E+00
    0.00000E+00         0.00000E+00        -0.66043E+08
 
   -0.56000E+08        -0.10837E+07         0.00000E+00
   -0.10837E+07        -0.60502E+08         0.00000E+00
    0.00000E+00         0.00000E+00        -0.66296E+08
 
   -0.57416E+08        -0.95266E+06         0.00000E+00
   -0.95266E+06        -0.60391E+08         0.00000E+00
    0.00000E+00         0.00000E+00        -0.66560E+08
 
   -0.58879E+08        -0.64661E+06         0.00000E+00
   -0.64661E+06        -0.60245E+08         0.00000E+00
    0.00000E+00         0.00000E+00        -0.66826E+08
 
   -0.60348E+08        -0.18520E+06         0.00000E+00
   -0.18520E+06        -0.60066E+08         0.00000E+00
    0.00000E+00         0.00000E+00        -0.67085E+08
 
   -0.61810E+08         0.41411E+06         0.00000E+00
    0.41411E+06        -0.59835E+08         0.00000E+00
    0.00000E+00         0.00000E+00        -0.67331E+08
 
   -0.63271E+08         0.11517E+07         0.00000E+00
    0.11517E+07        -0.59532E+08         0.00000E+00
    0.00000E+00         0.00000E+00        -0.67562E+08
 
   -0.64735E+08         0.20487E+07         0.00000E+00
    0.20487E+07        -0.59138E+08         0.00000E+00
    0.00000E+00         0.00000E+00        -0.67775E+08
 
   -0.66179E+08         0.31418E+07         0.00000E+00
    0.31418E+07        -0.58658E+08         0.00000E+00
    0.00000E+00         0.00000E+00        -0.67965E+08
 
   -0.67547E+08         0.44663E+07         0.00000E+00
    0.44663E+07        -0.58120E+08         0.00000E+00
    0.00000E+00         0.00000E+00        -0.68128E+08
 
   -0.50058E+08        -0.14611E+06         0.00000E+00
   -0.14611E+06        -0.60014E+08         0.00000E+00
    0.00000E+00         0.00000E+00        -0.63757E+08
 
   -0.51035E+08        -0.38504E+06         0.00000E+00
   -0.38504E+06        -0.60084E+08         0.00000E+00
    0.00000E+00         0.00000E+00        -0.63975E+08
 
   -0.51927E+08        -0.58100E+06         0.00000E+00
   -0.58100E+06        -0.60189E+08         0.00000E+00
    0.00000E+00         0.00000E+00        -0.64182E+08
 
   -0.52798E+08        -0.76074E+06         0.00000E+00
   -0.76074E+06        -0.60306E+08         0.00000E+00
    0.00000E+00         0.00000E+00        -0.64386E+08
 
   -0.53728E+08        -0.92121E+06         0.00000E+00
   -0.92121E+06        -0.60378E+08         0.00000E+00
    0.00000E+00         0.00000E+00        -0.64592E+08
 
   -0.54770E+08        -0.10130E+07         0.00000E+00
   -0.10130E+07        -0.60379E+08         0.00000E+00
    0.00000E+00         0.00000E+00        -0.64805E+08
 
   -0.55929E+08        -0.98573E+06         0.00000E+00
   -0.98573E+06        -0.60309E+08         0.00000E+00
    0.00000E+00         0.00000E+00        -0.65026E+08
 
   -0.57176E+08        -0.80665E+06         0.00000E+00
   -0.80665E+06        -0.60179E+08         0.00000E+00
    0.00000E+00         0.00000E+00        -0.65253E+08
 
   -0.58475E+08        -0.46443E+06         0.00000E+00
   -0.46443E+06        -0.60004E+08         0.00000E+00
    0.00000E+00         0.00000E+00        -0.65480E+08
 
   -0.59792E+08         0.37337E+05         0.00000E+00
    0.37337E+05        -0.59789E+08         0.00000E+00
    0.00000E+00         0.00000E+00        -0.65701E+08
 
   -0.61110E+08         0.69197E+06         0.00000E+00
    0.69197E+06        -0.59528E+08         0.00000E+00
    0.00000E+00         0.00000E+00        -0.65912E+08
 
   -0.62420E+08         0.14999E+07         0.00000E+00
    0.14999E+07        -0.59212E+08         0.00000E+00
    0.00000E+00         0.00000E+00        -0.66110E+08
 
   -0.63709E+08         0.24719E+07         0.00000E+00
    0.24719E+07        -0.58837E+08         0.00000E+00
    0.00000E+00         0.00000E+00        -0.66292E+08
 
   -0.64951E+08         0.36246E+07         0.00000E+00
    0.36246E+07        -0.58410E+08         0.00000E+00
    0.00000E+00         0.00000E+00        -0.66452E+08
 
   -0.66103E+08         0.49697E+07         0.00000E+00
    0.49697E+07        -0.57953E+08         0.00000E+00
    0.00000E+00         0.00000E+00        -0.66588E+08
 
   -0.50361E+08        -0.17725E+06         0.00000E+00
   -0.17725E+06        -0.60012E+08         0.00000E+00
    0.00000E+00         0.00000E+00        -0.62602E+08
 
   -0.51266E+08        -0.46225E+06         0.00000E+00
   -0.46225E+06        -0.60055E+08         0.00000E+00
    0.00000E+00         0.00000E+00        -0.62800E+08
 
   -0.52115E+08        -0.67815E+06         0.00000E+00
   -0.67815E+06        -0.60126E+08         0.00000E+00
    0.00000E+00         0.00000E+00        -0.62991E+08
 
   -0.52953E+08        -0.84162E+06         0.00000E+00
   -0.84162E+06        -0.60195E+08         0.00000E+00
    0.00000E+00         0.00000E+00        -0.63178E+08
 
   -0.53828E+08        -0.94746E+06         0.00000E+00
   -0.94746E+06        -0.60233E+08         0.00000E+00
    0.00000E+00         0.00000E+00        -0.63366E+08
 
   -0.54773E+08        -0.97117E+06         0.00000E+00
   -0.97117E+06        -0.60216E+08         0.00000E+00
    0.00000E+00         0.00000E+00        -0.63557E+08
 
   -0.55799E+08        -0.88016E+06         0.00000E+00
   -0.88016E+06        -0.60140E+08         0.00000E+00
    0.00000E+00         0.00000E+00        -0.63750E+08
 
   -0.56893E+08        -0.64871E+06         0.00000E+00
   -0.64871E+06        -0.60007E+08         0.00000E+00
    0.00000E+00         0.00000E+00        -0.63945E+08
 
   -0.58031E+08        -0.26323E+06         0.00000E+00
   -0.26323E+06        -0.59827E+08         0.00000E+00
    0.00000E+00         0.00000E+00        -0.64138E+08
 
   -0.59192E+08         0.27983E+06         0.00000E+00
    0.27983E+06        -0.59604E+08         0.00000E+00
    0.00000E+00         0.00000E+00        -0.64326E+08
 
   -0.60355E+08         0.97986E+06         0.00000E+00
    0.97986E+06        -0.59340E+08         0.00000E+00
    0.00000E+00         0.00000E+00        -0.64506E+08
 
   -0.61506E+08         0.18375E+07         0.00000E+00
    0.18375E+07        -0.59035E+08         0.00000E+00
    0.00000E+00         0.00000E+00        -0.64675E+08
 
   -0.62627E+08         0.28568E+07         0.00000E+00
    0.28568E+07        -0.58689E+08         0.00000E+00
    0.00000E+00         0.00000E+00        -0.64828E+08
 
   -0.63692E+08         0.40425E+07         0.00000E+00
    0.40425E+07        -0.58312E+08         0.00000E+00
    0.00000E+00         0.00000E+00        -0.64963E+08
 
   -0.64668E+08         0.53935E+07         0.00000E+00
    0.53935E+07        -0.57922E+08         0.00000E+00
    0.00000E+00         0.00000E+00        -0.65077E+08
 
   -0.50710E+08        -0.19727E+06         0.00000E+00
   -0.19727E+06        -0.60007E+08         0.00000E+00
    0.00000E+00         0.00000E+00        -0.61455E+08
 
   -0.51523E+08        -0.51138E+06         0.00000E+00
   -0.51138E+06        -0.60033E+08         0.00000E+00
    0.00000E+00         0.00000E+00        -0.61631E+08
 
   -0.52302E+08        -0.73653E+06         0.00000E+00
   -0.73653E+06        -0.60074E+08         0.00000E+00
    0.00000E+00         0.00000E+00        -0.61802E+08
 
   -0.53075E+08        -0.88377E+06         0.00000E+00
   -0.88377E+06        -0.60110E+08         0.00000E+00
    0.00000E+00         0.00000E+00        -0.61970E+08
 
   -0.53872E+08        -0.95010E+06         0.00000E+00
   -0.95010E+06        -0.60121E+08         0.00000E+00
    0.00000E+00         0.00000E+00        -0.62136E+08
 
   -0.54715E+08        -0.92046E+06         0.00000E+00
   -0.92046E+06        -0.60091E+08         0.00000E+00
    0.00000E+00         0.00000E+00        -0.62303E+08
 
   -0.55614E+08        -0.77435E+06         0.00000E+00
   -0.77435E+06        -0.60012E+08         0.00000E+00
    0.00000E+00         0.00000E+00        -0.62470E+08
 
   -0.56562E+08        -0.49303E+06         0.00000E+00
   -0.49303E+06        -0.59884E+08         0.00000E+00
    0.00000E+00         0.00000E+00        -0.62637E+08
 
   -0.57547E+08        -0.64047E+05         0.00000E+00
   -0.64047E+05        -0.59712E+08         0.00000E+00
    0.00000E+00         0.00000E+00        -0.62801E+08
 
   -0.58551E+08         0.51854E+06         0.00000E+00
    0.51854E+06        -0.59500E+08         0.00000E+00
    0.00000E+00         0.00000E+00        -0.62960E+08
 
   -0.59558E+08         0.12566E+07         0.00000E+00
    0.12566E+07        -0.59251E+08         0.00000E+00
    0.00000E+00         0.00000E+00        -0.63111E+08
 
   -0.60551E+08         0.21504E+07         0.00000E+00
    0.21504E+07        -0.58970E+08         0.00000E+00
    0.00000E+00         0.00000E+00        -0.63253E+08
 
   -0.61512E+08         0.31999E+07         0.00000E+00
    0.31999E+07        -0.58660E+08         0.00000E+00
    0.00000E+00         0.00000E+00        -0.63382E+08
 
   -0.62418E+08         0.44032E+07         0.00000E+00
    0.44032E+07        -0.58332E+08         0.00000E+00
    0.00000E+00         0.00000E+00        -0.63495E+08
 
   -0.63244E+08         0.57530E+07         0.00000E+00
    0.57530E+07        -0.57999E+08         0.00000E+00
    0.00000E+00         0.00000E+00        -0.63591E+08
 
   -0.51088E+08        -0.20829E+06         0.00000E+00
   -0.20829E+06        -0.60003E+08         0.00000E+00
    0.00000E+00         0.00000E+00        -0.60314E+08
 
   -0.51796E+08        -0.53885E+06         0.00000E+00
   -0.53885E+06        -0.60017E+08         0.00000E+00
    0.00000E+00         0.00000E+00        -0.60466E+08
 
   -0.52485E+08        -0.76691E+06         0.00000E+00
   -0.76691E+06        -0.60037E+08         0.00000E+00
    0.00000E+00         0.00000E+00        -0.60615E+08
 
   -0.53171E+08        -0.89989E+06         0.00000E+00
   -0.89989E+06        -0.60051E+08         0.00000E+00
    0.00000E+00         0.00000E+00        -0.60761E+08
 
   -0.53874E+08        -0.93567E+06         0.00000E+00
   -0.93567E+06        -0.60045E+08         0.00000E+00
    0.00000E+00         0.00000E+00        -0.60905E+08
 
   -0.54608E+08        -0.86461E+06         0.00000E+00
   -0.86461E+06        -0.60007E+08         0.00000E+00
    0.00000E+00         0.00000E+00        -0.61048E+08
 
   -0.55379E+08        -0.67315E+06         0.00000E+00
   -0.67315E+06        -0.59930E+08         0.00000E+00
    0.00000E+00         0.00000E+00        -0.61190E+08
 
   -0.56187E+08        -0.34801E+06         0.00000E+00
   -0.34801E+06        -0.59813E+08         0.00000E+00
    0.00000E+00         0.00000E+00        -0.61330E+08
 
   -0.57022E+08         0.12078E+06         0.00000E+00
    0.12078E+06        -0.59657E+08         0.00000E+00
    0.00000E+00         0.00000E+00        -0.61467E+08
 
   -0.57874E+08         0.73898E+06         0.00000E+00
    0.73898E+06        -0.59465E+08         0.00000E+00
    0.00000E+00         0.00000E+00        -0.61600E+08
 
   -0.58727E+08         0.15087E+07         0.00000E+00
    0.15087E+07        -0.59243E+08         0.00000E+00
    0.00000E+00         0.00000E+00        -0.61726E+08
 
   -0.59567E+08         0.24296E+07         0.00000E+00
    0.24296E+07        -0.58994E+08         0.00000E+00
    0.00000E+00         0.00000E+00        -0.61843E+08
 
   -0.60377E+08         0.34991E+07         0.00000E+00
    0.34991E+07        -0.58725E+08         0.00000E+00
    0.00000E+00         0.00000E+00        -0.61950E+08
 
   -0.61139E+08         0.47117E+07         0.00000E+00
    0.47117E+07        -0.58444E+08         0.00000E+00
    0.00000E+00         0.00000E+00        -0.62044E+08
 
   -0.61832E+08         0.60573E+07         0.00000E+00
    0.60573E+07        -0.58162E+08         0.00000E+00
    0.00000E+00         0.00000E+00        -0.62124E+08
 
   -0.51481E+08        -0.21315E+06         0.00000E+00
   -0.21315E+06        -0.60001E+08         0.00000E+00
    0.00000E+00         0.00000E+00        -0.59177E+08
 
   -0.52076E+08        -0.55152E+06         0.00000E+00
   -0.55152E+06        -0.60007E+08         0.00000E+00
    0.00000E+00         0.00000E+00        -0.59304E+08
 
   -0.52662E+08        -0.77922E+06         0.00000E+00
   -0.77922E+06        -0.60014E+08         0.00000E+00
    0.00000E+00         0.00000E+00        -0.59429E+08
 
   -0.53248E+08        -0.90015E+06         0.00000E+00
   -0.90015E+06        -0.60015E+08         0.00000E+00
    0.00000E+00         0.00000E+00        -0.59552E+08
 
   -0.53844E+08        -0.91234E+06         0.00000E+00
   -0.91234E+06        -0.60001E+08         0.00000E+00
    0.00000E+00         0.00000E+00        -0.59673E+08
 
   -0.54461E+08        -0.80911E+06         0.00000E+00
   -0.80911E+06        -0.59962E+08         0.00000E+00
    0.00000E+00         0.00000E+00        -0.59792E+08
 
   -0.55104E+08        -0.58122E+06         0.00000E+00
   -0.58122E+06        -0.59893E+08         0.00000E+00
    0.00000E+00         0.00000E+00        -0.59910E+08
 
   -0.55773E+08        -0.21939E+06         0.00000E+00
   -0.21939E+06        -0.59791E+08         0.00000E+00
    0.00000E+00         0.00000E+00        -0.60025E+08
 
   -0.56463E+08         0.28377E+06         0.00000E+00
    0.28377E+06        -0.59656E+08         0.00000E+00
    0.00000E+00         0.00000E+00        -0.60138E+08
 
   -0.57165E+08         0.93268E+06         0.00000E+00
    0.93268E+06        -0.59492E+08         0.00000E+00
    0.00000E+00         0.00000E+00        -0.60246E+08
 
   -0.57869E+08         0.17287E+07         0.00000E+00
    0.17287E+07        -0.59301E+08         0.00000E+00
    0.00000E+00         0.00000E+00        -0.60348E+08
 
   -0.58562E+08         0.26705E+07         0.00000E+00
    0.26705E+07        -0.59090E+08         0.00000E+00
    0.00000E+00         0.00000E+00        -0.60444E+08
 
   -0.59230E+08         0.37539E+07         0.00000E+00
    0.37539E+07        -0.58863E+08         0.00000E+00
    0.00000E+00         0.00000E+00        -0.60530E+08
 
   -0.59858E+08         0.49715E+07         0.00000E+00
    0.49715E+07        -0.58628E+08         0.00000E+00
    0.00000E+00         0.00000E+00        -0.60607E+08
 
   -0.60431E+08         0.63122E+07         0.00000E+00
    0.63122E+07        -0.58394E+08         0.00000E+00
    0.00000E+00         0.00000E+00        -0.60672E+08
 
   -0.51879E+08        -0.21454E+06         0.00000E+00
   -0.21454E+06        -0.60000E+08         0.00000E+00
    0.00000E+00         0.00000E+00        -0.58041E+08
 
   -0.52359E+08        -0.55592E+06         0.00000E+00
   -0.55592E+06        -0.60002E+08         0.00000E+00
    0.00000E+00         0.00000E+00        -0.58144E+08
 
   -0.52834E+08        -0.78200E+06         0.00000E+00
   -0.78200E+06        -0.60003E+08         0.00000E+00
    0.00000E+00         0.00000E+00        -0.58246E+08
 
   -0.53308E+08        -0.89340E+06         0.00000E+00
   -0.89340E+06        -0.60000E+08         0.00000E+00
    0.00000E+00         0.00000E+00        -0.58345E+08
 
   -0.53788E+08        -0.88766E+06         0.00000E+00
   -0.88766E+06        -0.59985E+08         0.00000E+00
    0.00000E+00         0.00000E+00        -0.58442E+08
 
   -0.54282E+08        -0.75974E+06         0.00000E+00
   -0.75974E+06        -0.59952E+08         0.00000E+00
    0.00000E+00         0.00000E+00        -0.58538E+08
 
   -0.54795E+08        -0.50315E+06         0.00000E+00
   -0.50315E+06        -0.59895E+08         0.00000E+00
    0.00000E+00         0.00000E+00        -0.58631E+08
 
   -0.55326E+08        -0.11151E+06         0.00000E+00
   -0.11151E+06        -0.59812E+08         0.00000E+00
    0.00000E+00         0.00000E+00        -0.58723E+08
 
   -0.55873E+08         0.42021E+06         0.00000E+00
    0.42021E+06        -0.59703E+08         0.00000E+00
    0.00000E+00         0.00000E+00        -0.58811E+08
 
   -0.56431E+08         0.10948E+07         0.00000E+00
    0.10948E+07        -0.59569E+08         0.00000E+00
    0.00000E+00         0.00000E+00        -0.58896E+08
 
   -0.56990E+08         0.19125E+07         0.00000E+00
    0.19125E+07        -0.59414E+08         0.00000E+00
    0.00000E+00         0.00000E+00        -0.58977E+08
 
   -0.57542E+08         0.28707E+07         0.00000E+00
    0.28707E+07        -0.59242E+08         0.00000E+00
    0.00000E+00         0.00000E+00        -0.59052E+08
 
   -0.58075E+08         0.39644E+07         0.00000E+00
    0.39644E+07        -0.59058E+08         0.00000E+00
    0.00000E+00         0.00000E+00        -0.59120E+08
 
   -0.58577E+08         0.51851E+07         0.00000E+00
    0.51851E+07        -0.58868E+08         0.00000E+00
    0.00000E+00         0.00000E+00        -0.59181E+08
 
   -0.59038E+08         0.65215E+07         0.00000E+00
    0.65215E+07        -0.58678E+08         0.00000E+00
    0.00000E+00         0.00000E+00        -0.59233E+08
 
   -0.52280E+08        -0.21474E+06         0.00000E+00
   -0.21474E+06        -0.60000E+08         0.00000E+00
    0.00000E+00         0.00000E+00        -0.56906E+08
 
   -0.52643E+08        -0.55759E+06         0.00000E+00
   -0.55759E+06        -0.60001E+08         0.00000E+00
    0.00000E+00         0.00000E+00        -0.56986E+08
 
   -0.53001E+08        -0.78246E+06         0.00000E+00
   -0.78246E+06        -0.60003E+08         0.00000E+00
    0.00000E+00         0.00000E+00        -0.57063E+08
 
   -0.53356E+08        -0.88710E+06         0.00000E+00
   -0.88710E+06        -0.60002E+08         0.00000E+00
    0.00000E+00         0.00000E+00        -0.57139E+08
 
   -0.53714E+08        -0.86828E+06         0.00000E+00
   -0.86828E+06        -0.59993E+08         0.00000E+00
    0.00000E+00         0.00000E+00        -0.57212E+08
 
   -0.54081E+08        -0.72181E+06         0.00000E+00
   -0.72181E+06        -0.59971E+08         0.00000E+00
    0.00000E+00         0.00000E+00        -0.57284E+08
 
   -0.54460E+08        -0.44305E+06         0.00000E+00
   -0.44305E+06        -0.59931E+08         0.00000E+00
    0.00000E+00         0.00000E+00        -0.57354E+08
 
   -0.54853E+08        -0.27769E+05         0.00000E+00
   -0.27769E+05        -0.59871E+08         0.00000E+00
    0.00000E+00         0.00000E+00        -0.57422E+08
 
   -0.55259E+08         0.52707E+06         0.00000E+00
    0.52707E+06        -0.59789E+08         0.00000E+00
    0.00000E+00         0.00000E+00        -0.57488E+08
 
   -0.55675E+08         0.12227E+07         0.00000E+00
    0.12227E+07        -0.59689E+08         0.00000E+00
    0.00000E+00         0.00000E+00        -0.57551E+08
 
   -0.56094E+08         0.20580E+07         0.00000E+00
    0.20580E+07        -0.59570E+08         0.00000E+00
    0.00000E+00         0.00000E+00        -0.57611E+08
 
   -0.56510E+08         0.30296E+07         0.00000E+00
    0.30296E+07        -0.59438E+08         0.00000E+00
    0.00000E+00         0.00000E+00        -0.57667E+08
 
   -0.56914E+08         0.41314E+07         0.00000E+00
    0.41314E+07        -0.59296E+08         0.00000E+00
    0.00000E+00         0.00000E+00        -0.57718E+08
 
   -0.57297E+08         0.53546E+07         0.00000E+00
    0.53546E+07        -0.59149E+08         0.00000E+00
    0.00000E+00         0.00000E+00        -0.57763E+08
 
   -0.57652E+08         0.66879E+07         0.00000E+00
    0.66879E+07        -0.59002E+08         0.00000E+00
    0.00000E+00         0.00000E+00        -0.57803E+08
 
   -0.52682E+08        -0.21556E+06         0.00000E+00
   -0.21556E+06        -0.60001E+08         0.00000E+00
    0.00000E+00         0.00000E+00        -0.55772E+08
 
   -0.52928E+08        -0.56096E+06         0.00000E+00
   -0.56096E+06        -0.60004E+08         0.00000E+00
    0.00000E+00         0.00000E+00        -0.55828E+08
 
   -0.53165E+08        -0.78643E+06         0.00000E+00
   -0.78643E+06        -0.60011E+08         0.00000E+00
    0.00000E+00         0.00000E+00        -0.55882E+08
 
   -0.53396E+08        -0.88733E+06         0.00000E+00
   -0.88733E+06        -0.60017E+08         0.00000E+00
    0.00000E+00         0.00000E+00        -0.55933E+08
 
   -0.53626E+08        -0.85968E+06         0.00000E+00
   -0.85968E+06        -0.60019E+08         0.00000E+00
    0.00000E+00         0.00000E+00        -0.55983E+08
 
   -0.53861E+08        -0.69979E+06         0.00000E+00
   -0.69979E+06        -0.60012E+08         0.00000E+00
    0.00000E+00         0.00000E+00        -0.56031E+08
 
   -0.54104E+08        -0.40433E+06         0.00000E+00
   -0.40433E+06        -0.59993E+08         0.00000E+00
    0.00000E+00         0.00000E+00        -0.56078E+08
 
   -0.54359E+08         0.29293E+05         0.00000E+00
    0.29293E+05        -0.59958E+08         0.00000E+00
    0.00000E+00         0.00000E+00        -0.56123E+08
 
   -0.54625E+08         0.60247E+06         0.00000E+00
    0.60247E+06        -0.59907E+08         0.00000E+00
    0.00000E+00         0.00000E+00        -0.56166E+08
 
   -0.54901E+08         0.13150E+07         0.00000E+00
    0.13150E+07        -0.59840E+08         0.00000E+00
    0.00000E+00         0.00000E+00        -0.56208E+08
 
   -0.55184E+08         0.21647E+07         0.00000E+00
    0.21647E+07        -0.59759E+08         0.00000E+00
    0.00000E+00         0.00000E+00        -0.56248E+08
 
   -0.55468E+08         0.31472E+07         0.00000E+00
    0.31472E+07        -0.59666E+08         0.00000E+00
    0.00000E+00         0.00000E+00        -0.56286E+08
 
   -0.55748E+08         0.42559E+07         0.00000E+00
    0.42559E+07        -0.59566E+08         0.00000E+00
    0.00000E+00         0.00000E+00        -0.56320E+08
 
   -0.56017E+08         0.54817E+07         0.00000E+00
    0.54817E+07        -0.59461E+08         0.00000E+00
    0.00000E+00         0.00000E+00        -0.56352E+08
 
   -0.56270E+08         0.68133E+07         0.00000E+00
    0.68133E+07        -0.59355E+08         0.00000E+00
    0.00000E+00         0.00000E+00        -0.56379E+08
 
   -0.53088E+08        -0.21837E+06         0.00000E+00
   -0.21837E+06        -0.60002E+08         0.00000E+00
    0.00000E+00         0.00000E+00        -0.54639E+08
 
   -0.53216E+08        -0.56947E+06         0.00000E+00
   -0.56947E+06        -0.60010E+08         0.00000E+00
    0.00000E+00         0.00000E+00        -0.54672E+08
 
   -0.53329E+08        -0.79840E+06         0.00000E+00
   -0.79840E+06        -0.60025E+08         0.00000E+00
    0.00000E+00         0.00000E+00        -0.54702E+08
 
   -0.53432E+08        -0.89880E+06         0.00000E+00
   -0.89880E+06        -0.60043E+08         0.00000E+00
    0.00000E+00         0.00000E+00        -0.54729E+08
 
   -0.53529E+08        -0.86614E+06         0.00000E+00
   -0.86614E+06        -0.60060E+08         0.00000E+00
    0.00000E+00         0.00000E+00        -0.54755E+08
 
   -0.53628E+08        -0.69714E+06         0.00000E+00
   -0.69714E+06        -0.60071E+08         0.00000E+00
    0.00000E+00         0.00000E+00        -0.54779E+08
 
   -0.53733E+08        -0.38951E+06         0.00000E+00
   -0.38951E+06        -0.60074E+08         0.00000E+00
    0.00000E+00         0.00000E+00        -0.54802E+08
 
   -0.53848E+08         0.58001E+05         0.00000E+00
    0.58001E+05        -0.60066E+08         0.00000E+00
    0.00000E+00         0.00000E+00        -0.54824E+08
 
   -0.53975E+08         0.64543E+06         0.00000E+00
    0.64543E+06        -0.60046E+08         0.00000E+00
    0.00000E+00         0.00000E+00        -0.54846E+08
 
   -0.54113E+08         0.13713E+07         0.00000E+00
    0.13713E+07        -0.60013E+08         0.00000E+00
    0.00000E+00         0.00000E+00        -0.54867E+08
 
   -0.54261E+08         0.22326E+07         0.00000E+00
    0.22326E+07        -0.59969E+08         0.00000E+00
    0.00000E+00         0.00000E+00        -0.54887E+08
 
   -0.54417E+08         0.32243E+07         0.00000E+00
    0.32243E+07        -0.59916E+08         0.00000E+00
    0.00000E+00         0.00000E+00        -0.54907E+08
 
   -0.54577E+08         0.43391E+07         0.00000E+00
    0.43391E+07        -0.59856E+08         0.00000E+00
    0.00000E+00         0.00000E+00        -0.54926E+08
 
   -0.54736E+08         0.55679E+07         0.00000E+00
    0.55679E+07        -0.59792E+08         0.00000E+00
    0.00000E+00         0.00000E+00        -0.54944E+08
 
   -0.54892E+08         0.68994E+07         0.00000E+00
    0.68994E+07        -0.59725E+08         0.00000E+00
    0.00000E+00         0.00000E+00        -0.54960E+08
 
   -0.53503E+08        -0.22416E+06         0.00000E+00
   -0.22416E+06        -0.60003E+08         0.00000E+00
    0.00000E+00         0.00000E+00        -0.53508E+08
 
   -0.53512E+08        -0.58558E+06         0.00000E+00
   -0.58558E+06        -0.60017E+08         0.00000E+00
    0.00000E+00         0.00000E+00        -0.53517E+08
 
   -0.53497E+08        -0.82162E+06         0.00000E+00
   -0.82162E+06        -0.60043E+08         0.00000E+00
    0.00000E+00         0.00000E+00        -0.53523E+08
 
   -0.53466E+08        -0.92486E+06         0.00000E+00
   -0.92486E+06        -0.60075E+08         0.00000E+00
    0.00000E+00         0.00000E+00        -0.53527E+08
 
   -0.53427E+08        -0.89062E+06         0.00000E+00
   -0.89062E+06        -0.60109E+08         0.00000E+00
    0.00000E+00         0.00000E+00        -0.53528E+08
 
   -0.53386E+08        -0.71613E+06         0.00000E+00
   -0.71613E+06        -0.60141E+08         0.00000E+00
    0.00000E+00         0.00000E+00        -0.53528E+08
 
   -0.53351E+08        -0.40009E+06         0.00000E+00
   -0.40009E+06        -0.60168E+08         0.00000E+00
    0.00000E+00         0.00000E+00        -0.53527E+08
 
   -0.53325E+08         0.57587E+05         0.00000E+00
    0.57587E+05        -0.60188E+08         0.00000E+00
    0.00000E+00         0.00000E+00        -0.53526E+08
 
   -0.53312E+08         0.65576E+06         0.00000E+00
    0.65576E+06        -0.60198E+08         0.00000E+00
    0.00000E+00         0.00000E+00        -0.53525E+08
 
   -0.53314E+08         0.13920E+07         0.00000E+00
    0.13920E+07        -0.60199E+08         0.00000E+00
    0.00000E+00         0.00000E+00        -0.53526E+08
 
   -0.53330E+08         0.22625E+07         0.00000E+00
    0.22625E+07        -0.60192E+08         0.00000E+00
    0.00000E+00         0.00000E+00        -0.53527E+08
 
   -0.53360E+08         0.32616E+07         0.00000E+00
    0.32616E+07        -0.60178E+08         0.00000E+00
    0.00000E+00         0.00000E+00        -0.53529E+08
 
   -0.53401E+08         0.43820E+07         0.00000E+00
    0.43820E+07        -0.60157E+08         0.00000E+00
    0.00000E+00         0.00000E+00        -0.53532E+08
 
   -0.53453E+08         0.56143E+07         0.00000E+00
    0.56143E+07        -0.60132E+08         0.00000E+00
    0.00000E+00         0.00000E+00        -0.53537E+08
 
   -0.53513E+08         0.69472E+07         0.00000E+00
    0.69472E+07        -0.60104E+08         0.00000E+00
    0.00000E+00         0.00000E+00        -0.53542E+08
 
   -0.53932E+08        -0.23359E+06         0.00000E+00
   -0.23359E+06        -0.60005E+08         0.00000E+00
    0.00000E+00         0.00000E+00        -0.52380E+08
 
   -0.53818E+08        -0.61093E+06         0.00000E+00
   -0.61093E+06        -0.60026E+08         0.00000E+00
    0.00000E+00         0.00000E+00        -0.52366E+08
 
   -0.53672E+08        -0.85816E+06         0.00000E+00
   -0.85816E+06        -0.60063E+08         0.00000E+00
    0.00000E+00         0.00000E+00        -0.52347E+08
 
   -0.53503E+08        -0.96757E+06         0.00000E+00
   -0.96757E+06        -0.60111E+08         0.00000E+00
    0.00000E+00         0.00000E+00        -0.52325E+08
 
   -0.53322E+08        -0.93477E+06         0.00000E+00
   -0.93477E+06        -0.60164E+08         0.00000E+00
    0.00000E+00         0.00000E+00        -0.52301E+08
 
   -0.53139E+08        -0.75779E+06         0.00000E+00
   -0.75779E+06        -0.60217E+08         0.00000E+00
    0.00000E+00         0.00000E+00        -0.52276E+08
 
   -0.52961E+08        -0.43642E+06         0.00000E+00
   -0.43642E+06        -0.60268E+08         0.00000E+00
    0.00000E+00         0.00000E+00        -0.52251E+08
 
   -0.52793E+08         0.28272E+05         0.00000E+00
    0.28272E+05        -0.60315E+08         0.00000E+00
    0.00000E+00         0.00000E+00        -0.52227E+08
 
   -0.52641E+08         0.63413E+06         0.00000E+00
    0.63413E+06        -0.60355E+08         0.00000E+00
    0.00000E+00         0.00000E+00        -0.52204E+08
 
   -0.52506E+08         0.13779E+07         0.00000E+00
    0.13779E+07        -0.60389E+08         0.00000E+00
    0.00000E+00         0.00000E+00        -0.52183E+08
 
   -0.52391E+08         0.22553E+07         0.00000E+00
    0.22553E+07        -0.60417E+08         0.00000E+00
    0.00000E+00         0.00000E+00        -0.52165E+08
 
   -0.52296E+08         0.32604E+07         0.00000E+00
    0.32604E+07        -0.60440E+08         0.00000E+00
    0.00000E+00         0.00000E+00        -0.52150E+08
 
   -0.52221E+08         0.43857E+07         0.00000E+00
    0.43857E+07        -0.60457E+08         0.00000E+00
    0.00000E+00         0.00000E+00        -0.52138E+08
 
   -0.52168E+08         0.56220E+07         0.00000E+00
    0.56220E+07        -0.60471E+08         0.00000E+00
    0.00000E+00         0.00000E+00        -0.52129E+08
 
   -0.52134E+08         0.69578E+07         0.00000E+00
    0.69578E+07        -0.60481E+08         0.00000E+00
    0.00000E+00         0.00000E+00        -0.52124E+08
 
   -0.54382E+08        -0.24704E+06         0.00000E+00
   -0.24704E+06        -0.60007E+08         0.00000E+00
    0.00000E+00         0.00000E+00        -0.51257E+08
 
   -0.54141E+08        -0.64639E+06         0.00000E+00
   -0.64639E+06        -0.60035E+08         0.00000E+00
    0.00000E+00         0.00000E+00        -0.51218E+08
 
   -0.53857E+08        -0.90904E+06         0.00000E+00
   -0.90904E+06        -0.60085E+08         0.00000E+00
    0.00000E+00         0.00000E+00        -0.51173E+08
 
   -0.53545E+08        -0.10277E+07         0.00000E+00
   -0.10277E+07        -0.60148E+08         0.00000E+00
    0.00000E+00         0.00000E+00        -0.51125E+08
 
   -0.53218E+08        -0.99885E+06         0.00000E+00
   -0.99885E+06        -0.60220E+08         0.00000E+00
    0.00000E+00         0.00000E+00        -0.51075E+08
 
   -0.52889E+08        -0.82180E+06         0.00000E+00
   -0.82180E+06        -0.60294E+08         0.00000E+00
    0.00000E+00         0.00000E+00        -0.51024E+08
 
   -0.52565E+08        -0.49762E+06         0.00000E+00
   -0.49762E+06        -0.60368E+08         0.00000E+00
    0.00000E+00         0.00000E+00        -0.50974E+08
 
   -0.52255E+08        -0.28616E+05         0.00000E+00
   -0.28616E+05        -0.60439E+08         0.00000E+00
    0.00000E+00         0.00000E+00        -0.50926E+08
 
   -0.51963E+08         0.58210E+06         0.00000E+00
    0.58210E+06        -0.60507E+08         0.00000E+00
    0.00000E+00         0.00000E+00        -0.50880E+08
 
   -0.51693E+08         0.13307E+07         0.00000E+00
    0.13307E+07        -0.60572E+08         0.00000E+00
    0.00000E+00         0.00000E+00        -0.50838E+08
 
   -0.51447E+08         0.22125E+07         0.00000E+00
    0.22125E+07        -0.60633E+08         0.00000E+00
    0.00000E+00         0.00000E+00        -0.50801E+08
 
   -0.51228E+08         0.32217E+07         0.00000E+00
    0.32217E+07        -0.60692E+08         0.00000E+00
    0.00000E+00         0.00000E+00        -0.50768E+08
 
   -0.51037E+08         0.43511E+07         0.00000E+00
    0.43511E+07        -0.60747E+08         0.00000E+00
    0.00000E+00         0.00000E+00        -0.50741E+08
 
   -0.50878E+08         0.55916E+07         0.00000E+00
    0.55916E+07        -0.60798E+08         0.00000E+00
    0.00000E+00         0.00000E+00        -0.50719E+08
 
   -0.50751E+08         0.69317E+07         0.00000E+00
    0.69317E+07        -0.60845E+08         0.00000E+00
    0.00000E+00         0.00000E+00        -0.50703E+08
 
   -0.54862E+08        -0.26465E+06         0.00000E+00
   -0.26465E+06        -0.60009E+08         0.00000E+00
    0.00000E+00         0.00000E+00        -0.50140E+08
 
   -0.54485E+08        -0.69218E+06         0.00000E+00
   -0.69218E+06        -0.60044E+08         0.00000E+00
    0.00000E+00         0.00000E+00        -0.50074E+08
 
   -0.54056E+08        -0.97420E+06         0.00000E+00
   -0.97420E+06        -0.60106E+08         0.00000E+00
    0.00000E+00         0.00000E+00        -0.50002E+08
 
   -0.53594E+08        -0.11047E+07         0.00000E+00
   -0.11047E+07        -0.60184E+08         0.00000E+00
    0.00000E+00         0.00000E+00        -0.49926E+08
 
   -0.53117E+08        -0.10817E+07         0.00000E+00
   -0.10817E+07        -0.60273E+08         0.00000E+00
    0.00000E+00         0.00000E+00        -0.49849E+08
 
   -0.52638E+08        -0.90634E+06         0.00000E+00
   -0.90634E+06        -0.60365E+08         0.00000E+00
    0.00000E+00         0.00000E+00        -0.49771E+08
 
   -0.52168E+08        -0.58138E+06         0.00000E+00
   -0.58138E+06        -0.60459E+08         0.00000E+00
    0.00000E+00         0.00000E+00        -0.49695E+08
 
   -0.51714E+08        -0.11050E+06         0.00000E+00
   -0.11050E+06        -0.60552E+08         0.00000E+00
    0.00000E+00         0.00000E+00        -0.49622E+08
 
   -0.51282E+08         0.50225E+06         0.00000E+00
    0.50225E+06        -0.60645E+08         0.00000E+00
    0.00000E+00         0.00000E+00        -0.49553E+08
 
   -0.50876E+08         0.12526E+07         0.00000E+00
    0.12526E+07        -0.60737E+08         0.00000E+00
    0.00000E+00         0.00000E+00        -0.49489E+08
 
   -0.50500E+08         0.21360E+07         0.00000E+00
    0.21360E+07        -0.60830E+08         0.00000E+00
    0.00000E+00         0.00000E+00        -0.49431E+08
 
   -0.50156E+08         0.31470E+07         0.00000E+00
    0.31470E+07        -0.60922E+08         0.00000E+00
    0.00000E+00         0.00000E+00        -0.49381E+08
 
   -0.49849E+08         0.42790E+07         0.00000E+00
    0.42790E+07        -0.61014E+08         0.00000E+00
    0.00000E+00         0.00000E+00        -0.49338E+08
 
   -0.49584E+08         0.55234E+07         0.00000E+00
    0.55234E+07        -0.61103E+08         0.00000E+00
    0.00000E+00         0.00000E+00        -0.49303E+08
 
   -0.49363E+08         0.68691E+07         0.00000E+00
    0.68691E+07        -0.61187E+08         0.00000E+00
    0.00000E+00         0.00000E+00        -0.49276E+08
 
   -0.55378E+08        -0.28635E+06         0.00000E+00
   -0.28635E+06        -0.60010E+08         0.00000E+00
    0.00000E+00         0.00000E+00        -0.49031E+08
 
   -0.54855E+08        -0.74786E+06         0.00000E+00
   -0.74786E+06        -0.60053E+08         0.00000E+00
    0.00000E+00         0.00000E+00        -0.48936E+08
 
   -0.54271E+08        -0.10526E+07         0.00000E+00
   -0.10526E+07        -0.60125E+08         0.00000E+00
    0.00000E+00         0.00000E+00        -0.48834E+08
 
   -0.53653E+08        -0.11966E+07         0.00000E+00
   -0.11966E+07        -0.60217E+08         0.00000E+00
    0.00000E+00         0.00000E+00        -0.48729E+08
 
   -0.53020E+08        -0.11806E+07         0.00000E+00
   -0.11806E+07        -0.60319E+08         0.00000E+00
    0.00000E+00         0.00000E+00        -0.48622E+08
 
   -0.52388E+08        -0.10080E+07         0.00000E+00
   -0.10080E+07        -0.60426E+08         0.00000E+00
    0.00000E+00         0.00000E+00        -0.48515E+08
 
   -0.51769E+08        -0.68381E+06         0.00000E+00
   -0.68381E+06        -0.60535E+08         0.00000E+00
    0.00000E+00         0.00000E+00        -0.48412E+08
 
   -0.51172E+08        -0.21338E+06         0.00000E+00
   -0.21338E+06        -0.60645E+08         0.00000E+00
    0.00000E+00         0.00000E+00        -0.48313E+08
 
   -0.50600E+08         0.39834E+06         0.00000E+00
    0.39834E+06        -0.60758E+08         0.00000E+00
    0.00000E+00         0.00000E+00        -0.48220E+08
 
   -0.50059E+08         0.11469E+07         0.00000E+00
    0.11469E+07        -0.60874E+08         0.00000E+00
    0.00000E+00         0.00000E+00        -0.48134E+08
 
   -0.49552E+08         0.20281E+07         0.00000E+00
    0.20281E+07        -0.60995E+08         0.00000E+00
    0.00000E+00         0.00000E+00        -0.48056E+08
 
   -0.49084E+08         0.30376E+07         0.00000E+00
    0.30376E+07        -0.61119E+08         0.00000E+00
    0.00000E+00         0.00000E+00        -0.47987E+08
 
   -0.48659E+08         0.41699E+07         0.00000E+00
    0.41699E+07        -0.61246E+08         0.00000E+00
    0.00000E+00         0.00000E+00        -0.47927E+08
 
   -0.48285E+08         0.54173E+07         0.00000E+00
    0.54173E+07        -0.61372E+08         0.00000E+00
    0.00000E+00         0.00000E+00        -0.47879E+08
 
   -0.47968E+08         0.67694E+07         0.00000E+00
    0.67694E+07        -0.61495E+08         0.00000E+00
    0.00000E+00         0.00000E+00        -0.47841E+08
 
   -0.55938E+08        -0.31188E+06         0.00000E+00
   -0.31188E+06        -0.60012E+08         0.00000E+00
    0.00000E+00         0.00000E+00        -0.47930E+08
 
   -0.55254E+08        -0.81236E+06         0.00000E+00
   -0.81236E+06        -0.60060E+08         0.00000E+00
    0.00000E+00         0.00000E+00        -0.47803E+08
 
   -0.54505E+08        -0.11420E+07         0.00000E+00
   -0.11420E+07        -0.60142E+08         0.00000E+00
    0.00000E+00         0.00000E+00        -0.47669E+08
 
   -0.53722E+08        -0.13001E+07         0.00000E+00
   -0.13001E+07        -0.60243E+08         0.00000E+00
    0.00000E+00         0.00000E+00        -0.47532E+08
 
   -0.52927E+08        -0.12910E+07         0.00000E+00
   -0.12910E+07        -0.60354E+08         0.00000E+00
    0.00000E+00         0.00000E+00        -0.47393E+08
 
   -0.52140E+08        -0.11214E+07         0.00000E+00
   -0.11214E+07        -0.60469E+08         0.00000E+00
    0.00000E+00         0.00000E+00        -0.47257E+08
 
   -0.51372E+08        -0.79920E+06         0.00000E+00
   -0.79920E+06        -0.60587E+08         0.00000E+00
    0.00000E+00         0.00000E+00        -0.47125E+08
 
   -0.50632E+08        -0.33163E+06         0.00000E+00
   -0.33163E+06        -0.60708E+08         0.00000E+00
    0.00000E+00         0.00000E+00        -0.46999E+08
 
   -0.49922E+08         0.27545E+06         0.00000E+00
    0.27545E+06        -0.60835E+08         0.00000E+00
    0.00000E+00         0.00000E+00        -0.46880E+08
 
   -0.49247E+08         0.10177E+07         0.00000E+00
    0.10177E+07        -0.60969E+08         0.00000E+00
    0.00000E+00         0.00000E+00        -0.46771E+08
 
   -0.48610E+08         0.18918E+07         0.00000E+00
    0.18918E+07        -0.61113E+08         0.00000E+00
    0.00000E+00         0.00000E+00        -0.46672E+08
 
   -0.48015E+08         0.28951E+07         0.00000E+00
    0.28951E+07        -0.61267E+08         0.00000E+00
    0.00000E+00         0.00000E+00        -0.46584E+08
 
   -0.47469E+08         0.40239E+07         0.00000E+00
    0.40239E+07        -0.61429E+08         0.00000E+00
    0.00000E+00         0.00000E+00        -0.46507E+08
 
   -0.46981E+08         0.52725E+07         0.00000E+00
    0.52725E+07        -0.61594E+08         0.00000E+00
    0.00000E+00         0.00000E+00        -0.46444E+08
 
   -0.46564E+08         0.66314E+07         0.00000E+00
    0.66314E+07        -0.61756E+08         0.00000E+00
    0.00000E+00         0.00000E+00        -0.46395E+08
 
   -0.56548E+08        -0.34078E+06         0.00000E+00
   -0.34078E+06        -0.60013E+08         0.00000E+00
    0.00000E+00         0.00000E+00        -0.46839E+08
 
   -0.55687E+08        -0.88398E+06         0.00000E+00
   -0.88398E+06        -0.60066E+08         0.00000E+00
    0.00000E+00         0.00000E+00        -0.46677E+08
 
   -0.54758E+08        -0.12392E+07         0.00000E+00
   -0.12392E+07        -0.60154E+08         0.00000E+00
    0.00000E+00         0.00000E+00        -0.46507E+08
 
   -0.53800E+08        -0.14103E+07         0.00000E+00
   -0.14103E+07        -0.60259E+08         0.00000E+00
    0.00000E+00         0.00000E+00        -0.46334E+08
 
   -0.52839E+08        -0.14065E+07         0.00000E+00
   -0.14065E+07        -0.60372E+08         0.00000E+00
    0.00000E+00         0.00000E+00        -0.46162E+08
 
   -0.51894E+08        -0.12392E+07         0.00000E+00
   -0.12392E+07        -0.60488E+08         0.00000E+00
    0.00000E+00         0.00000E+00        -0.45994E+08
 
   -0.50979E+08        -0.91981E+06         0.00000E+00
   -0.91981E+06        -0.60606E+08         0.00000E+00
    0.00000E+00         0.00000E+00        -0.45831E+08
 
   -0.50097E+08        -0.45778E+06         0.00000E+00
   -0.45778E+06        -0.60729E+08         0.00000E+00
    0.00000E+00         0.00000E+00        -0.45677E+08
 
   -0.49252E+08         0.14017E+06         0.00000E+00
    0.14017E+06        -0.60862E+08         0.00000E+00
    0.00000E+00         0.00000E+00        -0.45532E+08
 
   -0.48445E+08         0.87012E+06         0.00000E+00
    0.87012E+06        -0.61008E+08         0.00000E+00
    0.00000E+00         0.00000E+00        -0.45399E+08
 
   -0.47677E+08         0.17305E+07         0.00000E+00
    0.17305E+07        -0.61171E+08         0.00000E+00
    0.00000E+00         0.00000E+00        -0.45278E+08
 
   -0.46953E+08         0.27210E+07         0.00000E+00
    0.27210E+07        -0.61352E+08         0.00000E+00
    0.00000E+00         0.00000E+00        -0.45169E+08
 
   -0.46282E+08         0.38408E+07         0.00000E+00
    0.38408E+07        -0.61548E+08         0.00000E+00
    0.00000E+00         0.00000E+00        -0.45075E+08
 
   -0.45675E+08         0.50871E+07         0.00000E+00
    0.50871E+07        -0.61753E+08         0.00000E+00
    0.00000E+00         0.00000E+00        -0.44997E+08
 
   -0.45149E+08         0.64525E+07         0.00000E+00
    0.64525E+07        -0.61957E+08         0.00000E+00
    0.00000E+00         0.00000E+00        -0.44935E+08
 
   -0.57213E+08        -0.37244E+06         0.00000E+00
   -0.37244E+06        -0.60015E+08         0.00000E+00
    0.00000E+00         0.00000E+00        -0.45760E+08
 
   -0.56153E+08        -0.96029E+06         0.00000E+00
   -0.96029E+06        -0.60070E+08         0.00000E+00
    0.00000E+00         0.00000E+00        -0.45557E+08
 
   -0.55029E+08        -0.13393E+07         0.00000E+00
   -0.13393E+07        -0.60159E+08         0.00000E+00
    0.00000E+00         0.00000E+00        -0.45347E+08
 
   -0.53885E+08        -0.15200E+07         0.00000E+00
   -0.15200E+07        -0.60263E+08         0.00000E+00
    0.00000E+00         0.00000E+00        -0.45136E+08
 
   -0.52752E+08        -0.15182E+07         0.00000E+00
   -0.15182E+07        -0.60369E+08         0.00000E+00
    0.00000E+00         0.00000E+00        -0.44927E+08
 
   -0.51651E+08        -0.13515E+07         0.00000E+00
   -0.13515E+07        -0.60474E+08         0.00000E+00
    0.00000E+00         0.00000E+00        -0.44724E+08
 
   -0.50590E+08        -0.10356E+07         0.00000E+00
   -0.10356E+07        -0.60581E+08         0.00000E+00
    0.00000E+00         0.00000E+00        -0.44530E+08
 
   -0.49572E+08        -0.58236E+06         0.00000E+00
   -0.58236E+06        -0.60695E+08         0.00000E+00
    0.00000E+00         0.00000E+00        -0.44346E+08
 
   -0.48597E+08         0.70756E+03         0.00000E+00
    0.70756E+03        -0.60823E+08         0.00000E+00
    0.00000E+00         0.00000E+00        -0.44174E+08
 
   -0.47660E+08         0.71066E+06         0.00000E+00
    0.71066E+06        -0.60974E+08         0.00000E+00
    0.00000E+00         0.00000E+00        -0.44016E+08
 
   -0.46763E+08         0.15483E+07         0.00000E+00
    0.15483E+07        -0.61150E+08         0.00000E+00
    0.00000E+00         0.00000E+00        -0.43871E+08
 
   -0.45908E+08         0.25167E+07         0.00000E+00
    0.25167E+07        -0.61355E+08         0.00000E+00
    0.00000E+00         0.00000E+00        -0.43742E+08
 
   -0.45104E+08         0.36195E+07         0.00000E+00
    0.36195E+07        -0.61586E+08         0.00000E+00
    0.00000E+00         0.00000E+00        -0.43629E+08
 
   -0.44368E+08         0.48581E+07         0.00000E+00
    0.48581E+07        -0.61833E+08         0.00000E+00
    0.00000E+00         0.00000E+00        -0.43534E+08
 
   -0.43722E+08         0.62287E+07         0.00000E+00
    0.62287E+07        -0.62084E+08         0.00000E+00
    0.00000E+00         0.00000E+00        -0.43458E+08
 
   -0.57936E+08        -0.40609E+06         0.00000E+00
   -0.40609E+06        -0.60015E+08         0.00000E+00
    0.00000E+00         0.00000E+00        -0.44692E+08
 
   -0.56651E+08        -0.10380E+07         0.00000E+00
   -0.10380E+07        -0.60072E+08         0.00000E+00
    0.00000E+00         0.00000E+00        -0.44443E+08
 
   -0.55312E+08        -0.14360E+07         0.00000E+00
   -0.14360E+07        -0.60157E+08         0.00000E+00
    0.00000E+00         0.00000E+00        -0.44188E+08
 
   -0.53971E+08        -0.16197E+07         0.00000E+00
   -0.16197E+07        -0.60248E+08         0.00000E+00
    0.00000E+00         0.00000E+00        -0.43933E+08
 
   -0.52664E+08        -0.16146E+07         0.00000E+00
   -0.16146E+07        -0.60335E+08         0.00000E+00
    0.00000E+00         0.00000E+00        -0.43685E+08
 
   -0.51408E+08        -0.14457E+07         0.00000E+00
   -0.14457E+07        -0.60416E+08         0.00000E+00
    0.00000E+00         0.00000E+00        -0.43445E+08
 
   -0.50208E+08        -0.11340E+07         0.00000E+00
   -0.11340E+07        -0.60498E+08         0.00000E+00
    0.00000E+00         0.00000E+00        -0.43218E+08
 
   -0.49062E+08        -0.69383E+06         0.00000E+00
   -0.69383E+06        -0.60590E+08         0.00000E+00
    0.00000E+00         0.00000E+00        -0.43004E+08
 
   -0.47963E+08        -0.13306E+06         0.00000E+00
   -0.13306E+06        -0.60703E+08         0.00000E+00
    0.00000E+00         0.00000E+00        -0.42804E+08
 
   -0.46903E+08         0.54685E+06         0.00000E+00
    0.54685E+06        -0.60847E+08         0.00000E+00
    0.00000E+00         0.00000E+00        -0.42620E+08
 
   -0.45877E+08         0.13498E+07         0.00000E+00
    0.13498E+07        -0.61031E+08         0.00000E+00
    0.00000E+00         0.00000E+00        -0.42452E+08
 
   -0.44888E+08         0.22837E+07         0.00000E+00
    0.22837E+07        -0.61257E+08         0.00000E+00
    0.00000E+00         0.00000E+00        -0.42300E+08
 
   -0.43945E+08         0.33581E+07         0.00000E+00
    0.33581E+07        -0.61522E+08         0.00000E+00
    0.00000E+00         0.00000E+00        -0.42166E+08
 
   -0.43066E+08         0.45808E+07         0.00000E+00
    0.45808E+07        -0.61816E+08         0.00000E+00
    0.00000E+00         0.00000E+00        -0.42052E+08
 
   -0.42283E+08         0.59535E+07         0.00000E+00
    0.59535E+07        -0.62121E+08         0.00000E+00
    0.00000E+00         0.00000E+00        -0.41960E+08
 
   -0.58718E+08        -0.44079E+06         0.00000E+00
   -0.44079E+06        -0.60016E+08         0.00000E+00
    0.00000E+00         0.00000E+00        -0.43636E+08
 
   -0.57176E+08        -0.11128E+07         0.00000E+00
   -0.11128E+07        -0.60070E+08         0.00000E+00
    0.00000E+00         0.00000E+00        -0.43333E+08
 
   -0.55600E+08        -0.15204E+07         0.00000E+00
   -0.15204E+07        -0.60143E+08         0.00000E+00
    0.00000E+00         0.00000E+00        -0.43027E+08
 
   -0.54052E+08        -0.16968E+07         0.00000E+00
   -0.16968E+07        -0.60210E+08         0.00000E+00
    0.00000E+00         0.00000E+00        -0.42725E+08
 
   -0.52569E+08        -0.16805E+07         0.00000E+00
   -0.16805E+07        -0.60261E+08         0.00000E+00
    0.00000E+00         0.00000E+00        -0.42433E+08
 
   -0.51165E+08        -0.15062E+07         0.00000E+00
   -0.15062E+07        -0.60301E+08         0.00000E+00
    0.00000E+00         0.00000E+00        -0.42155E+08
 
   -0.49837E+08        -0.12001E+07         0.00000E+00
   -0.12001E+07        -0.60341E+08         0.00000E+00
    0.00000E+00         0.00000E+00        -0.41893E+08
 
   -0.48574E+08        -0.77881E+06         0.00000E+00
   -0.77881E+06        -0.60396E+08         0.00000E+00
    0.00000E+00         0.00000E+00        -0.41648E+08
 
   -0.47361E+08        -0.24982E+06         0.00000E+00
   -0.24982E+06        -0.60480E+08         0.00000E+00
    0.00000E+00         0.00000E+00        -0.41420E+08
 
   -0.46185E+08         0.38741E+06         0.00000E+00
    0.38741E+06        -0.60609E+08         0.00000E+00
    0.00000E+00         0.00000E+00        -0.41210E+08
 
   -0.45035E+08         0.11406E+07         0.00000E+00
    0.11406E+07        -0.60792E+08         0.00000E+00
    0.00000E+00         0.00000E+00        -0.41017E+08
 
   -0.43909E+08         0.20234E+07         0.00000E+00
    0.20234E+07        -0.61035E+08         0.00000E+00
    0.00000E+00         0.00000E+00        -0.40842E+08
 
   -0.42815E+08         0.30535E+07         0.00000E+00
    0.30535E+07        -0.61336E+08         0.00000E+00
    0.00000E+00         0.00000E+00        -0.40685E+08
 
   -0.41776E+08         0.42480E+07         0.00000E+00
    0.42480E+07        -0.61682E+08         0.00000E+00
    0.00000E+00         0.00000E+00        -0.40550E+08
 
   -0.40832E+08         0.56174E+07         0.00000E+00
    0.56174E+07        -0.62051E+08         0.00000E+00
    0.00000E+00         0.00000E+00        -0.40439E+08
 
   -0.59558E+08        -0.47535E+06         0.00000E+00
   -0.47535E+06        -0.60015E+08         0.00000E+00
    0.00000E+00         0.00000E+00        -0.42591E+08
 
   -0.57718E+08        -0.11782E+07         0.00000E+00
   -0.11782E+07        -0.60063E+08         0.00000E+00
    0.00000E+00         0.00000E+00        -0.42226E+08
 
   -0.55879E+08        -0.15795E+07         0.00000E+00
   -0.15795E+07        -0.60112E+08         0.00000E+00
    0.00000E+00         0.00000E+00        -0.41860E+08
 
   -0.54116E+08        -0.17337E+07         0.00000E+00
   -0.17337E+07        -0.60136E+08         0.00000E+00
    0.00000E+00         0.00000E+00        -0.41505E+08
 
   -0.52463E+08        -0.16968E+07         0.00000E+00
   -0.16968E+07        -0.60132E+08         0.00000E+00
    0.00000E+00         0.00000E+00        -0.41167E+08
 
   -0.50922E+08        -0.15144E+07         0.00000E+00
   -0.15144E+07        -0.60110E+08         0.00000E+00
    0.00000E+00         0.00000E+00        -0.40849E+08
 
   -0.49480E+08        -0.12173E+07         0.00000E+00
   -0.12173E+07        -0.60089E+08         0.00000E+00
    0.00000E+00         0.00000E+00        -0.40552E+08
 
   -0.48115E+08        -0.82283E+06         0.00000E+00
   -0.82283E+06        -0.60091E+08         0.00000E+00
    0.00000E+00         0.00000E+00        -0.40277E+08
 
   -0.46804E+08        -0.33741E+06         0.00000E+00
   -0.33741E+06        -0.60134E+08         0.00000E+00
    0.00000E+00         0.00000E+00        -0.40021E+08
 
   -0.45523E+08         0.24193E+06         0.00000E+00
    0.24193E+06        -0.60235E+08         0.00000E+00
    0.00000E+00         0.00000E+00        -0.39785E+08
 
   -0.44254E+08         0.92681E+06         0.00000E+00
    0.92681E+06        -0.60409E+08         0.00000E+00
    0.00000E+00         0.00000E+00        -0.39566E+08
 
   -0.42989E+08         0.17374E+07         0.00000E+00
    0.17374E+07        -0.60665E+08         0.00000E+00
    0.00000E+00         0.00000E+00        -0.39366E+08
 
   -0.41733E+08         0.27015E+07         0.00000E+00
    0.27015E+07        -0.61003E+08         0.00000E+00
    0.00000E+00         0.00000E+00        -0.39185E+08
 
   -0.40510E+08         0.38497E+07         0.00000E+00
    0.38497E+07        -0.61410E+08         0.00000E+00
    0.00000E+00         0.00000E+00        -0.39026E+08
 
   -0.39371E+08         0.52065E+07         0.00000E+00
    0.52065E+07        -0.61857E+08         0.00000E+00
    0.00000E+00         0.00000E+00        -0.38891E+08
 
   -0.60450E+08        -0.50815E+06         0.00000E+00
   -0.50815E+06        -0.60014E+08         0.00000E+00
    0.00000E+00         0.00000E+00        -0.41557E+08
 
   -0.58258E+08        -0.12243E+07         0.00000E+00
   -0.12243E+07        -0.60047E+08         0.00000E+00
    0.00000E+00         0.00000E+00        -0.41116E+08
 
   -0.56130E+08        -0.15944E+07         0.00000E+00
   -0.15944E+07        -0.60055E+08         0.00000E+00
    0.00000E+00         0.00000E+00        -0.40682E+08
 
   -0.54150E+08        -0.17064E+07         0.00000E+00
   -0.17064E+07        -0.60010E+08         0.00000E+00
    0.00000E+00         0.00000E+00        -0.40269E+08
 
   -0.52338E+08        -0.16397E+07         0.00000E+00
   -0.16397E+07        -0.59922E+08         0.00000E+00
    0.00000E+00         0.00000E+00        -0.39882E+08
 
   -0.50681E+08        -0.14497E+07         0.00000E+00
   -0.14497E+07        -0.59815E+08         0.00000E+00
    0.00000E+00         0.00000E+00        -0.39523E+08
 
   -0.49146E+08        -0.11686E+07         0.00000E+00
   -0.11686E+07        -0.59716E+08         0.00000E+00
    0.00000E+00         0.00000E+00        -0.39192E+08
 
   -0.47699E+08        -0.81200E+06         0.00000E+00
   -0.81200E+06        -0.59651E+08         0.00000E+00
    0.00000E+00         0.00000E+00        -0.38887E+08
 
   -0.46305E+08        -0.38411E+06         0.00000E+00
   -0.38411E+06        -0.59640E+08         0.00000E+00
    0.00000E+00         0.00000E+00        -0.38605E+08
 
   -0.44933E+08         0.12032E+06         0.00000E+00
    0.12032E+06        -0.59704E+08         0.00000E+00
    0.00000E+00         0.00000E+00        -0.38344E+08
 
   -0.43556E+08         0.71588E+06         0.00000E+00
    0.71588E+06        -0.59860E+08         0.00000E+00
    0.00000E+00         0.00000E+00        -0.38100E+08
 
   -0.42154E+08         0.14285E+07         0.00000E+00
    0.14285E+07        -0.60122E+08         0.00000E+00
    0.00000E+00         0.00000E+00        -0.37874E+08
 
   -0.40723E+08         0.22974E+07         0.00000E+00
    0.22974E+07        -0.60497E+08         0.00000E+00
    0.00000E+00         0.00000E+00        -0.37665E+08
 
   -0.39285E+08         0.33723E+07         0.00000E+00
    0.33723E+07        -0.60976E+08         0.00000E+00
    0.00000E+00         0.00000E+00        -0.37477E+08
 
   -0.37905E+08         0.47010E+07         0.00000E+00
    0.47010E+07        -0.61521E+08         0.00000E+00
    0.00000E+00         0.00000E+00        -0.37314E+08
 
   -0.61381E+08        -0.53647E+06         0.00000E+00
   -0.53647E+06        -0.60012E+08         0.00000E+00
    0.00000E+00         0.00000E+00        -0.40530E+08
 
   -0.58767E+08        -0.12332E+07         0.00000E+00
   -0.12332E+07        -0.60016E+08         0.00000E+00
    0.00000E+00         0.00000E+00        -0.39996E+08
 
   -0.56325E+08        -0.15341E+07         0.00000E+00
   -0.15341E+07        -0.59948E+08         0.00000E+00
    0.00000E+00         0.00000E+00        -0.39483E+08
 
   -0.54139E+08        -0.15824E+07         0.00000E+00
   -0.15824E+07        -0.59796E+08         0.00000E+00
    0.00000E+00         0.00000E+00        -0.39005E+08
 
   -0.52196E+08        -0.14827E+07         0.00000E+00
   -0.14827E+07        -0.59593E+08         0.00000E+00
    0.00000E+00         0.00000E+00        -0.38569E+08
 
   -0.50450E+08        -0.12929E+07         0.00000E+00
   -0.12929E+07        -0.59379E+08         0.00000E+00
    0.00000E+00         0.00000E+00        -0.38171E+08
 
   -0.48846E+08        -0.10402E+07         0.00000E+00
   -0.10402E+07        -0.59189E+08         0.00000E+00
    0.00000E+00         0.00000E+00        -0.37809E+08
 
   -0.47338E+08        -0.73581E+06         0.00000E+00
   -0.73581E+06        -0.59047E+08         0.00000E+00
    0.00000E+00         0.00000E+00        -0.37477E+08
 
   -0.45881E+08        -0.38076E+06         0.00000E+00
   -0.38076E+06        -0.58976E+08         0.00000E+00
    0.00000E+00         0.00000E+00        -0.37171E+08
 
   -0.44436E+08         0.31584E+05         0.00000E+00
    0.31584E+05        -0.58995E+08         0.00000E+00
    0.00000E+00         0.00000E+00        -0.36886E+08
 
   -0.42965E+08         0.51661E+06         0.00000E+00
    0.51661E+06        -0.59124E+08         0.00000E+00
    0.00000E+00         0.00000E+00        -0.36619E+08
 
   -0.41434E+08         0.11024E+07         0.00000E+00
    0.11024E+07        -0.59384E+08         0.00000E+00
    0.00000E+00         0.00000E+00        -0.36366E+08
 
   -0.39820E+08         0.18379E+07         0.00000E+00
    0.18379E+07        -0.59793E+08         0.00000E+00
    0.00000E+00         0.00000E+00        -0.36128E+08
 
   -0.38132E+08         0.27983E+07         0.00000E+00
    0.27983E+07        -0.60352E+08         0.00000E+00
    0.00000E+00         0.00000E+00        -0.35905E+08
 
   -0.36443E+08         0.40713E+07         0.00000E+00
    0.40713E+07        -0.61023E+08         0.00000E+00
    0.00000E+00         0.00000E+00        -0.35706E+08
 
   -0.62322E+08        -0.55397E+06         0.00000E+00
   -0.55397E+06        -0.60004E+08         0.00000E+00
    0.00000E+00         0.00000E+00        -0.39504E+08
 
   -0.59191E+08        -0.11679E+07         0.00000E+00
   -0.11679E+07        -0.59947E+08         0.00000E+00
    0.00000E+00         0.00000E+00        -0.38851E+08
 
   -0.56432E+08        -0.13479E+07         0.00000E+00
   -0.13479E+07        -0.59743E+08         0.00000E+00
    0.00000E+00         0.00000E+00        -0.38245E+08
 
   -0.54079E+08        -0.13217E+07         0.00000E+00
   -0.13217E+07        -0.59431E+08         0.00000E+00
    0.00000E+00         0.00000E+00        -0.37702E+08
 
   -0.52046E+08        -0.12022E+07         0.00000E+00
   -0.12022E+07        -0.59084E+08         0.00000E+00
    0.00000E+00         0.00000E+00        -0.37219E+08
 
   -0.50242E+08        -0.10317E+07         0.00000E+00
   -0.10317E+07        -0.58753E+08         0.00000E+00
    0.00000E+00         0.00000E+00        -0.36788E+08
 
   -0.48595E+08        -0.82627E+06         0.00000E+00
   -0.82627E+06        -0.58468E+08         0.00000E+00
    0.00000E+00         0.00000E+00        -0.36398E+08
 
   -0.47047E+08        -0.59075E+06         0.00000E+00
   -0.59075E+06        -0.58251E+08         0.00000E+00
    0.00000E+00         0.00000E+00        -0.36044E+08
 
   -0.45547E+08        -0.32368E+06         0.00000E+00
   -0.32368E+06        -0.58121E+08         0.00000E+00
    0.00000E+00         0.00000E+00        -0.35717E+08
 
   -0.44048E+08        -0.18428E+05         0.00000E+00
   -0.18428E+05        -0.58094E+08         0.00000E+00
    0.00000E+00         0.00000E+00        -0.35413E+08
 
   -0.42504E+08         0.33823E+06         0.00000E+00
    0.33823E+06        -0.58191E+08         0.00000E+00
    0.00000E+00         0.00000E+00        -0.35125E+08
 
   -0.40864E+08         0.77088E+06         0.00000E+00
    0.77088E+06        -0.58436E+08         0.00000E+00
    0.00000E+00         0.00000E+00        -0.34848E+08
 
   -0.39073E+08         0.13272E+07         0.00000E+00
    0.13272E+07        -0.58863E+08         0.00000E+00
    0.00000E+00         0.00000E+00        -0.34577E+08
 
   -0.37100E+08         0.21084E+07         0.00000E+00
    0.21084E+07        -0.59506E+08         0.00000E+00
    0.00000E+00         0.00000E+00        -0.34314E+08
 
   -0.35007E+08         0.32732E+07         0.00000E+00
    0.32732E+07        -0.60340E+08         0.00000E+00
    0.00000E+00         0.00000E+00        -0.34065E+08
 
   -0.63206E+08        -0.53794E+06         0.00000E+00
   -0.53794E+06        -0.59979E+08         0.00000E+00
    0.00000E+00         0.00000E+00        -0.38461E+08
 
   -0.59451E+08        -0.93918E+06         0.00000E+00
   -0.93918E+06        -0.59760E+08         0.00000E+00
    0.00000E+00         0.00000E+00        -0.37648E+08
 
   -0.56437E+08        -0.96353E+06         0.00000E+00
   -0.96353E+06        -0.59313E+08         0.00000E+00
    0.00000E+00         0.00000E+00        -0.36943E+08
 
   -0.53992E+08        -0.89477E+06         0.00000E+00
   -0.89477E+06        -0.58806E+08         0.00000E+00
    0.00000E+00         0.00000E+00        -0.36343E+08
 
   -0.51914E+08        -0.79148E+06         0.00000E+00
   -0.79148E+06        -0.58316E+08         0.00000E+00
    0.00000E+00         0.00000E+00        -0.35823E+08
 
   -0.50083E+08        -0.66954E+06         0.00000E+00
   -0.66954E+06        -0.57879E+08         0.00000E+00
    0.00000E+00         0.00000E+00        -0.35365E+08
 
   -0.48413E+08        -0.53356E+06         0.00000E+00
   -0.53356E+06        -0.57514E+08         0.00000E+00
    0.00000E+00         0.00000E+00        -0.34956E+08
 
   -0.46842E+08        -0.38368E+06         0.00000E+00
   -0.38368E+06        -0.57236E+08         0.00000E+00
    0.00000E+00         0.00000E+00        -0.34585E+08
 
   -0.45316E+08        -0.21755E+06         0.00000E+00
   -0.21755E+06        -0.57057E+08         0.00000E+00
    0.00000E+00         0.00000E+00        -0.34244E+08
 
   -0.43783E+08        -0.30301E+05         0.00000E+00
   -0.30301E+05        -0.56991E+08         0.00000E+00
    0.00000E+00         0.00000E+00        -0.33925E+08
 
   -0.42190E+08         0.18672E+06         0.00000E+00
    0.18672E+06        -0.57057E+08         0.00000E+00
    0.00000E+00         0.00000E+00        -0.33621E+08
 
   -0.40473E+08         0.44950E+06         0.00000E+00
    0.44950E+06        -0.57281E+08         0.00000E+00
    0.00000E+00         0.00000E+00        -0.33324E+08
 
   -0.38547E+08         0.79077E+06         0.00000E+00
    0.79077E+06        -0.57703E+08         0.00000E+00
    0.00000E+00         0.00000E+00        -0.33025E+08
 
   -0.36280E+08         0.12932E+07         0.00000E+00
    0.12932E+07        -0.58392E+08         0.00000E+00
    0.00000E+00         0.00000E+00        -0.32712E+08
 
   -0.33643E+08         0.22309E+07         0.00000E+00
    0.22309E+07        -0.59442E+08         0.00000E+00
    0.00000E+00         0.00000E+00        -0.32397E+08
 
   -0.63847E+08        -0.33896E+06         0.00000E+00
   -0.33896E+06        -0.59757E+08         0.00000E+00
    0.00000E+00         0.00000E+00        -0.37331E+08
 
   -0.59490E+08        -0.38826E+06         0.00000E+00
   -0.38826E+06        -0.59136E+08         0.00000E+00
    0.00000E+00         0.00000E+00        -0.36315E+08
 
   -0.56400E+08        -0.35610E+06         0.00000E+00
   -0.35610E+06        -0.58441E+08         0.00000E+00
    0.00000E+00         0.00000E+00        -0.35545E+08
 
   -0.53926E+08        -0.31885E+06         0.00000E+00
   -0.31885E+06        -0.57788E+08         0.00000E+00
    0.00000E+00         0.00000E+00        -0.34911E+08
 
   -0.51835E+08        -0.27717E+06         0.00000E+00
   -0.27717E+06        -0.57205E+08         0.00000E+00
    0.00000E+00         0.00000E+00        -0.34370E+08
 
   -0.49994E+08        -0.23247E+06         0.00000E+00
   -0.23247E+06        -0.56704E+08         0.00000E+00
    0.00000E+00         0.00000E+00        -0.33899E+08
 
   -0.48317E+08        -0.18466E+06         0.00000E+00
   -0.18466E+06        -0.56293E+08         0.00000E+00
    0.00000E+00         0.00000E+00        -0.33479E+08
 
   -0.46737E+08        -0.13312E+06         0.00000E+00
   -0.13312E+06        -0.55979E+08         0.00000E+00
    0.00000E+00         0.00000E+00        -0.33099E+08
 
   -0.45198E+08        -0.76703E+05         0.00000E+00
   -0.76703E+05        -0.55772E+08         0.00000E+00
    0.00000E+00         0.00000E+00        -0.32751E+08
 
   -0.43649E+08        -0.13642E+05         0.00000E+00
   -0.13642E+05        -0.55685E+08         0.00000E+00
    0.00000E+00         0.00000E+00        -0.32424E+08
 
   -0.42032E+08         0.59033E+05         0.00000E+00
    0.59033E+05        -0.55732E+08         0.00000E+00
    0.00000E+00         0.00000E+00        -0.32112E+08
 
   -0.40276E+08         0.14663E+06         0.00000E+00
    0.14663E+06        -0.55939E+08         0.00000E+00
    0.00000E+00         0.00000E+00        -0.31804E+08
 
   -0.38276E+08         0.26067E+06         0.00000E+00
    0.26067E+06        -0.56347E+08         0.00000E+00
    0.00000E+00         0.00000E+00        -0.31488E+08
 
   -0.35850E+08         0.42725E+06         0.00000E+00
    0.42725E+06        -0.57035E+08         0.00000E+00
    0.00000E+00         0.00000E+00        -0.31141E+08
 
   -0.32476E+08         0.81827E+06         0.00000E+00
    0.81827E+06        -0.58221E+08         0.00000E+00
    0.00000E+00         0.00000E+00        -0.30704E+08
 
SCALARS stressS double 
LOOKUP_TABLE default
  -57555007.3213299     
  -57296949.3252205     
  -57482032.9673099     
  -58201667.2898869     
  -59521793.9460947     
  -61112122.9657697     
  -62670004.8353524     
  -63996590.0372442     
  -65001848.4793133     
  -65840533.5980552     
  -66583835.4600952     
  -67274293.1602103     
  -67948880.2902824     
  -68654494.0060982     
  -69513274.4413057     
  -57997283.9003666     
  -58330319.2850775     
  -58721302.1913470     
  -59363583.4968316     
  -60277594.1481039     
  -61292379.3306756     
  -62304952.6222458     
  -63241125.7042669     
  -64131650.1984183     
  -64914139.0955567     
  -65620615.6384664     
  -66278564.8349224     
  -66913167.3783834     
  -67553187.2196341     
  -68173851.8654956     
  -58307526.7958898     
  -59086538.8713401     
  -59701681.9076977     
  -60152084.7049610     
  -60610460.9068710     
  -61162885.9620335     
  -61863106.0208070     
  -62628865.4162570     
  -63366769.2559037     
  -64061634.5482460     
  -64704816.5667671     
  -65306148.4502609     
  -65876276.0479671     
  -66414788.2258011     
  -66907515.9521430     
  -58587741.5724628     
  -59125913.8483075     
  -59522147.3087449     
  -59891303.6081181     
  -60323414.7715788     
  -60840489.2030868     
  -61419666.9765713     
  -62038566.8338007     
  -62662039.4344892     
  -63262471.8953665     
  -63830698.9358298     
  -64363689.2735468     
  -64860398.7457576     
  -65315563.1847355     
  -65715321.0682690     
  -58263830.9039152     
  -58696736.9725451     
  -59134834.2474349     
  -59542655.3279918     
  -59968659.0953899     
  -60432352.8509443     
  -60933046.4423770     
  -61455929.9782284     
  -61983435.2348212     
  -62499312.4551164     
  -62992080.0959177     
  -63455066.9702402     
  -63882611.3073254     
  -64267273.1724804     
  -64598192.6041454     
  -57943119.0293684     
  -58364969.8047207     
  -58765637.2554681     
  -59163569.6711422     
  -59565928.5503710     
  -59984642.7956705     
  -60421226.9155523     
  -60869620.5103644     
  -61319619.9192074     
  -61760654.6564994     
  -62183570.6762017     
  -62580870.0352935     
  -62945819.6092656     
  -63271115.0053394     
  -63548237.1633961     
  -57658171.8990726     
  -58040195.1565888     
  -58410594.1887720     
  -58775343.7287922     
  -59142217.4160522     
  -59515386.3694073     
  -59896160.8125335     
  -60281474.9521708     
  -60665415.8552719     
  -61040875.3242974     
  -61400791.1438161     
  -61738573.6560191     
  -62047935.0603980     
  -62322536.1756211     
  -62555857.7697658     
  -57390558.7093757     
  -57729207.1678224     
  -58059261.8302598     
  -58384939.0914384     
  -58709805.4308105     
  -59036440.9808173     
  -59365181.6913489     
  -59694179.2367379     
  -60019671.2119837     
  -60336775.1106989     
  -60640175.2314022     
  -60924525.2521421     
  -61184571.7039182     
  -61415171.6861702     
  -61611412.5488557     
  -57135154.5453994     
  -57426384.7380261     
  -57712212.9549426     
  -57994321.4167296     
  -58274569.7797998     
  -58554109.8215670     
  -58832970.3467875     
  -59109806.1684133     
  -59382062.1807094     
  -59646296.8377063     
  -59898568.7099102     
  -60134736.6786789     
  -60350655.8404495     
  -60542327.4364352     
  -60706091.0144867     
  -56886186.1683923     
  -57129029.3947718     
  -57368513.3479790     
  -57605025.8738238     
  -57839259.8305986     
  -58071674.2836492     
  -58302090.2668110     
  -58529522.3918892     
  -58752183.3134426     
  -58967638.2820920     
  -59173015.2775664     
  -59365215.4063909     
  -59541095.6787980     
  -59697638.7214377     
  -59832140.1171091     
  -56640194.8763471     
  -56835011.5755867     
  -57027560.1081395     
  -57217589.1150056     
  -57405253.8744675     
  -57590687.8810823     
  -57773704.8431112     
  -57953629.5922028     
  -58129260.3487018     
  -58298926.6941074     
  -58460607.8334422     
  -58612073.6426589     
  -58751029.9298594     
  -58875264.4449590     
  -58982799.5540228     
  -56395419.6068448     
  -56543212.9018420     
  -56688924.5448282     
  -56832205.4558472     
  -56973099.0926207     
  -57111727.7841714     
  -57248056.9364104     
  -57381750.9368433     
  -57512115.3588379     
  -57638111.5262576     
  -57758420.6743626     
  -57871536.6929825     
  -57975872.1321940     
  -58069869.1396851     
  -58152111.3008635     
  -56151594.9166726     
  -56253380.8913635     
  -56352520.0930078     
  -56448945.6260070     
  -56542913.9085137     
  -56634773.5744553     
  -56724785.5191596     
  -56813003.8138824     
  -56899217.8584063     
  -56982947.1790929     
  -57063476.0449285     
  -57139913.3203116     
  -57211265.9510332     
  -57276516.6390348     
  -57334698.7265194     
  -55909622.2093020     
  -55966010.5149097     
  -56018605.9842577     
  -56067895.3029122     
  -56114585.2215499     
  -56159433.9316036     
  -56203115.8624672     
  -56246128.9539763     
  -56288745.6890314     
  -56331003.0995804     
  -56372722.8395058     
  -56413550.9903734     
  -56453007.8581123     
  -56490538.6989980     
  -56525558.4862783     
  -55671276.0031807     
  -55682178.1124347     
  -55687737.9384163     
  -55689188.8378838     
  -55687861.7986423     
  -55685061.9185722     
  -55681969.3690624     
  -55679571.9819851     
  -55678630.7762161     
  -55679674.6936355     
  -55683017.3275333     
  -55688787.4967006     
  -55696963.9635139     
  -55707406.9992677     
  -55719879.6757586     
  -55438941.1727493     
  -55403368.0152026     
  -55360674.0917281     
  -55312980.9316964     
  -55262371.5356257     
  -55210798.3783755     
  -55160013.4772042     
  -55111525.5606488     
  -55066584.2326652     
  -55026187.3573363     
  -54991104.0329617     
  -54961905.2970736     
  -54938993.0703554     
  -54922619.6792281     
  -54912891.3892134     
  -55215384.4200752     
  -55131298.7784938     
  -55038255.1573339     
  -54939374.0028256     
  -54837586.5060687     
  -54735563.1678175     
  -54635667.9187022     
  -54539940.4886586     
  -54450104.3841555     
  -54367594.8609320     
  -54293598.4488854     
  -54229093.4793618     
  -54174882.4358323     
  -54131606.5627573     
  -54099735.8102819     
  -55003553.2920530     
  -54867751.8664288     
  -54721266.0315679     
  -54568312.7625658     
  -54412748.1730987     
  -54258006.9802803     
  -54107077.8247460     
  -53962513.7550351     
  -53826472.4438979     
  -53700775.6188256     
  -53586976.5186617     
  -53486422.6306795     
  -53400301.2047707     
  -53329655.6813024     
  -53275364.8175100     
  -54806395.9723039     
  -54614399.8319288     
  -54410279.2673576     
  -54199449.0202890     
  -53986758.2019035     
  -53776430.6540084     
  -53572060.8778270     
  -53376660.5013229     
  -53192743.7100758     
  -53022434.3343118     
  -52867577.4597400     
  -52729839.4222329     
  -52610777.6273651     
  -52511865.3073496     
  -52434460.9816823     
  -54626694.4135863     
  -54372627.0903506     
  -54105474.1058605     
  -53831972.3365135     
  -53558033.1411480     
  -53288672.9938773     
  -53028032.8640107     
  -52779476.1129124     
  -52545740.4571461     
  -52329116.7166386     
  -52131629.0568862     
  -51955190.3615685     
  -51801709.1277821     
  -51673128.7294569     
  -51571387.2277132     
  -54466905.6890399     
  -54143330.1089919     
  -53806415.8087494     
  -53464393.4735092     
  -53124314.9984440     
  -52791964.4139362     
  -52471912.8614554     
  -52167693.3411361     
  -51882054.1491710     
  -51617246.9950752     
  -51375307.4698032     
  -51158288.5254783     
  -50968418.7334666     
  -50808163.2632512     
  -50680173.4352331     
  -54328999.9228057     
  -53926676.1752325     
  -53511768.2278035     
  -53094254.8316907     
  -52682419.2283752     
  -52282739.6932990     
  -51900009.6686363     
  -51537639.4342353     
  -51198065.9385607     
  -50883201.0692904     
  -50594848.6868388     
  -50335043.1914354     
  -50106277.9508374     
  -49911600.0574472     
  -49754551.4292753     
  -54214285.4527553     
  -53721779.8273314     
  -53218890.2537979     
  -52717723.3580064     
  -52227893.5986149     
  -51756398.1534143     
  -51307888.9046594     
  -50885199.4146091     
  -50489995.6875947     
  -50123431.6351342     
  -49786734.8000484     
  -49481680.4306972     
  -49210924.7635355     
  -48978159.7901817     
  -48788052.7850447     
  -54123206.3400870     
  -53526229.9836000     
  -52923220.9934652     
  -52328997.6964869     
  -51754548.9947463     
  -51206999.3503322     
  -50690222.7350044     
  -50205796.8590220     
  -49753995.5151270     
  -49334666.6486931     
  -48947984.0187681     
  -48595094.8406357     
  -48278621.7361141     
  -48002950.3125072     
  -47774189.1284797     
  -54055020.0623642     
  -53335302.8635301     
  -52617300.7597951     
  -51919416.8087654     
  -51253826.0435141     
  -50626896.6002326     
  -50040639.1107185     
  -49494410.4761048     
  -48986306.9269883     
  -48514197.6211699     
  -48076576.8057721     
  -47673383.8779222     
  -47306829.0020835     
  -46981952.1772148     
  -46706750.2266905     
  -54007190.2135948     
  -53140459.7763502     
  -52289079.7179098     
  -51476126.4712163     
  -50713991.3452929     
  -50006363.9868837     
  -49351634.7227974     
  -48745661.1682684     
  -48183482.7798253     
  -47660261.8229318     
  -47172024.0049622     
  -46716656.8030297     
  -46295110.4198486     
  -45912847.9626226     
  -45580262.8007499     
  -53974126.0774053     
  -52926249.5450236     
  -51918833.0484233     
  -50980136.9146768     
  -50119306.5913242     
  -49333464.3246768     
  -48614686.3873525     
  -47954008.5115409     
  -47342631.6689867     
  -46772394.6731897     
  -46236099.0378667     
  -45728122.6001927     
  -45246755.9283167     
  -44796404.3223119     
  -44390830.5641963     
  -53943177.6312090     
  -52663148.2859790     
  -51473507.5003948     
  -50403992.8250420     
  -49450101.3452669     
  -48594532.0367645     
  -47820756.2098171     
  -47114085.1418510     
  -46461584.4260440     
  -45851570.5001526     
  -45273131.4533204     
  -44716014.2705860     
  -44171039.6778224     
  -43639971.4091452     
  -43137277.5397047     
  -53882147.7265662     
  -52286695.1977056     
  -50897473.9622677     
  -49713664.9265832     
  -48684602.7138171     
  -47775734.7785484     
  -46961254.9601775     
  -46221161.6975926     
  -45538920.4928665     
  -44899819.3193661     
  -44289576.4920666     
  -43692818.3205802     
  -43091752.8615899     
  -42461215.7985452     
  -41827501.3471177     
  -53645122.5458858     
  -51647263.6060842     
  -50128432.5721212     
  -48874947.8748578     
  -47803455.6166877     
  -46865526.0036162     
  -46029350.3187013     
  -45271671.8967272     
  -44573849.3040314     
  -43919401.4813706     
  -43291978.6019354     
  -42672942.1338570     
  -42036854.2145311     
  -41342064.6909940     
  -40467068.8261450     
SCALARS 2waySource double 
LOOKUP_TABLE default
 -5.987269704520835E-007
 -6.185698612064350E-007
 -6.373546516845784E-007
 -6.550672775539063E-007
 -6.717256771631918E-007
 -6.873595143939824E-007
 -7.020060439092310E-007
 -7.157074555278879E-007
 -7.285089836711364E-007
 -7.404573677233587E-007
 -7.515995673457373E-007
 -7.619816218693955E-007
 -7.716475194071384E-007
 -7.806380405489698E-007
 -7.889850889168466E-007
 -5.976960212171664E-007
 -6.175853350473945E-007
 -6.363671141335583E-007
 -6.540630389672321E-007
 -6.706962477888105E-007
 -6.862995858050989E-007
 -7.009122390489800E-007
 -7.145778055569292E-007
 -7.273426352732157E-007
 -7.392544402423674E-007
 -7.503610650560393E-007
 -7.607094060480715E-007
 -7.703444917303861E-007
 -7.793083322591052E-007
 -7.876403932770568E-007
 -5.959744609280716E-007
 -6.158776288740004E-007
 -6.346378240924892E-007
 -6.522868935257962E-007
 -6.688577608074912E-007
 -6.843880446000407E-007
 -6.989205304975493E-007
 -7.125017305791246E-007
 -7.251804835744845E-007
 -7.370066481591226E-007
 -7.480299485108725E-007
 -7.582989871454189E-007
 -7.678604104216846E-007
 -7.767584886645309E-007
 -7.850352183327939E-007
 -5.935986194098444E-007
 -6.134797967703383E-007
 -6.321857591625702E-007
 -6.497522511766653E-007
 -6.662190318103581E-007
 -6.816299831507860E-007
 -6.960329048854387E-007
 -7.094786072139340E-007
 -7.220196573512115E-007
 -7.337091568522064E-007
 -7.445996352692684E-007
 -7.547421064036645E-007
 -7.641853494858184E-007
 -7.729754761961051E-007
 -7.811560491024976E-007
 -5.906005175197767E-007
 -6.104248421069606E-007
 -6.290369919490339E-007
 -6.464774775335952E-007
 -6.627925453993757E-007
 -6.780328438453361E-007
 -6.922524335391903E-007
 -7.055076929640320E-007
 -7.178561126536282E-007
 -7.293550953094103E-007
 -7.400608640637090E-007
 -7.500275336871869E-007
 -7.593063861038833E-007
 -7.679454154417672E-007
 -7.759891360064163E-007
 -5.870195439203844E-007
 -6.067486354467260E-007
 -6.252213550083636E-007
 -6.424851365777700E-007
 -6.585938284328404E-007
 -6.736058530878433E-007
 -6.875827082993290E-007
 -7.005876012726095E-007
 -7.126841363594051E-007
 -7.239350788427314E-007
 -7.344012406029263E-007
 -7.441405281320508E-007
 -7.532071846194420E-007
 -7.616512420064531E-007
 -7.695181728057474E-007
 -5.829044159518731E-007
 -6.024930257742360E-007
 -6.207731085568112E-007
 -6.378013192325985E-007
 -6.536408532572082E-007
 -6.683593664813491E-007
 -6.820271679735985E-007
 -6.947156140098105E-007
 -7.064956514737569E-007
 -7.174364997454680E-007
 -7.276044844336586E-007
 -7.370620408570038E-007
 -7.458669002878560E-007
 -7.540714620064893E-007
 -7.617223365786080E-007
 -5.783136200455004E-007
 -5.977068759088072E-007
 -6.157313688904596E-007
 -6.324553365218975E-007
 -6.479533664851451E-007
 -6.623041182937340E-007
 -6.755882943864561E-007
 -6.878868391948767E-007
 -6.992793394602260E-007
 -7.098426104432955E-007
 -7.196494633950545E-007
 -7.287676542493172E-007
 -7.372590118037381E-007
 -7.451787386718901E-007
 -7.525748730353310E-007
 -5.733154030101298E-007
 -5.924462003365516E-007
 -6.101400632556692E-007
 -6.264793208520664E-007
 -6.415522040173556E-007
 -6.554503676585253E-007
 -6.682666705945047E-007
 -6.800932090892337E-007
 -6.910195896068011E-007
 -7.011314242501962E-007
 -7.105090340874358E-007
 -7.192263463356974E-007
 -7.273499704377459E-007
 -7.349384377589118E-007
 -7.420415906435353E-007
 -5.679876494362360E-007
 -5.867739262694049E-007
 -6.040475377726059E-007
 -6.199076083801124E-007
 -6.344584560464769E-007
 -6.478069043624394E-007
 -6.600598825100967E-007
 -6.713223136343374E-007
 -6.816952800284320E-007
 -6.912744459446354E-007
 -7.001487135842180E-007
 -7.083990848217544E-007
 -7.160977003461901E-007
 -7.233070294369546E-007
 -7.300791898036625E-007
 -5.624175856752911E-007
 -5.807593904773300E-007
 -5.975058642456186E-007
 -6.127758577420164E-007
 -6.266924140994750E-007
 -6.393798613845366E-007
 -6.509612391449918E-007
 -6.615560599819209E-007
 -6.712783932257136E-007
 -6.802352451409821E-007
 -6.885251993291252E-007
 -6.962372740106882E-007
 -7.034499504460805E-007
 -7.102303304333707E-007
 -7.166333906319705E-007
 -5.567012567505919E-007
 -5.744775590604828E-007
 -5.905698470956896E-007
 -6.051198770673039E-007
 -6.182722529271285E-007
 -6.301712916855676E-007
 -6.409582834067728E-007
 -6.507691476197757E-007
 -6.597324707194599E-007
 -6.679678887573783E-007
 -6.755847626689558E-007
 -6.826810806666747E-007
 -6.893425184391927E-007
 -6.956415928718770E-007
 -7.016368593717407E-007
 -5.509427151966764E-007
 -5.680079283717941E-007
 -5.832956951499108E-007
 -5.969741200984031E-007
 -6.092124031170642E-007
 -6.201774687724432E-007
 -6.300310664249880E-007
 -6.389273494326940E-007
 -6.470109153569507E-007
 -6.544152578592582E-007
 -6.612615526943256E-007
 -6.676576809909349E-007
 -6.736973866183875E-007
 -6.794594716807229E-007
 -6.850069543483072E-007
 -5.452528531380246E-007
 -5.614330469864861E-007
 -5.757393019012441E-007
 -5.883697939947561E-007
 -5.995215585519178E-007
 -6.093868640107383E-007
 -6.181501552969128E-007
 -6.259855913913146E-007
 -6.330551583185260E-007
 -6.395072877567938E-007
 -6.454758666438948E-007
 -6.510794945664266E-007
 -6.564208365342817E-007
 -6.615859303917055E-007
 -6.666433368212850E-007
 -5.397478078624428E-007
 -5.548365877203787E-007
 -5.679540573700657E-007
 -5.793324990199308E-007
 -5.892002426744162E-007
 -5.977777388876506E-007
 -6.052743365836995E-007
 -6.118858245357112E-007
 -6.177927182996610E-007
 -6.231591902386318E-007
 -6.281324702828379E-007
 -6.328425040320915E-007
 -6.374016455485599E-007
 -6.419041813461783E-007
 -6.464255243423209E-007
 -5.345468761547270E-007
 -5.483008869086204E-007
 -5.599880897460862E-007
 -5.698792865023718E-007
 -5.782378235173439E-007
 -5.853152631741785E-007
 -5.913479634447427E-007
 -5.965546835328830E-007
 -6.011351959197562E-007
 -6.052697456905987E-007
 -6.091190909701636E-007
 -6.128248051102158E-007
 -6.165095173669021E-007
 -6.202768046179047E-007
 -6.242105081794999E-007
 -5.297698869382900E-007
 -5.419038541227676E-007
 -5.518807957374189E-007
 -5.600149682561375E-007
 -5.666088130678472E-007
 -5.719480271193914E-007
 -5.762978708131417E-007
 -5.799009259756744E-007
 -5.829762689950677E-007
 -5.857197934099286E-007
 -5.883052601004237E-007
 -5.908855939105001E-007
 -5.935939642601063E-007
 -5.965442545334634E-007
 -5.998306154825059E-007
 -5.255340049134385E-007
 -5.357151300766250E-007
 -5.436584521642325E-007
 -5.497274217111383E-007
 -5.542681980986517E-007
 -5.576037478074256E-007
 -5.600297484469821E-007
 -5.618126487004191E-007
 -5.631897887253272E-007
 -5.643711083755681E-007
 -5.655417574601806E-007
 -5.668648828924899E-007
 -5.684839455542023E-007
 -5.705240470311381E-007
 -5.730918746128644E-007
 -5.219499718475427E-007
 -5.297913182327099E-007
 -5.353285813893257E-007
 -5.389814823973881E-007
 -5.411454050373204E-007
 -5.421838662329906E-007
 -5.424238153964277E-007
 -5.421542881525128E-007
 -5.416281342889507E-007
 -5.410659407999360E-007
 -5.406610160323341E-007
 -5.405843500666911E-007
 -5.409886810831162E-007
 -5.420110303718997E-007
 -5.437732407546330E-007
 -5.191178292350034E-007
 -5.241700061166159E-007
 -5.268725240439253E-007
 -5.277107540933438E-007
 -5.271362701465060E-007
 -5.255565807850849E-007
 -5.233295867569007E-007
 -5.207634466398222E-007
 -5.181210791832625E-007
 -5.156276263672764E-007
 -5.134789925891862E-007
 -5.118498771546996E-007
 -5.109002058422603E-007
 -5.107792801666007E-007
 -5.116271613232138E-007
 -5.171221930793111E-007
 -5.188620626931118E-007
 -5.182352642328634E-007
 -5.158062144000849E-007
 -5.120920207288541E-007
 -5.075476602370886E-007
 -5.025594881293118E-007
 -4.974476756633939E-007
 -4.924755849779183E-007
 -4.878628676211433E-007
 -4.837992102315945E-007
 -4.804565301764461E-007
 -4.779984240354059E-007
 -4.765863370752747E-007
 -4.763821097574783E-007
 -5.160271319284634E-007
 -5.138412161383898E-007
 -5.093107774313606E-007
 -5.030997080902556E-007
 -4.958037195641305E-007
 -4.879281518374291E-007
 -4.798811195037417E-007
 -4.719815516624915E-007
 -4.644771984698958E-007
 -4.575665568336924E-007
 -4.514199407110801E-007
 -4.461969957609805E-007
 -4.420596736264566E-007
 -4.391807443570078E-007
 -4.377479023027758E-007
 -5.158705587687872E-007
 -5.090288865588277E-007
 -4.999196626786846E-007
 -4.893390508172928E-007
 -4.779798543970021E-007
 -4.663979809177350E-007
 -4.550082578083009E-007
 -4.441047871340111E-007
 -4.338941097272436E-007
 -4.245303364191428E-007
 -4.161458210801932E-007
 -4.088748177857883E-007
 -4.028701821544562E-007
 -3.983141902972081E-007
 -3.954248796934762E-007
 -5.166575871786582E-007
 -5.042699834397361E-007
 -4.897727308116426E-007
 -4.741491065438224E-007
 -4.582139144793940E-007
 -4.425648553177584E-007
 -4.275915628822006E-007
 -4.135228426321723E-007
 -4.004853341340694E-007
 -3.885564011074589E-007
 -3.778055046481542E-007
 -3.683242893119417E-007
 -3.602463266224147E-007
 -3.537602213725111E-007
 -3.491184750982771E-007
 -5.183512173168877E-007
 -4.992898152098794E-007
 -4.784076822751776E-007
 -4.569692863194204E-007
 -4.359387660722358E-007
 -4.159200532709977E-007
 -3.972120152791386E-007
 -3.799124784701379E-007
 -3.640146176908351E-007
 -3.494778208438194E-007
 -3.362773889922785E-007
 -3.244393382002217E-007
 -3.140649507476334E-007
 -3.053425037592132E-007
 -2.985618603343977E-007
 -5.208545387755707E-007
 -4.936082770951870E-007
 -4.650707541886520E-007
 -4.369530022558174E-007
 -4.103690116654052E-007
 -3.858190361051173E-007
 -3.633841949043290E-007
 -3.429352449963454E-007
 -3.242701955602213E-007
 -3.071858581973034E-007
 -2.915243136896574E-007
 -2.772164824948832E-007
 -2.643076330291503E-007
 -2.529799594420490E-007
 -2.435511331186018E-007
 -5.239707232386338E-007
 -4.863389436838342E-007
 -4.484837703630445E-007
 -4.128164081405902E-007
 -3.804513470996809E-007
 -3.514909402398425E-007
 -3.255793292535709E-007
 -3.022609342888102E-007
 -2.810872783415893E-007
 -2.616574461862122E-007
 -2.436409906784996E-007
 -2.268119968584206E-007
 -2.111379474990280E-007
 -1.967531725348724E-007
 -1.840109608196858E-007
 -5.272300212396094E-007
 -4.756683269849147E-007
 -4.263693650597543E-007
 -3.826785508049311E-007
 -3.449164877975441E-007
 -3.121039787933759E-007
 -2.832770179184209E-007
 -2.575991250809886E-007
 -2.343647469167241E-007
 -2.129690055644391E-007
 -1.928838929206478E-007
 -1.736608801864282E-007
 -1.549867869184746E-007
 -1.370753947652611E-007
 -1.200949972692919E-007
 -5.292720156129306E-007
 -4.570571350696932E-007
 -3.947392500749407E-007
 -3.443571326034429E-007
 -3.024850302788101E-007
 -2.669044925422379E-007
 -2.360400431479463E-007
 -2.087316953112631E-007
 -1.840664982927582E-007
 -1.612733834347625E-007
 -1.396468863231417E-007
 -1.184848724914282E-007
 -9.705744239254893E-008
 -7.465284821304743E-008
 -5.269745066927893E-008
 -5.199791016506919E-007
 -4.191555709773406E-007
 -3.498033792220598E-007
 -2.960360513721151E-007
 -2.522349111538918E-007
 -2.153821840311068E-007
 -1.835900358370789E-007
 -1.555357511323801E-007
 -1.302036121815413E-007
 -1.067363846945464E-007
 -8.432698236718778E-008
 -6.210831197212659E-008
 -3.899701846775915E-008
 -1.336188422726549E-008
  1.719527182350720E-008
SCALARS poroP double 
LOOKUP_TABLE default
  7.103241046715173E-005
  6.288672371905923E-005
  5.083237646061758E-005
  3.888598553083327E-005
  2.989272511955490E-005
  2.329587921953648E-005
  1.845760543403970E-005
  1.732776960246050E-005
  1.731076520151842E-005
  1.729230094343645E-005
  1.727243843280273E-005
  1.725124919852403E-005
  1.722881523673263E-005
  1.720522945397869E-005
  1.718059601473932E-005
  5.118552280036283E-005
  4.119710063303082E-005
  3.278847168817373E-005
  2.661066205692416E-005
  2.162178046954648E-005
  1.804202087069710E-005
  1.734293383106699E-005
  1.732748157700446E-005
  1.731052767776488E-005
  1.729212489095388E-005
  1.727233505544657E-005
  1.725122963149731E-005
  1.722889030169529E-005
  1.720540943930458E-005
  1.718089042027284E-005
  3.155713104396667E-005
  2.380629098824504E-005
  1.982424898100933E-005
  1.776957804277157E-005
  1.736839314528279E-005
  1.735611643306814E-005
  1.734227395957648E-005
  1.732690440112980E-005
  1.731005372312399E-005
  1.729177574520774E-005
  1.727213268821695E-005
  1.725119578615411E-005
  1.722904608082969E-005
  1.720577490468536E-005
  1.718148399693912E-005
  1.941524016216930E-005
  1.739423066658598E-005
  1.738685032032934E-005
  1.737783617481989E-005
  1.736721431748692E-005
  1.735501534927856E-005
  1.734127523926923E-005
  1.732603588279506E-005
  1.730934555401326E-005
  1.729125939015199E-005
  1.727183998592458E-005
  1.725115815638489E-005
  1.722929387658806E-005
  1.720633668022162E-005
  1.718238614149260E-005
  1.739810717356002E-005
  1.739241740497457E-005
  1.738508438953668E-005
  1.737613536115954E-005
  1.736560147618644E-005
  1.735351850842425E-005
  1.733992708899483E-005
  1.732487282874761E-005
  1.730840652386567E-005
  1.729058458461625E-005
  1.727146972970051E-005
  1.725113213278351E-005
  1.722965000971658E-005
  1.720711052179841E-005
  1.718361088667933E-005
  1.739566429150086E-005
  1.739003031793998E-005
  1.738277268227056E-005
  1.737392336013022E-005
  1.736351910606596E-005
  1.735160130526014E-005
  1.733821550077313E-005
  1.732341102462407E-005
  1.730724097827472E-005
  1.728976266035305E-005
  1.727103843161973E-005
  1.725113711602510E-005
  1.723013510956856E-005
  1.720811697307640E-005
  1.718517674260472E-005
  1.739253150736392E-005
  1.738698546266049E-005
  1.737984325743164E-005
  1.737114147780310E-005
  1.736092242803901E-005
  1.734923289564565E-005
  1.733612293586830E-005
  1.732164501275364E-005
  1.730585381761524E-005
  1.728880681409097E-005
  1.727056539837374E-005
  1.725119655426382E-005
  1.723077431963157E-005
  1.720938058739597E-005
  1.718710629390272E-005
  1.738859183465296E-005
  1.738317909346732E-005
  1.737620777523983E-005
  1.736771812479004E-005
  1.735775711640697E-005
  1.734637592579379E-005
  1.733362793085369E-005
  1.731956749007381E-005
  1.730424970682053E-005
  1.728773116695745E-005
  1.727007174704505E-005
  1.725133620906568E-005
  1.723159559853593E-005
  1.721092941341478E-005
  1.718942614279908E-005
  1.738370416376670E-005
  1.737848679525585E-005
  1.737176089997776E-005
  1.736356838193474E-005
  1.735395887585315E-005
  1.734298593174287E-005
  1.733070421041164E-005
  1.731716807727079E-005
  1.730243151378266E-005
  1.728654914926533E-005
  1.726957851136757E-005
  1.725158204156885E-005
  1.723262826414433E-005
  1.721279435162610E-005
  1.719216682491422E-005
  1.737770274181692E-005
  1.737276316598100E-005
  1.736638004438702E-005
  1.735859358561748E-005
  1.734945272653299E-005
  1.733901018879522E-005
  1.732731903754462E-005
  1.731443122578340E-005
  1.730039785276501E-005
  1.728527073198782E-005
  1.726910460840699E-005
  1.725195937052054E-005
  1.723390199060544E-005
  1.721500811932958E-005
  1.719536249883226E-005
  1.737039793922833E-005
  1.736584239310107E-005
  1.735992555223736E-005
  1.735268090406919E-005
  1.734415180926875E-005
  1.733438571855855E-005
  1.732343047835686E-005
  1.731133294792597E-005
  1.729813966200811E-005
  1.728389888578906E-005
  1.726866290573426E-005
  1.725248979649902E-005
  1.723544556383765E-005
  1.721760474600484E-005
  1.719905067898157E-005
  1.736157902680354E-005
  1.735754016514210E-005
  1.735224143946899E-005
  1.734570276020955E-005
  1.733795544543402E-005
  1.732903614042570E-005
  1.731898330823410E-005
  1.730783613346019E-005
  1.729563535684918E-005
  1.728242566695687E-005
  1.726825777575319E-005
  1.725318906653033E-005
  1.723728459175793E-005
  1.722061797085499E-005
  1.720327172284238E-005
  1.735101985623758E-005
  1.734765740745982E-005
  1.734315682240494E-005
  1.733751595389222E-005
  1.733074621263878E-005
  1.732286711740478E-005
  1.731390342945790E-005
  1.730388450824033E-005
  1.729284505533331E-005
  1.728082708471688E-005
  1.726788080724852E-005
  1.725406331194145E-005
  1.723943913975010E-005
  1.722408082744865E-005
  1.720806879361573E-005
  1.733848845948339E-005
  1.733598638919421E-005
  1.733248821140336E-005
  1.732796039392116E-005
  1.732238581854782E-005
  1.731576026030154E-005
  1.730809077587803E-005
  1.729939542532891E-005
  1.728970372926881E-005
  1.727905687797633E-005
  1.726750528891594E-005
  1.725510614319598E-005
  1.724192305119879E-005
  1.722802499634423E-005
  1.721348696343012E-005
  1.732376152204332E-005
  1.732231983011874E-005
  1.732004300501121E-005
  1.731685765711132E-005
  1.731270992477240E-005
  1.730756560919268E-005
  1.730141074536148E-005
  1.729425152476632E-005
  1.728611395811050E-005
  1.727704055215563E-005
  1.726708247769207E-005
  1.725629635342372E-005
  1.724474183032624E-005
  1.723247905559347E-005
  1.721957153574087E-005
  1.730664393418530E-005
  1.730646354853400E-005
  1.730562493781221E-005
  1.730401012956256E-005
  1.730152267521235E-005
  1.729809345677925E-005
  1.729368499062549E-005
  1.728829203129872E-005
  1.728193917337963E-005
  1.727467055248101E-005
  1.726653795081467E-005
  1.725759487636657E-005
  1.724789004878138E-005
  1.723746597789375E-005
  1.722636548078570E-005
  1.728699331790635E-005
  1.728825278438864E-005
  1.728904257869270E-005
  1.728920238418957E-005
  1.728859249151698E-005
  1.728710685272959E-005
  1.728468293150018E-005
  1.728130489851572E-005
  1.727699628519267E-005
  1.727180102251241E-005
  1.726576849937006E-005
  1.725894183288068E-005
  1.725134785462248E-005
  1.724299900963846E-005
  1.723390547173691E-005
  1.726474762640838E-005
  1.726757269789337E-005
  1.727012240463243E-005
  1.727220718330306E-005
  1.727365179624874E-005
  1.727431677726259E-005
  1.727411552590252E-005
  1.727302123668090E-005
  1.727105183299821E-005
  1.726824493598149E-005
  1.726463883635044E-005
  1.726025226187554E-005
  1.725507506847645E-005
  1.724907503526106E-005
  1.724221656271211E-005
  1.723995136543586E-005
  1.724438139742583E-005
  1.724872848306982E-005
  1.725279957923738E-005
  1.725640450263209E-005
  1.725938390125483E-005
  1.726163385187393E-005
  1.726311236628066E-005
  1.726381937068795E-005
  1.726377176982647E-005
  1.726297702199311E-005
  1.726140849689962E-005
  1.725900146597942E-005
  1.725566509846401E-005
  1.725130591563584E-005
  1.721277359932170E-005
  1.721873201058591E-005
  1.722478733171113E-005
  1.723078136819235E-005
  1.723654661953018E-005
  1.724193408286036E-005
  1.724683770865615E-005
  1.725119298158547E-005
  1.725495985239342E-005
  1.725810342282151E-005
  1.726056511767107E-005
  1.726224666800557E-005
  1.726301229250554E-005
  1.726270257294116E-005
  1.726115655398609E-005
  1.718350859997149E-005
  1.719078476302158E-005
  1.719831230247559E-005
  1.720601559066136E-005
  1.721380494397005E-005
  1.722159386189125E-005
  1.722930216624355E-005
  1.723683765453051E-005
  1.724408565921720E-005
  1.725090432475937E-005
  1.725712016594031E-005
  1.726253437428417E-005
  1.726692844607365E-005
  1.727006956368623E-005
  1.727172179016128E-005
  1.715255558233270E-005
  1.716080178831689E-005
  1.716941660830321E-005
  1.717846325271182E-005
  1.718799431443370E-005
  1.719805484949620E-005
  1.720863496243378E-005
  1.721961645969157E-005
  1.723076440437494E-005
  1.724176040284388E-005
  1.725226112085197E-005
  1.726193810428864E-005
  1.727048114980826E-005
  1.727758200936562E-005
  1.728292168564959E-005
  1.712038002681878E-005
  1.712911821232637E-005
  1.713831296330068E-005
  1.714821216644052E-005
  1.715908394934473E-005
  1.717117140840328E-005
  1.718457613932150E-005
  1.719915641649877E-005
  1.721452557347499E-005
  1.723014643202012E-005
  1.724546237926939E-005
  1.725998114462852E-005
  1.727328270138626E-005
  1.728497401161329E-005
  1.729463806252437E-005
  1.708744580053931E-005
  1.709609277521292E-005
  1.710527954021495E-005
  1.711548964057580E-005
  1.712727057666875E-005
  1.714108720056950E-005
  1.715713164195934E-005
  1.717522953266388E-005
  1.719488536647234E-005
  1.721539801228547E-005
  1.723600162819218E-005
  1.725599389544813E-005
  1.727478945550723E-005
  1.729187376773096E-005
  1.730670768866605E-005
  1.705411849115876E-005
  1.706201426338181E-005
  1.707060195934730E-005
  1.708066506047922E-005
  1.709304843883160E-005
  1.710834054028697E-005
  1.712668131233196E-005
  1.714786408690284E-005
  1.717143959159955E-005
  1.719674601292714E-005
  1.722292996273373E-005
  1.724904971271474E-005
  1.727423768646163E-005
  1.729775870936966E-005
  1.731891040122419E-005
  1.702072339474908E-005
  1.702704920324463E-005
  1.703452761919421E-005
  1.704428537307813E-005
  1.705726732143084E-005
  1.707384150982248E-005
  1.709395394598570E-005
  1.711743391102763E-005
  1.714407024380477E-005
  1.717351455991876E-005
  1.720512482330097E-005
  1.723788082354788E-005
  1.727052576573480E-005
  1.730188221420620E-005
  1.733094141451588E-005
  1.698745492074543E-005
  1.699128752052816E-005
  1.699743825168418E-005
  1.700724847495146E-005
  1.702104074728062E-005
  1.703862241174149E-005
  1.705983508735480E-005
  1.708465867654222E-005
  1.711319183106302E-005
  1.714553868178465E-005
  1.718161400037801E-005
  1.722086976515006E-005
  1.726199828563126E-005
  1.730306504012750E-005
  1.734236884165617E-005
  1.695427316682586E-005
  1.695488341577014E-005
  1.696041014996091E-005
  1.697083586014260E-005
  1.698534280162420E-005
  1.700346993461176E-005
  1.702512988351912E-005
  1.705047199124639E-005
  1.707980085267472E-005
  1.711357457564990E-005
  1.715235651536939E-005
  1.719659563362879E-005
  1.724615622860970E-005
  1.729927417470965E-005
  1.735241980307616E-005
  1.692066980466462E-005
  1.691946825451033E-005
  1.692532346222258E-005
  1.693594522482945E-005
  1.695057223510006E-005
  1.696877412645089E-005
  1.699045936377241E-005
  1.701580263670243E-005
  1.704518236893278E-005
  1.707921871799554E-005
  1.711886540278149E-005
  1.716545385194188E-005
  1.722062620705448E-005
  1.728604597144151E-005
  1.735927201708890E-005
  1.689180333519977E-005
  1.688859004719328E-005
  1.689270765048072E-005
  1.690252519054997E-005
  1.691675257394180E-005
  1.693475347960539E-005
  1.695627530417548E-005
  1.698138976581903E-005
  1.701047420662652E-005
  1.704421369290617E-005
  1.708364972913402E-005
  1.713042903416215E-005
  1.718729816800675E-005
  1.725903281179834E-005
  1.735612347373390E-005
SCALARS elementIsPlast double 
LOOKUP_TABLE default
  0.000000000000000E+000
  0.000000000000000E+000
  0.000000000000000E+000
  0.000000000000000E+000
  0.000000000000000E+000
  0.000000000000000E+000
  0.000000000000000E+000
  0.000000000000000E+000
  0.000000000000000E+000
  0.000000000000000E+000
  0.000000000000000E+000
  0.000000000000000E+000
  0.000000000000000E+000
  0.000000000000000E+000
  0.000000000000000E+000
  0.000000000000000E+000
  0.000000000000000E+000
  0.000000000000000E+000
  0.000000000000000E+000
  0.000000000000000E+000
  0.000000000000000E+000
  0.000000000000000E+000
  0.000000000000000E+000
  0.000000000000000E+000
  0.000000000000000E+000
  0.000000000000000E+000
  0.000000000000000E+000
  0.000000000000000E+000
  0.000000000000000E+000
  0.000000000000000E+000
  0.000000000000000E+000
  0.000000000000000E+000
  0.000000000000000E+000
  0.000000000000000E+000
  0.000000000000000E+000
  0.000000000000000E+000
  0.000000000000000E+000
  0.000000000000000E+000
  0.000000000000000E+000
  0.000000000000000E+000
  0.000000000000000E+000
  0.000000000000000E+000
  0.000000000000000E+000
  0.000000000000000E+000
  0.000000000000000E+000
  0.000000000000000E+000
  0.000000000000000E+000
  0.000000000000000E+000
  0.000000000000000E+000
  0.000000000000000E+000
  0.000000000000000E+000
  0.000000000000000E+000
  0.000000000000000E+000
  0.000000000000000E+000
  0.000000000000000E+000
  0.000000000000000E+000
  0.000000000000000E+000
  0.000000000000000E+000
  0.000000000000000E+000
  0.000000000000000E+000
  0.000000000000000E+000
  0.000000000000000E+000
  0.000000000000000E+000
  0.000000000000000E+000
  0.000000000000000E+000
  0.000000000000000E+000
  0.000000000000000E+000
  0.000000000000000E+000
  0.000000000000000E+000
  0.000000000000000E+000
  0.000000000000000E+000
  0.000000000000000E+000
  0.000000000000000E+000
  0.000000000000000E+000
  0.000000000000000E+000
  0.000000000000000E+000
  0.000000000000000E+000
  0.000000000000000E+000
  0.000000000000000E+000
  0.000000000000000E+000
  0.000000000000000E+000
  0.000000000000000E+000
  0.000000000000000E+000
  0.000000000000000E+000
  0.000000000000000E+000
  0.000000000000000E+000
  0.000000000000000E+000
  0.000000000000000E+000
  0.000000000000000E+000
  0.000000000000000E+000
  0.000000000000000E+000
  0.000000000000000E+000
  0.000000000000000E+000
  0.000000000000000E+000
  0.000000000000000E+000
  0.000000000000000E+000
  0.000000000000000E+000
  0.000000000000000E+000
  0.000000000000000E+000
  0.000000000000000E+000
  0.000000000000000E+000
  0.000000000000000E+000
  0.000000000000000E+000
  0.000000000000000E+000
  0.000000000000000E+000
  0.000000000000000E+000
  0.000000000000000E+000
  0.000000000000000E+000
  0.000000000000000E+000
  0.000000000000000E+000
  0.000000000000000E+000
  0.000000000000000E+000
  0.000000000000000E+000
  0.000000000000000E+000
  0.000000000000000E+000
  0.000000000000000E+000
  0.000000000000000E+000
  0.000000000000000E+000
  0.000000000000000E+000
  0.000000000000000E+000
  0.000000000000000E+000
  0.000000000000000E+000
  0.000000000000000E+000
  0.000000000000000E+000
  0.000000000000000E+000
  0.000000000000000E+000
  0.000000000000000E+000
  0.000000000000000E+000
  0.000000000000000E+000
  0.000000000000000E+000
  0.000000000000000E+000
  0.000000000000000E+000
  0.000000000000000E+000
  0.000000000000000E+000
  0.000000000000000E+000
  0.000000000000000E+000
  0.000000000000000E+000
  0.000000000000000E+000
  0.000000000000000E+000
  0.000000000000000E+000
  0.000000000000000E+000
  0.000000000000000E+000
  0.000000000000000E+000
  0.000000000000000E+000
  0.000000000000000E+000
  0.000000000000000E+000
  0.000000000000000E+000
  0.000000000000000E+000
  0.000000000000000E+000
  0.000000000000000E+000
  0.000000000000000E+000
  0.000000000000000E+000
  0.000000000000000E+000
  0.000000000000000E+000
  0.000000000000000E+000
  0.000000000000000E+000
  0.000000000000000E+000
  0.000000000000000E+000
  0.000000000000000E+000
  0.000000000000000E+000
  0.000000000000000E+000
  0.000000000000000E+000
  0.000000000000000E+000
  0.000000000000000E+000
  0.000000000000000E+000
  0.000000000000000E+000
  0.000000000000000E+000
  0.000000000000000E+000
  0.000000000000000E+000
  0.000000000000000E+000
  0.000000000000000E+000
  0.000000000000000E+000
  0.000000000000000E+000
  0.000000000000000E+000
  0.000000000000000E+000
  0.000000000000000E+000
  0.000000000000000E+000
  0.000000000000000E+000
  0.000000000000000E+000
  0.000000000000000E+000
  0.000000000000000E+000
  0.000000000000000E+000
  0.000000000000000E+000
  0.000000000000000E+000
  0.000000000000000E+000
  0.000000000000000E+000
  0.000000000000000E+000
  0.000000000000000E+000
  0.000000000000000E+000
  0.000000000000000E+000
  0.000000000000000E+000
  0.000000000000000E+000
  0.000000000000000E+000
  0.000000000000000E+000
  0.000000000000000E+000
  0.000000000000000E+000
  0.000000000000000E+000
  0.000000000000000E+000
  0.000000000000000E+000
  0.000000000000000E+000
  0.000000000000000E+000
  0.000000000000000E+000
  0.000000000000000E+000
  0.000000000000000E+000
  0.000000000000000E+000
  0.000000000000000E+000
  0.000000000000000E+000
  0.000000000000000E+000
  0.000000000000000E+000
  0.000000000000000E+000
  0.000000000000000E+000
  0.000000000000000E+000
  0.000000000000000E+000
  0.000000000000000E+000
  0.000000000000000E+000
  0.000000000000000E+000
  0.000000000000000E+000
  0.000000000000000E+000
  0.000000000000000E+000
  0.000000000000000E+000
  0.000000000000000E+000
  0.000000000000000E+000
  0.000000000000000E+000
  0.000000000000000E+000
  0.000000000000000E+000
  0.000000000000000E+000
  0.000000000000000E+000
  0.000000000000000E+000
  0.000000000000000E+000
  0.000000000000000E+000
  0.000000000000000E+000
  0.000000000000000E+000
  0.000000000000000E+000
  0.000000000000000E+000
  0.000000000000000E+000
  0.000000000000000E+000
  0.000000000000000E+000
  0.000000000000000E+000
  0.000000000000000E+000
  0.000000000000000E+000
  0.000000000000000E+000
  0.000000000000000E+000
  0.000000000000000E+000
  0.000000000000000E+000
  0.000000000000000E+000
  0.000000000000000E+000
  0.000000000000000E+000
  0.000000000000000E+000
  0.000000000000000E+000
  0.000000000000000E+000
  0.000000000000000E+000
  0.000000000000000E+000
  0.000000000000000E+000
  0.000000000000000E+000
  0.000000000000000E+000
  0.000000000000000E+000
  0.000000000000000E+000
  0.000000000000000E+000
  0.000000000000000E+000
  0.000000000000000E+000
  0.000000000000000E+000
  0.000000000000000E+000
  0.000000000000000E+000
  0.000000000000000E+000
  0.000000000000000E+000
  0.000000000000000E+000
  0.000000000000000E+000
  0.000000000000000E+000
  0.000000000000000E+000
  0.000000000000000E+000
  0.000000000000000E+000
  0.000000000000000E+000
  0.000000000000000E+000
  0.000000000000000E+000
  0.000000000000000E+000
  0.000000000000000E+000
  0.000000000000000E+000
  0.000000000000000E+000
  0.000000000000000E+000
  0.000000000000000E+000
  0.000000000000000E+000
  0.000000000000000E+000
  0.000000000000000E+000
  0.000000000000000E+000
  0.000000000000000E+000
  0.000000000000000E+000
  0.000000000000000E+000
  0.000000000000000E+000
  0.000000000000000E+000
  0.000000000000000E+000
  0.000000000000000E+000
  0.000000000000000E+000
  0.000000000000000E+000
  0.000000000000000E+000
  0.000000000000000E+000
  0.000000000000000E+000
  0.000000000000000E+000
  0.000000000000000E+000
  0.000000000000000E+000
  0.000000000000000E+000
  0.000000000000000E+000
  0.000000000000000E+000
  0.000000000000000E+000
  0.000000000000000E+000
  0.000000000000000E+000
  0.000000000000000E+000
  0.000000000000000E+000
  0.000000000000000E+000
  0.000000000000000E+000
  0.000000000000000E+000
  0.000000000000000E+000
  0.000000000000000E+000
  0.000000000000000E+000
  0.000000000000000E+000
  0.000000000000000E+000
  0.000000000000000E+000
  0.000000000000000E+000
  0.000000000000000E+000
  0.000000000000000E+000
  0.000000000000000E+000
  0.000000000000000E+000
  0.000000000000000E+000
  0.000000000000000E+000
  0.000000000000000E+000
  0.000000000000000E+000
  0.000000000000000E+000
  0.000000000000000E+000
  0.000000000000000E+000
  0.000000000000000E+000
  0.000000000000000E+000
  0.000000000000000E+000
  0.000000000000000E+000
  0.000000000000000E+000
  0.000000000000000E+000
  0.000000000000000E+000
  0.000000000000000E+000
  0.000000000000000E+000
  0.000000000000000E+000
  0.000000000000000E+000
  0.000000000000000E+000
  0.000000000000000E+000
  0.000000000000000E+000
  0.000000000000000E+000
  0.000000000000000E+000
  0.000000000000000E+000
  0.000000000000000E+000
  0.000000000000000E+000
  0.000000000000000E+000
  0.000000000000000E+000
  0.000000000000000E+000
  0.000000000000000E+000
  0.000000000000000E+000
  0.000000000000000E+000
  0.000000000000000E+000
  0.000000000000000E+000
  0.000000000000000E+000
  0.000000000000000E+000
  0.000000000000000E+000
  0.000000000000000E+000
  0.000000000000000E+000
  0.000000000000000E+000
  0.000000000000000E+000
  0.000000000000000E+000
  0.000000000000000E+000
  0.000000000000000E+000
  0.000000000000000E+000
  0.000000000000000E+000
  0.000000000000000E+000
  0.000000000000000E+000
  0.000000000000000E+000
  0.000000000000000E+000
  0.000000000000000E+000
  0.000000000000000E+000
  0.000000000000000E+000
  0.000000000000000E+000
  0.000000000000000E+000
  0.000000000000000E+000
  0.000000000000000E+000
  0.000000000000000E+000
  0.000000000000000E+000
  0.000000000000000E+000
  0.000000000000000E+000
  0.000000000000000E+000
  0.000000000000000E+000
  0.000000000000000E+000
  0.000000000000000E+000
  0.000000000000000E+000
  0.000000000000000E+000
  0.000000000000000E+000
  0.000000000000000E+000
  0.000000000000000E+000
  0.000000000000000E+000
  0.000000000000000E+000
  0.000000000000000E+000
  0.000000000000000E+000
  0.000000000000000E+000
  0.000000000000000E+000
  0.000000000000000E+000
  0.000000000000000E+000
  0.000000000000000E+000
  0.000000000000000E+000
  0.000000000000000E+000
  0.000000000000000E+000
  0.000000000000000E+000
  0.000000000000000E+000
  0.000000000000000E+000
  0.000000000000000E+000
  0.000000000000000E+000
  0.000000000000000E+000
  0.000000000000000E+000
  0.000000000000000E+000
  0.000000000000000E+000
  0.000000000000000E+000
  0.000000000000000E+000
  0.000000000000000E+000
  0.000000000000000E+000
  0.000000000000000E+000
  0.000000000000000E+000
  0.000000000000000E+000
  0.000000000000000E+000
  0.000000000000000E+000
  0.000000000000000E+000
  0.000000000000000E+000
  0.000000000000000E+000
  0.000000000000000E+000
  0.000000000000000E+000
  0.000000000000000E+000
  0.000000000000000E+000
  0.000000000000000E+000
  0.000000000000000E+000
  0.000000000000000E+000
  0.000000000000000E+000
  0.000000000000000E+000
  0.000000000000000E+000
  0.000000000000000E+000
  0.000000000000000E+000
  0.000000000000000E+000
  0.000000000000000E+000
  0.000000000000000E+000
  0.000000000000000E+000
  0.000000000000000E+000
  0.000000000000000E+000
  0.000000000000000E+000
  0.000000000000000E+000
  0.000000000000000E+000
  0.000000000000000E+000
  0.000000000000000E+000
  0.000000000000000E+000
  0.000000000000000E+000
  0.000000000000000E+000
SCALARS poroL double 
LOOKUP_TABLE default
  0.156166596786730     
  0.156160438794425     
  0.156146965248819     
  0.156129488852613     
  0.156110347022120     
  0.156091523308434     
  0.156074707568955     
  0.156063379063787     
  0.156055634684520     
  0.156049169741467     
  0.156043436662252     
  0.156038108246068     
  0.156032900079435     
  0.156027451356121     
  0.156020822278947     
  0.156127767432913     
  0.156115218541658     
  0.156103804398670     
  0.156092688328639     
  0.156080671235517     
  0.156069288360409     
  0.156060803460052     
  0.156053590115324     
  0.156046726472190     
  0.156040692292809     
  0.156035241169782     
  0.156030161642700     
  0.156025259977184     
  0.156020314849152     
  0.156015516790080     
  0.156090160775989     
  0.156076417678550     
  0.156067704148973     
  0.156062185519403     
  0.156058259347046     
  0.156053998973173     
  0.156048600505935     
  0.156042696624662     
  0.156037005651104     
  0.156031644300806     
  0.156026679014038     
  0.156022034109661     
  0.156017627672535     
  0.156013462873159     
  0.156009648787861     
  0.156060262743720     
  0.156054101604236     
  0.156051046029869     
  0.156048197444150     
  0.156044863288544     
  0.156040874220733     
  0.156036406060596     
  0.156031630975893     
  0.156026819349005     
  0.156022183574679     
  0.156017794140356     
  0.156013674357536     
  0.156009832273644     
  0.156006308438615     
  0.156003209597877     
  0.156045131271079     
  0.156041795289630     
  0.156038417718679     
  0.156035271543884     
  0.156031984032158     
  0.156028405137437     
  0.156024540189576     
  0.156020503144350     
  0.156016429179702     
  0.156012443327089     
  0.156008633934462     
  0.156005052352295     
  0.156001742185157     
  0.155998760749250     
  0.155996191713701     
  0.156031986596831     
  0.156028735744228     
  0.156025646087090     
  0.156022575836751     
  0.156019469978974     
  0.156016236799185     
  0.156012864696697     
  0.156009400347357     
  0.156005922302079     
  0.156002511932804     
  0.155999239715105     
  0.155996163390621     
  0.155993334832736     
  0.155990810333469     
  0.155988655559025     
  0.156018562945015     
  0.156015618494615     
  0.156012761663771     
  0.156009946597945     
  0.156007113588537     
  0.156004230625764     
  0.156001287703612     
  0.155998308480956     
  0.155995338520351     
  0.155992432579577     
  0.155989645064209     
  0.155987026750396     
  0.155984626104042     
  0.155982492003496     
  0.155980674732680     
  0.156005001954089     
  0.156002391228513     
  0.155999844784965     
  0.155997330298069     
  0.155994820433793     
  0.155992295439061     
  0.155989752820769     
  0.155987206887640     
  0.155984686672732     
  0.155982229826076     
  0.155979877332392     
  0.155977670417131     
  0.155975649600301     
  0.155973854564470     
  0.155972323235271     
  0.155991342931902     
  0.155989097101959     
  0.155986890997676     
  0.155984711793075     
  0.155982545293937     
  0.155980382747596     
  0.155978224036507     
  0.155976079610218     
  0.155973969224277     
  0.155971919453101     
  0.155969960718710     
  0.155968124984002     
  0.155966444247802     
  0.155964949394788     
  0.155963668717803     
  0.155977630157338     
  0.155975756766085     
  0.155973907407701     
  0.155972079215833     
  0.155970266978165     
  0.155968467278694     
  0.155966681606055     
  0.155964917648989     
  0.155963189263113     
  0.155961515283857     
  0.155959917912277     
  0.155958421098868     
  0.155957049139623     
  0.155955825372049     
  0.155954770733916     
  0.155963890081741     
  0.155962386471299     
  0.155960898546149     
  0.155959428354066     
  0.155957974818686     
  0.155956537030741     
  0.155955116538038     
  0.155953718645770     
  0.155952352707982     
  0.155951031683850     
  0.155949771230167     
  0.155948588617940     
  0.155947501616855     
  0.155946527372277     
  0.155945681230356     
  0.155950136073195     
  0.155948994666496     
  0.155947867581315     
  0.155946757606774     
  0.155945664520018     
  0.155944587493392     
  0.155943526905291     
  0.155942485447940     
  0.155941468573047     
  0.155940484382157     
  0.155939543134991     
  0.155938656536350     
  0.155937836921226     
  0.155937096401725     
  0.155936446006322     
  0.155936369974898     
  0.155935583120124     
  0.155934815029697     
  0.155934066302962     
  0.155933335063760     
  0.155932618732196     
  0.155931915405913     
  0.155931224775463     
  0.155930548569978     
  0.155929890598994     
  0.155929256486784     
  0.155928653210220     
  0.155928088533542     
  0.155927570410739     
  0.155927106408651     
  0.155922584643373     
  0.155922147837435     
  0.155921738730722     
  0.155921353635951     
  0.155920987188798     
  0.155920633640306     
  0.155920287894607     
  0.155919946221509     
  0.155919606633336     
  0.155919268961734     
  0.155918934700494     
  0.155918606696464     
  0.155918288765622     
  0.155917985301157     
  0.155917700928981     
  0.155908766222423     
  0.155908680347325     
  0.155908634229963     
  0.155908618403184     
  0.155908622668581     
  0.155908637045056     
  0.155908652530073     
  0.155908661617438     
  0.155908658561684     
  0.155908639414911     
  0.155908601889951     
  0.155908545121576     
  0.155908469396513     
  0.155908375907450     
  0.155908266591357     
  0.155894896184090     
  0.155895169048880     
  0.155895495508525     
  0.155895859223659     
  0.155896244173366     
  0.155896635366487     
  0.155897019382422     
  0.155897384700312     
  0.155897721817949     
  0.155898023184369     
  0.155898283010999     
  0.155898497029252     
  0.155898662260929     
  0.155898776866009     
  0.155898840121186     
  0.155880953111328     
  0.155881600564618     
  0.155882315913640     
  0.155883075098300     
  0.155883855535185     
  0.155884636677640     
  0.155885400376904     
  0.155886131019996     
  0.155886815460556     
  0.155887442784564     
  0.155888003991310     
  0.155888491669797     
  0.155888899739557     
  0.155889223339592     
  0.155889458916979     
  0.155866914271876     
  0.155867961079021     
  0.155869089236527     
  0.155870266227144     
  0.155871462323123     
  0.155872651070611     
  0.155873809494888     
  0.155874918025813     
  0.155875960173179     
  0.155876922044677     
  0.155877791808228     
  0.155878559189314     
  0.155879215111413     
  0.155879751575895     
  0.155880161840332     
  0.155852757030919     
  0.155854237683465     
  0.155855810936318     
  0.155857435063605     
  0.155859072690952     
  0.155860691279327     
  0.155862263179335     
  0.155863765279705     
  0.155865178330309     
  0.155866486094114     
  0.155867674462943     
  0.155868730664178     
  0.155869642719791     
  0.155870399267435     
  0.155870989817731     
  0.155838460152902     
  0.155840419777150     
  0.155842479557170     
  0.155844587641823     
  0.155846698515864     
  0.155848773558341     
  0.155850780916567     
  0.155852694751573     
  0.155854494052955     
  0.155856161245903     
  0.155857680777291     
  0.155859037905550     
  0.155860217881037     
  0.155861205657528     
  0.155861986222206     
  0.155824005022727     
  0.155826500616353     
  0.155829098450296     
  0.155831735277203     
  0.155834356894683     
  0.155836918844684     
  0.155839385992785     
  0.155841731166366     
  0.155843933196470     
  0.155845974699102     
  0.155847839915586     
  0.155849512924649     
  0.155850976431602     
  0.155852211304465     
  0.155853196971760     
  0.155809376872350     
  0.155812479165051     
  0.155815677998248     
  0.155818896830961     
  0.155822072140270     
  0.155825154263386     
  0.155828106426014     
  0.155830902370430     
  0.155833523197660     
  0.155835953956063     
  0.155838180495225     
  0.155840186904055     
  0.155841953758586     
  0.155843457376878     
  0.155844670257736     
  0.155794566087173     
  0.155798362555224     
  0.155802238719197     
  0.155806101871126     
  0.155809878472967     
  0.155813515071157     
  0.155816976089321     
  0.155820239676669     
  0.155823292705446     
  0.155826125828306     
  0.155828729108329     
  0.155831088459759     
  0.155833183094634     
  0.155834984287640     
  0.155836455788578     
  0.155779569695972     
  0.155784169675283     
  0.155788815963002     
  0.155793395246850     
  0.155797823704642     
  0.155802047125702     
  0.155806036002217     
  0.155809778101951     
  0.155813270887263     
  0.155816514882679     
  0.155819508039416     
  0.155822240886581     
  0.155824692727118     
  0.155826829381160     
  0.155828603397040     
  0.155764393753750     
  0.155769937131534     
  0.155775467385424     
  0.155780843950120     
  0.155785974183881     
  0.155790809813268     
  0.155795335601023     
  0.155799556352714     
  0.155803486314216     
  0.155807141258450     
  0.155810531957547     
  0.155813657983808     
  0.155816501526704     
  0.155819023154225     
  0.155821160735954     
  0.155749058071676     
  0.155755730752581     
  0.155762285915747     
  0.155768547413583     
  0.155774421042318     
  0.155779878899999     
  0.155784933387250     
  0.155789616246612     
  0.155793965460691     
  0.155798017924457     
  0.155801803597622     
  0.155805337747139     
  0.155808611858359     
  0.155811582803130     
  0.155814169721328     
  0.155733605822884     
  0.155741669465379     
  0.155749423665268     
  0.155756652634407     
  0.155763286503768     
  0.155769347305631     
  0.155774895883371     
  0.155780001203443     
  0.155784731070303     
  0.155789148383452     
  0.155793308448203     
  0.155797253987609     
  0.155800996883052     
  0.155804501382599     
  0.155807660027364     
  0.155718134249045     
  0.155727980522511     
  0.155737135990943     
  0.155745372148442     
  0.155752722936214     
  0.155759321030751     
  0.155765293514792     
  0.155770753542472     
  0.155775800922990     
  0.155780525994946     
  0.155785013266583     
  0.155789342066790     
  0.155793582890893     
  0.155797720462062     
  0.155801640076269     
  0.155702890494500     
  0.155715161435544     
  0.155725852778352     
  0.155734968743848     
  0.155742898358885     
  0.155749907001797     
  0.155756193098847     
  0.155761910687230     
  0.155767187336111     
  0.155772136836426     
  0.155776870002107     
  0.155781506425621     
  0.155786184615320     
  0.155791099825839     
  0.155796047453116     
  0.155689002197042     
  0.155704366896423     
  0.155716054015800     
  0.155725705710319     
  0.155733961881083     
  0.155741194432390     
  0.155747647795339     
  0.155753500939586     
  0.155758897638236     
  0.155763965353619     
  0.155768830894851     
  0.155773639281503     
  0.155778588935972     
  0.155784005017743     
  0.155790832708780     
