# vtk DataFile Version 3.0
vtk output
ASCII
DATASET UNSTRUCTURED_GRID
POINTS       496 double 
  0.00000000E+00  3.00000000E+02  0.00000000E+00
  0.00000000E+00  2.80000000E+02  0.00000000E+00
  0.00000000E+00  2.60000000E+02  0.00000000E+00
  0.00000000E+00  2.40000000E+02  0.00000000E+00
  0.00000000E+00  2.20000000E+02  0.00000000E+00
  0.00000000E+00  2.00000000E+02  0.00000000E+00
  0.00000000E+00  1.80000000E+02  0.00000000E+00
  0.00000000E+00  1.60000000E+02  0.00000000E+00
  0.00000000E+00  1.40000000E+02  0.00000000E+00
  0.00000000E+00  1.20000000E+02  0.00000000E+00
  0.00000000E+00  1.00000000E+02  0.00000000E+00
  0.00000000E+00  8.00000000E+01  0.00000000E+00
  0.00000000E+00  6.00000000E+01  0.00000000E+00
  0.00000000E+00  4.00000000E+01  0.00000000E+00
  0.00000000E+00  2.00000000E+01  0.00000000E+00
  0.00000000E+00  4.99600361E-14  0.00000000E+00
  2.00000000E+01  3.00000000E+02  0.00000000E+00
  2.00000000E+01  2.80000000E+02  0.00000000E+00
  2.00000000E+01  2.60000000E+02  0.00000000E+00
  2.00000000E+01  2.40000000E+02  0.00000000E+00
  2.00000000E+01  2.20000000E+02  0.00000000E+00
  2.00000000E+01  2.00000000E+02  0.00000000E+00
  2.00000000E+01  1.80000000E+02  0.00000000E+00
  2.00000000E+01  1.60000000E+02  0.00000000E+00
  2.00000000E+01  1.40000000E+02  0.00000000E+00
  2.00000000E+01  1.20000000E+02  0.00000000E+00
  2.00000000E+01  1.00000000E+02  0.00000000E+00
  2.00000000E+01  8.00000000E+01  0.00000000E+00
  2.00000000E+01  6.00000000E+01  0.00000000E+00
  2.00000000E+01  4.00000000E+01  0.00000000E+00
  2.00000000E+01  2.00000000E+01  0.00000000E+00
  2.00000000E+01  4.99600361E-14  0.00000000E+00
  4.00000000E+01  3.00000000E+02  0.00000000E+00
  4.00000000E+01  2.80000000E+02  0.00000000E+00
  4.00000000E+01  2.60000000E+02  0.00000000E+00
  4.00000000E+01  2.40000000E+02  0.00000000E+00
  4.00000000E+01  2.20000000E+02  0.00000000E+00
  4.00000000E+01  2.00000000E+02  0.00000000E+00
  4.00000000E+01  1.80000000E+02  0.00000000E+00
  4.00000000E+01  1.60000000E+02  0.00000000E+00
  4.00000000E+01  1.40000000E+02  0.00000000E+00
  4.00000000E+01  1.20000000E+02  0.00000000E+00
  4.00000000E+01  1.00000000E+02  0.00000000E+00
  4.00000000E+01  8.00000000E+01  0.00000000E+00
  4.00000000E+01  6.00000000E+01  0.00000000E+00
  4.00000000E+01  4.00000000E+01  0.00000000E+00
  4.00000000E+01  2.00000000E+01  0.00000000E+00
  4.00000000E+01  4.99600361E-14  0.00000000E+00
  6.00000000E+01  3.00000000E+02  0.00000000E+00
  6.00000000E+01  2.80000000E+02  0.00000000E+00
  6.00000000E+01  2.60000000E+02  0.00000000E+00
  6.00000000E+01  2.40000000E+02  0.00000000E+00
  6.00000000E+01  2.20000000E+02  0.00000000E+00
  6.00000000E+01  2.00000000E+02  0.00000000E+00
  6.00000000E+01  1.80000000E+02  0.00000000E+00
  6.00000000E+01  1.60000000E+02  0.00000000E+00
  6.00000000E+01  1.40000000E+02  0.00000000E+00
  6.00000000E+01  1.20000000E+02  0.00000000E+00
  6.00000000E+01  1.00000000E+02  0.00000000E+00
  6.00000000E+01  8.00000000E+01  0.00000000E+00
  6.00000000E+01  6.00000000E+01  0.00000000E+00
  6.00000000E+01  4.00000000E+01  0.00000000E+00
  6.00000000E+01  2.00000000E+01  0.00000000E+00
  6.00000000E+01  4.99600361E-14  0.00000000E+00
  8.00000000E+01  3.00000000E+02  0.00000000E+00
  8.00000000E+01  2.80000000E+02  0.00000000E+00
  8.00000000E+01  2.60000000E+02  0.00000000E+00
  8.00000000E+01  2.40000000E+02  0.00000000E+00
  8.00000000E+01  2.20000000E+02  0.00000000E+00
  8.00000000E+01  2.00000000E+02  0.00000000E+00
  8.00000000E+01  1.80000000E+02  0.00000000E+00
  8.00000000E+01  1.60000000E+02  0.00000000E+00
  8.00000000E+01  1.40000000E+02  0.00000000E+00
  8.00000000E+01  1.20000000E+02  0.00000000E+00
  8.00000000E+01  1.00000000E+02  0.00000000E+00
  8.00000000E+01  8.00000000E+01  0.00000000E+00
  8.00000000E+01  6.00000000E+01  0.00000000E+00
  8.00000000E+01  4.00000000E+01  0.00000000E+00
  8.00000000E+01  2.00000000E+01  0.00000000E+00
  8.00000000E+01  4.99600361E-14  0.00000000E+00
  1.00000000E+02  3.00000000E+02  0.00000000E+00
  1.00000000E+02  2.80000000E+02  0.00000000E+00
  1.00000000E+02  2.60000000E+02  0.00000000E+00
  1.00000000E+02  2.40000000E+02  0.00000000E+00
  1.00000000E+02  2.20000000E+02  0.00000000E+00
  1.00000000E+02  2.00000000E+02  0.00000000E+00
  1.00000000E+02  1.80000000E+02  0.00000000E+00
  1.00000000E+02  1.60000000E+02  0.00000000E+00
  1.00000000E+02  1.40000000E+02  0.00000000E+00
  1.00000000E+02  1.20000000E+02  0.00000000E+00
  1.00000000E+02  1.00000000E+02  0.00000000E+00
  1.00000000E+02  8.00000000E+01  0.00000000E+00
  1.00000000E+02  6.00000000E+01  0.00000000E+00
  1.00000000E+02  4.00000000E+01  0.00000000E+00
  1.00000000E+02  2.00000000E+01  0.00000000E+00
  1.00000000E+02  4.99600361E-14  0.00000000E+00
  1.20000000E+02  3.00000000E+02  0.00000000E+00
  1.20000000E+02  2.80000000E+02  0.00000000E+00
  1.20000000E+02  2.60000000E+02  0.00000000E+00
  1.20000000E+02  2.40000000E+02  0.00000000E+00
  1.20000000E+02  2.20000000E+02  0.00000000E+00
  1.20000000E+02  2.00000000E+02  0.00000000E+00
  1.20000000E+02  1.80000000E+02  0.00000000E+00
  1.20000000E+02  1.60000000E+02  0.00000000E+00
  1.20000000E+02  1.40000000E+02  0.00000000E+00
  1.20000000E+02  1.20000000E+02  0.00000000E+00
  1.20000000E+02  1.00000000E+02  0.00000000E+00
  1.20000000E+02  8.00000000E+01  0.00000000E+00
  1.20000000E+02  6.00000000E+01  0.00000000E+00
  1.20000000E+02  4.00000000E+01  0.00000000E+00
  1.20000000E+02  2.00000000E+01  0.00000000E+00
  1.20000000E+02  4.99600361E-14  0.00000000E+00
  1.40000000E+02  3.00000000E+02  0.00000000E+00
  1.40000000E+02  2.80000000E+02  0.00000000E+00
  1.40000000E+02  2.60000000E+02  0.00000000E+00
  1.40000000E+02  2.40000000E+02  0.00000000E+00
  1.40000000E+02  2.20000000E+02  0.00000000E+00
  1.40000000E+02  2.00000000E+02  0.00000000E+00
  1.40000000E+02  1.80000000E+02  0.00000000E+00
  1.40000000E+02  1.60000000E+02  0.00000000E+00
  1.40000000E+02  1.40000000E+02  0.00000000E+00
  1.40000000E+02  1.20000000E+02  0.00000000E+00
  1.40000000E+02  1.00000000E+02  0.00000000E+00
  1.40000000E+02  8.00000000E+01  0.00000000E+00
  1.40000000E+02  6.00000000E+01  0.00000000E+00
  1.40000000E+02  4.00000000E+01  0.00000000E+00
  1.40000000E+02  2.00000000E+01  0.00000000E+00
  1.40000000E+02  4.99600361E-14  0.00000000E+00
  1.60000000E+02  3.00000000E+02  0.00000000E+00
  1.60000000E+02  2.80000000E+02  0.00000000E+00
  1.60000000E+02  2.60000000E+02  0.00000000E+00
  1.60000000E+02  2.40000000E+02  0.00000000E+00
  1.60000000E+02  2.20000000E+02  0.00000000E+00
  1.60000000E+02  2.00000000E+02  0.00000000E+00
  1.60000000E+02  1.80000000E+02  0.00000000E+00
  1.60000000E+02  1.60000000E+02  0.00000000E+00
  1.60000000E+02  1.40000000E+02  0.00000000E+00
  1.60000000E+02  1.20000000E+02  0.00000000E+00
  1.60000000E+02  1.00000000E+02  0.00000000E+00
  1.60000000E+02  8.00000000E+01  0.00000000E+00
  1.60000000E+02  6.00000000E+01  0.00000000E+00
  1.60000000E+02  4.00000000E+01  0.00000000E+00
  1.60000000E+02  2.00000000E+01  0.00000000E+00
  1.60000000E+02  4.99600361E-14  0.00000000E+00
  1.80000000E+02  3.00000000E+02  0.00000000E+00
  1.80000000E+02  2.80000000E+02  0.00000000E+00
  1.80000000E+02  2.60000000E+02  0.00000000E+00
  1.80000000E+02  2.40000000E+02  0.00000000E+00
  1.80000000E+02  2.20000000E+02  0.00000000E+00
  1.80000000E+02  2.00000000E+02  0.00000000E+00
  1.80000000E+02  1.80000000E+02  0.00000000E+00
  1.80000000E+02  1.60000000E+02  0.00000000E+00
  1.80000000E+02  1.40000000E+02  0.00000000E+00
  1.80000000E+02  1.20000000E+02  0.00000000E+00
  1.80000000E+02  1.00000000E+02  0.00000000E+00
  1.80000000E+02  8.00000000E+01  0.00000000E+00
  1.80000000E+02  6.00000000E+01  0.00000000E+00
  1.80000000E+02  4.00000000E+01  0.00000000E+00
  1.80000000E+02  2.00000000E+01  0.00000000E+00
  1.80000000E+02  4.99600361E-14  0.00000000E+00
  2.00000000E+02  3.00000000E+02  0.00000000E+00
  2.00000000E+02  2.80000000E+02  0.00000000E+00
  2.00000000E+02  2.60000000E+02  0.00000000E+00
  2.00000000E+02  2.40000000E+02  0.00000000E+00
  2.00000000E+02  2.20000000E+02  0.00000000E+00
  2.00000000E+02  2.00000000E+02  0.00000000E+00
  2.00000000E+02  1.80000000E+02  0.00000000E+00
  2.00000000E+02  1.60000000E+02  0.00000000E+00
  2.00000000E+02  1.40000000E+02  0.00000000E+00
  2.00000000E+02  1.20000000E+02  0.00000000E+00
  2.00000000E+02  1.00000000E+02  0.00000000E+00
  2.00000000E+02  8.00000000E+01  0.00000000E+00
  2.00000000E+02  6.00000000E+01  0.00000000E+00
  2.00000000E+02  4.00000000E+01  0.00000000E+00
  2.00000000E+02  2.00000000E+01  0.00000000E+00
  2.00000000E+02  4.99600361E-14  0.00000000E+00
  2.20000000E+02  3.00000000E+02  0.00000000E+00
  2.20000000E+02  2.80000000E+02  0.00000000E+00
  2.20000000E+02  2.60000000E+02  0.00000000E+00
  2.20000000E+02  2.40000000E+02  0.00000000E+00
  2.20000000E+02  2.20000000E+02  0.00000000E+00
  2.20000000E+02  2.00000000E+02  0.00000000E+00
  2.20000000E+02  1.80000000E+02  0.00000000E+00
  2.20000000E+02  1.60000000E+02  0.00000000E+00
  2.20000000E+02  1.40000000E+02  0.00000000E+00
  2.20000000E+02  1.20000000E+02  0.00000000E+00
  2.20000000E+02  1.00000000E+02  0.00000000E+00
  2.20000000E+02  8.00000000E+01  0.00000000E+00
  2.20000000E+02  6.00000000E+01  0.00000000E+00
  2.20000000E+02  4.00000000E+01  0.00000000E+00
  2.20000000E+02  2.00000000E+01  0.00000000E+00
  2.20000000E+02  4.99600361E-14  0.00000000E+00
  2.40000000E+02  3.00000000E+02  0.00000000E+00
  2.40000000E+02  2.80000000E+02  0.00000000E+00
  2.40000000E+02  2.60000000E+02  0.00000000E+00
  2.40000000E+02  2.40000000E+02  0.00000000E+00
  2.40000000E+02  2.20000000E+02  0.00000000E+00
  2.40000000E+02  2.00000000E+02  0.00000000E+00
  2.40000000E+02  1.80000000E+02  0.00000000E+00
  2.40000000E+02  1.60000000E+02  0.00000000E+00
  2.40000000E+02  1.40000000E+02  0.00000000E+00
  2.40000000E+02  1.20000000E+02  0.00000000E+00
  2.40000000E+02  1.00000000E+02  0.00000000E+00
  2.40000000E+02  8.00000000E+01  0.00000000E+00
  2.40000000E+02  6.00000000E+01  0.00000000E+00
  2.40000000E+02  4.00000000E+01  0.00000000E+00
  2.40000000E+02  2.00000000E+01  0.00000000E+00
  2.40000000E+02  4.99600361E-14  0.00000000E+00
  2.60000000E+02  3.00000000E+02  0.00000000E+00
  2.60000000E+02  2.80000000E+02  0.00000000E+00
  2.60000000E+02  2.60000000E+02  0.00000000E+00
  2.60000000E+02  2.40000000E+02  0.00000000E+00
  2.60000000E+02  2.20000000E+02  0.00000000E+00
  2.60000000E+02  2.00000000E+02  0.00000000E+00
  2.60000000E+02  1.80000000E+02  0.00000000E+00
  2.60000000E+02  1.60000000E+02  0.00000000E+00
  2.60000000E+02  1.40000000E+02  0.00000000E+00
  2.60000000E+02  1.20000000E+02  0.00000000E+00
  2.60000000E+02  1.00000000E+02  0.00000000E+00
  2.60000000E+02  8.00000000E+01  0.00000000E+00
  2.60000000E+02  6.00000000E+01  0.00000000E+00
  2.60000000E+02  4.00000000E+01  0.00000000E+00
  2.60000000E+02  2.00000000E+01  0.00000000E+00
  2.60000000E+02  4.99600361E-14  0.00000000E+00
  2.80000000E+02  3.00000000E+02  0.00000000E+00
  2.80000000E+02  2.80000000E+02  0.00000000E+00
  2.80000000E+02  2.60000000E+02  0.00000000E+00
  2.80000000E+02  2.40000000E+02  0.00000000E+00
  2.80000000E+02  2.20000000E+02  0.00000000E+00
  2.80000000E+02  2.00000000E+02  0.00000000E+00
  2.80000000E+02  1.80000000E+02  0.00000000E+00
  2.80000000E+02  1.60000000E+02  0.00000000E+00
  2.80000000E+02  1.40000000E+02  0.00000000E+00
  2.80000000E+02  1.20000000E+02  0.00000000E+00
  2.80000000E+02  1.00000000E+02  0.00000000E+00
  2.80000000E+02  8.00000000E+01  0.00000000E+00
  2.80000000E+02  6.00000000E+01  0.00000000E+00
  2.80000000E+02  4.00000000E+01  0.00000000E+00
  2.80000000E+02  2.00000000E+01  0.00000000E+00
  2.80000000E+02  4.99600361E-14  0.00000000E+00
  3.00000000E+02  3.00000000E+02  0.00000000E+00
  3.00000000E+02  2.80000000E+02  0.00000000E+00
  3.00000000E+02  2.60000000E+02  0.00000000E+00
  3.00000000E+02  2.40000000E+02  0.00000000E+00
  3.00000000E+02  2.20000000E+02  0.00000000E+00
  3.00000000E+02  2.00000000E+02  0.00000000E+00
  3.00000000E+02  1.80000000E+02  0.00000000E+00
  3.00000000E+02  1.60000000E+02  0.00000000E+00
  3.00000000E+02  1.40000000E+02  0.00000000E+00
  3.00000000E+02  1.20000000E+02  0.00000000E+00
  3.00000000E+02  1.00000000E+02  0.00000000E+00
  3.00000000E+02  8.00000000E+01  0.00000000E+00
  3.00000000E+02  6.00000000E+01  0.00000000E+00
  3.00000000E+02  4.00000000E+01  0.00000000E+00
  3.00000000E+02  2.00000000E+01  0.00000000E+00
  3.00000000E+02  4.99600361E-14  0.00000000E+00
  3.20000000E+02  3.00000000E+02  0.00000000E+00
  3.20000000E+02  2.80000000E+02  0.00000000E+00
  3.20000000E+02  2.60000000E+02  0.00000000E+00
  3.20000000E+02  2.40000000E+02  0.00000000E+00
  3.20000000E+02  2.20000000E+02  0.00000000E+00
  3.20000000E+02  2.00000000E+02  0.00000000E+00
  3.20000000E+02  1.80000000E+02  0.00000000E+00
  3.20000000E+02  1.60000000E+02  0.00000000E+00
  3.20000000E+02  1.40000000E+02  0.00000000E+00
  3.20000000E+02  1.20000000E+02  0.00000000E+00
  3.20000000E+02  1.00000000E+02  0.00000000E+00
  3.20000000E+02  8.00000000E+01  0.00000000E+00
  3.20000000E+02  6.00000000E+01  0.00000000E+00
  3.20000000E+02  4.00000000E+01  0.00000000E+00
  3.20000000E+02  2.00000000E+01  0.00000000E+00
  3.20000000E+02  4.99600361E-14  0.00000000E+00
  3.40000000E+02  3.00000000E+02  0.00000000E+00
  3.40000000E+02  2.80000000E+02  0.00000000E+00
  3.40000000E+02  2.60000000E+02  0.00000000E+00
  3.40000000E+02  2.40000000E+02  0.00000000E+00
  3.40000000E+02  2.20000000E+02  0.00000000E+00
  3.40000000E+02  2.00000000E+02  0.00000000E+00
  3.40000000E+02  1.80000000E+02  0.00000000E+00
  3.40000000E+02  1.60000000E+02  0.00000000E+00
  3.40000000E+02  1.40000000E+02  0.00000000E+00
  3.40000000E+02  1.20000000E+02  0.00000000E+00
  3.40000000E+02  1.00000000E+02  0.00000000E+00
  3.40000000E+02  8.00000000E+01  0.00000000E+00
  3.40000000E+02  6.00000000E+01  0.00000000E+00
  3.40000000E+02  4.00000000E+01  0.00000000E+00
  3.40000000E+02  2.00000000E+01  0.00000000E+00
  3.40000000E+02  4.99600361E-14  0.00000000E+00
  3.60000000E+02  3.00000000E+02  0.00000000E+00
  3.60000000E+02  2.80000000E+02  0.00000000E+00
  3.60000000E+02  2.60000000E+02  0.00000000E+00
  3.60000000E+02  2.40000000E+02  0.00000000E+00
  3.60000000E+02  2.20000000E+02  0.00000000E+00
  3.60000000E+02  2.00000000E+02  0.00000000E+00
  3.60000000E+02  1.80000000E+02  0.00000000E+00
  3.60000000E+02  1.60000000E+02  0.00000000E+00
  3.60000000E+02  1.40000000E+02  0.00000000E+00
  3.60000000E+02  1.20000000E+02  0.00000000E+00
  3.60000000E+02  1.00000000E+02  0.00000000E+00
  3.60000000E+02  8.00000000E+01  0.00000000E+00
  3.60000000E+02  6.00000000E+01  0.00000000E+00
  3.60000000E+02  4.00000000E+01  0.00000000E+00
  3.60000000E+02  2.00000000E+01  0.00000000E+00
  3.60000000E+02  4.99600361E-14  0.00000000E+00
  3.80000000E+02  3.00000000E+02  0.00000000E+00
  3.80000000E+02  2.80000000E+02  0.00000000E+00
  3.80000000E+02  2.60000000E+02  0.00000000E+00
  3.80000000E+02  2.40000000E+02  0.00000000E+00
  3.80000000E+02  2.20000000E+02  0.00000000E+00
  3.80000000E+02  2.00000000E+02  0.00000000E+00
  3.80000000E+02  1.80000000E+02  0.00000000E+00
  3.80000000E+02  1.60000000E+02  0.00000000E+00
  3.80000000E+02  1.40000000E+02  0.00000000E+00
  3.80000000E+02  1.20000000E+02  0.00000000E+00
  3.80000000E+02  1.00000000E+02  0.00000000E+00
  3.80000000E+02  8.00000000E+01  0.00000000E+00
  3.80000000E+02  6.00000000E+01  0.00000000E+00
  3.80000000E+02  4.00000000E+01  0.00000000E+00
  3.80000000E+02  2.00000000E+01  0.00000000E+00
  3.80000000E+02  4.99600361E-14  0.00000000E+00
  4.00000000E+02  3.00000000E+02  0.00000000E+00
  4.00000000E+02  2.80000000E+02  0.00000000E+00
  4.00000000E+02  2.60000000E+02  0.00000000E+00
  4.00000000E+02  2.40000000E+02  0.00000000E+00
  4.00000000E+02  2.20000000E+02  0.00000000E+00
  4.00000000E+02  2.00000000E+02  0.00000000E+00
  4.00000000E+02  1.80000000E+02  0.00000000E+00
  4.00000000E+02  1.60000000E+02  0.00000000E+00
  4.00000000E+02  1.40000000E+02  0.00000000E+00
  4.00000000E+02  1.20000000E+02  0.00000000E+00
  4.00000000E+02  1.00000000E+02  0.00000000E+00
  4.00000000E+02  8.00000000E+01  0.00000000E+00
  4.00000000E+02  6.00000000E+01  0.00000000E+00
  4.00000000E+02  4.00000000E+01  0.00000000E+00
  4.00000000E+02  2.00000000E+01  0.00000000E+00
  4.00000000E+02  4.99600361E-14  0.00000000E+00
  4.20000000E+02  3.00000000E+02  0.00000000E+00
  4.20000000E+02  2.80000000E+02  0.00000000E+00
  4.20000000E+02  2.60000000E+02  0.00000000E+00
  4.20000000E+02  2.40000000E+02  0.00000000E+00
  4.20000000E+02  2.20000000E+02  0.00000000E+00
  4.20000000E+02  2.00000000E+02  0.00000000E+00
  4.20000000E+02  1.80000000E+02  0.00000000E+00
  4.20000000E+02  1.60000000E+02  0.00000000E+00
  4.20000000E+02  1.40000000E+02  0.00000000E+00
  4.20000000E+02  1.20000000E+02  0.00000000E+00
  4.20000000E+02  1.00000000E+02  0.00000000E+00
  4.20000000E+02  8.00000000E+01  0.00000000E+00
  4.20000000E+02  6.00000000E+01  0.00000000E+00
  4.20000000E+02  4.00000000E+01  0.00000000E+00
  4.20000000E+02  2.00000000E+01  0.00000000E+00
  4.20000000E+02  4.99600361E-14  0.00000000E+00
  4.40000000E+02  3.00000000E+02  0.00000000E+00
  4.40000000E+02  2.80000000E+02  0.00000000E+00
  4.40000000E+02  2.60000000E+02  0.00000000E+00
  4.40000000E+02  2.40000000E+02  0.00000000E+00
  4.40000000E+02  2.20000000E+02  0.00000000E+00
  4.40000000E+02  2.00000000E+02  0.00000000E+00
  4.40000000E+02  1.80000000E+02  0.00000000E+00
  4.40000000E+02  1.60000000E+02  0.00000000E+00
  4.40000000E+02  1.40000000E+02  0.00000000E+00
  4.40000000E+02  1.20000000E+02  0.00000000E+00
  4.40000000E+02  1.00000000E+02  0.00000000E+00
  4.40000000E+02  8.00000000E+01  0.00000000E+00
  4.40000000E+02  6.00000000E+01  0.00000000E+00
  4.40000000E+02  4.00000000E+01  0.00000000E+00
  4.40000000E+02  2.00000000E+01  0.00000000E+00
  4.40000000E+02  4.99600361E-14  0.00000000E+00
  4.60000000E+02  3.00000000E+02  0.00000000E+00
  4.60000000E+02  2.80000000E+02  0.00000000E+00
  4.60000000E+02  2.60000000E+02  0.00000000E+00
  4.60000000E+02  2.40000000E+02  0.00000000E+00
  4.60000000E+02  2.20000000E+02  0.00000000E+00
  4.60000000E+02  2.00000000E+02  0.00000000E+00
  4.60000000E+02  1.80000000E+02  0.00000000E+00
  4.60000000E+02  1.60000000E+02  0.00000000E+00
  4.60000000E+02  1.40000000E+02  0.00000000E+00
  4.60000000E+02  1.20000000E+02  0.00000000E+00
  4.60000000E+02  1.00000000E+02  0.00000000E+00
  4.60000000E+02  8.00000000E+01  0.00000000E+00
  4.60000000E+02  6.00000000E+01  0.00000000E+00
  4.60000000E+02  4.00000000E+01  0.00000000E+00
  4.60000000E+02  2.00000000E+01  0.00000000E+00
  4.60000000E+02  4.99600361E-14  0.00000000E+00
  4.80000000E+02  3.00000000E+02  0.00000000E+00
  4.80000000E+02  2.80000000E+02  0.00000000E+00
  4.80000000E+02  2.60000000E+02  0.00000000E+00
  4.80000000E+02  2.40000000E+02  0.00000000E+00
  4.80000000E+02  2.20000000E+02  0.00000000E+00
  4.80000000E+02  2.00000000E+02  0.00000000E+00
  4.80000000E+02  1.80000000E+02  0.00000000E+00
  4.80000000E+02  1.60000000E+02  0.00000000E+00
  4.80000000E+02  1.40000000E+02  0.00000000E+00
  4.80000000E+02  1.20000000E+02  0.00000000E+00
  4.80000000E+02  1.00000000E+02  0.00000000E+00
  4.80000000E+02  8.00000000E+01  0.00000000E+00
  4.80000000E+02  6.00000000E+01  0.00000000E+00
  4.80000000E+02  4.00000000E+01  0.00000000E+00
  4.80000000E+02  2.00000000E+01  0.00000000E+00
  4.80000000E+02  4.99600361E-14  0.00000000E+00
  5.00000000E+02  3.00000000E+02  0.00000000E+00
  5.00000000E+02  2.80000000E+02  0.00000000E+00
  5.00000000E+02  2.60000000E+02  0.00000000E+00
  5.00000000E+02  2.40000000E+02  0.00000000E+00
  5.00000000E+02  2.20000000E+02  0.00000000E+00
  5.00000000E+02  2.00000000E+02  0.00000000E+00
  5.00000000E+02  1.80000000E+02  0.00000000E+00
  5.00000000E+02  1.60000000E+02  0.00000000E+00
  5.00000000E+02  1.40000000E+02  0.00000000E+00
  5.00000000E+02  1.20000000E+02  0.00000000E+00
  5.00000000E+02  1.00000000E+02  0.00000000E+00
  5.00000000E+02  8.00000000E+01  0.00000000E+00
  5.00000000E+02  6.00000000E+01  0.00000000E+00
  5.00000000E+02  4.00000000E+01  0.00000000E+00
  5.00000000E+02  2.00000000E+01  0.00000000E+00
  5.00000000E+02  4.99600361E-14  0.00000000E+00
  5.20000000E+02  3.00000000E+02  0.00000000E+00
  5.20000000E+02  2.80000000E+02  0.00000000E+00
  5.20000000E+02  2.60000000E+02  0.00000000E+00
  5.20000000E+02  2.40000000E+02  0.00000000E+00
  5.20000000E+02  2.20000000E+02  0.00000000E+00
  5.20000000E+02  2.00000000E+02  0.00000000E+00
  5.20000000E+02  1.80000000E+02  0.00000000E+00
  5.20000000E+02  1.60000000E+02  0.00000000E+00
  5.20000000E+02  1.40000000E+02  0.00000000E+00
  5.20000000E+02  1.20000000E+02  0.00000000E+00
  5.20000000E+02  1.00000000E+02  0.00000000E+00
  5.20000000E+02  8.00000000E+01  0.00000000E+00
  5.20000000E+02  6.00000000E+01  0.00000000E+00
  5.20000000E+02  4.00000000E+01  0.00000000E+00
  5.20000000E+02  2.00000000E+01  0.00000000E+00
  5.20000000E+02  4.99600361E-14  0.00000000E+00
  5.40000000E+02  3.00000000E+02  0.00000000E+00
  5.40000000E+02  2.80000000E+02  0.00000000E+00
  5.40000000E+02  2.60000000E+02  0.00000000E+00
  5.40000000E+02  2.40000000E+02  0.00000000E+00
  5.40000000E+02  2.20000000E+02  0.00000000E+00
  5.40000000E+02  2.00000000E+02  0.00000000E+00
  5.40000000E+02  1.80000000E+02  0.00000000E+00
  5.40000000E+02  1.60000000E+02  0.00000000E+00
  5.40000000E+02  1.40000000E+02  0.00000000E+00
  5.40000000E+02  1.20000000E+02  0.00000000E+00
  5.40000000E+02  1.00000000E+02  0.00000000E+00
  5.40000000E+02  8.00000000E+01  0.00000000E+00
  5.40000000E+02  6.00000000E+01  0.00000000E+00
  5.40000000E+02  4.00000000E+01  0.00000000E+00
  5.40000000E+02  2.00000000E+01  0.00000000E+00
  5.40000000E+02  4.99600361E-14  0.00000000E+00
  5.60000000E+02  3.00000000E+02  0.00000000E+00
  5.60000000E+02  2.80000000E+02  0.00000000E+00
  5.60000000E+02  2.60000000E+02  0.00000000E+00
  5.60000000E+02  2.40000000E+02  0.00000000E+00
  5.60000000E+02  2.20000000E+02  0.00000000E+00
  5.60000000E+02  2.00000000E+02  0.00000000E+00
  5.60000000E+02  1.80000000E+02  0.00000000E+00
  5.60000000E+02  1.60000000E+02  0.00000000E+00
  5.60000000E+02  1.40000000E+02  0.00000000E+00
  5.60000000E+02  1.20000000E+02  0.00000000E+00
  5.60000000E+02  1.00000000E+02  0.00000000E+00
  5.60000000E+02  8.00000000E+01  0.00000000E+00
  5.60000000E+02  6.00000000E+01  0.00000000E+00
  5.60000000E+02  4.00000000E+01  0.00000000E+00
  5.60000000E+02  2.00000000E+01  0.00000000E+00
  5.60000000E+02  4.99600361E-14  0.00000000E+00
  5.80000000E+02  3.00000000E+02  0.00000000E+00
  5.80000000E+02  2.80000000E+02  0.00000000E+00
  5.80000000E+02  2.60000000E+02  0.00000000E+00
  5.80000000E+02  2.40000000E+02  0.00000000E+00
  5.80000000E+02  2.20000000E+02  0.00000000E+00
  5.80000000E+02  2.00000000E+02  0.00000000E+00
  5.80000000E+02  1.80000000E+02  0.00000000E+00
  5.80000000E+02  1.60000000E+02  0.00000000E+00
  5.80000000E+02  1.40000000E+02  0.00000000E+00
  5.80000000E+02  1.20000000E+02  0.00000000E+00
  5.80000000E+02  1.00000000E+02  0.00000000E+00
  5.80000000E+02  8.00000000E+01  0.00000000E+00
  5.80000000E+02  6.00000000E+01  0.00000000E+00
  5.80000000E+02  4.00000000E+01  0.00000000E+00
  5.80000000E+02  2.00000000E+01  0.00000000E+00
  5.80000000E+02  4.99600361E-14  0.00000000E+00
  6.00000000E+02  3.00000000E+02  0.00000000E+00
  6.00000000E+02  2.80000000E+02  0.00000000E+00
  6.00000000E+02  2.60000000E+02  0.00000000E+00
  6.00000000E+02  2.40000000E+02  0.00000000E+00
  6.00000000E+02  2.20000000E+02  0.00000000E+00
  6.00000000E+02  2.00000000E+02  0.00000000E+00
  6.00000000E+02  1.80000000E+02  0.00000000E+00
  6.00000000E+02  1.60000000E+02  0.00000000E+00
  6.00000000E+02  1.40000000E+02  0.00000000E+00
  6.00000000E+02  1.20000000E+02  0.00000000E+00
  6.00000000E+02  1.00000000E+02  0.00000000E+00
  6.00000000E+02  8.00000000E+01  0.00000000E+00
  6.00000000E+02  6.00000000E+01  0.00000000E+00
  6.00000000E+02  4.00000000E+01  0.00000000E+00
  6.00000000E+02  2.00000000E+01  0.00000000E+00
  6.00000000E+02  4.99600361E-14  0.00000000E+00
CELLS       450      2250
         4           0           1          17          16
         4           1           2          18          17
         4           2           3          19          18
         4           3           4          20          19
         4           4           5          21          20
         4           5           6          22          21
         4           6           7          23          22
         4           7           8          24          23
         4           8           9          25          24
         4           9          10          26          25
         4          10          11          27          26
         4          11          12          28          27
         4          12          13          29          28
         4          13          14          30          29
         4          14          15          31          30
         4          16          17          33          32
         4          17          18          34          33
         4          18          19          35          34
         4          19          20          36          35
         4          20          21          37          36
         4          21          22          38          37
         4          22          23          39          38
         4          23          24          40          39
         4          24          25          41          40
         4          25          26          42          41
         4          26          27          43          42
         4          27          28          44          43
         4          28          29          45          44
         4          29          30          46          45
         4          30          31          47          46
         4          32          33          49          48
         4          33          34          50          49
         4          34          35          51          50
         4          35          36          52          51
         4          36          37          53          52
         4          37          38          54          53
         4          38          39          55          54
         4          39          40          56          55
         4          40          41          57          56
         4          41          42          58          57
         4          42          43          59          58
         4          43          44          60          59
         4          44          45          61          60
         4          45          46          62          61
         4          46          47          63          62
         4          48          49          65          64
         4          49          50          66          65
         4          50          51          67          66
         4          51          52          68          67
         4          52          53          69          68
         4          53          54          70          69
         4          54          55          71          70
         4          55          56          72          71
         4          56          57          73          72
         4          57          58          74          73
         4          58          59          75          74
         4          59          60          76          75
         4          60          61          77          76
         4          61          62          78          77
         4          62          63          79          78
         4          64          65          81          80
         4          65          66          82          81
         4          66          67          83          82
         4          67          68          84          83
         4          68          69          85          84
         4          69          70          86          85
         4          70          71          87          86
         4          71          72          88          87
         4          72          73          89          88
         4          73          74          90          89
         4          74          75          91          90
         4          75          76          92          91
         4          76          77          93          92
         4          77          78          94          93
         4          78          79          95          94
         4          80          81          97          96
         4          81          82          98          97
         4          82          83          99          98
         4          83          84         100          99
         4          84          85         101         100
         4          85          86         102         101
         4          86          87         103         102
         4          87          88         104         103
         4          88          89         105         104
         4          89          90         106         105
         4          90          91         107         106
         4          91          92         108         107
         4          92          93         109         108
         4          93          94         110         109
         4          94          95         111         110
         4          96          97         113         112
         4          97          98         114         113
         4          98          99         115         114
         4          99         100         116         115
         4         100         101         117         116
         4         101         102         118         117
         4         102         103         119         118
         4         103         104         120         119
         4         104         105         121         120
         4         105         106         122         121
         4         106         107         123         122
         4         107         108         124         123
         4         108         109         125         124
         4         109         110         126         125
         4         110         111         127         126
         4         112         113         129         128
         4         113         114         130         129
         4         114         115         131         130
         4         115         116         132         131
         4         116         117         133         132
         4         117         118         134         133
         4         118         119         135         134
         4         119         120         136         135
         4         120         121         137         136
         4         121         122         138         137
         4         122         123         139         138
         4         123         124         140         139
         4         124         125         141         140
         4         125         126         142         141
         4         126         127         143         142
         4         128         129         145         144
         4         129         130         146         145
         4         130         131         147         146
         4         131         132         148         147
         4         132         133         149         148
         4         133         134         150         149
         4         134         135         151         150
         4         135         136         152         151
         4         136         137         153         152
         4         137         138         154         153
         4         138         139         155         154
         4         139         140         156         155
         4         140         141         157         156
         4         141         142         158         157
         4         142         143         159         158
         4         144         145         161         160
         4         145         146         162         161
         4         146         147         163         162
         4         147         148         164         163
         4         148         149         165         164
         4         149         150         166         165
         4         150         151         167         166
         4         151         152         168         167
         4         152         153         169         168
         4         153         154         170         169
         4         154         155         171         170
         4         155         156         172         171
         4         156         157         173         172
         4         157         158         174         173
         4         158         159         175         174
         4         160         161         177         176
         4         161         162         178         177
         4         162         163         179         178
         4         163         164         180         179
         4         164         165         181         180
         4         165         166         182         181
         4         166         167         183         182
         4         167         168         184         183
         4         168         169         185         184
         4         169         170         186         185
         4         170         171         187         186
         4         171         172         188         187
         4         172         173         189         188
         4         173         174         190         189
         4         174         175         191         190
         4         176         177         193         192
         4         177         178         194         193
         4         178         179         195         194
         4         179         180         196         195
         4         180         181         197         196
         4         181         182         198         197
         4         182         183         199         198
         4         183         184         200         199
         4         184         185         201         200
         4         185         186         202         201
         4         186         187         203         202
         4         187         188         204         203
         4         188         189         205         204
         4         189         190         206         205
         4         190         191         207         206
         4         192         193         209         208
         4         193         194         210         209
         4         194         195         211         210
         4         195         196         212         211
         4         196         197         213         212
         4         197         198         214         213
         4         198         199         215         214
         4         199         200         216         215
         4         200         201         217         216
         4         201         202         218         217
         4         202         203         219         218
         4         203         204         220         219
         4         204         205         221         220
         4         205         206         222         221
         4         206         207         223         222
         4         208         209         225         224
         4         209         210         226         225
         4         210         211         227         226
         4         211         212         228         227
         4         212         213         229         228
         4         213         214         230         229
         4         214         215         231         230
         4         215         216         232         231
         4         216         217         233         232
         4         217         218         234         233
         4         218         219         235         234
         4         219         220         236         235
         4         220         221         237         236
         4         221         222         238         237
         4         222         223         239         238
         4         224         225         241         240
         4         225         226         242         241
         4         226         227         243         242
         4         227         228         244         243
         4         228         229         245         244
         4         229         230         246         245
         4         230         231         247         246
         4         231         232         248         247
         4         232         233         249         248
         4         233         234         250         249
         4         234         235         251         250
         4         235         236         252         251
         4         236         237         253         252
         4         237         238         254         253
         4         238         239         255         254
         4         240         241         257         256
         4         241         242         258         257
         4         242         243         259         258
         4         243         244         260         259
         4         244         245         261         260
         4         245         246         262         261
         4         246         247         263         262
         4         247         248         264         263
         4         248         249         265         264
         4         249         250         266         265
         4         250         251         267         266
         4         251         252         268         267
         4         252         253         269         268
         4         253         254         270         269
         4         254         255         271         270
         4         256         257         273         272
         4         257         258         274         273
         4         258         259         275         274
         4         259         260         276         275
         4         260         261         277         276
         4         261         262         278         277
         4         262         263         279         278
         4         263         264         280         279
         4         264         265         281         280
         4         265         266         282         281
         4         266         267         283         282
         4         267         268         284         283
         4         268         269         285         284
         4         269         270         286         285
         4         270         271         287         286
         4         272         273         289         288
         4         273         274         290         289
         4         274         275         291         290
         4         275         276         292         291
         4         276         277         293         292
         4         277         278         294         293
         4         278         279         295         294
         4         279         280         296         295
         4         280         281         297         296
         4         281         282         298         297
         4         282         283         299         298
         4         283         284         300         299
         4         284         285         301         300
         4         285         286         302         301
         4         286         287         303         302
         4         288         289         305         304
         4         289         290         306         305
         4         290         291         307         306
         4         291         292         308         307
         4         292         293         309         308
         4         293         294         310         309
         4         294         295         311         310
         4         295         296         312         311
         4         296         297         313         312
         4         297         298         314         313
         4         298         299         315         314
         4         299         300         316         315
         4         300         301         317         316
         4         301         302         318         317
         4         302         303         319         318
         4         304         305         321         320
         4         305         306         322         321
         4         306         307         323         322
         4         307         308         324         323
         4         308         309         325         324
         4         309         310         326         325
         4         310         311         327         326
         4         311         312         328         327
         4         312         313         329         328
         4         313         314         330         329
         4         314         315         331         330
         4         315         316         332         331
         4         316         317         333         332
         4         317         318         334         333
         4         318         319         335         334
         4         320         321         337         336
         4         321         322         338         337
         4         322         323         339         338
         4         323         324         340         339
         4         324         325         341         340
         4         325         326         342         341
         4         326         327         343         342
         4         327         328         344         343
         4         328         329         345         344
         4         329         330         346         345
         4         330         331         347         346
         4         331         332         348         347
         4         332         333         349         348
         4         333         334         350         349
         4         334         335         351         350
         4         336         337         353         352
         4         337         338         354         353
         4         338         339         355         354
         4         339         340         356         355
         4         340         341         357         356
         4         341         342         358         357
         4         342         343         359         358
         4         343         344         360         359
         4         344         345         361         360
         4         345         346         362         361
         4         346         347         363         362
         4         347         348         364         363
         4         348         349         365         364
         4         349         350         366         365
         4         350         351         367         366
         4         352         353         369         368
         4         353         354         370         369
         4         354         355         371         370
         4         355         356         372         371
         4         356         357         373         372
         4         357         358         374         373
         4         358         359         375         374
         4         359         360         376         375
         4         360         361         377         376
         4         361         362         378         377
         4         362         363         379         378
         4         363         364         380         379
         4         364         365         381         380
         4         365         366         382         381
         4         366         367         383         382
         4         368         369         385         384
         4         369         370         386         385
         4         370         371         387         386
         4         371         372         388         387
         4         372         373         389         388
         4         373         374         390         389
         4         374         375         391         390
         4         375         376         392         391
         4         376         377         393         392
         4         377         378         394         393
         4         378         379         395         394
         4         379         380         396         395
         4         380         381         397         396
         4         381         382         398         397
         4         382         383         399         398
         4         384         385         401         400
         4         385         386         402         401
         4         386         387         403         402
         4         387         388         404         403
         4         388         389         405         404
         4         389         390         406         405
         4         390         391         407         406
         4         391         392         408         407
         4         392         393         409         408
         4         393         394         410         409
         4         394         395         411         410
         4         395         396         412         411
         4         396         397         413         412
         4         397         398         414         413
         4         398         399         415         414
         4         400         401         417         416
         4         401         402         418         417
         4         402         403         419         418
         4         403         404         420         419
         4         404         405         421         420
         4         405         406         422         421
         4         406         407         423         422
         4         407         408         424         423
         4         408         409         425         424
         4         409         410         426         425
         4         410         411         427         426
         4         411         412         428         427
         4         412         413         429         428
         4         413         414         430         429
         4         414         415         431         430
         4         416         417         433         432
         4         417         418         434         433
         4         418         419         435         434
         4         419         420         436         435
         4         420         421         437         436
         4         421         422         438         437
         4         422         423         439         438
         4         423         424         440         439
         4         424         425         441         440
         4         425         426         442         441
         4         426         427         443         442
         4         427         428         444         443
         4         428         429         445         444
         4         429         430         446         445
         4         430         431         447         446
         4         432         433         449         448
         4         433         434         450         449
         4         434         435         451         450
         4         435         436         452         451
         4         436         437         453         452
         4         437         438         454         453
         4         438         439         455         454
         4         439         440         456         455
         4         440         441         457         456
         4         441         442         458         457
         4         442         443         459         458
         4         443         444         460         459
         4         444         445         461         460
         4         445         446         462         461
         4         446         447         463         462
         4         448         449         465         464
         4         449         450         466         465
         4         450         451         467         466
         4         451         452         468         467
         4         452         453         469         468
         4         453         454         470         469
         4         454         455         471         470
         4         455         456         472         471
         4         456         457         473         472
         4         457         458         474         473
         4         458         459         475         474
         4         459         460         476         475
         4         460         461         477         476
         4         461         462         478         477
         4         462         463         479         478
         4         464         465         481         480
         4         465         466         482         481
         4         466         467         483         482
         4         467         468         484         483
         4         468         469         485         484
         4         469         470         486         485
         4         470         471         487         486
         4         471         472         488         487
         4         472         473         489         488
         4         473         474         490         489
         4         474         475         491         490
         4         475         476         492         491
         4         476         477         493         492
         4         477         478         494         493
         4         478         479         495         494
CELL_TYPES        450
9
9
9
9
9
9
9
9
9
9
9
9
9
9
9
9
9
9
9
9
9
9
9
9
9
9
9
9
9
9
9
9
9
9
9
9
9
9
9
9
9
9
9
9
9
9
9
9
9
9
9
9
9
9
9
9
9
9
9
9
9
9
9
9
9
9
9
9
9
9
9
9
9
9
9
9
9
9
9
9
9
9
9
9
9
9
9
9
9
9
9
9
9
9
9
9
9
9
9
9
9
9
9
9
9
9
9
9
9
9
9
9
9
9
9
9
9
9
9
9
9
9
9
9
9
9
9
9
9
9
9
9
9
9
9
9
9
9
9
9
9
9
9
9
9
9
9
9
9
9
9
9
9
9
9
9
9
9
9
9
9
9
9
9
9
9
9
9
9
9
9
9
9
9
9
9
9
9
9
9
9
9
9
9
9
9
9
9
9
9
9
9
9
9
9
9
9
9
9
9
9
9
9
9
9
9
9
9
9
9
9
9
9
9
9
9
9
9
9
9
9
9
9
9
9
9
9
9
9
9
9
9
9
9
9
9
9
9
9
9
9
9
9
9
9
9
9
9
9
9
9
9
9
9
9
9
9
9
9
9
9
9
9
9
9
9
9
9
9
9
9
9
9
9
9
9
9
9
9
9
9
9
9
9
9
9
9
9
9
9
9
9
9
9
9
9
9
9
9
9
9
9
9
9
9
9
9
9
9
9
9
9
9
9
9
9
9
9
9
9
9
9
9
9
9
9
9
9
9
9
9
9
9
9
9
9
9
9
9
9
9
9
9
9
9
9
9
9
9
9
9
9
9
9
9
9
9
9
9
9
9
9
9
9
9
9
9
9
9
9
9
9
9
9
9
9
9
9
9
9
9
9
9
9
9
9
9
9
9
9
9
9
9
9
9
9
9
9
9
9
9
9
9
9
9
9
9
9
9
9
9
9
9
9
9
9
9
9
9
9
9
9
9
9
9
9
9
9
9
9
9
9
9
9
9
9
9
9
9
9
9
9
9
9
9
9
9
9
9
9
POINT_DATA       496
SCALARS p double 
LOOKUP_TABLE default
   49423326.1176460     
   49422413.1354403     
   49422491.0390021     
   49431398.9638111     
   49451501.9564657     
   49479275.8305688     
   49511836.4267873     
   49546827.6857971     
   49582308.9946786     
   49616659.8143069     
   49648504.8411277     
   49676657.0855453     
   49700074.9474810     
   49717829.7137484     
   49729080.7611692     
   49733056.7665279     
   49391588.9032350     
   49390611.4056647     
   49390565.8731444     
   49399274.4265762     
   49419048.1256074     
   49446390.8071654     
   49478456.8819007     
   49512926.2466141     
   49547887.4897481     
   49581742.8159694     
   49613134.7288094     
   49640890.6664557     
   49663981.3517893     
   49681489.2115224     
   49692584.1599709     
   49696505.0587908     
   49296031.2876483     
   49294854.6050944     
   49294439.4085944     
   49302550.9048617     
   49321328.0075637     
   49347370.5657947     
   49377952.9962944     
   49410862.1339215     
   49444271.9856218     
   49476651.0724226     
   49506693.8976489     
   49533270.2065965     
   49555387.0365786     
   49572159.8184635     
   49582789.8570450     
   49586546.5242107     
   49135588.5981011     
   49134073.1543420     
   49133049.9488557     
   49140167.6684610     
   49157255.1709920     
   49181114.2118987     
   49209229.0948605     
   49239559.8171316     
   49270415.6936190     
   49300369.8325654     
   49328199.0993794     
   49352840.7534651     
   49373360.3203910     
   49388926.9281436     
   49398793.4925184     
   49402280.0965053     
   48908391.4484711     
   48906439.2877854     
   48904595.9518124     
   48910315.4788780     
   48924985.0986744     
   48945774.1973920     
   48970463.3730880     
   48997242.2225773     
   49024595.9683495     
   49051233.5490199     
   49076039.3766880     
   49098039.7054366     
   49116378.0999513     
   49130296.3360414     
   49139118.1970364     
   49142234.4879906     
   48611727.3810375     
   48609293.4583952     
   48606486.8436721     
   48610360.0575279     
   48621884.2674165     
   48638757.4410387     
   48659128.2202828     
   48681461.7509081     
   48704451.4725227     
   48726966.5435907     
   48748018.7253202     
   48766740.6438363     
   48782370.4104095     
   48794239.2796781     
   48801759.9342880     
   48804413.6496336     
   48242100.6532529     
   48239112.1172847     
   48235195.7684380     
   48236809.7996338     
   48244555.1676697     
   48256766.9193541     
   48272039.6616713     
   48289154.9223672     
   48307040.1145868     
   48324742.8901120     
   48341417.1020820     
   48356315.0344540     
   48368782.6189145     
   48378255.0210570     
   48384250.3730022     
   48386359.7728970     
   47795441.5167753     
   47791863.3963869     
   47786583.2904781     
   47785539.3108930     
   47788953.1009583     
   47795892.4031775     
   47805440.6407105     
   47816723.6672364     
   47828919.4639192     
   47841266.2464541     
   47853069.8487781     
   47863711.4508024     
   47872654.6556072     
   47879450.2366348     
   47883736.4840793     
   47885233.0082611     
   47267096.5168950     
   47263129.0027154     
   47256200.5768891     
   47251920.5919137     
   47250518.4263113     
   47251728.6189523     
   47255112.9158150     
   47260141.6413161     
   47266248.8226614     
   47272868.8232680     
   47279464.5818113     
   47285551.2433291     
   47290716.1246549     
   47294634.0103275     
   47297075.6305028     
   47297906.6550945     
   46651619.2361676     
   46647449.1096317     
   46638791.6210171     
   46630817.8647320     
   46624281.1126034     
   46619512.4025436     
   46616511.7493912     
   46615081.9315910     
   46614910.1977762     
   46615627.2098069     
   46616853.5141154     
   46618238.7644366     
   46619495.5004741     
   46620426.6970567     
   46620944.4443896     
   46621076.1155920     
   45943492.4097561     
   45939062.6843138     
   45928602.7503119     
   45916765.4022214     
   45905042.4302768     
   45894289.4224071     
   45884921.7222014     
   45877061.8960420     
   45870644.2204311     
   45865491.6532711     
   45861378.2424906     
   45858083.4901336     
   45855440.9783564     
   45853380.3895584     
   45851959.3098302     
   45851379.4431275     
   45137578.4528655     
   45132385.8446084     
   45119979.9656296     
   45104345.8803881     
   45087612.8282323     
   45071107.6633119     
   45055627.3705371     
   45041599.4530959     
   45029196.1662221     
   45018424.6717579     
   45009203.3522366     
   45001430.7191700     
   44995049.9427315     
   44990108.1968602     
   44986805.8114732     
   44985526.8730543     
   44227814.2614451     
   44221900.3647805     
   44207550.1544130     
   44188392.8463184     
   44167029.9602775     
   44145210.2037835     
   44124086.8734572     
   44104373.7989341     
   44086467.0182375     
   44070544.7178221     
   44056654.8203653     
   44044796.9630724     
   44035003.3839900     
   44027418.9764079     
   44022374.0356533     
   44020436.2764115     
   43209190.2790657     
   43202788.2271302     
   43186549.3119322     
   43164231.0945190     
   43138744.2550238     
   43112209.8433649     
   43086099.2918285     
   43061385.1816408     
   43038665.7132122     
   43018271.2267897     
   43000359.1719074     
   42985005.5634296     
   42972300.7523965     
   42962453.3772693     
   42955896.0026407     
   42953370.9162712     
   42078053.9033815     
   42070981.5165410     
   42052921.3267548     
   42027790.0186516     
   41998763.7457609     
   41968244.4126841     
   41937964.1558426     
   41909112.9016588     
   41882461.3678604     
   41858468.8668412     
   41837379.7117357     
   41819317.3562767     
   41804389.3074128     
   41792815.6347611     
   41785080.4663282     
   41782074.9661154     
   40830630.2096769     
   40822888.2452370     
   40803159.3903220     
   40775654.0493579     
   40743771.0706567     
   40710125.1539429     
   40676640.9862269     
   40644675.6611157     
   40615137.5709595     
   40588591.1264089     
   40565347.3564190     
   40545550.4465891     
   40529279.4366977     
   40516692.5087712     
   40508238.1349731     
   40504900.2353333     
   39463828.3103374     
   39455521.4018383     
   39434460.9890682     
   39405178.5955138     
   39371270.6897186     
   39335500.4454439     
   39299920.1471555     
   39266001.0837683     
   39234753.6019024     
   39206826.7819010     
   39182586.8642066     
   39162184.2701131     
   39145633.0089885     
   39132943.7206018     
   39124384.8267047     
   39120913.2551548     
   37975557.6394710     
   37966870.9658221     
   37944988.9697555     
   37914715.4533403     
   37879787.6968181     
   37843049.0750246     
   37806612.4388016     
   37772009.7424390     
   37740318.5525037     
   37712257.3039154     
   37688247.6147380     
   37668451.7063992     
   37652810.2686193     
   37641129.8752118     
   37633294.9239513     
   37629955.0634020     
   36365023.1555283     
   36356209.3127051     
   36334170.3961726     
   36303873.7646725     
   36269103.2122780     
   36232697.0097192     
   36196755.0046308     
   36162813.3282693     
   36131981.7970307     
   36105036.5451049     
   36082461.9396002     
   36064452.0219455     
   36050895.0726663     
   36041397.8174944     
   36035424.1463357     
   36032592.3552723     
   34633006.4681558     
   34624376.4922657     
   34602978.7521020     
   34573784.9468690     
   34540495.8346529     
   34505839.6751064     
   34471820.4041465     
   34439917.4161243     
   34411235.4517634     
   34386596.8536380     
   34366561.3061703     
   34351362.5694449     
   34340832.2014129     
   34334379.6283083     
   34331101.2045152     
   34329677.1652800     
   32782132.8429425     
   32774046.6692544     
   32754194.4876646     
   32727348.3184092     
   32696966.6448251     
   32665546.9050649     
   32634907.6548897     
   32606407.8770535     
   32581108.4511470     
   32559867.6880697     
   32543337.4693219     
   32531823.1392970     
   32524963.4741302     
   32521588.9439603     
   32520653.2059386     
   32521041.1137935     
   30817115.9246132     
   30809969.4862400     
   30792635.6522199     
   30769443.3218839     
   30743427.7373729     
   30716727.4538826     
   30690888.1462413     
   30667089.8463648     
   30646313.1622132     
   30629448.0887158     
   30617303.4992690     
   30610296.1844509     
   30608019.8389335     
   30608219.5569513     
   30608140.1348872     
   30607943.6988066     
   28744969.5318623     
   28739176.2182772     
   28725348.1843573     
   28707095.1729113     
   28686837.1755077     
   28666231.3401162     
   28646478.5217490     
   28628539.6930414     
   28613294.7701575     
   28601666.1699235     
   28594702.4506518     
   28593514.5996874     
   28596945.3008127     
   28600185.7238965     
   28600647.3194541     
   28600209.2023879     
   26575174.9774387     
   26571139.5384427     
   26561744.6466751     
   26549581.6326222     
   26536266.3218501     
   26522873.8027383     
   26510219.8576263     
   26499039.8453813     
   26490120.4929071     
   26484441.2707898     
   26483366.5657474     
   26489089.4135692     
   26498271.2756696     
   26504299.9139528     
   26505871.7719831     
   26505642.0691847     
   24319793.5274365     
   24317876.6737058     
   24313680.7136255     
   24308469.5014913     
   24302888.8497083     
   24297373.3507113     
   24292360.4941697     
   24288396.1331556     
   24286211.9866142     
   24286858.6606942     
   24292068.7356025     
   24304288.9196921     
   24318760.5667257     
   24327682.3057545     
   24330903.7679720     
   24331212.8383261     
   21993517.7994130     
   21993989.0340368     
   21995459.3556009     
   21997568.0004393     
   21999880.7681144     
   22002203.1604298     
   22004660.2118610     
   22007683.5536366     
   22012004.5504423     
   22018733.8061452     
   22029640.0007656     
   22047021.2862302     
   22065725.1842011     
   22077889.1263383     
   22083126.6518354     
   22084143.1722517     
   19613665.6075736     
   19616638.1169279     
   19623751.0176040     
   19632777.4857790     
   19642211.6969243     
   19651351.6929908     
   19660140.4553861     
   19668990.1586222     
   19678677.1693400     
   19690319.9308572     
   19705454.7045998     
   19725878.0137680     
   19747405.9948243     
   19762829.9642338     
   19770099.7529956     
   19771891.4059244     
   17200141.4037133     
   17205470.3116628     
   17217406.8923502     
   17231786.6881150     
   17246284.3370431     
   17259972.0345829     
   17272788.7907168     
   17285203.8764015     
   17298037.3488178     
   17312369.4646554     
   17329410.9592671     
   17350270.8457739     
   17372633.6324490     
   17390259.2408656     
   17399289.1743679     
   17401871.0209522     
   14775450.8466921     
   14782520.4601507     
   14797097.5307738     
   14813507.7532120     
   14829347.3638159     
   14843881.9351599     
   14857199.9083406     
   14869824.5517751     
   14882537.0656053     
   14896271.2698015     
   14911969.0123464     
   14930145.7064129     
   14950302.1832724     
   14967588.8690722     
   14977581.7294068     
   14980661.1155987     
   12364990.7292214     
   12372184.3646077     
   12384461.4201344     
   12397043.9953934     
   12408598.3702393     
   12418890.4374339     
   12428132.3787478     
   12436749.5546354     
   12445287.7160333     
   12454356.3237058     
   12464531.5166870     
   12476151.5337560     
   12489222.1654772     
   12502086.9881606     
   12509982.5667820     
   12512904.3945794     
   10000000.0000000     
   10000000.0000000     
   10000000.0000000     
   10000000.0000000     
   10000000.0000000     
   10000000.0000000     
   10000000.0000000     
   10000000.0000000     
   10000000.0000000     
   10000000.0000000     
   10000000.0000000     
   10000000.0000000     
   10000000.0000000     
  10000000.00000000     
   10000000.0000000     
   10000000.0000000     
VECTORS u double 
    0.00000E+00        -0.13551E-01         0.00000E+00
    0.00000E+00        -0.12403E-01         0.00000E+00
    0.00000E+00        -0.11316E-01         0.00000E+00
    0.00000E+00        -0.10279E-01         0.00000E+00
    0.00000E+00        -0.92685E-02         0.00000E+00
    0.00000E+00        -0.82840E-02         0.00000E+00
    0.00000E+00        -0.73254E-02         0.00000E+00
    0.00000E+00        -0.63924E-02         0.00000E+00
    0.00000E+00        -0.54856E-02         0.00000E+00
    0.00000E+00        -0.46058E-02         0.00000E+00
    0.00000E+00        -0.37543E-02         0.00000E+00
    0.00000E+00        -0.29331E-02         0.00000E+00
    0.00000E+00        -0.21442E-02         0.00000E+00
    0.00000E+00        -0.13904E-02         0.00000E+00
    0.00000E+00        -0.67465E-03         0.00000E+00
    0.00000E+00         0.00000E+00         0.00000E+00
    0.11403E-02        -0.13596E-01         0.00000E+00
    0.10496E-02        -0.12446E-01         0.00000E+00
    0.95825E-03        -0.11357E-01         0.00000E+00
    0.86878E-03        -0.10318E-01         0.00000E+00
    0.78343E-03        -0.93056E-02         0.00000E+00
    0.70235E-03        -0.83188E-02         0.00000E+00
    0.62521E-03        -0.73575E-02         0.00000E+00
    0.55138E-03        -0.64217E-02         0.00000E+00
    0.48018E-03        -0.55119E-02         0.00000E+00
    0.41087E-03        -0.46287E-02         0.00000E+00
    0.34277E-03        -0.37738E-02         0.00000E+00
    0.27520E-03        -0.29489E-02         0.00000E+00
    0.20760E-03        -0.21562E-02         0.00000E+00
    0.13944E-03        -0.13985E-02         0.00000E+00
    0.70341E-04        -0.67872E-03         0.00000E+00
    0.00000E+00         0.00000E+00         0.00000E+00
    0.22778E-02        -0.13731E-01         0.00000E+00
    0.20961E-02        -0.12576E-01         0.00000E+00
    0.19128E-02        -0.11481E-01         0.00000E+00
    0.17335E-02        -0.10436E-01         0.00000E+00
    0.15630E-02        -0.94173E-02         0.00000E+00
    0.14013E-02        -0.84234E-02         0.00000E+00
    0.12474E-02        -0.74542E-02         0.00000E+00
    0.11003E-02        -0.65098E-02         0.00000E+00
    0.95834E-03        -0.55907E-02         0.00000E+00
    0.82017E-03        -0.46976E-02         0.00000E+00
    0.68436E-03        -0.38322E-02         0.00000E+00
    0.54959E-03        -0.29963E-02         0.00000E+00
    0.41468E-03        -0.21922E-02         0.00000E+00
    0.27862E-03        -0.14227E-02         0.00000E+00
    0.14059E-03        -0.69091E-03         0.00000E+00
    0.00000E+00         0.00000E+00         0.00000E+00
    0.34088E-02        -0.13957E-01         0.00000E+00
    0.31357E-02        -0.12792E-01         0.00000E+00
    0.28597E-02        -0.11689E-01         0.00000E+00
    0.25901E-02        -0.10634E-01         0.00000E+00
    0.23348E-02        -0.96042E-02         0.00000E+00
    0.20932E-02        -0.85982E-02         0.00000E+00
    0.18637E-02        -0.76158E-02         0.00000E+00
    0.16442E-02        -0.66570E-02         0.00000E+00
    0.14325E-02        -0.57223E-02         0.00000E+00
    0.12263E-02        -0.48127E-02         0.00000E+00
    0.10236E-02        -0.39297E-02         0.00000E+00
    0.82232E-03        -0.30754E-02         0.00000E+00
    0.62073E-03        -0.22523E-02         0.00000E+00
    0.41725E-03        -0.14632E-02         0.00000E+00
    0.21064E-03        -0.71127E-03         0.00000E+00
    0.00000E+00         0.00000E+00         0.00000E+00
    0.45290E-02        -0.14273E-01         0.00000E+00
    0.41638E-02        -0.13097E-01         0.00000E+00
    0.37939E-02        -0.11983E-01         0.00000E+00
    0.34338E-02        -0.10913E-01         0.00000E+00
    0.30949E-02        -0.98676E-02         0.00000E+00
    0.27748E-02        -0.88443E-02         0.00000E+00
    0.24711E-02        -0.78430E-02         0.00000E+00
    0.21806E-02        -0.68637E-02         0.00000E+00
    0.19005E-02        -0.59070E-02         0.00000E+00
    0.16276E-02        -0.49740E-02         0.00000E+00
    0.13592E-02        -0.40665E-02         0.00000E+00
    0.10925E-02        -0.31865E-02         0.00000E+00
    0.82517E-03        -0.23366E-02         0.00000E+00
    0.55502E-03        -0.15199E-02         0.00000E+00
    0.28038E-03        -0.73983E-03         0.00000E+00
    0.00000E+00         0.00000E+00         0.00000E+00
    0.56333E-02        -0.14681E-01         0.00000E+00
    0.51738E-02        -0.13490E-01         0.00000E+00
    0.47095E-02        -0.12364E-01         0.00000E+00
    0.42601E-02        -0.11275E-01         0.00000E+00
    0.38392E-02        -0.10208E-01         0.00000E+00
    0.34426E-02        -0.91624E-02         0.00000E+00
    0.30664E-02        -0.81363E-02         0.00000E+00
    0.27069E-02        -0.71304E-02         0.00000E+00
    0.23602E-02        -0.61452E-02         0.00000E+00
    0.20224E-02        -0.51821E-02         0.00000E+00
    0.16899E-02        -0.42428E-02         0.00000E+00
    0.13593E-02        -0.33295E-02         0.00000E+00
    0.10274E-02        -0.24452E-02         0.00000E+00
    0.69160E-03        -0.15930E-02         0.00000E+00
    0.34968E-03        -0.77665E-03         0.00000E+00
    0.00000E+00         0.00000E+00         0.00000E+00
    0.67158E-02        -0.15184E-01         0.00000E+00
    0.61586E-02        -0.13976E-01         0.00000E+00
    0.55988E-02        -0.12833E-01         0.00000E+00
    0.50641E-02        -0.11721E-01         0.00000E+00
    0.45637E-02        -0.10628E-01         0.00000E+00
    0.40929E-02        -0.95532E-02         0.00000E+00
    0.36467E-02        -0.84964E-02         0.00000E+00
    0.32205E-02        -0.74575E-02         0.00000E+00
    0.28095E-02        -0.64373E-02         0.00000E+00
    0.24089E-02        -0.54371E-02         0.00000E+00
    0.20143E-02        -0.44588E-02         0.00000E+00
    0.16216E-02        -0.35049E-02         0.00000E+00
    0.12268E-02        -0.25783E-02         0.00000E+00
    0.82660E-03        -0.16827E-02         0.00000E+00
    0.41837E-03        -0.82179E-03         0.00000E+00
    0.00000E+00         0.00000E+00         0.00000E+00
    0.77689E-02        -0.15785E-01         0.00000E+00
    0.71125E-02        -0.14558E-01         0.00000E+00
    0.64577E-02        -0.13392E-01         0.00000E+00
    0.58409E-02        -0.12251E-01         0.00000E+00
    0.52640E-02        -0.11126E-01         0.00000E+00
    0.47218E-02        -0.10017E-01         0.00000E+00
    0.42085E-02        -0.89236E-02         0.00000E+00
    0.37184E-02        -0.78454E-02         0.00000E+00
    0.32458E-02        -0.67835E-02         0.00000E+00
    0.27851E-02        -0.57393E-02         0.00000E+00
    0.23309E-02        -0.47148E-02         0.00000E+00
    0.18782E-02        -0.37126E-02         0.00000E+00
    0.14225E-02        -0.27360E-02         0.00000E+00
    0.95958E-03        -0.17889E-02         0.00000E+00
    0.48628E-03        -0.87531E-03         0.00000E+00
    0.00000E+00         0.00000E+00         0.00000E+00
    0.87841E-02        -0.16485E-01         0.00000E+00
    0.80269E-02        -0.15237E-01         0.00000E+00
    0.72816E-02        -0.14043E-01         0.00000E+00
    0.65855E-02        -0.12866E-01         0.00000E+00
    0.59357E-02        -0.11704E-01         0.00000E+00
    0.53254E-02        -0.10555E-01         0.00000E+00
    0.47482E-02        -0.94183E-02         0.00000E+00
    0.41975E-02        -0.82944E-02         0.00000E+00
    0.36666E-02        -0.71841E-02         0.00000E+00
    0.31489E-02        -0.60889E-02         0.00000E+00
    0.26380E-02        -0.50108E-02         0.00000E+00
    0.21281E-02        -0.39529E-02         0.00000E+00
    0.16137E-02        -0.29185E-02         0.00000E+00
    0.10900E-02        -0.19118E-02         0.00000E+00
    0.55317E-03        -0.93724E-03         0.00000E+00
    0.00000E+00         0.00000E+00         0.00000E+00
    0.97524E-02        -0.17286E-01         0.00000E+00
    0.88935E-02        -0.16016E-01         0.00000E+00
    0.80642E-02        -0.14785E-01         0.00000E+00
    0.72931E-02        -0.13567E-01         0.00000E+00
    0.65737E-02        -0.12361E-01         0.00000E+00
    0.58991E-02        -0.11166E-01         0.00000E+00
    0.52619E-02        -0.99805E-02         0.00000E+00
    0.46545E-02        -0.88046E-02         0.00000E+00
    0.40691E-02        -0.76392E-02         0.00000E+00
    0.34979E-02        -0.64858E-02         0.00000E+00
    0.29338E-02        -0.53470E-02         0.00000E+00
    0.23697E-02        -0.42257E-02         0.00000E+00
    0.17994E-02        -0.31257E-02         0.00000E+00
    0.12173E-02        -0.20513E-02         0.00000E+00
    0.61876E-03        -0.10076E-02         0.00000E+00
    0.00000E+00         0.00000E+00         0.00000E+00
    0.10664E-01        -0.18193E-01         0.00000E+00
    0.97082E-02        -0.16892E-01         0.00000E+00
    0.88008E-02        -0.15617E-01         0.00000E+00
    0.79580E-02        -0.14353E-01         0.00000E+00
    0.71730E-02        -0.13098E-01         0.00000E+00
    0.64382E-02        -0.11851E-01         0.00000E+00
    0.57453E-02        -0.10610E-01         0.00000E+00
    0.50856E-02        -0.93757E-02         0.00000E+00
    0.44500E-02        -0.81485E-02         0.00000E+00
    0.38297E-02        -0.69301E-02         0.00000E+00
    0.32162E-02        -0.57232E-02         0.00000E+00
    0.26015E-02        -0.45310E-02         0.00000E+00
    0.19785E-02        -0.33576E-02         0.00000E+00
    0.13408E-02        -0.22076E-02         0.00000E+00
    0.68274E-03        -0.10865E-02         0.00000E+00
    0.00000E+00         0.00000E+00         0.00000E+00
    0.11513E-01        -0.19205E-01         0.00000E+00
    0.10466E-01        -0.17864E-01         0.00000E+00
    0.94848E-02        -0.16539E-01         0.00000E+00
    0.85738E-02        -0.15223E-01         0.00000E+00
    0.77274E-02        -0.13914E-01         0.00000E+00
    0.69372E-02        -0.12609E-01         0.00000E+00
    0.61937E-02        -0.11307E-01         0.00000E+00
    0.54868E-02        -0.10008E-01         0.00000E+00
    0.48061E-02        -0.87119E-02         0.00000E+00
    0.41414E-02        -0.74215E-02         0.00000E+00
    0.34830E-02        -0.61392E-02         0.00000E+00
    0.28219E-02        -0.48685E-02         0.00000E+00
    0.21499E-02        -0.36140E-02         0.00000E+00
    0.14596E-02        -0.23805E-02         0.00000E+00
    0.74471E-03        -0.11737E-02         0.00000E+00
    0.00000E+00         0.00000E+00         0.00000E+00
    0.12296E-01        -0.20322E-01         0.00000E+00
    0.11163E-01        -0.18929E-01         0.00000E+00
    0.10109E-01        -0.17549E-01         0.00000E+00
    0.91334E-02        -0.16177E-01         0.00000E+00
    0.82304E-02        -0.14808E-01         0.00000E+00
    0.73903E-02        -0.13440E-01         0.00000E+00
    0.66021E-02        -0.12071E-01         0.00000E+00
    0.58538E-02        -0.10700E-01         0.00000E+00
    0.51337E-02        -0.93287E-02         0.00000E+00
    0.44301E-02        -0.79592E-02         0.00000E+00
    0.37319E-02        -0.65943E-02         0.00000E+00
    0.30290E-02        -0.52379E-02         0.00000E+00
    0.23121E-02        -0.38946E-02         0.00000E+00
    0.15729E-02        -0.25697E-02         0.00000E+00
    0.80425E-03        -0.12693E-02         0.00000E+00
    0.00000E+00         0.00000E+00         0.00000E+00
    0.13013E-01        -0.21541E-01         0.00000E+00
    0.11791E-01        -0.20089E-01         0.00000E+00
    0.10665E-01        -0.18650E-01         0.00000E+00
    0.96289E-02        -0.17215E-01         0.00000E+00
    0.86751E-02        -0.15781E-01         0.00000E+00
    0.77915E-02        -0.14343E-01         0.00000E+00
    0.69651E-02        -0.12900E-01         0.00000E+00
    0.61821E-02        -0.11451E-01         0.00000E+00
    0.54290E-02        -0.99979E-02         0.00000E+00
    0.46926E-02        -0.85424E-02         0.00000E+00
    0.39603E-02        -0.70878E-02         0.00000E+00
    0.32207E-02        -0.56383E-02         0.00000E+00
    0.24636E-02        -0.41988E-02         0.00000E+00
    0.16797E-02        -0.27750E-02         0.00000E+00
    0.86081E-03        -0.13730E-02         0.00000E+00
    0.00000E+00         0.00000E+00         0.00000E+00
    0.13650E-01        -0.22863E-01         0.00000E+00
    0.12339E-01        -0.21345E-01         0.00000E+00
    0.11143E-01        -0.19840E-01         0.00000E+00
    0.10052E-01        -0.18337E-01         0.00000E+00
    0.90542E-02        -0.16830E-01         0.00000E+00
    0.81343E-02        -0.15316E-01         0.00000E+00
    0.72771E-02        -0.13793E-01         0.00000E+00
    0.64669E-02        -0.12260E-01         0.00000E+00
    0.56880E-02        -0.10718E-01         0.00000E+00
    0.49256E-02        -0.91697E-02         0.00000E+00
    0.41655E-02        -0.76185E-02         0.00000E+00
    0.33950E-02        -0.60688E-02         0.00000E+00
    0.26028E-02        -0.45259E-02         0.00000E+00
    0.17786E-02        -0.29957E-02         0.00000E+00
    0.91376E-03        -0.14847E-02         0.00000E+00
    0.00000E+00         0.00000E+00         0.00000E+00
    0.14191E-01        -0.24284E-01         0.00000E+00
    0.12794E-01        -0.22696E-01         0.00000E+00
    0.11534E-01        -0.21118E-01         0.00000E+00
    0.10395E-01        -0.19539E-01         0.00000E+00
    0.93600E-02        -0.17954E-01         0.00000E+00
    0.84119E-02        -0.16358E-01         0.00000E+00
    0.75324E-02        -0.14748E-01         0.00000E+00
    0.67032E-02        -0.13124E-01         0.00000E+00
    0.59066E-02        -0.11487E-01         0.00000E+00
    0.51256E-02        -0.98391E-02         0.00000E+00
    0.43447E-02        -0.81847E-02         0.00000E+00
    0.35495E-02        -0.65281E-02         0.00000E+00
    0.27277E-02        -0.48749E-02         0.00000E+00
    0.18685E-02        -0.32314E-02         0.00000E+00
    0.96227E-03        -0.16040E-02         0.00000E+00
    0.00000E+00         0.00000E+00         0.00000E+00
    0.14620E-01        -0.25800E-01         0.00000E+00
    0.13145E-01        -0.24135E-01         0.00000E+00
    0.11827E-01        -0.22478E-01         0.00000E+00
    0.10647E-01        -0.20819E-01         0.00000E+00
    0.95846E-02        -0.19148E-01         0.00000E+00
    0.86174E-02        -0.17463E-01         0.00000E+00
    0.77247E-02        -0.15760E-01         0.00000E+00
    0.68856E-02        -0.14039E-01         0.00000E+00
    0.60801E-02        -0.12301E-01         0.00000E+00
    0.52890E-02        -0.10548E-01         0.00000E+00
    0.44949E-02        -0.87842E-02         0.00000E+00
    0.36819E-02        -0.70144E-02         0.00000E+00
    0.28365E-02        -0.52445E-02         0.00000E+00
    0.19475E-02        -0.34811E-02         0.00000E+00
    0.10053E-02        -0.17307E-02         0.00000E+00
    0.00000E+00         0.00000E+00         0.00000E+00
    0.14922E-01        -0.27404E-01         0.00000E+00
    0.13376E-01        -0.25657E-01         0.00000E+00
    0.12010E-01        -0.23916E-01         0.00000E+00
    0.10800E-01        -0.22168E-01         0.00000E+00
    0.97194E-02        -0.20406E-01         0.00000E+00
    0.87435E-02        -0.18626E-01         0.00000E+00
    0.78477E-02        -0.16824E-01         0.00000E+00
    0.70087E-02        -0.15000E-01         0.00000E+00
    0.62038E-02        -0.13156E-01         0.00000E+00
    0.54118E-02        -0.11293E-01         0.00000E+00
    0.46130E-02        -0.94146E-02         0.00000E+00
    0.37897E-02        -0.75262E-02         0.00000E+00
    0.29271E-02        -0.56338E-02         0.00000E+00
    0.20137E-02        -0.37442E-02         0.00000E+00
    0.10411E-02        -0.18644E-02         0.00000E+00
    0.00000E+00         0.00000E+00         0.00000E+00
    0.15080E-01        -0.29087E-01         0.00000E+00
    0.13474E-01        -0.27253E-01         0.00000E+00
    0.12072E-01        -0.25420E-01         0.00000E+00
    0.10843E-01        -0.23578E-01         0.00000E+00
    0.97559E-02        -0.21719E-01         0.00000E+00
    0.87824E-02        -0.19838E-01         0.00000E+00
    0.78946E-02        -0.17932E-01         0.00000E+00
    0.70662E-02        -0.16001E-01         0.00000E+00
    0.62723E-02        -0.14046E-01         0.00000E+00
    0.54893E-02        -0.12069E-01         0.00000E+00
    0.46952E-02        -0.10073E-01         0.00000E+00
    0.38701E-02        -0.80620E-02         0.00000E+00
    0.29974E-02        -0.60425E-02         0.00000E+00
    0.20650E-02        -0.40214E-02         0.00000E+00
    0.10671E-02        -0.20057E-02         0.00000E+00
    0.00000E+00         0.00000E+00         0.00000E+00
    0.15076E-01        -0.30836E-01         0.00000E+00
    0.13425E-01        -0.28909E-01         0.00000E+00
    0.12000E-01        -0.26980E-01         0.00000E+00
    0.10766E-01        -0.25038E-01         0.00000E+00
    0.96852E-02        -0.23075E-01         0.00000E+00
    0.87265E-02        -0.21088E-01         0.00000E+00
    0.78583E-02        -0.19074E-01         0.00000E+00
    0.70518E-02        -0.17033E-01         0.00000E+00
    0.62797E-02        -0.14965E-01         0.00000E+00
    0.55163E-02        -0.12871E-01         0.00000E+00
    0.47371E-02        -0.10755E-01         0.00000E+00
    0.39196E-02        -0.86205E-02         0.00000E+00
    0.30445E-02        -0.64722E-02         0.00000E+00
    0.20992E-02        -0.43167E-02         0.00000E+00
    0.10788E-02        -0.21607E-02         0.00000E+00
    0.00000E+00         0.00000E+00         0.00000E+00
    0.14894E-01        -0.32636E-01         0.00000E+00
    0.13214E-01        -0.30611E-01         0.00000E+00
    0.11783E-01        -0.28580E-01         0.00000E+00
    0.10558E-01        -0.26532E-01         0.00000E+00
    0.94989E-02        -0.24461E-01         0.00000E+00
    0.85679E-02        -0.22363E-01         0.00000E+00
    0.77315E-02        -0.20237E-01         0.00000E+00
    0.69582E-02        -0.18082E-01         0.00000E+00
    0.62190E-02        -0.15900E-01         0.00000E+00
    0.54863E-02        -0.13691E-01         0.00000E+00
    0.47331E-02        -0.11456E-01         0.00000E+00
    0.39335E-02        -0.91998E-02         0.00000E+00
    0.30643E-02        -0.69254E-02         0.00000E+00
    0.21105E-02        -0.46407E-02         0.00000E+00
    0.10802E-02        -0.23384E-02         0.00000E+00
    0.00000E+00         0.00000E+00         0.00000E+00
    0.14515E-01        -0.34468E-01         0.00000E+00
    0.12827E-01        -0.32341E-01         0.00000E+00
    0.11409E-01        -0.30202E-01         0.00000E+00
    0.10212E-01        -0.28043E-01         0.00000E+00
    0.91886E-02        -0.25858E-01         0.00000E+00
    0.82993E-02        -0.23646E-01         0.00000E+00
    0.75068E-02        -0.21405E-01         0.00000E+00
    0.67780E-02        -0.19135E-01         0.00000E+00
    0.60826E-02        -0.16839E-01         0.00000E+00
    0.53917E-02        -0.14516E-01         0.00000E+00
    0.46760E-02        -0.12167E-01         0.00000E+00
    0.39053E-02        -0.97942E-02         0.00000E+00
    0.30513E-02        -0.74022E-02         0.00000E+00
    0.21102E-02        -0.49785E-02         0.00000E+00
    0.10946E-02        -0.25058E-02         0.00000E+00
    0.00000E+00         0.00000E+00         0.00000E+00
    0.13925E-01        -0.36310E-01         0.00000E+00
    0.12252E-01        -0.34076E-01         0.00000E+00
    0.10868E-01        -0.31825E-01         0.00000E+00
    0.97171E-02        -0.29549E-01         0.00000E+00
    0.87472E-02        -0.27247E-01         0.00000E+00
    0.79137E-02        -0.24916E-01         0.00000E+00
    0.71773E-02        -0.22557E-01         0.00000E+00
    0.65038E-02        -0.20173E-01         0.00000E+00
    0.58623E-02        -0.17764E-01         0.00000E+00
    0.52236E-02        -0.15331E-01         0.00000E+00
    0.45577E-02        -0.12873E-01         0.00000E+00
    0.38284E-02        -0.10391E-01         0.00000E+00
    0.30141E-02        -0.78761E-02         0.00000E+00
    0.21158E-02        -0.52982E-02         0.00000E+00
    0.11175E-02        -0.26648E-02         0.00000E+00
    0.00000E+00         0.00000E+00         0.00000E+00
    0.13106E-01        -0.38136E-01         0.00000E+00
    0.11476E-01        -0.35790E-01         0.00000E+00
    0.10151E-01        -0.33422E-01         0.00000E+00
    0.90678E-02        -0.31026E-01         0.00000E+00
    0.81686E-02        -0.28601E-01         0.00000E+00
    0.74051E-02        -0.26149E-01         0.00000E+00
    0.67365E-02        -0.23672E-01         0.00000E+00
    0.61281E-02        -0.21174E-01         0.00000E+00
    0.55496E-02        -0.18654E-01         0.00000E+00
    0.49729E-02        -0.16115E-01         0.00000E+00
    0.43687E-02        -0.13554E-01         0.00000E+00
    0.37020E-02        -0.10967E-01         0.00000E+00
    0.29569E-02        -0.83209E-02         0.00000E+00
    0.21143E-02        -0.56014E-02         0.00000E+00
    0.11392E-02        -0.28190E-02         0.00000E+00
    0.00000E+00         0.00000E+00         0.00000E+00
    0.12044E-01        -0.39915E-01         0.00000E+00
    0.10488E-01        -0.37454E-01         0.00000E+00
    0.92508E-02        -0.34964E-01         0.00000E+00
    0.82583E-02        -0.32443E-01         0.00000E+00
    0.74480E-02        -0.29893E-01         0.00000E+00
    0.67686E-02        -0.27319E-01         0.00000E+00
    0.61786E-02        -0.24724E-01         0.00000E+00
    0.56440E-02        -0.22113E-01         0.00000E+00
    0.51363E-02        -0.19486E-01         0.00000E+00
    0.46300E-02        -0.16844E-01         0.00000E+00
    0.40996E-02        -0.14183E-01         0.00000E+00
    0.35189E-02        -0.11494E-01         0.00000E+00
    0.28606E-02        -0.87324E-02         0.00000E+00
    0.20875E-02        -0.58882E-02         0.00000E+00
    0.11516E-02        -0.29690E-02         0.00000E+00
    0.00000E+00         0.00000E+00         0.00000E+00
    0.10726E-01        -0.41610E-01         0.00000E+00
    0.92814E-02        -0.39031E-01         0.00000E+00
    0.81627E-02        -0.36416E-01         0.00000E+00
    0.72857E-02        -0.33767E-01         0.00000E+00
    0.65825E-02        -0.31091E-01         0.00000E+00
    0.60002E-02        -0.28395E-01         0.00000E+00
    0.54981E-02        -0.25685E-01         0.00000E+00
    0.50448E-02        -0.22965E-01         0.00000E+00
    0.46144E-02        -0.20236E-01         0.00000E+00
    0.41851E-02        -0.17496E-01         0.00000E+00
    0.37382E-02        -0.14741E-01         0.00000E+00
    0.32563E-02        -0.11958E-01         0.00000E+00
    0.27002E-02        -0.91026E-02         0.00000E+00
    0.20158E-02        -0.61538E-02         0.00000E+00
    0.11437E-02        -0.31118E-02         0.00000E+00
    0.00000E+00         0.00000E+00         0.00000E+00
    0.91405E-02        -0.43181E-01         0.00000E+00
    0.78504E-02        -0.40481E-01         0.00000E+00
    0.68855E-02        -0.37738E-01         0.00000E+00
    0.61496E-02        -0.34960E-01         0.00000E+00
    0.55704E-02        -0.32159E-01         0.00000E+00
    0.50961E-02        -0.29345E-01         0.00000E+00
    0.46895E-02        -0.26526E-01         0.00000E+00
    0.43229E-02        -0.23705E-01         0.00000E+00
    0.39748E-02        -0.20881E-01         0.00000E+00
    0.36278E-02        -0.18052E-01         0.00000E+00
    0.32687E-02        -0.15210E-01         0.00000E+00
    0.28895E-02        -0.12347E-01         0.00000E+00
    0.24483E-02        -0.94208E-02         0.00000E+00
    0.18756E-02        -0.63917E-02         0.00000E+00
    0.10991E-02        -0.32469E-02         0.00000E+00
    0.00000E+00         0.00000E+00         0.00000E+00
    0.72780E-02        -0.44576E-01         0.00000E+00
    0.61944E-02        -0.41755E-01         0.00000E+00
    0.54223E-02        -0.38882E-01         0.00000E+00
    0.48520E-02        -0.35976E-01         0.00000E+00
    0.44106E-02        -0.33057E-01         0.00000E+00
    0.40522E-02        -0.30136E-01         0.00000E+00
    0.37459E-02        -0.27220E-01         0.00000E+00
    0.34698E-02        -0.24311E-01         0.00000E+00
    0.32073E-02        -0.21405E-01         0.00000E+00
    0.29457E-02        -0.18498E-01         0.00000E+00
    0.26758E-02        -0.15582E-01         0.00000E+00
    0.23940E-02        -0.12649E-01         0.00000E+00
    0.20752E-02        -0.96739E-02         0.00000E+00
    0.16391E-02        -0.65931E-02         0.00000E+00
    0.99776E-03        -0.33712E-02         0.00000E+00
    0.00000E+00         0.00000E+00         0.00000E+00
    0.51316E-02        -0.45733E-01         0.00000E+00
    0.43198E-02        -0.42789E-01         0.00000E+00
    0.37815E-02        -0.39788E-01         0.00000E+00
    0.33960E-02        -0.36764E-01         0.00000E+00
    0.31008E-02        -0.33742E-01         0.00000E+00
    0.28620E-02        -0.30732E-01         0.00000E+00
    0.26581E-02        -0.27739E-01         0.00000E+00
    0.24741E-02        -0.24760E-01         0.00000E+00
    0.22991E-02        -0.21791E-01         0.00000E+00
    0.21245E-02        -0.18825E-01         0.00000E+00
    0.19447E-02        -0.15852E-01         0.00000E+00
    0.17550E-02        -0.12863E-01         0.00000E+00
    0.15509E-02        -0.98456E-02         0.00000E+00
    0.12731E-02        -0.67457E-02         0.00000E+00
    0.81222E-03        -0.34808E-02         0.00000E+00
    0.00000E+00         0.00000E+00         0.00000E+00
    0.26989E-02        -0.46566E-01         0.00000E+00
    0.22454E-02        -0.43499E-01         0.00000E+00
    0.19742E-02        -0.40383E-01         0.00000E+00
    0.17815E-02        -0.37268E-01         0.00000E+00
    0.16346E-02        -0.34174E-01         0.00000E+00
    0.15158E-02        -0.31105E-01         0.00000E+00
    0.14143E-02        -0.28061E-01         0.00000E+00
    0.13227E-02        -0.25038E-01         0.00000E+00
    0.12353E-02        -0.22029E-01         0.00000E+00
    0.11482E-02        -0.19025E-01         0.00000E+00
    0.10584E-02        -0.16016E-01         0.00000E+00
    0.96326E-03        -0.12991E-01         0.00000E+00
    0.86102E-03        -0.99376E-02         0.00000E+00
    0.73532E-03        -0.68303E-02         0.00000E+00
    0.50356E-03        -0.35703E-02         0.00000E+00
    0.00000E+00         0.00000E+00         0.00000E+00
    0.00000E+00        -0.46925E-01         0.00000E+00
    0.00000E+00        -0.43763E-01         0.00000E+00
    0.00000E+00        -0.40592E-01         0.00000E+00
    0.00000E+00        -0.37443E-01         0.00000E+00
    0.00000E+00        -0.34322E-01         0.00000E+00
    0.00000E+00        -0.31232E-01         0.00000E+00
    0.00000E+00        -0.28171E-01         0.00000E+00
    0.00000E+00        -0.25132E-01         0.00000E+00
    0.00000E+00        -0.22109E-01         0.00000E+00
    0.00000E+00        -0.19092E-01         0.00000E+00
    0.00000E+00        -0.16071E-01         0.00000E+00
    0.00000E+00        -0.13034E-01         0.00000E+00
    0.00000E+00        -0.99662E-02         0.00000E+00
    0.00000E+00        -0.68531E-02         0.00000E+00
    0.00000E+00        -0.36111E-02         0.00000E+00
    0.00000E+00         0.00000E+00         0.00000E+00
CELL_DATA        450
VECTORS vDarcy double 
    0.22691E-09        -0.67514E-11         0.00000E+00
    0.22758E-09         0.11560E-12         0.00000E+00
    0.22873E-09         0.62910E-10         0.00000E+00
    0.23060E-09         0.14239E-09         0.00000E+00
    0.23331E-09         0.19681E-09         0.00000E+00
    0.23660E-09         0.23075E-09         0.00000E+00
    0.24022E-09         0.24800E-09         0.00000E+00
    0.24393E-09         0.25150E-09         0.00000E+00
    0.24755E-09         0.24351E-09         0.00000E+00
    0.25093E-09         0.22576E-09         0.00000E+00
    0.25395E-09         0.19959E-09         0.00000E+00
    0.25653E-09         0.16603E-09         0.00000E+00
    0.25857E-09         0.12588E-09         0.00000E+00
    0.26000E-09         0.79767E-10         0.00000E+00
    0.26075E-09         0.28188E-10         0.00000E+00
    0.68323E-09        -0.76931E-11         0.00000E+00
    0.68525E-09        -0.16453E-11         0.00000E+00
    0.68867E-09         0.60065E-10         0.00000E+00
    0.69433E-09         0.13766E-09         0.00000E+00
    0.70250E-09         0.19062E-09         0.00000E+00
    0.71241E-09         0.22369E-09         0.00000E+00
    0.72325E-09         0.24057E-09         0.00000E+00
    0.73433E-09         0.24410E-09         0.00000E+00
    0.74511E-09         0.23646E-09         0.00000E+00
    0.75517E-09         0.21932E-09         0.00000E+00
    0.76418E-09         0.19396E-09         0.00000E+00
    0.77184E-09         0.16138E-09         0.00000E+00
    0.77792E-09         0.12237E-09         0.00000E+00
    0.78218E-09         0.77549E-10         0.00000E+00
    0.78441E-09         0.27405E-10         0.00000E+00
    0.11472E-08        -0.96141E-11         0.00000E+00
    0.11505E-08        -0.51367E-11         0.00000E+00
    0.11562E-08         0.54383E-10         0.00000E+00
    0.11657E-08         0.12807E-09         0.00000E+00
    0.11795E-08         0.17818E-09         0.00000E+00
    0.11960E-08         0.20958E-09         0.00000E+00
    0.12140E-08         0.22579E-09         0.00000E+00
    0.12323E-08         0.22944E-09         0.00000E+00
    0.12500E-08         0.22253E-09         0.00000E+00
    0.12665E-08         0.20660E-09         0.00000E+00
    0.12813E-08         0.18284E-09         0.00000E+00
    0.12939E-08         0.15220E-09         0.00000E+00
    0.13038E-08         0.11544E-09         0.00000E+00
    0.13108E-08         0.73164E-10         0.00000E+00
    0.13145E-08         0.25855E-10         0.00000E+00
    0.16243E-08        -0.12383E-10         0.00000E+00
    0.16287E-08        -0.10237E-10         0.00000E+00
    0.16366E-08         0.45841E-10         0.00000E+00
    0.16501E-08         0.11340E-09         0.00000E+00
    0.16696E-08         0.15942E-09         0.00000E+00
    0.16927E-08         0.18853E-09         0.00000E+00
    0.17176E-08         0.20390E-09         0.00000E+00
    0.17427E-08         0.20782E-09         0.00000E+00
    0.17670E-08         0.20203E-09         0.00000E+00
    0.17896E-08         0.18790E-09         0.00000E+00
    0.18097E-08         0.16650E-09         0.00000E+00
    0.18269E-08         0.13871E-09         0.00000E+00
    0.18405E-08         0.10525E-09         0.00000E+00
    0.18501E-08         0.66708E-10         0.00000E+00
    0.18551E-08         0.23568E-10         0.00000E+00
    0.21205E-08        -0.15663E-10         0.00000E+00
    0.21256E-08        -0.16605E-10         0.00000E+00
    0.21356E-08         0.34254E-10         0.00000E+00
    0.21533E-08         0.93528E-10         0.00000E+00
    0.21784E-08         0.13447E-09         0.00000E+00
    0.22077E-08         0.16088E-09         0.00000E+00
    0.22389E-08         0.17534E-09         0.00000E+00
    0.22703E-08         0.17973E-09         0.00000E+00
    0.23005E-08         0.17547E-09         0.00000E+00
    0.23285E-08         0.16370E-09         0.00000E+00
    0.23536E-08         0.14536E-09         0.00000E+00
    0.23749E-08         0.12125E-09         0.00000E+00
    0.23918E-08         0.92046E-10         0.00000E+00
    0.24037E-08         0.58333E-10         0.00000E+00
    0.24099E-08         0.20595E-10         0.00000E+00
    0.26418E-08        -0.19363E-10         0.00000E+00
    0.26477E-08        -0.24007E-10         0.00000E+00
    0.26596E-08         0.19593E-10         0.00000E+00
    0.26810E-08         0.68802E-10         0.00000E+00
    0.27110E-08         0.10384E-09         0.00000E+00
    0.27457E-08         0.12725E-09         0.00000E+00
    0.27825E-08         0.14083E-09         0.00000E+00
    0.28192E-08         0.14592E-09         0.00000E+00
    0.28545E-08         0.14357E-09         0.00000E+00
    0.28872E-08         0.13467E-09         0.00000E+00
    0.29164E-08         0.12001E-09         0.00000E+00
    0.29413E-08         0.10029E-09         0.00000E+00
    0.29610E-08         0.76174E-10         0.00000E+00
    0.29750E-08         0.48242E-10         0.00000E+00
    0.29823E-08         0.17000E-10         0.00000E+00
    0.31920E-08        -0.23448E-10         0.00000E+00
    0.31988E-08        -0.32838E-10         0.00000E+00
    0.32130E-08         0.20354E-11         0.00000E+00
    0.32378E-08         0.39842E-10         0.00000E+00
    0.32720E-08         0.68373E-10         0.00000E+00
    0.33111E-08         0.88611E-10         0.00000E+00
    0.33522E-08         0.10138E-09         0.00000E+00
    0.33932E-08         0.10738E-09         0.00000E+00
    0.34325E-08         0.10727E-09         0.00000E+00
    0.34689E-08         0.10165E-09         0.00000E+00
    0.35014E-08         0.91161E-10         0.00000E+00
    0.35291E-08         0.76421E-10         0.00000E+00
    0.35511E-08         0.58064E-10         0.00000E+00
    0.35667E-08         0.36696E-10         0.00000E+00
    0.35749E-08         0.12870E-10         0.00000E+00
    0.37744E-08        -0.26943E-10         0.00000E+00
    0.37816E-08        -0.43591E-10         0.00000E+00
    0.37988E-08        -0.19008E-10         0.00000E+00
    0.38274E-08         0.71818E-11         0.00000E+00
    0.38649E-08         0.29094E-10         0.00000E+00
    0.39071E-08         0.46167E-10         0.00000E+00
    0.39513E-08         0.58228E-10         0.00000E+00
    0.39952E-08         0.65333E-10         0.00000E+00
    0.40373E-08         0.67701E-10         0.00000E+00
    0.40762E-08         0.65673E-10         0.00000E+00
    0.41109E-08         0.59707E-10         0.00000E+00
    0.41405E-08         0.50353E-10         0.00000E+00
    0.41642E-08         0.38237E-10         0.00000E+00
    0.41809E-08         0.24011E-10         0.00000E+00
    0.41898E-08         0.83067E-11         0.00000E+00
    0.43958E-08        -0.29055E-10         0.00000E+00
    0.44025E-08        -0.55646E-10         0.00000E+00
    0.44216E-08        -0.43747E-10         0.00000E+00
    0.44529E-08        -0.28341E-10         0.00000E+00
    0.44924E-08        -0.12703E-10         0.00000E+00
    0.45363E-08         0.13695E-11         0.00000E+00
    0.45820E-08         0.12846E-10         0.00000E+00
    0.46273E-08         0.21186E-10         0.00000E+00
    0.46706E-08         0.26187E-10         0.00000E+00
    0.47107E-08         0.27918E-10         0.00000E+00
    0.47465E-08         0.26667E-10         0.00000E+00
    0.47771E-08         0.22918E-10         0.00000E+00
    0.48016E-08         0.17306E-10         0.00000E+00
    0.48190E-08         0.10561E-10         0.00000E+00
    0.48283E-08         0.34355E-11         0.00000E+00
    0.50572E-08        -0.30703E-10         0.00000E+00
    0.50643E-08        -0.68250E-10         0.00000E+00
    0.50843E-08        -0.70722E-10         0.00000E+00
    0.51164E-08        -0.65181E-10         0.00000E+00
    0.51560E-08        -0.55405E-10         0.00000E+00
    0.51999E-08        -0.44147E-10         0.00000E+00
    0.52454E-08        -0.33157E-10         0.00000E+00
    0.52904E-08        -0.23518E-10         0.00000E+00
    0.53335E-08        -0.15830E-10         0.00000E+00
    0.53733E-08        -0.10304E-10         0.00000E+00
    0.54089E-08        -0.68146E-11         0.00000E+00
    0.54394E-08        -0.49454E-11         0.00000E+00
    0.54639E-08        -0.40303E-11         0.00000E+00
    0.54814E-08        -0.32236E-11         0.00000E+00
    0.54907E-08        -0.15994E-11         0.00000E+00
    0.57568E-08        -0.34351E-10         0.00000E+00
    0.57662E-08        -0.81625E-10         0.00000E+00
    0.57864E-08        -0.98060E-10         0.00000E+00
    0.58175E-08        -0.10157E-09         0.00000E+00
    0.58557E-08        -0.97290E-10         0.00000E+00
    0.58978E-08        -0.88684E-10         0.00000E+00
    0.59414E-08        -0.78116E-10         0.00000E+00
    0.59846E-08        -0.67169E-10         0.00000E+00
    0.60258E-08        -0.56828E-10         0.00000E+00
    0.60639E-08        -0.47587E-10         0.00000E+00
    0.60980E-08        -0.39494E-10         0.00000E+00
    0.61271E-08        -0.32199E-10         0.00000E+00
    0.61506E-08        -0.24987E-10         0.00000E+00
    0.61675E-08        -0.16855E-10         0.00000E+00
    0.61766E-08        -0.66326E-11         0.00000E+00
    0.64975E-08        -0.39646E-10         0.00000E+00
    0.65067E-08        -0.95503E-10         0.00000E+00
    0.65259E-08        -0.12418E-09         0.00000E+00
    0.65547E-08        -0.13597E-09         0.00000E+00
    0.65899E-08        -0.13678E-09         0.00000E+00
    0.66288E-08        -0.13063E-09         0.00000E+00
    0.66689E-08        -0.12041E-09         0.00000E+00
    0.67087E-08        -0.10816E-09         0.00000E+00
    0.67465E-08        -0.95255E-10         0.00000E+00
    0.67813E-08        -0.82468E-10         0.00000E+00
    0.68124E-08        -0.70046E-10         0.00000E+00
    0.68390E-08        -0.57712E-10         0.00000E+00
    0.68604E-08        -0.44694E-10         0.00000E+00
    0.68759E-08        -0.29783E-10         0.00000E+00
    0.68844E-08        -0.11477E-10         0.00000E+00
    0.72731E-08        -0.43958E-10         0.00000E+00
    0.72812E-08        -0.10917E-09         0.00000E+00
    0.72989E-08        -0.14802E-09         0.00000E+00
    0.73245E-08        -0.16719E-09         0.00000E+00
    0.73558E-08        -0.17255E-09         0.00000E+00
    0.73901E-08        -0.16855E-09         0.00000E+00
    0.74255E-08        -0.15853E-09         0.00000E+00
    0.74603E-08        -0.14496E-09         0.00000E+00
    0.74933E-08        -0.12958E-09         0.00000E+00
    0.75234E-08        -0.11347E-09         0.00000E+00
    0.75500E-08        -0.97088E-10         0.00000E+00
    0.75727E-08        -0.80271E-10         0.00000E+00
    0.75910E-08        -0.62192E-10         0.00000E+00
    0.76043E-08        -0.41393E-10         0.00000E+00
    0.76117E-08        -0.15922E-10         0.00000E+00
    0.80760E-08        -0.48088E-10         0.00000E+00
    0.80844E-08        -0.12240E-09         0.00000E+00
    0.81006E-08        -0.16932E-09         0.00000E+00
    0.81229E-08        -0.19452E-09         0.00000E+00
    0.81494E-08        -0.20358E-09         0.00000E+00
    0.81783E-08        -0.20120E-09         0.00000E+00
    0.82077E-08        -0.19112E-09         0.00000E+00
    0.82362E-08        -0.17615E-09         0.00000E+00
    0.82629E-08        -0.15836E-09         0.00000E+00
    0.82869E-08        -0.13914E-09         0.00000E+00
    0.83077E-08        -0.11921E-09         0.00000E+00
    0.83251E-08        -0.98580E-10         0.00000E+00
    0.83390E-08        -0.76418E-10         0.00000E+00
    0.83492E-08        -0.50987E-10         0.00000E+00
    0.83550E-08        -0.19729E-10         0.00000E+00
    0.89048E-08        -0.52862E-10         0.00000E+00
    0.89127E-08        -0.13484E-09         0.00000E+00
    0.89267E-08        -0.18781E-09         0.00000E+00
    0.89450E-08        -0.21731E-09         0.00000E+00
    0.89660E-08        -0.22892E-09         0.00000E+00
    0.89884E-08        -0.22749E-09         0.00000E+00
    0.90107E-08        -0.21696E-09         0.00000E+00
    0.90318E-08        -0.20045E-09         0.00000E+00
    0.90511E-08        -0.18029E-09         0.00000E+00
    0.90677E-08        -0.15815E-09         0.00000E+00
    0.90814E-08        -0.13505E-09         0.00000E+00
    0.90922E-08        -0.11129E-09         0.00000E+00
    0.91004E-08        -0.86183E-10         0.00000E+00
    0.91065E-08        -0.57748E-10         0.00000E+00
    0.91101E-08        -0.22627E-10         0.00000E+00
    0.97549E-08        -0.57259E-10         0.00000E+00
    0.97612E-08        -0.14552E-09         0.00000E+00
    0.97719E-08        -0.20259E-09         0.00000E+00
    0.97851E-08        -0.23470E-09         0.00000E+00
    0.97996E-08        -0.24762E-09         0.00000E+00
    0.98144E-08        -0.24636E-09         0.00000E+00
    0.98286E-08        -0.23501E-09         0.00000E+00
    0.98415E-08        -0.21682E-09         0.00000E+00
    0.98524E-08        -0.19430E-09         0.00000E+00
    0.98607E-08        -0.16937E-09         0.00000E+00
    0.98662E-08        -0.14338E-09         0.00000E+00
    0.98692E-08        -0.11707E-09         0.00000E+00
    0.98704E-08        -0.90152E-10         0.00000E+00
    0.98710E-08        -0.60680E-10         0.00000E+00
    0.98717E-08        -0.24287E-10         0.00000E+00
    0.10619E-07        -0.60619E-10         0.00000E+00
    0.10623E-07        -0.15318E-09         0.00000E+00
    0.10629E-07        -0.21243E-09         0.00000E+00
    0.10636E-07        -0.24552E-09         0.00000E+00
    0.10643E-07        -0.25862E-09         0.00000E+00
    0.10649E-07        -0.25686E-09         0.00000E+00
    0.10654E-07        -0.24439E-09         0.00000E+00
    0.10658E-07        -0.22447E-09         0.00000E+00
    0.10660E-07        -0.19968E-09         0.00000E+00
    0.10660E-07        -0.17208E-09         0.00000E+00
    0.10657E-07        -0.14336E-09         0.00000E+00
    0.10651E-07        -0.11481E-09         0.00000E+00
    0.10644E-07        -0.86909E-10         0.00000E+00
    0.10638E-07        -0.58464E-10         0.00000E+00
    0.10635E-07        -0.24291E-10         0.00000E+00
    0.11488E-07        -0.62416E-10         0.00000E+00
    0.11489E-07        -0.15664E-09         0.00000E+00
    0.11489E-07        -0.21601E-09         0.00000E+00
    0.11489E-07        -0.24856E-09         0.00000E+00
    0.11487E-07        -0.26085E-09         0.00000E+00
    0.11484E-07        -0.25811E-09         0.00000E+00
    0.11479E-07        -0.24443E-09         0.00000E+00
    0.11474E-07        -0.22296E-09         0.00000E+00
    0.11467E-07        -0.19615E-09         0.00000E+00
    0.11457E-07        -0.16612E-09         0.00000E+00
    0.11446E-07        -0.13481E-09         0.00000E+00
    0.11432E-07        -0.10412E-09         0.00000E+00
    0.11417E-07        -0.75516E-10         0.00000E+00
    0.11402E-07        -0.49239E-10         0.00000E+00
    0.11393E-07        -0.22007E-10         0.00000E+00
    0.12351E-07        -0.62201E-10         0.00000E+00
    0.12348E-07        -0.15488E-09         0.00000E+00
    0.12342E-07        -0.21212E-09         0.00000E+00
    0.12332E-07        -0.24267E-09         0.00000E+00
    0.12321E-07        -0.25338E-09         0.00000E+00
    0.12307E-07        -0.24945E-09         0.00000E+00
    0.12293E-07        -0.23477E-09         0.00000E+00
    0.12278E-07        -0.21220E-09         0.00000E+00
    0.12262E-07        -0.18392E-09         0.00000E+00
    0.12245E-07        -0.15193E-09         0.00000E+00
    0.12226E-07        -0.11840E-09         0.00000E+00
    0.12205E-07        -0.85882E-10         0.00000E+00
    0.12183E-07        -0.56867E-10         0.00000E+00
    0.12163E-07        -0.32987E-10         0.00000E+00
    0.12148E-07        -0.15173E-10         0.00000E+00
    0.13195E-07        -0.59594E-10         0.00000E+00
    0.13187E-07        -0.14705E-09         0.00000E+00
    0.13173E-07        -0.19978E-09         0.00000E+00
    0.13154E-07        -0.22698E-09         0.00000E+00
    0.13132E-07        -0.23555E-09         0.00000E+00
    0.13109E-07        -0.23050E-09         0.00000E+00
    0.13085E-07        -0.21533E-09         0.00000E+00
    0.13061E-07        -0.19244E-09         0.00000E+00
    0.13037E-07        -0.16356E-09         0.00000E+00
    0.13012E-07        -0.13036E-09         0.00000E+00
    0.12986E-07        -0.95231E-10         0.00000E+00
    0.12960E-07        -0.61995E-10         0.00000E+00
    0.12936E-07        -0.35033E-10         0.00000E+00
    0.12916E-07        -0.15023E-10         0.00000E+00
    0.12901E-07        -0.36936E-11         0.00000E+00
    0.14004E-07        -0.54292E-10         0.00000E+00
    0.13992E-07        -0.13254E-09         0.00000E+00
    0.13970E-07        -0.17835E-09         0.00000E+00
    0.13941E-07        -0.20101E-09         0.00000E+00
    0.13909E-07        -0.20715E-09         0.00000E+00
    0.13875E-07        -0.20130E-09         0.00000E+00
    0.13841E-07        -0.18641E-09         0.00000E+00
    0.13809E-07        -0.16423E-09         0.00000E+00
    0.13777E-07        -0.13583E-09         0.00000E+00
    0.13746E-07        -0.10221E-09         0.00000E+00
    0.13715E-07        -0.66020E-10         0.00000E+00
    0.13682E-07        -0.32565E-10         0.00000E+00
    0.13653E-07        -0.11317E-10         0.00000E+00
    0.13637E-07        -0.36185E-11         0.00000E+00
    0.13636E-07         0.68247E-12         0.00000E+00
    0.14762E-07        -0.46108E-10         0.00000E+00
    0.14745E-07        -0.11104E-09         0.00000E+00
    0.14715E-07        -0.14769E-09         0.00000E+00
    0.14678E-07        -0.16489E-09         0.00000E+00
    0.14636E-07        -0.16858E-09         0.00000E+00
    0.14593E-07        -0.16247E-09         0.00000E+00
    0.14550E-07        -0.14874E-09         0.00000E+00
    0.14510E-07        -0.12837E-09         0.00000E+00
    0.14472E-07        -0.10155E-09         0.00000E+00
    0.14435E-07        -0.68101E-10         0.00000E+00
    0.14396E-07        -0.29208E-10         0.00000E+00
    0.14355E-07         0.41142E-11         0.00000E+00
    0.14324E-07         0.12261E-10         0.00000E+00
    0.14311E-07         0.13620E-11         0.00000E+00
    0.14310E-07        -0.22615E-11         0.00000E+00
    0.15453E-07        -0.35013E-10         0.00000E+00
    0.15431E-07        -0.82730E-10         0.00000E+00
    0.15394E-07        -0.10836E-09         0.00000E+00
    0.15348E-07        -0.11961E-09         0.00000E+00
    0.15298E-07        -0.12113E-09         0.00000E+00
    0.15248E-07        -0.11546E-09         0.00000E+00
    0.15199E-07        -0.10375E-09         0.00000E+00
    0.15153E-07        -0.86101E-10         0.00000E+00
    0.15110E-07        -0.61673E-10         0.00000E+00
    0.15068E-07        -0.28644E-10         0.00000E+00
    0.15023E-07         0.16160E-10         0.00000E+00
    0.14978E-07         0.44946E-10         0.00000E+00
    0.14947E-07         0.33031E-10         0.00000E+00
    0.14933E-07         0.72462E-11         0.00000E+00
    0.14928E-07        -0.23797E-11         0.00000E+00
    0.16057E-07        -0.21198E-10         0.00000E+00
    0.16031E-07        -0.48404E-10         0.00000E+00
    0.15989E-07        -0.61881E-10         0.00000E+00
    0.15937E-07        -0.67305E-10         0.00000E+00
    0.15883E-07        -0.67351E-10         0.00000E+00
    0.15828E-07        -0.62933E-10         0.00000E+00
    0.15776E-07        -0.53950E-10         0.00000E+00
    0.15727E-07        -0.39557E-10         0.00000E+00
    0.15681E-07        -0.17929E-10         0.00000E+00
    0.15637E-07         0.14734E-10         0.00000E+00
    0.15592E-07         0.63931E-10         0.00000E+00
    0.15550E-07         0.84279E-10         0.00000E+00
    0.15521E-07         0.53269E-10         0.00000E+00
    0.15505E-07         0.17079E-10         0.00000E+00
    0.15497E-07         0.28278E-12         0.00000E+00
    0.16556E-07        -0.51468E-11         0.00000E+00
    0.16528E-07        -0.97047E-11         0.00000E+00
    0.16483E-07        -0.11048E-10         0.00000E+00
    0.16430E-07        -0.11637E-10         0.00000E+00
    0.16375E-07        -0.11371E-10         0.00000E+00
    0.16322E-07        -0.91025E-11         0.00000E+00
    0.16271E-07        -0.33516E-11         0.00000E+00
    0.16224E-07         0.76112E-11         0.00000E+00
    0.16180E-07         0.26274E-10         0.00000E+00
    0.16139E-07         0.57410E-10         0.00000E+00
    0.16101E-07         0.10545E-09         0.00000E+00
    0.16068E-07         0.11819E-09         0.00000E+00
    0.16042E-07         0.75119E-10         0.00000E+00
    0.16023E-07         0.30135E-10         0.00000E+00
    0.16013E-07         0.47224E-11         0.00000E+00
    0.16932E-07         0.12257E-10         0.00000E+00
    0.16905E-07         0.30552E-10         0.00000E+00
    0.16861E-07         0.39640E-10         0.00000E+00
    0.16813E-07         0.41822E-10         0.00000E+00
    0.16765E-07         0.40812E-10         0.00000E+00
    0.16719E-07         0.40044E-10         0.00000E+00
    0.16677E-07         0.42280E-10         0.00000E+00
    0.16638E-07         0.49886E-10         0.00000E+00
    0.16603E-07         0.65431E-10         0.00000E+00
    0.16571E-07         0.92750E-10         0.00000E+00
    0.16546E-07         0.13466E-09         0.00000E+00
    0.16526E-07         0.14331E-09         0.00000E+00
    0.16504E-07         0.98270E-10         0.00000E+00
    0.16485E-07         0.44552E-10         0.00000E+00
    0.16475E-07         0.10003E-10         0.00000E+00
    0.17167E-07         0.29537E-10         0.00000E+00
    0.17143E-07         0.67789E-10         0.00000E+00
    0.17109E-07         0.83303E-10         0.00000E+00
    0.17074E-07         0.85183E-10         0.00000E+00
    0.17042E-07         0.81261E-10         0.00000E+00
    0.17013E-07         0.76917E-10         0.00000E+00
    0.16987E-07         0.75710E-10         0.00000E+00
    0.16964E-07         0.80187E-10         0.00000E+00
    0.16945E-07         0.92493E-10         0.00000E+00
    0.16929E-07         0.11458E-09         0.00000E+00
    0.16922E-07         0.14702E-09         0.00000E+00
    0.16918E-07         0.15632E-09         0.00000E+00
    0.16908E-07         0.11771E-09         0.00000E+00
    0.16894E-07         0.58052E-10         0.00000E+00
    0.16885E-07         0.15576E-10         0.00000E+00
    0.17243E-07         0.44102E-10         0.00000E+00
    0.17230E-07         0.94325E-10         0.00000E+00
    0.17216E-07         0.10956E-09         0.00000E+00
    0.17207E-07         0.10796E-09         0.00000E+00
    0.17201E-07         0.10044E-09         0.00000E+00
    0.17198E-07         0.93023E-10         0.00000E+00
    0.17197E-07         0.89134E-10         0.00000E+00
    0.17198E-07         0.90943E-10         0.00000E+00
    0.17202E-07         0.99923E-10         0.00000E+00
    0.17210E-07         0.11657E-09         0.00000E+00
    0.17225E-07         0.13900E-09         0.00000E+00
    0.17243E-07         0.15141E-09         0.00000E+00
    0.17253E-07         0.12432E-09         0.00000E+00
    0.17251E-07         0.67741E-10         0.00000E+00
    0.17246E-07         0.20160E-10         0.00000E+00
    0.17143E-07         0.50719E-10         0.00000E+00
    0.17154E-07         0.95512E-10         0.00000E+00
    0.17179E-07         0.10314E-09         0.00000E+00
    0.17210E-07         0.97465E-10         0.00000E+00
    0.17243E-07         0.88342E-10         0.00000E+00
    0.17274E-07         0.80285E-10         0.00000E+00
    0.17305E-07         0.75601E-10         0.00000E+00
    0.17335E-07         0.75639E-10         0.00000E+00
    0.17368E-07         0.81170E-10         0.00000E+00
    0.17406E-07         0.92105E-10         0.00000E+00
    0.17450E-07         0.10608E-09         0.00000E+00
    0.17499E-07         0.11830E-09         0.00000E+00
    0.17541E-07         0.10735E-09         0.00000E+00
    0.17565E-07         0.63693E-10         0.00000E+00
    0.17573E-07         0.21368E-10         0.00000E+00
    0.16841E-07         0.25573E-10         0.00000E+00
    0.16914E-07         0.43657E-10         0.00000E+00
    0.17006E-07         0.44752E-10         0.00000E+00
    0.17095E-07         0.41102E-10         0.00000E+00
    0.17175E-07         0.36616E-10         0.00000E+00
    0.17246E-07         0.32884E-10         0.00000E+00
    0.17312E-07         0.30664E-10         0.00000E+00
    0.17374E-07         0.30385E-10         0.00000E+00
    0.17438E-07         0.32276E-10         0.00000E+00
    0.17508E-07         0.36217E-10         0.00000E+00
    0.17587E-07         0.41362E-10         0.00000E+00
    0.17675E-07         0.46528E-10         0.00000E+00
    0.17769E-07         0.45798E-10         0.00000E+00
    0.17843E-07         0.28109E-10         0.00000E+00
    0.17882E-07         0.10402E-10         0.00000E+00
POINT_DATA        496
VECTORS vDarcyNodal double 
    0.22668E-09        -0.65210E-11         0.00000E+00
    0.22714E-09        -0.29823E-11         0.00000E+00
    0.22802E-09         0.32089E-10         0.00000E+00
    0.22943E-09         0.10360E-09         0.00000E+00
    0.23177E-09         0.17096E-09         0.00000E+00
    0.23484E-09         0.21543E-09         0.00000E+00
    0.23836E-09         0.24119E-09         0.00000E+00
    0.24208E-09         0.25161E-09         0.00000E+00
    0.24578E-09         0.24932E-09         0.00000E+00
    0.24931E-09         0.23632E-09         0.00000E+00
    0.25254E-09         0.21419E-09         0.00000E+00
    0.25536E-09         0.18410E-09         0.00000E+00
    0.25769E-09         0.14698E-09         0.00000E+00
    0.25945E-09         0.10354E-09         0.00000E+00
    0.26056E-09         0.54355E-10         0.00000E+00
    0.26095E-09         0.28385E-10         0.00000E+00
    0.45460E-09        -0.69818E-11         0.00000E+00
    0.45554E-09        -0.36535E-11         0.00000E+00
    0.45729E-09         0.30936E-10         0.00000E+00
    0.46011E-09         0.10171E-09         0.00000E+00
    0.46482E-09         0.16824E-09         0.00000E+00
    0.47098E-09         0.21213E-09         0.00000E+00
    0.47803E-09         0.23756E-09         0.00000E+00
    0.48544E-09         0.24789E-09         0.00000E+00
    0.49282E-09         0.24569E-09         0.00000E+00
    0.49984E-09         0.23294E-09         0.00000E+00
    0.50626E-09         0.21116E-09         0.00000E+00
    0.51187E-09         0.18152E-09         0.00000E+00
    0.51650E-09         0.14493E-09         0.00000E+00
    0.51999E-09         0.10210E-09         0.00000E+00
    0.52219E-09         0.53600E-10         0.00000E+00
    0.52297E-09         0.27992E-10         0.00000E+00
    0.91423E-09        -0.84044E-11         0.00000E+00
    0.91614E-09        -0.56849E-11         0.00000E+00
    0.91961E-09         0.27484E-10         0.00000E+00
    0.92525E-09         0.96016E-10         0.00000E+00
    0.93480E-09         0.16004E-09         0.00000E+00
    0.94719E-09         0.20218E-09         0.00000E+00
    0.96126E-09         0.22669E-09         0.00000E+00
    0.97600E-09         0.23678E-09         0.00000E+00
    0.99062E-09         0.23488E-09         0.00000E+00
    0.10045E-08         0.22285E-09         0.00000E+00
    0.10172E-08         0.20213E-09         0.00000E+00
    0.10283E-08         0.17383E-09         0.00000E+00
    0.10374E-08         0.13883E-09         0.00000E+00
    0.10443E-08         0.97818E-10         0.00000E+00
    0.10487E-08         0.51354E-10         0.00000E+00
    0.10502E-08         0.26819E-10         0.00000E+00
    0.13843E-08        -0.10824E-10         0.00000E+00
    0.13871E-08        -0.90659E-11         0.00000E+00
    0.13921E-08         0.21763E-10         0.00000E+00
    0.14006E-08         0.86433E-10         0.00000E+00
    0.14152E-08         0.14621E-09         0.00000E+00
    0.14339E-08         0.18557E-09         0.00000E+00
    0.14549E-08         0.20867E-09         0.00000E+00
    0.14767E-08         0.21845E-09         0.00000E+00
    0.14983E-08         0.21710E-09         0.00000E+00
    0.15187E-08         0.20629E-09         0.00000E+00
    0.15374E-08         0.18731E-09         0.00000E+00
    0.15537E-08         0.16121E-09         0.00000E+00
    0.15671E-08         0.12882E-09         0.00000E+00
    0.15773E-08         0.90785E-10         0.00000E+00
    0.15837E-08         0.47664E-10         0.00000E+00
    0.15859E-08         0.24890E-10         0.00000E+00
    0.18708E-08        -0.13943E-10         0.00000E+00
    0.18740E-08        -0.13554E-10         0.00000E+00
    0.18803E-08         0.13841E-10         0.00000E+00
    0.18918E-08         0.72804E-10         0.00000E+00
    0.19116E-08         0.12661E-09         0.00000E+00
    0.19364E-08         0.16238E-09         0.00000E+00
    0.19640E-08         0.18376E-09         0.00000E+00
    0.19925E-08         0.19326E-09         0.00000E+00
    0.20205E-08         0.19275E-09         0.00000E+00
    0.20470E-08         0.18365E-09         0.00000E+00
    0.20711E-08         0.16709E-09         0.00000E+00
    0.20922E-08         0.14400E-09         0.00000E+00
    0.21096E-08         0.11514E-09         0.00000E+00
    0.21227E-08         0.81170E-10         0.00000E+00
    0.21310E-08         0.42612E-10         0.00000E+00
    0.21340E-08         0.22246E-10         0.00000E+00
    0.23793E-08        -0.17383E-10         0.00000E+00
    0.23830E-08        -0.18714E-10         0.00000E+00
    0.23903E-08         0.38081E-11         0.00000E+00
    0.24049E-08         0.54978E-10         0.00000E+00
    0.24295E-08         0.10139E-09         0.00000E+00
    0.24600E-08         0.13297E-09         0.00000E+00
    0.24935E-08         0.15246E-09         0.00000E+00
    0.25279E-08         0.16181E-09         0.00000E+00
    0.25616E-08         0.16245E-09         0.00000E+00
    0.25934E-08         0.15553E-09         0.00000E+00
    0.26223E-08         0.14198E-09         0.00000E+00
    0.26476E-08         0.12262E-09         0.00000E+00
    0.26685E-08         0.98155E-10         0.00000E+00
    0.26843E-08         0.69208E-10         0.00000E+00
    0.26943E-08         0.36315E-10         0.00000E+00
    0.26979E-08         0.18943E-10         0.00000E+00
    0.29148E-08        -0.21343E-10         0.00000E+00
    0.29189E-08        -0.24656E-10         0.00000E+00
    0.29276E-08        -0.82213E-11         0.00000E+00
    0.29450E-08         0.33417E-10         0.00000E+00
    0.29738E-08         0.71253E-10         0.00000E+00
    0.30092E-08         0.98124E-10         0.00000E+00
    0.30477E-08         0.11563E-09         0.00000E+00
    0.30870E-08         0.12495E-09         0.00000E+00
    0.31254E-08         0.12704E-09         0.00000E+00
    0.31616E-08         0.12271E-09         0.00000E+00
    0.31945E-08         0.11270E-09         0.00000E+00
    0.32233E-08         0.97679E-10         0.00000E+00
    0.32471E-08         0.78311E-10         0.00000E+00
    0.32651E-08         0.55208E-10         0.00000E+00
    0.32766E-08         0.28927E-10         0.00000E+00
    0.32806E-08         0.15057E-10         0.00000E+00
    0.34815E-08        -0.25553E-10         0.00000E+00
    0.34849E-08        -0.31630E-10         0.00000E+00
    0.34955E-08        -0.22581E-10         0.00000E+00
    0.35164E-08         0.84606E-11         0.00000E+00
    0.35489E-08         0.36962E-10         0.00000E+00
    0.35880E-08         0.58860E-10         0.00000E+00
    0.36303E-08         0.74364E-10         0.00000E+00
    0.36733E-08         0.83813E-10         0.00000E+00
    0.37152E-08         0.87607E-10         0.00000E+00
    0.37546E-08         0.86204E-10         0.00000E+00
    0.37905E-08         0.80115E-10         0.00000E+00
    0.38218E-08         0.69903E-10         0.00000E+00
    0.38478E-08         0.56174E-10         0.00000E+00
    0.38675E-08         0.39552E-10         0.00000E+00
    0.38801E-08         0.20639E-10         0.00000E+00
    0.38846E-08         0.10682E-10         0.00000E+00
    0.40840E-08        -0.28332E-10         0.00000E+00
    0.40861E-08        -0.38903E-10         0.00000E+00
    0.40980E-08        -0.40018E-10         0.00000E+00
    0.41225E-08        -0.20286E-10         0.00000E+00
    0.41578E-08        -0.68555E-12         0.00000E+00
    0.41994E-08         0.16401E-10         0.00000E+00
    0.42440E-08         0.30031E-10         0.00000E+00
    0.42893E-08         0.39750E-10         0.00000E+00
    0.43333E-08         0.45428E-10         0.00000E+00
    0.43746E-08         0.47171E-10         0.00000E+00
    0.44123E-08         0.45266E-10         0.00000E+00
    0.44452E-08         0.40158E-10         0.00000E+00
    0.44725E-08         0.32416E-10         0.00000E+00
    0.44933E-08         0.22696E-10         0.00000E+00
    0.45066E-08         0.11679E-10         0.00000E+00
    0.45115E-08         0.59315E-11         0.00000E+00
    0.47257E-08        -0.29777E-10         0.00000E+00
    0.47272E-08        -0.45797E-10         0.00000E+00
    0.47396E-08        -0.59375E-10         0.00000E+00
    0.47663E-08        -0.51801E-10         0.00000E+00
    0.48030E-08        -0.40357E-10         0.00000E+00
    0.48454E-08        -0.27733E-10         0.00000E+00
    0.48908E-08        -0.15814E-10         0.00000E+00
    0.49366E-08        -0.57165E-11         0.00000E+00
    0.49811E-08         0.19461E-11         0.00000E+00
    0.50230E-08         0.69358E-11         0.00000E+00
    0.50611E-08         0.93205E-11         0.00000E+00
    0.50944E-08         0.94289E-11         0.00000E+00
    0.51221E-08         0.78082E-11         0.00000E+00
    0.51433E-08         0.51708E-11         0.00000E+00
    0.51570E-08         0.23175E-11         0.00000E+00
    0.51620E-08         0.93975E-12         0.00000E+00
    0.54052E-08        -0.31629E-10         0.00000E+00
    0.54087E-08        -0.53155E-10         0.00000E+00
    0.54218E-08        -0.79596E-10         0.00000E+00
    0.54489E-08        -0.84101E-10         0.00000E+00
    0.54850E-08        -0.80227E-10         0.00000E+00
    0.55267E-08        -0.71817E-10         0.00000E+00
    0.55710E-08        -0.61488E-10         0.00000E+00
    0.56158E-08        -0.50957E-10         0.00000E+00
    0.56593E-08        -0.41293E-10         0.00000E+00
    0.57001E-08        -0.33068E-10         0.00000E+00
    0.57372E-08        -0.26438E-10         0.00000E+00
    0.57697E-08        -0.21188E-10         0.00000E+00
    0.57968E-08        -0.16783E-10         0.00000E+00
    0.58177E-08        -0.12424E-10         0.00000E+00
    0.58312E-08        -0.71401E-11         0.00000E+00
    0.58361E-08        -0.41383E-11         0.00000E+00
    0.61245E-08        -0.37073E-10         0.00000E+00
    0.61297E-08        -0.62820E-10         0.00000E+00
    0.61432E-08        -0.10009E-09         0.00000E+00
    0.61691E-08        -0.11553E-09         0.00000E+00
    0.62032E-08        -0.11863E-09         0.00000E+00
    0.62424E-08        -0.11416E-09         0.00000E+00
    0.62842E-08        -0.10531E-09         0.00000E+00
    0.63262E-08        -0.94326E-10         0.00000E+00
    0.63670E-08        -0.82702E-10         0.00000E+00
    0.64053E-08        -0.71345E-10         0.00000E+00
    0.64400E-08        -0.60642E-10         0.00000E+00
    0.64704E-08        -0.50504E-10         0.00000E+00
    0.64958E-08        -0.40402E-10         0.00000E+00
    0.65153E-08        -0.29417E-10         0.00000E+00
    0.65281E-08        -0.16347E-10         0.00000E+00
    0.65329E-08        -0.91266E-11         0.00000E+00
    0.68832E-08        -0.42218E-10         0.00000E+00
    0.68873E-08        -0.72328E-10         0.00000E+00
    0.69006E-08        -0.11959E-09         0.00000E+00
    0.69241E-08        -0.14461E-09         0.00000E+00
    0.69551E-08        -0.15411E-09         0.00000E+00
    0.69906E-08        -0.15325E-09         0.00000E+00
    0.70283E-08        -0.14573E-09         0.00000E+00
    0.70662E-08        -0.13424E-09         0.00000E+00
    0.71028E-08        -0.12071E-09         0.00000E+00
    0.71369E-08        -0.10638E-09         0.00000E+00
    0.71678E-08        -0.91871E-10         0.00000E+00
    0.71947E-08        -0.77253E-10         0.00000E+00
    0.72171E-08        -0.62004E-10         0.00000E+00
    0.72344E-08        -0.45060E-10         0.00000E+00
    0.72459E-08        -0.24913E-10         0.00000E+00
    0.72502E-08        -0.13827E-10         0.00000E+00
    0.76725E-08        -0.45698E-10         0.00000E+00
    0.76764E-08        -0.80803E-10         0.00000E+00
    0.76893E-08        -0.13760E-09         0.00000E+00
    0.77102E-08        -0.17059E-09         0.00000E+00
    0.77372E-08        -0.18563E-09         0.00000E+00
    0.77680E-08        -0.18785E-09         0.00000E+00
    0.78004E-08        -0.18135E-09         0.00000E+00
    0.78328E-08        -0.16925E-09         0.00000E+00
    0.78638E-08        -0.15383E-09         0.00000E+00
    0.78924E-08        -0.13667E-09         0.00000E+00
    0.79179E-08        -0.11868E-09         0.00000E+00
    0.79398E-08        -0.10010E-09         0.00000E+00
    0.79580E-08        -0.80458E-10         0.00000E+00
    0.79721E-08        -0.58525E-10         0.00000E+00
    0.79815E-08        -0.32402E-10         0.00000E+00
    0.79852E-08        -0.18016E-10         0.00000E+00
    0.84880E-08        -0.50476E-10         0.00000E+00
    0.84926E-08        -0.89684E-10         0.00000E+00
    0.85046E-08        -0.15412E-09         0.00000E+00
    0.85227E-08        -0.19324E-09         0.00000E+00
    0.85452E-08        -0.21246E-09         0.00000E+00
    0.85703E-08        -0.21692E-09         0.00000E+00
    0.85963E-08        -0.21097E-09         0.00000E+00
    0.86220E-08        -0.19802E-09         0.00000E+00
    0.86461E-08        -0.18068E-09         0.00000E+00
    0.86679E-08        -0.16083E-09         0.00000E+00
    0.86867E-08        -0.13967E-09         0.00000E+00
    0.87024E-08        -0.11769E-09         0.00000E+00
    0.87149E-08        -0.94539E-10         0.00000E+00
    0.87245E-08        -0.68879E-10         0.00000E+00
    0.87312E-08        -0.38314E-10         0.00000E+00
    0.87340E-08        -0.21442E-10         0.00000E+00
    0.93277E-08        -0.55247E-10         0.00000E+00
    0.93318E-08        -0.98014E-10         0.00000E+00
    0.93421E-08        -0.16852E-09         0.00000E+00
    0.93565E-08        -0.21188E-09         0.00000E+00
    0.93736E-08        -0.23378E-09         0.00000E+00
    0.93921E-08        -0.23948E-09         0.00000E+00
    0.94107E-08        -0.23348E-09         0.00000E+00
    0.94286E-08        -0.21940E-09         0.00000E+00
    0.94448E-08        -0.20006E-09         0.00000E+00
    0.94586E-08        -0.17761E-09         0.00000E+00
    0.94697E-08        -0.15353E-09         0.00000E+00
    0.94779E-08        -0.12865E-09         0.00000E+00
    0.94835E-08        -0.10293E-09         0.00000E+00
    0.94873E-08        -0.75051E-10         0.00000E+00
    0.94901E-08        -0.42061E-10         0.00000E+00
    0.94917E-08        -0.23811E-10         0.00000E+00
    0.10185E-07        -0.59270E-10         0.00000E+00
    0.10189E-07        -0.10476E-09         0.00000E+00
    0.10196E-07        -0.17958E-09         0.00000E+00
    0.10205E-07        -0.22541E-09         0.00000E+00
    0.10216E-07        -0.24854E-09         0.00000E+00
    0.10227E-07        -0.25450E-09         0.00000E+00
    0.10237E-07        -0.24789E-09         0.00000E+00
    0.10246E-07        -0.23243E-09         0.00000E+00
    0.10254E-07        -0.21106E-09         0.00000E+00
    0.10259E-07        -0.18606E-09         0.00000E+00
    0.10261E-07        -0.15922E-09         0.00000E+00
    0.10261E-07        -0.13180E-09         0.00000E+00
    0.10259E-07        -0.10429E-09         0.00000E+00
    0.10256E-07        -0.75781E-10         0.00000E+00
    0.10253E-07        -0.42906E-10         0.00000E+00
    0.10253E-07        -0.24762E-10         0.00000E+00
    0.11053E-07        -0.61968E-10         0.00000E+00
    0.11055E-07        -0.10903E-09         0.00000E+00
    0.11058E-07        -0.18602E-09         0.00000E+00
    0.11061E-07        -0.23254E-09         0.00000E+00
    0.11064E-07        -0.25560E-09         0.00000E+00
    0.11066E-07        -0.26097E-09         0.00000E+00
    0.11067E-07        -0.25335E-09         0.00000E+00
    0.11067E-07        -0.23642E-09         0.00000E+00
    0.11065E-07        -0.21309E-09         0.00000E+00
    0.11062E-07        -0.18570E-09         0.00000E+00
    0.11056E-07        -0.15622E-09         0.00000E+00
    0.11047E-07        -0.12637E-09         0.00000E+00
    0.11036E-07        -0.97432E-10         0.00000E+00
    0.11025E-07        -0.69593E-10         0.00000E+00
    0.11015E-07        -0.39849E-10         0.00000E+00
    0.11013E-07        -0.23820E-10         0.00000E+00
    0.11920E-07        -0.62863E-10         0.00000E+00
    0.11920E-07        -0.11002E-09         0.00000E+00
    0.11918E-07        -0.18663E-09         0.00000E+00
    0.11913E-07        -0.23202E-09         0.00000E+00
    0.11907E-07        -0.25381E-09         0.00000E+00
    0.11900E-07        -0.25798E-09         0.00000E+00
    0.11891E-07        -0.24919E-09         0.00000E+00
    0.11881E-07        -0.23097E-09         0.00000E+00
    0.11871E-07        -0.20602E-09         0.00000E+00
    0.11858E-07        -0.17657E-09         0.00000E+00
    0.11844E-07        -0.14471E-09         0.00000E+00
    0.11828E-07        -0.11256E-09         0.00000E+00
    0.11809E-07        -0.82203E-10         0.00000E+00
    0.11791E-07        -0.55163E-10         0.00000E+00
    0.11774E-07        -0.31396E-10         0.00000E+00
    0.11767E-07        -0.20194E-10         0.00000E+00
    0.12774E-07        -0.61539E-10         0.00000E+00
    0.12772E-07        -0.10706E-09         0.00000E+00
    0.12764E-07        -0.18037E-09         0.00000E+00
    0.12751E-07        -0.22277E-09         0.00000E+00
    0.12735E-07        -0.24224E-09         0.00000E+00
    0.12718E-07        -0.24484E-09         0.00000E+00
    0.12699E-07        -0.23503E-09         0.00000E+00
    0.12679E-07        -0.21600E-09         0.00000E+00
    0.12660E-07        -0.19010E-09         0.00000E+00
    0.12639E-07        -0.15927E-09         0.00000E+00
    0.12618E-07        -0.12562E-09         0.00000E+00
    0.12595E-07        -0.91730E-10         0.00000E+00
    0.12571E-07        -0.60547E-10         0.00000E+00
    0.12549E-07        -0.34692E-10         0.00000E+00
    0.12530E-07        -0.16765E-10         0.00000E+00
    0.12519E-07        -0.10154E-10         0.00000E+00
    0.13602E-07        -0.57648E-10         0.00000E+00
    0.13597E-07        -0.99589E-10         0.00000E+00
    0.13582E-07        -0.16646E-09         0.00000E+00
    0.13561E-07        -0.20399E-09         0.00000E+00
    0.13535E-07        -0.22029E-09         0.00000E+00
    0.13507E-07        -0.22121E-09         0.00000E+00
    0.13478E-07        -0.21081E-09         0.00000E+00
    0.13449E-07        -0.19177E-09         0.00000E+00
    0.13421E-07        -0.16590E-09         0.00000E+00
    0.13393E-07        -0.13464E-09         0.00000E+00
    0.13365E-07        -0.99971E-10         0.00000E+00
    0.13336E-07        -0.65498E-10         0.00000E+00
    0.13306E-07        -0.36482E-10         0.00000E+00
    0.13283E-07        -0.15365E-10         0.00000E+00
    0.13271E-07        -0.19529E-11         0.00000E+00
    0.13266E-07         0.27654E-11         0.00000E+00
    0.14387E-07        -0.50936E-10         0.00000E+00
    0.14379E-07        -0.87241E-10         0.00000E+00
    0.14358E-07        -0.14443E-09         0.00000E+00
    0.14327E-07        -0.17537E-09         0.00000E+00
    0.14291E-07        -0.18787E-09         0.00000E+00
    0.14253E-07        -0.18725E-09         0.00000E+00
    0.14215E-07        -0.17691E-09         0.00000E+00
    0.14177E-07        -0.15887E-09         0.00000E+00
    0.14142E-07        -0.13416E-09         0.00000E+00
    0.14108E-07        -0.10340E-09         0.00000E+00
    0.14074E-07        -0.68261E-10         0.00000E+00
    0.14037E-07        -0.33089E-10         0.00000E+00
    0.14000E-07        -0.74017E-11         0.00000E+00
    0.13977E-07         0.42877E-12         0.00000E+00
    0.13971E-07        -0.98319E-12         0.00000E+00
    0.13974E-07        -0.14002E-11         0.00000E+00
    0.15113E-07        -0.41281E-10         0.00000E+00
    0.15102E-07        -0.69908E-10         0.00000E+00
    0.15074E-07        -0.11430E-09         0.00000E+00
    0.15035E-07        -0.13721E-09         0.00000E+00
    0.14991E-07        -0.14560E-09         0.00000E+00
    0.14944E-07        -0.14381E-09         0.00000E+00
    0.14897E-07        -0.13431E-09         0.00000E+00
    0.14852E-07        -0.11825E-09         0.00000E+00
    0.14811E-07        -0.95764E-10         0.00000E+00
    0.14771E-07        -0.66256E-10         0.00000E+00
    0.14732E-07        -0.29050E-10         0.00000E+00
    0.14687E-07         0.79931E-11         0.00000E+00
    0.14646E-07         0.23774E-10         0.00000E+00
    0.14625E-07         0.13193E-10         0.00000E+00
    0.14619E-07         0.83715E-13         0.00000E+00
    0.14619E-07        -0.31226E-11         0.00000E+00
    0.15762E-07        -0.28747E-10         0.00000E+00
    0.15748E-07        -0.47838E-10         0.00000E+00
    0.15714E-07        -0.76790E-10         0.00000E+00
    0.15669E-07        -0.90758E-10         0.00000E+00
    0.15617E-07        -0.95142E-10         0.00000E+00
    0.15564E-07        -0.92790E-10         0.00000E+00
    0.15512E-07        -0.84912E-10         0.00000E+00
    0.15463E-07        -0.71609E-10         0.00000E+00
    0.15417E-07        -0.52013E-10         0.00000E+00
    0.15374E-07        -0.24064E-10         0.00000E+00
    0.15331E-07         0.16563E-10         0.00000E+00
    0.15284E-07         0.53110E-10         0.00000E+00
    0.15244E-07         0.54200E-10         0.00000E+00
    0.15224E-07         0.27083E-10         0.00000E+00
    0.15214E-07         0.47825E-11         0.00000E+00
    0.15211E-07        -0.16369E-11         0.00000E+00
    0.16314E-07        -0.13651E-10         0.00000E+00
    0.16299E-07        -0.21767E-10         0.00000E+00
    0.16261E-07        -0.33500E-10         0.00000E+00
    0.16211E-07        -0.38433E-10         0.00000E+00
    0.16157E-07        -0.39519E-10         0.00000E+00
    0.16101E-07        -0.37499E-10         0.00000E+00
    0.16049E-07        -0.31976E-10         0.00000E+00
    0.15999E-07        -0.21902E-10         0.00000E+00
    0.15952E-07        -0.54767E-11         0.00000E+00
    0.15909E-07         0.20865E-10         0.00000E+00
    0.15867E-07         0.62098E-10         0.00000E+00
    0.15826E-07         0.95097E-10         0.00000E+00
    0.15792E-07         0.83346E-10         0.00000E+00
    0.15770E-07         0.43264E-10         0.00000E+00
    0.15757E-07         0.12578E-10         0.00000E+00
    0.15752E-07         0.22022E-11         0.00000E+00
    0.16753E-07         0.33550E-11         0.00000E+00
    0.16736E-07         0.69119E-11         0.00000E+00
    0.16697E-07         0.12742E-10         0.00000E+00
    0.16648E-07         0.15742E-10         0.00000E+00
    0.16595E-07         0.16505E-10         0.00000E+00
    0.16544E-07         0.17020E-10         0.00000E+00
    0.16496E-07         0.19517E-10         0.00000E+00
    0.16452E-07         0.26157E-10         0.00000E+00
    0.16411E-07         0.39358E-10         0.00000E+00
    0.16372E-07         0.62816E-10         0.00000E+00
    0.16338E-07         0.10076E-09         0.00000E+00
    0.16309E-07         0.12854E-09         0.00000E+00
    0.16284E-07         0.10996E-09         0.00000E+00
    0.16261E-07         0.61989E-10         0.00000E+00
    0.16247E-07         0.22279E-10         0.00000E+00
    0.16241E-07         0.72422E-11         0.00000E+00
    0.17058E-07         0.21156E-10         0.00000E+00
    0.17042E-07         0.35893E-10         0.00000E+00
    0.17006E-07         0.57444E-10         0.00000E+00
    0.16964E-07         0.65713E-10         0.00000E+00
    0.16923E-07         0.66123E-10         0.00000E+00
    0.16884E-07         0.63831E-10         0.00000E+00
    0.16848E-07         0.62803E-10         0.00000E+00
    0.16816E-07         0.66006E-10         0.00000E+00
    0.16787E-07         0.75956E-10         0.00000E+00
    0.16761E-07         0.95362E-10         0.00000E+00
    0.16740E-07         0.12664E-09         0.00000E+00
    0.16728E-07         0.14942E-09         0.00000E+00
    0.16716E-07         0.13161E-09         0.00000E+00
    0.16696E-07         0.80831E-10         0.00000E+00
    0.16683E-07         0.32275E-10         0.00000E+00
    0.16677E-07         0.12763E-10         0.00000E+00
    0.17212E-07         0.37916E-10         0.00000E+00
    0.17199E-07         0.61429E-10         0.00000E+00
    0.17175E-07         0.93643E-10         0.00000E+00
    0.17151E-07         0.10277E-09         0.00000E+00
    0.17130E-07         0.10032E-09         0.00000E+00
    0.17112E-07         0.94344E-10         0.00000E+00
    0.17098E-07         0.89822E-10         0.00000E+00
    0.17086E-07         0.89889E-10         0.00000E+00
    0.17076E-07         0.96721E-10         0.00000E+00
    0.17070E-07         0.11171E-09         0.00000E+00
    0.17069E-07         0.13496E-09         0.00000E+00
    0.17078E-07         0.15392E-09         0.00000E+00
    0.17084E-07         0.14241E-09         0.00000E+00
    0.17077E-07         0.94928E-10         0.00000E+00
    0.17068E-07         0.41353E-10         0.00000E+00
    0.17063E-07         0.18389E-10         0.00000E+00
    0.17196E-07         0.50286E-10         0.00000E+00
    0.17191E-07         0.76996E-10         0.00000E+00
    0.17193E-07         0.11024E-09         0.00000E+00
    0.17202E-07         0.11474E-09         0.00000E+00
    0.17215E-07         0.10809E-09         0.00000E+00
    0.17229E-07         0.99123E-10         0.00000E+00
    0.17243E-07         0.92335E-10         0.00000E+00
    0.17258E-07         0.90188E-10         0.00000E+00
    0.17275E-07         0.94145E-10         0.00000E+00
    0.17295E-07         0.10478E-09         0.00000E+00
    0.17320E-07         0.12060E-09         0.00000E+00
    0.17354E-07         0.13649E-09         0.00000E+00
    0.17388E-07         0.13332E-09         0.00000E+00
    0.17406E-07         0.97136E-10         0.00000E+00
    0.17410E-07         0.46548E-10         0.00000E+00
    0.17409E-07         0.21930E-10         0.00000E+00
    0.16979E-07         0.51154E-10         0.00000E+00
    0.17006E-07         0.69238E-10         0.00000E+00
    0.17062E-07         0.88418E-10         0.00000E+00
    0.17123E-07         0.85862E-10         0.00000E+00
    0.17182E-07         0.77725E-10         0.00000E+00
    0.17236E-07         0.69506E-10         0.00000E+00
    0.17285E-07         0.63553E-10         0.00000E+00
    0.17331E-07         0.61055E-10         0.00000E+00
    0.17378E-07         0.62666E-10         0.00000E+00
    0.17428E-07         0.68498E-10         0.00000E+00
    0.17485E-07         0.77585E-10         0.00000E+00
    0.17551E-07         0.87897E-10         0.00000E+00
    0.17624E-07         0.92333E-10         0.00000E+00
    0.17686E-07         0.73912E-10         0.00000E+00
    0.17722E-07         0.38513E-10         0.00000E+00
    0.17733E-07         0.20805E-10         0.00000E+00
    0.16815E-07         0.00000E+00         0.00000E+00
    0.16869E-07         0.00000E+00         0.00000E+00
    0.16960E-07        -0.45546E-22         0.00000E+00
    0.17052E-07         0.79876E-26         0.00000E+00
    0.17137E-07         0.53835E-22         0.00000E+00
    0.17212E-07         0.00000E+00         0.00000E+00
    0.17280E-07         0.00000E+00         0.00000E+00
    0.17343E-07        -0.49716E-22         0.00000E+00
    0.17405E-07        -0.49716E-22         0.00000E+00
    0.17471E-07         0.49723E-22         0.00000E+00
    0.17545E-07         0.53867E-22         0.00000E+00
    0.17628E-07        -0.53873E-22         0.00000E+00
    0.17722E-07        -0.41417E-23         0.00000E+00
    0.17815E-07         0.53876E-22         0.00000E+00
    0.17871E-07         0.82889E-23         0.00000E+00
    0.17892E-07         0.00000E+00         0.00000E+00
CELL_DATA        450
TENSORS stressef double 
    0.89032E+07         0.55662E+04         0.00000E+00
    0.55662E+04        -0.10587E+08         0.00000E+00
    0.00000E+00         0.00000E+00        -0.58898E+06
 
    0.88943E+07         0.16270E+05         0.00000E+00
    0.16270E+05        -0.10566E+08         0.00000E+00
    0.00000E+00         0.00000E+00        -0.44341E+06
 
    0.85024E+07         0.21843E+05         0.00000E+00
    0.21843E+05        -0.10524E+08         0.00000E+00
    0.00000E+00         0.00000E+00        -0.40436E+06
 
    0.74515E+07         0.21901E+05         0.00000E+00
    0.21901E+05        -0.10466E+08         0.00000E+00
    0.00000E+00         0.00000E+00        -0.60297E+06
 
    0.64542E+07         0.22368E+05         0.00000E+00
    0.22368E+05        -0.10399E+08         0.00000E+00
    0.00000E+00         0.00000E+00        -0.78894E+06
 
    0.55092E+07         0.24846E+05         0.00000E+00
    0.24846E+05        -0.10322E+08         0.00000E+00
    0.00000E+00         0.00000E+00        -0.96265E+06
 
    0.46112E+07         0.30029E+05         0.00000E+00
    0.30029E+05        -0.10235E+08         0.00000E+00
    0.00000E+00         0.00000E+00        -0.11247E+07
 
    0.37530E+07         0.38107E+05         0.00000E+00
    0.38107E+05        -0.10132E+08         0.00000E+00
    0.00000E+00         0.00000E+00        -0.12759E+07
 
    0.29271E+07         0.49035E+05         0.00000E+00
    0.49035E+05        -0.10011E+08         0.00000E+00
    0.00000E+00         0.00000E+00        -0.14168E+07
 
    0.21257E+07         0.62659E+05         0.00000E+00
    0.62659E+05        -0.98669E+07         0.00000E+00
    0.00000E+00         0.00000E+00        -0.15482E+07
 
    0.13417E+07         0.78758E+05         0.00000E+00
    0.78758E+05        -0.96962E+07         0.00000E+00
    0.00000E+00         0.00000E+00        -0.16709E+07
 
    0.56829E+06         0.97055E+05         0.00000E+00
    0.97055E+05        -0.94951E+07         0.00000E+00
    0.00000E+00         0.00000E+00        -0.17854E+07
 
   -0.20039E+06         0.11722E+06         0.00000E+00
    0.11722E+06        -0.92607E+07         0.00000E+00
    0.00000E+00         0.00000E+00        -0.18922E+07
 
   -0.96923E+06         0.13887E+06         0.00000E+00
    0.13887E+06        -0.89904E+07         0.00000E+00
    0.00000E+00         0.00000E+00        -0.19919E+07
 
   -0.17420E+07         0.16155E+06         0.00000E+00
    0.16155E+06        -0.86826E+07         0.00000E+00
    0.00000E+00         0.00000E+00        -0.20849E+07
 
    0.88610E+07         0.16644E+05         0.00000E+00
    0.16644E+05        -0.10651E+08         0.00000E+00
    0.00000E+00         0.00000E+00        -0.61134E+06
 
    0.88511E+07         0.48791E+05         0.00000E+00
    0.48791E+05        -0.10629E+08         0.00000E+00
    0.00000E+00         0.00000E+00        -0.46378E+06
 
    0.84392E+07         0.64743E+05         0.00000E+00
    0.64743E+05        -0.10589E+08         0.00000E+00
    0.00000E+00         0.00000E+00        -0.43003E+06
 
    0.73864E+07         0.63855E+05         0.00000E+00
    0.63855E+05        -0.10535E+08         0.00000E+00
    0.00000E+00         0.00000E+00        -0.62967E+06
 
    0.63914E+07         0.64936E+05         0.00000E+00
    0.64936E+05        -0.10472E+08         0.00000E+00
    0.00000E+00         0.00000E+00        -0.81617E+06
 
    0.54504E+07         0.72472E+05         0.00000E+00
    0.72472E+05        -0.10401E+08         0.00000E+00
    0.00000E+00         0.00000E+00        -0.99009E+06
 
    0.45570E+07         0.88250E+05         0.00000E+00
    0.88250E+05        -0.10318E+08         0.00000E+00
    0.00000E+00         0.00000E+00        -0.11522E+07
 
    0.37036E+07         0.11271E+06         0.00000E+00
    0.11271E+06        -0.10220E+08         0.00000E+00
    0.00000E+00         0.00000E+00        -0.13033E+07
 
    0.28823E+07         0.14569E+06         0.00000E+00
    0.14569E+06        -0.10103E+08         0.00000E+00
    0.00000E+00         0.00000E+00        -0.14441E+07
 
    0.20852E+07         0.18674E+06         0.00000E+00
    0.18674E+06        -0.99622E+07         0.00000E+00
    0.00000E+00         0.00000E+00        -0.15754E+07
 
    0.13050E+07         0.23521E+06         0.00000E+00
    0.23521E+06        -0.97946E+07         0.00000E+00
    0.00000E+00         0.00000E+00        -0.16979E+07
 
    0.53490E+06         0.29028E+06         0.00000E+00
    0.29028E+06        -0.95962E+07         0.00000E+00
    0.00000E+00         0.00000E+00        -0.18123E+07
 
   -0.23097E+06         0.35096E+06         0.00000E+00
    0.35096E+06        -0.93640E+07         0.00000E+00
    0.00000E+00         0.00000E+00        -0.19190E+07
 
   -0.99767E+06         0.41611E+06         0.00000E+00
    0.41611E+06        -0.90953E+07         0.00000E+00
    0.00000E+00         0.00000E+00        -0.20186E+07
 
   -0.17690E+07         0.48441E+06         0.00000E+00
    0.48441E+06        -0.87884E+07         0.00000E+00
    0.00000E+00         0.00000E+00        -0.21115E+07
 
    0.87761E+07         0.27605E+05         0.00000E+00
    0.27605E+05        -0.10778E+08         0.00000E+00
    0.00000E+00         0.00000E+00        -0.65541E+06
 
    0.87640E+07         0.81133E+05         0.00000E+00
    0.81133E+05        -0.10757E+08         0.00000E+00
    0.00000E+00         0.00000E+00        -0.50390E+06
 
    0.83091E+07         0.10498E+06         0.00000E+00
    0.10498E+06        -0.10721E+08         0.00000E+00
    0.00000E+00         0.00000E+00        -0.48234E+06
 
    0.72543E+07         0.10007E+06         0.00000E+00
    0.10007E+06        -0.10673E+08         0.00000E+00
    0.00000E+00         0.00000E+00        -0.68380E+06
 
    0.62648E+07         0.10109E+06         0.00000E+00
    0.10109E+06        -0.10620E+08         0.00000E+00
    0.00000E+00         0.00000E+00        -0.87113E+06
 
    0.53325E+07         0.11411E+06         0.00000E+00
    0.11411E+06        -0.10559E+08         0.00000E+00
    0.00000E+00         0.00000E+00        -0.10453E+07
 
    0.44485E+07         0.14113E+06         0.00000E+00
    0.14113E+06        -0.10486E+08         0.00000E+00
    0.00000E+00         0.00000E+00        -0.12074E+07
 
    0.36046E+07         0.18258E+06         0.00000E+00
    0.18258E+06        -0.10396E+08         0.00000E+00
    0.00000E+00         0.00000E+00        -0.13583E+07
 
    0.27923E+07         0.23817E+06         0.00000E+00
    0.23817E+06        -0.10287E+08         0.00000E+00
    0.00000E+00         0.00000E+00        -0.14989E+07
 
    0.20036E+07         0.30715E+06         0.00000E+00
    0.30715E+06        -0.10153E+08         0.00000E+00
    0.00000E+00         0.00000E+00        -0.16299E+07
 
    0.12312E+07         0.38849E+06         0.00000E+00
    0.38849E+06        -0.99918E+07         0.00000E+00
    0.00000E+00         0.00000E+00        -0.17521E+07
 
    0.46786E+06         0.48084E+06         0.00000E+00
    0.48084E+06        -0.97987E+07         0.00000E+00
    0.00000E+00         0.00000E+00        -0.18662E+07
 
   -0.29236E+06         0.58260E+06         0.00000E+00
    0.58260E+06        -0.95708E+07         0.00000E+00
    0.00000E+00         0.00000E+00        -0.19726E+07
 
   -0.10547E+07         0.69187E+06         0.00000E+00
    0.69187E+06        -0.93053E+07         0.00000E+00
    0.00000E+00         0.00000E+00        -0.20720E+07
 
   -0.18232E+07         0.80649E+06         0.00000E+00
    0.80649E+06        -0.90004E+07         0.00000E+00
    0.00000E+00         0.00000E+00        -0.21647E+07
 
    0.86466E+07         0.38677E+05         0.00000E+00
    0.38677E+05        -0.10971E+08         0.00000E+00
    0.00000E+00         0.00000E+00        -0.71999E+06
 
    0.86315E+07         0.11257E+06         0.00000E+00
    0.11257E+06        -0.10951E+08         0.00000E+00
    0.00000E+00         0.00000E+00        -0.56226E+06
 
    0.81046E+07         0.13950E+06         0.00000E+00
    0.13950E+06        -0.10921E+08         0.00000E+00
    0.00000E+00         0.00000E+00        -0.56336E+06
 
    0.70519E+07         0.12632E+06         0.00000E+00
    0.12632E+06        -0.10886E+08         0.00000E+00
    0.00000E+00         0.00000E+00        -0.76679E+06
 
    0.60735E+07         0.12710E+06         0.00000E+00
    0.12710E+06        -0.10847E+08         0.00000E+00
    0.00000E+00         0.00000E+00        -0.95474E+06
 
    0.51547E+07         0.14645E+06         0.00000E+00
    0.14645E+06        -0.10800E+08         0.00000E+00
    0.00000E+00         0.00000E+00        -0.11290E+07
 
    0.42850E+07         0.18563E+06         0.00000E+00
    0.18563E+06        -0.10739E+08         0.00000E+00
    0.00000E+00         0.00000E+00        -0.12909E+07
 
    0.34551E+07         0.24494E+06         0.00000E+00
    0.24494E+06        -0.10662E+08         0.00000E+00
    0.00000E+00         0.00000E+00        -0.14414E+07
 
    0.26564E+07         0.32391E+06         0.00000E+00
    0.32391E+06        -0.10564E+08         0.00000E+00
    0.00000E+00         0.00000E+00        -0.15815E+07
 
    0.18805E+07         0.42159E+06         0.00000E+00
    0.42159E+06        -0.10441E+08         0.00000E+00
    0.00000E+00         0.00000E+00        -0.17121E+07
 
    0.11197E+07         0.53656E+06         0.00000E+00
    0.53656E+06        -0.10288E+08         0.00000E+00
    0.00000E+00         0.00000E+00        -0.18338E+07
 
    0.36661E+06         0.66701E+06         0.00000E+00
    0.66701E+06        -0.10103E+08         0.00000E+00
    0.00000E+00         0.00000E+00        -0.19473E+07
 
   -0.38501E+06         0.81074E+06         0.00000E+00
    0.81074E+06        -0.98816E+07         0.00000E+00
    0.00000E+00         0.00000E+00        -0.20533E+07
 
   -0.11407E+07         0.96515E+06         0.00000E+00
    0.96515E+06        -0.96208E+07         0.00000E+00
    0.00000E+00         0.00000E+00        -0.21523E+07
 
   -0.19047E+07         0.11272E+07         0.00000E+00
    0.11272E+07        -0.93188E+07         0.00000E+00
    0.00000E+00         0.00000E+00        -0.22447E+07
 
    0.84693E+07         0.50674E+05         0.00000E+00
    0.50674E+05        -0.11232E+08         0.00000E+00
    0.00000E+00         0.00000E+00        -0.80447E+06
 
    0.84497E+07         0.14087E+06         0.00000E+00
    0.14087E+06        -0.11214E+08         0.00000E+00
    0.00000E+00         0.00000E+00        -0.63677E+06
 
    0.78148E+07         0.16288E+06         0.00000E+00
    0.16288E+06        -0.11197E+08         0.00000E+00
    0.00000E+00         0.00000E+00        -0.67637E+06
 
    0.67763E+07         0.13900E+06         0.00000E+00
    0.13900E+06        -0.11178E+08         0.00000E+00
    0.00000E+00         0.00000E+00        -0.88035E+06
 
    0.58159E+07         0.14051E+06         0.00000E+00
    0.14051E+06        -0.11156E+08         0.00000E+00
    0.00000E+00         0.00000E+00        -0.10681E+07
 
    0.49158E+07         0.16704E+06         0.00000E+00
    0.16704E+06        -0.11125E+08         0.00000E+00
    0.00000E+00         0.00000E+00        -0.12419E+07
 
    0.40651E+07         0.21930E+06         0.00000E+00
    0.21930E+06        -0.11081E+08         0.00000E+00
    0.00000E+00         0.00000E+00        -0.14032E+07
 
    0.32541E+07         0.29736E+06         0.00000E+00
    0.29736E+06        -0.11020E+08         0.00000E+00
    0.00000E+00         0.00000E+00        -0.15531E+07
 
    0.24735E+07         0.40062E+06         0.00000E+00
    0.40062E+06        -0.10936E+08         0.00000E+00
    0.00000E+00         0.00000E+00        -0.16925E+07
 
    0.17147E+07         0.52791E+06         0.00000E+00
    0.52791E+06        -0.10826E+08         0.00000E+00
    0.00000E+00         0.00000E+00        -0.18222E+07
 
    0.96950E+06         0.67749E+06         0.00000E+00
    0.67749E+06        -0.10685E+08         0.00000E+00
    0.00000E+00         0.00000E+00        -0.19431E+07
 
    0.23032E+06         0.84711E+06         0.00000E+00
    0.84711E+06        -0.10510E+08         0.00000E+00
    0.00000E+00         0.00000E+00        -0.20560E+07
 
   -0.50959E+06         0.10340E+07         0.00000E+00
    0.10340E+07        -0.10297E+08         0.00000E+00
    0.00000E+00         0.00000E+00        -0.21613E+07
 
   -0.12561E+07         0.12349E+07         0.00000E+00
    0.12349E+07        -0.10043E+08         0.00000E+00
    0.00000E+00         0.00000E+00        -0.22597E+07
 
   -0.20138E+07         0.14460E+07         0.00000E+00
    0.14460E+07        -0.97445E+07         0.00000E+00
    0.00000E+00         0.00000E+00        -0.23517E+07
 
    0.82406E+07         0.61214E+05         0.00000E+00
    0.61214E+05        -0.11567E+08         0.00000E+00
    0.00000E+00         0.00000E+00        -0.90875E+06
 
    0.82068E+07         0.16384E+06         0.00000E+00
    0.16384E+06        -0.11561E+08         0.00000E+00
    0.00000E+00         0.00000E+00        -0.73044E+06
 
    0.74309E+07         0.16864E+06         0.00000E+00
    0.16864E+06        -0.11552E+08         0.00000E+00
    0.00000E+00         0.00000E+00        -0.82427E+06
 
    0.64260E+07         0.13711E+06         0.00000E+00
    0.13711E+06        -0.11554E+08         0.00000E+00
    0.00000E+00         0.00000E+00        -0.10255E+07
 
    0.54897E+07         0.13979E+06         0.00000E+00
    0.13979E+06        -0.11551E+08         0.00000E+00
    0.00000E+00         0.00000E+00        -0.12122E+07
 
    0.46137E+07         0.17412E+06         0.00000E+00
    0.17412E+06        -0.11539E+08         0.00000E+00
    0.00000E+00         0.00000E+00        -0.13851E+07
 
    0.37870E+07         0.24017E+06         0.00000E+00
    0.24017E+06        -0.11514E+08         0.00000E+00
    0.00000E+00         0.00000E+00        -0.15454E+07
 
    0.29996E+07         0.33777E+06         0.00000E+00
    0.33777E+06        -0.11470E+08         0.00000E+00
    0.00000E+00         0.00000E+00        -0.16941E+07
 
    0.22419E+07         0.46621E+06         0.00000E+00
    0.46621E+06        -0.11404E+08         0.00000E+00
    0.00000E+00         0.00000E+00        -0.18323E+07
 
    0.15047E+07         0.62410E+06         0.00000E+00
    0.62410E+06        -0.11309E+08         0.00000E+00
    0.00000E+00         0.00000E+00        -0.19609E+07
 
    0.77937E+06         0.80942E+06         0.00000E+00
    0.80942E+06        -0.11183E+08         0.00000E+00
    0.00000E+00         0.00000E+00        -0.20807E+07
 
    0.57896E+05         0.10195E+07         0.00000E+00
    0.10195E+07        -0.11020E+08         0.00000E+00
    0.00000E+00         0.00000E+00        -0.21925E+07
 
   -0.66696E+06         0.12510E+07         0.00000E+00
    0.12510E+07        -0.10818E+08         0.00000E+00
    0.00000E+00         0.00000E+00        -0.22969E+07
 
   -0.14015E+07         0.15000E+07         0.00000E+00
    0.15000E+07        -0.10571E+08         0.00000E+00
    0.00000E+00         0.00000E+00        -0.23945E+07
 
   -0.21509E+07         0.17621E+07         0.00000E+00
    0.17621E+07        -0.10278E+08         0.00000E+00
    0.00000E+00         0.00000E+00        -0.24858E+07
 
    0.79592E+07         0.70676E+05         0.00000E+00
    0.70676E+05        -0.11974E+08         0.00000E+00
    0.00000E+00         0.00000E+00        -0.10313E+07
 
    0.78606E+07         0.17730E+06         0.00000E+00
    0.17730E+06        -0.11977E+08         0.00000E+00
    0.00000E+00         0.00000E+00        -0.86067E+06
 
    0.69695E+07         0.15119E+06         0.00000E+00
    0.15119E+06        -0.11990E+08         0.00000E+00
    0.00000E+00         0.00000E+00        -0.10041E+07
 
    0.59974E+07         0.11868E+06         0.00000E+00
    0.11868E+06        -0.12015E+08         0.00000E+00
    0.00000E+00         0.00000E+00        -0.12035E+07
 
    0.50919E+07         0.12345E+06         0.00000E+00
    0.12345E+06        -0.12034E+08         0.00000E+00
    0.00000E+00         0.00000E+00        -0.13883E+07
 
    0.42454E+07         0.16618E+06         0.00000E+00
    0.16618E+06        -0.12043E+08         0.00000E+00
    0.00000E+00         0.00000E+00        -0.15595E+07
 
    0.34479E+07         0.24653E+06         0.00000E+00
    0.24653E+06        -0.12039E+08         0.00000E+00
    0.00000E+00         0.00000E+00        -0.17181E+07
 
    0.26892E+07         0.36432E+06         0.00000E+00
    0.36432E+06        -0.12015E+08         0.00000E+00
    0.00000E+00         0.00000E+00        -0.18652E+07
 
    0.19594E+07         0.51876E+06         0.00000E+00
    0.51876E+06        -0.11968E+08         0.00000E+00
    0.00000E+00         0.00000E+00        -0.20018E+07
 
    0.12486E+07         0.70829E+06         0.00000E+00
    0.70829E+06        -0.11893E+08         0.00000E+00
    0.00000E+00         0.00000E+00        -0.21288E+07
 
    0.54765E+06         0.93056E+06         0.00000E+00
    0.93056E+06        -0.11783E+08         0.00000E+00
    0.00000E+00         0.00000E+00        -0.22471E+07
 
   -0.15202E+06         0.11825E+07         0.00000E+00
    0.11825E+07        -0.11635E+08         0.00000E+00
    0.00000E+00         0.00000E+00        -0.23574E+07
 
   -0.85819E+06         0.14603E+07         0.00000E+00
    0.14603E+07        -0.11444E+08         0.00000E+00
    0.00000E+00         0.00000E+00        -0.24605E+07
 
   -0.15777E+07         0.17594E+07         0.00000E+00
    0.17594E+07        -0.11207E+08         0.00000E+00
    0.00000E+00         0.00000E+00        -0.25570E+07
 
   -0.23164E+07         0.20747E+07         0.00000E+00
    0.20747E+07        -0.10921E+08         0.00000E+00
    0.00000E+00         0.00000E+00        -0.26474E+07
 
    0.76157E+07         0.79384E+05         0.00000E+00
    0.79384E+05        -0.12462E+08         0.00000E+00
    0.00000E+00         0.00000E+00        -0.11694E+07
 
    0.73892E+07         0.17031E+06         0.00000E+00
    0.17031E+06        -0.12479E+08         0.00000E+00
    0.00000E+00         0.00000E+00        -0.10358E+07
 
    0.64290E+07         0.11386E+06         0.00000E+00
    0.11386E+06        -0.12517E+08         0.00000E+00
    0.00000E+00         0.00000E+00        -0.12176E+07
 
    0.54892E+07         0.81251E+05         0.00000E+00
    0.81251E+05        -0.12565E+08         0.00000E+00
    0.00000E+00         0.00000E+00        -0.14151E+07
 
    0.46192E+07         0.90257E+05         0.00000E+00
    0.90257E+05        -0.12606E+08         0.00000E+00
    0.00000E+00         0.00000E+00        -0.15974E+07
 
    0.38073E+07         0.14180E+06         0.00000E+00
    0.14180E+06        -0.12639E+08         0.00000E+00
    0.00000E+00         0.00000E+00        -0.17663E+07
 
    0.30443E+07         0.23674E+06         0.00000E+00
    0.23674E+06        -0.12657E+08         0.00000E+00
    0.00000E+00         0.00000E+00        -0.19226E+07
 
    0.23199E+07         0.37520E+06         0.00000E+00
    0.37520E+06        -0.12657E+08         0.00000E+00
    0.00000E+00         0.00000E+00        -0.20674E+07
 
    0.16233E+07         0.55641E+06         0.00000E+00
    0.55641E+06        -0.12632E+08         0.00000E+00
    0.00000E+00         0.00000E+00        -0.22017E+07
 
    0.94411E+06         0.77863E+06         0.00000E+00
    0.77863E+06        -0.12577E+08         0.00000E+00
    0.00000E+00         0.00000E+00        -0.23265E+07
 
    0.27243E+06         0.10392E+07         0.00000E+00
    0.10392E+07        -0.12486E+08         0.00000E+00
    0.00000E+00         0.00000E+00        -0.24427E+07
 
   -0.40098E+06         0.13345E+07         0.00000E+00
    0.13345E+07        -0.12354E+08         0.00000E+00
    0.00000E+00         0.00000E+00        -0.25511E+07
 
   -0.10845E+07         0.16604E+07         0.00000E+00
    0.16604E+07        -0.12178E+08         0.00000E+00
    0.00000E+00         0.00000E+00        -0.26524E+07
 
   -0.17855E+07         0.20117E+07         0.00000E+00
    0.20117E+07        -0.11952E+08         0.00000E+00
    0.00000E+00         0.00000E+00        -0.27475E+07
 
   -0.25106E+07         0.23827E+07         0.00000E+00
    0.23827E+07        -0.11673E+08         0.00000E+00
    0.00000E+00         0.00000E+00        -0.28367E+07
 
    0.72018E+07         0.85159E+05         0.00000E+00
    0.85159E+05        -0.13039E+08         0.00000E+00
    0.00000E+00         0.00000E+00        -0.13204E+07
 
    0.67795E+07         0.13295E+06         0.00000E+00
    0.13295E+06        -0.13084E+08         0.00000E+00
    0.00000E+00         0.00000E+00        -0.12610E+07
 
    0.57967E+07         0.59225E+05         0.00000E+00
    0.59225E+05        -0.13139E+08         0.00000E+00
    0.00000E+00         0.00000E+00        -0.14686E+07
 
    0.48989E+07         0.26766E+05         0.00000E+00
    0.26766E+05        -0.13206E+08         0.00000E+00
    0.00000E+00         0.00000E+00        -0.16615E+07
 
    0.40670E+07         0.39513E+05         0.00000E+00
    0.39513E+05        -0.13271E+08         0.00000E+00
    0.00000E+00         0.00000E+00        -0.18407E+07
 
    0.32949E+07         0.99581E+05         0.00000E+00
    0.99581E+05        -0.13327E+08         0.00000E+00
    0.00000E+00         0.00000E+00        -0.20065E+07
 
    0.25723E+07         0.20906E+06         0.00000E+00
    0.20906E+06        -0.13371E+08         0.00000E+00
    0.00000E+00         0.00000E+00        -0.21597E+07
 
    0.18881E+07         0.36855E+06         0.00000E+00
    0.36855E+06        -0.13396E+08         0.00000E+00
    0.00000E+00         0.00000E+00        -0.23015E+07
 
    0.12307E+07         0.57730E+06         0.00000E+00
    0.57730E+06        -0.13395E+08         0.00000E+00
    0.00000E+00         0.00000E+00        -0.24328E+07
 
    0.58879E+06         0.83332E+06         0.00000E+00
    0.83332E+06        -0.13362E+08         0.00000E+00
    0.00000E+00         0.00000E+00        -0.25546E+07
 
   -0.48364E+05         0.11335E+07         0.00000E+00
    0.11335E+07        -0.13292E+08         0.00000E+00
    0.00000E+00         0.00000E+00        -0.26681E+07
 
   -0.69066E+06         0.14740E+07         0.00000E+00
    0.14740E+07        -0.13179E+08         0.00000E+00
    0.00000E+00         0.00000E+00        -0.27739E+07
 
   -0.13471E+07         0.18499E+07         0.00000E+00
    0.18499E+07        -0.13018E+08         0.00000E+00
    0.00000E+00         0.00000E+00        -0.28731E+07
 
   -0.20259E+07         0.22557E+07         0.00000E+00
    0.22557E+07        -0.12805E+08         0.00000E+00
    0.00000E+00         0.00000E+00        -0.29662E+07
 
   -0.27341E+07         0.26850E+07         0.00000E+00
    0.26850E+07        -0.12535E+08         0.00000E+00
    0.00000E+00         0.00000E+00        -0.30538E+07
 
    0.67029E+07         0.75761E+05         0.00000E+00
    0.75761E+05        -0.13721E+08         0.00000E+00
    0.00000E+00         0.00000E+00        -0.14942E+07
 
    0.60109E+07         0.69378E+05         0.00000E+00
    0.69378E+05        -0.13766E+08         0.00000E+00
    0.00000E+00         0.00000E+00        -0.15511E+07
 
    0.50768E+07        -0.95550E+04         0.00000E+00
   -0.95550E+04        -0.13852E+08         0.00000E+00
    0.00000E+00         0.00000E+00        -0.17551E+07
 
    0.42182E+07        -0.43674E+05         0.00000E+00
   -0.43674E+05        -0.13940E+08         0.00000E+00
    0.00000E+00         0.00000E+00        -0.19443E+07
 
    0.34295E+07        -0.29626E+05         0.00000E+00
   -0.29626E+05        -0.14027E+08         0.00000E+00
    0.00000E+00         0.00000E+00        -0.21196E+07
 
    0.27030E+07         0.37852E+05         0.00000E+00
    0.37852E+05        -0.14110E+08         0.00000E+00
    0.00000E+00         0.00000E+00        -0.22815E+07
 
    0.20274E+07         0.16157E+06         0.00000E+00
    0.16157E+06        -0.14181E+08         0.00000E+00
    0.00000E+00         0.00000E+00        -0.24307E+07
 
    0.13902E+07         0.34244E+06         0.00000E+00
    0.34244E+06        -0.14233E+08         0.00000E+00
    0.00000E+00         0.00000E+00        -0.25685E+07
 
    0.77852E+06         0.57957E+06         0.00000E+00
    0.57957E+06        -0.14258E+08         0.00000E+00
    0.00000E+00         0.00000E+00        -0.26958E+07
 
    0.18003E+06         0.87059E+06         0.00000E+00
    0.87059E+06        -0.14250E+08         0.00000E+00
    0.00000E+00         0.00000E+00        -0.28139E+07
 
   -0.41687E+06         0.12120E+07         0.00000E+00
    0.12120E+07        -0.14202E+08         0.00000E+00
    0.00000E+00         0.00000E+00        -0.29238E+07
 
   -0.10228E+07         0.15993E+07         0.00000E+00
    0.15993E+07        -0.14109E+08         0.00000E+00
    0.00000E+00         0.00000E+00        -0.30264E+07
 
   -0.16475E+07         0.20272E+07         0.00000E+00
    0.20272E+07        -0.13966E+08         0.00000E+00
    0.00000E+00         0.00000E+00        -0.31227E+07
 
   -0.22996E+07         0.24898E+07         0.00000E+00
    0.24898E+07        -0.13767E+08         0.00000E+00
    0.00000E+00         0.00000E+00        -0.32133E+07
 
   -0.29871E+07         0.29802E+07         0.00000E+00
    0.29802E+07        -0.13508E+08         0.00000E+00
    0.00000E+00         0.00000E+00        -0.32990E+07
 
    0.60333E+07         0.46266E+05         0.00000E+00
    0.46266E+05        -0.14493E+08         0.00000E+00
    0.00000E+00         0.00000E+00        -0.17289E+07
 
    0.51480E+07        -0.11585E+05         0.00000E+00
   -0.11585E+05        -0.14556E+08         0.00000E+00
    0.00000E+00         0.00000E+00        -0.18816E+07
 
    0.42573E+07        -0.92751E+05         0.00000E+00
   -0.92751E+05        -0.14655E+08         0.00000E+00
    0.00000E+00         0.00000E+00        -0.20795E+07
 
    0.34398E+07        -0.13241E+06         0.00000E+00
   -0.13241E+06        -0.14763E+08         0.00000E+00
    0.00000E+00         0.00000E+00        -0.22647E+07
 
    0.26998E+07        -0.11917E+06         0.00000E+00
   -0.11917E+06        -0.14877E+08         0.00000E+00
    0.00000E+00         0.00000E+00        -0.24355E+07
 
    0.20260E+07        -0.45549E+05         0.00000E+00
   -0.45549E+05        -0.14989E+08         0.00000E+00
    0.00000E+00         0.00000E+00        -0.25925E+07
 
    0.14051E+07         0.92180E+05         0.00000E+00
    0.92180E+05        -0.15089E+08         0.00000E+00
    0.00000E+00         0.00000E+00        -0.27367E+07
 
    0.82241E+06         0.29490E+06         0.00000E+00
    0.29490E+06        -0.15169E+08         0.00000E+00
    0.00000E+00         0.00000E+00        -0.28694E+07
 
    0.26368E+06         0.56139E+06         0.00000E+00
    0.56139E+06        -0.15222E+08         0.00000E+00
    0.00000E+00         0.00000E+00        -0.29917E+07
 
   -0.28468E+06         0.88877E+06         0.00000E+00
    0.88877E+06        -0.15240E+08         0.00000E+00
    0.00000E+00         0.00000E+00        -0.31050E+07
 
   -0.83518E+06         0.12729E+07         0.00000E+00
    0.12729E+07        -0.15217E+08         0.00000E+00
    0.00000E+00         0.00000E+00        -0.32103E+07
 
   -0.13992E+07         0.17088E+07         0.00000E+00
    0.17088E+07        -0.15145E+08         0.00000E+00
    0.00000E+00         0.00000E+00        -0.33089E+07
 
   -0.19869E+07         0.21908E+07         0.00000E+00
    0.21908E+07        -0.15021E+08         0.00000E+00
    0.00000E+00         0.00000E+00        -0.34015E+07
 
   -0.26076E+07         0.27124E+07         0.00000E+00
    0.27124E+07        -0.14838E+08         0.00000E+00
    0.00000E+00         0.00000E+00        -0.34891E+07
 
   -0.32700E+07         0.32667E+07         0.00000E+00
    0.32667E+07        -0.14591E+08         0.00000E+00
    0.00000E+00         0.00000E+00        -0.35721E+07
 
    0.51684E+07        -0.60523E+04         0.00000E+00
   -0.60523E+04        -0.15362E+08         0.00000E+00
    0.00000E+00         0.00000E+00        -0.20413E+07
 
    0.41938E+07        -0.98359E+05         0.00000E+00
   -0.98359E+05        -0.15431E+08         0.00000E+00
    0.00000E+00         0.00000E+00        -0.22475E+07
 
    0.33257E+07        -0.19127E+06         0.00000E+00
   -0.19127E+06        -0.15547E+08         0.00000E+00
    0.00000E+00         0.00000E+00        -0.24442E+07
 
    0.25553E+07        -0.24191E+06         0.00000E+00
   -0.24191E+06        -0.15680E+08         0.00000E+00
    0.00000E+00         0.00000E+00        -0.26249E+07
 
    0.18712E+07        -0.23194E+06         0.00000E+00
   -0.23194E+06        -0.15823E+08         0.00000E+00
    0.00000E+00         0.00000E+00        -0.27903E+07
 
    0.12588E+07        -0.15299E+06         0.00000E+00
   -0.15299E+06        -0.15964E+08         0.00000E+00
    0.00000E+00         0.00000E+00        -0.29411E+07
 
    0.70111E+06        -0.11988E+04         0.00000E+00
   -0.11988E+04        -0.16095E+08         0.00000E+00
    0.00000E+00         0.00000E+00        -0.30789E+07
 
    0.18134E+06         0.22408E+06         0.00000E+00
    0.22408E+06        -0.16206E+08         0.00000E+00
    0.00000E+00         0.00000E+00        -0.32050E+07
 
   -0.31661E+06         0.52111E+06         0.00000E+00
    0.52111E+06        -0.16288E+08         0.00000E+00
    0.00000E+00         0.00000E+00        -0.33209E+07
 
   -0.80765E+06         0.88635E+06         0.00000E+00
    0.88635E+06        -0.16333E+08         0.00000E+00
    0.00000E+00         0.00000E+00        -0.34282E+07
 
   -0.13053E+07         0.13150E+07         0.00000E+00
    0.13150E+07        -0.16335E+08         0.00000E+00
    0.00000E+00         0.00000E+00        -0.35280E+07
 
   -0.18214E+07         0.18013E+07         0.00000E+00
    0.18013E+07        -0.16286E+08         0.00000E+00
    0.00000E+00         0.00000E+00        -0.36215E+07
 
   -0.23666E+07         0.23391E+07         0.00000E+00
    0.23391E+07        -0.16182E+08         0.00000E+00
    0.00000E+00         0.00000E+00        -0.37097E+07
 
   -0.29507E+07         0.29219E+07         0.00000E+00
    0.29219E+07        -0.16016E+08         0.00000E+00
    0.00000E+00         0.00000E+00        -0.37933E+07
 
   -0.35829E+07         0.35426E+07         0.00000E+00
    0.35426E+07        -0.15783E+08         0.00000E+00
    0.00000E+00         0.00000E+00        -0.38732E+07
 
    0.41182E+07        -0.62103E+05         0.00000E+00
   -0.62103E+05        -0.16308E+08         0.00000E+00
    0.00000E+00         0.00000E+00        -0.24380E+07
 
    0.31114E+07        -0.19416E+06         0.00000E+00
   -0.19416E+06        -0.16398E+08         0.00000E+00
    0.00000E+00         0.00000E+00        -0.26574E+07
 
    0.22731E+07        -0.31069E+06         0.00000E+00
   -0.31069E+06        -0.16533E+08         0.00000E+00
    0.00000E+00         0.00000E+00        -0.28520E+07
 
    0.15564E+07        -0.37538E+06         0.00000E+00
   -0.37538E+06        -0.16694E+08         0.00000E+00
    0.00000E+00         0.00000E+00        -0.30275E+07
 
    0.93805E+06        -0.37025E+06         0.00000E+00
   -0.37025E+06        -0.16867E+08         0.00000E+00
    0.00000E+00         0.00000E+00        -0.31858E+07
 
    0.39665E+06        -0.28638E+06         0.00000E+00
   -0.28638E+06        -0.17040E+08         0.00000E+00
    0.00000E+00         0.00000E+00        -0.33287E+07
 
   -0.88224E+05        -0.12018E+06         0.00000E+00
   -0.12018E+06        -0.17203E+08         0.00000E+00
    0.00000E+00         0.00000E+00        -0.34582E+07
 
   -0.53601E+06         0.12855E+06         0.00000E+00
    0.12855E+06        -0.17345E+08         0.00000E+00
    0.00000E+00         0.00000E+00        -0.35761E+07
 
   -0.96477E+06         0.45741E+06         0.00000E+00
    0.45741E+06        -0.17456E+08         0.00000E+00
    0.00000E+00         0.00000E+00        -0.36842E+07
 
   -0.13909E+07         0.86210E+06         0.00000E+00
    0.86210E+06        -0.17529E+08         0.00000E+00
    0.00000E+00         0.00000E+00        -0.37840E+07
 
   -0.18288E+07         0.13369E+07         0.00000E+00
    0.13369E+07        -0.17556E+08         0.00000E+00
    0.00000E+00         0.00000E+00        -0.38769E+07
 
   -0.22909E+07         0.18754E+07         0.00000E+00
    0.18754E+07        -0.17530E+08         0.00000E+00
    0.00000E+00         0.00000E+00        -0.39643E+07
 
   -0.27880E+07         0.24707E+07         0.00000E+00
    0.24707E+07        -0.17447E+08         0.00000E+00
    0.00000E+00         0.00000E+00        -0.40470E+07
 
   -0.33298E+07         0.31164E+07         0.00000E+00
    0.31164E+07        -0.17300E+08         0.00000E+00
    0.00000E+00         0.00000E+00        -0.41260E+07
 
   -0.39261E+07         0.38057E+07         0.00000E+00
    0.38057E+07        -0.17083E+08         0.00000E+00
    0.00000E+00         0.00000E+00        -0.42019E+07
 
    0.28734E+07        -0.10945E+06         0.00000E+00
   -0.10945E+06        -0.17381E+08         0.00000E+00
    0.00000E+00         0.00000E+00        -0.29016E+07
 
    0.18846E+07        -0.30337E+06         0.00000E+00
   -0.30337E+06        -0.17473E+08         0.00000E+00
    0.00000E+00         0.00000E+00        -0.31178E+07
 
    0.10885E+07        -0.45152E+06         0.00000E+00
   -0.45152E+06        -0.17626E+08         0.00000E+00
    0.00000E+00         0.00000E+00        -0.33076E+07
 
    0.43700E+06        -0.53390E+06         0.00000E+00
   -0.53390E+06        -0.17813E+08         0.00000E+00
    0.00000E+00         0.00000E+00        -0.34751E+07
 
   -0.10483E+06        -0.53488E+06         0.00000E+00
   -0.53488E+06        -0.18015E+08         0.00000E+00
    0.00000E+00         0.00000E+00        -0.36239E+07
 
   -0.56443E+06        -0.44641E+06         0.00000E+00
   -0.44641E+06        -0.18219E+08         0.00000E+00
    0.00000E+00         0.00000E+00        -0.37566E+07
 
   -0.96617E+06        -0.26546E+06         0.00000E+00
   -0.26546E+06        -0.18412E+08         0.00000E+00
    0.00000E+00         0.00000E+00        -0.38757E+07
 
   -0.13323E+07         0.75089E+04         0.00000E+00
    0.75089E+04        -0.18584E+08         0.00000E+00
    0.00000E+00         0.00000E+00        -0.39833E+07
 
   -0.16828E+07         0.36941E+06         0.00000E+00
    0.36941E+06        -0.18725E+08         0.00000E+00
    0.00000E+00         0.00000E+00        -0.40816E+07
 
   -0.20359E+07         0.81508E+06         0.00000E+00
    0.81508E+06        -0.18826E+08         0.00000E+00
    0.00000E+00         0.00000E+00        -0.41723E+07
 
   -0.24070E+07         0.13378E+07         0.00000E+00
    0.13378E+07        -0.18878E+08         0.00000E+00
    0.00000E+00         0.00000E+00        -0.42570E+07
 
   -0.28090E+07         0.19300E+07         0.00000E+00
    0.19300E+07        -0.18876E+08         0.00000E+00
    0.00000E+00         0.00000E+00        -0.43371E+07
 
   -0.32523E+07         0.25841E+07         0.00000E+00
    0.25841E+07        -0.18814E+08         0.00000E+00
    0.00000E+00         0.00000E+00        -0.44133E+07
 
   -0.37460E+07         0.32938E+07         0.00000E+00
    0.32938E+07        -0.18687E+08         0.00000E+00
    0.00000E+00         0.00000E+00        -0.44867E+07
 
   -0.42997E+07         0.40533E+07         0.00000E+00
    0.40533E+07        -0.18489E+08         0.00000E+00
    0.00000E+00         0.00000E+00        -0.45578E+07
 
    0.14301E+07        -0.15558E+06         0.00000E+00
   -0.15558E+06        -0.18571E+08         0.00000E+00
    0.00000E+00         0.00000E+00        -0.34282E+07
 
    0.49290E+06        -0.41953E+06         0.00000E+00
   -0.41953E+06        -0.18668E+08         0.00000E+00
    0.00000E+00         0.00000E+00        -0.36351E+07
 
   -0.23772E+06        -0.61017E+06         0.00000E+00
   -0.61017E+06        -0.18835E+08         0.00000E+00
    0.00000E+00         0.00000E+00        -0.38144E+07
 
   -0.80945E+06        -0.71515E+06         0.00000E+00
   -0.71515E+06        -0.19042E+08         0.00000E+00
    0.00000E+00         0.00000E+00        -0.39703E+07
 
   -0.12620E+07        -0.72439E+06         0.00000E+00
   -0.72439E+06        -0.19270E+08         0.00000E+00
    0.00000E+00         0.00000E+00        -0.41064E+07
 
   -0.16280E+07        -0.63210E+06         0.00000E+00
   -0.63210E+06        -0.19501E+08         0.00000E+00
    0.00000E+00         0.00000E+00        -0.42259E+07
 
   -0.19357E+07        -0.43652E+06         0.00000E+00
   -0.43652E+06        -0.19723E+08         0.00000E+00
    0.00000E+00         0.00000E+00        -0.43318E+07
 
   -0.22097E+07        -0.13897E+06         0.00000E+00
   -0.13897E+06        -0.19924E+08         0.00000E+00
    0.00000E+00         0.00000E+00        -0.44267E+07
 
   -0.24725E+07         0.25672E+06         0.00000E+00
    0.25672E+06        -0.20093E+08         0.00000E+00
    0.00000E+00         0.00000E+00        -0.45131E+07
 
   -0.27440E+07         0.74462E+06         0.00000E+00
    0.74462E+06        -0.20221E+08         0.00000E+00
    0.00000E+00         0.00000E+00        -0.45929E+07
 
   -0.30410E+07         0.13169E+07         0.00000E+00
    0.13169E+07        -0.20299E+08         0.00000E+00
    0.00000E+00         0.00000E+00        -0.46679E+07
 
   -0.33768E+07         0.19644E+07         0.00000E+00
    0.19644E+07        -0.20320E+08         0.00000E+00
    0.00000E+00         0.00000E+00        -0.47394E+07
 
   -0.37610E+07         0.26782E+07         0.00000E+00
    0.26782E+07        -0.20280E+08         0.00000E+00
    0.00000E+00         0.00000E+00        -0.48082E+07
 
   -0.42005E+07         0.34519E+07         0.00000E+00
    0.34519E+07        -0.20175E+08         0.00000E+00
    0.00000E+00         0.00000E+00        -0.48750E+07
 
   -0.47038E+07         0.42820E+07         0.00000E+00
    0.42820E+07        -0.19998E+08         0.00000E+00
    0.00000E+00         0.00000E+00        -0.49403E+07
 
   -0.21790E+06        -0.20360E+06         0.00000E+00
   -0.20360E+06        -0.19880E+08         0.00000E+00
    0.00000E+00         0.00000E+00        -0.40195E+07
 
   -0.10752E+07        -0.54283E+06         0.00000E+00
   -0.54283E+06        -0.19983E+08         0.00000E+00
    0.00000E+00         0.00000E+00        -0.42116E+07
 
   -0.17160E+07        -0.78264E+06         0.00000E+00
   -0.78264E+06        -0.20161E+08         0.00000E+00
    0.00000E+00         0.00000E+00        -0.43753E+07
 
   -0.21894E+07        -0.91528E+06         0.00000E+00
   -0.91528E+06        -0.20385E+08         0.00000E+00
    0.00000E+00         0.00000E+00        -0.45149E+07
 
   -0.25379E+07        -0.93549E+06         0.00000E+00
   -0.93549E+06        -0.20633E+08         0.00000E+00
    0.00000E+00         0.00000E+00        -0.46343E+07
 
   -0.27976E+07        -0.84079E+06         0.00000E+00
   -0.84079E+06        -0.20888E+08         0.00000E+00
    0.00000E+00         0.00000E+00        -0.47371E+07
 
   -0.29995E+07        -0.63142E+06         0.00000E+00
   -0.63142E+06        -0.21134E+08         0.00000E+00
    0.00000E+00         0.00000E+00        -0.48267E+07
 
   -0.31707E+07        -0.30984E+06         0.00000E+00
   -0.30984E+06        -0.21360E+08         0.00000E+00
    0.00000E+00         0.00000E+00        -0.49061E+07
 
   -0.33355E+07         0.11949E+06         0.00000E+00
    0.11949E+06        -0.21555E+08         0.00000E+00
    0.00000E+00         0.00000E+00        -0.49781E+07
 
   -0.35160E+07         0.65004E+06         0.00000E+00
    0.65004E+06        -0.21709E+08         0.00000E+00
    0.00000E+00         0.00000E+00        -0.50449E+07
 
   -0.37309E+07         0.12730E+07         0.00000E+00
    0.12730E+07        -0.21812E+08         0.00000E+00
    0.00000E+00         0.00000E+00        -0.51086E+07
 
   -0.39947E+07         0.19774E+07         0.00000E+00
    0.19774E+07        -0.21858E+08         0.00000E+00
    0.00000E+00         0.00000E+00        -0.51705E+07
 
   -0.43155E+07         0.27517E+07         0.00000E+00
    0.27517E+07        -0.21840E+08         0.00000E+00
    0.00000E+00         0.00000E+00        -0.52311E+07
 
   -0.46958E+07         0.35883E+07         0.00000E+00
    0.35883E+07        -0.21757E+08         0.00000E+00
    0.00000E+00         0.00000E+00        -0.52906E+07
 
   -0.51395E+07         0.44872E+07         0.00000E+00
    0.44872E+07        -0.21606E+08         0.00000E+00
    0.00000E+00         0.00000E+00        -0.53490E+07
 
   -0.20779E+07        -0.25430E+06         0.00000E+00
   -0.25430E+06        -0.21309E+08         0.00000E+00
    0.00000E+00         0.00000E+00        -0.46773E+07
 
   -0.28273E+07        -0.67324E+06         0.00000E+00
   -0.67324E+06        -0.21417E+08         0.00000E+00
    0.00000E+00         0.00000E+00        -0.48489E+07
 
   -0.33535E+07        -0.96628E+06         0.00000E+00
   -0.96628E+06        -0.21605E+08         0.00000E+00
    0.00000E+00         0.00000E+00        -0.49916E+07
 
   -0.37083E+07        -0.11300E+07         0.00000E+00
   -0.11300E+07        -0.21841E+08         0.00000E+00
    0.00000E+00         0.00000E+00        -0.51099E+07
 
   -0.39365E+07        -0.11635E+07         0.00000E+00
   -0.11635E+07        -0.22104E+08         0.00000E+00
    0.00000E+00         0.00000E+00        -0.52082E+07
 
   -0.40763E+07        -0.10681E+07         0.00000E+00
   -0.10681E+07        -0.22375E+08         0.00000E+00
    0.00000E+00         0.00000E+00        -0.52903E+07
 
   -0.41605E+07        -0.84657E+06         0.00000E+00
   -0.84657E+06        -0.22640E+08         0.00000E+00
    0.00000E+00         0.00000E+00        -0.53600E+07
 
   -0.42178E+07        -0.50272E+06         0.00000E+00
   -0.50272E+06        -0.22886E+08         0.00000E+00
    0.00000E+00         0.00000E+00        -0.54207E+07
 
   -0.42740E+07        -0.41503E+05         0.00000E+00
   -0.41503E+05        -0.23103E+08         0.00000E+00
    0.00000E+00         0.00000E+00        -0.54754E+07
 
   -0.43531E+07         0.53054E+06         0.00000E+00
    0.53054E+06        -0.23282E+08         0.00000E+00
    0.00000E+00         0.00000E+00        -0.55269E+07
 
   -0.44768E+07         0.12042E+07         0.00000E+00
    0.12042E+07        -0.23411E+08         0.00000E+00
    0.00000E+00         0.00000E+00        -0.55776E+07
 
   -0.46620E+07         0.19669E+07         0.00000E+00
    0.19669E+07        -0.23483E+08         0.00000E+00
    0.00000E+00         0.00000E+00        -0.56290E+07
 
   -0.49169E+07         0.28032E+07         0.00000E+00
    0.28032E+07        -0.23490E+08         0.00000E+00
    0.00000E+00         0.00000E+00        -0.56813E+07
 
   -0.52359E+07         0.37001E+07         0.00000E+00
    0.37001E+07        -0.23431E+08         0.00000E+00
    0.00000E+00         0.00000E+00        -0.57333E+07
 
   -0.56092E+07         0.46619E+07         0.00000E+00
    0.46619E+07        -0.23310E+08         0.00000E+00
    0.00000E+00         0.00000E+00        -0.57838E+07
 
   -0.41561E+07        -0.30753E+06         0.00000E+00
   -0.30753E+06        -0.22859E+08         0.00000E+00
    0.00000E+00         0.00000E+00        -0.54030E+07
 
   -0.47681E+07        -0.80950E+06         0.00000E+00
   -0.80950E+06        -0.22972E+08         0.00000E+00
    0.00000E+00         0.00000E+00        -0.55480E+07
 
   -0.51542E+07        -0.11579E+07         0.00000E+00
   -0.11579E+07        -0.23165E+08         0.00000E+00
    0.00000E+00         0.00000E+00        -0.56638E+07
 
   -0.53692E+07        -0.13542E+07         0.00000E+00
   -0.13542E+07        -0.23409E+08         0.00000E+00
    0.00000E+00         0.00000E+00        -0.57556E+07
 
   -0.54601E+07        -0.14024E+07         0.00000E+00
   -0.14024E+07        -0.23679E+08         0.00000E+00
    0.00000E+00         0.00000E+00        -0.58278E+07
 
   -0.54664E+07        -0.13078E+07         0.00000E+00
   -0.13078E+07        -0.23958E+08         0.00000E+00
    0.00000E+00         0.00000E+00        -0.58849E+07
 
   -0.54214E+07        -0.10763E+07         0.00000E+00
   -0.10763E+07        -0.24232E+08         0.00000E+00
    0.00000E+00         0.00000E+00        -0.59307E+07
 
   -0.53541E+07        -0.71338E+06         0.00000E+00
   -0.71338E+06        -0.24490E+08         0.00000E+00
    0.00000E+00         0.00000E+00        -0.59689E+07
 
   -0.52910E+07        -0.22415E+06         0.00000E+00
   -0.22415E+06        -0.24725E+08         0.00000E+00
    0.00000E+00         0.00000E+00        -0.60031E+07
 
   -0.52578E+07         0.38556E+06         0.00000E+00
    0.38556E+06        -0.24925E+08         0.00000E+00
    0.00000E+00         0.00000E+00        -0.60366E+07
 
   -0.52796E+07         0.11073E+07         0.00000E+00
    0.11073E+07        -0.25081E+08         0.00000E+00
    0.00000E+00         0.00000E+00        -0.60722E+07
 
   -0.53780E+07         0.19276E+07         0.00000E+00
    0.19276E+07        -0.25183E+08         0.00000E+00
    0.00000E+00         0.00000E+00        -0.61122E+07
 
   -0.55646E+07         0.28272E+07         0.00000E+00
    0.28272E+07        -0.25222E+08         0.00000E+00
    0.00000E+00         0.00000E+00        -0.61572E+07
 
   -0.58276E+07         0.37836E+07         0.00000E+00
    0.37836E+07        -0.25195E+08         0.00000E+00
    0.00000E+00         0.00000E+00        -0.62045E+07
 
   -0.61200E+07         0.47943E+07         0.00000E+00
    0.47943E+07        -0.25114E+08         0.00000E+00
    0.00000E+00         0.00000E+00        -0.62467E+07
 
   -0.64561E+07        -0.36260E+06         0.00000E+00
   -0.36260E+06        -0.24531E+08         0.00000E+00
    0.00000E+00         0.00000E+00        -0.61974E+07
 
   -0.68992E+07        -0.94932E+06         0.00000E+00
   -0.94932E+06        -0.24645E+08         0.00000E+00
    0.00000E+00         0.00000E+00        -0.63089E+07
 
   -0.71185E+07        -0.13533E+07         0.00000E+00
   -0.13533E+07        -0.24840E+08         0.00000E+00
    0.00000E+00         0.00000E+00        -0.63916E+07
 
   -0.71723E+07        -0.15817E+07         0.00000E+00
   -0.15817E+07        -0.25083E+08         0.00000E+00
    0.00000E+00         0.00000E+00        -0.64511E+07
 
   -0.71091E+07        -0.16443E+07         0.00000E+00
   -0.16443E+07        -0.25351E+08         0.00000E+00
    0.00000E+00         0.00000E+00        -0.64921E+07
 
   -0.69690E+07        -0.15514E+07         0.00000E+00
   -0.15514E+07        -0.25628E+08         0.00000E+00
    0.00000E+00         0.00000E+00        -0.65193E+07
 
   -0.67845E+07        -0.13123E+07         0.00000E+00
   -0.13123E+07        -0.25900E+08         0.00000E+00
    0.00000E+00         0.00000E+00        -0.65369E+07
 
   -0.65834E+07        -0.93465E+06         0.00000E+00
   -0.93465E+06        -0.26160E+08         0.00000E+00
    0.00000E+00         0.00000E+00        -0.65487E+07
 
   -0.63912E+07        -0.42369E+06         0.00000E+00
   -0.42369E+06        -0.26402E+08         0.00000E+00
    0.00000E+00         0.00000E+00        -0.65586E+07
 
   -0.62345E+07         0.21628E+06         0.00000E+00
    0.21628E+06        -0.26618E+08         0.00000E+00
    0.00000E+00         0.00000E+00        -0.65705E+07
 
   -0.61425E+07         0.97912E+06         0.00000E+00
    0.97912E+06        -0.26799E+08         0.00000E+00
    0.00000E+00         0.00000E+00        -0.65883E+07
 
   -0.61444E+07         0.18513E+07         0.00000E+00
    0.18513E+07        -0.26934E+08         0.00000E+00
    0.00000E+00         0.00000E+00        -0.66157E+07
 
   -0.62582E+07         0.28093E+07         0.00000E+00
    0.28093E+07        -0.27016E+08         0.00000E+00
    0.00000E+00         0.00000E+00        -0.66548E+07
 
   -0.64807E+07         0.38223E+07         0.00000E+00
    0.38223E+07        -0.27042E+08         0.00000E+00
    0.00000E+00         0.00000E+00        -0.67045E+07
 
   -0.66943E+07         0.48527E+07         0.00000E+00
    0.48527E+07        -0.27062E+08         0.00000E+00
    0.00000E+00         0.00000E+00        -0.67513E+07
 
   -0.89782E+07        -0.41847E+06         0.00000E+00
   -0.41847E+06        -0.26322E+08         0.00000E+00
    0.00000E+00         0.00000E+00        -0.70601E+07
 
   -0.92184E+07        -0.10895E+07         0.00000E+00
   -0.10895E+07        -0.26435E+08         0.00000E+00
    0.00000E+00         0.00000E+00        -0.71308E+07
 
   -0.92431E+07        -0.15468E+07         0.00000E+00
   -0.15468E+07        -0.26625E+08         0.00000E+00
    0.00000E+00         0.00000E+00        -0.71737E+07
 
   -0.91137E+07        -0.18047E+07         0.00000E+00
   -0.18047E+07        -0.26859E+08         0.00000E+00
    0.00000E+00         0.00000E+00        -0.71946E+07
 
   -0.88805E+07        -0.18795E+07         0.00000E+00
   -0.18795E+07        -0.27115E+08         0.00000E+00
    0.00000E+00         0.00000E+00        -0.71990E+07
 
   -0.85827E+07        -0.17874E+07         0.00000E+00
   -0.17874E+07        -0.27375E+08         0.00000E+00
    0.00000E+00         0.00000E+00        -0.71915E+07
 
   -0.82509E+07        -0.15426E+07         0.00000E+00
   -0.15426E+07        -0.27631E+08         0.00000E+00
    0.00000E+00         0.00000E+00        -0.71763E+07
 
   -0.79094E+07        -0.11553E+07         0.00000E+00
   -0.11553E+07        -0.27878E+08         0.00000E+00
    0.00000E+00         0.00000E+00        -0.71574E+07
 
   -0.75807E+07        -0.63090E+06         0.00000E+00
   -0.63090E+06        -0.28113E+08         0.00000E+00
    0.00000E+00         0.00000E+00        -0.71387E+07
 
   -0.72906E+07         0.28786E+05         0.00000E+00
    0.28786E+05        -0.28333E+08         0.00000E+00
    0.00000E+00         0.00000E+00        -0.71247E+07
 
   -0.70720E+07         0.82095E+06         0.00000E+00
    0.82095E+06        -0.28529E+08         0.00000E+00
    0.00000E+00         0.00000E+00        -0.71203E+07
 
   -0.69679E+07         0.17351E+07         0.00000E+00
    0.17351E+07        -0.28693E+08         0.00000E+00
    0.00000E+00         0.00000E+00        -0.71321E+07
 
   -0.70140E+07         0.27345E+07         0.00000E+00
    0.27345E+07        -0.28811E+08         0.00000E+00
    0.00000E+00         0.00000E+00        -0.71651E+07
 
   -0.71780E+07         0.37702E+07         0.00000E+00
    0.37702E+07        -0.28944E+08         0.00000E+00
    0.00000E+00         0.00000E+00        -0.72400E+07
 
   -0.75163E+07         0.47420E+07         0.00000E+00
    0.47420E+07        -0.29062E+08         0.00000E+00
    0.00000E+00         0.00000E+00        -0.75233E+07
 
   -0.11718E+08        -0.47389E+06         0.00000E+00
   -0.47389E+06        -0.28229E+08         0.00000E+00
    0.00000E+00         0.00000E+00        -0.79895E+07
 
   -0.11719E+08        -0.12263E+07         0.00000E+00
   -0.12263E+07        -0.28338E+08         0.00000E+00
    0.00000E+00         0.00000E+00        -0.80114E+07
 
   -0.11520E+08        -0.17320E+07         0.00000E+00
   -0.17320E+07        -0.28516E+08         0.00000E+00
    0.00000E+00         0.00000E+00        -0.80073E+07
 
   -0.11186E+08        -0.20137E+07         0.00000E+00
   -0.20137E+07        -0.28732E+08         0.00000E+00
    0.00000E+00         0.00000E+00        -0.79835E+07
 
   -0.10768E+08        -0.20958E+07         0.00000E+00
   -0.20958E+07        -0.28960E+08         0.00000E+00
    0.00000E+00         0.00000E+00        -0.79456E+07
 
   -0.10303E+08        -0.20019E+07         0.00000E+00
   -0.20019E+07        -0.29189E+08         0.00000E+00
    0.00000E+00         0.00000E+00        -0.78984E+07
 
   -0.98194E+07        -0.17517E+07         0.00000E+00
   -0.17517E+07        -0.29411E+08         0.00000E+00
    0.00000E+00         0.00000E+00        -0.78461E+07
 
   -0.93351E+07        -0.13591E+07         0.00000E+00
   -0.13591E+07        -0.29625E+08         0.00000E+00
    0.00000E+00         0.00000E+00        -0.77921E+07
 
   -0.88662E+07        -0.83045E+06         0.00000E+00
   -0.83045E+06        -0.29834E+08         0.00000E+00
    0.00000E+00         0.00000E+00        -0.77401E+07
 
   -0.84342E+07        -0.16349E+06         0.00000E+00
   -0.16349E+06        -0.30039E+08         0.00000E+00
    0.00000E+00         0.00000E+00        -0.76946E+07
 
   -0.80777E+07         0.64641E+06         0.00000E+00
    0.64641E+06        -0.30232E+08         0.00000E+00
    0.00000E+00         0.00000E+00        -0.76619E+07
 
   -0.78502E+07         0.15896E+07         0.00000E+00
    0.15896E+07        -0.30398E+08         0.00000E+00
    0.00000E+00         0.00000E+00        -0.76496E+07
 
   -0.78061E+07         0.26185E+07         0.00000E+00
    0.26185E+07        -0.30567E+08         0.00000E+00
    0.00000E+00         0.00000E+00        -0.77417E+07
 
   -0.80497E+07         0.36398E+07         0.00000E+00
    0.36398E+07        -0.30687E+08         0.00000E+00
    0.00000E+00         0.00000E+00        -0.81159E+07
 
   -0.85383E+07         0.45866E+07         0.00000E+00
    0.45866E+07        -0.30830E+08         0.00000E+00
    0.00000E+00         0.00000E+00        -0.86048E+07
 
   -0.14667E+08        -0.52753E+06         0.00000E+00
   -0.52753E+06        -0.30246E+08         0.00000E+00
    0.00000E+00         0.00000E+00        -0.89828E+07
 
   -0.14390E+08        -0.13552E+07         0.00000E+00
   -0.13552E+07        -0.30346E+08         0.00000E+00
    0.00000E+00         0.00000E+00        -0.89473E+07
 
   -0.13936E+08        -0.19010E+07         0.00000E+00
   -0.19010E+07        -0.30506E+08         0.00000E+00
    0.00000E+00         0.00000E+00        -0.88885E+07
 
   -0.13376E+08        -0.21976E+07         0.00000E+00
   -0.21976E+07        -0.30691E+08         0.00000E+00
    0.00000E+00         0.00000E+00        -0.88133E+07
 
   -0.12759E+08        -0.22794E+07         0.00000E+00
   -0.22794E+07        -0.30879E+08         0.00000E+00
    0.00000E+00         0.00000E+00        -0.87275E+07
 
   -0.12122E+08        -0.21785E+07         0.00000E+00
   -0.21785E+07        -0.31058E+08         0.00000E+00
    0.00000E+00         0.00000E+00        -0.86361E+07
 
   -0.11486E+08        -0.19213E+07         0.00000E+00
   -0.19213E+07        -0.31227E+08         0.00000E+00
    0.00000E+00         0.00000E+00        -0.85424E+07
 
   -0.10861E+08        -0.15260E+07         0.00000E+00
   -0.15260E+07        -0.31387E+08         0.00000E+00
    0.00000E+00         0.00000E+00        -0.84496E+07
 
   -0.10253E+08        -0.10005E+07         0.00000E+00
   -0.10005E+07        -0.31546E+08         0.00000E+00
    0.00000E+00         0.00000E+00        -0.83599E+07
 
   -0.96724E+07        -0.33965E+06         0.00000E+00
   -0.33965E+06        -0.31710E+08         0.00000E+00
    0.00000E+00         0.00000E+00        -0.82765E+07
 
   -0.91581E+07         0.47948E+06         0.00000E+00
    0.47948E+06        -0.31874E+08         0.00000E+00
    0.00000E+00         0.00000E+00        -0.82064E+07
 
   -0.87722E+07         0.14488E+07         0.00000E+00
    0.14488E+07        -0.32032E+08         0.00000E+00
    0.00000E+00         0.00000E+00        -0.82182E+07
 
   -0.87686E+07         0.24621E+07         0.00000E+00
    0.24621E+07        -0.32178E+08         0.00000E+00
    0.00000E+00         0.00000E+00        -0.86195E+07
 
   -0.90368E+07         0.34690E+07         0.00000E+00
    0.34690E+07        -0.32353E+08         0.00000E+00
    0.00000E+00         0.00000E+00        -0.91666E+07
 
   -0.95421E+07         0.44723E+07         0.00000E+00
    0.44723E+07        -0.32501E+08         0.00000E+00
    0.00000E+00         0.00000E+00        -0.96433E+07
 
   -0.17812E+08        -0.57804E+06         0.00000E+00
   -0.57804E+06        -0.32365E+08         0.00000E+00
    0.00000E+00         0.00000E+00        -0.10035E+08
 
   -0.17213E+08        -0.14715E+07         0.00000E+00
   -0.14715E+07        -0.32453E+08         0.00000E+00
    0.00000E+00         0.00000E+00        -0.99332E+07
 
   -0.16473E+08        -0.20450E+07         0.00000E+00
   -0.20450E+07        -0.32585E+08         0.00000E+00
    0.00000E+00         0.00000E+00        -0.98116E+07
 
   -0.15665E+08        -0.23438E+07         0.00000E+00
   -0.23438E+07        -0.32726E+08         0.00000E+00
    0.00000E+00         0.00000E+00        -0.96782E+07
 
   -0.14840E+08        -0.24146E+07         0.00000E+00
   -0.24146E+07        -0.32857E+08         0.00000E+00
    0.00000E+00         0.00000E+00        -0.95392E+07
 
   -0.14027E+08        -0.22995E+07         0.00000E+00
   -0.22995E+07        -0.32969E+08         0.00000E+00
    0.00000E+00         0.00000E+00        -0.93993E+07
 
   -0.13242E+08        -0.20319E+07         0.00000E+00
   -0.20319E+07        -0.33064E+08         0.00000E+00
    0.00000E+00         0.00000E+00        -0.92612E+07
 
   -0.12483E+08        -0.16347E+07         0.00000E+00
   -0.16347E+07        -0.33151E+08         0.00000E+00
    0.00000E+00         0.00000E+00        -0.91267E+07
 
   -0.11743E+08        -0.11176E+07         0.00000E+00
   -0.11176E+07        -0.33239E+08         0.00000E+00
    0.00000E+00         0.00000E+00        -0.89965E+07
 
   -0.11015E+08        -0.47246E+06         0.00000E+00
   -0.47246E+06        -0.33339E+08         0.00000E+00
    0.00000E+00         0.00000E+00        -0.88708E+07
 
   -0.10289E+08         0.34216E+06         0.00000E+00
    0.34216E+06        -0.33457E+08         0.00000E+00
    0.00000E+00         0.00000E+00        -0.87522E+07
 
   -0.98556E+07         0.12860E+07         0.00000E+00
    0.12860E+07        -0.33595E+08         0.00000E+00
    0.00000E+00         0.00000E+00        -0.89786E+07
 
   -0.98321E+07         0.22631E+07         0.00000E+00
    0.22631E+07        -0.33783E+08         0.00000E+00
    0.00000E+00         0.00000E+00        -0.95638E+07
 
   -0.10057E+08         0.32919E+07         0.00000E+00
    0.32919E+07        -0.33981E+08         0.00000E+00
    0.00000E+00         0.00000E+00        -0.10145E+08
 
   -0.10553E+08         0.43647E+07         0.00000E+00
    0.43647E+07        -0.34135E+08         0.00000E+00
    0.00000E+00         0.00000E+00        -0.10642E+08
 
   -0.21131E+08        -0.62411E+06         0.00000E+00
   -0.62411E+06        -0.34574E+08         0.00000E+00
    0.00000E+00         0.00000E+00        -0.11141E+08
 
   -0.20165E+08        -0.15696E+07         0.00000E+00
   -0.15696E+07        -0.34646E+08         0.00000E+00
    0.00000E+00         0.00000E+00        -0.10962E+08
 
   -0.19104E+08        -0.21532E+07         0.00000E+00
   -0.21532E+07        -0.34740E+08         0.00000E+00
    0.00000E+00         0.00000E+00        -0.10769E+08
 
   -0.18029E+08        -0.24373E+07         0.00000E+00
   -0.24373E+07        -0.34823E+08         0.00000E+00
    0.00000E+00         0.00000E+00        -0.10570E+08
 
   -0.16989E+08        -0.24841E+07         0.00000E+00
   -0.24841E+07        -0.34877E+08         0.00000E+00
    0.00000E+00         0.00000E+00        -0.10373E+08
 
   -0.16004E+08        -0.23471E+07         0.00000E+00
   -0.23471E+07        -0.34903E+08         0.00000E+00
    0.00000E+00         0.00000E+00        -0.10181E+08
 
   -0.15077E+08        -0.20664E+07         0.00000E+00
   -0.20664E+07        -0.34908E+08         0.00000E+00
    0.00000E+00         0.00000E+00        -0.99971E+07
 
   -0.14195E+08        -0.16682E+07         0.00000E+00
   -0.16682E+07        -0.34906E+08         0.00000E+00
    0.00000E+00         0.00000E+00        -0.98202E+07
 
   -0.13336E+08        -0.11642E+07         0.00000E+00
   -0.11642E+07        -0.34910E+08         0.00000E+00
    0.00000E+00         0.00000E+00        -0.96491E+07
 
   -0.12464E+08        -0.54722E+06         0.00000E+00
   -0.54722E+06        -0.34936E+08         0.00000E+00
    0.00000E+00         0.00000E+00        -0.94800E+07
 
   -0.11545E+08         0.21932E+06         0.00000E+00
    0.21932E+06        -0.35003E+08         0.00000E+00
    0.00000E+00         0.00000E+00        -0.93455E+07
 
   -0.11086E+08         0.10904E+07         0.00000E+00
    0.10904E+07        -0.35153E+08         0.00000E+00
    0.00000E+00         0.00000E+00        -0.97731E+07
 
   -0.10962E+08         0.20441E+07         0.00000E+00
    0.20441E+07        -0.35358E+08         0.00000E+00
    0.00000E+00         0.00000E+00        -0.10412E+08
 
   -0.11111E+08         0.31001E+07         0.00000E+00
    0.31001E+07        -0.35573E+08         0.00000E+00
    0.00000E+00         0.00000E+00        -0.11045E+08
 
   -0.11568E+08         0.42392E+07         0.00000E+00
    0.42392E+07        -0.35753E+08         0.00000E+00
    0.00000E+00         0.00000E+00        -0.11611E+08
 
   -0.24600E+08        -0.66432E+06         0.00000E+00
   -0.66432E+06        -0.36861E+08         0.00000E+00
    0.00000E+00         0.00000E+00        -0.12292E+08
 
   -0.23212E+08        -0.16422E+07         0.00000E+00
   -0.16422E+07        -0.36910E+08         0.00000E+00
    0.00000E+00         0.00000E+00        -0.12024E+08
 
   -0.21796E+08        -0.22115E+07         0.00000E+00
   -0.22115E+07        -0.36954E+08         0.00000E+00
    0.00000E+00         0.00000E+00        -0.11750E+08
 
   -0.20440E+08        -0.24592E+07         0.00000E+00
   -0.24592E+07        -0.36957E+08         0.00000E+00
    0.00000E+00         0.00000E+00        -0.11480E+08
 
   -0.19186E+08        -0.24681E+07         0.00000E+00
   -0.24681E+07        -0.36914E+08         0.00000E+00
    0.00000E+00         0.00000E+00        -0.11220E+08
 
   -0.18038E+08        -0.23038E+07         0.00000E+00
   -0.23038E+07        -0.36834E+08         0.00000E+00
    0.00000E+00         0.00000E+00        -0.10974E+08
 
   -0.16982E+08        -0.20112E+07         0.00000E+00
   -0.20112E+07        -0.36735E+08         0.00000E+00
    0.00000E+00         0.00000E+00        -0.10743E+08
 
   -0.15992E+08        -0.16174E+07         0.00000E+00
   -0.16174E+07        -0.36635E+08         0.00000E+00
    0.00000E+00         0.00000E+00        -0.10525E+08
 
   -0.15030E+08        -0.11350E+07         0.00000E+00
   -0.11350E+07        -0.36553E+08         0.00000E+00
    0.00000E+00         0.00000E+00        -0.10317E+08
 
   -0.14040E+08        -0.56556E+06         0.00000E+00
   -0.56556E+06        -0.36510E+08         0.00000E+00
    0.00000E+00         0.00000E+00        -0.10110E+08
 
   -0.12986E+08         0.98215E+05         0.00000E+00
    0.98215E+05        -0.36546E+08         0.00000E+00
    0.00000E+00         0.00000E+00        -0.99522E+07
 
   -0.12426E+08         0.88531E+06         0.00000E+00
    0.88531E+06        -0.36678E+08         0.00000E+00
    0.00000E+00         0.00000E+00        -0.10450E+08
 
   -0.12170E+08         0.18117E+07         0.00000E+00
    0.18117E+07        -0.36889E+08         0.00000E+00
    0.00000E+00         0.00000E+00        -0.11145E+08
 
   -0.12201E+08         0.28772E+07         0.00000E+00
    0.28772E+07        -0.37129E+08         0.00000E+00
    0.00000E+00         0.00000E+00        -0.11864E+08
 
   -0.12581E+08         0.40631E+07         0.00000E+00
    0.40631E+07        -0.37358E+08         0.00000E+00
    0.00000E+00         0.00000E+00        -0.12536E+08
 
   -0.28184E+08        -0.69680E+06         0.00000E+00
   -0.69680E+06        -0.39209E+08         0.00000E+00
    0.00000E+00         0.00000E+00        -0.13479E+08
 
   -0.26310E+08        -0.16781E+07         0.00000E+00
   -0.16781E+07        -0.39228E+08         0.00000E+00
    0.00000E+00         0.00000E+00        -0.13108E+08
 
   -0.24506E+08        -0.21987E+07         0.00000E+00
   -0.21987E+07        -0.39199E+08         0.00000E+00
    0.00000E+00         0.00000E+00        -0.12741E+08
 
   -0.22865E+08        -0.23843E+07         0.00000E+00
   -0.23843E+07        -0.39095E+08         0.00000E+00
    0.00000E+00         0.00000E+00        -0.12392E+08
 
   -0.21408E+08        -0.23438E+07         0.00000E+00
   -0.23438E+07        -0.38927E+08         0.00000E+00
    0.00000E+00         0.00000E+00        -0.12067E+08
 
   -0.20117E+08        -0.21530E+07         0.00000E+00
   -0.21530E+07        -0.38721E+08         0.00000E+00
    0.00000E+00         0.00000E+00        -0.11767E+08
 
   -0.18953E+08        -0.18573E+07         0.00000E+00
   -0.18573E+07        -0.38506E+08         0.00000E+00
    0.00000E+00         0.00000E+00        -0.11492E+08
 
   -0.17873E+08        -0.14813E+07         0.00000E+00
   -0.14813E+07        -0.38308E+08         0.00000E+00
    0.00000E+00         0.00000E+00        -0.11236E+08
 
   -0.16830E+08        -0.10370E+07         0.00000E+00
   -0.10370E+07        -0.38146E+08         0.00000E+00
    0.00000E+00         0.00000E+00        -0.10995E+08
 
   -0.15768E+08        -0.53468E+06         0.00000E+00
   -0.53468E+06        -0.38043E+08         0.00000E+00
    0.00000E+00         0.00000E+00        -0.10762E+08
 
   -0.14631E+08         0.72880E+04         0.00000E+00
    0.72880E+04        -0.38036E+08         0.00000E+00
    0.00000E+00         0.00000E+00        -0.10560E+08
 
   -0.13883E+08         0.68147E+06         0.00000E+00
    0.68147E+06        -0.38132E+08         0.00000E+00
    0.00000E+00         0.00000E+00        -0.10976E+08
 
   -0.13469E+08         0.15505E+07         0.00000E+00
    0.15505E+07        -0.38355E+08         0.00000E+00
    0.00000E+00         0.00000E+00        -0.11735E+08
 
   -0.13340E+08         0.26018E+07         0.00000E+00
    0.26018E+07        -0.38643E+08         0.00000E+00
    0.00000E+00         0.00000E+00        -0.12578E+08
 
   -0.13590E+08         0.38284E+07         0.00000E+00
    0.38284E+07        -0.38938E+08         0.00000E+00
    0.00000E+00         0.00000E+00        -0.13408E+08
 
   -0.31841E+08        -0.71834E+06         0.00000E+00
   -0.71834E+06        -0.41599E+08         0.00000E+00
    0.00000E+00         0.00000E+00        -0.14688E+08
 
   -0.29400E+08        -0.16569E+07         0.00000E+00
   -0.16569E+07        -0.41570E+08         0.00000E+00
    0.00000E+00         0.00000E+00        -0.14194E+08
 
   -0.27182E+08        -0.20803E+07         0.00000E+00
   -0.20803E+07        -0.41433E+08         0.00000E+00
    0.00000E+00         0.00000E+00        -0.13723E+08
 
   -0.25269E+08        -0.21774E+07         0.00000E+00
   -0.21774E+07        -0.41180E+08         0.00000E+00
    0.00000E+00         0.00000E+00        -0.13290E+08
 
   -0.23642E+08        -0.20850E+07         0.00000E+00
   -0.20850E+07        -0.40854E+08         0.00000E+00
    0.00000E+00         0.00000E+00        -0.12899E+08
 
   -0.22238E+08        -0.18797E+07         0.00000E+00
   -0.18797E+07        -0.40505E+08         0.00000E+00
    0.00000E+00         0.00000E+00        -0.12549E+08
 
   -0.20992E+08        -0.15999E+07         0.00000E+00
   -0.15999E+07        -0.40169E+08         0.00000E+00
    0.00000E+00         0.00000E+00        -0.12232E+08
 
   -0.19845E+08        -0.12639E+07         0.00000E+00
   -0.12639E+07        -0.39875E+08         0.00000E+00
    0.00000E+00         0.00000E+00        -0.11944E+08
 
   -0.18744E+08        -0.88102E+06         0.00000E+00
   -0.88102E+06        -0.39644E+08         0.00000E+00
    0.00000E+00         0.00000E+00        -0.11678E+08
 
   -0.17643E+08        -0.46074E+06         0.00000E+00
   -0.46074E+06        -0.39493E+08         0.00000E+00
    0.00000E+00         0.00000E+00        -0.11427E+08
 
   -0.16493E+08        -0.30980E+05         0.00000E+00
   -0.30980E+05        -0.39444E+08         0.00000E+00
    0.00000E+00         0.00000E+00        -0.11187E+08
 
   -0.15493E+08         0.48887E+06         0.00000E+00
    0.48887E+06        -0.39507E+08         0.00000E+00
    0.00000E+00         0.00000E+00        -0.11345E+08
 
   -0.14885E+08         0.12466E+07         0.00000E+00
    0.12466E+07        -0.39728E+08         0.00000E+00
    0.00000E+00         0.00000E+00        -0.12145E+08
 
   -0.14535E+08         0.22485E+07         0.00000E+00
    0.22485E+07        -0.40081E+08         0.00000E+00
    0.00000E+00         0.00000E+00        -0.13143E+08
 
   -0.14588E+08         0.34935E+07         0.00000E+00
    0.34935E+07        -0.40487E+08         0.00000E+00
    0.00000E+00         0.00000E+00        -0.14208E+08
 
   -0.35504E+08        -0.72116E+06         0.00000E+00
   -0.72116E+06        -0.44005E+08         0.00000E+00
    0.00000E+00         0.00000E+00        -0.15902E+08
 
   -0.32395E+08        -0.15352E+07         0.00000E+00
   -0.15352E+07        -0.43892E+08         0.00000E+00
    0.00000E+00         0.00000E+00        -0.15257E+08
 
   -0.29764E+08        -0.17980E+07         0.00000E+00
   -0.17980E+07        -0.43576E+08         0.00000E+00
    0.00000E+00         0.00000E+00        -0.14668E+08
 
   -0.27633E+08        -0.17948E+07         0.00000E+00
   -0.17948E+07        -0.43116E+08         0.00000E+00
    0.00000E+00         0.00000E+00        -0.14150E+08
 
   -0.25886E+08        -0.16686E+07         0.00000E+00
   -0.16686E+07        -0.42608E+08         0.00000E+00
    0.00000E+00         0.00000E+00        -0.13699E+08
 
   -0.24408E+08        -0.14759E+07         0.00000E+00
   -0.14759E+07        -0.42110E+08         0.00000E+00
    0.00000E+00         0.00000E+00        -0.13304E+08
 
   -0.23110E+08        -0.12403E+07         0.00000E+00
   -0.12403E+07        -0.41659E+08         0.00000E+00
    0.00000E+00         0.00000E+00        -0.12954E+08
 
   -0.21921E+08        -0.97172E+06         0.00000E+00
   -0.97172E+06        -0.41279E+08         0.00000E+00
    0.00000E+00         0.00000E+00        -0.12640E+08
 
   -0.20786E+08        -0.67549E+06         0.00000E+00
   -0.67549E+06        -0.40988E+08         0.00000E+00
    0.00000E+00         0.00000E+00        -0.12355E+08
 
   -0.19660E+08        -0.35794E+06         0.00000E+00
   -0.35794E+06        -0.40800E+08         0.00000E+00
    0.00000E+00         0.00000E+00        -0.12092E+08
 
   -0.18530E+08        -0.29100E+05         0.00000E+00
   -0.29100E+05        -0.40720E+08         0.00000E+00
    0.00000E+00         0.00000E+00        -0.11850E+08
 
   -0.17337E+08         0.33423E+06         0.00000E+00
    0.33423E+06        -0.40802E+08         0.00000E+00
    0.00000E+00         0.00000E+00        -0.11682E+08
 
   -0.16463E+08         0.90126E+06         0.00000E+00
    0.90126E+06        -0.40970E+08         0.00000E+00
    0.00000E+00         0.00000E+00        -0.12341E+08
 
   -0.15831E+08         0.17757E+07         0.00000E+00
    0.17757E+07        -0.41410E+08         0.00000E+00
    0.00000E+00         0.00000E+00        -0.13502E+08
 
   -0.15582E+08         0.29893E+07         0.00000E+00
    0.29893E+07        -0.41995E+08         0.00000E+00
    0.00000E+00         0.00000E+00        -0.14906E+08
 
   -0.39062E+08        -0.67782E+06         0.00000E+00
   -0.67782E+06        -0.46389E+08         0.00000E+00
    0.00000E+00         0.00000E+00        -0.17090E+08
 
   -0.35173E+08        -0.12085E+07         0.00000E+00
   -0.12085E+07        -0.46075E+08         0.00000E+00
    0.00000E+00         0.00000E+00        -0.16250E+08
 
   -0.32217E+08        -0.12693E+07         0.00000E+00
   -0.12693E+07        -0.45461E+08         0.00000E+00
    0.00000E+00         0.00000E+00        -0.15536E+08
 
   -0.29964E+08        -0.12044E+07         0.00000E+00
   -0.12044E+07        -0.44763E+08         0.00000E+00
    0.00000E+00         0.00000E+00        -0.14945E+08
 
   -0.28158E+08        -0.10900E+07         0.00000E+00
   -0.10900E+07        -0.44078E+08         0.00000E+00
    0.00000E+00         0.00000E+00        -0.14447E+08
 
   -0.26645E+08        -0.94890E+06         0.00000E+00
   -0.94890E+06        -0.43450E+08         0.00000E+00
    0.00000E+00         0.00000E+00        -0.14019E+08
 
   -0.25323E+08        -0.78957E+06         0.00000E+00
   -0.78957E+06        -0.42905E+08         0.00000E+00
    0.00000E+00         0.00000E+00        -0.13646E+08
 
   -0.24114E+08        -0.61515E+06         0.00000E+00
   -0.61515E+06        -0.42459E+08         0.00000E+00
    0.00000E+00         0.00000E+00        -0.13315E+08
 
   -0.22962E+08        -0.42749E+06         0.00000E+00
   -0.42749E+06        -0.42123E+08         0.00000E+00
    0.00000E+00         0.00000E+00        -0.13017E+08
 
   -0.21827E+08        -0.22895E+06         0.00000E+00
   -0.22895E+06        -0.41908E+08         0.00000E+00
    0.00000E+00         0.00000E+00        -0.12747E+08
 
   -0.20680E+08        -0.17566E+05         0.00000E+00
   -0.17566E+05        -0.41818E+08         0.00000E+00
    0.00000E+00         0.00000E+00        -0.12500E+08
 
   -0.19495E+08         0.20995E+06         0.00000E+00
    0.20995E+06        -0.41865E+08         0.00000E+00
    0.00000E+00         0.00000E+00        -0.12272E+08
 
   -0.18267E+08         0.54356E+06         0.00000E+00
    0.54356E+06        -0.42123E+08         0.00000E+00
    0.00000E+00         0.00000E+00        -0.12381E+08
 
   -0.17305E+08         0.11440E+07         0.00000E+00
    0.11440E+07        -0.42564E+08         0.00000E+00
    0.00000E+00         0.00000E+00        -0.13570E+08
 
   -0.16610E+08         0.22049E+07         0.00000E+00
    0.22049E+07        -0.43452E+08         0.00000E+00
    0.00000E+00         0.00000E+00        -0.15465E+08
 
   -0.42258E+08        -0.41255E+06         0.00000E+00
   -0.41255E+06        -0.48514E+08         0.00000E+00
    0.00000E+00         0.00000E+00        -0.18154E+08
 
   -0.37645E+08        -0.49298E+06         0.00000E+00
   -0.49298E+06        -0.47728E+08         0.00000E+00
    0.00000E+00         0.00000E+00        -0.17075E+08
 
   -0.34591E+08        -0.46681E+06         0.00000E+00
   -0.46681E+06        -0.46820E+08         0.00000E+00
    0.00000E+00         0.00000E+00        -0.16282E+08
 
   -0.32304E+08        -0.42829E+06         0.00000E+00
   -0.42829E+06        -0.45948E+08         0.00000E+00
    0.00000E+00         0.00000E+00        -0.15650E+08
 
   -0.30485E+08        -0.38120E+06         0.00000E+00
   -0.38120E+06        -0.45150E+08         0.00000E+00
    0.00000E+00         0.00000E+00        -0.15127E+08
 
   -0.28967E+08        -0.32887E+06         0.00000E+00
   -0.32887E+06        -0.44447E+08         0.00000E+00
    0.00000E+00         0.00000E+00        -0.14683E+08
 
   -0.27641E+08        -0.27225E+06         0.00000E+00
   -0.27225E+06        -0.43850E+08         0.00000E+00
    0.00000E+00         0.00000E+00        -0.14298E+08
 
   -0.26430E+08        -0.21167E+06         0.00000E+00
   -0.21167E+06        -0.43368E+08         0.00000E+00
    0.00000E+00         0.00000E+00        -0.13959E+08
 
   -0.25277E+08        -0.14743E+06         0.00000E+00
   -0.14743E+06        -0.43009E+08         0.00000E+00
    0.00000E+00         0.00000E+00        -0.13657E+08
 
   -0.24142E+08        -0.79523E+05         0.00000E+00
   -0.79523E+05        -0.42780E+08         0.00000E+00
    0.00000E+00         0.00000E+00        -0.13384E+08
 
   -0.22992E+08        -0.67459E+04         0.00000E+00
   -0.67459E+04        -0.42690E+08         0.00000E+00
    0.00000E+00         0.00000E+00        -0.13136E+08
 
   -0.21804E+08         0.75489E+05         0.00000E+00
    0.75489E+05        -0.42749E+08         0.00000E+00
    0.00000E+00         0.00000E+00        -0.12911E+08
 
   -0.20484E+08         0.18128E+06         0.00000E+00
    0.18128E+06        -0.43027E+08         0.00000E+00
    0.00000E+00         0.00000E+00        -0.12702E+08
 
   -0.19189E+08         0.39035E+06         0.00000E+00
    0.39035E+06        -0.43656E+08         0.00000E+00
    0.00000E+00         0.00000E+00        -0.13428E+08
 
   -0.17772E+08         0.86528E+06         0.00000E+00
    0.86528E+06        -0.44792E+08         0.00000E+00
    0.00000E+00         0.00000E+00        -0.15808E+08
 
TENSORS stresstot double 
   -0.40504E+08         0.55662E+04         0.00000E+00
    0.55662E+04        -0.59994E+08         0.00000E+00
    0.00000E+00         0.00000E+00        -0.49996E+08
 
   -0.40512E+08         0.16270E+05         0.00000E+00
    0.16270E+05        -0.59972E+08         0.00000E+00
    0.00000E+00         0.00000E+00        -0.49850E+08
 
   -0.40909E+08         0.21843E+05         0.00000E+00
    0.21843E+05        -0.59935E+08         0.00000E+00
    0.00000E+00         0.00000E+00        -0.49815E+08
 
   -0.41974E+08         0.21901E+05         0.00000E+00
    0.21901E+05        -0.59892E+08         0.00000E+00
    0.00000E+00         0.00000E+00        -0.50028E+08
 
   -0.42995E+08         0.22368E+05         0.00000E+00
    0.22368E+05        -0.59848E+08         0.00000E+00
    0.00000E+00         0.00000E+00        -0.50238E+08
 
   -0.43970E+08         0.24846E+05         0.00000E+00
    0.24846E+05        -0.59801E+08         0.00000E+00
    0.00000E+00         0.00000E+00        -0.50442E+08
 
   -0.44901E+08         0.30029E+05         0.00000E+00
    0.30029E+05        -0.59747E+08         0.00000E+00
    0.00000E+00         0.00000E+00        -0.50637E+08
 
   -0.45794E+08         0.38107E+05         0.00000E+00
    0.38107E+05        -0.59680E+08         0.00000E+00
    0.00000E+00         0.00000E+00        -0.50823E+08
 
   -0.46655E+08         0.49035E+05         0.00000E+00
    0.49035E+05        -0.59593E+08         0.00000E+00
    0.00000E+00         0.00000E+00        -0.50999E+08
 
   -0.47489E+08         0.62659E+05         0.00000E+00
    0.62659E+05        -0.59482E+08         0.00000E+00
    0.00000E+00         0.00000E+00        -0.51163E+08
 
   -0.48303E+08         0.78758E+05         0.00000E+00
    0.78758E+05        -0.59341E+08         0.00000E+00
    0.00000E+00         0.00000E+00        -0.51316E+08
 
   -0.49102E+08         0.97055E+05         0.00000E+00
    0.97055E+05        -0.59166E+08         0.00000E+00
    0.00000E+00         0.00000E+00        -0.51456E+08
 
   -0.49891E+08         0.11722E+06         0.00000E+00
    0.11722E+06        -0.58952E+08         0.00000E+00
    0.00000E+00         0.00000E+00        -0.51583E+08
 
   -0.50674E+08         0.13887E+06         0.00000E+00
    0.13887E+06        -0.58696E+08         0.00000E+00
    0.00000E+00         0.00000E+00        -0.51697E+08
 
   -0.51455E+08         0.16155E+06         0.00000E+00
    0.16155E+06        -0.58395E+08         0.00000E+00
    0.00000E+00         0.00000E+00        -0.51798E+08
 
   -0.40482E+08         0.16644E+05         0.00000E+00
    0.16644E+05        -0.59994E+08         0.00000E+00
    0.00000E+00         0.00000E+00        -0.49955E+08
 
   -0.40492E+08         0.48791E+05         0.00000E+00
    0.48791E+05        -0.59972E+08         0.00000E+00
    0.00000E+00         0.00000E+00        -0.49806E+08
 
   -0.40908E+08         0.64743E+05         0.00000E+00
    0.64743E+05        -0.59936E+08         0.00000E+00
    0.00000E+00         0.00000E+00        -0.49777E+08
 
   -0.41974E+08         0.63855E+05         0.00000E+00
    0.63855E+05        -0.59895E+08         0.00000E+00
    0.00000E+00         0.00000E+00        -0.49990E+08
 
   -0.42992E+08         0.64936E+05         0.00000E+00
    0.64936E+05        -0.59856E+08         0.00000E+00
    0.00000E+00         0.00000E+00        -0.50200E+08
 
   -0.43962E+08         0.72472E+05         0.00000E+00
    0.72472E+05        -0.59813E+08         0.00000E+00
    0.00000E+00         0.00000E+00        -0.50403E+08
 
   -0.44888E+08         0.88250E+05         0.00000E+00
    0.88250E+05        -0.59763E+08         0.00000E+00
    0.00000E+00         0.00000E+00        -0.50597E+08
 
   -0.45775E+08         0.11271E+06         0.00000E+00
    0.11271E+06        -0.59699E+08         0.00000E+00
    0.00000E+00         0.00000E+00        -0.50782E+08
 
   -0.46630E+08         0.14569E+06         0.00000E+00
    0.14569E+06        -0.59615E+08         0.00000E+00
    0.00000E+00         0.00000E+00        -0.50957E+08
 
   -0.47459E+08         0.18674E+06         0.00000E+00
    0.18674E+06        -0.59507E+08         0.00000E+00
    0.00000E+00         0.00000E+00        -0.51120E+08
 
   -0.48269E+08         0.23521E+06         0.00000E+00
    0.23521E+06        -0.59368E+08         0.00000E+00
    0.00000E+00         0.00000E+00        -0.51271E+08
 
   -0.49063E+08         0.29028E+06         0.00000E+00
    0.29028E+06        -0.59195E+08         0.00000E+00
    0.00000E+00         0.00000E+00        -0.51411E+08
 
   -0.49849E+08         0.35096E+06         0.00000E+00
    0.35096E+06        -0.58982E+08         0.00000E+00
    0.00000E+00         0.00000E+00        -0.51537E+08
 
   -0.50630E+08         0.41611E+06         0.00000E+00
    0.41611E+06        -0.58728E+08         0.00000E+00
    0.00000E+00         0.00000E+00        -0.51651E+08
 
   -0.51409E+08         0.48441E+06         0.00000E+00
    0.48441E+06        -0.58428E+08         0.00000E+00
    0.00000E+00         0.00000E+00        -0.51751E+08
 
   -0.40439E+08         0.27605E+05         0.00000E+00
    0.27605E+05        -0.59993E+08         0.00000E+00
    0.00000E+00         0.00000E+00        -0.49871E+08
 
   -0.40450E+08         0.81133E+05         0.00000E+00
    0.81133E+05        -0.59971E+08         0.00000E+00
    0.00000E+00         0.00000E+00        -0.49718E+08
 
   -0.40908E+08         0.10498E+06         0.00000E+00
    0.10498E+06        -0.59938E+08         0.00000E+00
    0.00000E+00         0.00000E+00        -0.49700E+08
 
   -0.41976E+08         0.10007E+06         0.00000E+00
    0.10007E+06        -0.59904E+08         0.00000E+00
    0.00000E+00         0.00000E+00        -0.49914E+08
 
   -0.42987E+08         0.10109E+06         0.00000E+00
    0.10109E+06        -0.59872E+08         0.00000E+00
    0.00000E+00         0.00000E+00        -0.50123E+08
 
   -0.43946E+08         0.11411E+06         0.00000E+00
    0.11411E+06        -0.59838E+08         0.00000E+00
    0.00000E+00         0.00000E+00        -0.50324E+08
 
   -0.44861E+08         0.14113E+06         0.00000E+00
    0.14113E+06        -0.59795E+08         0.00000E+00
    0.00000E+00         0.00000E+00        -0.50517E+08
 
   -0.45737E+08         0.18258E+06         0.00000E+00
    0.18258E+06        -0.59737E+08         0.00000E+00
    0.00000E+00         0.00000E+00        -0.50700E+08
 
   -0.46581E+08         0.23817E+06         0.00000E+00
    0.23817E+06        -0.59660E+08         0.00000E+00
    0.00000E+00         0.00000E+00        -0.50872E+08
 
   -0.47399E+08         0.30715E+06         0.00000E+00
    0.30715E+06        -0.59556E+08         0.00000E+00
    0.00000E+00         0.00000E+00        -0.51033E+08
 
   -0.48199E+08         0.38849E+06         0.00000E+00
    0.38849E+06        -0.59422E+08         0.00000E+00
    0.00000E+00         0.00000E+00        -0.51182E+08
 
   -0.48986E+08         0.48084E+06         0.00000E+00
    0.48084E+06        -0.59252E+08         0.00000E+00
    0.00000E+00         0.00000E+00        -0.51320E+08
 
   -0.49765E+08         0.58260E+06         0.00000E+00
    0.58260E+06        -0.59043E+08         0.00000E+00
    0.00000E+00         0.00000E+00        -0.51445E+08
 
   -0.50540E+08         0.69187E+06         0.00000E+00
    0.69187E+06        -0.58791E+08         0.00000E+00
    0.00000E+00         0.00000E+00        -0.51558E+08
 
   -0.51316E+08         0.80649E+06         0.00000E+00
    0.80649E+06        -0.58493E+08         0.00000E+00
    0.00000E+00         0.00000E+00        -0.51657E+08
 
   -0.40374E+08         0.38677E+05         0.00000E+00
    0.38677E+05        -0.59992E+08         0.00000E+00
    0.00000E+00         0.00000E+00        -0.49741E+08
 
   -0.40388E+08         0.11257E+06         0.00000E+00
    0.11257E+06        -0.59970E+08         0.00000E+00
    0.00000E+00         0.00000E+00        -0.49582E+08
 
   -0.40917E+08         0.13950E+06         0.00000E+00
    0.13950E+06        -0.59943E+08         0.00000E+00
    0.00000E+00         0.00000E+00        -0.49585E+08
 
   -0.41981E+08         0.12632E+06         0.00000E+00
    0.12632E+06        -0.59919E+08         0.00000E+00
    0.00000E+00         0.00000E+00        -0.49800E+08
 
   -0.42979E+08         0.12710E+06         0.00000E+00
    0.12710E+06        -0.59899E+08         0.00000E+00
    0.00000E+00         0.00000E+00        -0.50007E+08
 
   -0.43922E+08         0.14645E+06         0.00000E+00
    0.14645E+06        -0.59876E+08         0.00000E+00
    0.00000E+00         0.00000E+00        -0.50206E+08
 
   -0.44819E+08         0.18563E+06         0.00000E+00
    0.18563E+06        -0.59843E+08         0.00000E+00
    0.00000E+00         0.00000E+00        -0.50395E+08
 
   -0.45678E+08         0.24494E+06         0.00000E+00
    0.24494E+06        -0.59795E+08         0.00000E+00
    0.00000E+00         0.00000E+00        -0.50574E+08
 
   -0.46505E+08         0.32391E+06         0.00000E+00
    0.32391E+06        -0.59726E+08         0.00000E+00
    0.00000E+00         0.00000E+00        -0.50743E+08
 
   -0.47308E+08         0.42159E+06         0.00000E+00
    0.42159E+06        -0.59630E+08         0.00000E+00
    0.00000E+00         0.00000E+00        -0.50901E+08
 
   -0.48094E+08         0.53656E+06         0.00000E+00
    0.53656E+06        -0.59502E+08         0.00000E+00
    0.00000E+00         0.00000E+00        -0.51048E+08
 
   -0.48869E+08         0.66701E+06         0.00000E+00
    0.66701E+06        -0.59338E+08         0.00000E+00
    0.00000E+00         0.00000E+00        -0.51182E+08
 
   -0.49637E+08         0.81074E+06         0.00000E+00
    0.81074E+06        -0.59134E+08         0.00000E+00
    0.00000E+00         0.00000E+00        -0.51306E+08
 
   -0.50405E+08         0.96515E+06         0.00000E+00
    0.96515E+06        -0.58885E+08         0.00000E+00
    0.00000E+00         0.00000E+00        -0.51417E+08
 
   -0.51175E+08         0.11272E+07         0.00000E+00
    0.11272E+07        -0.58589E+08         0.00000E+00
    0.00000E+00         0.00000E+00        -0.51515E+08
 
   -0.40290E+08         0.50674E+05         0.00000E+00
    0.50674E+05        -0.59991E+08         0.00000E+00
    0.00000E+00         0.00000E+00        -0.49563E+08
 
   -0.40307E+08         0.14087E+06         0.00000E+00
    0.14087E+06        -0.59971E+08         0.00000E+00
    0.00000E+00         0.00000E+00        -0.49393E+08
 
   -0.40943E+08         0.16288E+06         0.00000E+00
    0.16288E+06        -0.59955E+08         0.00000E+00
    0.00000E+00         0.00000E+00        -0.49434E+08
 
   -0.41991E+08         0.13900E+06         0.00000E+00
    0.13900E+06        -0.59945E+08         0.00000E+00
    0.00000E+00         0.00000E+00        -0.49647E+08
 
   -0.42967E+08         0.14051E+06         0.00000E+00
    0.14051E+06        -0.59939E+08         0.00000E+00
    0.00000E+00         0.00000E+00        -0.49851E+08
 
   -0.43888E+08         0.16704E+06         0.00000E+00
    0.16704E+06        -0.59929E+08         0.00000E+00
    0.00000E+00         0.00000E+00        -0.50045E+08
 
   -0.44762E+08         0.21930E+06         0.00000E+00
    0.21930E+06        -0.59908E+08         0.00000E+00
    0.00000E+00         0.00000E+00        -0.50230E+08
 
   -0.45598E+08         0.29736E+06         0.00000E+00
    0.29736E+06        -0.59872E+08         0.00000E+00
    0.00000E+00         0.00000E+00        -0.50405E+08
 
   -0.46403E+08         0.40062E+06         0.00000E+00
    0.40062E+06        -0.59813E+08         0.00000E+00
    0.00000E+00         0.00000E+00        -0.50569E+08
 
   -0.47186E+08         0.52791E+06         0.00000E+00
    0.52791E+06        -0.59726E+08         0.00000E+00
    0.00000E+00         0.00000E+00        -0.50723E+08
 
   -0.47953E+08         0.67749E+06         0.00000E+00
    0.67749E+06        -0.59607E+08         0.00000E+00
    0.00000E+00         0.00000E+00        -0.50865E+08
 
   -0.48711E+08         0.84711E+06         0.00000E+00
    0.84711E+06        -0.59451E+08         0.00000E+00
    0.00000E+00         0.00000E+00        -0.50997E+08
 
   -0.49465E+08         0.10340E+07         0.00000E+00
    0.10340E+07        -0.59253E+08         0.00000E+00
    0.00000E+00         0.00000E+00        -0.51117E+08
 
   -0.50222E+08         0.12349E+07         0.00000E+00
    0.12349E+07        -0.59009E+08         0.00000E+00
    0.00000E+00         0.00000E+00        -0.51226E+08
 
   -0.50986E+08         0.14460E+07         0.00000E+00
    0.14460E+07        -0.58716E+08         0.00000E+00
    0.00000E+00         0.00000E+00        -0.51324E+08
 
   -0.40185E+08         0.61214E+05         0.00000E+00
    0.61214E+05        -0.59992E+08         0.00000E+00
    0.00000E+00         0.00000E+00        -0.49334E+08
 
   -0.40216E+08         0.16384E+06         0.00000E+00
    0.16384E+06        -0.59984E+08         0.00000E+00
    0.00000E+00         0.00000E+00        -0.49153E+08
 
   -0.40991E+08         0.16864E+06         0.00000E+00
    0.16864E+06        -0.59974E+08         0.00000E+00
    0.00000E+00         0.00000E+00        -0.49246E+08
 
   -0.42002E+08         0.13711E+06         0.00000E+00
    0.13711E+06        -0.59982E+08         0.00000E+00
    0.00000E+00         0.00000E+00        -0.49454E+08
 
   -0.42951E+08         0.13979E+06         0.00000E+00
    0.13979E+06        -0.59991E+08         0.00000E+00
    0.00000E+00         0.00000E+00        -0.49653E+08
 
   -0.43843E+08         0.17412E+06         0.00000E+00
    0.17412E+06        -0.59996E+08         0.00000E+00
    0.00000E+00         0.00000E+00        -0.49842E+08
 
   -0.44688E+08         0.24017E+06         0.00000E+00
    0.24017E+06        -0.59989E+08         0.00000E+00
    0.00000E+00         0.00000E+00        -0.50021E+08
 
   -0.45496E+08         0.33777E+06         0.00000E+00
    0.33777E+06        -0.59966E+08         0.00000E+00
    0.00000E+00         0.00000E+00        -0.50190E+08
 
   -0.46274E+08         0.46621E+06         0.00000E+00
    0.46621E+06        -0.59919E+08         0.00000E+00
    0.00000E+00         0.00000E+00        -0.50348E+08
 
   -0.47031E+08         0.62410E+06         0.00000E+00
    0.62410E+06        -0.59845E+08         0.00000E+00
    0.00000E+00         0.00000E+00        -0.50496E+08
 
   -0.47774E+08         0.80942E+06         0.00000E+00
    0.80942E+06        -0.59736E+08         0.00000E+00
    0.00000E+00         0.00000E+00        -0.50634E+08
 
   -0.48511E+08         0.10195E+07         0.00000E+00
    0.10195E+07        -0.59589E+08         0.00000E+00
    0.00000E+00         0.00000E+00        -0.50761E+08
 
   -0.49248E+08         0.12510E+07         0.00000E+00
    0.12510E+07        -0.59399E+08         0.00000E+00
    0.00000E+00         0.00000E+00        -0.50878E+08
 
   -0.49991E+08         0.15000E+07         0.00000E+00
    0.15000E+07        -0.59161E+08         0.00000E+00
    0.00000E+00         0.00000E+00        -0.50984E+08
 
   -0.50745E+08         0.17621E+07         0.00000E+00
    0.17621E+07        -0.58872E+08         0.00000E+00
    0.00000E+00         0.00000E+00        -0.51080E+08
 
   -0.40058E+08         0.70676E+05         0.00000E+00
    0.70676E+05        -0.59991E+08         0.00000E+00
    0.00000E+00         0.00000E+00        -0.49048E+08
 
   -0.40153E+08         0.17730E+06         0.00000E+00
    0.17730E+06        -0.59990E+08         0.00000E+00
    0.00000E+00         0.00000E+00        -0.48874E+08
 
   -0.41042E+08         0.15119E+06         0.00000E+00
    0.15119E+06        -0.60001E+08         0.00000E+00
    0.00000E+00         0.00000E+00        -0.49015E+08
 
   -0.42017E+08         0.11868E+06         0.00000E+00
    0.11868E+06        -0.60029E+08         0.00000E+00
    0.00000E+00         0.00000E+00        -0.49217E+08
 
   -0.42930E+08         0.12345E+06         0.00000E+00
    0.12345E+06        -0.60055E+08         0.00000E+00
    0.00000E+00         0.00000E+00        -0.49410E+08
 
   -0.43787E+08         0.16618E+06         0.00000E+00
    0.16618E+06        -0.60076E+08         0.00000E+00
    0.00000E+00         0.00000E+00        -0.49592E+08
 
   -0.44598E+08         0.24653E+06         0.00000E+00
    0.24653E+06        -0.60084E+08         0.00000E+00
    0.00000E+00         0.00000E+00        -0.49764E+08
 
   -0.45371E+08         0.36432E+06         0.00000E+00
    0.36432E+06        -0.60076E+08         0.00000E+00
    0.00000E+00         0.00000E+00        -0.49926E+08
 
   -0.46116E+08         0.51876E+06         0.00000E+00
    0.51876E+06        -0.60044E+08         0.00000E+00
    0.00000E+00         0.00000E+00        -0.50077E+08
 
   -0.46842E+08         0.70829E+06         0.00000E+00
    0.70829E+06        -0.59983E+08         0.00000E+00
    0.00000E+00         0.00000E+00        -0.50219E+08
 
   -0.47556E+08         0.93056E+06         0.00000E+00
    0.93056E+06        -0.59887E+08         0.00000E+00
    0.00000E+00         0.00000E+00        -0.50351E+08
 
   -0.48267E+08         0.11825E+07         0.00000E+00
    0.11825E+07        -0.59750E+08         0.00000E+00
    0.00000E+00         0.00000E+00        -0.50473E+08
 
   -0.48983E+08         0.14603E+07         0.00000E+00
    0.14603E+07        -0.59569E+08         0.00000E+00
    0.00000E+00         0.00000E+00        -0.50585E+08
 
   -0.49709E+08         0.17594E+07         0.00000E+00
    0.17594E+07        -0.59339E+08         0.00000E+00
    0.00000E+00         0.00000E+00        -0.50688E+08
 
   -0.50451E+08         0.20747E+07         0.00000E+00
    0.20747E+07        -0.59056E+08         0.00000E+00
    0.00000E+00         0.00000E+00        -0.50782E+08
 
   -0.39914E+08         0.79384E+05         0.00000E+00
    0.79384E+05        -0.59991E+08         0.00000E+00
    0.00000E+00         0.00000E+00        -0.48699E+08
 
   -0.40135E+08         0.17031E+06         0.00000E+00
    0.17031E+06        -0.60003E+08         0.00000E+00
    0.00000E+00         0.00000E+00        -0.48560E+08
 
   -0.41091E+08         0.11386E+06         0.00000E+00
    0.11386E+06        -0.60037E+08         0.00000E+00
    0.00000E+00         0.00000E+00        -0.48738E+08
 
   -0.42030E+08         0.81251E+05         0.00000E+00
    0.81251E+05        -0.60084E+08         0.00000E+00
    0.00000E+00         0.00000E+00        -0.48934E+08
 
   -0.42903E+08         0.90257E+05         0.00000E+00
    0.90257E+05        -0.60128E+08         0.00000E+00
    0.00000E+00         0.00000E+00        -0.49119E+08
 
   -0.43720E+08         0.14180E+06         0.00000E+00
    0.14180E+06        -0.60166E+08         0.00000E+00
    0.00000E+00         0.00000E+00        -0.49293E+08
 
   -0.44490E+08         0.23674E+06         0.00000E+00
    0.23674E+06        -0.60192E+08         0.00000E+00
    0.00000E+00         0.00000E+00        -0.49457E+08
 
   -0.45223E+08         0.37520E+06         0.00000E+00
    0.37520E+06        -0.60200E+08         0.00000E+00
    0.00000E+00         0.00000E+00        -0.49610E+08
 
   -0.45929E+08         0.55641E+06         0.00000E+00
    0.55641E+06        -0.60184E+08         0.00000E+00
    0.00000E+00         0.00000E+00        -0.49754E+08
 
   -0.46618E+08         0.77863E+06         0.00000E+00
    0.77863E+06        -0.60138E+08         0.00000E+00
    0.00000E+00         0.00000E+00        -0.49888E+08
 
   -0.47298E+08         0.10392E+07         0.00000E+00
    0.10392E+07        -0.60056E+08         0.00000E+00
    0.00000E+00         0.00000E+00        -0.50013E+08
 
   -0.47979E+08         0.13345E+07         0.00000E+00
    0.13345E+07        -0.59932E+08         0.00000E+00
    0.00000E+00         0.00000E+00        -0.50129E+08
 
   -0.48669E+08         0.16604E+07         0.00000E+00
    0.16604E+07        -0.59762E+08         0.00000E+00
    0.00000E+00         0.00000E+00        -0.50237E+08
 
   -0.49374E+08         0.20117E+07         0.00000E+00
    0.20117E+07        -0.59541E+08         0.00000E+00
    0.00000E+00         0.00000E+00        -0.50336E+08
 
   -0.50102E+08         0.23827E+07         0.00000E+00
    0.23827E+07        -0.59264E+08         0.00000E+00
    0.00000E+00         0.00000E+00        -0.50428E+08
 
   -0.39755E+08         0.85159E+05         0.00000E+00
    0.85159E+05        -0.59996E+08         0.00000E+00
    0.00000E+00         0.00000E+00        -0.48278E+08
 
   -0.40172E+08         0.13295E+06         0.00000E+00
    0.13295E+06        -0.60036E+08         0.00000E+00
    0.00000E+00         0.00000E+00        -0.48212E+08
 
   -0.41148E+08         0.59225E+05         0.00000E+00
    0.59225E+05        -0.60084E+08         0.00000E+00
    0.00000E+00         0.00000E+00        -0.48413E+08
 
   -0.42040E+08         0.26766E+05         0.00000E+00
    0.26766E+05        -0.60146E+08         0.00000E+00
    0.00000E+00         0.00000E+00        -0.48601E+08
 
   -0.42870E+08         0.39513E+05         0.00000E+00
    0.39513E+05        -0.60207E+08         0.00000E+00
    0.00000E+00         0.00000E+00        -0.48777E+08
 
   -0.43641E+08         0.99581E+05         0.00000E+00
    0.99581E+05        -0.60263E+08         0.00000E+00
    0.00000E+00         0.00000E+00        -0.48942E+08
 
   -0.44364E+08         0.20906E+06         0.00000E+00
    0.20906E+06        -0.60308E+08         0.00000E+00
    0.00000E+00         0.00000E+00        -0.49096E+08
 
   -0.45051E+08         0.36855E+06         0.00000E+00
    0.36855E+06        -0.60335E+08         0.00000E+00
    0.00000E+00         0.00000E+00        -0.49241E+08
 
   -0.45712E+08         0.57730E+06         0.00000E+00
    0.57730E+06        -0.60337E+08         0.00000E+00
    0.00000E+00         0.00000E+00        -0.49375E+08
 
   -0.46357E+08         0.83332E+06         0.00000E+00
    0.83332E+06        -0.60308E+08         0.00000E+00
    0.00000E+00         0.00000E+00        -0.49501E+08
 
   -0.46998E+08         0.11335E+07         0.00000E+00
    0.11335E+07        -0.60242E+08         0.00000E+00
    0.00000E+00         0.00000E+00        -0.49618E+08
 
   -0.47644E+08         0.14740E+07         0.00000E+00
    0.14740E+07        -0.60133E+08         0.00000E+00
    0.00000E+00         0.00000E+00        -0.49727E+08
 
   -0.48303E+08         0.18499E+07         0.00000E+00
    0.18499E+07        -0.59975E+08         0.00000E+00
    0.00000E+00         0.00000E+00        -0.49829E+08
 
   -0.48984E+08         0.22557E+07         0.00000E+00
    0.22557E+07        -0.59763E+08         0.00000E+00
    0.00000E+00         0.00000E+00        -0.49924E+08
 
   -0.49693E+08         0.26850E+07         0.00000E+00
    0.26850E+07        -0.59494E+08         0.00000E+00
    0.00000E+00         0.00000E+00        -0.50013E+08
 
   -0.39593E+08         0.75761E+05         0.00000E+00
    0.75761E+05        -0.60016E+08         0.00000E+00
    0.00000E+00         0.00000E+00        -0.47790E+08
 
   -0.40278E+08         0.69378E+05         0.00000E+00
    0.69378E+05        -0.60055E+08         0.00000E+00
    0.00000E+00         0.00000E+00        -0.47840E+08
 
   -0.41202E+08        -0.95550E+04         0.00000E+00
   -0.95550E+04        -0.60131E+08         0.00000E+00
    0.00000E+00         0.00000E+00        -0.48034E+08
 
   -0.42051E+08        -0.43674E+05         0.00000E+00
   -0.43674E+05        -0.60209E+08         0.00000E+00
    0.00000E+00         0.00000E+00        -0.48214E+08
 
   -0.42831E+08        -0.29626E+05         0.00000E+00
   -0.29626E+05        -0.60288E+08         0.00000E+00
    0.00000E+00         0.00000E+00        -0.48380E+08
 
   -0.43551E+08         0.37852E+05         0.00000E+00
    0.37852E+05        -0.60364E+08         0.00000E+00
    0.00000E+00         0.00000E+00        -0.48535E+08
 
   -0.44221E+08         0.16157E+06         0.00000E+00
    0.16157E+06        -0.60429E+08         0.00000E+00
    0.00000E+00         0.00000E+00        -0.48679E+08
 
   -0.44854E+08         0.34244E+06         0.00000E+00
    0.34244E+06        -0.60477E+08         0.00000E+00
    0.00000E+00         0.00000E+00        -0.48813E+08
 
   -0.45463E+08         0.57957E+06         0.00000E+00
    0.57957E+06        -0.60499E+08         0.00000E+00
    0.00000E+00         0.00000E+00        -0.48938E+08
 
   -0.46060E+08         0.87059E+06         0.00000E+00
    0.87059E+06        -0.60490E+08         0.00000E+00
    0.00000E+00         0.00000E+00        -0.49054E+08
 
   -0.46656E+08         0.12120E+07         0.00000E+00
    0.12120E+07        -0.60441E+08         0.00000E+00
    0.00000E+00         0.00000E+00        -0.49162E+08
 
   -0.47261E+08         0.15993E+07         0.00000E+00
    0.15993E+07        -0.60347E+08         0.00000E+00
    0.00000E+00         0.00000E+00        -0.49264E+08
 
   -0.47885E+08         0.20272E+07         0.00000E+00
    0.20272E+07        -0.60203E+08         0.00000E+00
    0.00000E+00         0.00000E+00        -0.49360E+08
 
   -0.48536E+08         0.24898E+07         0.00000E+00
    0.24898E+07        -0.60004E+08         0.00000E+00
    0.00000E+00         0.00000E+00        -0.49450E+08
 
   -0.49223E+08         0.29802E+07         0.00000E+00
    0.29802E+07        -0.59744E+08         0.00000E+00
    0.00000E+00         0.00000E+00        -0.49535E+08
 
   -0.39505E+08         0.46266E+05         0.00000E+00
    0.46266E+05        -0.60031E+08         0.00000E+00
    0.00000E+00         0.00000E+00        -0.47267E+08
 
   -0.40382E+08        -0.11585E+05         0.00000E+00
   -0.11585E+05        -0.60086E+08         0.00000E+00
    0.00000E+00         0.00000E+00        -0.47412E+08
 
   -0.41260E+08        -0.92751E+05         0.00000E+00
   -0.92751E+05        -0.60172E+08         0.00000E+00
    0.00000E+00         0.00000E+00        -0.47597E+08
 
   -0.42064E+08        -0.13241E+06         0.00000E+00
   -0.13241E+06        -0.60267E+08         0.00000E+00
    0.00000E+00         0.00000E+00        -0.47768E+08
 
   -0.42790E+08        -0.11917E+06         0.00000E+00
   -0.11917E+06        -0.60367E+08         0.00000E+00
    0.00000E+00         0.00000E+00        -0.47925E+08
 
   -0.43450E+08        -0.45549E+05         0.00000E+00
   -0.45549E+05        -0.60465E+08         0.00000E+00
    0.00000E+00         0.00000E+00        -0.48069E+08
 
   -0.44060E+08         0.92180E+05         0.00000E+00
    0.92180E+05        -0.60553E+08         0.00000E+00
    0.00000E+00         0.00000E+00        -0.48202E+08
 
   -0.44632E+08         0.29490E+06         0.00000E+00
    0.29490E+06        -0.60624E+08         0.00000E+00
    0.00000E+00         0.00000E+00        -0.48324E+08
 
   -0.45182E+08         0.56139E+06         0.00000E+00
    0.56139E+06        -0.60668E+08         0.00000E+00
    0.00000E+00         0.00000E+00        -0.48438E+08
 
   -0.45723E+08         0.88877E+06         0.00000E+00
    0.88877E+06        -0.60679E+08         0.00000E+00
    0.00000E+00         0.00000E+00        -0.48544E+08
 
   -0.46268E+08         0.12729E+07         0.00000E+00
    0.12729E+07        -0.60649E+08         0.00000E+00
    0.00000E+00         0.00000E+00        -0.48643E+08
 
   -0.46827E+08         0.17088E+07         0.00000E+00
    0.17088E+07        -0.60573E+08         0.00000E+00
    0.00000E+00         0.00000E+00        -0.48736E+08
 
   -0.47410E+08         0.21908E+07         0.00000E+00
    0.21908E+07        -0.60444E+08         0.00000E+00
    0.00000E+00         0.00000E+00        -0.48825E+08
 
   -0.48028E+08         0.27124E+07         0.00000E+00
    0.27124E+07        -0.60258E+08         0.00000E+00
    0.00000E+00         0.00000E+00        -0.48910E+08
 
   -0.48689E+08         0.32667E+07         0.00000E+00
    0.32667E+07        -0.60010E+08         0.00000E+00
    0.00000E+00         0.00000E+00        -0.48991E+08
 
   -0.39512E+08        -0.60523E+04         0.00000E+00
   -0.60523E+04        -0.60042E+08         0.00000E+00
    0.00000E+00         0.00000E+00        -0.46721E+08
 
   -0.40477E+08        -0.98359E+05         0.00000E+00
   -0.98359E+05        -0.60102E+08         0.00000E+00
    0.00000E+00         0.00000E+00        -0.46918E+08
 
   -0.41329E+08        -0.19127E+06         0.00000E+00
   -0.19127E+06        -0.60202E+08         0.00000E+00
    0.00000E+00         0.00000E+00        -0.47099E+08
 
   -0.42082E+08        -0.24191E+06         0.00000E+00
   -0.24191E+06        -0.60317E+08         0.00000E+00
    0.00000E+00         0.00000E+00        -0.47262E+08
 
   -0.42747E+08        -0.23194E+06         0.00000E+00
   -0.23194E+06        -0.60440E+08         0.00000E+00
    0.00000E+00         0.00000E+00        -0.47408E+08
 
   -0.43340E+08        -0.15299E+06         0.00000E+00
   -0.15299E+06        -0.60563E+08         0.00000E+00
    0.00000E+00         0.00000E+00        -0.47540E+08
 
   -0.43880E+08        -0.11988E+04         0.00000E+00
   -0.11988E+04        -0.60677E+08         0.00000E+00
    0.00000E+00         0.00000E+00        -0.47660E+08
 
   -0.44384E+08         0.22408E+06         0.00000E+00
    0.22408E+06        -0.60772E+08         0.00000E+00
    0.00000E+00         0.00000E+00        -0.47770E+08
 
   -0.44868E+08         0.52111E+06         0.00000E+00
    0.52111E+06        -0.60839E+08         0.00000E+00
    0.00000E+00         0.00000E+00        -0.47872E+08
 
   -0.45346E+08         0.88635E+06         0.00000E+00
    0.88635E+06        -0.60872E+08         0.00000E+00
    0.00000E+00         0.00000E+00        -0.47967E+08
 
   -0.45833E+08         0.13150E+07         0.00000E+00
    0.13150E+07        -0.60863E+08         0.00000E+00
    0.00000E+00         0.00000E+00        -0.48056E+08
 
   -0.46340E+08         0.18013E+07         0.00000E+00
    0.18013E+07        -0.60805E+08         0.00000E+00
    0.00000E+00         0.00000E+00        -0.48141E+08
 
   -0.46879E+08         0.23391E+07         0.00000E+00
    0.23391E+07        -0.60694E+08         0.00000E+00
    0.00000E+00         0.00000E+00        -0.48222E+08
 
   -0.47457E+08         0.29219E+07         0.00000E+00
    0.29219E+07        -0.60523E+08         0.00000E+00
    0.00000E+00         0.00000E+00        -0.48300E+08
 
   -0.48087E+08         0.35426E+07         0.00000E+00
    0.35426E+07        -0.60287E+08         0.00000E+00
    0.00000E+00         0.00000E+00        -0.48377E+08
 
   -0.39597E+08        -0.62103E+05         0.00000E+00
   -0.62103E+05        -0.60024E+08         0.00000E+00
    0.00000E+00         0.00000E+00        -0.46153E+08
 
   -0.40593E+08        -0.19416E+06         0.00000E+00
   -0.19416E+06        -0.60103E+08         0.00000E+00
    0.00000E+00         0.00000E+00        -0.46362E+08
 
   -0.41414E+08        -0.31069E+06         0.00000E+00
   -0.31069E+06        -0.60220E+08         0.00000E+00
    0.00000E+00         0.00000E+00        -0.46539E+08
 
   -0.42108E+08        -0.37538E+06         0.00000E+00
   -0.37538E+06        -0.60359E+08         0.00000E+00
    0.00000E+00         0.00000E+00        -0.46692E+08
 
   -0.42703E+08        -0.37025E+06         0.00000E+00
   -0.37025E+06        -0.60508E+08         0.00000E+00
    0.00000E+00         0.00000E+00        -0.46827E+08
 
   -0.43220E+08        -0.28638E+06         0.00000E+00
   -0.28638E+06        -0.60657E+08         0.00000E+00
    0.00000E+00         0.00000E+00        -0.46946E+08
 
   -0.43682E+08        -0.12018E+06         0.00000E+00
   -0.12018E+06        -0.60797E+08         0.00000E+00
    0.00000E+00         0.00000E+00        -0.47052E+08
 
   -0.44109E+08         0.12855E+06         0.00000E+00
    0.12855E+06        -0.60917E+08         0.00000E+00
    0.00000E+00         0.00000E+00        -0.47149E+08
 
   -0.44518E+08         0.45741E+06         0.00000E+00
    0.45741E+06        -0.61010E+08         0.00000E+00
    0.00000E+00         0.00000E+00        -0.47238E+08
 
   -0.44927E+08         0.86210E+06         0.00000E+00
    0.86210E+06        -0.61065E+08         0.00000E+00
    0.00000E+00         0.00000E+00        -0.47320E+08
 
   -0.45350E+08         0.13369E+07         0.00000E+00
    0.13369E+07        -0.61078E+08         0.00000E+00
    0.00000E+00         0.00000E+00        -0.47399E+08
 
   -0.45800E+08         0.18754E+07         0.00000E+00
    0.18754E+07        -0.61040E+08         0.00000E+00
    0.00000E+00         0.00000E+00        -0.47474E+08
 
   -0.46287E+08         0.24707E+07         0.00000E+00
    0.24707E+07        -0.60946E+08         0.00000E+00
    0.00000E+00         0.00000E+00        -0.47546E+08
 
   -0.46822E+08         0.31164E+07         0.00000E+00
    0.31164E+07        -0.60792E+08         0.00000E+00
    0.00000E+00         0.00000E+00        -0.47618E+08
 
   -0.47414E+08         0.38057E+07         0.00000E+00
    0.38057E+07        -0.60571E+08         0.00000E+00
    0.00000E+00         0.00000E+00        -0.47690E+08
 
   -0.39767E+08        -0.10945E+06         0.00000E+00
   -0.10945E+06        -0.60021E+08         0.00000E+00
    0.00000E+00         0.00000E+00        -0.45542E+08
 
   -0.40744E+08        -0.30337E+06         0.00000E+00
   -0.30337E+06        -0.60102E+08         0.00000E+00
    0.00000E+00         0.00000E+00        -0.45746E+08
 
   -0.41519E+08        -0.45152E+06         0.00000E+00
   -0.45152E+06        -0.60234E+08         0.00000E+00
    0.00000E+00         0.00000E+00        -0.45915E+08
 
   -0.42145E+08        -0.53390E+06         0.00000E+00
   -0.53390E+06        -0.60395E+08         0.00000E+00
    0.00000E+00         0.00000E+00        -0.46058E+08
 
   -0.42659E+08        -0.53488E+06         0.00000E+00
   -0.53488E+06        -0.60569E+08         0.00000E+00
    0.00000E+00         0.00000E+00        -0.46178E+08
 
   -0.43091E+08        -0.44641E+06         0.00000E+00
   -0.44641E+06        -0.60745E+08         0.00000E+00
    0.00000E+00         0.00000E+00        -0.46283E+08
 
   -0.43465E+08        -0.26546E+06         0.00000E+00
   -0.26546E+06        -0.60911E+08         0.00000E+00
    0.00000E+00         0.00000E+00        -0.46374E+08
 
   -0.43805E+08         0.75089E+04         0.00000E+00
    0.75089E+04        -0.61057E+08         0.00000E+00
    0.00000E+00         0.00000E+00        -0.46456E+08
 
   -0.44132E+08         0.36941E+06         0.00000E+00
    0.36941E+06        -0.61174E+08         0.00000E+00
    0.00000E+00         0.00000E+00        -0.46531E+08
 
   -0.44465E+08         0.81508E+06         0.00000E+00
    0.81508E+06        -0.61254E+08         0.00000E+00
    0.00000E+00         0.00000E+00        -0.46601E+08
 
   -0.44818E+08         0.13378E+07         0.00000E+00
    0.13378E+07        -0.61289E+08         0.00000E+00
    0.00000E+00         0.00000E+00        -0.46668E+08
 
   -0.45204E+08         0.19300E+07         0.00000E+00
    0.19300E+07        -0.61271E+08         0.00000E+00
    0.00000E+00         0.00000E+00        -0.46732E+08
 
   -0.45635E+08         0.25841E+07         0.00000E+00
    0.25841E+07        -0.61197E+08         0.00000E+00
    0.00000E+00         0.00000E+00        -0.46796E+08
 
   -0.46120E+08         0.32938E+07         0.00000E+00
    0.32938E+07        -0.61062E+08         0.00000E+00
    0.00000E+00         0.00000E+00        -0.46861E+08
 
   -0.46669E+08         0.40533E+07         0.00000E+00
    0.40533E+07        -0.60858E+08         0.00000E+00
    0.00000E+00         0.00000E+00        -0.46927E+08
 
   -0.40021E+08        -0.15558E+06         0.00000E+00
   -0.15558E+06        -0.60022E+08         0.00000E+00
    0.00000E+00         0.00000E+00        -0.44879E+08
 
   -0.40945E+08        -0.41953E+06         0.00000E+00
   -0.41953E+06        -0.60106E+08         0.00000E+00
    0.00000E+00         0.00000E+00        -0.45073E+08
 
   -0.41653E+08        -0.61017E+06         0.00000E+00
   -0.61017E+06        -0.60249E+08         0.00000E+00
    0.00000E+00         0.00000E+00        -0.45229E+08
 
   -0.42196E+08        -0.71515E+06         0.00000E+00
   -0.71515E+06        -0.60429E+08         0.00000E+00
    0.00000E+00         0.00000E+00        -0.45357E+08
 
   -0.42617E+08        -0.72439E+06         0.00000E+00
   -0.72439E+06        -0.60625E+08         0.00000E+00
    0.00000E+00         0.00000E+00        -0.45462E+08
 
   -0.42951E+08        -0.63210E+06         0.00000E+00
   -0.63210E+06        -0.60825E+08         0.00000E+00
    0.00000E+00         0.00000E+00        -0.45549E+08
 
   -0.43228E+08        -0.43652E+06         0.00000E+00
   -0.43652E+06        -0.61015E+08         0.00000E+00
    0.00000E+00         0.00000E+00        -0.45624E+08
 
   -0.43473E+08        -0.13897E+06         0.00000E+00
   -0.13897E+06        -0.61187E+08         0.00000E+00
    0.00000E+00         0.00000E+00        -0.45690E+08
 
   -0.43709E+08         0.25672E+06         0.00000E+00
    0.25672E+06        -0.61329E+08         0.00000E+00
    0.00000E+00         0.00000E+00        -0.45749E+08
 
   -0.43956E+08         0.74462E+06         0.00000E+00
    0.74462E+06        -0.61433E+08         0.00000E+00
    0.00000E+00         0.00000E+00        -0.45805E+08
 
   -0.44233E+08         0.13169E+07         0.00000E+00
    0.13169E+07        -0.61490E+08         0.00000E+00
    0.00000E+00         0.00000E+00        -0.45860E+08
 
   -0.44551E+08         0.19644E+07         0.00000E+00
    0.19644E+07        -0.61495E+08         0.00000E+00
    0.00000E+00         0.00000E+00        -0.45914E+08
 
   -0.44922E+08         0.26782E+07         0.00000E+00
    0.26782E+07        -0.61441E+08         0.00000E+00
    0.00000E+00         0.00000E+00        -0.45969E+08
 
   -0.45351E+08         0.34519E+07         0.00000E+00
    0.34519E+07        -0.61325E+08         0.00000E+00
    0.00000E+00         0.00000E+00        -0.46026E+08
 
   -0.45849E+08         0.42820E+07         0.00000E+00
    0.42820E+07        -0.61143E+08         0.00000E+00
    0.00000E+00         0.00000E+00        -0.46085E+08
 
   -0.40361E+08        -0.20360E+06         0.00000E+00
   -0.20360E+06        -0.60023E+08         0.00000E+00
    0.00000E+00         0.00000E+00        -0.44163E+08
 
   -0.41204E+08        -0.54283E+06         0.00000E+00
   -0.54283E+06        -0.60112E+08         0.00000E+00
    0.00000E+00         0.00000E+00        -0.44341E+08
 
   -0.41821E+08        -0.78264E+06         0.00000E+00
   -0.78264E+06        -0.60265E+08         0.00000E+00
    0.00000E+00         0.00000E+00        -0.44480E+08
 
   -0.42263E+08        -0.91528E+06         0.00000E+00
   -0.91528E+06        -0.60459E+08         0.00000E+00
    0.00000E+00         0.00000E+00        -0.44589E+08
 
   -0.42578E+08        -0.93549E+06         0.00000E+00
   -0.93549E+06        -0.60674E+08         0.00000E+00
    0.00000E+00         0.00000E+00        -0.44674E+08
 
   -0.42803E+08        -0.84079E+06         0.00000E+00
   -0.84079E+06        -0.60893E+08         0.00000E+00
    0.00000E+00         0.00000E+00        -0.44743E+08
 
   -0.42971E+08        -0.63142E+06         0.00000E+00
   -0.63142E+06        -0.61106E+08         0.00000E+00
    0.00000E+00         0.00000E+00        -0.44799E+08
 
   -0.43111E+08        -0.30984E+06         0.00000E+00
   -0.30984E+06        -0.61300E+08         0.00000E+00
    0.00000E+00         0.00000E+00        -0.44846E+08
 
   -0.43247E+08         0.11949E+06         0.00000E+00
    0.11949E+06        -0.61466E+08         0.00000E+00
    0.00000E+00         0.00000E+00        -0.44889E+08
 
   -0.43402E+08         0.65004E+06         0.00000E+00
    0.65004E+06        -0.61595E+08         0.00000E+00
    0.00000E+00         0.00000E+00        -0.44931E+08
 
   -0.43595E+08         0.12730E+07         0.00000E+00
    0.12730E+07        -0.61676E+08         0.00000E+00
    0.00000E+00         0.00000E+00        -0.44973E+08
 
   -0.43840E+08         0.19774E+07         0.00000E+00
    0.19774E+07        -0.61704E+08         0.00000E+00
    0.00000E+00         0.00000E+00        -0.45016E+08
 
   -0.44147E+08         0.27517E+07         0.00000E+00
    0.27517E+07        -0.61671E+08         0.00000E+00
    0.00000E+00         0.00000E+00        -0.45062E+08
 
   -0.44516E+08         0.35883E+07         0.00000E+00
    0.35883E+07        -0.61578E+08         0.00000E+00
    0.00000E+00         0.00000E+00        -0.45111E+08
 
   -0.44954E+08         0.44872E+07         0.00000E+00
    0.44872E+07        -0.61420E+08         0.00000E+00
    0.00000E+00         0.00000E+00        -0.45164E+08
 
   -0.40793E+08        -0.25430E+06         0.00000E+00
   -0.25430E+06        -0.60024E+08         0.00000E+00
    0.00000E+00         0.00000E+00        -0.43393E+08
 
   -0.41528E+08        -0.67324E+06         0.00000E+00
   -0.67324E+06        -0.60118E+08         0.00000E+00
    0.00000E+00         0.00000E+00        -0.43549E+08
 
   -0.42028E+08        -0.96628E+06         0.00000E+00
   -0.96628E+06        -0.60279E+08         0.00000E+00
    0.00000E+00         0.00000E+00        -0.43666E+08
 
   -0.42351E+08        -0.11300E+07         0.00000E+00
   -0.11300E+07        -0.60484E+08         0.00000E+00
    0.00000E+00         0.00000E+00        -0.43753E+08
 
   -0.42544E+08        -0.11635E+07         0.00000E+00
   -0.11635E+07        -0.60712E+08         0.00000E+00
    0.00000E+00         0.00000E+00        -0.43816E+08
 
   -0.42648E+08        -0.10681E+07         0.00000E+00
   -0.10681E+07        -0.60947E+08         0.00000E+00
    0.00000E+00         0.00000E+00        -0.43862E+08
 
   -0.42697E+08        -0.84657E+06         0.00000E+00
   -0.84657E+06        -0.61176E+08         0.00000E+00
    0.00000E+00         0.00000E+00        -0.43896E+08
 
   -0.42721E+08        -0.50272E+06         0.00000E+00
   -0.50272E+06        -0.61389E+08         0.00000E+00
    0.00000E+00         0.00000E+00        -0.43924E+08
 
   -0.42748E+08        -0.41503E+05         0.00000E+00
   -0.41503E+05        -0.61577E+08         0.00000E+00
    0.00000E+00         0.00000E+00        -0.43949E+08
 
   -0.42801E+08         0.53054E+06         0.00000E+00
    0.53054E+06        -0.61729E+08         0.00000E+00
    0.00000E+00         0.00000E+00        -0.43974E+08
 
   -0.42902E+08         0.12042E+07         0.00000E+00
    0.12042E+07        -0.61837E+08         0.00000E+00
    0.00000E+00         0.00000E+00        -0.44003E+08
 
   -0.43069E+08         0.19669E+07         0.00000E+00
    0.19669E+07        -0.61890E+08         0.00000E+00
    0.00000E+00         0.00000E+00        -0.44036E+08
 
   -0.43310E+08         0.28032E+07         0.00000E+00
    0.28032E+07        -0.61883E+08         0.00000E+00
    0.00000E+00         0.00000E+00        -0.44074E+08
 
   -0.43619E+08         0.37001E+07         0.00000E+00
    0.37001E+07        -0.61814E+08         0.00000E+00
    0.00000E+00         0.00000E+00        -0.44116E+08
 
   -0.43986E+08         0.46619E+07         0.00000E+00
    0.46619E+07        -0.61687E+08         0.00000E+00
    0.00000E+00         0.00000E+00        -0.44161E+08
 
   -0.41322E+08        -0.30753E+06         0.00000E+00
   -0.30753E+06        -0.60025E+08         0.00000E+00
    0.00000E+00         0.00000E+00        -0.42569E+08
 
   -0.41919E+08        -0.80950E+06         0.00000E+00
   -0.80950E+06        -0.60122E+08         0.00000E+00
    0.00000E+00         0.00000E+00        -0.42699E+08
 
   -0.42279E+08        -0.11579E+07         0.00000E+00
   -0.11579E+07        -0.60289E+08         0.00000E+00
    0.00000E+00         0.00000E+00        -0.42788E+08
 
   -0.42461E+08        -0.13542E+07         0.00000E+00
   -0.13542E+07        -0.60500E+08         0.00000E+00
    0.00000E+00         0.00000E+00        -0.42847E+08
 
   -0.42516E+08        -0.14024E+07         0.00000E+00
   -0.14024E+07        -0.60735E+08         0.00000E+00
    0.00000E+00         0.00000E+00        -0.42884E+08
 
   -0.42486E+08        -0.13078E+07         0.00000E+00
   -0.13078E+07        -0.60978E+08         0.00000E+00
    0.00000E+00         0.00000E+00        -0.42905E+08
 
   -0.42406E+08        -0.10763E+07         0.00000E+00
   -0.10763E+07        -0.61216E+08         0.00000E+00
    0.00000E+00         0.00000E+00        -0.42915E+08
 
   -0.42306E+08        -0.71338E+06         0.00000E+00
   -0.71338E+06        -0.61442E+08         0.00000E+00
    0.00000E+00         0.00000E+00        -0.42921E+08
 
   -0.42213E+08        -0.22415E+06         0.00000E+00
   -0.22415E+06        -0.61647E+08         0.00000E+00
    0.00000E+00         0.00000E+00        -0.42926E+08
 
   -0.42155E+08         0.38556E+06         0.00000E+00
    0.38556E+06        -0.61822E+08         0.00000E+00
    0.00000E+00         0.00000E+00        -0.42934E+08
 
   -0.42155E+08         0.11073E+07         0.00000E+00
    0.11073E+07        -0.61957E+08         0.00000E+00
    0.00000E+00         0.00000E+00        -0.42948E+08
 
   -0.42237E+08         0.19276E+07         0.00000E+00
    0.19276E+07        -0.62042E+08         0.00000E+00
    0.00000E+00         0.00000E+00        -0.42971E+08
 
   -0.42411E+08         0.28272E+07         0.00000E+00
    0.28272E+07        -0.62068E+08         0.00000E+00
    0.00000E+00         0.00000E+00        -0.43004E+08
 
   -0.42665E+08         0.37836E+07         0.00000E+00
    0.37836E+07        -0.62033E+08         0.00000E+00
    0.00000E+00         0.00000E+00        -0.43042E+08
 
   -0.42953E+08         0.47943E+07         0.00000E+00
    0.47943E+07        -0.61946E+08         0.00000E+00
    0.00000E+00         0.00000E+00        -0.43080E+08
 
   -0.41951E+08        -0.36260E+06         0.00000E+00
   -0.36260E+06        -0.60026E+08         0.00000E+00
    0.00000E+00         0.00000E+00        -0.41692E+08
 
   -0.42379E+08        -0.94932E+06         0.00000E+00
   -0.94932E+06        -0.60125E+08         0.00000E+00
    0.00000E+00         0.00000E+00        -0.41788E+08
 
   -0.42572E+08        -0.13533E+07         0.00000E+00
   -0.13533E+07        -0.60293E+08         0.00000E+00
    0.00000E+00         0.00000E+00        -0.41845E+08
 
   -0.42594E+08        -0.15817E+07         0.00000E+00
   -0.15817E+07        -0.60505E+08         0.00000E+00
    0.00000E+00         0.00000E+00        -0.41873E+08
 
   -0.42496E+08        -0.16443E+07         0.00000E+00
   -0.16443E+07        -0.60738E+08         0.00000E+00
    0.00000E+00         0.00000E+00        -0.41879E+08
 
   -0.42321E+08        -0.15514E+07         0.00000E+00
   -0.15514E+07        -0.60979E+08         0.00000E+00
    0.00000E+00         0.00000E+00        -0.41871E+08
 
   -0.42102E+08        -0.13123E+07         0.00000E+00
   -0.13123E+07        -0.61218E+08         0.00000E+00
    0.00000E+00         0.00000E+00        -0.41855E+08
 
   -0.41870E+08        -0.93465E+06         0.00000E+00
   -0.93465E+06        -0.61447E+08         0.00000E+00
    0.00000E+00         0.00000E+00        -0.41835E+08
 
   -0.41650E+08        -0.42369E+06         0.00000E+00
   -0.42369E+06        -0.61661E+08         0.00000E+00
    0.00000E+00         0.00000E+00        -0.41817E+08
 
   -0.41470E+08         0.21628E+06         0.00000E+00
    0.21628E+06        -0.61853E+08         0.00000E+00
    0.00000E+00         0.00000E+00        -0.41806E+08
 
   -0.41359E+08         0.97912E+06         0.00000E+00
    0.97912E+06        -0.62015E+08         0.00000E+00
    0.00000E+00         0.00000E+00        -0.41805E+08
 
   -0.41346E+08         0.18513E+07         0.00000E+00
    0.18513E+07        -0.62136E+08         0.00000E+00
    0.00000E+00         0.00000E+00        -0.41818E+08
 
   -0.41450E+08         0.28093E+07         0.00000E+00
    0.28093E+07        -0.62208E+08         0.00000E+00
    0.00000E+00         0.00000E+00        -0.41847E+08
 
   -0.41666E+08         0.38223E+07         0.00000E+00
    0.38223E+07        -0.62227E+08         0.00000E+00
    0.00000E+00         0.00000E+00        -0.41890E+08
 
   -0.41876E+08         0.48527E+07         0.00000E+00
    0.48527E+07        -0.62244E+08         0.00000E+00
    0.00000E+00         0.00000E+00        -0.41934E+08
 
   -0.42682E+08        -0.41847E+06         0.00000E+00
   -0.41847E+06        -0.60026E+08         0.00000E+00
    0.00000E+00         0.00000E+00        -0.40763E+08
 
   -0.42907E+08        -0.10895E+07         0.00000E+00
   -0.10895E+07        -0.60124E+08         0.00000E+00
    0.00000E+00         0.00000E+00        -0.40820E+08
 
   -0.42908E+08        -0.15468E+07         0.00000E+00
   -0.15468E+07        -0.60290E+08         0.00000E+00
    0.00000E+00         0.00000E+00        -0.40838E+08
 
   -0.42748E+08        -0.18047E+07         0.00000E+00
   -0.18047E+07        -0.60494E+08         0.00000E+00
    0.00000E+00         0.00000E+00        -0.40829E+08
 
   -0.42483E+08        -0.18795E+07         0.00000E+00
   -0.18795E+07        -0.60717E+08         0.00000E+00
    0.00000E+00         0.00000E+00        -0.40801E+08
 
   -0.42152E+08        -0.17874E+07         0.00000E+00
   -0.17874E+07        -0.60944E+08         0.00000E+00
    0.00000E+00         0.00000E+00        -0.40761E+08
 
   -0.41789E+08        -0.15426E+07         0.00000E+00
   -0.15426E+07        -0.61169E+08         0.00000E+00
    0.00000E+00         0.00000E+00        -0.40715E+08
 
   -0.41419E+08        -0.11553E+07         0.00000E+00
   -0.11553E+07        -0.61387E+08         0.00000E+00
    0.00000E+00         0.00000E+00        -0.40667E+08
 
   -0.41065E+08        -0.63090E+06         0.00000E+00
   -0.63090E+06        -0.61598E+08         0.00000E+00
    0.00000E+00         0.00000E+00        -0.40623E+08
 
   -0.40755E+08         0.28786E+05         0.00000E+00
    0.28786E+05        -0.61797E+08         0.00000E+00
    0.00000E+00         0.00000E+00        -0.40589E+08
 
   -0.40520E+08         0.82095E+06         0.00000E+00
    0.82095E+06        -0.61978E+08         0.00000E+00
    0.00000E+00         0.00000E+00        -0.40569E+08
 
   -0.40405E+08         0.17351E+07         0.00000E+00
    0.17351E+07        -0.62130E+08         0.00000E+00
    0.00000E+00         0.00000E+00        -0.40569E+08
 
   -0.40444E+08         0.27345E+07         0.00000E+00
    0.27345E+07        -0.62242E+08         0.00000E+00
    0.00000E+00         0.00000E+00        -0.40596E+08
 
   -0.40605E+08         0.37702E+07         0.00000E+00
    0.37702E+07        -0.62371E+08         0.00000E+00
    0.00000E+00         0.00000E+00        -0.40667E+08
 
   -0.40942E+08         0.47420E+07         0.00000E+00
    0.47420E+07        -0.62488E+08         0.00000E+00
    0.00000E+00         0.00000E+00        -0.40949E+08
 
   -0.43514E+08        -0.47389E+06         0.00000E+00
   -0.47389E+06        -0.60025E+08         0.00000E+00
    0.00000E+00         0.00000E+00        -0.39785E+08
 
   -0.43502E+08        -0.12263E+07         0.00000E+00
   -0.12263E+07        -0.60120E+08         0.00000E+00
    0.00000E+00         0.00000E+00        -0.39794E+08
 
   -0.43281E+08        -0.17320E+07         0.00000E+00
   -0.17320E+07        -0.60277E+08         0.00000E+00
    0.00000E+00         0.00000E+00        -0.39768E+08
 
   -0.42920E+08        -0.20137E+07         0.00000E+00
   -0.20137E+07        -0.60466E+08         0.00000E+00
    0.00000E+00         0.00000E+00        -0.39718E+08
 
   -0.42473E+08        -0.20958E+07         0.00000E+00
   -0.20958E+07        -0.60666E+08         0.00000E+00
    0.00000E+00         0.00000E+00        -0.39651E+08
 
   -0.41980E+08        -0.20019E+07         0.00000E+00
   -0.20019E+07        -0.60866E+08         0.00000E+00
    0.00000E+00         0.00000E+00        -0.39575E+08
 
   -0.41469E+08        -0.17517E+07         0.00000E+00
   -0.17517E+07        -0.61061E+08         0.00000E+00
    0.00000E+00         0.00000E+00        -0.39496E+08
 
   -0.40960E+08        -0.13591E+07         0.00000E+00
   -0.13591E+07        -0.61251E+08         0.00000E+00
    0.00000E+00         0.00000E+00        -0.39417E+08
 
   -0.40470E+08        -0.83045E+06         0.00000E+00
   -0.83045E+06        -0.61438E+08         0.00000E+00
    0.00000E+00         0.00000E+00        -0.39344E+08
 
   -0.40022E+08        -0.16349E+06         0.00000E+00
   -0.16349E+06        -0.61626E+08         0.00000E+00
    0.00000E+00         0.00000E+00        -0.39282E+08
 
   -0.39653E+08         0.64641E+06         0.00000E+00
    0.64641E+06        -0.61807E+08         0.00000E+00
    0.00000E+00         0.00000E+00        -0.39238E+08
 
   -0.39419E+08         0.15896E+07         0.00000E+00
    0.15896E+07        -0.61967E+08         0.00000E+00
    0.00000E+00         0.00000E+00        -0.39218E+08
 
   -0.39372E+08         0.26185E+07         0.00000E+00
    0.26185E+07        -0.62132E+08         0.00000E+00
    0.00000E+00         0.00000E+00        -0.39307E+08
 
   -0.39614E+08         0.36398E+07         0.00000E+00
    0.36398E+07        -0.62252E+08         0.00000E+00
    0.00000E+00         0.00000E+00        -0.39681E+08
 
   -0.40103E+08         0.45866E+07         0.00000E+00
    0.45866E+07        -0.62394E+08         0.00000E+00
    0.00000E+00         0.00000E+00        -0.40169E+08
 
   -0.44445E+08        -0.52753E+06         0.00000E+00
   -0.52753E+06        -0.60024E+08         0.00000E+00
    0.00000E+00         0.00000E+00        -0.38761E+08
 
   -0.44157E+08        -0.13552E+07         0.00000E+00
   -0.13552E+07        -0.60113E+08         0.00000E+00
    0.00000E+00         0.00000E+00        -0.38714E+08
 
   -0.43685E+08        -0.19010E+07         0.00000E+00
   -0.19010E+07        -0.60255E+08         0.00000E+00
    0.00000E+00         0.00000E+00        -0.38637E+08
 
   -0.43102E+08        -0.21976E+07         0.00000E+00
   -0.21976E+07        -0.60417E+08         0.00000E+00
    0.00000E+00         0.00000E+00        -0.38540E+08
 
   -0.42462E+08        -0.22794E+07         0.00000E+00
   -0.22794E+07        -0.60582E+08         0.00000E+00
    0.00000E+00         0.00000E+00        -0.38431E+08
 
   -0.41802E+08        -0.21785E+07         0.00000E+00
   -0.21785E+07        -0.60738E+08         0.00000E+00
    0.00000E+00         0.00000E+00        -0.38316E+08
 
   -0.41144E+08        -0.19213E+07         0.00000E+00
   -0.19213E+07        -0.60885E+08         0.00000E+00
    0.00000E+00         0.00000E+00        -0.38201E+08
 
   -0.40499E+08        -0.15260E+07         0.00000E+00
   -0.15260E+07        -0.61026E+08         0.00000E+00
    0.00000E+00         0.00000E+00        -0.38088E+08
 
   -0.39876E+08        -0.10005E+07         0.00000E+00
   -0.10005E+07        -0.61169E+08         0.00000E+00
    0.00000E+00         0.00000E+00        -0.37983E+08
 
   -0.39283E+08        -0.33965E+06         0.00000E+00
   -0.33965E+06        -0.61321E+08         0.00000E+00
    0.00000E+00         0.00000E+00        -0.37887E+08
 
   -0.38762E+08         0.47948E+06         0.00000E+00
    0.47948E+06        -0.61478E+08         0.00000E+00
    0.00000E+00         0.00000E+00        -0.37810E+08
 
   -0.38374E+08         0.14488E+07         0.00000E+00
    0.14488E+07        -0.61634E+08         0.00000E+00
    0.00000E+00         0.00000E+00        -0.37820E+08
 
   -0.38372E+08         0.24621E+07         0.00000E+00
    0.24621E+07        -0.61782E+08         0.00000E+00
    0.00000E+00         0.00000E+00        -0.38223E+08
 
   -0.38641E+08         0.34690E+07         0.00000E+00
    0.34690E+07        -0.61957E+08         0.00000E+00
    0.00000E+00         0.00000E+00        -0.38771E+08
 
   -0.39146E+08         0.44723E+07         0.00000E+00
    0.44723E+07        -0.62105E+08         0.00000E+00
    0.00000E+00         0.00000E+00        -0.39248E+08
 
   -0.45469E+08        -0.57804E+06         0.00000E+00
   -0.57804E+06        -0.60022E+08         0.00000E+00
    0.00000E+00         0.00000E+00        -0.37693E+08
 
   -0.44863E+08        -0.14715E+07         0.00000E+00
   -0.14715E+07        -0.60102E+08         0.00000E+00
    0.00000E+00         0.00000E+00        -0.37583E+08
 
   -0.44109E+08        -0.20450E+07         0.00000E+00
   -0.20450E+07        -0.60221E+08         0.00000E+00
    0.00000E+00         0.00000E+00        -0.37448E+08
 
   -0.43285E+08        -0.23438E+07         0.00000E+00
   -0.23438E+07        -0.60346E+08         0.00000E+00
    0.00000E+00         0.00000E+00        -0.37298E+08
 
   -0.42443E+08        -0.24146E+07         0.00000E+00
   -0.24146E+07        -0.60460E+08         0.00000E+00
    0.00000E+00         0.00000E+00        -0.37142E+08
 
   -0.41614E+08        -0.22995E+07         0.00000E+00
   -0.22995E+07        -0.60555E+08         0.00000E+00
    0.00000E+00         0.00000E+00        -0.36986E+08
 
   -0.40813E+08        -0.20319E+07         0.00000E+00
   -0.20319E+07        -0.60636E+08         0.00000E+00
    0.00000E+00         0.00000E+00        -0.36832E+08
 
   -0.40040E+08        -0.16347E+07         0.00000E+00
   -0.16347E+07        -0.60709E+08         0.00000E+00
    0.00000E+00         0.00000E+00        -0.36684E+08
 
   -0.39291E+08        -0.11176E+07         0.00000E+00
   -0.11176E+07        -0.60787E+08         0.00000E+00
    0.00000E+00         0.00000E+00        -0.36544E+08
 
   -0.38556E+08        -0.47246E+06         0.00000E+00
   -0.47246E+06        -0.60880E+08         0.00000E+00
    0.00000E+00         0.00000E+00        -0.36412E+08
 
   -0.37830E+08         0.34216E+06         0.00000E+00
    0.34216E+06        -0.60997E+08         0.00000E+00
    0.00000E+00         0.00000E+00        -0.36292E+08
 
   -0.37400E+08         0.12860E+07         0.00000E+00
    0.12860E+07        -0.61139E+08         0.00000E+00
    0.00000E+00         0.00000E+00        -0.36523E+08
 
   -0.37382E+08         0.22631E+07         0.00000E+00
    0.22631E+07        -0.61333E+08         0.00000E+00
    0.00000E+00         0.00000E+00        -0.37114E+08
 
   -0.37610E+08         0.32919E+07         0.00000E+00
    0.32919E+07        -0.61534E+08         0.00000E+00
    0.00000E+00         0.00000E+00        -0.37698E+08
 
   -0.38106E+08         0.43647E+07         0.00000E+00
    0.43647E+07        -0.61688E+08         0.00000E+00
    0.00000E+00         0.00000E+00        -0.38196E+08
 
   -0.46577E+08        -0.62411E+06         0.00000E+00
   -0.62411E+06        -0.60020E+08         0.00000E+00
    0.00000E+00         0.00000E+00        -0.36587E+08
 
   -0.45606E+08        -0.15696E+07         0.00000E+00
   -0.15696E+07        -0.60087E+08         0.00000E+00
    0.00000E+00         0.00000E+00        -0.36403E+08
 
   -0.44538E+08        -0.21532E+07         0.00000E+00
   -0.21532E+07        -0.60174E+08         0.00000E+00
    0.00000E+00         0.00000E+00        -0.36202E+08
 
   -0.43454E+08        -0.24373E+07         0.00000E+00
   -0.24373E+07        -0.60247E+08         0.00000E+00
    0.00000E+00         0.00000E+00        -0.35995E+08
 
   -0.42404E+08        -0.24841E+07         0.00000E+00
   -0.24841E+07        -0.60292E+08         0.00000E+00
    0.00000E+00         0.00000E+00        -0.35788E+08
 
   -0.41410E+08        -0.23471E+07         0.00000E+00
   -0.23471E+07        -0.60309E+08         0.00000E+00
    0.00000E+00         0.00000E+00        -0.35587E+08
 
   -0.40474E+08        -0.20664E+07         0.00000E+00
   -0.20664E+07        -0.60306E+08         0.00000E+00
    0.00000E+00         0.00000E+00        -0.35395E+08
 
   -0.39586E+08        -0.16682E+07         0.00000E+00
   -0.16682E+07        -0.60297E+08         0.00000E+00
    0.00000E+00         0.00000E+00        -0.35211E+08
 
   -0.38723E+08        -0.11642E+07         0.00000E+00
   -0.11642E+07        -0.60297E+08         0.00000E+00
    0.00000E+00         0.00000E+00        -0.35036E+08
 
   -0.37850E+08        -0.54722E+06         0.00000E+00
   -0.54722E+06        -0.60323E+08         0.00000E+00
    0.00000E+00         0.00000E+00        -0.34867E+08
 
   -0.36937E+08         0.21932E+06         0.00000E+00
    0.21932E+06        -0.60395E+08         0.00000E+00
    0.00000E+00         0.00000E+00        -0.34738E+08
 
   -0.36489E+08         0.10904E+07         0.00000E+00
    0.10904E+07        -0.60555E+08         0.00000E+00
    0.00000E+00         0.00000E+00        -0.35176E+08
 
   -0.36374E+08         0.20441E+07         0.00000E+00
    0.20441E+07        -0.60770E+08         0.00000E+00
    0.00000E+00         0.00000E+00        -0.35825E+08
 
   -0.36528E+08         0.31001E+07         0.00000E+00
    0.31001E+07        -0.60990E+08         0.00000E+00
    0.00000E+00         0.00000E+00        -0.36462E+08
 
   -0.36987E+08         0.42392E+07         0.00000E+00
    0.42392E+07        -0.61171E+08         0.00000E+00
    0.00000E+00         0.00000E+00        -0.37029E+08
 
   -0.47756E+08        -0.66432E+06         0.00000E+00
   -0.66432E+06        -0.60017E+08         0.00000E+00
    0.00000E+00         0.00000E+00        -0.35448E+08
 
   -0.46367E+08        -0.16422E+07         0.00000E+00
   -0.16422E+07        -0.60065E+08         0.00000E+00
    0.00000E+00         0.00000E+00        -0.35180E+08
 
   -0.44950E+08        -0.22115E+07         0.00000E+00
   -0.22115E+07        -0.60108E+08         0.00000E+00
    0.00000E+00         0.00000E+00        -0.34904E+08
 
   -0.43593E+08        -0.24592E+07         0.00000E+00
   -0.24592E+07        -0.60110E+08         0.00000E+00
    0.00000E+00         0.00000E+00        -0.34632E+08
 
   -0.42336E+08        -0.24681E+07         0.00000E+00
   -0.24681E+07        -0.60064E+08         0.00000E+00
    0.00000E+00         0.00000E+00        -0.34370E+08
 
   -0.41187E+08        -0.23038E+07         0.00000E+00
   -0.23038E+07        -0.59983E+08         0.00000E+00
    0.00000E+00         0.00000E+00        -0.34123E+08
 
   -0.40130E+08        -0.20112E+07         0.00000E+00
   -0.20112E+07        -0.59883E+08         0.00000E+00
    0.00000E+00         0.00000E+00        -0.33892E+08
 
   -0.39140E+08        -0.16174E+07         0.00000E+00
   -0.16174E+07        -0.59784E+08         0.00000E+00
    0.00000E+00         0.00000E+00        -0.33674E+08
 
   -0.38181E+08        -0.11350E+07         0.00000E+00
   -0.11350E+07        -0.59704E+08         0.00000E+00
    0.00000E+00         0.00000E+00        -0.33468E+08
 
   -0.37197E+08        -0.56556E+06         0.00000E+00
   -0.56556E+06        -0.59666E+08         0.00000E+00
    0.00000E+00         0.00000E+00        -0.33267E+08
 
   -0.36154E+08         0.98215E+05         0.00000E+00
    0.98215E+05        -0.59715E+08         0.00000E+00
    0.00000E+00         0.00000E+00        -0.33120E+08
 
   -0.35610E+08         0.88531E+06         0.00000E+00
    0.88531E+06        -0.59862E+08         0.00000E+00
    0.00000E+00         0.00000E+00        -0.33634E+08
 
   -0.35367E+08         0.18117E+07         0.00000E+00
    0.18117E+07        -0.60086E+08         0.00000E+00
    0.00000E+00         0.00000E+00        -0.34343E+08
 
   -0.35406E+08         0.28772E+07         0.00000E+00
    0.28772E+07        -0.60334E+08         0.00000E+00
    0.00000E+00         0.00000E+00        -0.35069E+08
 
   -0.35789E+08         0.40631E+07         0.00000E+00
    0.40631E+07        -0.60565E+08         0.00000E+00
    0.00000E+00         0.00000E+00        -0.35744E+08
 
   -0.48989E+08        -0.69680E+06         0.00000E+00
   -0.69680E+06        -0.60013E+08         0.00000E+00
    0.00000E+00         0.00000E+00        -0.34283E+08
 
   -0.47118E+08        -0.16781E+07         0.00000E+00
   -0.16781E+07        -0.60035E+08         0.00000E+00
    0.00000E+00         0.00000E+00        -0.33915E+08
 
   -0.45319E+08        -0.21987E+07         0.00000E+00
   -0.21987E+07        -0.60011E+08         0.00000E+00
    0.00000E+00         0.00000E+00        -0.33553E+08
 
   -0.43683E+08        -0.23843E+07         0.00000E+00
   -0.23843E+07        -0.59913E+08         0.00000E+00
    0.00000E+00         0.00000E+00        -0.33210E+08
 
   -0.42232E+08        -0.23438E+07         0.00000E+00
   -0.23438E+07        -0.59750E+08         0.00000E+00
    0.00000E+00         0.00000E+00        -0.32891E+08
 
   -0.40946E+08        -0.21530E+07         0.00000E+00
   -0.21530E+07        -0.59550E+08         0.00000E+00
    0.00000E+00         0.00000E+00        -0.32597E+08
 
   -0.39788E+08        -0.18573E+07         0.00000E+00
   -0.18573E+07        -0.59341E+08         0.00000E+00
    0.00000E+00         0.00000E+00        -0.32327E+08
 
   -0.38714E+08        -0.14813E+07         0.00000E+00
   -0.14813E+07        -0.59149E+08         0.00000E+00
    0.00000E+00         0.00000E+00        -0.32078E+08
 
   -0.37680E+08        -0.10370E+07         0.00000E+00
   -0.10370E+07        -0.58996E+08         0.00000E+00
    0.00000E+00         0.00000E+00        -0.31845E+08
 
   -0.36629E+08        -0.53468E+06         0.00000E+00
   -0.53468E+06        -0.58904E+08         0.00000E+00
    0.00000E+00         0.00000E+00        -0.31623E+08
 
   -0.35508E+08         0.72880E+04         0.00000E+00
    0.72880E+04        -0.58913E+08         0.00000E+00
    0.00000E+00         0.00000E+00        -0.31437E+08
 
   -0.34779E+08         0.68147E+06         0.00000E+00
    0.68147E+06        -0.59028E+08         0.00000E+00
    0.00000E+00         0.00000E+00        -0.31872E+08
 
   -0.34382E+08         0.15505E+07         0.00000E+00
    0.15505E+07        -0.59269E+08         0.00000E+00
    0.00000E+00         0.00000E+00        -0.32648E+08
 
   -0.34263E+08         0.26018E+07         0.00000E+00
    0.26018E+07        -0.59567E+08         0.00000E+00
    0.00000E+00         0.00000E+00        -0.33501E+08
 
   -0.34517E+08         0.38284E+07         0.00000E+00
    0.38284E+07        -0.59865E+08         0.00000E+00
    0.00000E+00         0.00000E+00        -0.34335E+08
 
   -0.50249E+08        -0.71834E+06         0.00000E+00
   -0.71834E+06        -0.60008E+08         0.00000E+00
    0.00000E+00         0.00000E+00        -0.33097E+08
 
   -0.47816E+08        -0.16569E+07         0.00000E+00
   -0.16569E+07        -0.59986E+08         0.00000E+00
    0.00000E+00         0.00000E+00        -0.32610E+08
 
   -0.45608E+08        -0.20803E+07         0.00000E+00
   -0.20803E+07        -0.59859E+08         0.00000E+00
    0.00000E+00         0.00000E+00        -0.32149E+08
 
   -0.43708E+08        -0.21774E+07         0.00000E+00
   -0.21774E+07        -0.59618E+08         0.00000E+00
    0.00000E+00         0.00000E+00        -0.31728E+08
 
   -0.42092E+08        -0.20850E+07         0.00000E+00
   -0.20850E+07        -0.59304E+08         0.00000E+00
    0.00000E+00         0.00000E+00        -0.31349E+08
 
   -0.40699E+08        -0.18797E+07         0.00000E+00
   -0.18797E+07        -0.58966E+08         0.00000E+00
    0.00000E+00         0.00000E+00        -0.31010E+08
 
   -0.39464E+08        -0.15999E+07         0.00000E+00
   -0.15999E+07        -0.58641E+08         0.00000E+00
    0.00000E+00         0.00000E+00        -0.30704E+08
 
   -0.38328E+08        -0.12639E+07         0.00000E+00
   -0.12639E+07        -0.58358E+08         0.00000E+00
    0.00000E+00         0.00000E+00        -0.30427E+08
 
   -0.37239E+08        -0.88102E+06         0.00000E+00
   -0.88102E+06        -0.58139E+08         0.00000E+00
    0.00000E+00         0.00000E+00        -0.30172E+08
 
   -0.36152E+08        -0.46074E+06         0.00000E+00
   -0.46074E+06        -0.58003E+08         0.00000E+00
    0.00000E+00         0.00000E+00        -0.29937E+08
 
   -0.35021E+08        -0.30980E+05         0.00000E+00
   -0.30980E+05        -0.57972E+08         0.00000E+00
    0.00000E+00         0.00000E+00        -0.29715E+08
 
   -0.34042E+08         0.48887E+06         0.00000E+00
    0.48887E+06        -0.58056E+08         0.00000E+00
    0.00000E+00         0.00000E+00        -0.29894E+08
 
   -0.33454E+08         0.12466E+07         0.00000E+00
    0.12466E+07        -0.58297E+08         0.00000E+00
    0.00000E+00         0.00000E+00        -0.30713E+08
 
   -0.33116E+08         0.22485E+07         0.00000E+00
    0.22485E+07        -0.58662E+08         0.00000E+00
    0.00000E+00         0.00000E+00        -0.31723E+08
 
   -0.33174E+08         0.34935E+07         0.00000E+00
    0.34935E+07        -0.59073E+08         0.00000E+00
    0.00000E+00         0.00000E+00        -0.32794E+08
 
   -0.51495E+08        -0.72116E+06         0.00000E+00
   -0.72116E+06        -0.59996E+08         0.00000E+00
    0.00000E+00         0.00000E+00        -0.31893E+08
 
   -0.48395E+08        -0.15352E+07         0.00000E+00
   -0.15352E+07        -0.59892E+08         0.00000E+00
    0.00000E+00         0.00000E+00        -0.31258E+08
 
   -0.45779E+08        -0.17980E+07         0.00000E+00
   -0.17980E+07        -0.59591E+08         0.00000E+00
    0.00000E+00         0.00000E+00        -0.30683E+08
 
   -0.43663E+08        -0.17948E+07         0.00000E+00
   -0.17948E+07        -0.59147E+08         0.00000E+00
    0.00000E+00         0.00000E+00        -0.30180E+08
 
   -0.41931E+08        -0.16686E+07         0.00000E+00
   -0.16686E+07        -0.58653E+08         0.00000E+00
    0.00000E+00         0.00000E+00        -0.29744E+08
 
   -0.40467E+08        -0.14759E+07         0.00000E+00
   -0.14759E+07        -0.58168E+08         0.00000E+00
    0.00000E+00         0.00000E+00        -0.29362E+08
 
   -0.39181E+08        -0.12403E+07         0.00000E+00
   -0.12403E+07        -0.57730E+08         0.00000E+00
    0.00000E+00         0.00000E+00        -0.29025E+08
 
   -0.38005E+08        -0.97172E+06         0.00000E+00
   -0.97172E+06        -0.57363E+08         0.00000E+00
    0.00000E+00         0.00000E+00        -0.28724E+08
 
   -0.36883E+08        -0.67549E+06         0.00000E+00
   -0.67549E+06        -0.57085E+08         0.00000E+00
    0.00000E+00         0.00000E+00        -0.28452E+08
 
   -0.35772E+08        -0.35794E+06         0.00000E+00
   -0.35794E+06        -0.56913E+08         0.00000E+00
    0.00000E+00         0.00000E+00        -0.28205E+08
 
   -0.34660E+08        -0.29100E+05         0.00000E+00
   -0.29100E+05        -0.56851E+08         0.00000E+00
    0.00000E+00         0.00000E+00        -0.27980E+08
 
   -0.33488E+08         0.33423E+06         0.00000E+00
    0.33423E+06        -0.56953E+08         0.00000E+00
    0.00000E+00         0.00000E+00        -0.27833E+08
 
   -0.32633E+08         0.90126E+06         0.00000E+00
    0.90126E+06        -0.57141E+08         0.00000E+00
    0.00000E+00         0.00000E+00        -0.28511E+08
 
   -0.32015E+08         0.17757E+07         0.00000E+00
    0.17757E+07        -0.57594E+08         0.00000E+00
    0.00000E+00         0.00000E+00        -0.29685E+08
 
   -0.31772E+08         0.29893E+07         0.00000E+00
    0.29893E+07        -0.58185E+08         0.00000E+00
    0.00000E+00         0.00000E+00        -0.31096E+08
 
   -0.52636E+08        -0.67782E+06         0.00000E+00
   -0.67782E+06        -0.59962E+08         0.00000E+00
    0.00000E+00         0.00000E+00        -0.30664E+08
 
   -0.48758E+08        -0.12085E+07         0.00000E+00
   -0.12085E+07        -0.59659E+08         0.00000E+00
    0.00000E+00         0.00000E+00        -0.29834E+08
 
   -0.45816E+08        -0.12693E+07         0.00000E+00
   -0.12693E+07        -0.59059E+08         0.00000E+00
    0.00000E+00         0.00000E+00        -0.29134E+08
 
   -0.43576E+08        -0.12044E+07         0.00000E+00
   -0.12044E+07        -0.58375E+08         0.00000E+00
    0.00000E+00         0.00000E+00        -0.28557E+08
 
   -0.41783E+08        -0.10900E+07         0.00000E+00
   -0.10900E+07        -0.57703E+08         0.00000E+00
    0.00000E+00         0.00000E+00        -0.28072E+08
 
   -0.40282E+08        -0.94890E+06         0.00000E+00
   -0.94890E+06        -0.57087E+08         0.00000E+00
    0.00000E+00         0.00000E+00        -0.27656E+08
 
   -0.38971E+08        -0.78957E+06         0.00000E+00
   -0.78957E+06        -0.56553E+08         0.00000E+00
    0.00000E+00         0.00000E+00        -0.27294E+08
 
   -0.37772E+08        -0.61515E+06         0.00000E+00
   -0.61515E+06        -0.56118E+08         0.00000E+00
    0.00000E+00         0.00000E+00        -0.26973E+08
 
   -0.36632E+08        -0.42749E+06         0.00000E+00
   -0.42749E+06        -0.55793E+08         0.00000E+00
    0.00000E+00         0.00000E+00        -0.26687E+08
 
   -0.35509E+08        -0.22895E+06         0.00000E+00
   -0.22895E+06        -0.55590E+08         0.00000E+00
    0.00000E+00         0.00000E+00        -0.26429E+08
 
   -0.34376E+08        -0.17566E+05         0.00000E+00
   -0.17566E+05        -0.55514E+08         0.00000E+00
    0.00000E+00         0.00000E+00        -0.26195E+08
 
   -0.33206E+08         0.20995E+06         0.00000E+00
    0.20995E+06        -0.55577E+08         0.00000E+00
    0.00000E+00         0.00000E+00        -0.25983E+08
 
   -0.31994E+08         0.54356E+06         0.00000E+00
    0.54356E+06        -0.55851E+08         0.00000E+00
    0.00000E+00         0.00000E+00        -0.26108E+08
 
   -0.31045E+08         0.11440E+07         0.00000E+00
    0.11440E+07        -0.56303E+08         0.00000E+00
    0.00000E+00         0.00000E+00        -0.27309E+08
 
   -0.30355E+08         0.22049E+07         0.00000E+00
    0.22049E+07        -0.57197E+08         0.00000E+00
    0.00000E+00         0.00000E+00        -0.29211E+08
 
   -0.53442E+08        -0.41255E+06         0.00000E+00
   -0.41255E+06        -0.59698E+08         0.00000E+00
    0.00000E+00         0.00000E+00        -0.29339E+08
 
   -0.48834E+08        -0.49298E+06         0.00000E+00
   -0.49298E+06        -0.58917E+08         0.00000E+00
    0.00000E+00         0.00000E+00        -0.28264E+08
 
   -0.45787E+08        -0.46681E+06         0.00000E+00
   -0.46681E+06        -0.58016E+08         0.00000E+00
    0.00000E+00         0.00000E+00        -0.27478E+08
 
   -0.43505E+08        -0.42829E+06         0.00000E+00
   -0.42829E+06        -0.57149E+08         0.00000E+00
    0.00000E+00         0.00000E+00        -0.26852E+08
 
   -0.41692E+08        -0.38120E+06         0.00000E+00
   -0.38120E+06        -0.56357E+08         0.00000E+00
    0.00000E+00         0.00000E+00        -0.26334E+08
 
   -0.40179E+08        -0.32887E+06         0.00000E+00
   -0.32887E+06        -0.55659E+08         0.00000E+00
    0.00000E+00         0.00000E+00        -0.25895E+08
 
   -0.38857E+08        -0.27225E+06         0.00000E+00
   -0.27225E+06        -0.55066E+08         0.00000E+00
    0.00000E+00         0.00000E+00        -0.25514E+08
 
   -0.37650E+08        -0.21167E+06         0.00000E+00
   -0.21167E+06        -0.54588E+08         0.00000E+00
    0.00000E+00         0.00000E+00        -0.25180E+08
 
   -0.36502E+08        -0.14743E+06         0.00000E+00
   -0.14743E+06        -0.54234E+08         0.00000E+00
    0.00000E+00         0.00000E+00        -0.24882E+08
 
   -0.35371E+08        -0.79523E+05         0.00000E+00
   -0.79523E+05        -0.54010E+08         0.00000E+00
    0.00000E+00         0.00000E+00        -0.24614E+08
 
   -0.34227E+08        -0.67459E+04         0.00000E+00
   -0.67459E+04        -0.53925E+08         0.00000E+00
    0.00000E+00         0.00000E+00        -0.24371E+08
 
   -0.33045E+08         0.75489E+05         0.00000E+00
    0.75489E+05        -0.53990E+08         0.00000E+00
    0.00000E+00         0.00000E+00        -0.24152E+08
 
   -0.31732E+08         0.18128E+06         0.00000E+00
    0.18128E+06        -0.54275E+08         0.00000E+00
    0.00000E+00         0.00000E+00        -0.23950E+08
 
   -0.30442E+08         0.39035E+06         0.00000E+00
    0.39035E+06        -0.54909E+08         0.00000E+00
    0.00000E+00         0.00000E+00        -0.24681E+08
 
   -0.29028E+08         0.86528E+06         0.00000E+00
    0.86528E+06        -0.56048E+08         0.00000E+00
    0.00000E+00         0.00000E+00        -0.27063E+08
 
SCALARS stressS double 
LOOKUP_TABLE default
  -50164655.8675541     
  -50111420.3855420     
  -50219660.7051540     
  -50631252.5814550     
  -51026939.5575878     
  -51404299.5315401     
  -51761950.7726994     
  -52099187.6185059     
  -52415717.1773947     
  -52711488.3300149     
  -52986581.5446959     
  -53241133.3527148     
  -53475280.4112713     
  -53689115.7176170     
  -53882652.9840354     
  -50143542.3794242     
  -50089935.4735346     
  -50206773.5284338     
  -50619892.5470851     
  -51015870.5140009     
  -51392728.1039522     
  -51749436.9108721     
  -52085521.2060452     
  -52400827.1390185     
  -52695392.1770256     
  -52969359.7872417     
  -53222915.1885780     
  -53456235.4025536     
  -53669448.5907894     
  -53862599.9998061     
  -50100834.3875214     
  -50046492.5687175     
  -50182231.8696551     
  -50597929.7584327     
  -50994024.1229051     
  -51369562.9296716     
  -51724216.0580110     
  -52057905.7175172     
  -52370711.9969844     
  -52662831.2964370     
  -52934523.5998427     
  -53186066.7406272     
  -53417715.9396986     
  -53629668.3762472     
  -53822031.8384337     
  -50035756.8931331     
  -49980122.5204194     
  -50148743.6529906     
  -50566753.0838648     
  -50961758.9753333     
  -51334621.5838683     
  -51685846.8299808     
  -52015751.5051541     
  -52324693.3065563     
  -52613067.7995287     
  -52881290.7612498     
  -53129768.9028037     
  -53358869.3251984     
  -53568889.8288294     
  -53760030.7748229     
  -49948120.0634838     
  -49890332.2226721     
  -50110683.7962528     
  -50527593.7842797     
  -50918980.7859216     
  -51287394.5008294     
  -51633554.0018668     
  -51958129.0327307     
  -52261739.1923589     
  -52544996.2454796     
  -52808497.2781904     
  -53052806.5970639     
  -53278432.3994278     
  -53485802.0875807     
  -53675237.3119644     
  -49837177.1791968     
  -49784139.8456134     
  -50070752.4526266     
  -50479475.7235225     
  -50864971.7481644     
  -51226876.4109219     
  -51566171.3337581     
  -51883746.4875446     
  -52180462.9739247     
  -52457152.6641449     
  -52714612.1186001     
  -52953586.7692673     
  -53174751.5081999     
  -53378689.7808841     
  -53565871.6679038     
  -49699015.3922717     
  -49672077.7562831     
  -50019143.7469767     
  -50420877.5934141     
  -50798177.7306563     
  -51151569.8765639     
  -51482131.1620048     
  -51790957.4588586     
  -52079138.4653301     
  -52347734.9500051     
  -52597760.7743562     
  -52830164.2253337     
  -53045810.0644248     
  -53245461.8657744     
  -53429763.4235125     
  -49534627.8709275     
  -49566172.4811362     
  -49955241.0806001     
  -50349392.5059563     
  -50716584.5846682     
  -51059560.9119674     
  -51379522.5490241     
  -51677801.7225595     
  -51955735.2367614     
  -52214635.8573387     
  -52455758.0964813     
  -52680275.3863596     
  -52889263.6739805     
  -53083688.1368859     
  -53264389.2526137     
  -49343025.9090169     
  -49473367.3832061     
  -49881548.7530425     
  -50262390.1160769     
  -50617950.7885695     
  -50948682.2889266     
  -51256192.0035396     
  -51542073.7391772     
  -51807969.9503067     
  -52055486.3190856     
  -52286148.8772347     
  -52501379.0305838     
  -52702482.2902718     
  -52890642.9886230     
  -53066918.0865135     
  -49132760.2299790     
  -49390665.4091264     
  -49789013.1476828     
  -50157790.3262807     
  -50499931.4554679     
  -50816711.1255742     
  -51109862.5549491     
  -51381403.7041428     
  -51633364.7933809     
  -51867703.5191382     
  -52086252.8209262     
  -52290702.2214765     
  -52482598.6278840     
  -52663356.0357614     
  -52834262.8648564     
  -48934312.5688203     
  -49293184.1308655     
  -49676392.5910478     
  -50032898.4859277     
  -50360553.3028982     
  -50661523.1693950     
  -50938251.2545659     
  -51193331.3784582     
  -51429301.1021406     
  -51648535.9283381     
  -51853209.2087431     
  -52045289.1789181     
  -52226562.4661634     
  -52398670.0806297     
  -52563138.7671072     
  -48758208.2625718     
  -49165534.7690620     
  -49543486.4522172     
  -49886731.8730821     
  -50198301.2605006     
  -50481256.8299958     
  -50739142.9172129     
  -50975356.0090199     
  -51193055.1826195     
  -51395096.4831471     
  -51584015.5665349     
  -51762050.8342711     
  -51931201.8184576     
  -52093309.3829914     
  -52250130.3172749     
  -48591381.3301060     
  -49019522.2013811     
  -49390764.5756965     
  -49719646.7748812     
  -50012341.5055878     
  -50274329.6126243     
  -50510411.3450543     
  -50724945.7929218     
  -50921805.7245881     
  -51104374.1843748     
  -51275553.1345658     
  -51437812.3999487     
  -51593294.6052625     
  -51743966.3887098     
  -51891775.6321373     
  -48443391.1433480     
  -48863878.4689627     
  -49223040.7944308     
  -49532634.3409466     
  -49802315.5209735     
  -50039359.6253663     
  -50249969.5615357     
  -50439504.7085787     
  -50612604.8735612     
  -50773212.8221130     
  -50924586.7039692     
  -51069353.8632533     
  -51209657.5683826     
  -51347426.4265415     
  -51484688.6818919     
  -48307039.7461738     
  -48707688.5224684     
  -49043778.0214251     
  -49327102.3538781     
  -49567931.1969431     
  -49774998.6314363     
  -49955676.8799799     
  -50116305.3461067     
  -50262311.4542587     
  -50398239.4217528     
  -50527714.7756529     
  -50653422.7359804     
  -50777265.1995364     
  -50900769.8725207     
  -51025773.2772187     
  -48182237.8399024     
  -48552220.3225087     
  -48855270.1882917     
  -49103754.7673313     
  -49308706.6596079     
  -49479753.3222643     
  -49625244.8394009     
  -49752413.7956800     
  -49867495.3068965     
  -49975724.7923639     
  -50081203.3154392     
  -50186670.3659346     
  -50293379.0699752     
  -50401763.9260180     
  -50512652.2741512     
  -48070063.0981688     
  -48398304.9377226     
  -48658055.0482770     
  -48862599.1795966     
  -49023747.0846740     
  -49151899.8523254     
  -49256187.9496310     
  -49344646.5080090     
  -49424345.9775780     
  -49501377.9726713     
  -49580627.5015223     
  -49665222.8959525     
  -49755702.0347548     
  -49849536.9635744     
  -49944800.2538462     
  -47972011.4674375     
  -48246527.7553374     
  -48452104.5720292     
  -48602999.5737498     
  -48711778.4225189     
  -48789484.0661903     
  -48845861.4098592     
  -48889616.9965944     
  -48928648.1559837     
  -48970152.2740292     
  -49020319.0464537     
  -49083609.5625790     
  -49161037.9283227     
  -49246882.0019252     
  -49326215.1341283     
  -47889499.6836228     
  -48097237.0513836     
  -48236988.8755532     
  -48323915.3546285     
  -48371223.4619099     
  -48390413.8779430     
  -48391600.7704186     
  -48383921.8037727     
  -48375981.1253584     
  -48376173.5604403     
  -48392897.0531330     
  -48433214.6952006     
  -48501472.4509591     
  -48594481.6028322     
  -48684809.3501928     
  -47823604.2857292     
  -47950414.1665979     
  -48011880.5299446     
  -48023940.8423776     
  -48000272.2546353     
  -47952571.3096755     
  -47890956.4114904     
  -47824529.0778089     
  -47762182.7478263     
  -47713432.6689878     
  -47688793.3510798     
  -47701472.7416349     
  -47760623.9022286     
  -47880998.8194450     
  -48126201.2613598     
  -47774892.4853425     
  -47805531.7214600     
  -47775439.6130715     
  -47701224.1581471     
  -47596845.3808725     
  -47473875.1110165     
  -47341934.2841508     
  -47209387.2737661     
  -47084335.4972012     
  -46976649.2799175     
  -46899467.6894086     
  -46868044.2101518     
  -46937204.9056993     
  -47182319.6668509     
  -47555319.6952599     
  -47743325.0309978     
  -47661377.3286972     
  -47525591.6172144     
  -47353237.7301768     
  -47158402.8462754     
  -46952184.3674606     
  -46743127.9501082     
  -46537912.9909647     
  -46342533.3287335     
  -46163736.5739520     
  -46016740.3975150     
  -45943002.7684759     
  -46125429.9682542     
  -46456433.1584255     
  -46833093.0887804     
  -47728198.5592385     
  -47515797.0285660     
  -47259145.7733071     
  -46976352.6813666     
  -46681537.4323132     
  -46384960.0228226     
  -46093484.7810803     
  -45811237.7255726     
  -45540321.6640581     
  -45282679.6031308     
  -45039512.4506474     
  -45020694.1771707     
  -45276147.4254041     
  -45613704.3103641     
  -45996724.6020095     
  -47728069.3541984     
  -47365258.6691874     
  -46971151.2495343     
  -46565141.5838856     
  -46161315.1431760     
  -45768637.5168194     
  -45391663.8419392     
  -45031297.1562811     
  -44685114.4974162     
  -44346679.6922835     
  -44023211.8799490     
  -44073174.8458892     
  -44323102.3942361     
  -44660081.8352326     
  -45062388.5270945     
  -47740544.9464081     
  -47204032.6254830     
  -46653797.2030437     
  -46111302.2728552     
  -45590364.4198000     
  -45097820.1789885     
  -44635040.0418447     
  -44199291.8034778     
  -43784106.0712843     
  -43376840.4392963     
  -42996282.6238660     
  -43035081.9144921     
  -43265436.3473312     
  -43603054.0124602     
  -44032490.2644350     
  -47761700.7926271     
  -47022555.6930744     
  -46294467.6842604     
  -45602050.1801261     
  -44957807.8708970     
  -44364543.1933882     
  -43818884.6243472     
  -43313911.2397798     
  -42840205.3021742     
  -42385361.4372230     
  -41952660.3852677     
  -41893241.3654116     
  -42099679.6810322     
  -42443636.7205299     
  -42905825.5345170     
  -47784590.2615982     
  -46803848.3816100     
  -45872185.3793416     
  -45017854.9370846     
  -44248333.9941893     
  -43558089.2765793     
  -42936230.5903909     
  -42370844.7458668     
  -41850140.5256505     
  -41363781.5410686     
  -40902664.9080833     
  -40664268.7946266     
  -40821204.8054886     
  -41167186.9213419     
  -41680300.9950315     
  -47794484.7545212     
  -46515135.5569399     
  -45350945.1274760     
  -44329937.7201983     
  -43442533.3421247     
  -42665800.8230755     
  -41978841.4656484     
  -41363950.6695699     
  -40806852.4409201     
  -40296594.2215971     
  -39830487.1321566     
  -39424388.4839661     
  -39428156.8652211     
  -39764614.1903517     
  -40351104.3474398     
  -47754185.3353684     
  -46083273.6245393     
  -44669432.1159118     
  -43502830.5137155     
  -42519275.5142866     
  -41675255.3798049     
  -40939117.5828445     
  -40287685.8742077     
  -39703865.4245257     
  -39175955.9214410     
  -38694944.9467273     
  -38255426.3376386     
  -37984343.6283869     
  -38218901.3769153     
  -38920934.8384857     
  -47493053.0123287     
  -45338181.2613091     
  -43760066.4088516     
  -42501921.6438315     
  -41461013.3589481     
  -40577423.8346294     
  -39812467.8947117     
  -39139379.3136432     
  -38539181.1628877     
  -37998349.4987978     
  -37507812.0931294     
  -37062419.7513871     
  -36652286.1890005     
  -36677509.2244396     
  -37379844.4505049     
SCALARS 2waySource double 
LOOKUP_TABLE default
 -1.496817301792503E-004
 -1.685092425614709E-004
 -1.927475207197634E-004
 -1.881167798963971E-004
 -1.846573177659663E-004
 -1.823076811791257E-004
 -1.809079635332897E-004
 -1.802542527558529E-004
 -1.801351974200549E-004
 -1.803490089671232E-004
 -1.807088503675600E-004
 -1.810432428582152E-004
 -1.811947273254801E-004
 -1.810179803227935E-004
 -1.803779373959513E-004
 -1.500930303798500E-004
 -1.693730376825902E-004
 -1.929874169277680E-004
 -1.882989858765606E-004
 -1.848873110020701E-004
 -1.826498398356756E-004
 -1.813837028543336E-004
 -1.808595519226662E-004
 -1.808559667174997E-004
 -1.811687460870234E-004
 -1.816115224099779E-004
 -1.820144424592873E-004
 -1.822219790170662E-004
 -1.820906592260901E-004
 -1.814870076006227E-004
 -1.504563238432806E-004
 -1.707865789939721E-004
 -1.930263319777838E-004
 -1.882649622283329E-004
 -1.850343155189337E-004
 -1.830872484767849E-004
 -1.821208133011239E-004
 -1.818672733170178E-004
 -1.820969291621589E-004
 -1.826062317727470E-004
 -1.832131240319809E-004
 -1.837529683401247E-004
 -1.840752471513637E-004
 -1.840407641625858E-004
 -1.835193470222009E-004
 -1.505283144938799E-004
 -1.727389138683424E-004
 -1.924405816390895E-004
 -1.877704497477071E-004
 -1.850247137028142E-004
 -1.836134800943147E-004
 -1.831243679908675E-004
 -1.832811785068243E-004
 -1.838551758359550E-004
 -1.846508938946824E-004
 -1.854959546839244E-004
 -1.862352369437689E-004
 -1.867266255543227E-004
 -1.868377894478403E-004
 -1.864436765521701E-004
 -1.501877881079264E-004
 -1.750408431323049E-004
 -1.904414911569533E-004
 -1.866417746388965E-004
 -1.848922831656729E-004
 -1.842573614645922E-004
 -1.844187682857072E-004
 -1.851121351692575E-004
 -1.861272981847522E-004
 -1.872859364721757E-004
 -1.884317960716159E-004
 -1.894239684223695E-004
 -1.901323173866758E-004
 -1.904340772134232E-004
 -1.902112426516144E-004
 -1.497449877951656E-004
 -1.766076042743769E-004
 -1.866138792042886E-004
 -1.852588979875986E-004
 -1.847367134023012E-004
 -1.850933772869819E-004
 -1.860451438624982E-004
 -1.873755355643063E-004
 -1.889059263779617E-004
 -1.904848436481688E-004
 -1.919785351532910E-004
 -1.932649651170192E-004
 -1.942295137281929E-004
 -1.947617127172231E-004
 -1.947526446780578E-004
 -1.504078816008902E-004
 -1.792103298237399E-004
 -1.834471604166965E-004
 -1.837963710967073E-004
 -1.847333356290758E-004
 -1.862176244061908E-004
 -1.880542937953955E-004
 -1.900844350872043E-004
 -1.921740608478020E-004
 -1.942063988573956E-004
 -1.960757528646435E-004
 -1.976830791361480E-004
 -1.989325588162101E-004
 -1.997287175229301E-004
 -1.999739047291193E-004
 -1.519890810880442E-004
 -1.794094156865515E-004
 -1.807364630843492E-004
 -1.825572970324171E-004
 -1.850684121595650E-004
 -1.877392303092823E-004
 -1.904935654652098E-004
 -1.932402842783860E-004
 -1.958976456179605E-004
 -1.983887092168382E-004
 -2.006396764404330E-004
 -2.025777175518790E-004
 -2.041287060674115E-004
 -2.052148149135637E-004
 -2.057520388780409E-004
 -1.523924142671119E-004
 -1.742533602697094E-004
 -1.776818329032668E-004
 -1.819652630618691E-004
 -1.859354949063281E-004
 -1.897567541676065E-004
 -1.933912320698000E-004
 -1.968215019529113E-004
 -2.000173565949508E-004
 -2.029429345783576E-004
 -2.055580677781453E-004
 -2.078183371275106E-004
 -2.096738347451004E-004
 -2.110670919482370E-004
 -2.119304516671430E-004
 -1.550861548098947E-004
 -1.698724305853533E-004
 -1.761552222851021E-004
 -1.821565043184189E-004
 -1.874896293709671E-004
 -1.923225560403372E-004
 -1.967379057645871E-004
 -2.007718201309379E-004
 -2.044408495115998E-004
 -2.077476816412969E-004
 -2.106857377420498E-004
 -2.132404361354201E-004
 -2.153885068795385E-004
 -2.170958679879641E-004
 -2.183144699750359E-004
 -1.570414070357245E-004
 -1.666685995788884E-004
 -1.759802892956259E-004
 -1.833443915420539E-004
 -1.897628896287843E-004
 -1.954220159629797E-004
 -2.004708775084525E-004
 -2.049914929637358E-004
 -2.090372052207434E-004
 -2.126451693499182E-004
 -2.158414365308247E-004
 -2.186425450114772E-004
 -2.210546755329953E-004
 -2.230709611356975E-004
 -2.246671993980755E-004
 -1.541865842888118E-004
 -1.673370915721463E-004
 -1.772191405793520E-004
 -1.855552580130691E-004
 -1.927008794323259E-004
 -1.989597922353005E-004
 -2.044689299236320E-004
 -2.093338577459834E-004
 -2.136352184694856E-004
 -2.174402389740897E-004
 -2.208068671859281E-004
 -2.237846558821146E-004
 -2.264132010641480E-004
 -2.287182555994903E-004
 -2.307055365290959E-004
 -1.598873254456379E-004
 -1.697417647559011E-004
 -1.798226937019466E-004
 -1.885209618872662E-004
 -1.961324414287738E-004
 -2.027664230493256E-004
 -2.085553945818396E-004
 -2.136085142603172E-004
 -2.180264543914940E-004
 -2.219031835054606E-004
 -2.253285860560037E-004
 -2.283885403529054E-004
 -2.311620441280842E-004
 -2.337159478776318E-004
 -2.360953778025613E-004
 -1.631813622116915E-004
 -1.731492624663674E-004
 -1.829724546144206E-004
 -1.919363430615993E-004
 -1.997905468951874E-004
 -2.066147114621576E-004
 -2.125092888244246E-004
 -2.175901642946675E-004
 -2.219735304029573E-004
 -2.257774143251407E-004
 -2.291241349788316E-004
 -2.321404837903422E-004
 -2.349549244428528E-004
 -2.376885763238841E-004
 -2.404434572466589E-004
 -1.651578796830961E-004
 -1.761250118164565E-004
 -1.862917913858445E-004
 -1.954156816058096E-004
 -2.033884478250808E-004
 -2.102408687824395E-004
 -2.160806120956107E-004
 -2.210313665631702E-004
 -2.252235416954391E-004
 -2.287941906259247E-004
 -2.318946832131638E-004
 -2.346993553024987E-004
 -2.373989112101286E-004
 -2.401959859797642E-004
 -2.432782838198772E-004
 -1.664453732617666E-004
 -1.786167393340029E-004
 -1.893315730978725E-004
 -1.986479430180829E-004
 -2.066258897880991E-004
 -2.133675454440156E-004
 -2.190040516873496E-004
 -2.236764805333906E-004
 -2.275255812109751E-004
 -2.306964417706286E-004
 -2.333545496325712E-004
 -2.357123583551492E-004
 -2.380587778080459E-004
 -2.407019448525715E-004
 -2.440053351651691E-004
 -1.673517996314738E-004
 -1.806537950651813E-004
 -1.918958126953797E-004
 -2.013439381087024E-004
 -2.092169888439873E-004
 -2.157115529494998E-004
 -2.210090680381435E-004
 -2.252728865614489E-004
 -2.286480149685524E-004
 -2.312703708275863E-004
 -2.332850194299850E-004
 -2.348931119961573E-004
 -2.364400316892160E-004
 -2.385509107902556E-004
 -2.417475145120633E-004
 -1.680593637809635E-004
 -1.822583265763852E-004
 -1.938481964558442E-004
 -2.032703503027162E-004
 -2.108853676664763E-004
 -2.169890953805170E-004
 -2.218219899200599E-004
 -2.255741858219179E-004
 -2.283889533108027E-004
 -2.303689788779139E-004
 -2.316033925933587E-004
 -2.321772874180515E-004
 -2.323073731143140E-004
 -2.325977331751822E-004
 -2.350472852670153E-004
 -1.687024169976889E-004
 -1.834302601460559E-004
 -1.950652361148590E-004
 -2.042116055587923E-004
 -2.113621755364853E-004
 -2.169105195814908E-004
 -2.211605583133954E-004
 -2.243308241881935E-004
 -2.265631619216854E-004
 -2.279199814355137E-004
 -2.283701166680085E-004
 -2.278830283258244E-004
 -2.261490201445547E-004
 -2.236385912124572E-004
 -2.177594681504208E-004
 -1.693963506365032E-004
 -1.841534142541059E-004
 -1.954183536927929E-004
 -2.039523573669148E-004
 -2.103736556804974E-004
 -2.151717230400016E-004
 -2.187178098383839E-004
 -2.212703198201334E-004
 -2.229635535593248E-004
 -2.238466192767931E-004
 -2.238126336723637E-004
 -2.224474526554255E-004
 -2.198009065853570E-004
 -2.090825754785195E-004
 -1.955728518188513E-004
 -1.702483450653755E-004
 -1.843992392293102E-004
 -1.947698592253577E-004
 -2.022700872252992E-004
 -2.076349255854250E-004
 -2.114454365267501E-004
 -2.141456190280107E-004
 -2.160479299283823E-004
 -2.173345131033784E-004
 -2.179565366324198E-004
 -2.179357863095788E-004
 -2.168047014639706E-004
 -2.044019453613265E-004
 -1.943629435139270E-004
 -2.048081858363950E-004
 -1.713568701066884E-004
 -1.841277093199454E-004
 -1.929728312885626E-004
 -1.989354892808883E-004
 -2.028522857202516E-004
 -2.053841767787997E-004
 -2.070450720837287E-004
 -2.082238608129853E-004
 -2.091766079261513E-004
 -2.100722149383682E-004
 -2.104456678190548E-004
 -2.039665474460562E-004
 -1.839406065855093E-004
 -1.914737658464587E-004
 -2.000320801431688E-004
 -1.728038584616499E-004
 -1.832843833827721E-004
 -1.898708571491195E-004
 -1.937164480754833E-004
 -1.957349385049424E-004
 -1.966410618372736E-004
 -1.969965420741666E-004
 -1.972580040430314E-004
 -1.978141310393967E-004
 -1.989362411174728E-004
 -2.006920754189430E-004
 -1.785204300117338E-004
 -1.683760111014156E-004
 -1.762247864213681E-004
 -1.828718653090399E-004
 -1.746424952151313E-004
 -1.817919824781777E-004
 -1.852921045730353E-004
 -1.863791218154228E-004
 -1.860104858515574E-004
 -1.849094590197977E-004
 -1.836303364145937E-004
 -1.826424745363665E-004
 -1.824257483362867E-004
 -1.834938977509343E-004
 -1.844189941901686E-004
 -1.515008448421543E-004
 -1.480675601030006E-004
 -1.529204727236989E-004
 -1.609193571773615E-004
 -1.768834720844446E-004
 -1.795315078473907E-004
 -1.790280663558530E-004
 -1.766750058041712E-004
 -1.734328162926261E-004
 -1.699640408533936E-004
 -1.667258103558176E-004
 -1.640885788502960E-004
 -1.624750977118910E-004
 -1.625945103725348E-004
 -1.615499289305506E-004
 -1.247822112607107E-004
 -1.219818497642218E-004
 -1.258936159572092E-004
 -1.336665315800790E-004
 -1.794801727729788E-004
 -1.762998644695163E-004
 -1.707785208184894E-004
 -1.642994886781617E-004
 -1.577698537414433E-004
 -1.516830144525907E-004
 -1.462767116587321E-004
 -1.416935913315173E-004
 -1.381169853987088E-004
 -1.360241270570575E-004
 -1.340732858621596E-004
 -1.008975258471580E-004
 -9.092981123038339E-005
 -9.383101539472472E-005
 -1.020559549666357E-004
 -1.823075361930719E-004
 -1.717034506527968E-004
 -1.600273621396132E-004
 -1.488103851212682E-004
 -1.387742285778878E-004
 -1.300452717240851E-004
 -1.224899379854889E-004
 -1.159258906726180E-004
 -1.101963519054404E-004
 -1.051082053127481E-004
 -1.009186749502271E-004
 -7.860152628465686E-005
 -5.403678207814176E-005
 -5.803683013381941E-005
 -6.550901369409349E-005
 -1.850723957131019E-004
 -1.648724607516667E-004
 -1.457773042342321E-004
 -1.295297878586928E-004
 -1.161898445778293E-004
 -1.051230412118902E-004
 -9.572749103719303E-005
 -8.747430372554804E-005
 -7.986872609550339E-005
 -7.240854272159324E-005
 -6.403317133027678E-005
 -5.142450391317023E-005
 -2.026361181808336E-005
 -1.727778380292106E-005
 -2.257722200454748E-005
 -1.869743074974400E-004
 -1.534580063902928E-004
 -1.261481370491743E-004
 -1.056924462816082E-004
 -8.983033161942250E-005
 -7.709968603930893E-005
 -6.644985189589840E-005
 -5.706559489554591E-005
 -4.822823193725388E-005
 -3.915825536518041E-005
 -2.897523533880557E-005
 -1.727826384807322E-005
  8.165628523942358E-006
  3.262488786120602E-005
  2.507723642260040E-005
 -1.823011064489654E-004
 -1.313535815341778E-004
 -9.944882769460388E-005
 -7.678747428507353E-005
 -5.974121496523010E-005
 -4.630709330636121E-005
 -3.518534340331186E-005
 -2.540132235058411E-005
 -1.611276585032707E-005
 -6.466943597606463E-006
  4.523930898211569E-006
  1.814187483285030E-005
  3.441828069855898E-005
  8.280530934615609E-005
  7.169198656582792E-005
SCALARS poroP double 
LOOKUP_TABLE default
  3.133780969953276E-006
  1.227421915485571E-006
  0.000000000000000E+000
  0.000000000000000E+000
  0.000000000000000E+000
  0.000000000000000E+000
  0.000000000000000E+000
  0.000000000000000E+000
  0.000000000000000E+000
  0.000000000000000E+000
  0.000000000000000E+000
  0.000000000000000E+000
  0.000000000000000E+000
  0.000000000000000E+000
  0.000000000000000E+000
  3.117150237134104E-006
  1.202845471894086E-006
  0.000000000000000E+000
  0.000000000000000E+000
  0.000000000000000E+000
  0.000000000000000E+000
  0.000000000000000E+000
  0.000000000000000E+000
  0.000000000000000E+000
  0.000000000000000E+000
  0.000000000000000E+000
  0.000000000000000E+000
  0.000000000000000E+000
  0.000000000000000E+000
  0.000000000000000E+000
  3.072840051508180E-006
  1.145515194396147E-006
  0.000000000000000E+000
  0.000000000000000E+000
  0.000000000000000E+000
  0.000000000000000E+000
  0.000000000000000E+000
  0.000000000000000E+000
  0.000000000000000E+000
  0.000000000000000E+000
  0.000000000000000E+000
  0.000000000000000E+000
  0.000000000000000E+000
  0.000000000000000E+000
  0.000000000000000E+000
  2.979809225312726E-006
  1.036707935909590E-006
  0.000000000000000E+000
  0.000000000000000E+000
  0.000000000000000E+000
  0.000000000000000E+000
  0.000000000000000E+000
  0.000000000000000E+000
  0.000000000000000E+000
  0.000000000000000E+000
  0.000000000000000E+000
  0.000000000000000E+000
  0.000000000000000E+000
  0.000000000000000E+000
  0.000000000000000E+000
  2.818995063537627E-006
  8.483864753710387E-007
  0.000000000000000E+000
  0.000000000000000E+000
  0.000000000000000E+000
  0.000000000000000E+000
  0.000000000000000E+000
  0.000000000000000E+000
  0.000000000000000E+000
  0.000000000000000E+000
  0.000000000000000E+000
  0.000000000000000E+000
  0.000000000000000E+000
  0.000000000000000E+000
  0.000000000000000E+000
  2.580224400906895E-006
  5.731778768098210E-007
  0.000000000000000E+000
  0.000000000000000E+000
  0.000000000000000E+000
  0.000000000000000E+000
  0.000000000000000E+000
  0.000000000000000E+000
  0.000000000000000E+000
  0.000000000000000E+000
  0.000000000000000E+000
  0.000000000000000E+000
  0.000000000000000E+000
  0.000000000000000E+000
  0.000000000000000E+000
  2.257579400884053E-006
  3.398473709363963E-007
  0.000000000000000E+000
  0.000000000000000E+000
  0.000000000000000E+000
  0.000000000000000E+000
  0.000000000000000E+000
  0.000000000000000E+000
  0.000000000000000E+000
  0.000000000000000E+000
  0.000000000000000E+000
  0.000000000000000E+000
  0.000000000000000E+000
  0.000000000000000E+000
  0.000000000000000E+000
  1.824858588107527E-006
  1.498593842769938E-007
  0.000000000000000E+000
  0.000000000000000E+000
  0.000000000000000E+000
  0.000000000000000E+000
  0.000000000000000E+000
  0.000000000000000E+000
  0.000000000000000E+000
  0.000000000000000E+000
  0.000000000000000E+000
  0.000000000000000E+000
  0.000000000000000E+000
  0.000000000000000E+000
  0.000000000000000E+000
  1.288400190617649E-006
  0.000000000000000E+000
  0.000000000000000E+000
  0.000000000000000E+000
  0.000000000000000E+000
  0.000000000000000E+000
  0.000000000000000E+000
  0.000000000000000E+000
  0.000000000000000E+000
  0.000000000000000E+000
  0.000000000000000E+000
  0.000000000000000E+000
  0.000000000000000E+000
  0.000000000000000E+000
  0.000000000000000E+000
  6.948483043344440E-007
  0.000000000000000E+000
  0.000000000000000E+000
  0.000000000000000E+000
  0.000000000000000E+000
  0.000000000000000E+000
  0.000000000000000E+000
  0.000000000000000E+000
  0.000000000000000E+000
  0.000000000000000E+000
  0.000000000000000E+000
  0.000000000000000E+000
  0.000000000000000E+000
  0.000000000000000E+000
  0.000000000000000E+000
  2.510946153582570E-007
  0.000000000000000E+000
  0.000000000000000E+000
  0.000000000000000E+000
  0.000000000000000E+000
  0.000000000000000E+000
  0.000000000000000E+000
  0.000000000000000E+000
  0.000000000000000E+000
  0.000000000000000E+000
  0.000000000000000E+000
  0.000000000000000E+000
  0.000000000000000E+000
  0.000000000000000E+000
  0.000000000000000E+000
  1.595951555941734E-008
  0.000000000000000E+000
  0.000000000000000E+000
  0.000000000000000E+000
  0.000000000000000E+000
  0.000000000000000E+000
  0.000000000000000E+000
  0.000000000000000E+000
  0.000000000000000E+000
  0.000000000000000E+000
  0.000000000000000E+000
  0.000000000000000E+000
  0.000000000000000E+000
  0.000000000000000E+000
  0.000000000000000E+000
  0.000000000000000E+000
  0.000000000000000E+000
  0.000000000000000E+000
  0.000000000000000E+000
  0.000000000000000E+000
  0.000000000000000E+000
  0.000000000000000E+000
  0.000000000000000E+000
  0.000000000000000E+000
  0.000000000000000E+000
  0.000000000000000E+000
  0.000000000000000E+000
  0.000000000000000E+000
  0.000000000000000E+000
  0.000000000000000E+000
  0.000000000000000E+000
  0.000000000000000E+000
  0.000000000000000E+000
  0.000000000000000E+000
  0.000000000000000E+000
  0.000000000000000E+000
  0.000000000000000E+000
  0.000000000000000E+000
  0.000000000000000E+000
  0.000000000000000E+000
  0.000000000000000E+000
  0.000000000000000E+000
  0.000000000000000E+000
  0.000000000000000E+000
  0.000000000000000E+000
  0.000000000000000E+000
  0.000000000000000E+000
  0.000000000000000E+000
  0.000000000000000E+000
  0.000000000000000E+000
  0.000000000000000E+000
  0.000000000000000E+000
  0.000000000000000E+000
  0.000000000000000E+000
  0.000000000000000E+000
  0.000000000000000E+000
  0.000000000000000E+000
  0.000000000000000E+000
  0.000000000000000E+000
  0.000000000000000E+000
  0.000000000000000E+000
  0.000000000000000E+000
  0.000000000000000E+000
  0.000000000000000E+000
  0.000000000000000E+000
  0.000000000000000E+000
  0.000000000000000E+000
  0.000000000000000E+000
  0.000000000000000E+000
  0.000000000000000E+000
  0.000000000000000E+000
  0.000000000000000E+000
  0.000000000000000E+000
  0.000000000000000E+000
  0.000000000000000E+000
  0.000000000000000E+000
  0.000000000000000E+000
  0.000000000000000E+000
  0.000000000000000E+000
  0.000000000000000E+000
  0.000000000000000E+000
  0.000000000000000E+000
  0.000000000000000E+000
  0.000000000000000E+000
  0.000000000000000E+000
  0.000000000000000E+000
  0.000000000000000E+000
  0.000000000000000E+000
  0.000000000000000E+000
  0.000000000000000E+000
  0.000000000000000E+000
  0.000000000000000E+000
  0.000000000000000E+000
  0.000000000000000E+000
  0.000000000000000E+000
  0.000000000000000E+000
  0.000000000000000E+000
  0.000000000000000E+000
  0.000000000000000E+000
  0.000000000000000E+000
  0.000000000000000E+000
  0.000000000000000E+000
  0.000000000000000E+000
  0.000000000000000E+000
  0.000000000000000E+000
  0.000000000000000E+000
  0.000000000000000E+000
  0.000000000000000E+000
  0.000000000000000E+000
  0.000000000000000E+000
  0.000000000000000E+000
  0.000000000000000E+000
  0.000000000000000E+000
  0.000000000000000E+000
  0.000000000000000E+000
  0.000000000000000E+000
  0.000000000000000E+000
  0.000000000000000E+000
  0.000000000000000E+000
  0.000000000000000E+000
  0.000000000000000E+000
  0.000000000000000E+000
  0.000000000000000E+000
  0.000000000000000E+000
  0.000000000000000E+000
  0.000000000000000E+000
  0.000000000000000E+000
  0.000000000000000E+000
  0.000000000000000E+000
  0.000000000000000E+000
  0.000000000000000E+000
  0.000000000000000E+000
  0.000000000000000E+000
  4.731633371541051E-008
  6.403754377797876E-007
  0.000000000000000E+000
  0.000000000000000E+000
  0.000000000000000E+000
  0.000000000000000E+000
  0.000000000000000E+000
  0.000000000000000E+000
  0.000000000000000E+000
  0.000000000000000E+000
  0.000000000000000E+000
  0.000000000000000E+000
  0.000000000000000E+000
  0.000000000000000E+000
  1.986449913972501E-007
  1.114544557236438E-006
  2.260723765570183E-006
  0.000000000000000E+000
  0.000000000000000E+000
  0.000000000000000E+000
  0.000000000000000E+000
  0.000000000000000E+000
  0.000000000000000E+000
  0.000000000000000E+000
  0.000000000000000E+000
  0.000000000000000E+000
  0.000000000000000E+000
  0.000000000000000E+000
  1.646360417572776E-007
  1.266429828798080E-006
  2.690799066361843E-006
  3.835477947040716E-006
  0.000000000000000E+000
  0.000000000000000E+000
  0.000000000000000E+000
  0.000000000000000E+000
  0.000000000000000E+000
  0.000000000000000E+000
  0.000000000000000E+000
  0.000000000000000E+000
  0.000000000000000E+000
  0.000000000000000E+000
  8.183678226269723E-009
  8.153511202059764E-007
  2.455155184380086E-006
  4.040913204308804E-006
  5.322969949393663E-006
  0.000000000000000E+000
  0.000000000000000E+000
  0.000000000000000E+000
  0.000000000000000E+000
  0.000000000000000E+000
  0.000000000000000E+000
  0.000000000000000E+000
  0.000000000000000E+000
  0.000000000000000E+000
  0.000000000000000E+000
  9.656656743367537E-008
  1.454890486664563E-006
  3.301109934952646E-006
  5.120044513182509E-006
  6.717491685162881E-006
  0.000000000000000E+000
  0.000000000000000E+000
  0.000000000000000E+000
  0.000000000000000E+000
  0.000000000000000E+000
  0.000000000000000E+000
  0.000000000000000E+000
  0.000000000000000E+000
  0.000000000000000E+000
  0.000000000000000E+000
  1.194346933151597E-007
  1.694394473345833E-006
  3.741023717214862E-006
  5.888426286226105E-006
  7.975224972560738E-006
  0.000000000000000E+000
  0.000000000000000E+000
  0.000000000000000E+000
  0.000000000000000E+000
  0.000000000000000E+000
  0.000000000000000E+000
  0.000000000000000E+000
  0.000000000000000E+000
  0.000000000000000E+000
  0.000000000000000E+000
  6.798091761463078E-008
  1.490782330972752E-006
  3.719594453940275E-006
  6.251588342016608E-006
  8.983389031523513E-006
  0.000000000000000E+000
  0.000000000000000E+000
  0.000000000000000E+000
  0.000000000000000E+000
  0.000000000000000E+000
  0.000000000000000E+000
  0.000000000000000E+000
  0.000000000000000E+000
  0.000000000000000E+000
  0.000000000000000E+000
  0.000000000000000E+000
  8.641429128207829E-007
  3.190303193485522E-006
  6.130015912861171E-006
  9.663566142939434E-006
  0.000000000000000E+000
  0.000000000000000E+000
  0.000000000000000E+000
  0.000000000000000E+000
  0.000000000000000E+000
  0.000000000000000E+000
  0.000000000000000E+000
  0.000000000000000E+000
  0.000000000000000E+000
  0.000000000000000E+000
  0.000000000000000E+000
  1.309804849996901E-007
  2.132478291635149E-006
  5.428865363718127E-006
  9.918037958792301E-006
  0.000000000000000E+000
  0.000000000000000E+000
  0.000000000000000E+000
  0.000000000000000E+000
  0.000000000000000E+000
  0.000000000000000E+000
  0.000000000000000E+000
  0.000000000000000E+000
  0.000000000000000E+000
  0.000000000000000E+000
  0.000000000000000E+000
  0.000000000000000E+000
  7.223044222788195E-007
  4.019160681862578E-006
  9.666781363686601E-006
  0.000000000000000E+000
  0.000000000000000E+000
  0.000000000000000E+000
  0.000000000000000E+000
  0.000000000000000E+000
  0.000000000000000E+000
  0.000000000000000E+000
  0.000000000000000E+000
  0.000000000000000E+000
  0.000000000000000E+000
  0.000000000000000E+000
  0.000000000000000E+000
  0.000000000000000E+000
  2.050045637792100E-006
  8.832075249720505E-006
SCALARS elementIsPlast double 
LOOKUP_TABLE default
   1.00000000000000     
   1.00000000000000     
  0.000000000000000E+000
  0.000000000000000E+000
  0.000000000000000E+000
  0.000000000000000E+000
  0.000000000000000E+000
  0.000000000000000E+000
  0.000000000000000E+000
  0.000000000000000E+000
  0.000000000000000E+000
  0.000000000000000E+000
  0.000000000000000E+000
  0.000000000000000E+000
  0.000000000000000E+000
   1.00000000000000     
   1.00000000000000     
  0.000000000000000E+000
  0.000000000000000E+000
  0.000000000000000E+000
  0.000000000000000E+000
  0.000000000000000E+000
  0.000000000000000E+000
  0.000000000000000E+000
  0.000000000000000E+000
  0.000000000000000E+000
  0.000000000000000E+000
  0.000000000000000E+000
  0.000000000000000E+000
  0.000000000000000E+000
   1.00000000000000     
   1.00000000000000     
  0.000000000000000E+000
  0.000000000000000E+000
  0.000000000000000E+000
  0.000000000000000E+000
  0.000000000000000E+000
  0.000000000000000E+000
  0.000000000000000E+000
  0.000000000000000E+000
  0.000000000000000E+000
  0.000000000000000E+000
  0.000000000000000E+000
  0.000000000000000E+000
  0.000000000000000E+000
   1.00000000000000     
   1.00000000000000     
  0.000000000000000E+000
  0.000000000000000E+000
  0.000000000000000E+000
  0.000000000000000E+000
  0.000000000000000E+000
  0.000000000000000E+000
  0.000000000000000E+000
  0.000000000000000E+000
  0.000000000000000E+000
  0.000000000000000E+000
  0.000000000000000E+000
  0.000000000000000E+000
  0.000000000000000E+000
   1.00000000000000     
   1.00000000000000     
  0.000000000000000E+000
  0.000000000000000E+000
  0.000000000000000E+000
  0.000000000000000E+000
  0.000000000000000E+000
  0.000000000000000E+000
  0.000000000000000E+000
  0.000000000000000E+000
  0.000000000000000E+000
  0.000000000000000E+000
  0.000000000000000E+000
  0.000000000000000E+000
  0.000000000000000E+000
   1.00000000000000     
   1.00000000000000     
  0.000000000000000E+000
  0.000000000000000E+000
  0.000000000000000E+000
  0.000000000000000E+000
  0.000000000000000E+000
  0.000000000000000E+000
  0.000000000000000E+000
  0.000000000000000E+000
  0.000000000000000E+000
  0.000000000000000E+000
  0.000000000000000E+000
  0.000000000000000E+000
  0.000000000000000E+000
   1.00000000000000     
   1.00000000000000     
  0.000000000000000E+000
  0.000000000000000E+000
  0.000000000000000E+000
  0.000000000000000E+000
  0.000000000000000E+000
  0.000000000000000E+000
  0.000000000000000E+000
  0.000000000000000E+000
  0.000000000000000E+000
  0.000000000000000E+000
  0.000000000000000E+000
  0.000000000000000E+000
  0.000000000000000E+000
   1.00000000000000     
   1.00000000000000     
  0.000000000000000E+000
  0.000000000000000E+000
  0.000000000000000E+000
  0.000000000000000E+000
  0.000000000000000E+000
  0.000000000000000E+000
  0.000000000000000E+000
  0.000000000000000E+000
  0.000000000000000E+000
  0.000000000000000E+000
  0.000000000000000E+000
  0.000000000000000E+000
  0.000000000000000E+000
   1.00000000000000     
   1.00000000000000     
  0.000000000000000E+000
  0.000000000000000E+000
  0.000000000000000E+000
  0.000000000000000E+000
  0.000000000000000E+000
  0.000000000000000E+000
  0.000000000000000E+000
  0.000000000000000E+000
  0.000000000000000E+000
  0.000000000000000E+000
  0.000000000000000E+000
  0.000000000000000E+000
  0.000000000000000E+000
   1.00000000000000     
  0.000000000000000E+000
  0.000000000000000E+000
  0.000000000000000E+000
  0.000000000000000E+000
  0.000000000000000E+000
  0.000000000000000E+000
  0.000000000000000E+000
  0.000000000000000E+000
  0.000000000000000E+000
  0.000000000000000E+000
  0.000000000000000E+000
  0.000000000000000E+000
  0.000000000000000E+000
  0.000000000000000E+000
   1.00000000000000     
  0.000000000000000E+000
  0.000000000000000E+000
  0.000000000000000E+000
  0.000000000000000E+000
  0.000000000000000E+000
  0.000000000000000E+000
  0.000000000000000E+000
  0.000000000000000E+000
  0.000000000000000E+000
  0.000000000000000E+000
  0.000000000000000E+000
  0.000000000000000E+000
  0.000000000000000E+000
  0.000000000000000E+000
   1.00000000000000     
  0.000000000000000E+000
  0.000000000000000E+000
  0.000000000000000E+000
  0.000000000000000E+000
  0.000000000000000E+000
  0.000000000000000E+000
  0.000000000000000E+000
  0.000000000000000E+000
  0.000000000000000E+000
  0.000000000000000E+000
  0.000000000000000E+000
  0.000000000000000E+000
  0.000000000000000E+000
  0.000000000000000E+000
  0.000000000000000E+000
  0.000000000000000E+000
  0.000000000000000E+000
  0.000000000000000E+000
  0.000000000000000E+000
  0.000000000000000E+000
  0.000000000000000E+000
  0.000000000000000E+000
  0.000000000000000E+000
  0.000000000000000E+000
  0.000000000000000E+000
  0.000000000000000E+000
  0.000000000000000E+000
  0.000000000000000E+000
  0.000000000000000E+000
  0.000000000000000E+000
  0.000000000000000E+000
  0.000000000000000E+000
  0.000000000000000E+000
  0.000000000000000E+000
  0.000000000000000E+000
  0.000000000000000E+000
  0.000000000000000E+000
  0.000000000000000E+000
  0.000000000000000E+000
  0.000000000000000E+000
  0.000000000000000E+000
  0.000000000000000E+000
  0.000000000000000E+000
  0.000000000000000E+000
  0.000000000000000E+000
  0.000000000000000E+000
  0.000000000000000E+000
  0.000000000000000E+000
  0.000000000000000E+000
  0.000000000000000E+000
  0.000000000000000E+000
  0.000000000000000E+000
  0.000000000000000E+000
  0.000000000000000E+000
  0.000000000000000E+000
  0.000000000000000E+000
  0.000000000000000E+000
  0.000000000000000E+000
  0.000000000000000E+000
  0.000000000000000E+000
  0.000000000000000E+000
  0.000000000000000E+000
  0.000000000000000E+000
  0.000000000000000E+000
  0.000000000000000E+000
  0.000000000000000E+000
  0.000000000000000E+000
  0.000000000000000E+000
  0.000000000000000E+000
  0.000000000000000E+000
  0.000000000000000E+000
  0.000000000000000E+000
  0.000000000000000E+000
  0.000000000000000E+000
  0.000000000000000E+000
  0.000000000000000E+000
  0.000000000000000E+000
  0.000000000000000E+000
  0.000000000000000E+000
  0.000000000000000E+000
  0.000000000000000E+000
  0.000000000000000E+000
  0.000000000000000E+000
  0.000000000000000E+000
  0.000000000000000E+000
  0.000000000000000E+000
  0.000000000000000E+000
  0.000000000000000E+000
  0.000000000000000E+000
  0.000000000000000E+000
  0.000000000000000E+000
  0.000000000000000E+000
  0.000000000000000E+000
  0.000000000000000E+000
  0.000000000000000E+000
  0.000000000000000E+000
  0.000000000000000E+000
  0.000000000000000E+000
  0.000000000000000E+000
  0.000000000000000E+000
  0.000000000000000E+000
  0.000000000000000E+000
  0.000000000000000E+000
  0.000000000000000E+000
  0.000000000000000E+000
  0.000000000000000E+000
  0.000000000000000E+000
  0.000000000000000E+000
  0.000000000000000E+000
  0.000000000000000E+000
  0.000000000000000E+000
  0.000000000000000E+000
  0.000000000000000E+000
  0.000000000000000E+000
  0.000000000000000E+000
  0.000000000000000E+000
  0.000000000000000E+000
  0.000000000000000E+000
  0.000000000000000E+000
  0.000000000000000E+000
  0.000000000000000E+000
  0.000000000000000E+000
  0.000000000000000E+000
  0.000000000000000E+000
  0.000000000000000E+000
  0.000000000000000E+000
  0.000000000000000E+000
  0.000000000000000E+000
  0.000000000000000E+000
  0.000000000000000E+000
  0.000000000000000E+000
  0.000000000000000E+000
   1.00000000000000     
   1.00000000000000     
  0.000000000000000E+000
  0.000000000000000E+000
  0.000000000000000E+000
  0.000000000000000E+000
  0.000000000000000E+000
  0.000000000000000E+000
  0.000000000000000E+000
  0.000000000000000E+000
  0.000000000000000E+000
  0.000000000000000E+000
  0.000000000000000E+000
  0.000000000000000E+000
   1.00000000000000     
   1.00000000000000     
   1.00000000000000     
  0.000000000000000E+000
  0.000000000000000E+000
  0.000000000000000E+000
  0.000000000000000E+000
  0.000000000000000E+000
  0.000000000000000E+000
  0.000000000000000E+000
  0.000000000000000E+000
  0.000000000000000E+000
  0.000000000000000E+000
  0.000000000000000E+000
   1.00000000000000     
   1.00000000000000     
   1.00000000000000     
   1.00000000000000     
  0.000000000000000E+000
  0.000000000000000E+000
  0.000000000000000E+000
  0.000000000000000E+000
  0.000000000000000E+000
  0.000000000000000E+000
  0.000000000000000E+000
  0.000000000000000E+000
  0.000000000000000E+000
  0.000000000000000E+000
   1.00000000000000     
   1.00000000000000     
   1.00000000000000     
   1.00000000000000     
   1.00000000000000     
  0.000000000000000E+000
  0.000000000000000E+000
  0.000000000000000E+000
  0.000000000000000E+000
  0.000000000000000E+000
  0.000000000000000E+000
  0.000000000000000E+000
  0.000000000000000E+000
  0.000000000000000E+000
  0.000000000000000E+000
   1.00000000000000     
   1.00000000000000     
   1.00000000000000     
   1.00000000000000     
   1.00000000000000     
  0.000000000000000E+000
  0.000000000000000E+000
  0.000000000000000E+000
  0.000000000000000E+000
  0.000000000000000E+000
  0.000000000000000E+000
  0.000000000000000E+000
  0.000000000000000E+000
  0.000000000000000E+000
  0.000000000000000E+000
   1.00000000000000     
   1.00000000000000     
   1.00000000000000     
   1.00000000000000     
   1.00000000000000     
  0.000000000000000E+000
  0.000000000000000E+000
  0.000000000000000E+000
  0.000000000000000E+000
  0.000000000000000E+000
  0.000000000000000E+000
  0.000000000000000E+000
  0.000000000000000E+000
  0.000000000000000E+000
  0.000000000000000E+000
   1.00000000000000     
   1.00000000000000     
   1.00000000000000     
   1.00000000000000     
   1.00000000000000     
  0.000000000000000E+000
  0.000000000000000E+000
  0.000000000000000E+000
  0.000000000000000E+000
  0.000000000000000E+000
  0.000000000000000E+000
  0.000000000000000E+000
  0.000000000000000E+000
  0.000000000000000E+000
  0.000000000000000E+000
  0.000000000000000E+000
   1.00000000000000     
   1.00000000000000     
   1.00000000000000     
   1.00000000000000     
  0.000000000000000E+000
  0.000000000000000E+000
  0.000000000000000E+000
  0.000000000000000E+000
  0.000000000000000E+000
  0.000000000000000E+000
  0.000000000000000E+000
  0.000000000000000E+000
  0.000000000000000E+000
  0.000000000000000E+000
  0.000000000000000E+000
   1.00000000000000     
   1.00000000000000     
   1.00000000000000     
   1.00000000000000     
  0.000000000000000E+000
  0.000000000000000E+000
  0.000000000000000E+000
  0.000000000000000E+000
  0.000000000000000E+000
  0.000000000000000E+000
  0.000000000000000E+000
  0.000000000000000E+000
  0.000000000000000E+000
  0.000000000000000E+000
  0.000000000000000E+000
  0.000000000000000E+000
   1.00000000000000     
   1.00000000000000     
   1.00000000000000     
  0.000000000000000E+000
  0.000000000000000E+000
  0.000000000000000E+000
  0.000000000000000E+000
  0.000000000000000E+000
  0.000000000000000E+000
  0.000000000000000E+000
  0.000000000000000E+000
  0.000000000000000E+000
  0.000000000000000E+000
  0.000000000000000E+000
  0.000000000000000E+000
  0.000000000000000E+000
   1.00000000000000     
   1.00000000000000     
SCALARS poroL double 
LOOKUP_TABLE default
  0.155997305542685     
  0.155995805114052     
  0.155993779014388     
  0.155990723486820     
  0.155987862420172     
  0.155985189926577     
  0.155982696623366     
  0.155980371538352     
  0.155978203327702     
  0.155976180940154     
  0.155974293963737     
  0.155972532828155     
  0.155970888949191     
  0.155969354848031     
  0.155967924259251     
  0.155996961220783     
  0.155995454248161     
  0.155993384108653     
  0.155990312752454     
  0.155987443568173     
  0.155984767805453     
  0.155982273943491     
  0.155979949736599     
  0.155977783163092     
  0.155975762795782     
  0.155973877981443     
  0.155972118977898     
  0.155970477068862     
  0.155968944670546     
  0.155967515433848     
  0.155996259782542     
  0.155994742528352     
  0.155992579385485     
  0.155989479966766     
  0.155986598022047     
  0.155983918106058     
  0.155981424499635     
  0.155979102859154     
  0.155976940116531     
  0.155974924209070     
  0.155973044056842     
  0.155971289598759     
  0.155969651866048     
  0.155968123070368     
  0.155966696697340     
  0.155995174934064     
  0.155993647608438     
  0.155991332989300     
  0.155988203290541     
  0.155985311716880     
  0.155982630951042     
  0.155980140590746     
  0.155977824630156     
  0.155975668926572     
  0.155973660712807     
  0.155971788376711     
  0.155970041429362     
  0.155968410546892     
  0.155966887645458     
  0.155965465967644     
  0.155993671632221     
  0.155992128168496     
  0.155989594275282     
  0.155986456095703     
  0.155983568226655     
  0.155980893356209     
  0.155978411691460     
  0.155976106221699     
  0.155973962097623     
  0.155971965910024     
  0.155970105479497     
  0.155968369812445     
  0.155966749143324     
  0.155965235010378     
  0.155963820340425     
  0.155991721618426     
  0.155990099194810     
  0.155987318928190     
  0.155984222512304     
  0.155981350147698     
  0.155978690743459     
  0.155976225190808     
  0.155973936773673     
  0.155971810286779     
  0.155969831797316     
  0.155967988544291     
  0.155966268964674     
  0.155964662771725     
  0.155963161049009     
  0.155961756340497     
  0.155989319995006     
  0.155987579161885     
  0.155984552986888     
  0.155981485282703     
  0.155978641262824     
  0.155976007423305     
  0.155973566988931     
  0.155971303862178     
  0.155969202720873     
  0.155967249146707     
  0.155965429750651     
  0.155963732320882     
  0.155962145965913     
  0.155960661239715     
  0.155959270242200     
  0.155986399895029     
  0.155984444256196     
  0.155981267845092     
  0.155978229541166     
  0.155975424527328     
  0.155972826790252     
  0.155970421785902     
  0.155968193897509     
  0.155966127620018     
  0.155964207934752     
  0.155962420701421     
  0.155960752946017     
  0.155959193077560     
  0.155957731045796     
  0.155956358451476     
  0.155982936842939     
  0.155980600193803     
  0.155977406799312     
  0.155974438418329     
  0.155971681225781     
  0.155969131031790     
  0.155966773231200     
  0.155964592476224     
  0.155962572644716     
  0.155960697824717     
  0.155958952908836     
  0.155957324010597     
  0.155955798736868     
  0.155954366363130     
  0.155953017943268     
  0.155978869045458     
  0.155976137008709     
  0.155972997932784     
  0.155970087972124     
  0.155967391152973     
  0.155964900751527     
  0.155962604090537     
  0.155960484775826     
  0.155958525411746     
  0.155956708724121     
  0.155955018351399     
  0.155953439326630     
  0.155951958363565     
  0.155950564012880     
  0.155949246745872     
  0.155974126612147     
  0.155971052489849     
  0.155968007930066     
  0.155965158024226     
  0.155962530459870     
  0.155960115102886     
  0.155957896548892     
  0.155955856108119     
  0.155953974139044     
  0.155952231450397     
  0.155950610113402     
  0.155949093939259     
  0.155947668710852     
  0.155946322256510     
  0.155945044454556     
  0.155968644509272     
  0.155965422456256     
  0.155962396775073     
  0.155959616257736     
  0.155957072606949     
  0.155954751932291     
  0.155952632915052     
  0.155950692716155     
  0.155948908484315     
  0.155947258541595     
  0.155945723122286     
  0.155944284764754     
  0.155942928410050     
  0.155941641287478     
  0.155940412734091     
  0.155962492630408     
  0.155959116729332     
  0.155956122432893     
  0.155953422713570     
  0.155950988131231     
  0.155948789014927     
  0.155946796730319     
  0.155944982901039     
  0.155943320626496     
  0.155941785256153     
  0.155940355007655     
  0.155939011263583     
  0.155937738457825     
  0.155936523609302     
  0.155935355720582     
  0.155955360479524     
  0.155952034089436     
  0.155949114093412     
  0.155946536522596     
  0.155944247500333     
  0.155942205921543     
  0.155940374390932     
  0.155938718473712     
  0.155937206630155     
  0.155935810822479     
  0.155934507144207     
  0.155933276149089     
  0.155932102555381     
  0.155930974114952     
  0.155929880130046     
  0.155947258451712     
  0.155944075377671     
  0.155941316178268     
  0.155938918402825     
  0.155936825345376     
  0.155934986500352     
  0.155933357088817     
  0.155931896473302     
  0.155930568102144     
  0.155929340056489     
  0.155928186030324     
  0.155927086241544     
  0.155926027146326     
  0.155924999513951     
  0.155923994616719     
  0.155938161378476     
  0.155935206055262     
  0.155932687254367     
  0.155930540106415     
  0.155928703539849     
  0.155927121487392     
  0.155925742804847     
  0.155924520986029     
  0.155923414092026     
  0.155922385486461     
  0.155921405491684     
  0.155920453780190     
  0.155919521216145     
  0.155918606160552     
  0.155917707360299     
  0.155928041396009     
  0.155925401197261     
  0.155923206007336     
  0.155921385684071     
  0.155919874268401     
  0.155918610543648     
  0.155917538060795     
  0.155916604801824     
  0.155915763023711     
  0.155914970012835     
  0.155914190308556     
  0.155913400360904     
  0.155912595593720     
  0.155911795395177     
  0.155911017975104     
  0.155916876183084     
  0.155914646401198     
  0.155912864096723     
  0.155911452849677     
  0.155910341390969     
  0.155909463802430     
  0.155908759124759     
  0.155908170491219     
  0.155907644233797     
  0.155907129604437     
  0.155906581417494     
  0.155905965713114     
  0.155905273233309     
  0.155904545612991     
  0.155903896934524     
  0.155904655032104     
  0.155902939974515     
  0.155901667023765     
  0.155900753069885     
  0.155900121619008     
  0.155899702801119     
  0.155899432505907     
  0.155899250501496     
  0.155899097934896     
  0.155898915312313     
  0.155898640864663     
  0.155898220544394     
  0.155897618490223     
  0.155896854569972     
  0.155896133764367     
  0.155891382971788     
  0.155890296037952     
  0.155889636123818     
  0.155889313139183     
  0.155889245692387     
  0.155889361210386     
  0.155889594668666     
  0.155889885678625     
  0.155890173225872     
  0.155890389678156     
  0.155890457521308     
  0.155890275173880     
  0.155889767824306     
  0.155888862177305     
  0.155887558967061     
  0.155877084028811     
  0.155876747537326     
  0.155876811275631     
  0.155877177479596     
  0.155877760167726     
  0.155878485710992     
  0.155879291454592     
  0.155880121865849     
  0.155880921914233     
  0.155881621845434     
  0.155882124787567     
  0.155882313318839     
  0.155881956283821     
  0.155880978627585     
  0.155879253991789     
  0.155861803713533     
  0.155862349269666     
  0.155863254145889     
  0.155864411254783     
  0.155865730023696     
  0.155867137669216     
  0.155868577854629     
  0.155870006895208     
  0.155871385747839     
  0.155872669565217     
  0.155873747798354     
  0.155874466106907     
  0.155874173450113     
  0.155873058991569     
  0.155871305801025     
  0.155845610896210     
  0.155847181193218     
  0.155849052281814     
  0.155851104556880     
  0.155853242420983     
  0.155855396083521     
  0.155857519882295     
  0.155859588545960     
  0.155861592761630     
  0.155863525880855     
  0.155865397843730     
  0.155866382743199     
  0.155866099602324     
  0.155865110504527     
  0.155863448877555     
  0.155828599437116     
  0.155831352705569     
  0.155834324752877     
  0.155837378153789     
  0.155840411811062     
  0.155843362071996     
  0.155846198771082     
  0.155848920345833     
  0.155851552258503     
  0.155854153877815     
  0.155856781116788     
  0.155857835103548     
  0.155857833041637     
  0.155857097795318     
  0.155855609946183     
  0.155810890379325     
  0.155815009375529     
  0.155819230747613     
  0.155823391534670     
  0.155827386323942     
  0.155831164070195     
  0.155834717192741     
  0.155838071401942     
  0.155841283432151     
  0.155844461422012     
  0.155847596143245     
  0.155848993371971     
  0.155849372392551     
  0.155848979552829     
  0.155847781812228     
  0.155792636552668     
  0.155798345412984     
  0.155803984009851     
  0.155809354302367     
  0.155814354645836     
  0.155818961889898     
  0.155823203722850     
  0.155827137904756     
  0.155830844065862     
  0.155834428274411     
  0.155837947504887     
  0.155839977445826     
  0.155840748693580     
  0.155840711970291     
  0.155839917925272     
  0.155774033758449     
  0.155781630524639     
  0.155788878808782     
  0.155795541616268     
  0.155801550930355     
  0.155806945953591     
  0.155811811924845     
  0.155816245249173     
  0.155820343926560     
  0.155824196978644     
  0.155827885297867     
  0.155830747053121     
  0.155832013975521     
  0.155832387189850     
  0.155832013464939     
  0.155755357007700     
  0.155765272986475     
  0.155774338496836     
  0.155782309952426     
  0.155789248754427     
  0.155795328152647     
  0.155800710867817     
  0.155805538077239     
  0.155809926548818     
  0.155813968545807     
  0.155817692015375     
  0.155821103669777     
  0.155823225086878     
  0.155824037062003     
  0.155824062241133     
  0.155737073855883     
  0.155750006094764     
  0.155760989196607     
  0.155770071491207     
  0.155777737723172     
  0.155784321313732     
  0.155790068146273     
  0.155795160875752     
  0.155799736520533     
  0.155803890970071     
  0.155807698111504     
  0.155811200223535     
  0.155814129661523     
  0.155815714611924     
  0.155816007916849     
  0.155720701852009     
  0.155737315232191     
  0.155749502384193     
  0.155759226838058     
  0.155767275837254     
  0.155774110245149     
  0.155780028866066     
  0.155785239461569     
  0.155789890229593     
  0.155794087480472     
  0.155797902758996     
  0.155801376335949     
  0.155804581085380     
  0.155806477031517     
  0.155807877285172     
