# vtk DataFile Version 3.0
vtk output
ASCII
DATASET UNSTRUCTURED_GRID
POINTS       496 double 
  0.00000000E+00  3.00000000E+02  0.00000000E+00
  0.00000000E+00  2.80000000E+02  0.00000000E+00
  0.00000000E+00  2.60000000E+02  0.00000000E+00
  0.00000000E+00  2.40000000E+02  0.00000000E+00
  0.00000000E+00  2.20000000E+02  0.00000000E+00
  0.00000000E+00  2.00000000E+02  0.00000000E+00
  0.00000000E+00  1.80000000E+02  0.00000000E+00
  0.00000000E+00  1.60000000E+02  0.00000000E+00
  0.00000000E+00  1.40000000E+02  0.00000000E+00
  0.00000000E+00  1.20000000E+02  0.00000000E+00
  0.00000000E+00  1.00000000E+02  0.00000000E+00
  0.00000000E+00  8.00000000E+01  0.00000000E+00
  0.00000000E+00  6.00000000E+01  0.00000000E+00
  0.00000000E+00  4.00000000E+01  0.00000000E+00
  0.00000000E+00  2.00000000E+01  0.00000000E+00
  0.00000000E+00  4.99600361E-14  0.00000000E+00
  2.00000000E+01  3.00000000E+02  0.00000000E+00
  2.00000000E+01  2.80000000E+02  0.00000000E+00
  2.00000000E+01  2.60000000E+02  0.00000000E+00
  2.00000000E+01  2.40000000E+02  0.00000000E+00
  2.00000000E+01  2.20000000E+02  0.00000000E+00
  2.00000000E+01  2.00000000E+02  0.00000000E+00
  2.00000000E+01  1.80000000E+02  0.00000000E+00
  2.00000000E+01  1.60000000E+02  0.00000000E+00
  2.00000000E+01  1.40000000E+02  0.00000000E+00
  2.00000000E+01  1.20000000E+02  0.00000000E+00
  2.00000000E+01  1.00000000E+02  0.00000000E+00
  2.00000000E+01  8.00000000E+01  0.00000000E+00
  2.00000000E+01  6.00000000E+01  0.00000000E+00
  2.00000000E+01  4.00000000E+01  0.00000000E+00
  2.00000000E+01  2.00000000E+01  0.00000000E+00
  2.00000000E+01  4.99600361E-14  0.00000000E+00
  4.00000000E+01  3.00000000E+02  0.00000000E+00
  4.00000000E+01  2.80000000E+02  0.00000000E+00
  4.00000000E+01  2.60000000E+02  0.00000000E+00
  4.00000000E+01  2.40000000E+02  0.00000000E+00
  4.00000000E+01  2.20000000E+02  0.00000000E+00
  4.00000000E+01  2.00000000E+02  0.00000000E+00
  4.00000000E+01  1.80000000E+02  0.00000000E+00
  4.00000000E+01  1.60000000E+02  0.00000000E+00
  4.00000000E+01  1.40000000E+02  0.00000000E+00
  4.00000000E+01  1.20000000E+02  0.00000000E+00
  4.00000000E+01  1.00000000E+02  0.00000000E+00
  4.00000000E+01  8.00000000E+01  0.00000000E+00
  4.00000000E+01  6.00000000E+01  0.00000000E+00
  4.00000000E+01  4.00000000E+01  0.00000000E+00
  4.00000000E+01  2.00000000E+01  0.00000000E+00
  4.00000000E+01  4.99600361E-14  0.00000000E+00
  6.00000000E+01  3.00000000E+02  0.00000000E+00
  6.00000000E+01  2.80000000E+02  0.00000000E+00
  6.00000000E+01  2.60000000E+02  0.00000000E+00
  6.00000000E+01  2.40000000E+02  0.00000000E+00
  6.00000000E+01  2.20000000E+02  0.00000000E+00
  6.00000000E+01  2.00000000E+02  0.00000000E+00
  6.00000000E+01  1.80000000E+02  0.00000000E+00
  6.00000000E+01  1.60000000E+02  0.00000000E+00
  6.00000000E+01  1.40000000E+02  0.00000000E+00
  6.00000000E+01  1.20000000E+02  0.00000000E+00
  6.00000000E+01  1.00000000E+02  0.00000000E+00
  6.00000000E+01  8.00000000E+01  0.00000000E+00
  6.00000000E+01  6.00000000E+01  0.00000000E+00
  6.00000000E+01  4.00000000E+01  0.00000000E+00
  6.00000000E+01  2.00000000E+01  0.00000000E+00
  6.00000000E+01  4.99600361E-14  0.00000000E+00
  8.00000000E+01  3.00000000E+02  0.00000000E+00
  8.00000000E+01  2.80000000E+02  0.00000000E+00
  8.00000000E+01  2.60000000E+02  0.00000000E+00
  8.00000000E+01  2.40000000E+02  0.00000000E+00
  8.00000000E+01  2.20000000E+02  0.00000000E+00
  8.00000000E+01  2.00000000E+02  0.00000000E+00
  8.00000000E+01  1.80000000E+02  0.00000000E+00
  8.00000000E+01  1.60000000E+02  0.00000000E+00
  8.00000000E+01  1.40000000E+02  0.00000000E+00
  8.00000000E+01  1.20000000E+02  0.00000000E+00
  8.00000000E+01  1.00000000E+02  0.00000000E+00
  8.00000000E+01  8.00000000E+01  0.00000000E+00
  8.00000000E+01  6.00000000E+01  0.00000000E+00
  8.00000000E+01  4.00000000E+01  0.00000000E+00
  8.00000000E+01  2.00000000E+01  0.00000000E+00
  8.00000000E+01  4.99600361E-14  0.00000000E+00
  1.00000000E+02  3.00000000E+02  0.00000000E+00
  1.00000000E+02  2.80000000E+02  0.00000000E+00
  1.00000000E+02  2.60000000E+02  0.00000000E+00
  1.00000000E+02  2.40000000E+02  0.00000000E+00
  1.00000000E+02  2.20000000E+02  0.00000000E+00
  1.00000000E+02  2.00000000E+02  0.00000000E+00
  1.00000000E+02  1.80000000E+02  0.00000000E+00
  1.00000000E+02  1.60000000E+02  0.00000000E+00
  1.00000000E+02  1.40000000E+02  0.00000000E+00
  1.00000000E+02  1.20000000E+02  0.00000000E+00
  1.00000000E+02  1.00000000E+02  0.00000000E+00
  1.00000000E+02  8.00000000E+01  0.00000000E+00
  1.00000000E+02  6.00000000E+01  0.00000000E+00
  1.00000000E+02  4.00000000E+01  0.00000000E+00
  1.00000000E+02  2.00000000E+01  0.00000000E+00
  1.00000000E+02  4.99600361E-14  0.00000000E+00
  1.20000000E+02  3.00000000E+02  0.00000000E+00
  1.20000000E+02  2.80000000E+02  0.00000000E+00
  1.20000000E+02  2.60000000E+02  0.00000000E+00
  1.20000000E+02  2.40000000E+02  0.00000000E+00
  1.20000000E+02  2.20000000E+02  0.00000000E+00
  1.20000000E+02  2.00000000E+02  0.00000000E+00
  1.20000000E+02  1.80000000E+02  0.00000000E+00
  1.20000000E+02  1.60000000E+02  0.00000000E+00
  1.20000000E+02  1.40000000E+02  0.00000000E+00
  1.20000000E+02  1.20000000E+02  0.00000000E+00
  1.20000000E+02  1.00000000E+02  0.00000000E+00
  1.20000000E+02  8.00000000E+01  0.00000000E+00
  1.20000000E+02  6.00000000E+01  0.00000000E+00
  1.20000000E+02  4.00000000E+01  0.00000000E+00
  1.20000000E+02  2.00000000E+01  0.00000000E+00
  1.20000000E+02  4.99600361E-14  0.00000000E+00
  1.40000000E+02  3.00000000E+02  0.00000000E+00
  1.40000000E+02  2.80000000E+02  0.00000000E+00
  1.40000000E+02  2.60000000E+02  0.00000000E+00
  1.40000000E+02  2.40000000E+02  0.00000000E+00
  1.40000000E+02  2.20000000E+02  0.00000000E+00
  1.40000000E+02  2.00000000E+02  0.00000000E+00
  1.40000000E+02  1.80000000E+02  0.00000000E+00
  1.40000000E+02  1.60000000E+02  0.00000000E+00
  1.40000000E+02  1.40000000E+02  0.00000000E+00
  1.40000000E+02  1.20000000E+02  0.00000000E+00
  1.40000000E+02  1.00000000E+02  0.00000000E+00
  1.40000000E+02  8.00000000E+01  0.00000000E+00
  1.40000000E+02  6.00000000E+01  0.00000000E+00
  1.40000000E+02  4.00000000E+01  0.00000000E+00
  1.40000000E+02  2.00000000E+01  0.00000000E+00
  1.40000000E+02  4.99600361E-14  0.00000000E+00
  1.60000000E+02  3.00000000E+02  0.00000000E+00
  1.60000000E+02  2.80000000E+02  0.00000000E+00
  1.60000000E+02  2.60000000E+02  0.00000000E+00
  1.60000000E+02  2.40000000E+02  0.00000000E+00
  1.60000000E+02  2.20000000E+02  0.00000000E+00
  1.60000000E+02  2.00000000E+02  0.00000000E+00
  1.60000000E+02  1.80000000E+02  0.00000000E+00
  1.60000000E+02  1.60000000E+02  0.00000000E+00
  1.60000000E+02  1.40000000E+02  0.00000000E+00
  1.60000000E+02  1.20000000E+02  0.00000000E+00
  1.60000000E+02  1.00000000E+02  0.00000000E+00
  1.60000000E+02  8.00000000E+01  0.00000000E+00
  1.60000000E+02  6.00000000E+01  0.00000000E+00
  1.60000000E+02  4.00000000E+01  0.00000000E+00
  1.60000000E+02  2.00000000E+01  0.00000000E+00
  1.60000000E+02  4.99600361E-14  0.00000000E+00
  1.80000000E+02  3.00000000E+02  0.00000000E+00
  1.80000000E+02  2.80000000E+02  0.00000000E+00
  1.80000000E+02  2.60000000E+02  0.00000000E+00
  1.80000000E+02  2.40000000E+02  0.00000000E+00
  1.80000000E+02  2.20000000E+02  0.00000000E+00
  1.80000000E+02  2.00000000E+02  0.00000000E+00
  1.80000000E+02  1.80000000E+02  0.00000000E+00
  1.80000000E+02  1.60000000E+02  0.00000000E+00
  1.80000000E+02  1.40000000E+02  0.00000000E+00
  1.80000000E+02  1.20000000E+02  0.00000000E+00
  1.80000000E+02  1.00000000E+02  0.00000000E+00
  1.80000000E+02  8.00000000E+01  0.00000000E+00
  1.80000000E+02  6.00000000E+01  0.00000000E+00
  1.80000000E+02  4.00000000E+01  0.00000000E+00
  1.80000000E+02  2.00000000E+01  0.00000000E+00
  1.80000000E+02  4.99600361E-14  0.00000000E+00
  2.00000000E+02  3.00000000E+02  0.00000000E+00
  2.00000000E+02  2.80000000E+02  0.00000000E+00
  2.00000000E+02  2.60000000E+02  0.00000000E+00
  2.00000000E+02  2.40000000E+02  0.00000000E+00
  2.00000000E+02  2.20000000E+02  0.00000000E+00
  2.00000000E+02  2.00000000E+02  0.00000000E+00
  2.00000000E+02  1.80000000E+02  0.00000000E+00
  2.00000000E+02  1.60000000E+02  0.00000000E+00
  2.00000000E+02  1.40000000E+02  0.00000000E+00
  2.00000000E+02  1.20000000E+02  0.00000000E+00
  2.00000000E+02  1.00000000E+02  0.00000000E+00
  2.00000000E+02  8.00000000E+01  0.00000000E+00
  2.00000000E+02  6.00000000E+01  0.00000000E+00
  2.00000000E+02  4.00000000E+01  0.00000000E+00
  2.00000000E+02  2.00000000E+01  0.00000000E+00
  2.00000000E+02  4.99600361E-14  0.00000000E+00
  2.20000000E+02  3.00000000E+02  0.00000000E+00
  2.20000000E+02  2.80000000E+02  0.00000000E+00
  2.20000000E+02  2.60000000E+02  0.00000000E+00
  2.20000000E+02  2.40000000E+02  0.00000000E+00
  2.20000000E+02  2.20000000E+02  0.00000000E+00
  2.20000000E+02  2.00000000E+02  0.00000000E+00
  2.20000000E+02  1.80000000E+02  0.00000000E+00
  2.20000000E+02  1.60000000E+02  0.00000000E+00
  2.20000000E+02  1.40000000E+02  0.00000000E+00
  2.20000000E+02  1.20000000E+02  0.00000000E+00
  2.20000000E+02  1.00000000E+02  0.00000000E+00
  2.20000000E+02  8.00000000E+01  0.00000000E+00
  2.20000000E+02  6.00000000E+01  0.00000000E+00
  2.20000000E+02  4.00000000E+01  0.00000000E+00
  2.20000000E+02  2.00000000E+01  0.00000000E+00
  2.20000000E+02  4.99600361E-14  0.00000000E+00
  2.40000000E+02  3.00000000E+02  0.00000000E+00
  2.40000000E+02  2.80000000E+02  0.00000000E+00
  2.40000000E+02  2.60000000E+02  0.00000000E+00
  2.40000000E+02  2.40000000E+02  0.00000000E+00
  2.40000000E+02  2.20000000E+02  0.00000000E+00
  2.40000000E+02  2.00000000E+02  0.00000000E+00
  2.40000000E+02  1.80000000E+02  0.00000000E+00
  2.40000000E+02  1.60000000E+02  0.00000000E+00
  2.40000000E+02  1.40000000E+02  0.00000000E+00
  2.40000000E+02  1.20000000E+02  0.00000000E+00
  2.40000000E+02  1.00000000E+02  0.00000000E+00
  2.40000000E+02  8.00000000E+01  0.00000000E+00
  2.40000000E+02  6.00000000E+01  0.00000000E+00
  2.40000000E+02  4.00000000E+01  0.00000000E+00
  2.40000000E+02  2.00000000E+01  0.00000000E+00
  2.40000000E+02  4.99600361E-14  0.00000000E+00
  2.60000000E+02  3.00000000E+02  0.00000000E+00
  2.60000000E+02  2.80000000E+02  0.00000000E+00
  2.60000000E+02  2.60000000E+02  0.00000000E+00
  2.60000000E+02  2.40000000E+02  0.00000000E+00
  2.60000000E+02  2.20000000E+02  0.00000000E+00
  2.60000000E+02  2.00000000E+02  0.00000000E+00
  2.60000000E+02  1.80000000E+02  0.00000000E+00
  2.60000000E+02  1.60000000E+02  0.00000000E+00
  2.60000000E+02  1.40000000E+02  0.00000000E+00
  2.60000000E+02  1.20000000E+02  0.00000000E+00
  2.60000000E+02  1.00000000E+02  0.00000000E+00
  2.60000000E+02  8.00000000E+01  0.00000000E+00
  2.60000000E+02  6.00000000E+01  0.00000000E+00
  2.60000000E+02  4.00000000E+01  0.00000000E+00
  2.60000000E+02  2.00000000E+01  0.00000000E+00
  2.60000000E+02  4.99600361E-14  0.00000000E+00
  2.80000000E+02  3.00000000E+02  0.00000000E+00
  2.80000000E+02  2.80000000E+02  0.00000000E+00
  2.80000000E+02  2.60000000E+02  0.00000000E+00
  2.80000000E+02  2.40000000E+02  0.00000000E+00
  2.80000000E+02  2.20000000E+02  0.00000000E+00
  2.80000000E+02  2.00000000E+02  0.00000000E+00
  2.80000000E+02  1.80000000E+02  0.00000000E+00
  2.80000000E+02  1.60000000E+02  0.00000000E+00
  2.80000000E+02  1.40000000E+02  0.00000000E+00
  2.80000000E+02  1.20000000E+02  0.00000000E+00
  2.80000000E+02  1.00000000E+02  0.00000000E+00
  2.80000000E+02  8.00000000E+01  0.00000000E+00
  2.80000000E+02  6.00000000E+01  0.00000000E+00
  2.80000000E+02  4.00000000E+01  0.00000000E+00
  2.80000000E+02  2.00000000E+01  0.00000000E+00
  2.80000000E+02  4.99600361E-14  0.00000000E+00
  3.00000000E+02  3.00000000E+02  0.00000000E+00
  3.00000000E+02  2.80000000E+02  0.00000000E+00
  3.00000000E+02  2.60000000E+02  0.00000000E+00
  3.00000000E+02  2.40000000E+02  0.00000000E+00
  3.00000000E+02  2.20000000E+02  0.00000000E+00
  3.00000000E+02  2.00000000E+02  0.00000000E+00
  3.00000000E+02  1.80000000E+02  0.00000000E+00
  3.00000000E+02  1.60000000E+02  0.00000000E+00
  3.00000000E+02  1.40000000E+02  0.00000000E+00
  3.00000000E+02  1.20000000E+02  0.00000000E+00
  3.00000000E+02  1.00000000E+02  0.00000000E+00
  3.00000000E+02  8.00000000E+01  0.00000000E+00
  3.00000000E+02  6.00000000E+01  0.00000000E+00
  3.00000000E+02  4.00000000E+01  0.00000000E+00
  3.00000000E+02  2.00000000E+01  0.00000000E+00
  3.00000000E+02  4.99600361E-14  0.00000000E+00
  3.20000000E+02  3.00000000E+02  0.00000000E+00
  3.20000000E+02  2.80000000E+02  0.00000000E+00
  3.20000000E+02  2.60000000E+02  0.00000000E+00
  3.20000000E+02  2.40000000E+02  0.00000000E+00
  3.20000000E+02  2.20000000E+02  0.00000000E+00
  3.20000000E+02  2.00000000E+02  0.00000000E+00
  3.20000000E+02  1.80000000E+02  0.00000000E+00
  3.20000000E+02  1.60000000E+02  0.00000000E+00
  3.20000000E+02  1.40000000E+02  0.00000000E+00
  3.20000000E+02  1.20000000E+02  0.00000000E+00
  3.20000000E+02  1.00000000E+02  0.00000000E+00
  3.20000000E+02  8.00000000E+01  0.00000000E+00
  3.20000000E+02  6.00000000E+01  0.00000000E+00
  3.20000000E+02  4.00000000E+01  0.00000000E+00
  3.20000000E+02  2.00000000E+01  0.00000000E+00
  3.20000000E+02  4.99600361E-14  0.00000000E+00
  3.40000000E+02  3.00000000E+02  0.00000000E+00
  3.40000000E+02  2.80000000E+02  0.00000000E+00
  3.40000000E+02  2.60000000E+02  0.00000000E+00
  3.40000000E+02  2.40000000E+02  0.00000000E+00
  3.40000000E+02  2.20000000E+02  0.00000000E+00
  3.40000000E+02  2.00000000E+02  0.00000000E+00
  3.40000000E+02  1.80000000E+02  0.00000000E+00
  3.40000000E+02  1.60000000E+02  0.00000000E+00
  3.40000000E+02  1.40000000E+02  0.00000000E+00
  3.40000000E+02  1.20000000E+02  0.00000000E+00
  3.40000000E+02  1.00000000E+02  0.00000000E+00
  3.40000000E+02  8.00000000E+01  0.00000000E+00
  3.40000000E+02  6.00000000E+01  0.00000000E+00
  3.40000000E+02  4.00000000E+01  0.00000000E+00
  3.40000000E+02  2.00000000E+01  0.00000000E+00
  3.40000000E+02  4.99600361E-14  0.00000000E+00
  3.60000000E+02  3.00000000E+02  0.00000000E+00
  3.60000000E+02  2.80000000E+02  0.00000000E+00
  3.60000000E+02  2.60000000E+02  0.00000000E+00
  3.60000000E+02  2.40000000E+02  0.00000000E+00
  3.60000000E+02  2.20000000E+02  0.00000000E+00
  3.60000000E+02  2.00000000E+02  0.00000000E+00
  3.60000000E+02  1.80000000E+02  0.00000000E+00
  3.60000000E+02  1.60000000E+02  0.00000000E+00
  3.60000000E+02  1.40000000E+02  0.00000000E+00
  3.60000000E+02  1.20000000E+02  0.00000000E+00
  3.60000000E+02  1.00000000E+02  0.00000000E+00
  3.60000000E+02  8.00000000E+01  0.00000000E+00
  3.60000000E+02  6.00000000E+01  0.00000000E+00
  3.60000000E+02  4.00000000E+01  0.00000000E+00
  3.60000000E+02  2.00000000E+01  0.00000000E+00
  3.60000000E+02  4.99600361E-14  0.00000000E+00
  3.80000000E+02  3.00000000E+02  0.00000000E+00
  3.80000000E+02  2.80000000E+02  0.00000000E+00
  3.80000000E+02  2.60000000E+02  0.00000000E+00
  3.80000000E+02  2.40000000E+02  0.00000000E+00
  3.80000000E+02  2.20000000E+02  0.00000000E+00
  3.80000000E+02  2.00000000E+02  0.00000000E+00
  3.80000000E+02  1.80000000E+02  0.00000000E+00
  3.80000000E+02  1.60000000E+02  0.00000000E+00
  3.80000000E+02  1.40000000E+02  0.00000000E+00
  3.80000000E+02  1.20000000E+02  0.00000000E+00
  3.80000000E+02  1.00000000E+02  0.00000000E+00
  3.80000000E+02  8.00000000E+01  0.00000000E+00
  3.80000000E+02  6.00000000E+01  0.00000000E+00
  3.80000000E+02  4.00000000E+01  0.00000000E+00
  3.80000000E+02  2.00000000E+01  0.00000000E+00
  3.80000000E+02  4.99600361E-14  0.00000000E+00
  4.00000000E+02  3.00000000E+02  0.00000000E+00
  4.00000000E+02  2.80000000E+02  0.00000000E+00
  4.00000000E+02  2.60000000E+02  0.00000000E+00
  4.00000000E+02  2.40000000E+02  0.00000000E+00
  4.00000000E+02  2.20000000E+02  0.00000000E+00
  4.00000000E+02  2.00000000E+02  0.00000000E+00
  4.00000000E+02  1.80000000E+02  0.00000000E+00
  4.00000000E+02  1.60000000E+02  0.00000000E+00
  4.00000000E+02  1.40000000E+02  0.00000000E+00
  4.00000000E+02  1.20000000E+02  0.00000000E+00
  4.00000000E+02  1.00000000E+02  0.00000000E+00
  4.00000000E+02  8.00000000E+01  0.00000000E+00
  4.00000000E+02  6.00000000E+01  0.00000000E+00
  4.00000000E+02  4.00000000E+01  0.00000000E+00
  4.00000000E+02  2.00000000E+01  0.00000000E+00
  4.00000000E+02  4.99600361E-14  0.00000000E+00
  4.20000000E+02  3.00000000E+02  0.00000000E+00
  4.20000000E+02  2.80000000E+02  0.00000000E+00
  4.20000000E+02  2.60000000E+02  0.00000000E+00
  4.20000000E+02  2.40000000E+02  0.00000000E+00
  4.20000000E+02  2.20000000E+02  0.00000000E+00
  4.20000000E+02  2.00000000E+02  0.00000000E+00
  4.20000000E+02  1.80000000E+02  0.00000000E+00
  4.20000000E+02  1.60000000E+02  0.00000000E+00
  4.20000000E+02  1.40000000E+02  0.00000000E+00
  4.20000000E+02  1.20000000E+02  0.00000000E+00
  4.20000000E+02  1.00000000E+02  0.00000000E+00
  4.20000000E+02  8.00000000E+01  0.00000000E+00
  4.20000000E+02  6.00000000E+01  0.00000000E+00
  4.20000000E+02  4.00000000E+01  0.00000000E+00
  4.20000000E+02  2.00000000E+01  0.00000000E+00
  4.20000000E+02  4.99600361E-14  0.00000000E+00
  4.40000000E+02  3.00000000E+02  0.00000000E+00
  4.40000000E+02  2.80000000E+02  0.00000000E+00
  4.40000000E+02  2.60000000E+02  0.00000000E+00
  4.40000000E+02  2.40000000E+02  0.00000000E+00
  4.40000000E+02  2.20000000E+02  0.00000000E+00
  4.40000000E+02  2.00000000E+02  0.00000000E+00
  4.40000000E+02  1.80000000E+02  0.00000000E+00
  4.40000000E+02  1.60000000E+02  0.00000000E+00
  4.40000000E+02  1.40000000E+02  0.00000000E+00
  4.40000000E+02  1.20000000E+02  0.00000000E+00
  4.40000000E+02  1.00000000E+02  0.00000000E+00
  4.40000000E+02  8.00000000E+01  0.00000000E+00
  4.40000000E+02  6.00000000E+01  0.00000000E+00
  4.40000000E+02  4.00000000E+01  0.00000000E+00
  4.40000000E+02  2.00000000E+01  0.00000000E+00
  4.40000000E+02  4.99600361E-14  0.00000000E+00
  4.60000000E+02  3.00000000E+02  0.00000000E+00
  4.60000000E+02  2.80000000E+02  0.00000000E+00
  4.60000000E+02  2.60000000E+02  0.00000000E+00
  4.60000000E+02  2.40000000E+02  0.00000000E+00
  4.60000000E+02  2.20000000E+02  0.00000000E+00
  4.60000000E+02  2.00000000E+02  0.00000000E+00
  4.60000000E+02  1.80000000E+02  0.00000000E+00
  4.60000000E+02  1.60000000E+02  0.00000000E+00
  4.60000000E+02  1.40000000E+02  0.00000000E+00
  4.60000000E+02  1.20000000E+02  0.00000000E+00
  4.60000000E+02  1.00000000E+02  0.00000000E+00
  4.60000000E+02  8.00000000E+01  0.00000000E+00
  4.60000000E+02  6.00000000E+01  0.00000000E+00
  4.60000000E+02  4.00000000E+01  0.00000000E+00
  4.60000000E+02  2.00000000E+01  0.00000000E+00
  4.60000000E+02  4.99600361E-14  0.00000000E+00
  4.80000000E+02  3.00000000E+02  0.00000000E+00
  4.80000000E+02  2.80000000E+02  0.00000000E+00
  4.80000000E+02  2.60000000E+02  0.00000000E+00
  4.80000000E+02  2.40000000E+02  0.00000000E+00
  4.80000000E+02  2.20000000E+02  0.00000000E+00
  4.80000000E+02  2.00000000E+02  0.00000000E+00
  4.80000000E+02  1.80000000E+02  0.00000000E+00
  4.80000000E+02  1.60000000E+02  0.00000000E+00
  4.80000000E+02  1.40000000E+02  0.00000000E+00
  4.80000000E+02  1.20000000E+02  0.00000000E+00
  4.80000000E+02  1.00000000E+02  0.00000000E+00
  4.80000000E+02  8.00000000E+01  0.00000000E+00
  4.80000000E+02  6.00000000E+01  0.00000000E+00
  4.80000000E+02  4.00000000E+01  0.00000000E+00
  4.80000000E+02  2.00000000E+01  0.00000000E+00
  4.80000000E+02  4.99600361E-14  0.00000000E+00
  5.00000000E+02  3.00000000E+02  0.00000000E+00
  5.00000000E+02  2.80000000E+02  0.00000000E+00
  5.00000000E+02  2.60000000E+02  0.00000000E+00
  5.00000000E+02  2.40000000E+02  0.00000000E+00
  5.00000000E+02  2.20000000E+02  0.00000000E+00
  5.00000000E+02  2.00000000E+02  0.00000000E+00
  5.00000000E+02  1.80000000E+02  0.00000000E+00
  5.00000000E+02  1.60000000E+02  0.00000000E+00
  5.00000000E+02  1.40000000E+02  0.00000000E+00
  5.00000000E+02  1.20000000E+02  0.00000000E+00
  5.00000000E+02  1.00000000E+02  0.00000000E+00
  5.00000000E+02  8.00000000E+01  0.00000000E+00
  5.00000000E+02  6.00000000E+01  0.00000000E+00
  5.00000000E+02  4.00000000E+01  0.00000000E+00
  5.00000000E+02  2.00000000E+01  0.00000000E+00
  5.00000000E+02  4.99600361E-14  0.00000000E+00
  5.20000000E+02  3.00000000E+02  0.00000000E+00
  5.20000000E+02  2.80000000E+02  0.00000000E+00
  5.20000000E+02  2.60000000E+02  0.00000000E+00
  5.20000000E+02  2.40000000E+02  0.00000000E+00
  5.20000000E+02  2.20000000E+02  0.00000000E+00
  5.20000000E+02  2.00000000E+02  0.00000000E+00
  5.20000000E+02  1.80000000E+02  0.00000000E+00
  5.20000000E+02  1.60000000E+02  0.00000000E+00
  5.20000000E+02  1.40000000E+02  0.00000000E+00
  5.20000000E+02  1.20000000E+02  0.00000000E+00
  5.20000000E+02  1.00000000E+02  0.00000000E+00
  5.20000000E+02  8.00000000E+01  0.00000000E+00
  5.20000000E+02  6.00000000E+01  0.00000000E+00
  5.20000000E+02  4.00000000E+01  0.00000000E+00
  5.20000000E+02  2.00000000E+01  0.00000000E+00
  5.20000000E+02  4.99600361E-14  0.00000000E+00
  5.40000000E+02  3.00000000E+02  0.00000000E+00
  5.40000000E+02  2.80000000E+02  0.00000000E+00
  5.40000000E+02  2.60000000E+02  0.00000000E+00
  5.40000000E+02  2.40000000E+02  0.00000000E+00
  5.40000000E+02  2.20000000E+02  0.00000000E+00
  5.40000000E+02  2.00000000E+02  0.00000000E+00
  5.40000000E+02  1.80000000E+02  0.00000000E+00
  5.40000000E+02  1.60000000E+02  0.00000000E+00
  5.40000000E+02  1.40000000E+02  0.00000000E+00
  5.40000000E+02  1.20000000E+02  0.00000000E+00
  5.40000000E+02  1.00000000E+02  0.00000000E+00
  5.40000000E+02  8.00000000E+01  0.00000000E+00
  5.40000000E+02  6.00000000E+01  0.00000000E+00
  5.40000000E+02  4.00000000E+01  0.00000000E+00
  5.40000000E+02  2.00000000E+01  0.00000000E+00
  5.40000000E+02  4.99600361E-14  0.00000000E+00
  5.60000000E+02  3.00000000E+02  0.00000000E+00
  5.60000000E+02  2.80000000E+02  0.00000000E+00
  5.60000000E+02  2.60000000E+02  0.00000000E+00
  5.60000000E+02  2.40000000E+02  0.00000000E+00
  5.60000000E+02  2.20000000E+02  0.00000000E+00
  5.60000000E+02  2.00000000E+02  0.00000000E+00
  5.60000000E+02  1.80000000E+02  0.00000000E+00
  5.60000000E+02  1.60000000E+02  0.00000000E+00
  5.60000000E+02  1.40000000E+02  0.00000000E+00
  5.60000000E+02  1.20000000E+02  0.00000000E+00
  5.60000000E+02  1.00000000E+02  0.00000000E+00
  5.60000000E+02  8.00000000E+01  0.00000000E+00
  5.60000000E+02  6.00000000E+01  0.00000000E+00
  5.60000000E+02  4.00000000E+01  0.00000000E+00
  5.60000000E+02  2.00000000E+01  0.00000000E+00
  5.60000000E+02  4.99600361E-14  0.00000000E+00
  5.80000000E+02  3.00000000E+02  0.00000000E+00
  5.80000000E+02  2.80000000E+02  0.00000000E+00
  5.80000000E+02  2.60000000E+02  0.00000000E+00
  5.80000000E+02  2.40000000E+02  0.00000000E+00
  5.80000000E+02  2.20000000E+02  0.00000000E+00
  5.80000000E+02  2.00000000E+02  0.00000000E+00
  5.80000000E+02  1.80000000E+02  0.00000000E+00
  5.80000000E+02  1.60000000E+02  0.00000000E+00
  5.80000000E+02  1.40000000E+02  0.00000000E+00
  5.80000000E+02  1.20000000E+02  0.00000000E+00
  5.80000000E+02  1.00000000E+02  0.00000000E+00
  5.80000000E+02  8.00000000E+01  0.00000000E+00
  5.80000000E+02  6.00000000E+01  0.00000000E+00
  5.80000000E+02  4.00000000E+01  0.00000000E+00
  5.80000000E+02  2.00000000E+01  0.00000000E+00
  5.80000000E+02  4.99600361E-14  0.00000000E+00
  6.00000000E+02  3.00000000E+02  0.00000000E+00
  6.00000000E+02  2.80000000E+02  0.00000000E+00
  6.00000000E+02  2.60000000E+02  0.00000000E+00
  6.00000000E+02  2.40000000E+02  0.00000000E+00
  6.00000000E+02  2.20000000E+02  0.00000000E+00
  6.00000000E+02  2.00000000E+02  0.00000000E+00
  6.00000000E+02  1.80000000E+02  0.00000000E+00
  6.00000000E+02  1.60000000E+02  0.00000000E+00
  6.00000000E+02  1.40000000E+02  0.00000000E+00
  6.00000000E+02  1.20000000E+02  0.00000000E+00
  6.00000000E+02  1.00000000E+02  0.00000000E+00
  6.00000000E+02  8.00000000E+01  0.00000000E+00
  6.00000000E+02  6.00000000E+01  0.00000000E+00
  6.00000000E+02  4.00000000E+01  0.00000000E+00
  6.00000000E+02  2.00000000E+01  0.00000000E+00
  6.00000000E+02  4.99600361E-14  0.00000000E+00
CELLS       450      2250
         4           0           1          17          16
         4           1           2          18          17
         4           2           3          19          18
         4           3           4          20          19
         4           4           5          21          20
         4           5           6          22          21
         4           6           7          23          22
         4           7           8          24          23
         4           8           9          25          24
         4           9          10          26          25
         4          10          11          27          26
         4          11          12          28          27
         4          12          13          29          28
         4          13          14          30          29
         4          14          15          31          30
         4          16          17          33          32
         4          17          18          34          33
         4          18          19          35          34
         4          19          20          36          35
         4          20          21          37          36
         4          21          22          38          37
         4          22          23          39          38
         4          23          24          40          39
         4          24          25          41          40
         4          25          26          42          41
         4          26          27          43          42
         4          27          28          44          43
         4          28          29          45          44
         4          29          30          46          45
         4          30          31          47          46
         4          32          33          49          48
         4          33          34          50          49
         4          34          35          51          50
         4          35          36          52          51
         4          36          37          53          52
         4          37          38          54          53
         4          38          39          55          54
         4          39          40          56          55
         4          40          41          57          56
         4          41          42          58          57
         4          42          43          59          58
         4          43          44          60          59
         4          44          45          61          60
         4          45          46          62          61
         4          46          47          63          62
         4          48          49          65          64
         4          49          50          66          65
         4          50          51          67          66
         4          51          52          68          67
         4          52          53          69          68
         4          53          54          70          69
         4          54          55          71          70
         4          55          56          72          71
         4          56          57          73          72
         4          57          58          74          73
         4          58          59          75          74
         4          59          60          76          75
         4          60          61          77          76
         4          61          62          78          77
         4          62          63          79          78
         4          64          65          81          80
         4          65          66          82          81
         4          66          67          83          82
         4          67          68          84          83
         4          68          69          85          84
         4          69          70          86          85
         4          70          71          87          86
         4          71          72          88          87
         4          72          73          89          88
         4          73          74          90          89
         4          74          75          91          90
         4          75          76          92          91
         4          76          77          93          92
         4          77          78          94          93
         4          78          79          95          94
         4          80          81          97          96
         4          81          82          98          97
         4          82          83          99          98
         4          83          84         100          99
         4          84          85         101         100
         4          85          86         102         101
         4          86          87         103         102
         4          87          88         104         103
         4          88          89         105         104
         4          89          90         106         105
         4          90          91         107         106
         4          91          92         108         107
         4          92          93         109         108
         4          93          94         110         109
         4          94          95         111         110
         4          96          97         113         112
         4          97          98         114         113
         4          98          99         115         114
         4          99         100         116         115
         4         100         101         117         116
         4         101         102         118         117
         4         102         103         119         118
         4         103         104         120         119
         4         104         105         121         120
         4         105         106         122         121
         4         106         107         123         122
         4         107         108         124         123
         4         108         109         125         124
         4         109         110         126         125
         4         110         111         127         126
         4         112         113         129         128
         4         113         114         130         129
         4         114         115         131         130
         4         115         116         132         131
         4         116         117         133         132
         4         117         118         134         133
         4         118         119         135         134
         4         119         120         136         135
         4         120         121         137         136
         4         121         122         138         137
         4         122         123         139         138
         4         123         124         140         139
         4         124         125         141         140
         4         125         126         142         141
         4         126         127         143         142
         4         128         129         145         144
         4         129         130         146         145
         4         130         131         147         146
         4         131         132         148         147
         4         132         133         149         148
         4         133         134         150         149
         4         134         135         151         150
         4         135         136         152         151
         4         136         137         153         152
         4         137         138         154         153
         4         138         139         155         154
         4         139         140         156         155
         4         140         141         157         156
         4         141         142         158         157
         4         142         143         159         158
         4         144         145         161         160
         4         145         146         162         161
         4         146         147         163         162
         4         147         148         164         163
         4         148         149         165         164
         4         149         150         166         165
         4         150         151         167         166
         4         151         152         168         167
         4         152         153         169         168
         4         153         154         170         169
         4         154         155         171         170
         4         155         156         172         171
         4         156         157         173         172
         4         157         158         174         173
         4         158         159         175         174
         4         160         161         177         176
         4         161         162         178         177
         4         162         163         179         178
         4         163         164         180         179
         4         164         165         181         180
         4         165         166         182         181
         4         166         167         183         182
         4         167         168         184         183
         4         168         169         185         184
         4         169         170         186         185
         4         170         171         187         186
         4         171         172         188         187
         4         172         173         189         188
         4         173         174         190         189
         4         174         175         191         190
         4         176         177         193         192
         4         177         178         194         193
         4         178         179         195         194
         4         179         180         196         195
         4         180         181         197         196
         4         181         182         198         197
         4         182         183         199         198
         4         183         184         200         199
         4         184         185         201         200
         4         185         186         202         201
         4         186         187         203         202
         4         187         188         204         203
         4         188         189         205         204
         4         189         190         206         205
         4         190         191         207         206
         4         192         193         209         208
         4         193         194         210         209
         4         194         195         211         210
         4         195         196         212         211
         4         196         197         213         212
         4         197         198         214         213
         4         198         199         215         214
         4         199         200         216         215
         4         200         201         217         216
         4         201         202         218         217
         4         202         203         219         218
         4         203         204         220         219
         4         204         205         221         220
         4         205         206         222         221
         4         206         207         223         222
         4         208         209         225         224
         4         209         210         226         225
         4         210         211         227         226
         4         211         212         228         227
         4         212         213         229         228
         4         213         214         230         229
         4         214         215         231         230
         4         215         216         232         231
         4         216         217         233         232
         4         217         218         234         233
         4         218         219         235         234
         4         219         220         236         235
         4         220         221         237         236
         4         221         222         238         237
         4         222         223         239         238
         4         224         225         241         240
         4         225         226         242         241
         4         226         227         243         242
         4         227         228         244         243
         4         228         229         245         244
         4         229         230         246         245
         4         230         231         247         246
         4         231         232         248         247
         4         232         233         249         248
         4         233         234         250         249
         4         234         235         251         250
         4         235         236         252         251
         4         236         237         253         252
         4         237         238         254         253
         4         238         239         255         254
         4         240         241         257         256
         4         241         242         258         257
         4         242         243         259         258
         4         243         244         260         259
         4         244         245         261         260
         4         245         246         262         261
         4         246         247         263         262
         4         247         248         264         263
         4         248         249         265         264
         4         249         250         266         265
         4         250         251         267         266
         4         251         252         268         267
         4         252         253         269         268
         4         253         254         270         269
         4         254         255         271         270
         4         256         257         273         272
         4         257         258         274         273
         4         258         259         275         274
         4         259         260         276         275
         4         260         261         277         276
         4         261         262         278         277
         4         262         263         279         278
         4         263         264         280         279
         4         264         265         281         280
         4         265         266         282         281
         4         266         267         283         282
         4         267         268         284         283
         4         268         269         285         284
         4         269         270         286         285
         4         270         271         287         286
         4         272         273         289         288
         4         273         274         290         289
         4         274         275         291         290
         4         275         276         292         291
         4         276         277         293         292
         4         277         278         294         293
         4         278         279         295         294
         4         279         280         296         295
         4         280         281         297         296
         4         281         282         298         297
         4         282         283         299         298
         4         283         284         300         299
         4         284         285         301         300
         4         285         286         302         301
         4         286         287         303         302
         4         288         289         305         304
         4         289         290         306         305
         4         290         291         307         306
         4         291         292         308         307
         4         292         293         309         308
         4         293         294         310         309
         4         294         295         311         310
         4         295         296         312         311
         4         296         297         313         312
         4         297         298         314         313
         4         298         299         315         314
         4         299         300         316         315
         4         300         301         317         316
         4         301         302         318         317
         4         302         303         319         318
         4         304         305         321         320
         4         305         306         322         321
         4         306         307         323         322
         4         307         308         324         323
         4         308         309         325         324
         4         309         310         326         325
         4         310         311         327         326
         4         311         312         328         327
         4         312         313         329         328
         4         313         314         330         329
         4         314         315         331         330
         4         315         316         332         331
         4         316         317         333         332
         4         317         318         334         333
         4         318         319         335         334
         4         320         321         337         336
         4         321         322         338         337
         4         322         323         339         338
         4         323         324         340         339
         4         324         325         341         340
         4         325         326         342         341
         4         326         327         343         342
         4         327         328         344         343
         4         328         329         345         344
         4         329         330         346         345
         4         330         331         347         346
         4         331         332         348         347
         4         332         333         349         348
         4         333         334         350         349
         4         334         335         351         350
         4         336         337         353         352
         4         337         338         354         353
         4         338         339         355         354
         4         339         340         356         355
         4         340         341         357         356
         4         341         342         358         357
         4         342         343         359         358
         4         343         344         360         359
         4         344         345         361         360
         4         345         346         362         361
         4         346         347         363         362
         4         347         348         364         363
         4         348         349         365         364
         4         349         350         366         365
         4         350         351         367         366
         4         352         353         369         368
         4         353         354         370         369
         4         354         355         371         370
         4         355         356         372         371
         4         356         357         373         372
         4         357         358         374         373
         4         358         359         375         374
         4         359         360         376         375
         4         360         361         377         376
         4         361         362         378         377
         4         362         363         379         378
         4         363         364         380         379
         4         364         365         381         380
         4         365         366         382         381
         4         366         367         383         382
         4         368         369         385         384
         4         369         370         386         385
         4         370         371         387         386
         4         371         372         388         387
         4         372         373         389         388
         4         373         374         390         389
         4         374         375         391         390
         4         375         376         392         391
         4         376         377         393         392
         4         377         378         394         393
         4         378         379         395         394
         4         379         380         396         395
         4         380         381         397         396
         4         381         382         398         397
         4         382         383         399         398
         4         384         385         401         400
         4         385         386         402         401
         4         386         387         403         402
         4         387         388         404         403
         4         388         389         405         404
         4         389         390         406         405
         4         390         391         407         406
         4         391         392         408         407
         4         392         393         409         408
         4         393         394         410         409
         4         394         395         411         410
         4         395         396         412         411
         4         396         397         413         412
         4         397         398         414         413
         4         398         399         415         414
         4         400         401         417         416
         4         401         402         418         417
         4         402         403         419         418
         4         403         404         420         419
         4         404         405         421         420
         4         405         406         422         421
         4         406         407         423         422
         4         407         408         424         423
         4         408         409         425         424
         4         409         410         426         425
         4         410         411         427         426
         4         411         412         428         427
         4         412         413         429         428
         4         413         414         430         429
         4         414         415         431         430
         4         416         417         433         432
         4         417         418         434         433
         4         418         419         435         434
         4         419         420         436         435
         4         420         421         437         436
         4         421         422         438         437
         4         422         423         439         438
         4         423         424         440         439
         4         424         425         441         440
         4         425         426         442         441
         4         426         427         443         442
         4         427         428         444         443
         4         428         429         445         444
         4         429         430         446         445
         4         430         431         447         446
         4         432         433         449         448
         4         433         434         450         449
         4         434         435         451         450
         4         435         436         452         451
         4         436         437         453         452
         4         437         438         454         453
         4         438         439         455         454
         4         439         440         456         455
         4         440         441         457         456
         4         441         442         458         457
         4         442         443         459         458
         4         443         444         460         459
         4         444         445         461         460
         4         445         446         462         461
         4         446         447         463         462
         4         448         449         465         464
         4         449         450         466         465
         4         450         451         467         466
         4         451         452         468         467
         4         452         453         469         468
         4         453         454         470         469
         4         454         455         471         470
         4         455         456         472         471
         4         456         457         473         472
         4         457         458         474         473
         4         458         459         475         474
         4         459         460         476         475
         4         460         461         477         476
         4         461         462         478         477
         4         462         463         479         478
         4         464         465         481         480
         4         465         466         482         481
         4         466         467         483         482
         4         467         468         484         483
         4         468         469         485         484
         4         469         470         486         485
         4         470         471         487         486
         4         471         472         488         487
         4         472         473         489         488
         4         473         474         490         489
         4         474         475         491         490
         4         475         476         492         491
         4         476         477         493         492
         4         477         478         494         493
         4         478         479         495         494
CELL_TYPES        450
9
9
9
9
9
9
9
9
9
9
9
9
9
9
9
9
9
9
9
9
9
9
9
9
9
9
9
9
9
9
9
9
9
9
9
9
9
9
9
9
9
9
9
9
9
9
9
9
9
9
9
9
9
9
9
9
9
9
9
9
9
9
9
9
9
9
9
9
9
9
9
9
9
9
9
9
9
9
9
9
9
9
9
9
9
9
9
9
9
9
9
9
9
9
9
9
9
9
9
9
9
9
9
9
9
9
9
9
9
9
9
9
9
9
9
9
9
9
9
9
9
9
9
9
9
9
9
9
9
9
9
9
9
9
9
9
9
9
9
9
9
9
9
9
9
9
9
9
9
9
9
9
9
9
9
9
9
9
9
9
9
9
9
9
9
9
9
9
9
9
9
9
9
9
9
9
9
9
9
9
9
9
9
9
9
9
9
9
9
9
9
9
9
9
9
9
9
9
9
9
9
9
9
9
9
9
9
9
9
9
9
9
9
9
9
9
9
9
9
9
9
9
9
9
9
9
9
9
9
9
9
9
9
9
9
9
9
9
9
9
9
9
9
9
9
9
9
9
9
9
9
9
9
9
9
9
9
9
9
9
9
9
9
9
9
9
9
9
9
9
9
9
9
9
9
9
9
9
9
9
9
9
9
9
9
9
9
9
9
9
9
9
9
9
9
9
9
9
9
9
9
9
9
9
9
9
9
9
9
9
9
9
9
9
9
9
9
9
9
9
9
9
9
9
9
9
9
9
9
9
9
9
9
9
9
9
9
9
9
9
9
9
9
9
9
9
9
9
9
9
9
9
9
9
9
9
9
9
9
9
9
9
9
9
9
9
9
9
9
9
9
9
9
9
9
9
9
9
9
9
9
9
9
9
9
9
9
9
9
9
9
9
9
9
9
9
9
9
9
9
9
9
9
9
9
9
9
9
9
9
9
9
9
9
9
9
9
9
9
9
9
9
9
9
9
9
9
9
9
9
9
9
9
9
9
9
9
9
9
9
9
9
9
9
9
9
9
9
9
9
POINT_DATA       496
SCALARS p double 
LOOKUP_TABLE default
   29435011.2391127     
   29432912.5589546     
   29427246.4566591     
   29418563.2979541     
   29407354.6229141     
   29394045.2833517     
   29378983.3108061     
   29362426.1263465     
   29344521.4115470     
   29325289.2418504     
   29304621.2553387     
   29282303.1933531     
   29258595.1927255     
   29237440.9346283     
   29223595.6660377     
   29218691.2007937     
   29407774.8146928     
   29405680.9824694     
   29400021.6685626     
   29391340.6095683     
   29380123.3090750     
   29366789.7437568     
   29351686.2341651     
   29335075.4753532     
   29317122.4876739     
   29297880.3706500     
   29277284.8539579     
   29255159.0008669     
   29231684.6466158     
   29210640.0129646     
   29196797.4371268     
   29191892.6349577     
   29326139.0209528     
   29324058.5650148     
   29318417.6020959     
   29309741.6859434     
   29298500.3940310     
   29285101.7698288     
   29269889.0997485     
   29253139.5958005     
   29235062.5169315     
   29215794.6023263     
   29195387.0041245     
   29173782.7531300     
   29151006.9548722     
   29130329.7880447     
   29116513.6569032     
   29111614.0143800     
   29190324.6337597     
   29188263.0632159     
   29182647.1832959     
   29173977.3912634     
   29162702.8614336     
   29149218.9201422     
   29133869.3393343     
   29116953.0014607     
   29098733.8413404     
   29079449.1392571     
   29059301.3407694     
   29038412.0917438     
   29016764.1361844     
   28996815.8517605     
   28983080.1045154     
   28978196.7615052     
   29000700.8088129     
   28998660.0561215     
   28993071.3235761     
   28984408.7798921     
   28973103.0030980     
   28959542.0095070     
   28944077.6948728     
   28927036.9093845     
   28908736.9155804     
   28889501.5435140     
   28869666.2811330     
   28849546.6303882     
   28829291.8981267     
   28810486.2744508     
   28797026.0038044     
   28792131.2903972     
   28757787.1884513     
   28755766.6062694     
   28750205.7322831     
   28741556.8697257     
   28730238.4897826     
   28716639.9214723     
   28701130.1478538     
   28684069.2847293     
   28665822.8141590     
   28646775.7277797     
   28627343.9687775     
   28607982.5041585     
   28589133.0736986     
   28571790.0086632     
   28559013.7771699     
   28554062.9249411     
   28462257.0494943     
   28460255.7507584     
   28454727.0611633     
   28446109.2001754     
   28434817.4337731     
   28421251.2286702     
   28405803.4363103     
   28388869.5088903     
   28370857.3022194     
   28352196.5585842     
   28333351.8759012     
   28314847.4332835     
   28297318.0563068     
   28281585.1837654     
   28269895.3256195     
   28265222.1144297     
   28114940.6226162     
   28112959.6559861     
   28107476.0771338     
   28098922.8353025     
   28087720.2484997     
   28074284.3314537     
   28059034.3629566     
   28042399.2859419     
   28024823.8225176     
   28006776.5012431     
   27988762.6521449     
   27971348.2312088     
   27955201.8816874     
   27941200.6260773     
   27930947.2960142     
   27927199.8800858     
   27716828.6567232     
   27714873.2642521     
   27709460.3751604     
   27701025.1235612     
   27689998.3648566     
   27676815.0060792     
   27661919.3394564     
   27645768.9475871     
   27628839.4230076     
   27611631.4353726     
   27594683.0315449     
   27578590.1293138     
   27564044.2476173     
   27551904.3643086     
   27543400.1087497     
   27540621.9105056     
   27269075.0009098     
   27267156.4011382     
   27261854.6161943     
   27253610.9272504     
   27242868.7079685     
   27230080.4002337     
   27215710.5041705     
   27200237.7788061     
   27184158.9866484     
   27167995.0983092     
   27152302.0710455     
   27137687.0779696     
   27124830.1792831     
   27114514.5963156     
   27107672.2749771     
   27105431.3323009     
   26772996.9713076     
   26771132.7023468     
   26765996.8315884     
   26758037.0009911     
   26747707.2623724     
   26735472.5766141     
   26721809.5470195     
   26707207.4249776     
   26692170.4948210     
   26677222.8183294     
   26662914.6595518     
   26649828.4003902     
   26638580.3562443     
   26629813.6863141     
   26624187.0142052     
   26622305.4216516     
   26230073.0087215     
   26228286.1965263     
   26223383.6589247     
   26215815.8369636     
   26206041.7421404     
   26194530.1930474     
   26181758.6103646     
   26168212.6248394     
   26154387.0602860     
   26140787.5701871     
   26127930.9240978     
   26116341.1866546     
   26106539.5968039     
   26099030.9620690     
   26094282.5743619     
   26092677.2209043     
   25641937.6569100     
   25640256.0918321     
   25635664.2027934     
   25628608.4072029     
   25619543.2727774     
   25608929.4094087     
   25597230.6579476     
   25584912.5205919     
   25572441.3485595     
   25560282.8301831     
   25548898.0514398     
   25538736.2912871     
   25530226.1718904     
   25523766.3502272     
   25519710.4221519     
   25518328.6207893     
   25010374.6907575     
   25008829.5903794     
   25004632.5983542     
   24998216.2073877     
   24990017.8217255     
   24980474.9731461     
   24970021.5310887     
   24959085.3219281     
   24948086.1581434     
   24937433.1152689     
   24927520.5006626     
   24918723.3922825     
   24911393.6831439     
   24905854.7527661     
   24902387.1477277     
   24901197.0301141     
   24337309.3572574     
   24335934.0960403     
   24332219.9697199     
   24326572.9792356     
   24319398.0892703     
   24311093.1515847     
   24302044.9725436     
   24292627.1245169     
   24283198.4709579     
   24274101.8002364     
   24265662.8649898     
   24258190.0574577     
   24251973.6872406     
   24247280.9817731     
   24244341.8389756     
   24243323.7887778     
   23624799.9396481     
   23623628.9573257     
   23620486.5823092     
   23615737.4262642     
   23609737.2362966     
   23602827.0164173     
   23595330.2309359     
   23587552.1712305     
   23579780.7403504     
   23572288.2978668     
   23565334.3432144     
   23559168.2066126     
   23554028.8883644     
   23550139.3974855     
   23547693.4496710     
   23546835.5654887     
   22875031.3580112     
   22874098.8243835     
   22871615.5328644     
   22867887.7727527     
   22863204.5905662     
   22857833.5573740     
   22852020.3046263     
   22845990.7626584     
   22839955.3896182     
   22834114.7561974     
   22828665.1517711     
   22823802.3410482     
   22819721.0670537     
   22816608.8754723     
   22814634.0314447     
   22813928.8426175     
   22090310.0698075     
   22089649.1903386     
   22087908.7481458     
   22085318.3852709     
   22082082.9959224     
   22078381.2824760     
   22074368.5627801     
   22070182.8346734     
   22065952.9287062     
   22061807.3357798     
   22057881.7110427     
   22054322.6572741     
   22051286.5368404     
   22048932.9358396     
   22047413.1921898     
   22046855.3243509     
   21273062.0954933     
   21272704.3576303     
   21271785.2838629     
   21270438.4012032     
   21268767.1579701     
   21266847.0939235     
   21264732.6294417     
   21262467.2668337     
   21260095.6545011     
   21257675.0237670     
   21255283.3186233     
   21253022.4508556     
   21251016.1200123     
   21249402.5698896     
   21248323.1412951     
   21247907.8531230     
   20425832.8458996     
   20425807.6186987     
   20425781.7632827     
   20425771.7776870     
   20425762.1732000     
   20425711.8580898     
   20425565.4177933     
   20425267.7210174     
   20424779.3460531     
   20424089.1476679     
   20423221.6535543     
   20422238.9659742     
   20421237.4845702     
   20420339.9044077     
   20419683.4725995     
   20419405.4171129     
   19551289.1188477     
   19551623.4665025     
   19552554.5758856     
   19553958.5360139     
   19555682.1029283     
   19557554.5192628     
   19559404.1035375     
   19561077.4746979     
   19562455.7131030     
   19563465.1491642     
   19564082.5465845     
   19564335.4320064     
   19564297.8652117     
   19564081.9840572     
   19563825.7846685     
   19563678.0721722     
   18652222.5358967     
   18652941.4148507     
   18654883.9151666     
   18657757.1936345     
   18661248.3663305     
   18665044.5179953     
   18668857.7374886     
   18672444.1304675     
   18675615.5444500     
   18678244.8920026     
   18680268.2003286     
   18681683.7112582     
   18682547.4552611     
   18682964.8411761     
   18683078.3460761     
   18683051.9470302     
   17731553.8562276     
   17732681.4836687     
   17735680.0426435     
   17740048.9872243     
   17745286.0627277     
   17750931.7629963     
   17756593.3916336     
   17761954.1251381     
   17766772.4071675     
   17770879.9037521     
   17774180.2560681     
   17776647.6238060     
   17778323.1710982     
   17779307.8866216     
   17779750.9944158     
   17779834.1954365     
   16792339.6559911     
   16793899.8038621     
   16797996.4916741     
   16803839.5654249     
   16810715.3526759     
   16818032.1520780     
   16825320.9695626     
   16832217.5999976     
   16838447.2731938     
   16843815.5164361     
   16848203.5698691     
   16851566.6661096     
   16853932.7565508     
   16855398.5105464     
   16856120.1844080     
   16856298.3524647     
   15837763.1839422     
   15839815.2649536     
   15845042.3599479     
   15852253.2284307     
   15860532.6596207     
   15869208.9975550     
   15877776.5522426     
   15885852.8432402     
   15893153.3098454     
   15899475.5688269     
   15904690.5975541     
   15908740.2316101     
   15911639.1762962     
   15913476.9510587     
   15914414.0587706     
   15914669.5236553     
   14871204.7806144     
   14873843.0430050     
   14880195.7377315     
   14888501.0339814     
   14897782.5253869     
   14907350.4964169     
   14916701.9696783     
   14925467.7161200     
   14933379.5307664     
   14940247.6702169     
   14945947.0537022     
   14950412.9155717     
   14953645.7149524     
   14955721.5411927     
   14956798.6561996     
   14957111.2101419     
   13896376.7022382     
   13899585.9119000     
   13906888.0901293     
   13915827.8029267     
   13925525.2937424     
   13935339.0771186     
   13944815.5334613     
   13953634.7693076     
   13961571.6798792     
   13968468.9486606     
   13974219.9931722     
   13978762.1368711     
   13982082.2959681     
   13984234.6639554     
   13985363.3706815     
   13985710.2234782     
   12917108.8497008     
   12920755.8839589     
   12928566.6496952     
   12937485.6000278     
   12946796.0899719     
   12956004.2036973     
   12964769.4909800     
   12972857.9754506     
   12980109.1021335     
   12986411.9390054     
   12991689.5697234     
   12995891.3088011     
   12998995.4317163     
   13001030.2227732     
   13002108.5697519     
   13002466.4902304     
   11937633.7098746     
   11941391.2967816     
   11948874.5047077     
   11956728.2087601     
   11964537.2947022     
   11972053.5753532     
   11979094.4703808     
   11985531.8656682     
   11991277.3272851     
   11996269.5373117     
   12000464.9476860     
   12003832.0017462     
   12006350.6409143     
   12008024.6205863     
   12008934.9878086     
   12009281.4295985     
   10962977.2573574     
   10966146.7564963     
   10971610.3519006     
   10976675.8690021     
   10981483.6389596     
   10985986.3121566     
   10990137.0421088     
   10993897.3476736     
   10997238.2098202     
   11000138.5064654     
   11002582.5270627     
   11004557.7913363     
   11006054.1139685     
   11007066.9241435     
   11007620.7544977     
   11007970.8881301     
   10000000.0000000     
   10000000.0000000     
   10000000.0000000     
   10000000.0000000     
   10000000.0000000     
   10000000.0000000     
   10000000.0000000     
   10000000.0000000     
   10000000.0000000     
   10000000.0000000     
   10000000.0000000     
   10000000.0000000     
   10000000.0000000     
  10000000.00000000     
   10000000.0000000     
   10000000.0000000     
VECTORS u double 
    0.00000E+00        -0.38197E-01         0.00000E+00
    0.00000E+00        -0.35337E-01         0.00000E+00
    0.00000E+00        -0.32520E-01         0.00000E+00
    0.00000E+00        -0.29749E-01         0.00000E+00
    0.00000E+00        -0.27025E-01         0.00000E+00
    0.00000E+00        -0.24351E-01         0.00000E+00
    0.00000E+00        -0.21728E-01         0.00000E+00
    0.00000E+00        -0.19155E-01         0.00000E+00
    0.00000E+00        -0.16630E-01         0.00000E+00
    0.00000E+00        -0.14151E-01         0.00000E+00
    0.00000E+00        -0.11715E-01         0.00000E+00
    0.00000E+00        -0.93179E-02         0.00000E+00
    0.00000E+00        -0.69548E-02         0.00000E+00
    0.00000E+00        -0.46209E-02         0.00000E+00
    0.00000E+00        -0.23029E-02         0.00000E+00
    0.00000E+00         0.00000E+00         0.00000E+00
    0.84246E-03        -0.38230E-01         0.00000E+00
    0.77360E-03        -0.35370E-01         0.00000E+00
    0.70248E-03        -0.32552E-01         0.00000E+00
    0.62967E-03        -0.29780E-01         0.00000E+00
    0.55643E-03        -0.27055E-01         0.00000E+00
    0.48397E-03        -0.24380E-01         0.00000E+00
    0.41364E-03        -0.21755E-01         0.00000E+00
    0.34650E-03        -0.19179E-01         0.00000E+00
    0.28357E-03        -0.16652E-01         0.00000E+00
    0.22568E-03        -0.14170E-01         0.00000E+00
    0.17357E-03        -0.11731E-01         0.00000E+00
    0.12797E-03        -0.93301E-02         0.00000E+00
    0.89488E-04        -0.69636E-02         0.00000E+00
    0.57519E-04        -0.46266E-02         0.00000E+00
    0.28747E-04        -0.23058E-02         0.00000E+00
    0.00000E+00         0.00000E+00         0.00000E+00
    0.16787E-02        -0.38332E-01         0.00000E+00
    0.15412E-02        -0.35469E-01         0.00000E+00
    0.13992E-02        -0.32649E-01         0.00000E+00
    0.12541E-02        -0.29873E-01         0.00000E+00
    0.11082E-02        -0.27145E-01         0.00000E+00
    0.96396E-03        -0.24465E-01         0.00000E+00
    0.82404E-03        -0.21835E-01         0.00000E+00
    0.69061E-03        -0.19253E-01         0.00000E+00
    0.56560E-03        -0.16719E-01         0.00000E+00
    0.45056E-03        -0.14228E-01         0.00000E+00
    0.34679E-03        -0.11779E-01         0.00000E+00
    0.25556E-03        -0.93673E-02         0.00000E+00
    0.17787E-03        -0.69903E-02         0.00000E+00
    0.11385E-03        -0.46435E-02         0.00000E+00
    0.56887E-04        -0.23145E-02         0.00000E+00
    0.00000E+00         0.00000E+00         0.00000E+00
    0.25022E-02        -0.38500E-01         0.00000E+00
    0.22969E-02        -0.35634E-01         0.00000E+00
    0.20848E-02        -0.32809E-01         0.00000E+00
    0.18682E-02        -0.30028E-01         0.00000E+00
    0.16507E-02        -0.27294E-01         0.00000E+00
    0.14360E-02        -0.24608E-01         0.00000E+00
    0.12280E-02        -0.21969E-01         0.00000E+00
    0.10299E-02        -0.19376E-01         0.00000E+00
    0.84443E-03        -0.16829E-01         0.00000E+00
    0.67366E-03        -0.14324E-01         0.00000E+00
    0.51923E-03        -0.11859E-01         0.00000E+00
    0.38257E-03        -0.94301E-02         0.00000E+00
    0.26511E-03        -0.70352E-02         0.00000E+00
    0.16815E-03        -0.46714E-02         0.00000E+00
    0.83564E-04        -0.23289E-02         0.00000E+00
    0.00000E+00         0.00000E+00         0.00000E+00
    0.33064E-02        -0.38734E-01         0.00000E+00
    0.30344E-02        -0.35863E-01         0.00000E+00
    0.27533E-02        -0.33032E-01         0.00000E+00
    0.24667E-02        -0.30245E-01         0.00000E+00
    0.21792E-02        -0.27503E-01         0.00000E+00
    0.18962E-02        -0.24806E-01         0.00000E+00
    0.16224E-02        -0.22155E-01         0.00000E+00
    0.13620E-02        -0.19548E-01         0.00000E+00
    0.11183E-02        -0.16983E-01         0.00000E+00
    0.89375E-03        -0.14459E-01         0.00000E+00
    0.69019E-03        -0.11971E-01         0.00000E+00
    0.50905E-03        -0.95192E-02         0.00000E+00
    0.35162E-03        -0.70996E-02         0.00000E+00
    0.21954E-03        -0.47111E-02         0.00000E+00
    0.10771E-03        -0.23489E-02         0.00000E+00
    0.00000E+00         0.00000E+00         0.00000E+00
    0.40843E-02        -0.39033E-01         0.00000E+00
    0.37470E-02        -0.36156E-01         0.00000E+00
    0.33987E-02        -0.33318E-01         0.00000E+00
    0.30440E-02        -0.30522E-01         0.00000E+00
    0.26892E-02        -0.27770E-01         0.00000E+00
    0.23407E-02        -0.25060E-01         0.00000E+00
    0.20042E-02        -0.22393E-01         0.00000E+00
    0.16845E-02        -0.19767E-01         0.00000E+00
    0.13854E-02        -0.17180E-01         0.00000E+00
    0.11095E-02        -0.14631E-01         0.00000E+00
    0.85870E-03        -0.12116E-01         0.00000E+00
    0.63448E-03        -0.96352E-02         0.00000E+00
    0.43777E-03        -0.71852E-02         0.00000E+00
    0.26919E-03        -0.47652E-02         0.00000E+00
    0.12842E-03        -0.23739E-02         0.00000E+00
    0.00000E+00         0.00000E+00         0.00000E+00
    0.48288E-02        -0.39395E-01         0.00000E+00
    0.44279E-02        -0.36512E-01         0.00000E+00
    0.40146E-02        -0.33666E-01         0.00000E+00
    0.35947E-02        -0.30860E-01         0.00000E+00
    0.31760E-02        -0.28095E-01         0.00000E+00
    0.27659E-02        -0.25369E-01         0.00000E+00
    0.23706E-02        -0.22682E-01         0.00000E+00
    0.19954E-02        -0.20033E-01         0.00000E+00
    0.16440E-02        -0.17419E-01         0.00000E+00
    0.13194E-02        -0.14840E-01         0.00000E+00
    0.10236E-02        -0.12293E-01         0.00000E+00
    0.75791E-03        -0.97778E-02         0.00000E+00
    0.52314E-03        -0.72923E-02         0.00000E+00
    0.31966E-03        -0.48354E-02         0.00000E+00
    0.14740E-03        -0.24062E-02         0.00000E+00
    0.00000E+00         0.00000E+00         0.00000E+00
    0.55325E-02        -0.39819E-01         0.00000E+00
    0.50701E-02        -0.36928E-01         0.00000E+00
    0.45945E-02        -0.34074E-01         0.00000E+00
    0.41134E-02        -0.31256E-01         0.00000E+00
    0.36353E-02        -0.28476E-01         0.00000E+00
    0.31683E-02        -0.25731E-01         0.00000E+00
    0.27190E-02        -0.23021E-01         0.00000E+00
    0.22924E-02        -0.20344E-01         0.00000E+00
    0.18926E-02        -0.17699E-01         0.00000E+00
    0.15223E-02        -0.15085E-01         0.00000E+00
    0.11839E-02        -0.12501E-01         0.00000E+00
    0.87853E-03        -0.99460E-02         0.00000E+00
    0.60725E-03        -0.74195E-02         0.00000E+00
    0.37051E-03        -0.49205E-02         0.00000E+00
    0.16835E-03        -0.24483E-02         0.00000E+00
    0.00000E+00         0.00000E+00         0.00000E+00
    0.61879E-02        -0.40303E-01         0.00000E+00
    0.56665E-02        -0.37404E-01         0.00000E+00
    0.51324E-02        -0.34540E-01         0.00000E+00
    0.45948E-02        -0.31710E-01         0.00000E+00
    0.40631E-02        -0.28912E-01         0.00000E+00
    0.35450E-02        -0.26145E-01         0.00000E+00
    0.30467E-02        -0.23407E-01         0.00000E+00
    0.25736E-02        -0.20698E-01         0.00000E+00
    0.21294E-02        -0.18018E-01         0.00000E+00
    0.17170E-02        -0.15364E-01         0.00000E+00
    0.13387E-02        -0.12738E-01         0.00000E+00
    0.99598E-03        -0.10138E-01         0.00000E+00
    0.68995E-03        -0.75654E-02         0.00000E+00
    0.42145E-03        -0.50186E-02         0.00000E+00
    0.19128E-03        -0.24972E-02         0.00000E+00
    0.00000E+00         0.00000E+00         0.00000E+00
    0.67878E-02        -0.40844E-01         0.00000E+00
    0.62103E-02        -0.37938E-01         0.00000E+00
    0.56226E-02        -0.35062E-01         0.00000E+00
    0.50348E-02        -0.32216E-01         0.00000E+00
    0.44557E-02        -0.29398E-01         0.00000E+00
    0.38926E-02        -0.26606E-01         0.00000E+00
    0.33514E-02        -0.23838E-01         0.00000E+00
    0.28369E-02        -0.21094E-01         0.00000E+00
    0.23530E-02        -0.18374E-01         0.00000E+00
    0.19025E-02        -0.15676E-01         0.00000E+00
    0.14877E-02        -0.13003E-01         0.00000E+00
    0.11102E-02        -0.10354E-01         0.00000E+00
    0.77145E-03        -0.77285E-02         0.00000E+00
    0.47278E-03        -0.51280E-02         0.00000E+00
    0.21531E-03        -0.25518E-02         0.00000E+00
    0.00000E+00         0.00000E+00         0.00000E+00
    0.73253E-02        -0.41441E-01         0.00000E+00
    0.66961E-02        -0.38525E-01         0.00000E+00
    0.60608E-02        -0.35637E-01         0.00000E+00
    0.54293E-02        -0.32774E-01         0.00000E+00
    0.48096E-02        -0.29933E-01         0.00000E+00
    0.42082E-02        -0.27113E-01         0.00000E+00
    0.36304E-02        -0.24311E-01         0.00000E+00
    0.30805E-02        -0.21528E-01         0.00000E+00
    0.25621E-02        -0.18764E-01         0.00000E+00
    0.20780E-02        -0.16019E-01         0.00000E+00
    0.16303E-02        -0.13294E-01         0.00000E+00
    0.12211E-02        -0.10590E-01         0.00000E+00
    0.85201E-03        -0.79075E-02         0.00000E+00
    0.52452E-03        -0.52479E-02         0.00000E+00
    0.24011E-03        -0.26119E-02         0.00000E+00
    0.00000E+00         0.00000E+00         0.00000E+00
    0.77953E-02        -0.42089E-01         0.00000E+00
    0.71194E-02        -0.39162E-01         0.00000E+00
    0.64429E-02        -0.36260E-01         0.00000E+00
    0.57746E-02        -0.33377E-01         0.00000E+00
    0.51215E-02        -0.30512E-01         0.00000E+00
    0.44888E-02        -0.27661E-01         0.00000E+00
    0.38812E-02        -0.24823E-01         0.00000E+00
    0.33023E-02        -0.21998E-01         0.00000E+00
    0.27552E-02        -0.19187E-01         0.00000E+00
    0.22425E-02        -0.16390E-01         0.00000E+00
    0.17664E-02        -0.13609E-01         0.00000E+00
    0.13288E-02        -0.10845E-01         0.00000E+00
    0.93168E-03        -0.81011E-02         0.00000E+00
    0.57669E-03        -0.53777E-02         0.00000E+00
    0.26562E-03        -0.26768E-02         0.00000E+00
    0.00000E+00         0.00000E+00         0.00000E+00
    0.81938E-02        -0.42785E-01         0.00000E+00
    0.74765E-02        -0.39845E-01         0.00000E+00
    0.67653E-02        -0.36926E-01         0.00000E+00
    0.60674E-02        -0.34023E-01         0.00000E+00
    0.53881E-02        -0.31130E-01         0.00000E+00
    0.47315E-02        -0.28246E-01         0.00000E+00
    0.41012E-02        -0.25370E-01         0.00000E+00
    0.35001E-02        -0.22500E-01         0.00000E+00
    0.29307E-02        -0.19639E-01         0.00000E+00
    0.23952E-02        -0.16787E-01         0.00000E+00
    0.18953E-02        -0.13946E-01         0.00000E+00
    0.14331E-02        -0.11119E-01         0.00000E+00
    0.10105E-02        -0.83081E-02         0.00000E+00
    0.62938E-03        -0.55165E-02         0.00000E+00
    0.29192E-03        -0.27463E-02         0.00000E+00
    0.00000E+00         0.00000E+00         0.00000E+00
    0.85168E-02        -0.43523E-01         0.00000E+00
    0.77641E-02        -0.40569E-01         0.00000E+00
    0.70250E-02        -0.37632E-01         0.00000E+00
    0.63045E-02        -0.34705E-01         0.00000E+00
    0.56063E-02        -0.31783E-01         0.00000E+00
    0.49334E-02        -0.28864E-01         0.00000E+00
    0.42880E-02        -0.25946E-01         0.00000E+00
    0.36721E-02        -0.23030E-01         0.00000E+00
    0.30872E-02        -0.20116E-01         0.00000E+00
    0.25349E-02        -0.17205E-01         0.00000E+00
    0.20165E-02        -0.14302E-01         0.00000E+00
    0.15337E-02        -0.11408E-01         0.00000E+00
    0.10884E-02        -0.85272E-02         0.00000E+00
    0.68274E-03        -0.56634E-02         0.00000E+00
    0.31914E-03        -0.28199E-02         0.00000E+00
    0.00000E+00         0.00000E+00         0.00000E+00
    0.87615E-02        -0.44298E-01         0.00000E+00
    0.79795E-02        -0.41329E-01         0.00000E+00
    0.72188E-02        -0.38371E-01         0.00000E+00
    0.64827E-02        -0.35418E-01         0.00000E+00
    0.57732E-02        -0.32465E-01         0.00000E+00
    0.50917E-02        -0.29509E-01         0.00000E+00
    0.44391E-02        -0.26548E-01         0.00000E+00
    0.38160E-02        -0.23583E-01         0.00000E+00
    0.32230E-02        -0.20614E-01         0.00000E+00
    0.26604E-02        -0.17643E-01         0.00000E+00
    0.21291E-02        -0.14674E-01         0.00000E+00
    0.16303E-02        -0.11711E-01         0.00000E+00
    0.11655E-02        -0.87567E-02         0.00000E+00
    0.73693E-03        -0.58173E-02         0.00000E+00
    0.34747E-03        -0.28970E-02         0.00000E+00
    0.00000E+00         0.00000E+00         0.00000E+00
    0.89249E-02        -0.45105E-01         0.00000E+00
    0.81197E-02        -0.42117E-01         0.00000E+00
    0.73442E-02        -0.39137E-01         0.00000E+00
    0.65996E-02        -0.36156E-01         0.00000E+00
    0.58862E-02        -0.33170E-01         0.00000E+00
    0.52039E-02        -0.30175E-01         0.00000E+00
    0.45520E-02        -0.27170E-01         0.00000E+00
    0.39296E-02        -0.24154E-01         0.00000E+00
    0.33360E-02        -0.21129E-01         0.00000E+00
    0.27702E-02        -0.18096E-01         0.00000E+00
    0.22322E-02        -0.15060E-01         0.00000E+00
    0.17222E-02        -0.12024E-01         0.00000E+00
    0.12414E-02        -0.89948E-02         0.00000E+00
    0.79205E-03        -0.59772E-02         0.00000E+00
    0.37707E-03        -0.29771E-02         0.00000E+00
    0.00000E+00         0.00000E+00         0.00000E+00
    0.90040E-02        -0.45937E-01         0.00000E+00
    0.81822E-02        -0.42929E-01         0.00000E+00
    0.73986E-02        -0.39923E-01         0.00000E+00
    0.66526E-02        -0.36913E-01         0.00000E+00
    0.59428E-02        -0.33892E-01         0.00000E+00
    0.52674E-02        -0.30857E-01         0.00000E+00
    0.46242E-02        -0.27806E-01         0.00000E+00
    0.40106E-02        -0.24738E-01         0.00000E+00
    0.34241E-02        -0.21655E-01         0.00000E+00
    0.28625E-02        -0.18559E-01         0.00000E+00
    0.23242E-02        -0.15454E-01         0.00000E+00
    0.18085E-02        -0.12346E-01         0.00000E+00
    0.13158E-02        -0.92393E-02         0.00000E+00
    0.84802E-03        -0.61415E-02         0.00000E+00
    0.40805E-03        -0.30594E-02         0.00000E+00
    0.00000E+00         0.00000E+00         0.00000E+00
    0.89956E-02        -0.46787E-01         0.00000E+00
    0.81644E-02        -0.43756E-01         0.00000E+00
    0.73799E-02        -0.40723E-01         0.00000E+00
    0.66397E-02        -0.37681E-01         0.00000E+00
    0.59409E-02        -0.34623E-01         0.00000E+00
    0.52800E-02        -0.31546E-01         0.00000E+00
    0.46532E-02        -0.28448E-01         0.00000E+00
    0.40563E-02        -0.25328E-01         0.00000E+00
    0.34848E-02        -0.22187E-01         0.00000E+00
    0.29350E-02        -0.19028E-01         0.00000E+00
    0.24034E-02        -0.15855E-01         0.00000E+00
    0.18880E-02        -0.12673E-01         0.00000E+00
    0.13880E-02        -0.94881E-02         0.00000E+00
    0.90450E-03        -0.63091E-02         0.00000E+00
    0.44037E-03        -0.31436E-02         0.00000E+00
    0.00000E+00         0.00000E+00         0.00000E+00
    0.88972E-02        -0.47647E-01         0.00000E+00
    0.80639E-02        -0.44592E-01         0.00000E+00
    0.72858E-02        -0.41530E-01         0.00000E+00
    0.65588E-02        -0.38453E-01         0.00000E+00
    0.58783E-02        -0.35357E-01         0.00000E+00
    0.52395E-02        -0.32237E-01         0.00000E+00
    0.46367E-02        -0.29091E-01         0.00000E+00
    0.40642E-02        -0.25918E-01         0.00000E+00
    0.35156E-02        -0.22719E-01         0.00000E+00
    0.29851E-02        -0.19497E-01         0.00000E+00
    0.24674E-02        -0.16256E-01         0.00000E+00
    0.19586E-02        -0.13001E-01         0.00000E+00
    0.14565E-02        -0.97389E-02         0.00000E+00
    0.96079E-03        -0.64783E-02         0.00000E+00
    0.47384E-03        -0.32287E-02         0.00000E+00
    0.00000E+00         0.00000E+00         0.00000E+00
    0.87060E-02        -0.48510E-01         0.00000E+00
    0.78785E-02        -0.45429E-01         0.00000E+00
    0.71144E-02        -0.42335E-01         0.00000E+00
    0.64079E-02        -0.39222E-01         0.00000E+00
    0.57532E-02        -0.36085E-01         0.00000E+00
    0.51437E-02        -0.32921E-01         0.00000E+00
    0.45724E-02        -0.29726E-01         0.00000E+00
    0.40316E-02        -0.26500E-01         0.00000E+00
    0.35133E-02        -0.23245E-01         0.00000E+00
    0.30095E-02        -0.19961E-01         0.00000E+00
    0.25130E-02        -0.16654E-01         0.00000E+00
    0.20177E-02        -0.13327E-01         0.00000E+00
    0.15193E-02        -0.99892E-02         0.00000E+00
    0.10157E-02        -0.66480E-02         0.00000E+00
    0.50802E-03        -0.33143E-02         0.00000E+00
    0.00000E+00         0.00000E+00         0.00000E+00
    0.84197E-02        -0.49368E-01         0.00000E+00
    0.76062E-02        -0.46257E-01         0.00000E+00
    0.68638E-02        -0.43130E-01         0.00000E+00
    0.61856E-02        -0.39979E-01         0.00000E+00
    0.55639E-02        -0.36800E-01         0.00000E+00
    0.49910E-02        -0.33590E-01         0.00000E+00
    0.44580E-02        -0.30346E-01         0.00000E+00
    0.39558E-02        -0.27068E-01         0.00000E+00
    0.34745E-02        -0.23757E-01         0.00000E+00
    0.30044E-02        -0.20414E-01         0.00000E+00
    0.25362E-02        -0.17043E-01         0.00000E+00
    0.20614E-02        -0.13648E-01         0.00000E+00
    0.15734E-02        -0.10236E-01         0.00000E+00
    0.10675E-02        -0.68165E-02         0.00000E+00
    0.54225E-03        -0.33997E-02         0.00000E+00
    0.00000E+00         0.00000E+00         0.00000E+00
    0.80361E-02        -0.50212E-01         0.00000E+00
    0.72452E-02        -0.47070E-01         0.00000E+00
    0.65328E-02        -0.43907E-01         0.00000E+00
    0.58905E-02        -0.40716E-01         0.00000E+00
    0.53092E-02        -0.37493E-01         0.00000E+00
    0.47795E-02        -0.34235E-01         0.00000E+00
    0.42913E-02        -0.30942E-01         0.00000E+00
    0.38337E-02        -0.27613E-01         0.00000E+00
    0.33955E-02        -0.24248E-01         0.00000E+00
    0.29653E-02        -0.20848E-01         0.00000E+00
    0.25319E-02        -0.17418E-01         0.00000E+00
    0.20850E-02        -0.13959E-01         0.00000E+00
    0.16149E-02        -0.10478E-01         0.00000E+00
    0.11136E-02        -0.69822E-02         0.00000E+00
    0.57554E-03        -0.34843E-02         0.00000E+00
    0.00000E+00         0.00000E+00         0.00000E+00
    0.75535E-02        -0.51033E-01         0.00000E+00
    0.67942E-02        -0.47857E-01         0.00000E+00
    0.61204E-02        -0.44655E-01         0.00000E+00
    0.55219E-02        -0.41422E-01         0.00000E+00
    0.49880E-02        -0.38153E-01         0.00000E+00
    0.45079E-02        -0.34848E-01         0.00000E+00
    0.40701E-02        -0.31506E-01         0.00000E+00
    0.36622E-02        -0.28126E-01         0.00000E+00
    0.32719E-02        -0.24710E-01         0.00000E+00
    0.28866E-02        -0.21258E-01         0.00000E+00
    0.24941E-02        -0.17772E-01         0.00000E+00
    0.20820E-02        -0.14255E-01         0.00000E+00
    0.16381E-02        -0.10710E-01         0.00000E+00
    0.11500E-02        -0.71434E-02         0.00000E+00
    0.60640E-03        -0.35674E-02         0.00000E+00
    0.00000E+00         0.00000E+00         0.00000E+00
    0.69703E-02        -0.51822E-01         0.00000E+00
    0.62524E-02        -0.48610E-01         0.00000E+00
    0.56262E-02        -0.45367E-01         0.00000E+00
    0.50795E-02        -0.42089E-01         0.00000E+00
    0.46001E-02        -0.38773E-01         0.00000E+00
    0.41753E-02        -0.35419E-01         0.00000E+00
    0.37922E-02        -0.32028E-01         0.00000E+00
    0.34378E-02        -0.28599E-01         0.00000E+00
    0.30988E-02        -0.25135E-01         0.00000E+00
    0.27624E-02        -0.21636E-01         0.00000E+00
    0.24155E-02        -0.18101E-01         0.00000E+00
    0.20447E-02        -0.14532E-01         0.00000E+00
    0.16356E-02        -0.10929E-01         0.00000E+00
    0.11715E-02        -0.72981E-02         0.00000E+00
    0.63253E-03        -0.36482E-02         0.00000E+00
    0.00000E+00         0.00000E+00         0.00000E+00
    0.62853E-02        -0.52567E-01         0.00000E+00
    0.56194E-02        -0.49317E-01         0.00000E+00
    0.50504E-02        -0.46031E-01         0.00000E+00
    0.45639E-02        -0.42705E-01         0.00000E+00
    0.41454E-02        -0.39341E-01         0.00000E+00
    0.37807E-02        -0.35938E-01         0.00000E+00
    0.34556E-02        -0.32498E-01         0.00000E+00
    0.31566E-02        -0.29024E-01         0.00000E+00
    0.28708E-02        -0.25517E-01         0.00000E+00
    0.25855E-02        -0.21975E-01         0.00000E+00
    0.22879E-02        -0.18398E-01         0.00000E+00
    0.19642E-02        -0.14784E-01         0.00000E+00
    0.15983E-02        -0.11132E-01         0.00000E+00
    0.11698E-02        -0.74440E-02         0.00000E+00
    0.64980E-03        -0.37265E-02         0.00000E+00
    0.00000E+00         0.00000E+00         0.00000E+00
    0.54974E-02        -0.53258E-01         0.00000E+00
    0.48951E-02        -0.49967E-01         0.00000E+00
    0.43939E-02        -0.46636E-01         0.00000E+00
    0.39762E-02        -0.43261E-01         0.00000E+00
    0.36247E-02        -0.39846E-01         0.00000E+00
    0.33233E-02        -0.36394E-01         0.00000E+00
    0.30575E-02        -0.32909E-01         0.00000E+00
    0.28142E-02        -0.29393E-01         0.00000E+00
    0.25817E-02        -0.25847E-01         0.00000E+00
    0.23485E-02        -0.22269E-01         0.00000E+00
    0.21025E-02        -0.18656E-01         0.00000E+00
    0.18304E-02        -0.15006E-01         0.00000E+00
    0.15154E-02        -0.11314E-01         0.00000E+00
    0.11349E-02        -0.75783E-02         0.00000E+00
    0.65192E-03        -0.38003E-02         0.00000E+00
    0.00000E+00         0.00000E+00         0.00000E+00
    0.46055E-02        -0.53882E-01         0.00000E+00
    0.40804E-02        -0.50549E-01         0.00000E+00
    0.36590E-02        -0.47169E-01         0.00000E+00
    0.33184E-02        -0.43743E-01         0.00000E+00
    0.30384E-02        -0.40278E-01         0.00000E+00
    0.28018E-02        -0.36780E-01         0.00000E+00
    0.25948E-02        -0.33253E-01         0.00000E+00
    0.24059E-02        -0.29699E-01         0.00000E+00
    0.22252E-02        -0.26119E-01         0.00000E+00
    0.20433E-02        -0.22512E-01         0.00000E+00
    0.18498E-02        -0.18872E-01         0.00000E+00
    0.16327E-02        -0.15195E-01         0.00000E+00
    0.13755E-02        -0.11473E-01         0.00000E+00
    0.10547E-02        -0.76991E-02         0.00000E+00
    0.62797E-03        -0.38703E-02         0.00000E+00
    0.00000E+00         0.00000E+00         0.00000E+00
    0.36084E-02        -0.54425E-01         0.00000E+00
    0.31775E-02        -0.51046E-01         0.00000E+00
    0.28490E-02        -0.47615E-01         0.00000E+00
    0.25928E-02        -0.44139E-01         0.00000E+00
    0.23865E-02        -0.40626E-01         0.00000E+00
    0.22138E-02        -0.37086E-01         0.00000E+00
    0.20633E-02        -0.33522E-01         0.00000E+00
    0.19262E-02        -0.29938E-01         0.00000E+00
    0.17949E-02        -0.26331E-01         0.00000E+00
    0.16623E-02        -0.22700E-01         0.00000E+00
    0.15207E-02        -0.19041E-01         0.00000E+00
    0.13601E-02        -0.15345E-01         0.00000E+00
    0.11663E-02        -0.11604E-01         0.00000E+00
    0.91600E-03        -0.78050E-02         0.00000E+00
    0.56649E-03        -0.39365E-02         0.00000E+00
    0.00000E+00         0.00000E+00         0.00000E+00
    0.25078E-02        -0.54867E-01         0.00000E+00
    0.21912E-02        -0.51439E-01         0.00000E+00
    0.19682E-02        -0.47957E-01         0.00000E+00
    0.18004E-02        -0.44432E-01         0.00000E+00
    0.16667E-02        -0.40880E-01         0.00000E+00
    0.15551E-02        -0.37306E-01         0.00000E+00
    0.14580E-02        -0.33715E-01         0.00000E+00
    0.13694E-02        -0.30106E-01         0.00000E+00
    0.12845E-02        -0.26480E-01         0.00000E+00
    0.11987E-02        -0.22833E-01         0.00000E+00
    0.11068E-02        -0.19159E-01         0.00000E+00
    0.10021E-02        -0.15453E-01         0.00000E+00
    0.87442E-03        -0.11703E-01         0.00000E+00
    0.70499E-03        -0.78923E-02         0.00000E+00
    0.45379E-03        -0.39979E-02         0.00000E+00
    0.00000E+00         0.00000E+00         0.00000E+00
    0.13035E-02        -0.55182E-01         0.00000E+00
    0.11293E-02        -0.51702E-01         0.00000E+00
    0.10201E-02        -0.48172E-01         0.00000E+00
    0.93869E-03        -0.44613E-01         0.00000E+00
    0.87381E-03        -0.41033E-01         0.00000E+00
    0.81964E-03        -0.37437E-01         0.00000E+00
    0.77243E-03        -0.33828E-01         0.00000E+00
    0.72935E-03        -0.30205E-01         0.00000E+00
    0.68806E-03        -0.26567E-01         0.00000E+00
    0.64630E-03        -0.22909E-01         0.00000E+00
    0.60157E-03        -0.19228E-01         0.00000E+00
    0.55061E-03        -0.15517E-01         0.00000E+00
    0.48825E-03        -0.11764E-01         0.00000E+00
    0.40443E-03        -0.79529E-02         0.00000E+00
    0.27457E-03        -0.40524E-02         0.00000E+00
    0.00000E+00         0.00000E+00         0.00000E+00
    0.00000E+00        -0.55318E-01         0.00000E+00
    0.00000E+00        -0.51798E-01         0.00000E+00
    0.00000E+00        -0.48246E-01         0.00000E+00
    0.00000E+00        -0.44673E-01         0.00000E+00
    0.00000E+00        -0.41083E-01         0.00000E+00
    0.00000E+00        -0.37480E-01         0.00000E+00
    0.00000E+00        -0.33865E-01         0.00000E+00
    0.00000E+00        -0.30237E-01         0.00000E+00
    0.00000E+00        -0.26595E-01         0.00000E+00
    0.00000E+00        -0.22934E-01         0.00000E+00
    0.00000E+00        -0.19251E-01         0.00000E+00
    0.00000E+00        -0.15538E-01         0.00000E+00
    0.00000E+00        -0.11785E-01         0.00000E+00
    0.00000E+00        -0.79754E-02         0.00000E+00
    0.00000E+00        -0.40790E-02         0.00000E+00
    0.00000E+00         0.00000E+00         0.00000E+00
CELL_DATA        450
VECTORS vDarcy double 
    0.19420E-09        -0.14948E-10         0.00000E+00
    0.19415E-09        -0.40379E-10         0.00000E+00
    0.19412E-09        -0.61907E-10         0.00000E+00
    0.19414E-09        -0.79952E-10         0.00000E+00
    0.19425E-09        -0.94984E-10         0.00000E+00
    0.19448E-09        -0.10754E-09         0.00000E+00
    0.19482E-09        -0.11824E-09         0.00000E+00
    0.19518E-09        -0.12783E-09         0.00000E+00
    0.19538E-09        -0.13716E-09         0.00000E+00
    0.19516E-09        -0.14710E-09         0.00000E+00
    0.19421E-09        -0.15843E-09         0.00000E+00
    0.19269E-09        -0.16819E-09         0.00000E+00
    0.19147E-09        -0.15043E-09         0.00000E+00
    0.19107E-09        -0.98700E-10         0.00000E+00
    0.19106E-09        -0.34967E-10         0.00000E+00
    0.58207E-09        -0.14883E-10         0.00000E+00
    0.58195E-09        -0.40289E-10         0.00000E+00
    0.58185E-09        -0.61881E-10         0.00000E+00
    0.58191E-09        -0.80068E-10         0.00000E+00
    0.58221E-09        -0.95302E-10         0.00000E+00
    0.58282E-09        -0.10808E-09         0.00000E+00
    0.58370E-09        -0.11893E-09         0.00000E+00
    0.58463E-09        -0.12844E-09         0.00000E+00
    0.58516E-09        -0.13728E-09         0.00000E+00
    0.58457E-09        -0.14617E-09         0.00000E+00
    0.58204E-09        -0.15589E-09         0.00000E+00
    0.57768E-09        -0.16487E-09         0.00000E+00
    0.57388E-09        -0.14873E-09         0.00000E+00
    0.57247E-09        -0.98595E-10         0.00000E+00
    0.57235E-09        -0.34950E-10         0.00000E+00
    0.96838E-09        -0.14768E-10         0.00000E+00
    0.96820E-09        -0.40133E-10         0.00000E+00
    0.96806E-09        -0.61840E-10         0.00000E+00
    0.96814E-09        -0.80271E-10         0.00000E+00
    0.96855E-09        -0.95837E-10         0.00000E+00
    0.96932E-09        -0.10895E-09         0.00000E+00
    0.97039E-09        -0.12002E-09         0.00000E+00
    0.97148E-09        -0.12939E-09         0.00000E+00
    0.97203E-09        -0.13743E-09         0.00000E+00
    0.97116E-09        -0.14457E-09         0.00000E+00
    0.96767E-09        -0.15148E-09         0.00000E+00
    0.96110E-09        -0.15836E-09         0.00000E+00
    0.95447E-09        -0.14482E-09         0.00000E+00
    0.95158E-09        -0.98213E-10         0.00000E+00
    0.95122E-09        -0.34873E-10         0.00000E+00
    0.13520E-08        -0.14626E-10         0.00000E+00
    0.13518E-08        -0.39946E-10         0.00000E+00
    0.13517E-08        -0.61791E-10         0.00000E+00
    0.13517E-08        -0.80499E-10         0.00000E+00
    0.13521E-08        -0.96414E-10         0.00000E+00
    0.13528E-08        -0.10985E-09         0.00000E+00
    0.13536E-08        -0.12105E-09         0.00000E+00
    0.13543E-08        -0.13018E-09         0.00000E+00
    0.13544E-08        -0.13731E-09         0.00000E+00
    0.13531E-08        -0.14253E-09         0.00000E+00
    0.13492E-08        -0.14618E-09         0.00000E+00
    0.13415E-08        -0.14937E-09         0.00000E+00
    0.13325E-08        -0.13814E-09         0.00000E+00
    0.13274E-08        -0.96943E-10         0.00000E+00
    0.13264E-08        -0.34855E-10         0.00000E+00
    0.17320E-08        -0.14479E-10         0.00000E+00
    0.17318E-08        -0.39749E-10         0.00000E+00
    0.17316E-08        -0.61715E-10         0.00000E+00
    0.17315E-08        -0.80654E-10         0.00000E+00
    0.17317E-08        -0.96820E-10         0.00000E+00
    0.17320E-08        -0.11042E-09         0.00000E+00
    0.17322E-08        -0.12156E-09         0.00000E+00
    0.17320E-08        -0.13028E-09         0.00000E+00
    0.17311E-08        -0.13646E-09         0.00000E+00
    0.17290E-08        -0.13997E-09         0.00000E+00
    0.17249E-08        -0.14073E-09         0.00000E+00
    0.17171E-08        -0.13939E-09         0.00000E+00
    0.17069E-08        -0.12885E-09         0.00000E+00
    0.16992E-08        -0.93521E-10         0.00000E+00
    0.16970E-08        -0.35095E-10         0.00000E+00
    0.21071E-08        -0.14338E-10         0.00000E+00
    0.21069E-08        -0.39534E-10         0.00000E+00
    0.21066E-08        -0.61554E-10         0.00000E+00
    0.21063E-08        -0.80601E-10         0.00000E+00
    0.21061E-08        -0.96836E-10         0.00000E+00
    0.21057E-08        -0.11035E-09         0.00000E+00
    0.21050E-08        -0.12118E-09         0.00000E+00
    0.21037E-08        -0.12925E-09         0.00000E+00
    0.21015E-08        -0.13441E-09         0.00000E+00
    0.20980E-08        -0.13644E-09         0.00000E+00
    0.20928E-08        -0.13497E-09         0.00000E+00
    0.20850E-08        -0.12967E-09         0.00000E+00
    0.20746E-08        -0.11790E-09         0.00000E+00
    0.20650E-08        -0.87208E-10         0.00000E+00
    0.20601E-08        -0.34304E-10         0.00000E+00
    0.24762E-08        -0.14196E-10         0.00000E+00
    0.24759E-08        -0.39257E-10         0.00000E+00
    0.24755E-08        -0.61211E-10         0.00000E+00
    0.24749E-08        -0.80186E-10         0.00000E+00
    0.24741E-08        -0.96253E-10         0.00000E+00
    0.24729E-08        -0.10942E-09         0.00000E+00
    0.24711E-08        -0.11966E-09         0.00000E+00
    0.24684E-08        -0.12685E-09         0.00000E+00
    0.24646E-08        -0.13084E-09         0.00000E+00
    0.24595E-08        -0.13138E-09         0.00000E+00
    0.24526E-08        -0.12803E-09         0.00000E+00
    0.24438E-08        -0.12003E-09         0.00000E+00
    0.24327E-08        -0.10598E-09         0.00000E+00
    0.24214E-08        -0.78212E-10         0.00000E+00
    0.24129E-08        -0.30014E-10         0.00000E+00
    0.28382E-08        -0.14032E-10         0.00000E+00
    0.28378E-08        -0.38842E-10         0.00000E+00
    0.28371E-08        -0.60557E-10         0.00000E+00
    0.28360E-08        -0.79238E-10         0.00000E+00
    0.28345E-08        -0.94884E-10         0.00000E+00
    0.28323E-08        -0.10745E-09         0.00000E+00
    0.28292E-08        -0.11686E-09         0.00000E+00
    0.28252E-08        -0.12299E-09         0.00000E+00
    0.28198E-08        -0.12566E-09         0.00000E+00
    0.28130E-08        -0.12461E-09         0.00000E+00
    0.28045E-08        -0.11943E-09         0.00000E+00
    0.27940E-08        -0.10939E-09         0.00000E+00
    0.27817E-08        -0.93172E-10         0.00000E+00
    0.27688E-08        -0.66855E-10         0.00000E+00
    0.27591E-08        -0.23258E-10         0.00000E+00
    0.31920E-08        -0.13809E-10         0.00000E+00
    0.31914E-08        -0.38192E-10         0.00000E+00
    0.31902E-08        -0.59451E-10         0.00000E+00
    0.31885E-08        -0.77593E-10         0.00000E+00
    0.31860E-08        -0.92572E-10         0.00000E+00
    0.31827E-08        -0.10431E-09         0.00000E+00
    0.31784E-08        -0.11271E-09         0.00000E+00
    0.31729E-08        -0.11765E-09         0.00000E+00
    0.31661E-08        -0.11894E-09         0.00000E+00
    0.31579E-08        -0.11634E-09         0.00000E+00
    0.31481E-08        -0.10945E-09         0.00000E+00
    0.31368E-08        -0.97665E-10         0.00000E+00
    0.31243E-08        -0.80032E-10         0.00000E+00
    0.31118E-08        -0.54696E-10         0.00000E+00
    0.31040E-08        -0.17888E-10         0.00000E+00
    0.35362E-08        -0.13484E-10         0.00000E+00
    0.35354E-08        -0.37203E-10         0.00000E+00
    0.35337E-08        -0.57753E-10         0.00000E+00
    0.35312E-08        -0.75105E-10         0.00000E+00
    0.35277E-08        -0.89186E-10         0.00000E+00
    0.35231E-08        -0.99912E-10         0.00000E+00
    0.35175E-08        -0.10719E-09         0.00000E+00
    0.35106E-08        -0.11090E-09         0.00000E+00
    0.35025E-08        -0.11088E-09         0.00000E+00
    0.34932E-08        -0.10692E-09         0.00000E+00
    0.34828E-08        -0.98725E-10         0.00000E+00
    0.34716E-08        -0.85908E-10         0.00000E+00
    0.34604E-08        -0.68007E-10         0.00000E+00
    0.34505E-08        -0.44438E-10         0.00000E+00
    0.34449E-08        -0.14692E-10         0.00000E+00
    0.38698E-08        -0.13013E-10         0.00000E+00
    0.38687E-08        -0.35778E-10         0.00000E+00
    0.38664E-08        -0.55341E-10         0.00000E+00
    0.38630E-08        -0.71650E-10         0.00000E+00
    0.38584E-08        -0.84630E-10         0.00000E+00
    0.38526E-08        -0.94211E-10         0.00000E+00
    0.38456E-08        -0.10032E-09         0.00000E+00
    0.38375E-08        -0.10286E-09         0.00000E+00
    0.38283E-08        -0.10174E-09         0.00000E+00
    0.38183E-08        -0.96809E-10         0.00000E+00
    0.38077E-08        -0.87939E-10         0.00000E+00
    0.37972E-08        -0.75015E-10         0.00000E+00
    0.37876E-08        -0.58000E-10         0.00000E+00
    0.37800E-08        -0.36973E-10         0.00000E+00
    0.37758E-08        -0.12426E-10         0.00000E+00
    0.41917E-08        -0.12361E-10         0.00000E+00
    0.41902E-08        -0.33837E-10         0.00000E+00
    0.41872E-08        -0.52116E-10         0.00000E+00
    0.41828E-08        -0.67139E-10         0.00000E+00
    0.41771E-08        -0.78849E-10         0.00000E+00
    0.41700E-08        -0.87205E-10         0.00000E+00
    0.41617E-08        -0.92171E-10         0.00000E+00
    0.41525E-08        -0.93712E-10         0.00000E+00
    0.41425E-08        -0.91791E-10         0.00000E+00
    0.41321E-08        -0.86386E-10         0.00000E+00
    0.41217E-08        -0.77512E-10         0.00000E+00
    0.41120E-08        -0.65254E-10         0.00000E+00
    0.41037E-08        -0.49777E-10         0.00000E+00
    0.40974E-08        -0.31374E-10         0.00000E+00
    0.40942E-08        -0.10645E-10         0.00000E+00
    0.45009E-08        -0.11499E-10         0.00000E+00
    0.44989E-08        -0.31320E-10         0.00000E+00
    0.44952E-08        -0.48009E-10         0.00000E+00
    0.44898E-08        -0.61519E-10         0.00000E+00
    0.44828E-08        -0.71829E-10         0.00000E+00
    0.44745E-08        -0.78939E-10         0.00000E+00
    0.44651E-08        -0.82865E-10         0.00000E+00
    0.44549E-08        -0.83634E-10         0.00000E+00
    0.44443E-08        -0.81286E-10         0.00000E+00
    0.44336E-08        -0.75890E-10         0.00000E+00
    0.44235E-08        -0.67557E-10         0.00000E+00
    0.44144E-08        -0.56442E-10         0.00000E+00
    0.44069E-08        -0.42755E-10         0.00000E+00
    0.44015E-08        -0.26808E-10         0.00000E+00
    0.43987E-08        -0.91645E-11         0.00000E+00
    0.47962E-08        -0.10406E-10         0.00000E+00
    0.47938E-08        -0.28190E-10         0.00000E+00
    0.47893E-08        -0.42986E-10         0.00000E+00
    0.47829E-08        -0.54779E-10         0.00000E+00
    0.47748E-08        -0.63596E-10         0.00000E+00
    0.47653E-08        -0.69489E-10         0.00000E+00
    0.47549E-08        -0.72526E-10         0.00000E+00
    0.47438E-08        -0.72788E-10         0.00000E+00
    0.47326E-08        -0.70371E-10         0.00000E+00
    0.47218E-08        -0.65389E-10         0.00000E+00
    0.47118E-08        -0.57972E-10         0.00000E+00
    0.47031E-08        -0.48266E-10         0.00000E+00
    0.46961E-08        -0.36456E-10         0.00000E+00
    0.46912E-08        -0.22828E-10         0.00000E+00
    0.46887E-08        -0.78678E-11         0.00000E+00
    0.50768E-08        -0.90725E-11         0.00000E+00
    0.50740E-08        -0.24430E-10         0.00000E+00
    0.50687E-08        -0.37042E-10         0.00000E+00
    0.50613E-08        -0.46943E-10         0.00000E+00
    0.50521E-08        -0.54212E-10         0.00000E+00
    0.50415E-08        -0.58949E-10         0.00000E+00
    0.50301E-08        -0.61268E-10         0.00000E+00
    0.50184E-08        -0.61283E-10         0.00000E+00
    0.50067E-08        -0.59106E-10         0.00000E+00
    0.49957E-08        -0.54843E-10         0.00000E+00
    0.49857E-08        -0.48594E-10         0.00000E+00
    0.49772E-08        -0.40459E-10         0.00000E+00
    0.49705E-08        -0.30577E-10         0.00000E+00
    0.49658E-08        -0.19186E-10         0.00000E+00
    0.49635E-08        -0.66836E-11         0.00000E+00
    0.53417E-08        -0.74944E-11         0.00000E+00
    0.53385E-08        -0.20043E-10         0.00000E+00
    0.53325E-08        -0.30201E-10         0.00000E+00
    0.53241E-08        -0.38062E-10         0.00000E+00
    0.53139E-08        -0.43755E-10         0.00000E+00
    0.53024E-08        -0.47420E-10         0.00000E+00
    0.52901E-08        -0.49192E-10         0.00000E+00
    0.52777E-08        -0.49189E-10         0.00000E+00
    0.52656E-08        -0.47501E-10         0.00000E+00
    0.52544E-08        -0.44190E-10         0.00000E+00
    0.52443E-08        -0.39292E-10         0.00000E+00
    0.52359E-08        -0.32850E-10         0.00000E+00
    0.52293E-08        -0.24944E-10         0.00000E+00
    0.52249E-08        -0.15750E-10         0.00000E+00
    0.52226E-08        -0.55686E-11         0.00000E+00
    0.55902E-08        -0.56765E-11         0.00000E+00
    0.55865E-08        -0.15047E-10         0.00000E+00
    0.55798E-08        -0.22508E-10         0.00000E+00
    0.55706E-08        -0.28210E-10         0.00000E+00
    0.55595E-08        -0.32321E-10         0.00000E+00
    0.55471E-08        -0.35004E-10         0.00000E+00
    0.55341E-08        -0.36391E-10         0.00000E+00
    0.55211E-08        -0.36569E-10         0.00000E+00
    0.55086E-08        -0.35575E-10         0.00000E+00
    0.54971E-08        -0.33398E-10         0.00000E+00
    0.54870E-08        -0.30002E-10         0.00000E+00
    0.54787E-08        -0.25355E-10         0.00000E+00
    0.54722E-08        -0.19471E-10         0.00000E+00
    0.54679E-08        -0.12449E-10         0.00000E+00
    0.54657E-08        -0.44994E-11         0.00000E+00
    0.58213E-08        -0.36285E-11         0.00000E+00
    0.58173E-08        -0.94736E-11         0.00000E+00
    0.58099E-08        -0.14025E-10         0.00000E+00
    0.57999E-08        -0.17478E-10         0.00000E+00
    0.57880E-08        -0.20026E-10         0.00000E+00
    0.57749E-08        -0.21826E-10         0.00000E+00
    0.57613E-08        -0.22980E-10         0.00000E+00
    0.57478E-08        -0.23516E-10         0.00000E+00
    0.57350E-08        -0.23390E-10         0.00000E+00
    0.57234E-08        -0.22503E-10         0.00000E+00
    0.57133E-08        -0.20731E-10         0.00000E+00
    0.57050E-08        -0.17962E-10         0.00000E+00
    0.56987E-08        -0.14132E-10         0.00000E+00
    0.56945E-08        -0.92586E-11         0.00000E+00
    0.56924E-08        -0.34665E-11         0.00000E+00
    0.60342E-08        -0.13641E-11         0.00000E+00
    0.60298E-08        -0.33657E-11         0.00000E+00
    0.60219E-08        -0.48330E-11         0.00000E+00
    0.60112E-08        -0.59869E-11         0.00000E+00
    0.59987E-08        -0.70182E-11         0.00000E+00
    0.59850E-08        -0.80530E-11         0.00000E+00
    0.59710E-08        -0.91293E-11         0.00000E+00
    0.59573E-08        -0.10187E-10         0.00000E+00
    0.59444E-08        -0.11080E-10         0.00000E+00
    0.59329E-08        -0.11609E-10         0.00000E+00
    0.59229E-08        -0.11553E-10         0.00000E+00
    0.59147E-08        -0.10714E-10         0.00000E+00
    0.59086E-08        -0.89444E-11         0.00000E+00
    0.59045E-08        -0.61829E-11         0.00000E+00
    0.59025E-08        -0.24696E-11         0.00000E+00
    0.62281E-08         0.11009E-11         0.00000E+00
    0.62234E-08         0.32241E-11         0.00000E+00
    0.62150E-08         0.49647E-11         0.00000E+00
    0.62038E-08         0.61043E-11         0.00000E+00
    0.61908E-08         0.64895E-11         0.00000E+00
    0.61769E-08         0.60658E-11         0.00000E+00
    0.61628E-08         0.48996E-11         0.00000E+00
    0.61491E-08         0.31693E-11         0.00000E+00
    0.61365E-08         0.11370E-11         0.00000E+00
    0.61251E-08        -0.89075E-12         0.00000E+00
    0.61155E-08        -0.25993E-11         0.00000E+00
    0.61076E-08        -0.37007E-11         0.00000E+00
    0.61018E-08        -0.39657E-11         0.00000E+00
    0.60979E-08        -0.32504E-11         0.00000E+00
    0.60960E-08        -0.15164E-11         0.00000E+00
    0.64020E-08         0.37507E-11         0.00000E+00
    0.63971E-08         0.10233E-10         0.00000E+00
    0.63883E-08         0.15232E-10         0.00000E+00
    0.63768E-08         0.18571E-10         0.00000E+00
    0.63637E-08         0.20187E-10         0.00000E+00
    0.63499E-08         0.20167E-10         0.00000E+00
    0.63362E-08         0.18731E-10         0.00000E+00
    0.63230E-08         0.16203E-10         0.00000E+00
    0.63109E-08         0.12959E-10         0.00000E+00
    0.63002E-08         0.94045E-11         0.00000E+00
    0.62910E-08         0.59418E-11         0.00000E+00
    0.62837E-08         0.29423E-11         0.00000E+00
    0.62782E-08         0.71763E-12         0.00000E+00
    0.62746E-08        -0.50819E-12         0.00000E+00
    0.62729E-08        -0.62007E-12         0.00000E+00
    0.65551E-08         0.65750E-11         0.00000E+00
    0.65499E-08         0.17594E-10         0.00000E+00
    0.65409E-08         0.25788E-10         0.00000E+00
    0.65294E-08         0.31080E-10         0.00000E+00
    0.65167E-08         0.33621E-10         0.00000E+00
    0.65036E-08         0.33739E-10         0.00000E+00
    0.64908E-08         0.31860E-10         0.00000E+00
    0.64787E-08         0.28451E-10         0.00000E+00
    0.64676E-08         0.23990E-10         0.00000E+00
    0.64578E-08         0.18958E-10         0.00000E+00
    0.64496E-08         0.13827E-10         0.00000E+00
    0.64430E-08         0.90427E-11         0.00000E+00
    0.64381E-08         0.49931E-11         0.00000E+00
    0.64349E-08         0.19822E-11         0.00000E+00
    0.64333E-08         0.20228E-12         0.00000E+00
    0.66864E-08         0.95695E-11         0.00000E+00
    0.66810E-08         0.25262E-10         0.00000E+00
    0.66719E-08         0.36360E-10         0.00000E+00
    0.66609E-08         0.43128E-10         0.00000E+00
    0.66493E-08         0.46154E-10         0.00000E+00
    0.66376E-08         0.46112E-10         0.00000E+00
    0.66264E-08         0.43644E-10         0.00000E+00
    0.66160E-08         0.39339E-10         0.00000E+00
    0.66066E-08         0.33741E-10         0.00000E+00
    0.65983E-08         0.27377E-10         0.00000E+00
    0.65913E-08         0.20761E-10         0.00000E+00
    0.65857E-08         0.14392E-10         0.00000E+00
    0.65815E-08         0.87258E-11         0.00000E+00
    0.65788E-08         0.41476E-11         0.00000E+00
    0.65775E-08         0.93069E-12         0.00000E+00
    0.67948E-08         0.12859E-10         0.00000E+00
    0.67891E-08         0.33193E-10         0.00000E+00
    0.67804E-08         0.46473E-10         0.00000E+00
    0.67706E-08         0.53955E-10         0.00000E+00
    0.67609E-08         0.56939E-10         0.00000E+00
    0.67516E-08         0.56453E-10         0.00000E+00
    0.67430E-08         0.53309E-10         0.00000E+00
    0.67351E-08         0.48173E-10         0.00000E+00
    0.67280E-08         0.41624E-10         0.00000E+00
    0.67217E-08         0.34192E-10         0.00000E+00
    0.67164E-08         0.26393E-10         0.00000E+00
    0.67121E-08         0.18747E-10         0.00000E+00
    0.67089E-08         0.11763E-10         0.00000E+00
    0.67069E-08         0.59063E-11         0.00000E+00
    0.67058E-08         0.15440E-11         0.00000E+00
    0.68790E-08         0.16696E-10         0.00000E+00
    0.68730E-08         0.41220E-10         0.00000E+00
    0.68653E-08         0.55233E-10         0.00000E+00
    0.68580E-08         0.62514E-10         0.00000E+00
    0.68514E-08         0.64948E-10         0.00000E+00
    0.68456E-08         0.63791E-10         0.00000E+00
    0.68405E-08         0.59958E-10         0.00000E+00
    0.68360E-08         0.54157E-10         0.00000E+00
    0.68320E-08         0.46960E-10         0.00000E+00
    0.68284E-08         0.38858E-10         0.00000E+00
    0.68253E-08         0.30317E-10         0.00000E+00
    0.68227E-08         0.21831E-10         0.00000E+00
    0.68207E-08         0.13934E-10         0.00000E+00
    0.68194E-08         0.71713E-11         0.00000E+00
    0.68187E-08         0.20223E-11         0.00000E+00
    0.69371E-08         0.20812E-10         0.00000E+00
    0.69319E-08         0.48601E-10         0.00000E+00
    0.69265E-08         0.61381E-10         0.00000E+00
    0.69229E-08         0.67555E-10         0.00000E+00
    0.69208E-08         0.68991E-10         0.00000E+00
    0.69196E-08         0.67021E-10         0.00000E+00
    0.69191E-08         0.62598E-10         0.00000E+00
    0.69190E-08         0.56419E-10         0.00000E+00
    0.69189E-08         0.49003E-10         0.00000E+00
    0.69188E-08         0.40763E-10         0.00000E+00
    0.69184E-08         0.32068E-10         0.00000E+00
    0.69179E-08         0.23329E-10         0.00000E+00
    0.69174E-08         0.15053E-10         0.00000E+00
    0.69170E-08         0.78529E-11         0.00000E+00
    0.69167E-08         0.23476E-11         0.00000E+00
    0.69684E-08         0.24400E-10         0.00000E+00
    0.69653E-08         0.53785E-10         0.00000E+00
    0.69638E-08         0.63559E-10         0.00000E+00
    0.69655E-08         0.67652E-10         0.00000E+00
    0.69692E-08         0.67704E-10         0.00000E+00
    0.69741E-08         0.64929E-10         0.00000E+00
    0.69794E-08         0.60182E-10         0.00000E+00
    0.69846E-08         0.54062E-10         0.00000E+00
    0.69893E-08         0.46987E-10         0.00000E+00
    0.69932E-08         0.39258E-10         0.00000E+00
    0.69962E-08         0.31126E-10         0.00000E+00
    0.69983E-08         0.22869E-10         0.00000E+00
    0.69995E-08         0.14905E-10         0.00000E+00
    0.70002E-08         0.78567E-11         0.00000E+00
    0.70004E-08         0.25089E-11         0.00000E+00
    0.69702E-08         0.26348E-10         0.00000E+00
    0.69713E-08         0.54424E-10         0.00000E+00
    0.69766E-08         0.59688E-10         0.00000E+00
    0.69860E-08         0.60925E-10         0.00000E+00
    0.69976E-08         0.59521E-10         0.00000E+00
    0.70100E-08         0.56255E-10         0.00000E+00
    0.70222E-08         0.51700E-10         0.00000E+00
    0.70336E-08         0.46258E-10         0.00000E+00
    0.70437E-08         0.40202E-10         0.00000E+00
    0.70524E-08         0.33718E-10         0.00000E+00
    0.70593E-08         0.26940E-10         0.00000E+00
    0.70644E-08         0.20014E-10         0.00000E+00
    0.70679E-08         0.13201E-10         0.00000E+00
    0.70699E-08         0.70789E-11         0.00000E+00
    0.70706E-08         0.25072E-11         0.00000E+00
    0.69376E-08         0.24646E-10         0.00000E+00
    0.69473E-08         0.46067E-10         0.00000E+00
    0.69648E-08         0.45971E-10         0.00000E+00
    0.69857E-08         0.44897E-10         0.00000E+00
    0.70074E-08         0.42771E-10         0.00000E+00
    0.70286E-08         0.39828E-10         0.00000E+00
    0.70486E-08         0.36292E-10         0.00000E+00
    0.70668E-08         0.32337E-10         0.00000E+00
    0.70830E-08         0.28089E-10         0.00000E+00
    0.70968E-08         0.23630E-10         0.00000E+00
    0.71081E-08         0.19014E-10         0.00000E+00
    0.71168E-08         0.14290E-10         0.00000E+00
    0.71229E-08         0.95628E-11         0.00000E+00
    0.71266E-08         0.52114E-11         0.00000E+00
    0.71280E-08         0.24793E-11         0.00000E+00
    0.68629E-08         0.11276E-10         0.00000E+00
    0.68942E-08         0.19439E-10         0.00000E+00
    0.69321E-08         0.18023E-10         0.00000E+00
    0.69675E-08         0.17107E-10         0.00000E+00
    0.70009E-08         0.16022E-10         0.00000E+00
    0.70319E-08         0.14770E-10         0.00000E+00
    0.70603E-08         0.13381E-10         0.00000E+00
    0.70857E-08         0.11889E-10         0.00000E+00
    0.71081E-08         0.10321E-10         0.00000E+00
    0.71272E-08         0.86977E-11         0.00000E+00
    0.71430E-08         0.70296E-11         0.00000E+00
    0.71555E-08         0.53252E-11         0.00000E+00
    0.71645E-08         0.36045E-11         0.00000E+00
    0.71702E-08         0.19711E-11         0.00000E+00
    0.71736E-08         0.12461E-11         0.00000E+00
POINT_DATA        496
VECTORS vDarcyNodal double 
    0.19422E-09        -0.14965E-10         0.00000E+00
    0.19418E-09        -0.27684E-10         0.00000E+00
    0.19413E-09        -0.51159E-10         0.00000E+00
    0.19411E-09        -0.70918E-10         0.00000E+00
    0.19417E-09        -0.87410E-10         0.00000E+00
    0.19433E-09        -0.10115E-09         0.00000E+00
    0.19463E-09        -0.11272E-09         0.00000E+00
    0.19501E-09        -0.12285E-09         0.00000E+00
    0.19535E-09        -0.13239E-09         0.00000E+00
    0.19542E-09        -0.14224E-09         0.00000E+00
    0.19490E-09        -0.15324E-09         0.00000E+00
    0.19353E-09        -0.16407E-09         0.00000E+00
    0.19186E-09        -0.15992E-09         0.00000E+00
    0.19108E-09        -0.12476E-09         0.00000E+00
    0.19106E-09        -0.66837E-10         0.00000E+00
    0.19106E-09        -0.34966E-10         0.00000E+00
    0.38817E-09        -0.14931E-10         0.00000E+00
    0.38810E-09        -0.27642E-10         0.00000E+00
    0.38800E-09        -0.51127E-10         0.00000E+00
    0.38797E-09        -0.70941E-10         0.00000E+00
    0.38808E-09        -0.87526E-10         0.00000E+00
    0.38839E-09        -0.10138E-09         0.00000E+00
    0.38892E-09        -0.11306E-09         0.00000E+00
    0.38960E-09        -0.12322E-09         0.00000E+00
    0.39021E-09        -0.13260E-09         0.00000E+00
    0.39033E-09        -0.14201E-09         0.00000E+00
    0.38940E-09        -0.15229E-09         0.00000E+00
    0.38685E-09        -0.16255E-09         0.00000E+00
    0.38353E-09        -0.15870E-09         0.00000E+00
    0.38182E-09        -0.12436E-09         0.00000E+00
    0.38171E-09        -0.66829E-10         0.00000E+00
    0.38169E-09        -0.34968E-10         0.00000E+00
    0.77528E-09        -0.14835E-10         0.00000E+00
    0.77516E-09        -0.27529E-10         0.00000E+00
    0.77499E-09        -0.51043E-10         0.00000E+00
    0.77493E-09        -0.71008E-10         0.00000E+00
    0.77512E-09        -0.87843E-10         0.00000E+00
    0.77564E-09        -0.10200E-09         0.00000E+00
    0.77651E-09        -0.11394E-09         0.00000E+00
    0.77758E-09        -0.12415E-09         0.00000E+00
    0.77852E-09        -0.13313E-09         0.00000E+00
    0.77867E-09        -0.14144E-09         0.00000E+00
    0.77706E-09        -0.14976E-09         0.00000E+00
    0.77265E-09        -0.15820E-09         0.00000E+00
    0.76613E-09        -0.15490E-09         0.00000E+00
    0.76222E-09        -0.12296E-09         0.00000E+00
    0.76183E-09        -0.66716E-10         0.00000E+00
    0.76175E-09        -0.34931E-10         0.00000E+00
    0.11603E-08        -0.14700E-10         0.00000E+00
    0.11601E-08        -0.27372E-10         0.00000E+00
    0.11599E-08        -0.50931E-10         0.00000E+00
    0.11598E-08        -0.71103E-10         0.00000E+00
    0.11600E-08        -0.88264E-10         0.00000E+00
    0.11606E-08        -0.10279E-09         0.00000E+00
    0.11615E-08        -0.11502E-09         0.00000E+00
    0.11625E-08        -0.12525E-09         0.00000E+00
    0.11633E-08        -0.13369E-09         0.00000E+00
    0.11632E-08        -0.14057E-09         0.00000E+00
    0.11611E-08        -0.14629E-09         0.00000E+00
    0.11558E-08        -0.15163E-09         0.00000E+00
    0.11468E-08        -0.14828E-09         0.00000E+00
    0.11401E-08        -0.12007E-09         0.00000E+00
    0.11389E-08        -0.66370E-10         0.00000E+00
    0.11388E-08        -0.34814E-10         0.00000E+00
    0.15421E-08        -0.14551E-10         0.00000E+00
    0.15419E-08        -0.27200E-10         0.00000E+00
    0.15417E-08        -0.50807E-10         0.00000E+00
    0.15416E-08        -0.71187E-10         0.00000E+00
    0.15417E-08        -0.88649E-10         0.00000E+00
    0.15421E-08        -0.10347E-09         0.00000E+00
    0.15426E-08        -0.11588E-09         0.00000E+00
    0.15431E-08        -0.12598E-09         0.00000E+00
    0.15432E-08        -0.13380E-09         0.00000E+00
    0.15423E-08        -0.13927E-09         0.00000E+00
    0.15398E-08        -0.14243E-09         0.00000E+00
    0.15343E-08        -0.14392E-09         0.00000E+00
    0.15243E-08        -0.13923E-09         0.00000E+00
    0.15150E-08        -0.11501E-09         0.00000E+00
    0.15116E-08        -0.65428E-10         0.00000E+00
    0.15118E-08        -0.34895E-10         0.00000E+00
    0.19196E-08        -0.14407E-10         0.00000E+00
    0.19194E-08        -0.27028E-10         0.00000E+00
    0.19192E-08        -0.50657E-10         0.00000E+00
    0.19190E-08        -0.71182E-10         0.00000E+00
    0.19189E-08        -0.88825E-10         0.00000E+00
    0.19189E-08        -0.10377E-09         0.00000E+00
    0.19188E-08        -0.11611E-09         0.00000E+00
    0.19184E-08        -0.12586E-09         0.00000E+00
    0.19173E-08        -0.13294E-09         0.00000E+00
    0.19153E-08        -0.13716E-09         0.00000E+00
    0.19117E-08        -0.13828E-09         0.00000E+00
    0.19060E-08        -0.13620E-09         0.00000E+00
    0.18962E-08        -0.12901E-09         0.00000E+00
    0.18853E-08        -0.10736E-09         0.00000E+00
    0.18789E-08        -0.63188E-10         0.00000E+00
    0.18781E-08        -0.35294E-10         0.00000E+00
    0.22917E-08        -0.14269E-10         0.00000E+00
    0.22916E-08        -0.26844E-10         0.00000E+00
    0.22912E-08        -0.50430E-10         0.00000E+00
    0.22909E-08        -0.70974E-10         0.00000E+00
    0.22904E-08        -0.88612E-10         0.00000E+00
    0.22898E-08        -0.10343E-09         0.00000E+00
    0.22888E-08        -0.11543E-09         0.00000E+00
    0.22873E-08        -0.12457E-09         0.00000E+00
    0.22849E-08        -0.13072E-09         0.00000E+00
    0.22813E-08        -0.13369E-09         0.00000E+00
    0.22762E-08        -0.13313E-09         0.00000E+00
    0.22692E-08        -0.12844E-09         0.00000E+00
    0.22596E-08        -0.11856E-09         0.00000E+00
    0.22477E-08        -0.97745E-10         0.00000E+00
    0.22387E-08        -0.58324E-10         0.00000E+00
    0.22344E-08        -0.33314E-10         0.00000E+00
    0.26573E-08        -0.14124E-10         0.00000E+00
    0.26571E-08        -0.26609E-10         0.00000E+00
    0.26567E-08        -0.50037E-10         0.00000E+00
    0.26560E-08        -0.70423E-10         0.00000E+00
    0.26550E-08        -0.87826E-10         0.00000E+00
    0.26536E-08        -0.10225E-09         0.00000E+00
    0.26516E-08        -0.11365E-09         0.00000E+00
    0.26487E-08        -0.12194E-09         0.00000E+00
    0.26448E-08        -0.12697E-09         0.00000E+00
    0.26396E-08        -0.12853E-09         0.00000E+00
    0.26329E-08        -0.12628E-09         0.00000E+00
    0.26242E-08        -0.11962E-09         0.00000E+00
    0.26136E-08        -0.10745E-09         0.00000E+00
    0.26008E-08        -0.86450E-10         0.00000E+00
    0.25894E-08        -0.49902E-10         0.00000E+00
    0.25827E-08        -0.26713E-10         0.00000E+00
    0.30152E-08        -0.13941E-10         0.00000E+00
    0.30150E-08        -0.26265E-10         0.00000E+00
    0.30143E-08        -0.49362E-10         0.00000E+00
    0.30131E-08        -0.69372E-10         0.00000E+00
    0.30114E-08        -0.86296E-10         0.00000E+00
    0.30091E-08        -0.10008E-09         0.00000E+00
    0.30059E-08        -0.11066E-09         0.00000E+00
    0.30017E-08        -0.11791E-09         0.00000E+00
    0.29963E-08        -0.12167E-09         0.00000E+00
    0.29896E-08        -0.12174E-09         0.00000E+00
    0.29813E-08        -0.11777E-09         0.00000E+00
    0.29713E-08        -0.10920E-09         0.00000E+00
    0.29595E-08        -0.95112E-10         0.00000E+00
    0.29464E-08        -0.73578E-10         0.00000E+00
    0.29342E-08        -0.40212E-10         0.00000E+00
    0.29289E-08        -0.19804E-10         0.00000E+00
    0.33642E-08        -0.13678E-10         0.00000E+00
    0.33639E-08        -0.25736E-10         0.00000E+00
    0.33629E-08        -0.48281E-10         0.00000E+00
    0.33611E-08        -0.67672E-10         0.00000E+00
    0.33586E-08        -0.83869E-10         0.00000E+00
    0.33551E-08        -0.96798E-10         0.00000E+00
    0.33507E-08        -0.10636E-09         0.00000E+00
    0.33451E-08        -0.11245E-09         0.00000E+00
    0.33384E-08        -0.11492E-09         0.00000E+00
    0.33303E-08        -0.11354E-09         0.00000E+00
    0.33208E-08        -0.10802E-09         0.00000E+00
    0.33101E-08        -0.97910E-10         0.00000E+00
    0.32983E-08        -0.82586E-10         0.00000E+00
    0.32863E-08        -0.61150E-10         0.00000E+00
    0.32760E-08        -0.32372E-10         0.00000E+00
    0.32728E-08        -0.15973E-10         0.00000E+00
    0.37033E-08        -0.13289E-10         0.00000E+00
    0.37028E-08        -0.24950E-10         0.00000E+00
    0.37013E-08        -0.46675E-10         0.00000E+00
    0.36988E-08        -0.65186E-10         0.00000E+00
    0.36953E-08        -0.80421E-10         0.00000E+00
    0.36907E-08        -0.92300E-10         0.00000E+00
    0.36850E-08        -0.10074E-09         0.00000E+00
    0.36781E-08        -0.10563E-09         0.00000E+00
    0.36700E-08        -0.10686E-09         0.00000E+00
    0.36608E-08        -0.10426E-09         0.00000E+00
    0.36507E-08        -0.97629E-10         0.00000E+00
    0.36399E-08        -0.86723E-10         0.00000E+00
    0.36290E-08        -0.71328E-10         0.00000E+00
    0.36190E-08        -0.51295E-10         0.00000E+00
    0.36115E-08        -0.26758E-10         0.00000E+00
    0.36092E-08        -0.13411E-10         0.00000E+00
    0.40311E-08        -0.12736E-10         0.00000E+00
    0.40304E-08        -0.23841E-10         0.00000E+00
    0.40284E-08        -0.44444E-10         0.00000E+00
    0.40252E-08        -0.61805E-10         0.00000E+00
    0.40206E-08        -0.75859E-10         0.00000E+00
    0.40148E-08        -0.86541E-10         0.00000E+00
    0.40078E-08        -0.93790E-10         0.00000E+00
    0.39996E-08        -0.97545E-10         0.00000E+00
    0.39904E-08        -0.97735E-10         0.00000E+00
    0.39804E-08        -0.94281E-10         0.00000E+00
    0.39700E-08        -0.87118E-10         0.00000E+00
    0.39595E-08        -0.76231E-10         0.00000E+00
    0.39497E-08        -0.61687E-10         0.00000E+00
    0.39415E-08        -0.43679E-10         0.00000E+00
    0.39359E-08        -0.22642E-10         0.00000E+00
    0.39341E-08        -0.11442E-10         0.00000E+00
    0.43467E-08        -0.11985E-10         0.00000E+00
    0.43458E-08        -0.22357E-10         0.00000E+00
    0.43433E-08        -0.41509E-10         0.00000E+00
    0.43391E-08        -0.57450E-10         0.00000E+00
    0.43335E-08        -0.70129E-10         0.00000E+00
    0.43264E-08        -0.79513E-10         0.00000E+00
    0.43181E-08        -0.85586E-10         0.00000E+00
    0.43088E-08        -0.88338E-10         0.00000E+00
    0.42987E-08        -0.87768E-10         0.00000E+00
    0.42881E-08        -0.83896E-10         0.00000E+00
    0.42776E-08        -0.76780E-10         0.00000E+00
    0.42676E-08        -0.66536E-10         0.00000E+00
    0.42588E-08        -0.53344E-10         0.00000E+00
    0.42518E-08        -0.37472E-10         0.00000E+00
    0.42472E-08        -0.19377E-10         0.00000E+00
    0.42457E-08        -0.98478E-11         0.00000E+00
    0.46491E-08        -0.11012E-10         0.00000E+00
    0.46479E-08        -0.20462E-10         0.00000E+00
    0.46448E-08        -0.37820E-10         0.00000E+00
    0.46397E-08        -0.52079E-10         0.00000E+00
    0.46329E-08        -0.63219E-10         0.00000E+00
    0.46247E-08        -0.71254E-10         0.00000E+00
    0.46152E-08        -0.76218E-10         0.00000E+00
    0.46048E-08        -0.78162E-10         0.00000E+00
    0.45939E-08        -0.77153E-10         0.00000E+00
    0.45830E-08        -0.73281E-10         0.00000E+00
    0.45725E-08        -0.66667E-10         0.00000E+00
    0.45629E-08        -0.57463E-10         0.00000E+00
    0.45547E-08        -0.45853E-10         0.00000E+00
    0.45483E-08        -0.32092E-10         0.00000E+00
    0.45443E-08        -0.16596E-10         0.00000E+00
    0.45430E-08        -0.84812E-11         0.00000E+00
    0.49371E-08        -0.98008E-11         0.00000E+00
    0.49358E-08        -0.18135E-10         0.00000E+00
    0.49320E-08        -0.33355E-10         0.00000E+00
    0.49260E-08        -0.45687E-10         0.00000E+00
    0.49181E-08        -0.55157E-10         0.00000E+00
    0.49087E-08        -0.61831E-10         0.00000E+00
    0.48981E-08        -0.65796E-10         0.00000E+00
    0.48869E-08        -0.67151E-10         0.00000E+00
    0.48753E-08        -0.66007E-10         0.00000E+00
    0.48640E-08        -0.62480E-10         0.00000E+00
    0.48535E-08        -0.56694E-10         0.00000E+00
    0.48441E-08        -0.48774E-10         0.00000E+00
    0.48362E-08        -0.38869E-10         0.00000E+00
    0.48304E-08        -0.27192E-10         0.00000E+00
    0.48267E-08        -0.14099E-10         0.00000E+00
    0.48255E-08        -0.72545E-11         0.00000E+00
    0.52100E-08        -0.83443E-11         0.00000E+00
    0.52084E-08        -0.15368E-10         0.00000E+00
    0.52040E-08        -0.28117E-10         0.00000E+00
    0.51971E-08        -0.38299E-10         0.00000E+00
    0.51882E-08        -0.45998E-10         0.00000E+00
    0.51777E-08        -0.51330E-10         0.00000E+00
    0.51662E-08        -0.54422E-10         0.00000E+00
    0.51541E-08        -0.55400E-10         0.00000E+00
    0.51420E-08        -0.54382E-10         0.00000E+00
    0.51304E-08        -0.51469E-10         0.00000E+00
    0.51197E-08        -0.46744E-10         0.00000E+00
    0.51104E-08        -0.40279E-10         0.00000E+00
    0.51027E-08        -0.32167E-10         0.00000E+00
    0.50971E-08        -0.22571E-10         0.00000E+00
    0.50936E-08        -0.11771E-10         0.00000E+00
    0.50925E-08        -0.61128E-11         0.00000E+00
    0.54669E-08        -0.66446E-11         0.00000E+00
    0.54650E-08        -0.12169E-10         0.00000E+00
    0.54600E-08        -0.22128E-10         0.00000E+00
    0.54523E-08        -0.29965E-10         0.00000E+00
    0.54424E-08        -0.35819E-10         0.00000E+00
    0.54310E-08        -0.39845E-10         0.00000E+00
    0.54185E-08        -0.42191E-10         0.00000E+00
    0.54057E-08        -0.42982E-10         0.00000E+00
    0.53931E-08        -0.42309E-10         0.00000E+00
    0.53811E-08        -0.40222E-10         0.00000E+00
    0.53703E-08        -0.36738E-10         0.00000E+00
    0.53610E-08        -0.31863E-10         0.00000E+00
    0.53535E-08        -0.25627E-10         0.00000E+00
    0.53480E-08        -0.18123E-10         0.00000E+00
    0.53447E-08        -0.95476E-11         0.00000E+00
    0.53436E-08        -0.50244E-11         0.00000E+00
    0.57068E-08        -0.47086E-11         0.00000E+00
    0.57047E-08        -0.85543E-11         0.00000E+00
    0.56991E-08        -0.15428E-10         0.00000E+00
    0.56906E-08        -0.20753E-10         0.00000E+00
    0.56799E-08        -0.24712E-10         0.00000E+00
    0.56676E-08        -0.27481E-10         0.00000E+00
    0.56544E-08        -0.29205E-10         0.00000E+00
    0.56410E-08        -0.29979E-10         0.00000E+00
    0.56279E-08        -0.29836E-10         0.00000E+00
    0.56157E-08        -0.28752E-10         0.00000E+00
    0.56048E-08        -0.26663E-10         0.00000E+00
    0.55955E-08        -0.23494E-10         0.00000E+00
    0.55881E-08        -0.19200E-10         0.00000E+00
    0.55828E-08        -0.13798E-10         0.00000E+00
    0.55796E-08        -0.74009E-11         0.00000E+00
    0.55785E-08        -0.39745E-11         0.00000E+00
    0.59289E-08        -0.25485E-11         0.00000E+00
    0.59266E-08        -0.45480E-11         0.00000E+00
    0.59205E-08        -0.80713E-11         0.00000E+00
    0.59113E-08        -0.10751E-10         0.00000E+00
    0.58998E-08        -0.12792E-10         0.00000E+00
    0.58868E-08        -0.14371E-10         0.00000E+00
    0.58730E-08        -0.15601E-10         0.00000E+00
    0.58592E-08        -0.16517E-10         0.00000E+00
    0.58459E-08        -0.17070E-10         0.00000E+00
    0.58336E-08        -0.17142E-10         0.00000E+00
    0.58227E-08        -0.16573E-10         0.00000E+00
    0.58135E-08        -0.15200E-10         0.00000E+00
    0.58063E-08        -0.12894E-10         0.00000E+00
    0.58010E-08        -0.95924E-11         0.00000E+00
    0.57979E-08        -0.53242E-11         0.00000E+00
    0.57969E-08        -0.29585E-11         0.00000E+00
    0.61324E-08        -0.17970E-12         0.00000E+00
    0.61299E-08        -0.18194E-12         0.00000E+00
    0.61233E-08        -0.12765E-12         0.00000E+00
    0.61136E-08        -0.69774E-13         0.00000E+00
    0.61015E-08        -0.21342E-12         0.00000E+00
    0.60880E-08        -0.70078E-12         0.00000E+00
    0.60739E-08        -0.15819E-11         0.00000E+00
    0.60599E-08        -0.27998E-11         0.00000E+00
    0.60465E-08        -0.41978E-11         0.00000E+00
    0.60344E-08        -0.55481E-11         0.00000E+00
    0.60236E-08        -0.65899E-11         0.00000E+00
    0.60147E-08        -0.70671E-11         0.00000E+00
    0.60077E-08        -0.67640E-11         0.00000E+00
    0.60027E-08        -0.55350E-11         0.00000E+00
    0.59997E-08        -0.33284E-11         0.00000E+00
    0.59988E-08        -0.19807E-11         0.00000E+00
    0.63164E-08         0.23814E-11         0.00000E+00
    0.63137E-08         0.45067E-11         0.00000E+00
    0.63068E-08         0.83160E-11         0.00000E+00
    0.62965E-08         0.11138E-10         0.00000E+00
    0.62841E-08         0.12807E-10         0.00000E+00
    0.62704E-08         0.13256E-10         0.00000E+00
    0.62564E-08         0.12547E-10         0.00000E+00
    0.62426E-08         0.10868E-10         0.00000E+00
    0.62296E-08         0.85036E-11         0.00000E+00
    0.62178E-08         0.57939E-11         0.00000E+00
    0.62075E-08         0.30995E-11         0.00000E+00
    0.61990E-08         0.76686E-12         0.00000E+00
    0.61924E-08        -0.90266E-12         0.00000E+00
    0.61877E-08        -0.16813E-11         0.00000E+00
    0.61849E-08        -0.14385E-11         0.00000E+00
    0.61840E-08        -0.10521E-11         0.00000E+00
    0.64800E-08         0.51198E-11         0.00000E+00
    0.64772E-08         0.94771E-11         0.00000E+00
    0.64699E-08         0.17149E-10         0.00000E+00
    0.64593E-08         0.22664E-10         0.00000E+00
    0.64469E-08         0.25950E-10         0.00000E+00
    0.64335E-08         0.27098E-10         0.00000E+00
    0.64200E-08         0.26351E-10         0.00000E+00
    0.64069E-08         0.24066E-10         0.00000E+00
    0.63947E-08         0.20658E-10         0.00000E+00
    0.63838E-08         0.16569E-10         0.00000E+00
    0.63742E-08         0.12246E-10         0.00000E+00
    0.63664E-08         0.81170E-11         0.00000E+00
    0.63603E-08         0.45624E-11         0.00000E+00
    0.63560E-08         0.18906E-11         0.00000E+00
    0.63535E-08         0.31021E-12         0.00000E+00
    0.63527E-08        -0.18803E-12         0.00000E+00
    0.66222E-08         0.80300E-11         0.00000E+00
    0.66193E-08         0.14692E-10         0.00000E+00
    0.66117E-08         0.26233E-10         0.00000E+00
    0.66012E-08         0.34204E-10         0.00000E+00
    0.65892E-08         0.38750E-10         0.00000E+00
    0.65768E-08         0.40263E-10         0.00000E+00
    0.65645E-08         0.39248E-10         0.00000E+00
    0.65528E-08         0.36246E-10         0.00000E+00
    0.65419E-08         0.31784E-10         0.00000E+00
    0.65323E-08         0.26379E-10         0.00000E+00
    0.65239E-08         0.20539E-10         0.00000E+00
    0.65170E-08         0.14753E-10         0.00000E+00
    0.65117E-08         0.94732E-11         0.00000E+00
    0.65079E-08         0.50845E-11         0.00000E+00
    0.65058E-08         0.18742E-11         0.00000E+00
    0.65050E-08         0.59255E-12         0.00000E+00
    0.67422E-08         0.11109E-10         0.00000E+00
    0.67390E-08         0.20140E-10         0.00000E+00
    0.67312E-08         0.35388E-10         0.00000E+00
    0.67211E-08         0.45283E-10         0.00000E+00
    0.67104E-08         0.50531E-10         0.00000E+00
    0.66997E-08         0.52002E-10         0.00000E+00
    0.66895E-08         0.50507E-10         0.00000E+00
    0.66799E-08         0.46737E-10         0.00000E+00
    0.66712E-08         0.41295E-10         0.00000E+00
    0.66634E-08         0.34739E-10         0.00000E+00
    0.66566E-08         0.27599E-10         0.00000E+00
    0.66511E-08         0.20400E-10         0.00000E+00
    0.66467E-08         0.13644E-10         0.00000E+00
    0.66437E-08         0.77888E-11         0.00000E+00
    0.66420E-08         0.32041E-11         0.00000E+00
    0.66413E-08         0.12688E-11         0.00000E+00
    0.68388E-08         0.14610E-10         0.00000E+00
    0.68350E-08         0.25913E-10         0.00000E+00
    0.68271E-08         0.44278E-10         0.00000E+00
    0.68185E-08         0.55145E-10         0.00000E+00
    0.68101E-08         0.60363E-10         0.00000E+00
    0.68022E-08         0.61390E-10         0.00000E+00
    0.67950E-08         0.59255E-10         0.00000E+00
    0.67885E-08         0.54745E-10         0.00000E+00
    0.67826E-08         0.48501E-10         0.00000E+00
    0.67774E-08         0.41077E-10         0.00000E+00
    0.67728E-08         0.32986E-10         0.00000E+00
    0.67689E-08         0.24740E-10         0.00000E+00
    0.67659E-08         0.16865E-10         0.00000E+00
    0.67637E-08         0.98799E-11         0.00000E+00
    0.67625E-08         0.42461E-11         0.00000E+00
    0.67620E-08         0.18192E-11         0.00000E+00
    0.69101E-08         0.18781E-10         0.00000E+00
    0.69061E-08         0.32003E-10         0.00000E+00
    0.68989E-08         0.52175E-10         0.00000E+00
    0.68929E-08         0.62602E-10         0.00000E+00
    0.68880E-08         0.67098E-10         0.00000E+00
    0.68841E-08         0.67349E-10         0.00000E+00
    0.68811E-08         0.64495E-10         0.00000E+00
    0.68786E-08         0.59371E-10         0.00000E+00
    0.68764E-08         0.52617E-10         0.00000E+00
    0.68745E-08         0.44741E-10         0.00000E+00
    0.68727E-08         0.36189E-10         0.00000E+00
    0.68710E-08         0.27408E-10         0.00000E+00
    0.68696E-08         0.18900E-10         0.00000E+00
    0.68685E-08         0.11225E-10         0.00000E+00
    0.68678E-08         0.49475E-11         0.00000E+00
    0.68675E-08         0.22255E-11         0.00000E+00
    0.69545E-08         0.22843E-10         0.00000E+00
    0.69511E-08         0.37410E-10         0.00000E+00
    0.69461E-08         0.57807E-10         0.00000E+00
    0.69441E-08         0.66334E-10         0.00000E+00
    0.69442E-08         0.69448E-10         0.00000E+00
    0.69457E-08         0.68663E-10         0.00000E+00
    0.69480E-08         0.65124E-10         0.00000E+00
    0.69506E-08         0.59646E-10         0.00000E+00
    0.69530E-08         0.52805E-10         0.00000E+00
    0.69552E-08         0.45025E-10         0.00000E+00
    0.69568E-08         0.36642E-10         0.00000E+00
    0.69578E-08         0.27989E-10         0.00000E+00
    0.69583E-08         0.19482E-10         0.00000E+00
    0.69586E-08         0.11680E-10         0.00000E+00
    0.69586E-08         0.52529E-11         0.00000E+00
    0.69585E-08         0.24696E-11         0.00000E+00
    0.69703E-08         0.25956E-10         0.00000E+00
    0.69685E-08         0.40774E-10         0.00000E+00
    0.69681E-08         0.59537E-10         0.00000E+00
    0.69722E-08         0.64877E-10         0.00000E+00
    0.69792E-08         0.65908E-10         0.00000E+00
    0.69876E-08         0.63970E-10         0.00000E+00
    0.69965E-08         0.59987E-10         0.00000E+00
    0.70051E-08         0.54599E-10         0.00000E+00
    0.70131E-08         0.48244E-10         0.00000E+00
    0.70200E-08         0.41220E-10         0.00000E+00
    0.70256E-08         0.33742E-10         0.00000E+00
    0.70299E-08         0.26006E-10         0.00000E+00
    0.70328E-08         0.18293E-10         0.00000E+00
    0.70346E-08         0.11082E-10         0.00000E+00
    0.70355E-08         0.51126E-11         0.00000E+00
    0.70355E-08         0.25482E-11         0.00000E+00
    0.69531E-08         0.26740E-10         0.00000E+00
    0.69550E-08         0.39998E-10         0.00000E+00
    0.69637E-08         0.54575E-10         0.00000E+00
    0.69777E-08         0.55737E-10         0.00000E+00
    0.69940E-08         0.54539E-10         0.00000E+00
    0.70110E-08         0.51807E-10         0.00000E+00
    0.70276E-08         0.47968E-10         0.00000E+00
    0.70432E-08         0.43359E-10         0.00000E+00
    0.70572E-08         0.38216E-10         0.00000E+00
    0.70695E-08         0.32700E-10         0.00000E+00
    0.70797E-08         0.26916E-10         0.00000E+00
    0.70877E-08         0.20949E-10         0.00000E+00
    0.70935E-08         0.14923E-10         0.00000E+00
    0.70972E-08         0.91986E-11         0.00000E+00
    0.70992E-08         0.44735E-11         0.00000E+00
    0.70993E-08         0.24663E-11         0.00000E+00
    0.68936E-08         0.22552E-10         0.00000E+00
    0.69072E-08         0.30716E-10         0.00000E+00
    0.69343E-08         0.37464E-10         0.00000E+00
    0.69626E-08         0.35132E-10         0.00000E+00
    0.69906E-08         0.33130E-10         0.00000E+00
    0.70176E-08         0.30793E-10         0.00000E+00
    0.70429E-08         0.28153E-10         0.00000E+00
    0.70660E-08         0.25271E-10         0.00000E+00
    0.70866E-08         0.22211E-10         0.00000E+00
    0.71045E-08         0.19020E-10         0.00000E+00
    0.71195E-08         0.15728E-10         0.00000E+00
    0.71316E-08         0.12355E-10         0.00000E+00
    0.71407E-08         0.89301E-11         0.00000E+00
    0.71467E-08         0.55758E-11         0.00000E+00
    0.71501E-08         0.32173E-11         0.00000E+00
    0.71514E-08         0.24924E-11         0.00000E+00
    0.68517E-08         0.00000E+00         0.00000E+00
    0.68745E-08         0.00000E+00         0.00000E+00
    0.69139E-08        -0.20711E-22         0.00000E+00
    0.69503E-08         0.94254E-27         0.00000E+00
    0.69848E-08         0.24854E-22         0.00000E+00
    0.70171E-08         0.00000E+00         0.00000E+00
    0.70468E-08         0.00000E+00         0.00000E+00
    0.70737E-08        -0.20714E-22         0.00000E+00
    0.70977E-08        -0.20714E-22         0.00000E+00
    0.71184E-08         0.20715E-22         0.00000E+00
    0.71359E-08         0.24858E-22         0.00000E+00
    0.71501E-08        -0.24858E-22         0.00000E+00
    0.71608E-08        -0.41428E-23         0.00000E+00
    0.71682E-08         0.24859E-22         0.00000E+00
    0.71723E-08         0.82863E-23         0.00000E+00
    0.71749E-08         0.00000E+00         0.00000E+00
CELL_DATA        450
TENSORS stressef double 
   -0.55866E+07         0.27045E+04         0.00000E+00
    0.27045E+04        -0.30574E+08         0.00000E+00
    0.00000E+00         0.00000E+00        -0.94698E+07
 
   -0.55778E+07         0.84867E+04         0.00000E+00
    0.84867E+04        -0.30567E+08         0.00000E+00
    0.00000E+00         0.00000E+00        -0.94715E+07
 
   -0.55831E+07         0.14326E+05         0.00000E+00
    0.14326E+05        -0.30552E+08         0.00000E+00
    0.00000E+00         0.00000E+00        -0.94392E+07
 
   -0.56076E+07         0.19794E+05         0.00000E+00
    0.19794E+05        -0.30528E+08         0.00000E+00
    0.00000E+00         0.00000E+00        -0.93650E+07
 
   -0.56588E+07         0.24443E+05         0.00000E+00
    0.24443E+05        -0.30497E+08         0.00000E+00
    0.00000E+00         0.00000E+00        -0.92406E+07
 
   -0.57391E+07         0.28095E+05         0.00000E+00
    0.28095E+05        -0.30459E+08         0.00000E+00
    0.00000E+00         0.00000E+00        -0.90672E+07
 
   -0.58479E+07         0.31091E+05         0.00000E+00
    0.31091E+05        -0.30417E+08         0.00000E+00
    0.00000E+00         0.00000E+00        -0.88515E+07
 
   -0.59797E+07         0.33708E+05         0.00000E+00
    0.33708E+05        -0.30370E+08         0.00000E+00
    0.00000E+00         0.00000E+00        -0.86056E+07
 
   -0.61263E+07         0.36272E+05         0.00000E+00
    0.36272E+05        -0.30320E+08         0.00000E+00
    0.00000E+00         0.00000E+00        -0.83433E+07
 
   -0.62775E+07         0.38808E+05         0.00000E+00
    0.38808E+05        -0.30266E+08         0.00000E+00
    0.00000E+00         0.00000E+00        -0.80790E+07
 
   -0.64234E+07         0.40885E+05         0.00000E+00
    0.40885E+05        -0.30208E+08         0.00000E+00
    0.00000E+00         0.00000E+00        -0.78249E+07
 
   -0.65556E+07         0.41615E+05         0.00000E+00
    0.41615E+05        -0.30148E+08         0.00000E+00
    0.00000E+00         0.00000E+00        -0.75913E+07
 
   -0.66770E+07         0.42446E+05         0.00000E+00
    0.42446E+05        -0.30086E+08         0.00000E+00
    0.00000E+00         0.00000E+00        -0.73908E+07
 
   -0.69774E+07         0.49106E+05         0.00000E+00
    0.49106E+05        -0.30012E+08         0.00000E+00
    0.00000E+00         0.00000E+00        -0.73979E+07
 
   -0.73023E+07         0.62952E+05         0.00000E+00
    0.62952E+05        -0.29910E+08         0.00000E+00
    0.00000E+00         0.00000E+00        -0.74425E+07
 
   -0.56298E+07         0.80373E+04         0.00000E+00
    0.80373E+04        -0.30628E+08         0.00000E+00
    0.00000E+00         0.00000E+00        -0.94943E+07
 
   -0.56205E+07         0.25324E+05         0.00000E+00
    0.25324E+05        -0.30622E+08         0.00000E+00
    0.00000E+00         0.00000E+00        -0.94973E+07
 
   -0.56259E+07         0.42808E+05         0.00000E+00
    0.42808E+05        -0.30607E+08         0.00000E+00
    0.00000E+00         0.00000E+00        -0.94654E+07
 
   -0.56518E+07         0.58937E+05         0.00000E+00
    0.58937E+05        -0.30584E+08         0.00000E+00
    0.00000E+00         0.00000E+00        -0.93904E+07
 
   -0.57051E+07         0.72598E+05         0.00000E+00
    0.72598E+05        -0.30553E+08         0.00000E+00
    0.00000E+00         0.00000E+00        -0.92654E+07
 
   -0.57871E+07         0.83270E+05         0.00000E+00
    0.83270E+05        -0.30518E+08         0.00000E+00
    0.00000E+00         0.00000E+00        -0.90932E+07
 
   -0.58971E+07         0.92005E+05         0.00000E+00
    0.92005E+05        -0.30478E+08         0.00000E+00
    0.00000E+00         0.00000E+00        -0.88800E+07
 
   -0.60293E+07         0.99587E+05         0.00000E+00
    0.99587E+05        -0.30434E+08         0.00000E+00
    0.00000E+00         0.00000E+00        -0.86382E+07
 
   -0.61761E+07         0.10702E+06         0.00000E+00
    0.10702E+06        -0.30387E+08         0.00000E+00
    0.00000E+00         0.00000E+00        -0.83810E+07
 
   -0.63276E+07         0.11458E+06         0.00000E+00
    0.11458E+06        -0.30336E+08         0.00000E+00
    0.00000E+00         0.00000E+00        -0.81215E+07
 
   -0.64748E+07         0.12122E+06         0.00000E+00
    0.12122E+06        -0.30282E+08         0.00000E+00
    0.00000E+00         0.00000E+00        -0.78707E+07
 
   -0.66098E+07         0.12496E+06         0.00000E+00
    0.12496E+06        -0.30223E+08         0.00000E+00
    0.00000E+00         0.00000E+00        -0.76368E+07
 
   -0.67263E+07         0.12736E+06         0.00000E+00
    0.12736E+06        -0.30161E+08         0.00000E+00
    0.00000E+00         0.00000E+00        -0.74282E+07
 
   -0.70069E+07         0.14674E+06         0.00000E+00
    0.14674E+06        -0.30087E+08         0.00000E+00
    0.00000E+00         0.00000E+00        -0.74187E+07
 
   -0.73251E+07         0.18760E+06         0.00000E+00
    0.18760E+06        -0.29986E+08         0.00000E+00
    0.00000E+00         0.00000E+00        -0.74623E+07
 
   -0.57160E+07         0.13318E+05         0.00000E+00
    0.13318E+05        -0.30737E+08         0.00000E+00
    0.00000E+00         0.00000E+00        -0.95428E+07
 
   -0.57059E+07         0.41913E+05         0.00000E+00
    0.41913E+05        -0.30730E+08         0.00000E+00
    0.00000E+00         0.00000E+00        -0.95474E+07
 
   -0.57119E+07         0.70454E+05         0.00000E+00
    0.70454E+05        -0.30716E+08         0.00000E+00
    0.00000E+00         0.00000E+00        -0.95163E+07
 
   -0.57406E+07         0.96625E+05         0.00000E+00
    0.96625E+05        -0.30695E+08         0.00000E+00
    0.00000E+00         0.00000E+00        -0.94408E+07
 
   -0.57980E+07         0.11842E+06         0.00000E+00
    0.11842E+06        -0.30667E+08         0.00000E+00
    0.00000E+00         0.00000E+00        -0.93150E+07
 
   -0.58833E+07         0.13539E+06         0.00000E+00
    0.13539E+06        -0.30635E+08         0.00000E+00
    0.00000E+00         0.00000E+00        -0.91450E+07
 
   -0.59957E+07         0.14919E+06         0.00000E+00
    0.14919E+06        -0.30600E+08         0.00000E+00
    0.00000E+00         0.00000E+00        -0.89369E+07
 
   -0.61290E+07         0.16116E+06         0.00000E+00
    0.16116E+06        -0.30561E+08         0.00000E+00
    0.00000E+00         0.00000E+00        -0.87029E+07
 
   -0.62757E+07         0.17296E+06         0.00000E+00
    0.17296E+06        -0.30520E+08         0.00000E+00
    0.00000E+00         0.00000E+00        -0.84550E+07
 
   -0.64272E+07         0.18539E+06         0.00000E+00
    0.18539E+06        -0.30475E+08         0.00000E+00
    0.00000E+00         0.00000E+00        -0.82050E+07
 
   -0.65758E+07         0.19772E+06         0.00000E+00
    0.19772E+06        -0.30426E+08         0.00000E+00
    0.00000E+00         0.00000E+00        -0.79611E+07
 
   -0.67135E+07         0.20777E+06         0.00000E+00
    0.20777E+06        -0.30371E+08         0.00000E+00
    0.00000E+00         0.00000E+00        -0.77289E+07
 
   -0.68305E+07         0.21318E+06         0.00000E+00
    0.21318E+06        -0.30307E+08         0.00000E+00
    0.00000E+00         0.00000E+00        -0.75149E+07
 
   -0.70649E+07         0.24200E+06         0.00000E+00
    0.24200E+06        -0.30233E+08         0.00000E+00
    0.00000E+00         0.00000E+00        -0.74596E+07
 
   -0.73721E+07         0.30726E+06         0.00000E+00
    0.30726E+06        -0.30139E+08         0.00000E+00
    0.00000E+00         0.00000E+00        -0.75021E+07
 
   -0.58453E+07         0.18563E+05         0.00000E+00
    0.18563E+05        -0.30900E+08         0.00000E+00
    0.00000E+00         0.00000E+00        -0.96161E+07
 
   -0.58341E+07         0.57989E+05         0.00000E+00
    0.57989E+05        -0.30893E+08         0.00000E+00
    0.00000E+00         0.00000E+00        -0.96228E+07
 
   -0.58418E+07         0.96706E+05         0.00000E+00
    0.96706E+05        -0.30880E+08         0.00000E+00
    0.00000E+00         0.00000E+00        -0.95915E+07
 
   -0.58750E+07         0.13158E+06         0.00000E+00
    0.13158E+06        -0.30862E+08         0.00000E+00
    0.00000E+00         0.00000E+00        -0.95144E+07
 
   -0.59378E+07         0.16005E+06         0.00000E+00
    0.16005E+06        -0.30839E+08         0.00000E+00
    0.00000E+00         0.00000E+00        -0.93893E+07
 
   -0.60284E+07         0.18237E+06         0.00000E+00
    0.18237E+06        -0.30813E+08         0.00000E+00
    0.00000E+00         0.00000E+00        -0.92228E+07
 
   -0.61440E+07         0.20041E+06         0.00000E+00
    0.20041E+06        -0.30784E+08         0.00000E+00
    0.00000E+00         0.00000E+00        -0.90223E+07
 
   -0.62785E+07         0.21637E+06         0.00000E+00
    0.21637E+06        -0.30752E+08         0.00000E+00
    0.00000E+00         0.00000E+00        -0.87991E+07
 
   -0.64249E+07         0.23231E+06         0.00000E+00
    0.23231E+06        -0.30718E+08         0.00000E+00
    0.00000E+00         0.00000E+00        -0.85638E+07
 
   -0.65753E+07         0.24952E+06         0.00000E+00
    0.24952E+06        -0.30680E+08         0.00000E+00
    0.00000E+00         0.00000E+00        -0.83265E+07
 
   -0.67235E+07         0.26812E+06         0.00000E+00
    0.26812E+06        -0.30637E+08         0.00000E+00
    0.00000E+00         0.00000E+00        -0.80932E+07
 
   -0.68636E+07         0.28683E+06         0.00000E+00
    0.28683E+06        -0.30587E+08         0.00000E+00
    0.00000E+00         0.00000E+00        -0.78678E+07
 
   -0.69876E+07         0.30070E+06         0.00000E+00
    0.30070E+06        -0.30527E+08         0.00000E+00
    0.00000E+00         0.00000E+00        -0.76510E+07
 
   -0.71584E+07         0.33291E+06         0.00000E+00
    0.33291E+06        -0.30454E+08         0.00000E+00
    0.00000E+00         0.00000E+00        -0.75265E+07
 
   -0.74445E+07         0.41739E+06         0.00000E+00
    0.41739E+06        -0.30367E+08         0.00000E+00
    0.00000E+00         0.00000E+00        -0.75622E+07
 
   -0.60175E+07         0.23588E+05         0.00000E+00
    0.23588E+05        -0.31116E+08         0.00000E+00
    0.00000E+00         0.00000E+00        -0.97130E+07
 
   -0.60056E+07         0.73081E+05         0.00000E+00
    0.73081E+05        -0.31110E+08         0.00000E+00
    0.00000E+00         0.00000E+00        -0.97223E+07
 
   -0.60160E+07         0.12077E+06         0.00000E+00
    0.12077E+06        -0.31099E+08         0.00000E+00
    0.00000E+00         0.00000E+00        -0.96911E+07
 
   -0.60564E+07         0.16233E+06         0.00000E+00
    0.16233E+06        -0.31085E+08         0.00000E+00
    0.00000E+00         0.00000E+00        -0.96112E+07
 
   -0.61259E+07         0.19568E+06         0.00000E+00
    0.19568E+06        -0.31068E+08         0.00000E+00
    0.00000E+00         0.00000E+00        -0.94874E+07
 
   -0.62229E+07         0.22214E+06         0.00000E+00
    0.22214E+06        -0.31049E+08         0.00000E+00
    0.00000E+00         0.00000E+00        -0.93259E+07
 
   -0.63418E+07         0.24383E+06         0.00000E+00
    0.24383E+06        -0.31029E+08         0.00000E+00
    0.00000E+00         0.00000E+00        -0.91361E+07
 
   -0.64774E+07         0.26383E+06         0.00000E+00
    0.26383E+06        -0.31006E+08         0.00000E+00
    0.00000E+00         0.00000E+00        -0.89263E+07
 
   -0.66228E+07         0.28424E+06         0.00000E+00
    0.28424E+06        -0.30979E+08         0.00000E+00
    0.00000E+00         0.00000E+00        -0.87060E+07
 
   -0.67712E+07         0.30654E+06         0.00000E+00
    0.30654E+06        -0.30948E+08         0.00000E+00
    0.00000E+00         0.00000E+00        -0.84832E+07
 
   -0.69171E+07         0.33121E+06         0.00000E+00
    0.33121E+06        -0.30911E+08         0.00000E+00
    0.00000E+00         0.00000E+00        -0.82629E+07
 
   -0.70564E+07         0.35786E+06         0.00000E+00
    0.35786E+06        -0.30868E+08         0.00000E+00
    0.00000E+00         0.00000E+00        -0.80477E+07
 
   -0.71864E+07         0.38490E+06         0.00000E+00
    0.38490E+06        -0.30814E+08         0.00000E+00
    0.00000E+00         0.00000E+00        -0.78354E+07
 
   -0.73062E+07         0.42164E+06         0.00000E+00
    0.42164E+06        -0.30750E+08         0.00000E+00
    0.00000E+00         0.00000E+00        -0.76480E+07
 
   -0.75399E+07         0.51474E+06         0.00000E+00
    0.51474E+06        -0.30665E+08         0.00000E+00
    0.00000E+00         0.00000E+00        -0.76409E+07
 
   -0.62328E+07         0.28269E+05         0.00000E+00
    0.28269E+05        -0.31385E+08         0.00000E+00
    0.00000E+00         0.00000E+00        -0.98337E+07
 
   -0.62208E+07         0.86633E+05         0.00000E+00
    0.86633E+05        -0.31381E+08         0.00000E+00
    0.00000E+00         0.00000E+00        -0.98447E+07
 
   -0.62369E+07         0.14120E+06         0.00000E+00
    0.14120E+06        -0.31373E+08         0.00000E+00
    0.00000E+00         0.00000E+00        -0.98110E+07
 
   -0.62851E+07         0.18713E+06         0.00000E+00
    0.18713E+06        -0.31364E+08         0.00000E+00
    0.00000E+00         0.00000E+00        -0.97302E+07
 
   -0.63636E+07         0.22367E+06         0.00000E+00
    0.22367E+06        -0.31355E+08         0.00000E+00
    0.00000E+00         0.00000E+00        -0.96082E+07
 
   -0.64670E+07         0.25293E+06         0.00000E+00
    0.25293E+06        -0.31346E+08         0.00000E+00
    0.00000E+00         0.00000E+00        -0.94545E+07
 
   -0.65887E+07         0.27822E+06         0.00000E+00
    0.27822E+06        -0.31335E+08         0.00000E+00
    0.00000E+00         0.00000E+00        -0.92779E+07
 
   -0.67245E+07         0.30267E+06         0.00000E+00
    0.30267E+06        -0.31321E+08         0.00000E+00
    0.00000E+00         0.00000E+00        -0.90840E+07
 
   -0.68680E+07         0.32833E+06         0.00000E+00
    0.32833E+06        -0.31302E+08         0.00000E+00
    0.00000E+00         0.00000E+00        -0.88805E+07
 
   -0.70135E+07         0.35662E+06         0.00000E+00
    0.35662E+06        -0.31278E+08         0.00000E+00
    0.00000E+00         0.00000E+00        -0.86735E+07
 
   -0.71559E+07         0.38805E+06         0.00000E+00
    0.38805E+06        -0.31247E+08         0.00000E+00
    0.00000E+00         0.00000E+00        -0.84667E+07
 
   -0.72915E+07         0.42274E+06         0.00000E+00
    0.42274E+06        -0.31207E+08         0.00000E+00
    0.00000E+00         0.00000E+00        -0.82625E+07
 
   -0.74165E+07         0.46153E+06         0.00000E+00
    0.46153E+06        -0.31156E+08         0.00000E+00
    0.00000E+00         0.00000E+00        -0.80606E+07
 
   -0.75282E+07         0.50725E+06         0.00000E+00
    0.50725E+06        -0.31093E+08         0.00000E+00
    0.00000E+00         0.00000E+00        -0.78628E+07
 
   -0.76540E+07         0.59311E+06         0.00000E+00
    0.59311E+06        -0.31031E+08         0.00000E+00
    0.00000E+00         0.00000E+00        -0.77464E+07
 
   -0.64913E+07         0.32347E+05         0.00000E+00
    0.32347E+05        -0.31707E+08         0.00000E+00
    0.00000E+00         0.00000E+00        -0.99765E+07
 
   -0.64812E+07         0.97833E+05         0.00000E+00
    0.97833E+05        -0.31704E+08         0.00000E+00
    0.00000E+00         0.00000E+00        -0.99882E+07
 
   -0.65051E+07         0.15644E+06         0.00000E+00
    0.15644E+06        -0.31701E+08         0.00000E+00
    0.00000E+00         0.00000E+00        -0.99514E+07
 
   -0.65637E+07         0.20418E+06         0.00000E+00
    0.20418E+06        -0.31699E+08         0.00000E+00
    0.00000E+00         0.00000E+00        -0.98690E+07
 
   -0.66516E+07         0.24205E+06         0.00000E+00
    0.24205E+06        -0.31700E+08         0.00000E+00
    0.00000E+00         0.00000E+00        -0.97511E+07
 
   -0.67597E+07         0.27378E+06         0.00000E+00
    0.27378E+06        -0.31700E+08         0.00000E+00
    0.00000E+00         0.00000E+00        -0.96086E+07
 
   -0.68833E+07         0.30293E+06         0.00000E+00
    0.30293E+06        -0.31699E+08         0.00000E+00
    0.00000E+00         0.00000E+00        -0.94474E+07
 
   -0.70180E+07         0.33242E+06         0.00000E+00
    0.33242E+06        -0.31695E+08         0.00000E+00
    0.00000E+00         0.00000E+00        -0.92715E+07
 
   -0.71586E+07         0.36439E+06         0.00000E+00
    0.36439E+06        -0.31684E+08         0.00000E+00
    0.00000E+00         0.00000E+00        -0.90865E+07
 
   -0.72999E+07         0.40011E+06         0.00000E+00
    0.40011E+06        -0.31667E+08         0.00000E+00
    0.00000E+00         0.00000E+00        -0.88965E+07
 
   -0.74376E+07         0.44013E+06         0.00000E+00
    0.44013E+06        -0.31641E+08         0.00000E+00
    0.00000E+00         0.00000E+00        -0.87042E+07
 
   -0.75676E+07         0.48467E+06         0.00000E+00
    0.48467E+06        -0.31603E+08         0.00000E+00
    0.00000E+00         0.00000E+00        -0.85115E+07
 
   -0.76859E+07         0.53382E+06         0.00000E+00
    0.53382E+06        -0.31553E+08         0.00000E+00
    0.00000E+00         0.00000E+00        -0.83203E+07
 
   -0.77890E+07         0.58873E+06         0.00000E+00
    0.58873E+06        -0.31489E+08         0.00000E+00
    0.00000E+00         0.00000E+00        -0.81321E+07
 
   -0.78665E+07         0.66045E+06         0.00000E+00
    0.66045E+06        -0.31419E+08         0.00000E+00
    0.00000E+00         0.00000E+00        -0.79679E+07
 
   -0.67939E+07         0.35528E+05         0.00000E+00
    0.35528E+05        -0.32080E+08         0.00000E+00
    0.00000E+00         0.00000E+00        -0.10140E+08
 
   -0.67883E+07         0.10536E+06         0.00000E+00
    0.10536E+06        -0.32080E+08         0.00000E+00
    0.00000E+00         0.00000E+00        -0.10150E+08
 
   -0.68230E+07         0.16471E+06         0.00000E+00
    0.16471E+06        -0.32083E+08         0.00000E+00
    0.00000E+00         0.00000E+00        -0.10109E+08
 
   -0.68941E+07         0.21165E+06         0.00000E+00
    0.21165E+06        -0.32091E+08         0.00000E+00
    0.00000E+00         0.00000E+00        -0.10025E+08
 
   -0.69888E+07         0.25004E+06         0.00000E+00
    0.25004E+06        -0.32101E+08         0.00000E+00
    0.00000E+00         0.00000E+00        -0.99150E+07
 
   -0.71003E+07         0.28420E+06         0.00000E+00
    0.28420E+06        -0.32112E+08         0.00000E+00
    0.00000E+00         0.00000E+00        -0.97866E+07
 
   -0.72240E+07         0.31753E+06         0.00000E+00
    0.31753E+06        -0.32121E+08         0.00000E+00
    0.00000E+00         0.00000E+00        -0.96434E+07
 
   -0.73560E+07         0.35289E+06         0.00000E+00
    0.35289E+06        -0.32125E+08         0.00000E+00
    0.00000E+00         0.00000E+00        -0.94879E+07
 
   -0.74919E+07         0.39240E+06         0.00000E+00
    0.39240E+06        -0.32123E+08         0.00000E+00
    0.00000E+00         0.00000E+00        -0.93233E+07
 
   -0.76275E+07         0.43718E+06         0.00000E+00
    0.43718E+06        -0.32113E+08         0.00000E+00
    0.00000E+00         0.00000E+00        -0.91519E+07
 
   -0.77591E+07         0.48764E+06         0.00000E+00
    0.48764E+06        -0.32091E+08         0.00000E+00
    0.00000E+00         0.00000E+00        -0.89756E+07
 
   -0.78826E+07         0.54370E+06         0.00000E+00
    0.54370E+06        -0.32056E+08         0.00000E+00
    0.00000E+00         0.00000E+00        -0.87964E+07
 
   -0.79941E+07         0.60498E+06         0.00000E+00
    0.60498E+06        -0.32007E+08         0.00000E+00
    0.00000E+00         0.00000E+00        -0.86163E+07
 
   -0.80887E+07         0.67097E+06         0.00000E+00
    0.67097E+06        -0.31942E+08         0.00000E+00
    0.00000E+00         0.00000E+00        -0.84385E+07
 
   -0.81617E+07         0.74016E+06         0.00000E+00
    0.74016E+06        -0.31866E+08         0.00000E+00
    0.00000E+00         0.00000E+00        -0.82719E+07
 
   -0.71421E+07         0.37358E+05         0.00000E+00
    0.37358E+05        -0.32504E+08         0.00000E+00
    0.00000E+00         0.00000E+00        -0.10322E+08
 
   -0.71443E+07         0.10757E+06         0.00000E+00
    0.10757E+06        -0.32509E+08         0.00000E+00
    0.00000E+00         0.00000E+00        -0.10328E+08
 
   -0.71941E+07         0.16408E+06         0.00000E+00
    0.16408E+06        -0.32520E+08         0.00000E+00
    0.00000E+00         0.00000E+00        -0.10278E+08
 
   -0.72746E+07         0.20884E+06         0.00000E+00
    0.20884E+06        -0.32536E+08         0.00000E+00
    0.00000E+00         0.00000E+00        -0.10198E+08
 
   -0.73748E+07         0.24740E+06         0.00000E+00
    0.24740E+06        -0.32557E+08         0.00000E+00
    0.00000E+00         0.00000E+00        -0.10099E+08
 
   -0.74874E+07         0.28396E+06         0.00000E+00
    0.28396E+06        -0.32578E+08         0.00000E+00
    0.00000E+00         0.00000E+00        -0.99874E+07
 
   -0.76090E+07         0.32188E+06         0.00000E+00
    0.32188E+06        -0.32596E+08         0.00000E+00
    0.00000E+00         0.00000E+00        -0.98647E+07
 
   -0.77361E+07         0.36402E+06         0.00000E+00
    0.36402E+06        -0.32610E+08         0.00000E+00
    0.00000E+00         0.00000E+00        -0.97317E+07
 
   -0.78654E+07         0.41227E+06         0.00000E+00
    0.41227E+06        -0.32616E+08         0.00000E+00
    0.00000E+00         0.00000E+00        -0.95895E+07
 
   -0.79936E+07         0.46754E+06         0.00000E+00
    0.46754E+06        -0.32612E+08         0.00000E+00
    0.00000E+00         0.00000E+00        -0.94391E+07
 
   -0.81175E+07         0.52995E+06         0.00000E+00
    0.52995E+06        -0.32595E+08         0.00000E+00
    0.00000E+00         0.00000E+00        -0.92815E+07
 
   -0.82338E+07         0.59887E+06         0.00000E+00
    0.59887E+06        -0.32564E+08         0.00000E+00
    0.00000E+00         0.00000E+00        -0.91180E+07
 
   -0.83389E+07         0.67297E+06         0.00000E+00
    0.67297E+06        -0.32517E+08         0.00000E+00
    0.00000E+00         0.00000E+00        -0.89509E+07
 
   -0.84298E+07         0.74978E+06         0.00000E+00
    0.74978E+06        -0.32455E+08         0.00000E+00
    0.00000E+00         0.00000E+00        -0.87833E+07
 
   -0.85033E+07         0.82590E+06         0.00000E+00
    0.82590E+06        -0.32379E+08         0.00000E+00
    0.00000E+00         0.00000E+00        -0.86177E+07
 
   -0.75373E+07         0.36888E+05         0.00000E+00
    0.36888E+05        -0.32979E+08         0.00000E+00
    0.00000E+00         0.00000E+00        -0.10520E+08
 
   -0.75542E+07         0.10294E+06         0.00000E+00
    0.10294E+06        -0.32987E+08         0.00000E+00
    0.00000E+00         0.00000E+00        -0.10512E+08
 
   -0.76173E+07         0.15389E+06         0.00000E+00
    0.15389E+06        -0.33006E+08         0.00000E+00
    0.00000E+00         0.00000E+00        -0.10459E+08
 
   -0.77058E+07         0.19566E+06         0.00000E+00
    0.19566E+06        -0.33033E+08         0.00000E+00
    0.00000E+00         0.00000E+00        -0.10385E+08
 
   -0.78082E+07         0.23391E+06         0.00000E+00
    0.23391E+06        -0.33063E+08         0.00000E+00
    0.00000E+00         0.00000E+00        -0.10301E+08
 
   -0.79194E+07         0.27291E+06         0.00000E+00
    0.27291E+06        -0.33094E+08         0.00000E+00
    0.00000E+00         0.00000E+00        -0.10209E+08
 
   -0.80362E+07         0.31595E+06         0.00000E+00
    0.31595E+06        -0.33123E+08         0.00000E+00
    0.00000E+00         0.00000E+00        -0.10110E+08
 
   -0.81561E+07         0.36566E+06         0.00000E+00
    0.36566E+06        -0.33146E+08         0.00000E+00
    0.00000E+00         0.00000E+00        -0.10002E+08
 
   -0.82766E+07         0.42369E+06         0.00000E+00
    0.42369E+06        -0.33160E+08         0.00000E+00
    0.00000E+00         0.00000E+00        -0.98847E+07
 
   -0.83956E+07         0.49061E+06         0.00000E+00
    0.49061E+06        -0.33163E+08         0.00000E+00
    0.00000E+00         0.00000E+00        -0.97576E+07
 
   -0.85107E+07         0.56596E+06         0.00000E+00
    0.56596E+06        -0.33152E+08         0.00000E+00
    0.00000E+00         0.00000E+00        -0.96208E+07
 
   -0.86193E+07         0.64854E+06         0.00000E+00
    0.64854E+06        -0.33125E+08         0.00000E+00
    0.00000E+00         0.00000E+00        -0.94753E+07
 
   -0.87193E+07         0.73594E+06         0.00000E+00
    0.73594E+06        -0.33083E+08         0.00000E+00
    0.00000E+00         0.00000E+00        -0.93223E+07
 
   -0.88082E+07         0.82497E+06         0.00000E+00
    0.82497E+06        -0.33024E+08         0.00000E+00
    0.00000E+00         0.00000E+00        -0.91636E+07
 
   -0.88834E+07         0.91254E+06         0.00000E+00
    0.91254E+06        -0.32948E+08         0.00000E+00
    0.00000E+00         0.00000E+00        -0.90004E+07
 
   -0.79843E+07         0.33247E+05         0.00000E+00
    0.33247E+05        -0.33500E+08         0.00000E+00
    0.00000E+00         0.00000E+00        -0.10724E+08
 
   -0.80189E+07         0.90773E+05         0.00000E+00
    0.90773E+05        -0.33515E+08         0.00000E+00
    0.00000E+00         0.00000E+00        -0.10702E+08
 
   -0.80937E+07         0.13421E+06         0.00000E+00
    0.13421E+06        -0.33541E+08         0.00000E+00
    0.00000E+00         0.00000E+00        -0.10647E+08
 
   -0.81862E+07         0.17192E+06         0.00000E+00
    0.17192E+06        -0.33577E+08         0.00000E+00
    0.00000E+00         0.00000E+00        -0.10584E+08
 
   -0.82877E+07         0.20953E+06         0.00000E+00
    0.20953E+06        -0.33618E+08         0.00000E+00
    0.00000E+00         0.00000E+00        -0.10519E+08
 
   -0.83943E+07         0.25102E+06         0.00000E+00
    0.25102E+06        -0.33659E+08         0.00000E+00
    0.00000E+00         0.00000E+00        -0.10451E+08
 
   -0.85035E+07         0.29960E+06         0.00000E+00
    0.29960E+06        -0.33698E+08         0.00000E+00
    0.00000E+00         0.00000E+00        -0.10378E+08
 
   -0.86135E+07         0.35755E+06         0.00000E+00
    0.35755E+06        -0.33730E+08         0.00000E+00
    0.00000E+00         0.00000E+00        -0.10297E+08
 
   -0.87231E+07         0.42615E+06         0.00000E+00
    0.42615E+06        -0.33752E+08         0.00000E+00
    0.00000E+00         0.00000E+00        -0.10207E+08
 
   -0.88312E+07         0.50551E+06         0.00000E+00
    0.50551E+06        -0.33762E+08         0.00000E+00
    0.00000E+00         0.00000E+00        -0.10106E+08
 
   -0.89364E+07         0.59477E+06         0.00000E+00
    0.59477E+06        -0.33757E+08         0.00000E+00
    0.00000E+00         0.00000E+00        -0.99919E+07
 
   -0.90374E+07         0.69171E+06         0.00000E+00
    0.69171E+06        -0.33737E+08         0.00000E+00
    0.00000E+00         0.00000E+00        -0.98655E+07
 
   -0.91326E+07         0.79352E+06         0.00000E+00
    0.79352E+06        -0.33699E+08         0.00000E+00
    0.00000E+00         0.00000E+00        -0.97270E+07
 
   -0.92203E+07         0.89685E+06         0.00000E+00
    0.89685E+06        -0.33643E+08         0.00000E+00
    0.00000E+00         0.00000E+00        -0.95772E+07
 
   -0.92982E+07         0.99822E+06         0.00000E+00
    0.99822E+06        -0.33569E+08         0.00000E+00
    0.00000E+00         0.00000E+00        -0.94174E+07
 
   -0.84877E+07         0.26388E+05         0.00000E+00
    0.26388E+05        -0.34068E+08         0.00000E+00
    0.00000E+00         0.00000E+00        -0.10929E+08
 
   -0.85401E+07         0.70744E+05         0.00000E+00
    0.70744E+05        -0.34087E+08         0.00000E+00
    0.00000E+00         0.00000E+00        -0.10893E+08
 
   -0.86222E+07         0.10513E+06         0.00000E+00
    0.10513E+06        -0.34122E+08         0.00000E+00
    0.00000E+00         0.00000E+00        -0.10843E+08
 
   -0.87148E+07         0.13793E+06         0.00000E+00
    0.13793E+06        -0.34167E+08         0.00000E+00
    0.00000E+00         0.00000E+00        -0.10796E+08
 
   -0.88121E+07         0.17432E+06         0.00000E+00
    0.17432E+06        -0.34217E+08         0.00000E+00
    0.00000E+00         0.00000E+00        -0.10752E+08
 
   -0.89105E+07         0.21827E+06         0.00000E+00
    0.21827E+06        -0.34268E+08         0.00000E+00
    0.00000E+00         0.00000E+00        -0.10710E+08
 
   -0.90088E+07         0.27266E+06         0.00000E+00
    0.27266E+06        -0.34316E+08         0.00000E+00
    0.00000E+00         0.00000E+00        -0.10666E+08
 
   -0.91061E+07         0.33933E+06         0.00000E+00
    0.33933E+06        -0.34357E+08         0.00000E+00
    0.00000E+00         0.00000E+00        -0.10616E+08
 
   -0.92026E+07         0.41916E+06         0.00000E+00
    0.41916E+06        -0.34388E+08         0.00000E+00
    0.00000E+00         0.00000E+00        -0.10555E+08
 
   -0.92981E+07         0.51178E+06         0.00000E+00
    0.51178E+06        -0.34406E+08         0.00000E+00
    0.00000E+00         0.00000E+00        -0.10481E+08
 
   -0.93924E+07         0.61557E+06         0.00000E+00
    0.61557E+06        -0.34409E+08         0.00000E+00
    0.00000E+00         0.00000E+00        -0.10392E+08
 
   -0.94853E+07         0.72809E+06         0.00000E+00
    0.72809E+06        -0.34394E+08         0.00000E+00
    0.00000E+00         0.00000E+00        -0.10286E+08
 
   -0.95759E+07         0.84581E+06         0.00000E+00
    0.84581E+06        -0.34361E+08         0.00000E+00
    0.00000E+00         0.00000E+00        -0.10162E+08
 
   -0.96628E+07         0.96516E+06         0.00000E+00
    0.96516E+06        -0.34309E+08         0.00000E+00
    0.00000E+00         0.00000E+00        -0.10022E+08
 
   -0.97444E+07         0.10820E+07         0.00000E+00
    0.10820E+07        -0.34237E+08         0.00000E+00
    0.00000E+00         0.00000E+00        -0.98661E+07
 
   -0.90520E+07         0.15993E+05         0.00000E+00
    0.15993E+05        -0.34680E+08         0.00000E+00
    0.00000E+00         0.00000E+00        -0.11131E+08
 
   -0.91183E+07         0.43811E+05         0.00000E+00
    0.43811E+05        -0.34704E+08         0.00000E+00
    0.00000E+00         0.00000E+00        -0.11085E+08
 
   -0.92024E+07         0.67259E+05         0.00000E+00
    0.67259E+05        -0.34745E+08         0.00000E+00
    0.00000E+00         0.00000E+00        -0.11045E+08
 
   -0.92911E+07         0.93863E+05         0.00000E+00
    0.93863E+05        -0.34799E+08         0.00000E+00
    0.00000E+00         0.00000E+00        -0.11017E+08
 
   -0.93796E+07         0.12851E+06         0.00000E+00
    0.12851E+06        -0.34858E+08         0.00000E+00
    0.00000E+00         0.00000E+00        -0.10999E+08
 
   -0.94661E+07         0.17477E+06         0.00000E+00
    0.17477E+06        -0.34919E+08         0.00000E+00
    0.00000E+00         0.00000E+00        -0.10986E+08
 
   -0.95500E+07         0.23508E+06         0.00000E+00
    0.23508E+06        -0.34976E+08         0.00000E+00
    0.00000E+00         0.00000E+00        -0.10973E+08
 
   -0.96319E+07         0.31091E+06         0.00000E+00
    0.31091E+06        -0.35026E+08         0.00000E+00
    0.00000E+00         0.00000E+00        -0.10954E+08
 
   -0.97127E+07         0.40247E+06         0.00000E+00
    0.40247E+06        -0.35065E+08         0.00000E+00
    0.00000E+00         0.00000E+00        -0.10925E+08
 
   -0.97938E+07         0.50891E+06         0.00000E+00
    0.50891E+06        -0.35091E+08         0.00000E+00
    0.00000E+00         0.00000E+00        -0.10880E+08
 
   -0.98759E+07         0.62825E+06         0.00000E+00
    0.62825E+06        -0.35101E+08         0.00000E+00
    0.00000E+00         0.00000E+00        -0.10817E+08
 
   -0.99601E+07         0.75736E+06         0.00000E+00
    0.75736E+06        -0.35093E+08         0.00000E+00
    0.00000E+00         0.00000E+00        -0.10732E+08
 
   -0.10046E+08         0.89256E+06         0.00000E+00
    0.89256E+06        -0.35065E+08         0.00000E+00
    0.00000E+00         0.00000E+00        -0.10625E+08
 
   -0.10133E+08         0.10295E+07         0.00000E+00
    0.10295E+07        -0.35017E+08         0.00000E+00
    0.00000E+00         0.00000E+00        -0.10495E+08
 
   -0.10219E+08         0.11632E+07         0.00000E+00
    0.11632E+07        -0.34949E+08         0.00000E+00
    0.00000E+00         0.00000E+00        -0.10343E+08
 
   -0.96807E+07         0.26778E+04         0.00000E+00
    0.26778E+04        -0.35333E+08         0.00000E+00
    0.00000E+00         0.00000E+00        -0.11322E+08
 
   -0.97538E+07         0.10940E+05         0.00000E+00
    0.10940E+05        -0.35361E+08         0.00000E+00
    0.00000E+00         0.00000E+00        -0.11277E+08
 
   -0.98344E+07         0.21193E+05         0.00000E+00
    0.21193E+05        -0.35409E+08         0.00000E+00
    0.00000E+00         0.00000E+00        -0.11253E+08
 
   -0.99137E+07         0.40284E+05         0.00000E+00
    0.40284E+05        -0.35470E+08         0.00000E+00
    0.00000E+00         0.00000E+00        -0.11248E+08
 
   -0.99890E+07         0.72545E+05         0.00000E+00
    0.72545E+05        -0.35538E+08         0.00000E+00
    0.00000E+00         0.00000E+00        -0.11258E+08
 
   -0.10059E+08         0.12090E+06         0.00000E+00
    0.12090E+06        -0.35607E+08         0.00000E+00
    0.00000E+00         0.00000E+00        -0.11277E+08
 
   -0.10125E+08         0.18724E+06         0.00000E+00
    0.18724E+06        -0.35672E+08         0.00000E+00
    0.00000E+00         0.00000E+00        -0.11297E+08
 
   -0.10188E+08         0.27240E+06         0.00000E+00
    0.27240E+06        -0.35731E+08         0.00000E+00
    0.00000E+00         0.00000E+00        -0.11311E+08
 
   -0.10251E+08         0.37609E+06         0.00000E+00
    0.37609E+06        -0.35778E+08         0.00000E+00
    0.00000E+00         0.00000E+00        -0.11314E+08
 
   -0.10316E+08         0.49698E+06         0.00000E+00
    0.49698E+06        -0.35811E+08         0.00000E+00
    0.00000E+00         0.00000E+00        -0.11300E+08
 
   -0.10384E+08         0.63257E+06         0.00000E+00
    0.63257E+06        -0.35829E+08         0.00000E+00
    0.00000E+00         0.00000E+00        -0.11263E+08
 
   -0.10459E+08         0.77939E+06         0.00000E+00
    0.77939E+06        -0.35827E+08         0.00000E+00
    0.00000E+00         0.00000E+00        -0.11201E+08
 
   -0.10539E+08         0.93328E+06         0.00000E+00
    0.93328E+06        -0.35805E+08         0.00000E+00
    0.00000E+00         0.00000E+00        -0.11111E+08
 
   -0.10626E+08         0.10891E+07         0.00000E+00
    0.10891E+07        -0.35762E+08         0.00000E+00
    0.00000E+00         0.00000E+00        -0.10993E+08
 
   -0.10718E+08         0.12410E+07         0.00000E+00
    0.12410E+07        -0.35698E+08         0.00000E+00
    0.00000E+00         0.00000E+00        -0.10846E+08
 
   -0.10376E+08        -0.12429E+05         0.00000E+00
   -0.12429E+05        -0.36027E+08         0.00000E+00
    0.00000E+00         0.00000E+00        -0.11507E+08
 
   -0.10447E+08        -0.27112E+05         0.00000E+00
   -0.27112E+05        -0.36058E+08         0.00000E+00
    0.00000E+00         0.00000E+00        -0.11470E+08
 
   -0.10518E+08        -0.32148E+05         0.00000E+00
   -0.32148E+05        -0.36110E+08         0.00000E+00
    0.00000E+00         0.00000E+00        -0.11466E+08
 
   -0.10582E+08        -0.21829E+05         0.00000E+00
   -0.21829E+05        -0.36177E+08         0.00000E+00
    0.00000E+00         0.00000E+00        -0.11488E+08
 
   -0.10639E+08         0.73400E+04         0.00000E+00
    0.73400E+04        -0.36252E+08         0.00000E+00
    0.00000E+00         0.00000E+00        -0.11529E+08
 
   -0.10688E+08         0.57476E+05         0.00000E+00
    0.57476E+05        -0.36328E+08         0.00000E+00
    0.00000E+00         0.00000E+00        -0.11580E+08
 
   -0.10732E+08         0.12976E+06         0.00000E+00
    0.12976E+06        -0.36401E+08         0.00000E+00
    0.00000E+00         0.00000E+00        -0.11634E+08
 
   -0.10774E+08         0.22436E+06         0.00000E+00
    0.22436E+06        -0.36467E+08         0.00000E+00
    0.00000E+00         0.00000E+00        -0.11682E+08
 
   -0.10816E+08         0.34042E+06         0.00000E+00
    0.34042E+06        -0.36522E+08         0.00000E+00
    0.00000E+00         0.00000E+00        -0.11718E+08
 
   -0.10862E+08         0.47609E+06         0.00000E+00
    0.47609E+06        -0.36563E+08         0.00000E+00
    0.00000E+00         0.00000E+00        -0.11735E+08
 
   -0.10915E+08         0.62852E+06         0.00000E+00
    0.62852E+06        -0.36587E+08         0.00000E+00
    0.00000E+00         0.00000E+00        -0.11727E+08
 
   -0.10978E+08         0.79393E+06         0.00000E+00
    0.79393E+06        -0.36592E+08         0.00000E+00
    0.00000E+00         0.00000E+00        -0.11688E+08
 
   -0.11053E+08         0.96741E+06         0.00000E+00
    0.96741E+06        -0.36577E+08         0.00000E+00
    0.00000E+00         0.00000E+00        -0.11617E+08
 
   -0.11140E+08         0.11432E+07         0.00000E+00
    0.11432E+07        -0.36540E+08         0.00000E+00
    0.00000E+00         0.00000E+00        -0.11511E+08
 
   -0.11239E+08         0.13147E+07         0.00000E+00
    0.13147E+07        -0.36480E+08         0.00000E+00
    0.00000E+00         0.00000E+00        -0.11371E+08
 
   -0.11139E+08        -0.28869E+05         0.00000E+00
   -0.28869E+05        -0.36759E+08         0.00000E+00
    0.00000E+00         0.00000E+00        -0.11684E+08
 
   -0.11199E+08        -0.69073E+05         0.00000E+00
   -0.69073E+05        -0.36791E+08         0.00000E+00
    0.00000E+00         0.00000E+00        -0.11665E+08
 
   -0.11252E+08        -0.91207E+05         0.00000E+00
   -0.91207E+05        -0.36847E+08         0.00000E+00
    0.00000E+00         0.00000E+00        -0.11685E+08
 
   -0.11294E+08        -0.90946E+05         0.00000E+00
   -0.90946E+05        -0.36919E+08         0.00000E+00
    0.00000E+00         0.00000E+00        -0.11737E+08
 
   -0.11327E+08        -0.65694E+05         0.00000E+00
   -0.65694E+05        -0.36998E+08         0.00000E+00
    0.00000E+00         0.00000E+00        -0.11810E+08
 
   -0.11351E+08        -0.14231E+05         0.00000E+00
   -0.14231E+05        -0.37080E+08         0.00000E+00
    0.00000E+00         0.00000E+00        -0.11895E+08
 
   -0.11369E+08         0.63764E+05         0.00000E+00
    0.63764E+05        -0.37159E+08         0.00000E+00
    0.00000E+00         0.00000E+00        -0.11983E+08
 
   -0.11385E+08         0.16768E+06         0.00000E+00
    0.16768E+06        -0.37231E+08         0.00000E+00
    0.00000E+00         0.00000E+00        -0.12065E+08
 
   -0.11404E+08         0.29608E+06         0.00000E+00
    0.29608E+06        -0.37292E+08         0.00000E+00
    0.00000E+00         0.00000E+00        -0.12134E+08
 
   -0.11429E+08         0.44670E+06         0.00000E+00
    0.44670E+06        -0.37339E+08         0.00000E+00
    0.00000E+00         0.00000E+00        -0.12182E+08
 
   -0.11465E+08         0.61630E+06         0.00000E+00
    0.61630E+06        -0.37370E+08         0.00000E+00
    0.00000E+00         0.00000E+00        -0.12203E+08
 
   -0.11515E+08         0.80060E+06         0.00000E+00
    0.80060E+06        -0.37382E+08         0.00000E+00
    0.00000E+00         0.00000E+00        -0.12189E+08
 
   -0.11584E+08         0.99421E+06         0.00000E+00
    0.99421E+06        -0.37374E+08         0.00000E+00
    0.00000E+00         0.00000E+00        -0.12138E+08
 
   -0.11671E+08         0.11909E+07         0.00000E+00
    0.11909E+07        -0.37343E+08         0.00000E+00
    0.00000E+00         0.00000E+00        -0.12047E+08
 
   -0.11776E+08         0.13837E+07         0.00000E+00
    0.13837E+07        -0.37290E+08         0.00000E+00
    0.00000E+00         0.00000E+00        -0.11913E+08
 
   -0.11969E+08        -0.46195E+05         0.00000E+00
   -0.46195E+05        -0.37527E+08         0.00000E+00
    0.00000E+00         0.00000E+00        -0.11858E+08
 
   -0.12009E+08        -0.11364E+06         0.00000E+00
   -0.11364E+06        -0.37560E+08         0.00000E+00
    0.00000E+00         0.00000E+00        -0.11862E+08
 
   -0.12036E+08        -0.15428E+06         0.00000E+00
   -0.15428E+06        -0.37617E+08         0.00000E+00
    0.00000E+00         0.00000E+00        -0.11912E+08
 
   -0.12050E+08        -0.16508E+06         0.00000E+00
   -0.16508E+06        -0.37691E+08         0.00000E+00
    0.00000E+00         0.00000E+00        -0.11995E+08
 
   -0.12053E+08        -0.14461E+06         0.00000E+00
   -0.14461E+06        -0.37773E+08         0.00000E+00
    0.00000E+00         0.00000E+00        -0.12100E+08
 
   -0.12046E+08        -0.92463E+05         0.00000E+00
   -0.92463E+05        -0.37859E+08         0.00000E+00
    0.00000E+00         0.00000E+00        -0.12219E+08
 
   -0.12034E+08        -0.91980E+04         0.00000E+00
   -0.91980E+04        -0.37942E+08         0.00000E+00
    0.00000E+00         0.00000E+00        -0.12340E+08
 
   -0.12021E+08         0.10368E+06         0.00000E+00
    0.10368E+06        -0.38018E+08         0.00000E+00
    0.00000E+00         0.00000E+00        -0.12456E+08
 
   -0.12013E+08         0.24425E+06         0.00000E+00
    0.24425E+06        -0.38084E+08         0.00000E+00
    0.00000E+00         0.00000E+00        -0.12558E+08
 
   -0.12015E+08         0.40962E+06         0.00000E+00
    0.40962E+06        -0.38136E+08         0.00000E+00
    0.00000E+00         0.00000E+00        -0.12637E+08
 
   -0.12032E+08         0.59608E+06         0.00000E+00
    0.59608E+06        -0.38173E+08         0.00000E+00
    0.00000E+00         0.00000E+00        -0.12686E+08
 
   -0.12068E+08         0.79913E+06         0.00000E+00
    0.79913E+06        -0.38192E+08         0.00000E+00
    0.00000E+00         0.00000E+00        -0.12699E+08
 
   -0.12129E+08         0.10131E+07         0.00000E+00
    0.10131E+07        -0.38191E+08         0.00000E+00
    0.00000E+00         0.00000E+00        -0.12670E+08
 
   -0.12215E+08         0.12313E+07         0.00000E+00
    0.12313E+07        -0.38168E+08         0.00000E+00
    0.00000E+00         0.00000E+00        -0.12594E+08
 
   -0.12328E+08         0.14464E+07         0.00000E+00
    0.14464E+07        -0.38121E+08         0.00000E+00
    0.00000E+00         0.00000E+00        -0.12469E+08
 
   -0.12865E+08        -0.63982E+05         0.00000E+00
   -0.63982E+05        -0.38328E+08         0.00000E+00
    0.00000E+00         0.00000E+00        -0.12031E+08
 
   -0.12876E+08        -0.15947E+06         0.00000E+00
   -0.15947E+06        -0.38361E+08         0.00000E+00
    0.00000E+00         0.00000E+00        -0.12065E+08
 
   -0.12869E+08        -0.21952E+06         0.00000E+00
   -0.21952E+06        -0.38418E+08         0.00000E+00
    0.00000E+00         0.00000E+00        -0.12146E+08
 
   -0.12848E+08        -0.24215E+06         0.00000E+00
   -0.24215E+06        -0.38492E+08         0.00000E+00
    0.00000E+00         0.00000E+00        -0.12261E+08
 
   -0.12814E+08        -0.22703E+06         0.00000E+00
   -0.22703E+06        -0.38575E+08         0.00000E+00
    0.00000E+00         0.00000E+00        -0.12400E+08
 
   -0.12771E+08        -0.17480E+06         0.00000E+00
   -0.17480E+06        -0.38661E+08         0.00000E+00
    0.00000E+00         0.00000E+00        -0.12551E+08
 
   -0.12725E+08        -0.86928E+05         0.00000E+00
   -0.86928E+05        -0.38745E+08         0.00000E+00
    0.00000E+00         0.00000E+00        -0.12704E+08
 
   -0.12680E+08         0.34436E+05         0.00000E+00
    0.34436E+05        -0.38822E+08         0.00000E+00
    0.00000E+00         0.00000E+00        -0.12852E+08
 
   -0.12642E+08         0.18646E+06         0.00000E+00
    0.18646E+06        -0.38891E+08         0.00000E+00
    0.00000E+00         0.00000E+00        -0.12984E+08
 
   -0.12618E+08         0.36570E+06         0.00000E+00
    0.36570E+06        -0.38947E+08         0.00000E+00
    0.00000E+00         0.00000E+00        -0.13094E+08
 
   -0.12614E+08         0.56825E+06         0.00000E+00
    0.56825E+06        -0.38989E+08         0.00000E+00
    0.00000E+00         0.00000E+00        -0.13172E+08
 
   -0.12635E+08         0.78935E+06         0.00000E+00
    0.78935E+06        -0.39015E+08         0.00000E+00
    0.00000E+00         0.00000E+00        -0.13212E+08
 
   -0.12686E+08         0.10234E+07         0.00000E+00
    0.10234E+07        -0.39022E+08         0.00000E+00
    0.00000E+00         0.00000E+00        -0.13206E+08
 
   -0.12770E+08         0.12636E+07         0.00000E+00
    0.12636E+07        -0.39007E+08         0.00000E+00
    0.00000E+00         0.00000E+00        -0.13148E+08
 
   -0.12891E+08         0.15009E+07         0.00000E+00
    0.15009E+07        -0.38969E+08         0.00000E+00
    0.00000E+00         0.00000E+00        -0.13034E+08
 
   -0.13826E+08        -0.81747E+05         0.00000E+00
   -0.81747E+05        -0.39160E+08         0.00000E+00
    0.00000E+00         0.00000E+00        -0.12208E+08
 
   -0.13798E+08        -0.20548E+06         0.00000E+00
   -0.20548E+06        -0.39192E+08         0.00000E+00
    0.00000E+00         0.00000E+00        -0.12275E+08
 
   -0.13749E+08        -0.28498E+06         0.00000E+00
   -0.28498E+06        -0.39248E+08         0.00000E+00
    0.00000E+00         0.00000E+00        -0.12390E+08
 
   -0.13685E+08        -0.31971E+06         0.00000E+00
   -0.31971E+06        -0.39319E+08         0.00000E+00
    0.00000E+00         0.00000E+00        -0.12538E+08
 
   -0.13609E+08        -0.31024E+06         0.00000E+00
   -0.31024E+06        -0.39400E+08         0.00000E+00
    0.00000E+00         0.00000E+00        -0.12708E+08
 
   -0.13525E+08        -0.25828E+06         0.00000E+00
   -0.25828E+06        -0.39483E+08         0.00000E+00
    0.00000E+00         0.00000E+00        -0.12890E+08
 
   -0.13440E+08        -0.16636E+06         0.00000E+00
   -0.16636E+06        -0.39565E+08         0.00000E+00
    0.00000E+00         0.00000E+00        -0.13073E+08
 
   -0.13360E+08        -0.37358E+05         0.00000E+00
   -0.37358E+05        -0.39641E+08         0.00000E+00
    0.00000E+00         0.00000E+00        -0.13248E+08
 
   -0.13290E+08         0.12474E+06         0.00000E+00
    0.12474E+06        -0.39709E+08         0.00000E+00
    0.00000E+00         0.00000E+00        -0.13409E+08
 
   -0.13238E+08         0.31638E+06         0.00000E+00
    0.31638E+06        -0.39767E+08         0.00000E+00
    0.00000E+00         0.00000E+00        -0.13547E+08
 
   -0.13210E+08         0.53336E+06         0.00000E+00
    0.53336E+06        -0.39813E+08         0.00000E+00
    0.00000E+00         0.00000E+00        -0.13653E+08
 
   -0.13213E+08         0.77111E+06         0.00000E+00
    0.77111E+06        -0.39845E+08         0.00000E+00
    0.00000E+00         0.00000E+00        -0.13721E+08
 
   -0.13253E+08         0.10242E+07         0.00000E+00
    0.10242E+07        -0.39860E+08         0.00000E+00
    0.00000E+00         0.00000E+00        -0.13741E+08
 
   -0.13334E+08         0.12859E+07         0.00000E+00
    0.12859E+07        -0.39856E+08         0.00000E+00
    0.00000E+00         0.00000E+00        -0.13705E+08
 
   -0.13461E+08         0.15466E+07         0.00000E+00
    0.15466E+07        -0.39829E+08         0.00000E+00
    0.00000E+00         0.00000E+00        -0.13605E+08
 
   -0.14849E+08        -0.99142E+05         0.00000E+00
   -0.99142E+05        -0.40021E+08         0.00000E+00
    0.00000E+00         0.00000E+00        -0.12392E+08
 
   -0.14771E+08        -0.25052E+06         0.00000E+00
   -0.25052E+06        -0.40051E+08         0.00000E+00
    0.00000E+00         0.00000E+00        -0.12495E+08
 
   -0.14673E+08        -0.34888E+06         0.00000E+00
   -0.34888E+06        -0.40104E+08         0.00000E+00
    0.00000E+00         0.00000E+00        -0.12644E+08
 
   -0.14559E+08        -0.39508E+06         0.00000E+00
   -0.39508E+06        -0.40171E+08         0.00000E+00
    0.00000E+00         0.00000E+00        -0.12825E+08
 
   -0.14435E+08        -0.39103E+06         0.00000E+00
   -0.39103E+06        -0.40245E+08         0.00000E+00
    0.00000E+00         0.00000E+00        -0.13025E+08
 
   -0.14306E+08        -0.33942E+06         0.00000E+00
   -0.33942E+06        -0.40322E+08         0.00000E+00
    0.00000E+00         0.00000E+00        -0.13234E+08
 
   -0.14178E+08        -0.24389E+06         0.00000E+00
   -0.24389E+06        -0.40398E+08         0.00000E+00
    0.00000E+00         0.00000E+00        -0.13442E+08
 
   -0.14060E+08        -0.10866E+06         0.00000E+00
   -0.10866E+06        -0.40469E+08         0.00000E+00
    0.00000E+00         0.00000E+00        -0.13642E+08
 
   -0.13956E+08         0.62019E+05         0.00000E+00
    0.62019E+05        -0.40534E+08         0.00000E+00
    0.00000E+00         0.00000E+00        -0.13827E+08
 
   -0.13874E+08         0.26360E+06         0.00000E+00
    0.26360E+06        -0.40591E+08         0.00000E+00
    0.00000E+00         0.00000E+00        -0.13990E+08
 
   -0.13821E+08         0.49231E+06         0.00000E+00
    0.49231E+06        -0.40639E+08         0.00000E+00
    0.00000E+00         0.00000E+00        -0.14123E+08
 
   -0.13803E+08         0.74417E+06         0.00000E+00
    0.74417E+06        -0.40677E+08         0.00000E+00
    0.00000E+00         0.00000E+00        -0.14220E+08
 
   -0.13829E+08         0.10142E+07         0.00000E+00
    0.10142E+07        -0.40702E+08         0.00000E+00
    0.00000E+00         0.00000E+00        -0.14268E+08
 
   -0.13904E+08         0.12960E+07         0.00000E+00
    0.12960E+07        -0.40709E+08         0.00000E+00
    0.00000E+00         0.00000E+00        -0.14258E+08
 
   -0.14035E+08         0.15808E+07         0.00000E+00
    0.15808E+07        -0.40695E+08         0.00000E+00
    0.00000E+00         0.00000E+00        -0.14177E+08
 
   -0.15929E+08        -0.11594E+06         0.00000E+00
   -0.11594E+06        -0.40907E+08         0.00000E+00
    0.00000E+00         0.00000E+00        -0.12588E+08
 
   -0.15793E+08        -0.29351E+06         0.00000E+00
   -0.29351E+06        -0.40935E+08         0.00000E+00
    0.00000E+00         0.00000E+00        -0.12729E+08
 
   -0.15637E+08        -0.40925E+06         0.00000E+00
   -0.40925E+06        -0.40983E+08         0.00000E+00
    0.00000E+00         0.00000E+00        -0.12912E+08
 
   -0.15467E+08        -0.46556E+06         0.00000E+00
   -0.46556E+06        -0.41043E+08         0.00000E+00
    0.00000E+00         0.00000E+00        -0.13123E+08
 
   -0.15289E+08        -0.46581E+06         0.00000E+00
   -0.46581E+06        -0.41109E+08         0.00000E+00
    0.00000E+00         0.00000E+00        -0.13350E+08
 
   -0.15110E+08        -0.41415E+06         0.00000E+00
   -0.41415E+06        -0.41175E+08         0.00000E+00
    0.00000E+00         0.00000E+00        -0.13582E+08
 
   -0.14938E+08        -0.31548E+06         0.00000E+00
   -0.31548E+06        -0.41240E+08         0.00000E+00
    0.00000E+00         0.00000E+00        -0.13810E+08
 
   -0.14778E+08        -0.17529E+06         0.00000E+00
   -0.17529E+06        -0.41302E+08         0.00000E+00
    0.00000E+00         0.00000E+00        -0.14029E+08
 
   -0.14639E+08         0.12990E+04         0.00000E+00
    0.12990E+04        -0.41359E+08         0.00000E+00
    0.00000E+00         0.00000E+00        -0.14233E+08
 
   -0.14526E+08         0.20974E+06         0.00000E+00
    0.20974E+06        -0.41413E+08         0.00000E+00
    0.00000E+00         0.00000E+00        -0.14417E+08
 
   -0.14445E+08         0.44639E+06         0.00000E+00
    0.44639E+06        -0.41462E+08         0.00000E+00
    0.00000E+00         0.00000E+00        -0.14575E+08
 
   -0.14405E+08         0.70830E+06         0.00000E+00
    0.70830E+06        -0.41505E+08         0.00000E+00
    0.00000E+00         0.00000E+00        -0.14700E+08
 
   -0.14412E+08         0.99217E+06         0.00000E+00
    0.99217E+06        -0.41540E+08         0.00000E+00
    0.00000E+00         0.00000E+00        -0.14780E+08
 
   -0.14478E+08         0.12925E+07         0.00000E+00
    0.12925E+07        -0.41561E+08         0.00000E+00
    0.00000E+00         0.00000E+00        -0.14801E+08
 
   -0.14611E+08         0.16003E+07         0.00000E+00
    0.16003E+07        -0.41562E+08         0.00000E+00
    0.00000E+00         0.00000E+00        -0.14745E+08
 
   -0.17063E+08        -0.13184E+06         0.00000E+00
   -0.13184E+06        -0.41817E+08         0.00000E+00
    0.00000E+00         0.00000E+00        -0.12799E+08
 
   -0.16859E+08        -0.33362E+06         0.00000E+00
   -0.33362E+06        -0.41842E+08         0.00000E+00
    0.00000E+00         0.00000E+00        -0.12978E+08
 
   -0.16637E+08        -0.46426E+06         0.00000E+00
   -0.46426E+06        -0.41884E+08         0.00000E+00
    0.00000E+00         0.00000E+00        -0.13195E+08
 
   -0.16404E+08        -0.52813E+06         0.00000E+00
   -0.52813E+06        -0.41934E+08         0.00000E+00
    0.00000E+00         0.00000E+00        -0.13434E+08
 
   -0.16168E+08        -0.53057E+06         0.00000E+00
   -0.53057E+06        -0.41987E+08         0.00000E+00
    0.00000E+00         0.00000E+00        -0.13683E+08
 
   -0.15936E+08        -0.47774E+06         0.00000E+00
   -0.47774E+06        -0.42039E+08         0.00000E+00
    0.00000E+00         0.00000E+00        -0.13932E+08
 
   -0.15717E+08        -0.37636E+06         0.00000E+00
   -0.37636E+06        -0.42088E+08         0.00000E+00
    0.00000E+00         0.00000E+00        -0.14173E+08
 
   -0.15516E+08        -0.23311E+06         0.00000E+00
   -0.23311E+06        -0.42135E+08         0.00000E+00
    0.00000E+00         0.00000E+00        -0.14404E+08
 
   -0.15341E+08        -0.53774E+05         0.00000E+00
   -0.53774E+05        -0.42182E+08         0.00000E+00
    0.00000E+00         0.00000E+00        -0.14621E+08
 
   -0.15196E+08         0.15723E+06         0.00000E+00
    0.15723E+06        -0.42229E+08         0.00000E+00
    0.00000E+00         0.00000E+00        -0.14821E+08
 
   -0.15087E+08         0.39695E+06         0.00000E+00
    0.39695E+06        -0.42277E+08         0.00000E+00
    0.00000E+00         0.00000E+00        -0.15002E+08
 
   -0.15020E+08         0.66378E+06         0.00000E+00
    0.66378E+06        -0.42324E+08         0.00000E+00
    0.00000E+00         0.00000E+00        -0.15155E+08
 
   -0.15006E+08         0.95660E+06         0.00000E+00
    0.95660E+06        -0.42369E+08         0.00000E+00
    0.00000E+00         0.00000E+00        -0.15270E+08
 
   -0.15056E+08         0.12722E+07         0.00000E+00
    0.12722E+07        -0.42406E+08         0.00000E+00
    0.00000E+00         0.00000E+00        -0.15328E+08
 
   -0.15185E+08         0.16024E+07         0.00000E+00
    0.16024E+07        -0.42427E+08         0.00000E+00
    0.00000E+00         0.00000E+00        -0.15306E+08
 
   -0.18246E+08        -0.14683E+06         0.00000E+00
   -0.14683E+06        -0.42746E+08         0.00000E+00
    0.00000E+00         0.00000E+00        -0.13028E+08
 
   -0.17962E+08        -0.37003E+06         0.00000E+00
   -0.37003E+06        -0.42768E+08         0.00000E+00
    0.00000E+00         0.00000E+00        -0.13244E+08
 
   -0.17665E+08        -0.51192E+06         0.00000E+00
   -0.51192E+06        -0.42803E+08         0.00000E+00
    0.00000E+00         0.00000E+00        -0.13494E+08
 
   -0.17364E+08        -0.57945E+06         0.00000E+00
   -0.57945E+06        -0.42841E+08         0.00000E+00
    0.00000E+00         0.00000E+00        -0.13758E+08
 
   -0.17066E+08        -0.58069E+06         0.00000E+00
   -0.58069E+06        -0.42876E+08         0.00000E+00
    0.00000E+00         0.00000E+00        -0.14023E+08
 
   -0.16780E+08        -0.52491E+06         0.00000E+00
   -0.52491E+06        -0.42908E+08         0.00000E+00
    0.00000E+00         0.00000E+00        -0.14281E+08
 
   -0.16514E+08        -0.42129E+06         0.00000E+00
   -0.42129E+06        -0.42936E+08         0.00000E+00
    0.00000E+00         0.00000E+00        -0.14528E+08
 
   -0.16274E+08        -0.27768E+06         0.00000E+00
   -0.27768E+06        -0.42965E+08         0.00000E+00
    0.00000E+00         0.00000E+00        -0.14762E+08
 
   -0.16064E+08        -0.99917E+05         0.00000E+00
   -0.99917E+05        -0.42997E+08         0.00000E+00
    0.00000E+00         0.00000E+00        -0.14985E+08
 
   -0.15888E+08         0.10843E+06         0.00000E+00
    0.10843E+06        -0.43035E+08         0.00000E+00
    0.00000E+00         0.00000E+00        -0.15197E+08
 
   -0.15749E+08         0.34553E+06         0.00000E+00
    0.34553E+06        -0.43080E+08         0.00000E+00
    0.00000E+00         0.00000E+00        -0.15396E+08
 
   -0.15653E+08         0.61128E+06         0.00000E+00
    0.61128E+06        -0.43131E+08         0.00000E+00
    0.00000E+00         0.00000E+00        -0.15578E+08
 
   -0.15610E+08         0.90669E+06         0.00000E+00
    0.90669E+06        -0.43186E+08         0.00000E+00
    0.00000E+00         0.00000E+00        -0.15731E+08
 
   -0.15637E+08         0.12322E+07         0.00000E+00
    0.12322E+07        -0.43240E+08         0.00000E+00
    0.00000E+00         0.00000E+00        -0.15834E+08
 
   -0.15756E+08         0.15824E+07         0.00000E+00
    0.15824E+07        -0.43283E+08         0.00000E+00
    0.00000E+00         0.00000E+00        -0.15854E+08
 
   -0.19471E+08        -0.16087E+06         0.00000E+00
   -0.16087E+06        -0.43693E+08         0.00000E+00
    0.00000E+00         0.00000E+00        -0.13276E+08
 
   -0.19096E+08        -0.40197E+06         0.00000E+00
   -0.40197E+06        -0.43711E+08         0.00000E+00
    0.00000E+00         0.00000E+00        -0.13531E+08
 
   -0.18715E+08        -0.54998E+06         0.00000E+00
   -0.54998E+06        -0.43737E+08         0.00000E+00
    0.00000E+00         0.00000E+00        -0.13811E+08
 
   -0.18339E+08        -0.61534E+06         0.00000E+00
   -0.61534E+06        -0.43758E+08         0.00000E+00
    0.00000E+00         0.00000E+00        -0.14095E+08
 
   -0.17977E+08        -0.61077E+06         0.00000E+00
   -0.61077E+06        -0.43772E+08         0.00000E+00
    0.00000E+00         0.00000E+00        -0.14369E+08
 
   -0.17638E+08        -0.54993E+06         0.00000E+00
   -0.54993E+06        -0.43777E+08         0.00000E+00
    0.00000E+00         0.00000E+00        -0.14627E+08
 
   -0.17329E+08        -0.44496E+06         0.00000E+00
   -0.44496E+06        -0.43780E+08         0.00000E+00
    0.00000E+00         0.00000E+00        -0.14868E+08
 
   -0.17052E+08        -0.30468E+06         0.00000E+00
   -0.30468E+06        -0.43785E+08         0.00000E+00
    0.00000E+00         0.00000E+00        -0.15096E+08
 
   -0.16810E+08        -0.13406E+06         0.00000E+00
   -0.13406E+06        -0.43800E+08         0.00000E+00
    0.00000E+00         0.00000E+00        -0.15317E+08
 
   -0.16603E+08         0.65096E+05         0.00000E+00
    0.65096E+05        -0.43827E+08         0.00000E+00
    0.00000E+00         0.00000E+00        -0.15536E+08
 
   -0.16434E+08         0.29300E+06         0.00000E+00
    0.29300E+06        -0.43869E+08         0.00000E+00
    0.00000E+00         0.00000E+00        -0.15752E+08
 
   -0.16307E+08         0.55090E+06         0.00000E+00
    0.55090E+06        -0.43923E+08         0.00000E+00
    0.00000E+00         0.00000E+00        -0.15962E+08
 
   -0.16231E+08         0.84170E+06         0.00000E+00
    0.84170E+06        -0.43989E+08         0.00000E+00
    0.00000E+00         0.00000E+00        -0.16156E+08
 
   -0.16225E+08         0.11698E+07         0.00000E+00
    0.11698E+07        -0.44061E+08         0.00000E+00
    0.00000E+00         0.00000E+00        -0.16311E+08
 
   -0.16323E+08         0.15376E+07         0.00000E+00
    0.15376E+07        -0.44131E+08         0.00000E+00
    0.00000E+00         0.00000E+00        -0.16388E+08
 
   -0.20734E+08        -0.17414E+06         0.00000E+00
   -0.17414E+06        -0.44653E+08         0.00000E+00
    0.00000E+00         0.00000E+00        -0.13546E+08
 
   -0.20253E+08        -0.42851E+06         0.00000E+00
   -0.42851E+06        -0.44667E+08         0.00000E+00
    0.00000E+00         0.00000E+00        -0.13838E+08
 
   -0.19777E+08        -0.57500E+06         0.00000E+00
   -0.57500E+06        -0.44681E+08         0.00000E+00
    0.00000E+00         0.00000E+00        -0.14147E+08
 
   -0.19320E+08        -0.63013E+06         0.00000E+00
   -0.63013E+06        -0.44681E+08         0.00000E+00
    0.00000E+00         0.00000E+00        -0.14444E+08
 
   -0.18895E+08        -0.61446E+06         0.00000E+00
   -0.61446E+06        -0.44665E+08         0.00000E+00
    0.00000E+00         0.00000E+00        -0.14716E+08
 
   -0.18507E+08        -0.54711E+06         0.00000E+00
   -0.54711E+06        -0.44639E+08         0.00000E+00
    0.00000E+00         0.00000E+00        -0.14962E+08
 
   -0.18161E+08        -0.44280E+06         0.00000E+00
   -0.44280E+06        -0.44612E+08         0.00000E+00
    0.00000E+00         0.00000E+00        -0.15186E+08
 
   -0.17854E+08        -0.31042E+06         0.00000E+00
   -0.31042E+06        -0.44592E+08         0.00000E+00
    0.00000E+00         0.00000E+00        -0.15400E+08
 
   -0.17584E+08        -0.15344E+06         0.00000E+00
   -0.15344E+06        -0.44586E+08         0.00000E+00
    0.00000E+00         0.00000E+00        -0.15612E+08
 
   -0.17349E+08         0.28784E+05         0.00000E+00
    0.28784E+05        -0.44601E+08         0.00000E+00
    0.00000E+00         0.00000E+00        -0.15832E+08
 
   -0.17149E+08         0.23934E+06         0.00000E+00
    0.23934E+06        -0.44638E+08         0.00000E+00
    0.00000E+00         0.00000E+00        -0.16062E+08
 
   -0.16988E+08         0.48224E+06         0.00000E+00
    0.48224E+06        -0.44698E+08         0.00000E+00
    0.00000E+00         0.00000E+00        -0.16301E+08
 
   -0.16874E+08         0.76176E+06         0.00000E+00
    0.76176E+06        -0.44776E+08         0.00000E+00
    0.00000E+00         0.00000E+00        -0.16540E+08
 
   -0.16823E+08         0.10839E+07         0.00000E+00
    0.10839E+07        -0.44867E+08         0.00000E+00
    0.00000E+00         0.00000E+00        -0.16756E+08
 
   -0.16888E+08         0.14542E+07         0.00000E+00
    0.14542E+07        -0.44967E+08         0.00000E+00
    0.00000E+00         0.00000E+00        -0.16900E+08
 
   -0.22027E+08        -0.18694E+06         0.00000E+00
   -0.18694E+06        -0.45623E+08         0.00000E+00
    0.00000E+00         0.00000E+00        -0.13837E+08
 
   -0.21420E+08        -0.44809E+06         0.00000E+00
   -0.44809E+06        -0.45634E+08         0.00000E+00
    0.00000E+00         0.00000E+00        -0.14170E+08
 
   -0.20837E+08        -0.58040E+06         0.00000E+00
   -0.58040E+06        -0.45628E+08         0.00000E+00
    0.00000E+00         0.00000E+00        -0.14500E+08
 
   -0.20298E+08        -0.61581E+06         0.00000E+00
   -0.61581E+06        -0.45597E+08         0.00000E+00
    0.00000E+00         0.00000E+00        -0.14798E+08
 
   -0.19814E+08        -0.58481E+06         0.00000E+00
   -0.58481E+06        -0.45545E+08         0.00000E+00
    0.00000E+00         0.00000E+00        -0.15055E+08
 
   -0.19387E+08        -0.51176E+06         0.00000E+00
   -0.51176E+06        -0.45484E+08         0.00000E+00
    0.00000E+00         0.00000E+00        -0.15276E+08
 
   -0.19012E+08        -0.41198E+06         0.00000E+00
   -0.41198E+06        -0.45425E+08         0.00000E+00
    0.00000E+00         0.00000E+00        -0.15475E+08
 
   -0.18683E+08        -0.29279E+06         0.00000E+00
   -0.29279E+06        -0.45378E+08         0.00000E+00
    0.00000E+00         0.00000E+00        -0.15666E+08
 
   -0.18391E+08        -0.15579E+06         0.00000E+00
   -0.15579E+06        -0.45352E+08         0.00000E+00
    0.00000E+00         0.00000E+00        -0.15863E+08
 
   -0.18130E+08         0.14612E+04         0.00000E+00
    0.14612E+04        -0.45352E+08         0.00000E+00
    0.00000E+00         0.00000E+00        -0.16078E+08
 
   -0.17899E+08         0.18497E+06         0.00000E+00
    0.18497E+06        -0.45384E+08         0.00000E+00
    0.00000E+00         0.00000E+00        -0.16318E+08
 
   -0.17702E+08         0.40286E+06         0.00000E+00
    0.40286E+06        -0.45449E+08         0.00000E+00
    0.00000E+00         0.00000E+00        -0.16586E+08
 
   -0.17544E+08         0.66255E+06         0.00000E+00
    0.66255E+06        -0.45544E+08         0.00000E+00
    0.00000E+00         0.00000E+00        -0.16875E+08
 
   -0.17443E+08         0.97146E+06         0.00000E+00
    0.97146E+06        -0.45660E+08         0.00000E+00
    0.00000E+00         0.00000E+00        -0.17163E+08
 
   -0.17450E+08         0.13427E+07         0.00000E+00
    0.13427E+07        -0.45787E+08         0.00000E+00
    0.00000E+00         0.00000E+00        -0.17391E+08
 
   -0.23344E+08        -0.20189E+06         0.00000E+00
   -0.20189E+06        -0.46608E+08         0.00000E+00
    0.00000E+00         0.00000E+00        -0.14156E+08
 
   -0.22580E+08        -0.45271E+06         0.00000E+00
   -0.45271E+06        -0.46601E+08         0.00000E+00
    0.00000E+00         0.00000E+00        -0.14523E+08
 
   -0.21879E+08        -0.55500E+06         0.00000E+00
   -0.55500E+06        -0.46565E+08         0.00000E+00
    0.00000E+00         0.00000E+00        -0.14864E+08
 
   -0.21262E+08        -0.56181E+06         0.00000E+00
   -0.56181E+06        -0.46491E+08         0.00000E+00
    0.00000E+00         0.00000E+00        -0.15144E+08
 
   -0.20731E+08        -0.51552E+06         0.00000E+00
   -0.51552E+06        -0.46396E+08         0.00000E+00
    0.00000E+00         0.00000E+00        -0.15369E+08
 
   -0.20277E+08        -0.44184E+06         0.00000E+00
   -0.44184E+06        -0.46297E+08         0.00000E+00
    0.00000E+00         0.00000E+00        -0.15556E+08
 
   -0.19886E+08        -0.35257E+06         0.00000E+00
   -0.35257E+06        -0.46208E+08         0.00000E+00
    0.00000E+00         0.00000E+00        -0.15723E+08
 
   -0.19542E+08        -0.25200E+06         0.00000E+00
   -0.25200E+06        -0.46138E+08         0.00000E+00
    0.00000E+00         0.00000E+00        -0.15889E+08
 
   -0.19235E+08        -0.14029E+06         0.00000E+00
   -0.14029E+06        -0.46092E+08         0.00000E+00
    0.00000E+00         0.00000E+00        -0.16066E+08
 
   -0.18954E+08        -0.14353E+05         0.00000E+00
   -0.14353E+05        -0.46078E+08         0.00000E+00
    0.00000E+00         0.00000E+00        -0.16270E+08
 
   -0.18694E+08         0.13262E+06         0.00000E+00
    0.13262E+06        -0.46102E+08         0.00000E+00
    0.00000E+00         0.00000E+00        -0.16511E+08
 
   -0.18456E+08         0.31215E+06         0.00000E+00
    0.31215E+06        -0.46168E+08         0.00000E+00
    0.00000E+00         0.00000E+00        -0.16802E+08
 
   -0.18248E+08         0.53957E+06         0.00000E+00
    0.53957E+06        -0.46281E+08         0.00000E+00
    0.00000E+00         0.00000E+00        -0.17143E+08
 
   -0.18082E+08         0.82827E+06         0.00000E+00
    0.82827E+06        -0.46428E+08         0.00000E+00
    0.00000E+00         0.00000E+00        -0.17516E+08
 
   -0.18009E+08         0.11938E+07         0.00000E+00
    0.11938E+07        -0.46593E+08         0.00000E+00
    0.00000E+00         0.00000E+00        -0.17860E+08
 
   -0.24674E+08        -0.21335E+06         0.00000E+00
   -0.21335E+06        -0.47581E+08         0.00000E+00
    0.00000E+00         0.00000E+00        -0.14545E+08
 
   -0.23706E+08        -0.43080E+06         0.00000E+00
   -0.43080E+06        -0.47554E+08         0.00000E+00
    0.00000E+00         0.00000E+00        -0.14894E+08
 
   -0.22888E+08        -0.48132E+06         0.00000E+00
   -0.48132E+06        -0.47466E+08         0.00000E+00
    0.00000E+00         0.00000E+00        -0.15218E+08
 
   -0.22208E+08        -0.45715E+06         0.00000E+00
   -0.45715E+06        -0.47335E+08         0.00000E+00
    0.00000E+00         0.00000E+00        -0.15456E+08
 
   -0.21650E+08        -0.40436E+06         0.00000E+00
   -0.40436E+06        -0.47194E+08         0.00000E+00
    0.00000E+00         0.00000E+00        -0.15636E+08
 
   -0.21183E+08        -0.33952E+06         0.00000E+00
   -0.33952E+06        -0.47062E+08         0.00000E+00
    0.00000E+00         0.00000E+00        -0.15784E+08
 
   -0.20784E+08        -0.26811E+06         0.00000E+00
   -0.26811E+06        -0.46950E+08         0.00000E+00
    0.00000E+00         0.00000E+00        -0.15921E+08
 
   -0.20434E+08        -0.19145E+06         0.00000E+00
   -0.19145E+06        -0.46862E+08         0.00000E+00
    0.00000E+00         0.00000E+00        -0.16061E+08
 
   -0.20118E+08        -0.10878E+06         0.00000E+00
   -0.10878E+06        -0.46803E+08         0.00000E+00
    0.00000E+00         0.00000E+00        -0.16219E+08
 
   -0.19824E+08        -0.17584E+05         0.00000E+00
   -0.17584E+05        -0.46777E+08         0.00000E+00
    0.00000E+00         0.00000E+00        -0.16408E+08
 
   -0.19542E+08         0.87314E+05         0.00000E+00
    0.87314E+05        -0.46791E+08         0.00000E+00
    0.00000E+00         0.00000E+00        -0.16643E+08
 
   -0.19267E+08         0.21653E+06         0.00000E+00
    0.21653E+06        -0.46853E+08         0.00000E+00
    0.00000E+00         0.00000E+00        -0.16942E+08
 
   -0.18998E+08         0.39113E+06         0.00000E+00
    0.39113E+06        -0.46974E+08         0.00000E+00
    0.00000E+00         0.00000E+00        -0.17326E+08
 
   -0.18754E+08         0.64237E+06         0.00000E+00
    0.64237E+06        -0.47161E+08         0.00000E+00
    0.00000E+00         0.00000E+00        -0.17799E+08
 
   -0.18572E+08         0.98892E+06         0.00000E+00
    0.98892E+06        -0.47385E+08         0.00000E+00
    0.00000E+00         0.00000E+00        -0.18304E+08
 
   -0.25986E+08        -0.21163E+06         0.00000E+00
   -0.21163E+06        -0.48545E+08         0.00000E+00
    0.00000E+00         0.00000E+00        -0.14971E+08
 
   -0.24766E+08        -0.34706E+06         0.00000E+00
   -0.34706E+06        -0.48457E+08         0.00000E+00
    0.00000E+00         0.00000E+00        -0.15257E+08
 
   -0.23853E+08        -0.33634E+06         0.00000E+00
   -0.33634E+06        -0.48282E+08         0.00000E+00
    0.00000E+00         0.00000E+00        -0.15519E+08
 
   -0.23147E+08        -0.29956E+06         0.00000E+00
   -0.29956E+06        -0.48094E+08         0.00000E+00
    0.00000E+00         0.00000E+00        -0.15696E+08
 
   -0.22581E+08        -0.25692E+06         0.00000E+00
   -0.25692E+06        -0.47918E+08         0.00000E+00
    0.00000E+00         0.00000E+00        -0.15831E+08
 
   -0.22112E+08        -0.21210E+06         0.00000E+00
   -0.21210E+06        -0.47764E+08         0.00000E+00
    0.00000E+00         0.00000E+00        -0.15946E+08
 
   -0.21711E+08        -0.16577E+06         0.00000E+00
   -0.16577E+06        -0.47638E+08         0.00000E+00
    0.00000E+00         0.00000E+00        -0.16058E+08
 
   -0.21360E+08        -0.11751E+06         0.00000E+00
   -0.11751E+06        -0.47541E+08         0.00000E+00
    0.00000E+00         0.00000E+00        -0.16179E+08
 
   -0.21040E+08        -0.66539E+05         0.00000E+00
   -0.66539E+05        -0.47476E+08         0.00000E+00
    0.00000E+00         0.00000E+00        -0.16321E+08
 
   -0.20740E+08        -0.11269E+05         0.00000E+00
   -0.11269E+05        -0.47446E+08         0.00000E+00
    0.00000E+00         0.00000E+00        -0.16496E+08
 
   -0.20446E+08         0.51037E+05         0.00000E+00
    0.51037E+05        -0.47456E+08         0.00000E+00
    0.00000E+00         0.00000E+00        -0.16721E+08
 
   -0.20144E+08         0.12643E+06         0.00000E+00
    0.12643E+06        -0.47512E+08         0.00000E+00
    0.00000E+00         0.00000E+00        -0.17016E+08
 
   -0.19821E+08         0.22961E+06         0.00000E+00
    0.22961E+06        -0.47630E+08         0.00000E+00
    0.00000E+00         0.00000E+00        -0.17417E+08
 
   -0.19470E+08         0.39911E+06         0.00000E+00
    0.39911E+06        -0.47831E+08         0.00000E+00
    0.00000E+00         0.00000E+00        -0.17972E+08
 
   -0.19140E+08         0.71402E+06         0.00000E+00
    0.71402E+06        -0.48154E+08         0.00000E+00
    0.00000E+00         0.00000E+00        -0.18713E+08
 
   -0.27208E+08        -0.14148E+06         0.00000E+00
   -0.14148E+06        -0.49424E+08         0.00000E+00
    0.00000E+00         0.00000E+00        -0.15372E+08
 
   -0.25733E+08        -0.14332E+06         0.00000E+00
   -0.14332E+06        -0.49195E+08         0.00000E+00
    0.00000E+00         0.00000E+00        -0.15516E+08
 
   -0.24802E+08        -0.12180E+06         0.00000E+00
   -0.12180E+06        -0.48950E+08         0.00000E+00
    0.00000E+00         0.00000E+00        -0.15697E+08
 
   -0.24097E+08        -0.10434E+06         0.00000E+00
   -0.10434E+06        -0.48732E+08         0.00000E+00
    0.00000E+00         0.00000E+00        -0.15828E+08
 
   -0.23534E+08        -0.87931E+05         0.00000E+00
   -0.87931E+05        -0.48544E+08         0.00000E+00
    0.00000E+00         0.00000E+00        -0.15933E+08
 
   -0.23068E+08        -0.71904E+05         0.00000E+00
   -0.71904E+05        -0.48386E+08         0.00000E+00
    0.00000E+00         0.00000E+00        -0.16029E+08
 
   -0.22671E+08        -0.55796E+05         0.00000E+00
   -0.55796E+05        -0.48260E+08         0.00000E+00
    0.00000E+00         0.00000E+00        -0.16127E+08
 
   -0.22321E+08        -0.39268E+05         0.00000E+00
   -0.39268E+05        -0.48166E+08         0.00000E+00
    0.00000E+00         0.00000E+00        -0.16238E+08
 
   -0.22002E+08        -0.21965E+05         0.00000E+00
   -0.21965E+05        -0.48105E+08         0.00000E+00
    0.00000E+00         0.00000E+00        -0.16372E+08
 
   -0.21701E+08        -0.33502E+04         0.00000E+00
   -0.33502E+04        -0.48081E+08         0.00000E+00
    0.00000E+00         0.00000E+00        -0.16540E+08
 
   -0.21403E+08         0.17364E+05         0.00000E+00
    0.17364E+05        -0.48097E+08         0.00000E+00
    0.00000E+00         0.00000E+00        -0.16758E+08
 
   -0.21091E+08         0.41802E+05         0.00000E+00
    0.41802E+05        -0.48159E+08         0.00000E+00
    0.00000E+00         0.00000E+00        -0.17048E+08
 
   -0.20739E+08         0.74213E+05         0.00000E+00
    0.74213E+05        -0.48280E+08         0.00000E+00
    0.00000E+00         0.00000E+00        -0.17449E+08
 
   -0.20307E+08         0.12936E+06         0.00000E+00
    0.12936E+06        -0.48489E+08         0.00000E+00
    0.00000E+00         0.00000E+00        -0.18045E+08
 
   -0.19717E+08         0.27844E+06         0.00000E+00
    0.27844E+06        -0.48853E+08         0.00000E+00
    0.00000E+00         0.00000E+00        -0.19032E+08
 
TENSORS stresstot double 
   -0.35007E+08         0.27045E+04         0.00000E+00
    0.27045E+04        -0.59994E+08         0.00000E+00
    0.00000E+00         0.00000E+00        -0.38890E+08
 
   -0.34994E+08         0.84867E+04         0.00000E+00
    0.84867E+04        -0.59983E+08         0.00000E+00
    0.00000E+00         0.00000E+00        -0.38888E+08
 
   -0.34992E+08         0.14326E+05         0.00000E+00
    0.14326E+05        -0.59961E+08         0.00000E+00
    0.00000E+00         0.00000E+00        -0.38848E+08
 
   -0.35007E+08         0.19794E+05         0.00000E+00
    0.19794E+05        -0.59927E+08         0.00000E+00
    0.00000E+00         0.00000E+00        -0.38764E+08
 
   -0.35046E+08         0.24443E+05         0.00000E+00
    0.24443E+05        -0.59884E+08         0.00000E+00
    0.00000E+00         0.00000E+00        -0.38628E+08
 
   -0.35112E+08         0.28095E+05         0.00000E+00
    0.28095E+05        -0.59832E+08         0.00000E+00
    0.00000E+00         0.00000E+00        -0.38440E+08
 
   -0.35205E+08         0.31091E+05         0.00000E+00
    0.31091E+05        -0.59774E+08         0.00000E+00
    0.00000E+00         0.00000E+00        -0.38209E+08
 
   -0.35319E+08         0.33708E+05         0.00000E+00
    0.33708E+05        -0.59710E+08         0.00000E+00
    0.00000E+00         0.00000E+00        -0.37945E+08
 
   -0.35447E+08         0.36272E+05         0.00000E+00
    0.36272E+05        -0.59641E+08         0.00000E+00
    0.00000E+00         0.00000E+00        -0.37665E+08
 
   -0.35579E+08         0.38808E+05         0.00000E+00
    0.38808E+05        -0.59567E+08         0.00000E+00
    0.00000E+00         0.00000E+00        -0.37380E+08
 
   -0.35703E+08         0.40885E+05         0.00000E+00
    0.40885E+05        -0.59488E+08         0.00000E+00
    0.00000E+00         0.00000E+00        -0.37105E+08
 
   -0.35813E+08         0.41615E+05         0.00000E+00
    0.41615E+05        -0.59405E+08         0.00000E+00
    0.00000E+00         0.00000E+00        -0.36848E+08
 
   -0.35912E+08         0.42446E+05         0.00000E+00
    0.42446E+05        -0.59320E+08         0.00000E+00
    0.00000E+00         0.00000E+00        -0.36625E+08
 
   -0.36194E+08         0.49106E+05         0.00000E+00
    0.49106E+05        -0.59229E+08         0.00000E+00
    0.00000E+00         0.00000E+00        -0.36615E+08
 
   -0.36510E+08         0.62952E+05         0.00000E+00
    0.62952E+05        -0.59118E+08         0.00000E+00
    0.00000E+00         0.00000E+00        -0.36650E+08
 
   -0.34996E+08         0.80373E+04         0.00000E+00
    0.80373E+04        -0.59994E+08         0.00000E+00
    0.00000E+00         0.00000E+00        -0.38860E+08
 
   -0.34983E+08         0.25324E+05         0.00000E+00
    0.25324E+05        -0.59984E+08         0.00000E+00
    0.00000E+00         0.00000E+00        -0.38859E+08
 
   -0.34981E+08         0.42808E+05         0.00000E+00
    0.42808E+05        -0.59962E+08         0.00000E+00
    0.00000E+00         0.00000E+00        -0.38820E+08
 
   -0.34997E+08         0.58937E+05         0.00000E+00
    0.58937E+05        -0.59929E+08         0.00000E+00
    0.00000E+00         0.00000E+00        -0.38735E+08
 
   -0.35038E+08         0.72598E+05         0.00000E+00
    0.72598E+05        -0.59886E+08         0.00000E+00
    0.00000E+00         0.00000E+00        -0.38598E+08
 
   -0.35105E+08         0.83270E+05         0.00000E+00
    0.83270E+05        -0.59836E+08         0.00000E+00
    0.00000E+00         0.00000E+00        -0.38412E+08
 
   -0.35200E+08         0.92005E+05         0.00000E+00
    0.92005E+05        -0.59780E+08         0.00000E+00
    0.00000E+00         0.00000E+00        -0.38182E+08
 
   -0.35314E+08         0.99587E+05         0.00000E+00
    0.99587E+05        -0.59719E+08         0.00000E+00
    0.00000E+00         0.00000E+00        -0.37923E+08
 
   -0.35443E+08         0.10702E+06         0.00000E+00
    0.10702E+06        -0.59653E+08         0.00000E+00
    0.00000E+00         0.00000E+00        -0.37647E+08
 
   -0.35574E+08         0.11458E+06         0.00000E+00
    0.11458E+06        -0.59583E+08         0.00000E+00
    0.00000E+00         0.00000E+00        -0.37368E+08
 
   -0.35700E+08         0.12122E+06         0.00000E+00
    0.12122E+06        -0.59507E+08         0.00000E+00
    0.00000E+00         0.00000E+00        -0.37096E+08
 
   -0.35813E+08         0.12496E+06         0.00000E+00
    0.12496E+06        -0.59426E+08         0.00000E+00
    0.00000E+00         0.00000E+00        -0.36840E+08
 
   -0.35907E+08         0.12736E+06         0.00000E+00
    0.12736E+06        -0.59342E+08         0.00000E+00
    0.00000E+00         0.00000E+00        -0.36609E+08
 
   -0.36170E+08         0.14674E+06         0.00000E+00
    0.14674E+06        -0.59250E+08         0.00000E+00
    0.00000E+00         0.00000E+00        -0.36582E+08
 
   -0.36479E+08         0.18760E+06         0.00000E+00
    0.18760E+06        -0.59140E+08         0.00000E+00
    0.00000E+00         0.00000E+00        -0.36616E+08
 
   -0.34973E+08         0.13318E+05         0.00000E+00
    0.13318E+05        -0.59994E+08         0.00000E+00
    0.00000E+00         0.00000E+00        -0.38800E+08
 
   -0.34959E+08         0.41913E+05         0.00000E+00
    0.41913E+05        -0.59984E+08         0.00000E+00
    0.00000E+00         0.00000E+00        -0.38801E+08
 
   -0.34958E+08         0.70454E+05         0.00000E+00
    0.70454E+05        -0.59962E+08         0.00000E+00
    0.00000E+00         0.00000E+00        -0.38762E+08
 
   -0.34977E+08         0.96625E+05         0.00000E+00
    0.96625E+05        -0.59931E+08         0.00000E+00
    0.00000E+00         0.00000E+00        -0.38677E+08
 
   -0.35022E+08         0.11842E+06         0.00000E+00
    0.11842E+06        -0.59891E+08         0.00000E+00
    0.00000E+00         0.00000E+00        -0.38539E+08
 
   -0.35093E+08         0.13539E+06         0.00000E+00
    0.13539E+06        -0.59845E+08         0.00000E+00
    0.00000E+00         0.00000E+00        -0.38355E+08
 
   -0.35189E+08         0.14919E+06         0.00000E+00
    0.14919E+06        -0.59793E+08         0.00000E+00
    0.00000E+00         0.00000E+00        -0.38130E+08
 
   -0.35305E+08         0.16116E+06         0.00000E+00
    0.16116E+06        -0.59737E+08         0.00000E+00
    0.00000E+00         0.00000E+00        -0.37879E+08
 
   -0.35433E+08         0.17296E+06         0.00000E+00
    0.17296E+06        -0.59677E+08         0.00000E+00
    0.00000E+00         0.00000E+00        -0.37612E+08
 
   -0.35565E+08         0.18539E+06         0.00000E+00
    0.18539E+06        -0.59613E+08         0.00000E+00
    0.00000E+00         0.00000E+00        -0.37342E+08
 
   -0.35693E+08         0.19772E+06         0.00000E+00
    0.19772E+06        -0.59543E+08         0.00000E+00
    0.00000E+00         0.00000E+00        -0.37078E+08
 
   -0.35808E+08         0.20777E+06         0.00000E+00
    0.20777E+06        -0.59466E+08         0.00000E+00
    0.00000E+00         0.00000E+00        -0.36824E+08
 
   -0.35904E+08         0.21318E+06         0.00000E+00
    0.21318E+06        -0.59381E+08         0.00000E+00
    0.00000E+00         0.00000E+00        -0.36589E+08
 
   -0.36122E+08         0.24200E+06         0.00000E+00
    0.24200E+06        -0.59290E+08         0.00000E+00
    0.00000E+00         0.00000E+00        -0.36516E+08
 
   -0.36419E+08         0.30726E+06         0.00000E+00
    0.30726E+06        -0.59186E+08         0.00000E+00
    0.00000E+00         0.00000E+00        -0.36549E+08
 
   -0.34940E+08         0.18563E+05         0.00000E+00
    0.18563E+05        -0.59994E+08         0.00000E+00
    0.00000E+00         0.00000E+00        -0.38711E+08
 
   -0.34925E+08         0.57989E+05         0.00000E+00
    0.57989E+05        -0.59984E+08         0.00000E+00
    0.00000E+00         0.00000E+00        -0.38713E+08
 
   -0.34925E+08         0.96706E+05         0.00000E+00
    0.96706E+05        -0.59964E+08         0.00000E+00
    0.00000E+00         0.00000E+00        -0.38675E+08
 
   -0.34949E+08         0.13158E+06         0.00000E+00
    0.13158E+06        -0.59935E+08         0.00000E+00
    0.00000E+00         0.00000E+00        -0.38588E+08
 
   -0.34999E+08         0.16005E+06         0.00000E+00
    0.16005E+06        -0.59900E+08         0.00000E+00
    0.00000E+00         0.00000E+00        -0.38450E+08
 
   -0.35075E+08         0.18237E+06         0.00000E+00
    0.18237E+06        -0.59859E+08         0.00000E+00
    0.00000E+00         0.00000E+00        -0.38269E+08
 
   -0.35174E+08         0.20041E+06         0.00000E+00
    0.20041E+06        -0.59814E+08         0.00000E+00
    0.00000E+00         0.00000E+00        -0.38053E+08
 
   -0.35291E+08         0.21637E+06         0.00000E+00
    0.21637E+06        -0.59765E+08         0.00000E+00
    0.00000E+00         0.00000E+00        -0.37812E+08
 
   -0.35419E+08         0.23231E+06         0.00000E+00
    0.23231E+06        -0.59712E+08         0.00000E+00
    0.00000E+00         0.00000E+00        -0.37558E+08
 
   -0.35550E+08         0.24952E+06         0.00000E+00
    0.24952E+06        -0.59654E+08         0.00000E+00
    0.00000E+00         0.00000E+00        -0.37301E+08
 
   -0.35678E+08         0.26812E+06         0.00000E+00
    0.26812E+06        -0.59591E+08         0.00000E+00
    0.00000E+00         0.00000E+00        -0.37047E+08
 
   -0.35797E+08         0.28683E+06         0.00000E+00
    0.28683E+06        -0.59521E+08         0.00000E+00
    0.00000E+00         0.00000E+00        -0.36801E+08
 
   -0.35901E+08         0.30070E+06         0.00000E+00
    0.30070E+06        -0.59441E+08         0.00000E+00
    0.00000E+00         0.00000E+00        -0.36564E+08
 
   -0.36055E+08         0.33291E+06         0.00000E+00
    0.33291E+06        -0.59351E+08         0.00000E+00
    0.00000E+00         0.00000E+00        -0.36423E+08
 
   -0.36332E+08         0.41739E+06         0.00000E+00
    0.41739E+06        -0.59254E+08         0.00000E+00
    0.00000E+00         0.00000E+00        -0.36450E+08
 
   -0.34896E+08         0.23588E+05         0.00000E+00
    0.23588E+05        -0.59994E+08         0.00000E+00
    0.00000E+00         0.00000E+00        -0.38591E+08
 
   -0.34880E+08         0.73081E+05         0.00000E+00
    0.73081E+05        -0.59985E+08         0.00000E+00
    0.00000E+00         0.00000E+00        -0.38597E+08
 
   -0.34883E+08         0.12077E+06         0.00000E+00
    0.12077E+06        -0.59967E+08         0.00000E+00
    0.00000E+00         0.00000E+00        -0.38558E+08
 
   -0.34914E+08         0.16233E+06         0.00000E+00
    0.16233E+06        -0.59942E+08         0.00000E+00
    0.00000E+00         0.00000E+00        -0.38469E+08
 
   -0.34971E+08         0.19568E+06         0.00000E+00
    0.19568E+06        -0.59913E+08         0.00000E+00
    0.00000E+00         0.00000E+00        -0.38332E+08
 
   -0.35053E+08         0.22214E+06         0.00000E+00
    0.22214E+06        -0.59880E+08         0.00000E+00
    0.00000E+00         0.00000E+00        -0.38156E+08
 
   -0.35156E+08         0.24383E+06         0.00000E+00
    0.24383E+06        -0.59843E+08         0.00000E+00
    0.00000E+00         0.00000E+00        -0.37950E+08
 
   -0.35274E+08         0.26383E+06         0.00000E+00
    0.26383E+06        -0.59802E+08         0.00000E+00
    0.00000E+00         0.00000E+00        -0.37723E+08
 
   -0.35401E+08         0.28424E+06         0.00000E+00
    0.28424E+06        -0.59757E+08         0.00000E+00
    0.00000E+00         0.00000E+00        -0.37484E+08
 
   -0.35530E+08         0.30654E+06         0.00000E+00
    0.30654E+06        -0.59706E+08         0.00000E+00
    0.00000E+00         0.00000E+00        -0.37241E+08
 
   -0.35656E+08         0.33121E+06         0.00000E+00
    0.33121E+06        -0.59650E+08         0.00000E+00
    0.00000E+00         0.00000E+00        -0.37002E+08
 
   -0.35775E+08         0.35786E+06         0.00000E+00
    0.35786E+06        -0.59587E+08         0.00000E+00
    0.00000E+00         0.00000E+00        -0.36767E+08
 
   -0.35887E+08         0.38490E+06         0.00000E+00
    0.38490E+06        -0.59515E+08         0.00000E+00
    0.00000E+00         0.00000E+00        -0.36536E+08
 
   -0.35991E+08         0.42164E+06         0.00000E+00
    0.42164E+06        -0.59434E+08         0.00000E+00
    0.00000E+00         0.00000E+00        -0.36333E+08
 
   -0.36215E+08         0.51474E+06         0.00000E+00
    0.51474E+06        -0.59340E+08         0.00000E+00
    0.00000E+00         0.00000E+00        -0.36316E+08
 
   -0.34842E+08         0.28269E+05         0.00000E+00
    0.28269E+05        -0.59994E+08         0.00000E+00
    0.00000E+00         0.00000E+00        -0.38443E+08
 
   -0.34826E+08         0.86633E+05         0.00000E+00
    0.86633E+05        -0.59986E+08         0.00000E+00
    0.00000E+00         0.00000E+00        -0.38450E+08
 
   -0.34835E+08         0.14120E+06         0.00000E+00
    0.14120E+06        -0.59971E+08         0.00000E+00
    0.00000E+00         0.00000E+00        -0.38409E+08
 
   -0.34873E+08         0.18713E+06         0.00000E+00
    0.18713E+06        -0.59952E+08         0.00000E+00
    0.00000E+00         0.00000E+00        -0.38318E+08
 
   -0.34939E+08         0.22367E+06         0.00000E+00
    0.22367E+06        -0.59931E+08         0.00000E+00
    0.00000E+00         0.00000E+00        -0.38184E+08
 
   -0.35028E+08         0.25293E+06         0.00000E+00
    0.25293E+06        -0.59907E+08         0.00000E+00
    0.00000E+00         0.00000E+00        -0.38016E+08
 
   -0.35134E+08         0.27822E+06         0.00000E+00
    0.27822E+06        -0.59879E+08         0.00000E+00
    0.00000E+00         0.00000E+00        -0.37823E+08
 
   -0.35252E+08         0.30267E+06         0.00000E+00
    0.30267E+06        -0.59848E+08         0.00000E+00
    0.00000E+00         0.00000E+00        -0.37611E+08
 
   -0.35377E+08         0.32833E+06         0.00000E+00
    0.32833E+06        -0.59811E+08         0.00000E+00
    0.00000E+00         0.00000E+00        -0.37389E+08
 
   -0.35503E+08         0.35662E+06         0.00000E+00
    0.35662E+06        -0.59768E+08         0.00000E+00
    0.00000E+00         0.00000E+00        -0.37163E+08
 
   -0.35627E+08         0.38805E+06         0.00000E+00
    0.38805E+06        -0.59718E+08         0.00000E+00
    0.00000E+00         0.00000E+00        -0.36938E+08
 
   -0.35744E+08         0.42274E+06         0.00000E+00
    0.42274E+06        -0.59659E+08         0.00000E+00
    0.00000E+00         0.00000E+00        -0.36715E+08
 
   -0.35851E+08         0.46153E+06         0.00000E+00
    0.46153E+06        -0.59591E+08         0.00000E+00
    0.00000E+00         0.00000E+00        -0.36496E+08
 
   -0.35949E+08         0.50725E+06         0.00000E+00
    0.50725E+06        -0.59514E+08         0.00000E+00
    0.00000E+00         0.00000E+00        -0.36283E+08
 
   -0.36066E+08         0.59311E+06         0.00000E+00
    0.59311E+06        -0.59443E+08         0.00000E+00
    0.00000E+00         0.00000E+00        -0.36158E+08
 
   -0.34779E+08         0.32347E+05         0.00000E+00
    0.32347E+05        -0.59994E+08         0.00000E+00
    0.00000E+00         0.00000E+00        -0.38264E+08
 
   -0.34765E+08         0.97833E+05         0.00000E+00
    0.97833E+05        -0.59988E+08         0.00000E+00
    0.00000E+00         0.00000E+00        -0.38272E+08
 
   -0.34782E+08         0.15644E+06         0.00000E+00
    0.15644E+06        -0.59978E+08         0.00000E+00
    0.00000E+00         0.00000E+00        -0.38228E+08
 
   -0.34831E+08         0.20418E+06         0.00000E+00
    0.20418E+06        -0.59966E+08         0.00000E+00
    0.00000E+00         0.00000E+00        -0.38136E+08
 
   -0.34906E+08         0.24205E+06         0.00000E+00
    0.24205E+06        -0.59954E+08         0.00000E+00
    0.00000E+00         0.00000E+00        -0.38006E+08
 
   -0.35000E+08         0.27378E+06         0.00000E+00
    0.27378E+06        -0.59941E+08         0.00000E+00
    0.00000E+00         0.00000E+00        -0.37849E+08
 
   -0.35107E+08         0.30293E+06         0.00000E+00
    0.30293E+06        -0.59923E+08         0.00000E+00
    0.00000E+00         0.00000E+00        -0.37671E+08
 
   -0.35225E+08         0.33242E+06         0.00000E+00
    0.33242E+06        -0.59901E+08         0.00000E+00
    0.00000E+00         0.00000E+00        -0.37478E+08
 
   -0.35347E+08         0.36439E+06         0.00000E+00
    0.36439E+06        -0.59873E+08         0.00000E+00
    0.00000E+00         0.00000E+00        -0.37275E+08
 
   -0.35470E+08         0.40011E+06         0.00000E+00
    0.40011E+06        -0.59837E+08         0.00000E+00
    0.00000E+00         0.00000E+00        -0.37067E+08
 
   -0.35590E+08         0.44013E+06         0.00000E+00
    0.44013E+06        -0.59793E+08         0.00000E+00
    0.00000E+00         0.00000E+00        -0.36856E+08
 
   -0.35702E+08         0.48467E+06         0.00000E+00
    0.48467E+06        -0.59738E+08         0.00000E+00
    0.00000E+00         0.00000E+00        -0.36646E+08
 
   -0.35805E+08         0.53382E+06         0.00000E+00
    0.53382E+06        -0.59672E+08         0.00000E+00
    0.00000E+00         0.00000E+00        -0.36439E+08
 
   -0.35895E+08         0.58873E+06         0.00000E+00
    0.58873E+06        -0.59595E+08         0.00000E+00
    0.00000E+00         0.00000E+00        -0.36238E+08
 
   -0.35965E+08         0.66045E+06         0.00000E+00
    0.66045E+06        -0.59517E+08         0.00000E+00
    0.00000E+00         0.00000E+00        -0.36066E+08
 
   -0.34709E+08         0.35528E+05         0.00000E+00
    0.35528E+05        -0.59995E+08         0.00000E+00
    0.00000E+00         0.00000E+00        -0.38055E+08
 
   -0.34700E+08         0.10536E+06         0.00000E+00
    0.10536E+06        -0.59991E+08         0.00000E+00
    0.00000E+00         0.00000E+00        -0.38061E+08
 
   -0.34727E+08         0.16471E+06         0.00000E+00
    0.16471E+06        -0.59988E+08         0.00000E+00
    0.00000E+00         0.00000E+00        -0.38013E+08
 
   -0.34789E+08         0.21165E+06         0.00000E+00
    0.21165E+06        -0.59985E+08         0.00000E+00
    0.00000E+00         0.00000E+00        -0.37919E+08
 
   -0.34871E+08         0.25004E+06         0.00000E+00
    0.25004E+06        -0.59983E+08         0.00000E+00
    0.00000E+00         0.00000E+00        -0.37797E+08
 
   -0.34968E+08         0.28420E+06         0.00000E+00
    0.28420E+06        -0.59980E+08         0.00000E+00
    0.00000E+00         0.00000E+00        -0.37655E+08
 
   -0.35076E+08         0.31753E+06         0.00000E+00
    0.31753E+06        -0.59973E+08         0.00000E+00
    0.00000E+00         0.00000E+00        -0.37496E+08
 
   -0.35191E+08         0.35289E+06         0.00000E+00
    0.35289E+06        -0.59961E+08         0.00000E+00
    0.00000E+00         0.00000E+00        -0.37323E+08
 
   -0.35310E+08         0.39240E+06         0.00000E+00
    0.39240E+06        -0.59941E+08         0.00000E+00
    0.00000E+00         0.00000E+00        -0.37141E+08
 
   -0.35428E+08         0.43718E+06         0.00000E+00
    0.43718E+06        -0.59913E+08         0.00000E+00
    0.00000E+00         0.00000E+00        -0.36952E+08
 
   -0.35542E+08         0.48764E+06         0.00000E+00
    0.48764E+06        -0.59874E+08         0.00000E+00
    0.00000E+00         0.00000E+00        -0.36759E+08
 
   -0.35650E+08         0.54370E+06         0.00000E+00
    0.54370E+06        -0.59823E+08         0.00000E+00
    0.00000E+00         0.00000E+00        -0.36564E+08
 
   -0.35747E+08         0.60498E+06         0.00000E+00
    0.60498E+06        -0.59760E+08         0.00000E+00
    0.00000E+00         0.00000E+00        -0.36369E+08
 
   -0.35831E+08         0.67097E+06         0.00000E+00
    0.67097E+06        -0.59684E+08         0.00000E+00
    0.00000E+00         0.00000E+00        -0.36180E+08
 
   -0.35897E+08         0.74016E+06         0.00000E+00
    0.74016E+06        -0.59602E+08         0.00000E+00
    0.00000E+00         0.00000E+00        -0.36007E+08
 
   -0.34634E+08         0.37358E+05         0.00000E+00
    0.37358E+05        -0.59996E+08         0.00000E+00
    0.00000E+00         0.00000E+00        -0.37814E+08
 
   -0.34633E+08         0.10757E+06         0.00000E+00
    0.10757E+06        -0.59997E+08         0.00000E+00
    0.00000E+00         0.00000E+00        -0.37816E+08
 
   -0.34676E+08         0.16408E+06         0.00000E+00
    0.16408E+06        -0.60001E+08         0.00000E+00
    0.00000E+00         0.00000E+00        -0.37760E+08
 
   -0.34747E+08         0.20884E+06         0.00000E+00
    0.20884E+06        -0.60008E+08         0.00000E+00
    0.00000E+00         0.00000E+00        -0.37670E+08
 
   -0.34835E+08         0.24740E+06         0.00000E+00
    0.24740E+06        -0.60016E+08         0.00000E+00
    0.00000E+00         0.00000E+00        -0.37559E+08
 
   -0.34934E+08         0.28396E+06         0.00000E+00
    0.28396E+06        -0.60024E+08         0.00000E+00
    0.00000E+00         0.00000E+00        -0.37433E+08
 
   -0.35040E+08         0.32188E+06         0.00000E+00
    0.32188E+06        -0.60027E+08         0.00000E+00
    0.00000E+00         0.00000E+00        -0.37296E+08
 
   -0.35151E+08         0.36402E+06         0.00000E+00
    0.36402E+06        -0.60025E+08         0.00000E+00
    0.00000E+00         0.00000E+00        -0.37146E+08
 
   -0.35264E+08         0.41227E+06         0.00000E+00
    0.41227E+06        -0.60014E+08         0.00000E+00
    0.00000E+00         0.00000E+00        -0.36988E+08
 
   -0.35375E+08         0.46754E+06         0.00000E+00
    0.46754E+06        -0.59994E+08         0.00000E+00
    0.00000E+00         0.00000E+00        -0.36821E+08
 
   -0.35483E+08         0.52995E+06         0.00000E+00
    0.52995E+06        -0.59961E+08         0.00000E+00
    0.00000E+00         0.00000E+00        -0.36647E+08
 
   -0.35585E+08         0.59887E+06         0.00000E+00
    0.59887E+06        -0.59915E+08         0.00000E+00
    0.00000E+00         0.00000E+00        -0.36469E+08
 
   -0.35678E+08         0.67297E+06         0.00000E+00
    0.67297E+06        -0.59856E+08         0.00000E+00
    0.00000E+00         0.00000E+00        -0.36290E+08
 
   -0.35759E+08         0.74978E+06         0.00000E+00
    0.74978E+06        -0.59785E+08         0.00000E+00
    0.00000E+00         0.00000E+00        -0.36113E+08
 
   -0.35828E+08         0.82590E+06         0.00000E+00
    0.82590E+06        -0.59703E+08         0.00000E+00
    0.00000E+00         0.00000E+00        -0.35942E+08
 
   -0.34557E+08         0.36888E+05         0.00000E+00
    0.36888E+05        -0.59999E+08         0.00000E+00
    0.00000E+00         0.00000E+00        -0.37540E+08
 
   -0.34571E+08         0.10294E+06         0.00000E+00
    0.10294E+06        -0.60004E+08         0.00000E+00
    0.00000E+00         0.00000E+00        -0.37529E+08
 
   -0.34627E+08         0.15389E+06         0.00000E+00
    0.15389E+06        -0.60016E+08         0.00000E+00
    0.00000E+00         0.00000E+00        -0.37469E+08
 
   -0.34706E+08         0.19566E+06         0.00000E+00
    0.19566E+06        -0.60033E+08         0.00000E+00
    0.00000E+00         0.00000E+00        -0.37385E+08
 
   -0.34797E+08         0.23391E+06         0.00000E+00
    0.23391E+06        -0.60052E+08         0.00000E+00
    0.00000E+00         0.00000E+00        -0.37290E+08
 
   -0.34895E+08         0.27291E+06         0.00000E+00
    0.27291E+06        -0.60070E+08         0.00000E+00
    0.00000E+00         0.00000E+00        -0.37185E+08
 
   -0.34997E+08         0.31595E+06         0.00000E+00
    0.31595E+06        -0.60084E+08         0.00000E+00
    0.00000E+00         0.00000E+00        -0.37071E+08
 
   -0.35102E+08         0.36566E+06         0.00000E+00
    0.36566E+06        -0.60092E+08         0.00000E+00
    0.00000E+00         0.00000E+00        -0.36948E+08
 
   -0.35207E+08         0.42369E+06         0.00000E+00
    0.42369E+06        -0.60090E+08         0.00000E+00
    0.00000E+00         0.00000E+00        -0.36815E+08
 
   -0.35311E+08         0.49061E+06         0.00000E+00
    0.49061E+06        -0.60078E+08         0.00000E+00
    0.00000E+00         0.00000E+00        -0.36673E+08
 
   -0.35411E+08         0.56596E+06         0.00000E+00
    0.56596E+06        -0.60052E+08         0.00000E+00
    0.00000E+00         0.00000E+00        -0.36522E+08
 
   -0.35507E+08         0.64854E+06         0.00000E+00
    0.64854E+06        -0.60013E+08         0.00000E+00
    0.00000E+00         0.00000E+00        -0.36363E+08
 
   -0.35596E+08         0.73594E+06         0.00000E+00
    0.73594E+06        -0.59960E+08         0.00000E+00
    0.00000E+00         0.00000E+00        -0.36199E+08
 
   -0.35677E+08         0.82497E+06         0.00000E+00
    0.82497E+06        -0.59893E+08         0.00000E+00
    0.00000E+00         0.00000E+00        -0.36033E+08
 
   -0.35748E+08         0.91254E+06         0.00000E+00
    0.91254E+06        -0.59813E+08         0.00000E+00
    0.00000E+00         0.00000E+00        -0.35865E+08
 
   -0.34485E+08         0.33247E+05         0.00000E+00
    0.33247E+05        -0.60001E+08         0.00000E+00
    0.00000E+00         0.00000E+00        -0.37225E+08
 
   -0.34516E+08         0.90773E+05         0.00000E+00
    0.90773E+05        -0.60012E+08         0.00000E+00
    0.00000E+00         0.00000E+00        -0.37199E+08
 
   -0.34585E+08         0.13421E+06         0.00000E+00
    0.13421E+06        -0.60032E+08         0.00000E+00
    0.00000E+00         0.00000E+00        -0.37138E+08
 
   -0.34668E+08         0.17192E+06         0.00000E+00
    0.17192E+06        -0.60059E+08         0.00000E+00
    0.00000E+00         0.00000E+00        -0.37066E+08
 
   -0.34759E+08         0.20953E+06         0.00000E+00
    0.20953E+06        -0.60089E+08         0.00000E+00
    0.00000E+00         0.00000E+00        -0.36990E+08
 
   -0.34853E+08         0.25102E+06         0.00000E+00
    0.25102E+06        -0.60117E+08         0.00000E+00
    0.00000E+00         0.00000E+00        -0.36909E+08
 
   -0.34948E+08         0.29960E+06         0.00000E+00
    0.29960E+06        -0.60142E+08         0.00000E+00
    0.00000E+00         0.00000E+00        -0.36822E+08
 
   -0.35044E+08         0.35755E+06         0.00000E+00
    0.35755E+06        -0.60160E+08         0.00000E+00
    0.00000E+00         0.00000E+00        -0.36728E+08
 
   -0.35139E+08         0.42615E+06         0.00000E+00
    0.42615E+06        -0.60168E+08         0.00000E+00
    0.00000E+00         0.00000E+00        -0.36623E+08
 
   -0.35233E+08         0.50551E+06         0.00000E+00
    0.50551E+06        -0.60164E+08         0.00000E+00
    0.00000E+00         0.00000E+00        -0.36508E+08
 
   -0.35326E+08         0.59477E+06         0.00000E+00
    0.59477E+06        -0.60147E+08         0.00000E+00
    0.00000E+00         0.00000E+00        -0.36381E+08
 
   -0.35415E+08         0.69171E+06         0.00000E+00
    0.69171E+06        -0.60115E+08         0.00000E+00
    0.00000E+00         0.00000E+00        -0.36243E+08
 
   -0.35501E+08         0.79352E+06         0.00000E+00
    0.79352E+06        -0.60067E+08         0.00000E+00
    0.00000E+00         0.00000E+00        -0.36096E+08
 
   -0.35582E+08         0.89685E+06         0.00000E+00
    0.89685E+06        -0.60005E+08         0.00000E+00
    0.00000E+00         0.00000E+00        -0.35939E+08
 
   -0.35657E+08         0.99822E+06         0.00000E+00
    0.99822E+06        -0.59927E+08         0.00000E+00
    0.00000E+00         0.00000E+00        -0.35776E+08
 
   -0.34423E+08         0.26388E+05         0.00000E+00
    0.26388E+05        -0.60003E+08         0.00000E+00
    0.00000E+00         0.00000E+00        -0.36864E+08
 
   -0.34472E+08         0.70744E+05         0.00000E+00
    0.70744E+05        -0.60019E+08         0.00000E+00
    0.00000E+00         0.00000E+00        -0.36825E+08
 
   -0.34548E+08         0.10513E+06         0.00000E+00
    0.10513E+06        -0.60048E+08         0.00000E+00
    0.00000E+00         0.00000E+00        -0.36769E+08
 
   -0.34632E+08         0.13793E+06         0.00000E+00
    0.13793E+06        -0.60084E+08         0.00000E+00
    0.00000E+00         0.00000E+00        -0.36713E+08
 
   -0.34719E+08         0.17432E+06         0.00000E+00
    0.17432E+06        -0.60124E+08         0.00000E+00
    0.00000E+00         0.00000E+00        -0.36659E+08
 
   -0.34806E+08         0.21827E+06         0.00000E+00
    0.21827E+06        -0.60164E+08         0.00000E+00
    0.00000E+00         0.00000E+00        -0.36606E+08
 
   -0.34892E+08         0.27266E+06         0.00000E+00
    0.27266E+06        -0.60199E+08         0.00000E+00
    0.00000E+00         0.00000E+00        -0.36549E+08
 
   -0.34976E+08         0.33933E+06         0.00000E+00
    0.33933E+06        -0.60227E+08         0.00000E+00
    0.00000E+00         0.00000E+00        -0.36486E+08
 
   -0.35060E+08         0.41916E+06         0.00000E+00
    0.41916E+06        -0.60245E+08         0.00000E+00
    0.00000E+00         0.00000E+00        -0.36412E+08
 
   -0.35143E+08         0.51178E+06         0.00000E+00
    0.51178E+06        -0.60251E+08         0.00000E+00
    0.00000E+00         0.00000E+00        -0.36325E+08
 
   -0.35225E+08         0.61557E+06         0.00000E+00
    0.61557E+06        -0.60242E+08         0.00000E+00
    0.00000E+00         0.00000E+00        -0.36225E+08
 
   -0.35308E+08         0.72809E+06         0.00000E+00
    0.72809E+06        -0.60217E+08         0.00000E+00
    0.00000E+00         0.00000E+00        -0.36109E+08
 
   -0.35391E+08         0.84581E+06         0.00000E+00
    0.84581E+06        -0.60176E+08         0.00000E+00
    0.00000E+00         0.00000E+00        -0.35977E+08
 
   -0.35472E+08         0.96516E+06         0.00000E+00
    0.96516E+06        -0.60118E+08         0.00000E+00
    0.00000E+00         0.00000E+00        -0.35831E+08
 
   -0.35551E+08         0.10820E+07         0.00000E+00
    0.10820E+07        -0.60044E+08         0.00000E+00
    0.00000E+00         0.00000E+00        -0.35672E+08
 
   -0.34377E+08         0.15993E+05         0.00000E+00
    0.15993E+05        -0.60005E+08         0.00000E+00
    0.00000E+00         0.00000E+00        -0.36456E+08
 
   -0.34441E+08         0.43811E+05         0.00000E+00
    0.43811E+05        -0.60026E+08         0.00000E+00
    0.00000E+00         0.00000E+00        -0.36407E+08
 
   -0.34519E+08         0.67259E+05         0.00000E+00
    0.67259E+05        -0.60062E+08         0.00000E+00
    0.00000E+00         0.00000E+00        -0.36362E+08
 
   -0.34600E+08         0.93863E+05         0.00000E+00
    0.93863E+05        -0.60108E+08         0.00000E+00
    0.00000E+00         0.00000E+00        -0.36326E+08
 
   -0.34679E+08         0.12851E+06         0.00000E+00
    0.12851E+06        -0.60158E+08         0.00000E+00
    0.00000E+00         0.00000E+00        -0.36299E+08
 
   -0.34755E+08         0.17477E+06         0.00000E+00
    0.17477E+06        -0.60208E+08         0.00000E+00
    0.00000E+00         0.00000E+00        -0.36275E+08
 
   -0.34828E+08         0.23508E+06         0.00000E+00
    0.23508E+06        -0.60254E+08         0.00000E+00
    0.00000E+00         0.00000E+00        -0.36251E+08
 
   -0.34898E+08         0.31091E+06         0.00000E+00
    0.31091E+06        -0.60292E+08         0.00000E+00
    0.00000E+00         0.00000E+00        -0.36221E+08
 
   -0.34967E+08         0.40247E+06         0.00000E+00
    0.40247E+06        -0.60320E+08         0.00000E+00
    0.00000E+00         0.00000E+00        -0.36180E+08
 
   -0.35037E+08         0.50891E+06         0.00000E+00
    0.50891E+06        -0.60334E+08         0.00000E+00
    0.00000E+00         0.00000E+00        -0.36124E+08
 
   -0.35109E+08         0.62825E+06         0.00000E+00
    0.62825E+06        -0.60334E+08         0.00000E+00
    0.00000E+00         0.00000E+00        -0.36050E+08
 
   -0.35185E+08         0.75736E+06         0.00000E+00
    0.75736E+06        -0.60317E+08         0.00000E+00
    0.00000E+00         0.00000E+00        -0.35957E+08
 
   -0.35264E+08         0.89256E+06         0.00000E+00
    0.89256E+06        -0.60283E+08         0.00000E+00
    0.00000E+00         0.00000E+00        -0.35843E+08
 
   -0.35345E+08         0.10295E+07         0.00000E+00
    0.10295E+07        -0.60230E+08         0.00000E+00
    0.00000E+00         0.00000E+00        -0.35708E+08
 
   -0.35429E+08         0.11632E+07         0.00000E+00
    0.11632E+07        -0.60159E+08         0.00000E+00
    0.00000E+00         0.00000E+00        -0.35554E+08
 
   -0.34354E+08         0.26778E+04         0.00000E+00
    0.26778E+04        -0.60006E+08         0.00000E+00
    0.00000E+00         0.00000E+00        -0.35996E+08
 
   -0.34424E+08         0.10940E+05         0.00000E+00
    0.10940E+05        -0.60032E+08         0.00000E+00
    0.00000E+00         0.00000E+00        -0.35948E+08
 
   -0.34500E+08         0.21193E+05         0.00000E+00
    0.21193E+05        -0.60074E+08         0.00000E+00
    0.00000E+00         0.00000E+00        -0.35918E+08
 
   -0.34572E+08         0.40284E+05         0.00000E+00
    0.40284E+05        -0.60128E+08         0.00000E+00
    0.00000E+00         0.00000E+00        -0.35907E+08
 
   -0.34639E+08         0.72545E+05         0.00000E+00
    0.72545E+05        -0.60188E+08         0.00000E+00
    0.00000E+00         0.00000E+00        -0.35908E+08
 
   -0.34700E+08         0.12090E+06         0.00000E+00
    0.12090E+06        -0.60247E+08         0.00000E+00
    0.00000E+00         0.00000E+00        -0.35918E+08
 
   -0.34756E+08         0.18724E+06         0.00000E+00
    0.18724E+06        -0.60303E+08         0.00000E+00
    0.00000E+00         0.00000E+00        -0.35928E+08
 
   -0.34809E+08         0.27240E+06         0.00000E+00
    0.27240E+06        -0.60351E+08         0.00000E+00
    0.00000E+00         0.00000E+00        -0.35932E+08
 
   -0.34862E+08         0.37609E+06         0.00000E+00
    0.37609E+06        -0.60389E+08         0.00000E+00
    0.00000E+00         0.00000E+00        -0.35925E+08
 
   -0.34917E+08         0.49698E+06         0.00000E+00
    0.49698E+06        -0.60413E+08         0.00000E+00
    0.00000E+00         0.00000E+00        -0.35901E+08
 
   -0.34977E+08         0.63257E+06         0.00000E+00
    0.63257E+06        -0.60421E+08         0.00000E+00
    0.00000E+00         0.00000E+00        -0.35856E+08
 
   -0.35044E+08         0.77939E+06         0.00000E+00
    0.77939E+06        -0.60412E+08         0.00000E+00
    0.00000E+00         0.00000E+00        -0.35786E+08
 
   -0.35118E+08         0.93328E+06         0.00000E+00
    0.93328E+06        -0.60384E+08         0.00000E+00
    0.00000E+00         0.00000E+00        -0.35690E+08
 
   -0.35201E+08         0.10891E+07         0.00000E+00
    0.10891E+07        -0.60337E+08         0.00000E+00
    0.00000E+00         0.00000E+00        -0.35568E+08
 
   -0.35291E+08         0.12410E+07         0.00000E+00
    0.12410E+07        -0.60271E+08         0.00000E+00
    0.00000E+00         0.00000E+00        -0.35419E+08
 
   -0.34356E+08        -0.12429E+05         0.00000E+00
   -0.12429E+05        -0.60007E+08         0.00000E+00
    0.00000E+00         0.00000E+00        -0.35487E+08
 
   -0.34425E+08        -0.27112E+05         0.00000E+00
   -0.27112E+05        -0.60036E+08         0.00000E+00
    0.00000E+00         0.00000E+00        -0.35448E+08
 
   -0.34491E+08        -0.32148E+05         0.00000E+00
   -0.32148E+05        -0.60084E+08         0.00000E+00
    0.00000E+00         0.00000E+00        -0.35440E+08
 
   -0.34550E+08        -0.21829E+05         0.00000E+00
   -0.21829E+05        -0.60145E+08         0.00000E+00
    0.00000E+00         0.00000E+00        -0.35456E+08
 
   -0.34599E+08         0.73400E+04         0.00000E+00
    0.73400E+04        -0.60213E+08         0.00000E+00
    0.00000E+00         0.00000E+00        -0.35490E+08
 
   -0.34641E+08         0.57476E+05         0.00000E+00
    0.57476E+05        -0.60281E+08         0.00000E+00
    0.00000E+00         0.00000E+00        -0.35533E+08
 
   -0.34677E+08         0.12976E+06         0.00000E+00
    0.12976E+06        -0.60346E+08         0.00000E+00
    0.00000E+00         0.00000E+00        -0.35578E+08
 
   -0.34709E+08         0.22436E+06         0.00000E+00
    0.22436E+06        -0.60403E+08         0.00000E+00
    0.00000E+00         0.00000E+00        -0.35618E+08
 
   -0.34743E+08         0.34042E+06         0.00000E+00
    0.34042E+06        -0.60449E+08         0.00000E+00
    0.00000E+00         0.00000E+00        -0.35646E+08
 
   -0.34781E+08         0.47609E+06         0.00000E+00
    0.47609E+06        -0.60482E+08         0.00000E+00
    0.00000E+00         0.00000E+00        -0.35654E+08
 
   -0.34827E+08         0.62852E+06         0.00000E+00
    0.62852E+06        -0.60499E+08         0.00000E+00
    0.00000E+00         0.00000E+00        -0.35639E+08
 
   -0.34884E+08         0.79393E+06         0.00000E+00
    0.79393E+06        -0.60498E+08         0.00000E+00
    0.00000E+00         0.00000E+00        -0.35594E+08
 
   -0.34954E+08         0.96741E+06         0.00000E+00
    0.96741E+06        -0.60478E+08         0.00000E+00
    0.00000E+00         0.00000E+00        -0.35518E+08
 
   -0.35037E+08         0.11432E+07         0.00000E+00
    0.11432E+07        -0.60437E+08         0.00000E+00
    0.00000E+00         0.00000E+00        -0.35409E+08
 
   -0.35134E+08         0.13147E+07         0.00000E+00
    0.13147E+07        -0.60376E+08         0.00000E+00
    0.00000E+00         0.00000E+00        -0.35266E+08
 
   -0.34388E+08        -0.28869E+05         0.00000E+00
   -0.28869E+05        -0.60008E+08         0.00000E+00
    0.00000E+00         0.00000E+00        -0.34934E+08
 
   -0.34447E+08        -0.69073E+05         0.00000E+00
   -0.69073E+05        -0.60039E+08         0.00000E+00
    0.00000E+00         0.00000E+00        -0.34912E+08
 
   -0.34496E+08        -0.91207E+05         0.00000E+00
   -0.91207E+05        -0.60091E+08         0.00000E+00
    0.00000E+00         0.00000E+00        -0.34929E+08
 
   -0.34534E+08        -0.90946E+05         0.00000E+00
   -0.90946E+05        -0.60158E+08         0.00000E+00
    0.00000E+00         0.00000E+00        -0.34976E+08
 
   -0.34560E+08        -0.65694E+05         0.00000E+00
   -0.65694E+05        -0.60232E+08         0.00000E+00
    0.00000E+00         0.00000E+00        -0.35043E+08
 
   -0.34578E+08        -0.14231E+05         0.00000E+00
   -0.14231E+05        -0.60307E+08         0.00000E+00
    0.00000E+00         0.00000E+00        -0.35122E+08
 
   -0.34589E+08         0.63764E+05         0.00000E+00
    0.63764E+05        -0.60379E+08         0.00000E+00
    0.00000E+00         0.00000E+00        -0.35203E+08
 
   -0.34599E+08         0.16768E+06         0.00000E+00
    0.16768E+06        -0.60444E+08         0.00000E+00
    0.00000E+00         0.00000E+00        -0.35278E+08
 
   -0.34610E+08         0.29608E+06         0.00000E+00
    0.29608E+06        -0.60499E+08         0.00000E+00
    0.00000E+00         0.00000E+00        -0.35341E+08
 
   -0.34629E+08         0.44670E+06         0.00000E+00
    0.44670E+06        -0.60539E+08         0.00000E+00
    0.00000E+00         0.00000E+00        -0.35382E+08
 
   -0.34659E+08         0.61630E+06         0.00000E+00
    0.61630E+06        -0.60564E+08         0.00000E+00
    0.00000E+00         0.00000E+00        -0.35397E+08
 
   -0.34705E+08         0.80060E+06         0.00000E+00
    0.80060E+06        -0.60571E+08         0.00000E+00
    0.00000E+00         0.00000E+00        -0.35379E+08
 
   -0.34769E+08         0.99421E+06         0.00000E+00
    0.99421E+06        -0.60559E+08         0.00000E+00
    0.00000E+00         0.00000E+00        -0.35324E+08
 
   -0.34853E+08         0.11909E+07         0.00000E+00
    0.11909E+07        -0.60526E+08         0.00000E+00
    0.00000E+00         0.00000E+00        -0.35229E+08
 
   -0.34957E+08         0.13837E+07         0.00000E+00
    0.13837E+07        -0.60471E+08         0.00000E+00
    0.00000E+00         0.00000E+00        -0.35094E+08
 
   -0.34451E+08        -0.46195E+05         0.00000E+00
   -0.46195E+05        -0.60009E+08         0.00000E+00
    0.00000E+00         0.00000E+00        -0.34340E+08
 
   -0.34490E+08        -0.11364E+06         0.00000E+00
   -0.11364E+06        -0.60041E+08         0.00000E+00
    0.00000E+00         0.00000E+00        -0.34343E+08
 
   -0.34515E+08        -0.15428E+06         0.00000E+00
   -0.15428E+06        -0.60095E+08         0.00000E+00
    0.00000E+00         0.00000E+00        -0.34390E+08
 
   -0.34525E+08        -0.16508E+06         0.00000E+00
   -0.16508E+06        -0.60166E+08         0.00000E+00
    0.00000E+00         0.00000E+00        -0.34469E+08
 
   -0.34523E+08        -0.14461E+06         0.00000E+00
   -0.14461E+06        -0.60244E+08         0.00000E+00
    0.00000E+00         0.00000E+00        -0.34571E+08
 
   -0.34512E+08        -0.92463E+05         0.00000E+00
   -0.92463E+05        -0.60324E+08         0.00000E+00
    0.00000E+00         0.00000E+00        -0.34684E+08
 
   -0.34495E+08        -0.91980E+04         0.00000E+00
   -0.91980E+04        -0.60402E+08         0.00000E+00
    0.00000E+00         0.00000E+00        -0.34801E+08
 
   -0.34477E+08         0.10368E+06         0.00000E+00
    0.10368E+06        -0.60473E+08         0.00000E+00
    0.00000E+00         0.00000E+00        -0.34912E+08
 
   -0.34464E+08         0.24425E+06         0.00000E+00
    0.24425E+06        -0.60534E+08         0.00000E+00
    0.00000E+00         0.00000E+00        -0.35008E+08
 
   -0.34460E+08         0.40962E+06         0.00000E+00
    0.40962E+06        -0.60582E+08         0.00000E+00
    0.00000E+00         0.00000E+00        -0.35083E+08
 
   -0.34473E+08         0.59608E+06         0.00000E+00
    0.59608E+06        -0.60614E+08         0.00000E+00
    0.00000E+00         0.00000E+00        -0.35127E+08
 
   -0.34506E+08         0.79913E+06         0.00000E+00
    0.79913E+06        -0.60629E+08         0.00000E+00
    0.00000E+00         0.00000E+00        -0.35136E+08
 
   -0.34563E+08         0.10131E+07         0.00000E+00
    0.10131E+07        -0.60625E+08         0.00000E+00
    0.00000E+00         0.00000E+00        -0.35104E+08
 
   -0.34647E+08         0.12313E+07         0.00000E+00
    0.12313E+07        -0.60599E+08         0.00000E+00
    0.00000E+00         0.00000E+00        -0.35026E+08
 
   -0.34759E+08         0.14464E+07         0.00000E+00
    0.14464E+07        -0.60552E+08         0.00000E+00
    0.00000E+00         0.00000E+00        -0.34899E+08
 
   -0.34547E+08        -0.63982E+05         0.00000E+00
   -0.63982E+05        -0.60009E+08         0.00000E+00
    0.00000E+00         0.00000E+00        -0.33712E+08
 
   -0.34556E+08        -0.15947E+06         0.00000E+00
   -0.15947E+06        -0.60041E+08         0.00000E+00
    0.00000E+00         0.00000E+00        -0.33745E+08
 
   -0.34548E+08        -0.21952E+06         0.00000E+00
   -0.21952E+06        -0.60097E+08         0.00000E+00
    0.00000E+00         0.00000E+00        -0.33825E+08
 
   -0.34524E+08        -0.24215E+06         0.00000E+00
   -0.24215E+06        -0.60169E+08         0.00000E+00
    0.00000E+00         0.00000E+00        -0.33938E+08
 
   -0.34488E+08        -0.22703E+06         0.00000E+00
   -0.22703E+06        -0.60249E+08         0.00000E+00
    0.00000E+00         0.00000E+00        -0.34074E+08
 
   -0.34442E+08        -0.17480E+06         0.00000E+00
   -0.17480E+06        -0.60332E+08         0.00000E+00
    0.00000E+00         0.00000E+00        -0.34222E+08
 
   -0.34393E+08        -0.86928E+05         0.00000E+00
   -0.86928E+05        -0.60413E+08         0.00000E+00
    0.00000E+00         0.00000E+00        -0.34372E+08
 
   -0.34345E+08         0.34436E+05         0.00000E+00
    0.34436E+05        -0.60487E+08         0.00000E+00
    0.00000E+00         0.00000E+00        -0.34517E+08
 
   -0.34304E+08         0.18646E+06         0.00000E+00
    0.18646E+06        -0.60552E+08         0.00000E+00
    0.00000E+00         0.00000E+00        -0.34646E+08
 
   -0.34277E+08         0.36570E+06         0.00000E+00
    0.36570E+06        -0.60605E+08         0.00000E+00
    0.00000E+00         0.00000E+00        -0.34752E+08
 
   -0.34269E+08         0.56825E+06         0.00000E+00
    0.56825E+06        -0.60644E+08         0.00000E+00
    0.00000E+00         0.00000E+00        -0.34827E+08
 
   -0.34287E+08         0.78935E+06         0.00000E+00
    0.78935E+06        -0.60667E+08         0.00000E+00
    0.00000E+00         0.00000E+00        -0.34864E+08
 
   -0.34336E+08         0.10234E+07         0.00000E+00
    0.10234E+07        -0.60672E+08         0.00000E+00
    0.00000E+00         0.00000E+00        -0.34856E+08
 
   -0.34419E+08         0.12636E+07         0.00000E+00
    0.12636E+07        -0.60655E+08         0.00000E+00
    0.00000E+00         0.00000E+00        -0.34797E+08
 
   -0.34539E+08         0.15009E+07         0.00000E+00
    0.15009E+07        -0.60617E+08         0.00000E+00
    0.00000E+00         0.00000E+00        -0.34682E+08
 
   -0.34675E+08        -0.81747E+05         0.00000E+00
   -0.81747E+05        -0.60009E+08         0.00000E+00
    0.00000E+00         0.00000E+00        -0.33057E+08
 
   -0.34647E+08        -0.20548E+06         0.00000E+00
   -0.20548E+06        -0.60041E+08         0.00000E+00
    0.00000E+00         0.00000E+00        -0.33124E+08
 
   -0.34598E+08        -0.28498E+06         0.00000E+00
   -0.28498E+06        -0.60096E+08         0.00000E+00
    0.00000E+00         0.00000E+00        -0.33238E+08
 
   -0.34533E+08        -0.31971E+06         0.00000E+00
   -0.31971E+06        -0.60167E+08         0.00000E+00
    0.00000E+00         0.00000E+00        -0.33386E+08
 
   -0.34455E+08        -0.31024E+06         0.00000E+00
   -0.31024E+06        -0.60247E+08         0.00000E+00
    0.00000E+00         0.00000E+00        -0.33555E+08
 
   -0.34371E+08        -0.25828E+06         0.00000E+00
   -0.25828E+06        -0.60329E+08         0.00000E+00
    0.00000E+00         0.00000E+00        -0.33735E+08
 
   -0.34285E+08        -0.16636E+06         0.00000E+00
   -0.16636E+06        -0.60409E+08         0.00000E+00
    0.00000E+00         0.00000E+00        -0.33917E+08
 
   -0.34203E+08        -0.37358E+05         0.00000E+00
   -0.37358E+05        -0.60484E+08         0.00000E+00
    0.00000E+00         0.00000E+00        -0.34092E+08
 
   -0.34132E+08         0.12474E+06         0.00000E+00
    0.12474E+06        -0.60551E+08         0.00000E+00
    0.00000E+00         0.00000E+00        -0.34251E+08
 
   -0.34078E+08         0.31638E+06         0.00000E+00
    0.31638E+06        -0.60607E+08         0.00000E+00
    0.00000E+00         0.00000E+00        -0.34387E+08
 
   -0.34049E+08         0.53336E+06         0.00000E+00
    0.53336E+06        -0.60652E+08         0.00000E+00
    0.00000E+00         0.00000E+00        -0.34492E+08
 
   -0.34050E+08         0.77111E+06         0.00000E+00
    0.77111E+06        -0.60682E+08         0.00000E+00
    0.00000E+00         0.00000E+00        -0.34558E+08
 
   -0.34088E+08         0.10242E+07         0.00000E+00
    0.10242E+07        -0.60696E+08         0.00000E+00
    0.00000E+00         0.00000E+00        -0.34577E+08
 
   -0.34168E+08         0.12859E+07         0.00000E+00
    0.12859E+07        -0.60690E+08         0.00000E+00
    0.00000E+00         0.00000E+00        -0.34539E+08
 
   -0.34295E+08         0.15466E+07         0.00000E+00
    0.15466E+07        -0.60663E+08         0.00000E+00
    0.00000E+00         0.00000E+00        -0.34439E+08
 
   -0.34837E+08        -0.99142E+05         0.00000E+00
   -0.99142E+05        -0.60010E+08         0.00000E+00
    0.00000E+00         0.00000E+00        -0.32381E+08
 
   -0.34760E+08        -0.25052E+06         0.00000E+00
   -0.25052E+06        -0.60040E+08         0.00000E+00
    0.00000E+00         0.00000E+00        -0.32484E+08
 
   -0.34663E+08        -0.34888E+06         0.00000E+00
   -0.34888E+06        -0.60093E+08         0.00000E+00
    0.00000E+00         0.00000E+00        -0.32634E+08
 
   -0.34550E+08        -0.39508E+06         0.00000E+00
   -0.39508E+06        -0.60161E+08         0.00000E+00
    0.00000E+00         0.00000E+00        -0.32815E+08
 
   -0.34426E+08        -0.39103E+06         0.00000E+00
   -0.39103E+06        -0.60237E+08         0.00000E+00
    0.00000E+00         0.00000E+00        -0.33016E+08
 
   -0.34298E+08        -0.33942E+06         0.00000E+00
   -0.33942E+06        -0.60314E+08         0.00000E+00
    0.00000E+00         0.00000E+00        -0.33226E+08
 
   -0.34171E+08        -0.24389E+06         0.00000E+00
   -0.24389E+06        -0.60391E+08         0.00000E+00
    0.00000E+00         0.00000E+00        -0.33435E+08
 
   -0.34053E+08        -0.10866E+06         0.00000E+00
   -0.10866E+06        -0.60462E+08         0.00000E+00
    0.00000E+00         0.00000E+00        -0.33636E+08
 
   -0.33949E+08         0.62019E+05         0.00000E+00
    0.62019E+05        -0.60527E+08         0.00000E+00
    0.00000E+00         0.00000E+00        -0.33821E+08
 
   -0.33867E+08         0.26360E+06         0.00000E+00
    0.26360E+06        -0.60584E+08         0.00000E+00
    0.00000E+00         0.00000E+00        -0.33984E+08
 
   -0.33814E+08         0.49231E+06         0.00000E+00
    0.49231E+06        -0.60633E+08         0.00000E+00
    0.00000E+00         0.00000E+00        -0.34117E+08
 
   -0.33796E+08         0.74417E+06         0.00000E+00
    0.74417E+06        -0.60670E+08         0.00000E+00
    0.00000E+00         0.00000E+00        -0.34213E+08
 
   -0.33821E+08         0.10142E+07         0.00000E+00
    0.10142E+07        -0.60694E+08         0.00000E+00
    0.00000E+00         0.00000E+00        -0.34261E+08
 
   -0.33896E+08         0.12960E+07         0.00000E+00
    0.12960E+07        -0.60701E+08         0.00000E+00
    0.00000E+00         0.00000E+00        -0.34250E+08
 
   -0.34027E+08         0.15808E+07         0.00000E+00
    0.15808E+07        -0.60686E+08         0.00000E+00
    0.00000E+00         0.00000E+00        -0.34168E+08
 
   -0.35031E+08        -0.11594E+06         0.00000E+00
   -0.11594E+06        -0.60009E+08         0.00000E+00
    0.00000E+00         0.00000E+00        -0.31690E+08
 
   -0.34896E+08        -0.29351E+06         0.00000E+00
   -0.29351E+06        -0.60038E+08         0.00000E+00
    0.00000E+00         0.00000E+00        -0.31832E+08
 
   -0.34742E+08        -0.40925E+06         0.00000E+00
   -0.40925E+06        -0.60088E+08         0.00000E+00
    0.00000E+00         0.00000E+00        -0.32017E+08
 
   -0.34574E+08        -0.46556E+06         0.00000E+00
   -0.46556E+06        -0.60150E+08         0.00000E+00
    0.00000E+00         0.00000E+00        -0.32230E+08
 
   -0.34399E+08        -0.46581E+06         0.00000E+00
   -0.46581E+06        -0.60219E+08         0.00000E+00
    0.00000E+00         0.00000E+00        -0.32460E+08
 
   -0.34223E+08        -0.41415E+06         0.00000E+00
   -0.41415E+06        -0.60288E+08         0.00000E+00
    0.00000E+00         0.00000E+00        -0.32694E+08
 
   -0.34053E+08        -0.31548E+06         0.00000E+00
   -0.31548E+06        -0.60356E+08         0.00000E+00
    0.00000E+00         0.00000E+00        -0.32926E+08
 
   -0.33896E+08        -0.17529E+06         0.00000E+00
   -0.17529E+06        -0.60420E+08         0.00000E+00
    0.00000E+00         0.00000E+00        -0.33147E+08
 
   -0.33759E+08         0.12990E+04         0.00000E+00
    0.12990E+04        -0.60479E+08         0.00000E+00
    0.00000E+00         0.00000E+00        -0.33353E+08
 
   -0.33647E+08         0.20974E+06         0.00000E+00
    0.20974E+06        -0.60534E+08         0.00000E+00
    0.00000E+00         0.00000E+00        -0.33538E+08
 
   -0.33568E+08         0.44639E+06         0.00000E+00
    0.44639E+06        -0.60584E+08         0.00000E+00
    0.00000E+00         0.00000E+00        -0.33698E+08
 
   -0.33528E+08         0.70830E+06         0.00000E+00
    0.70830E+06        -0.60628E+08         0.00000E+00
    0.00000E+00         0.00000E+00        -0.33823E+08
 
   -0.33536E+08         0.99217E+06         0.00000E+00
    0.99217E+06        -0.60663E+08         0.00000E+00
    0.00000E+00         0.00000E+00        -0.33904E+08
 
   -0.33602E+08         0.12925E+07         0.00000E+00
    0.12925E+07        -0.60684E+08         0.00000E+00
    0.00000E+00         0.00000E+00        -0.33924E+08
 
   -0.33734E+08         0.16003E+07         0.00000E+00
    0.16003E+07        -0.60686E+08         0.00000E+00
    0.00000E+00         0.00000E+00        -0.33869E+08
 
   -0.35256E+08        -0.13184E+06         0.00000E+00
   -0.13184E+06        -0.60009E+08         0.00000E+00
    0.00000E+00         0.00000E+00        -0.30991E+08
 
   -0.35053E+08        -0.33362E+06         0.00000E+00
   -0.33362E+06        -0.60036E+08         0.00000E+00
    0.00000E+00         0.00000E+00        -0.31172E+08
 
   -0.34834E+08        -0.46426E+06         0.00000E+00
   -0.46426E+06        -0.60081E+08         0.00000E+00
    0.00000E+00         0.00000E+00        -0.31392E+08
 
   -0.34605E+08        -0.52813E+06         0.00000E+00
   -0.52813E+06        -0.60135E+08         0.00000E+00
    0.00000E+00         0.00000E+00        -0.31635E+08
 
   -0.34374E+08        -0.53057E+06         0.00000E+00
   -0.53057E+06        -0.60193E+08         0.00000E+00
    0.00000E+00         0.00000E+00        -0.31888E+08
 
   -0.34147E+08        -0.47774E+06         0.00000E+00
   -0.47774E+06        -0.60249E+08         0.00000E+00
    0.00000E+00         0.00000E+00        -0.32142E+08
 
   -0.33932E+08        -0.37636E+06         0.00000E+00
   -0.37636E+06        -0.60303E+08         0.00000E+00
    0.00000E+00         0.00000E+00        -0.32388E+08
 
   -0.33736E+08        -0.23311E+06         0.00000E+00
   -0.23311E+06        -0.60354E+08         0.00000E+00
    0.00000E+00         0.00000E+00        -0.32623E+08
 
   -0.33564E+08        -0.53774E+05         0.00000E+00
   -0.53774E+05        -0.60405E+08         0.00000E+00
    0.00000E+00         0.00000E+00        -0.32844E+08
 
   -0.33422E+08         0.15723E+06         0.00000E+00
    0.15723E+06        -0.60455E+08         0.00000E+00
    0.00000E+00         0.00000E+00        -0.33047E+08
 
   -0.33315E+08         0.39695E+06         0.00000E+00
    0.39695E+06        -0.60505E+08         0.00000E+00
    0.00000E+00         0.00000E+00        -0.33230E+08
 
   -0.33250E+08         0.66378E+06         0.00000E+00
    0.66378E+06        -0.60554E+08         0.00000E+00
    0.00000E+00         0.00000E+00        -0.33385E+08
 
   -0.33236E+08         0.95660E+06         0.00000E+00
    0.95660E+06        -0.60600E+08         0.00000E+00
    0.00000E+00         0.00000E+00        -0.33501E+08
 
   -0.33287E+08         0.12722E+07         0.00000E+00
    0.12722E+07        -0.60637E+08         0.00000E+00
    0.00000E+00         0.00000E+00        -0.33560E+08
 
   -0.33416E+08         0.16024E+07         0.00000E+00
    0.16024E+07        -0.60658E+08         0.00000E+00
    0.00000E+00         0.00000E+00        -0.33537E+08
 
   -0.35508E+08        -0.14683E+06         0.00000E+00
   -0.14683E+06        -0.60009E+08         0.00000E+00
    0.00000E+00         0.00000E+00        -0.30290E+08
 
   -0.35227E+08        -0.37003E+06         0.00000E+00
   -0.37003E+06        -0.60034E+08         0.00000E+00
    0.00000E+00         0.00000E+00        -0.30509E+08
 
   -0.34935E+08        -0.51192E+06         0.00000E+00
   -0.51192E+06        -0.60072E+08         0.00000E+00
    0.00000E+00         0.00000E+00        -0.30763E+08
 
   -0.34639E+08        -0.57945E+06         0.00000E+00
   -0.57945E+06        -0.60116E+08         0.00000E+00
    0.00000E+00         0.00000E+00        -0.31033E+08
 
   -0.34347E+08        -0.58069E+06         0.00000E+00
   -0.58069E+06        -0.60158E+08         0.00000E+00
    0.00000E+00         0.00000E+00        -0.31304E+08
 
   -0.34068E+08        -0.52491E+06         0.00000E+00
   -0.52491E+06        -0.60195E+08         0.00000E+00
    0.00000E+00         0.00000E+00        -0.31569E+08
 
   -0.33808E+08        -0.42129E+06         0.00000E+00
   -0.42129E+06        -0.60230E+08         0.00000E+00
    0.00000E+00         0.00000E+00        -0.31822E+08
 
   -0.33573E+08        -0.27768E+06         0.00000E+00
   -0.27768E+06        -0.60265E+08         0.00000E+00
    0.00000E+00         0.00000E+00        -0.32062E+08
 
   -0.33369E+08        -0.99917E+05         0.00000E+00
   -0.99917E+05        -0.60302E+08         0.00000E+00
    0.00000E+00         0.00000E+00        -0.32290E+08
 
   -0.33197E+08         0.10843E+06         0.00000E+00
    0.10843E+06        -0.60344E+08         0.00000E+00
    0.00000E+00         0.00000E+00        -0.32506E+08
 
   -0.33061E+08         0.34553E+06         0.00000E+00
    0.34553E+06        -0.60393E+08         0.00000E+00
    0.00000E+00         0.00000E+00        -0.32709E+08
 
   -0.32968E+08         0.61128E+06         0.00000E+00
    0.61128E+06        -0.60446E+08         0.00000E+00
    0.00000E+00         0.00000E+00        -0.32893E+08
 
   -0.32927E+08         0.90669E+06         0.00000E+00
    0.90669E+06        -0.60503E+08         0.00000E+00
    0.00000E+00         0.00000E+00        -0.33048E+08
 
   -0.32955E+08         0.12322E+07         0.00000E+00
    0.12322E+07        -0.60558E+08         0.00000E+00
    0.00000E+00         0.00000E+00        -0.33152E+08
 
   -0.33074E+08         0.15824E+07         0.00000E+00
    0.15824E+07        -0.60601E+08         0.00000E+00
    0.00000E+00         0.00000E+00        -0.33172E+08
 
   -0.35787E+08        -0.16087E+06         0.00000E+00
   -0.16087E+06        -0.60009E+08         0.00000E+00
    0.00000E+00         0.00000E+00        -0.29592E+08
 
   -0.35415E+08        -0.40197E+06         0.00000E+00
   -0.40197E+06        -0.60030E+08         0.00000E+00
    0.00000E+00         0.00000E+00        -0.29850E+08
 
   -0.35040E+08        -0.54998E+06         0.00000E+00
   -0.54998E+06        -0.60061E+08         0.00000E+00
    0.00000E+00         0.00000E+00        -0.30135E+08
 
   -0.34671E+08        -0.61534E+06         0.00000E+00
   -0.61534E+06        -0.60090E+08         0.00000E+00
    0.00000E+00         0.00000E+00        -0.30427E+08
 
   -0.34317E+08        -0.61077E+06         0.00000E+00
   -0.61077E+06        -0.60111E+08         0.00000E+00
    0.00000E+00         0.00000E+00        -0.30709E+08
 
   -0.33986E+08        -0.54993E+06         0.00000E+00
   -0.54993E+06        -0.60125E+08         0.00000E+00
    0.00000E+00         0.00000E+00        -0.30974E+08
 
   -0.33684E+08        -0.44496E+06         0.00000E+00
   -0.44496E+06        -0.60135E+08         0.00000E+00
    0.00000E+00         0.00000E+00        -0.31223E+08
 
   -0.33414E+08        -0.30468E+06         0.00000E+00
   -0.30468E+06        -0.60148E+08         0.00000E+00
    0.00000E+00         0.00000E+00        -0.31458E+08
 
   -0.33179E+08        -0.13406E+06         0.00000E+00
   -0.13406E+06        -0.60169E+08         0.00000E+00
    0.00000E+00         0.00000E+00        -0.31686E+08
 
   -0.32977E+08         0.65096E+05         0.00000E+00
    0.65096E+05        -0.60201E+08         0.00000E+00
    0.00000E+00         0.00000E+00        -0.31910E+08
 
   -0.32813E+08         0.29300E+06         0.00000E+00
    0.29300E+06        -0.60247E+08         0.00000E+00
    0.00000E+00         0.00000E+00        -0.32130E+08
 
   -0.32689E+08         0.55090E+06         0.00000E+00
    0.55090E+06        -0.60305E+08         0.00000E+00
    0.00000E+00         0.00000E+00        -0.32343E+08
 
   -0.32615E+08         0.84170E+06         0.00000E+00
    0.84170E+06        -0.60372E+08         0.00000E+00
    0.00000E+00         0.00000E+00        -0.32539E+08
 
   -0.32610E+08         0.11698E+07         0.00000E+00
    0.11698E+07        -0.60446E+08         0.00000E+00
    0.00000E+00         0.00000E+00        -0.32696E+08
 
   -0.32709E+08         0.15376E+07         0.00000E+00
    0.15376E+07        -0.60517E+08         0.00000E+00
    0.00000E+00         0.00000E+00        -0.32773E+08
 
   -0.36089E+08        -0.17414E+06         0.00000E+00
   -0.17414E+06        -0.60009E+08         0.00000E+00
    0.00000E+00         0.00000E+00        -0.28901E+08
 
   -0.35612E+08        -0.42851E+06         0.00000E+00
   -0.42851E+06        -0.60027E+08         0.00000E+00
    0.00000E+00         0.00000E+00        -0.29198E+08
 
   -0.35144E+08        -0.57500E+06         0.00000E+00
   -0.57500E+06        -0.60047E+08         0.00000E+00
    0.00000E+00         0.00000E+00        -0.29513E+08
 
   -0.34695E+08        -0.63013E+06         0.00000E+00
   -0.63013E+06        -0.60055E+08         0.00000E+00
    0.00000E+00         0.00000E+00        -0.29819E+08
 
   -0.34279E+08        -0.61446E+06         0.00000E+00
   -0.61446E+06        -0.60049E+08         0.00000E+00
    0.00000E+00         0.00000E+00        -0.30100E+08
 
   -0.33900E+08        -0.54711E+06         0.00000E+00
   -0.54711E+06        -0.60032E+08         0.00000E+00
    0.00000E+00         0.00000E+00        -0.30354E+08
 
   -0.33562E+08        -0.44280E+06         0.00000E+00
   -0.44280E+06        -0.60013E+08         0.00000E+00
    0.00000E+00         0.00000E+00        -0.30588E+08
 
   -0.33263E+08        -0.31042E+06         0.00000E+00
   -0.31042E+06        -0.60001E+08         0.00000E+00
    0.00000E+00         0.00000E+00        -0.30809E+08
 
   -0.33000E+08        -0.15344E+06         0.00000E+00
   -0.15344E+06        -0.60003E+08         0.00000E+00
    0.00000E+00         0.00000E+00        -0.31029E+08
 
   -0.32771E+08         0.28784E+05         0.00000E+00
    0.28784E+05        -0.60023E+08         0.00000E+00
    0.00000E+00         0.00000E+00        -0.31254E+08
 
   -0.32577E+08         0.23934E+06         0.00000E+00
    0.23934E+06        -0.60066E+08         0.00000E+00
    0.00000E+00         0.00000E+00        -0.31490E+08
 
   -0.32419E+08         0.48224E+06         0.00000E+00
    0.48224E+06        -0.60129E+08         0.00000E+00
    0.00000E+00         0.00000E+00        -0.31732E+08
 
   -0.32307E+08         0.76176E+06         0.00000E+00
    0.76176E+06        -0.60210E+08         0.00000E+00
    0.00000E+00         0.00000E+00        -0.31973E+08
 
   -0.32259E+08         0.10839E+07         0.00000E+00
    0.10839E+07        -0.60302E+08         0.00000E+00
    0.00000E+00         0.00000E+00        -0.32191E+08
 
   -0.32323E+08         0.14542E+07         0.00000E+00
    0.14542E+07        -0.60403E+08         0.00000E+00
    0.00000E+00         0.00000E+00        -0.32336E+08
 
   -0.36412E+08        -0.18694E+06         0.00000E+00
   -0.18694E+06        -0.60008E+08         0.00000E+00
    0.00000E+00         0.00000E+00        -0.28222E+08
 
   -0.35811E+08        -0.44809E+06         0.00000E+00
   -0.44809E+06        -0.60024E+08         0.00000E+00
    0.00000E+00         0.00000E+00        -0.28560E+08
 
   -0.35235E+08        -0.58040E+06         0.00000E+00
   -0.58040E+06        -0.60026E+08         0.00000E+00
    0.00000E+00         0.00000E+00        -0.28898E+08
 
   -0.34705E+08        -0.61581E+06         0.00000E+00
   -0.61581E+06        -0.60004E+08         0.00000E+00
    0.00000E+00         0.00000E+00        -0.29205E+08
 
   -0.34230E+08        -0.58481E+06         0.00000E+00
   -0.58481E+06        -0.59962E+08         0.00000E+00
    0.00000E+00         0.00000E+00        -0.29471E+08
 
   -0.33813E+08        -0.51176E+06         0.00000E+00
   -0.51176E+06        -0.59910E+08         0.00000E+00
    0.00000E+00         0.00000E+00        -0.29702E+08
 
   -0.33448E+08        -0.41198E+06         0.00000E+00
   -0.41198E+06        -0.59860E+08         0.00000E+00
    0.00000E+00         0.00000E+00        -0.29910E+08
 
   -0.33127E+08        -0.29279E+06         0.00000E+00
   -0.29279E+06        -0.59822E+08         0.00000E+00
    0.00000E+00         0.00000E+00        -0.30110E+08
 
   -0.32842E+08        -0.15579E+06         0.00000E+00
   -0.15579E+06        -0.59803E+08         0.00000E+00
    0.00000E+00         0.00000E+00        -0.30314E+08
 
   -0.32587E+08         0.14612E+04         0.00000E+00
    0.14612E+04        -0.59810E+08         0.00000E+00
    0.00000E+00         0.00000E+00        -0.30535E+08
 
   -0.32362E+08         0.18497E+06         0.00000E+00
    0.18497E+06        -0.59846E+08         0.00000E+00
    0.00000E+00         0.00000E+00        -0.30780E+08
 
   -0.32168E+08         0.40286E+06         0.00000E+00
    0.40286E+06        -0.59915E+08         0.00000E+00
    0.00000E+00         0.00000E+00        -0.31052E+08
 
   -0.32013E+08         0.66255E+06         0.00000E+00
    0.66255E+06        -0.60013E+08         0.00000E+00
    0.00000E+00         0.00000E+00        -0.31344E+08
 
   -0.31913E+08         0.97146E+06         0.00000E+00
    0.97146E+06        -0.60131E+08         0.00000E+00
    0.00000E+00         0.00000E+00        -0.31633E+08
 
   -0.31921E+08         0.13427E+07         0.00000E+00
    0.13427E+07        -0.60258E+08         0.00000E+00
    0.00000E+00         0.00000E+00        -0.31862E+08
 
   -0.36752E+08        -0.20189E+06         0.00000E+00
   -0.20189E+06        -0.60017E+08         0.00000E+00
    0.00000E+00         0.00000E+00        -0.27565E+08
 
   -0.35994E+08        -0.45271E+06         0.00000E+00
   -0.45271E+06        -0.60015E+08         0.00000E+00
    0.00000E+00         0.00000E+00        -0.27937E+08
 
   -0.35301E+08        -0.55500E+06         0.00000E+00
   -0.55500E+06        -0.59988E+08         0.00000E+00
    0.00000E+00         0.00000E+00        -0.28286E+08
 
   -0.34693E+08        -0.56181E+06         0.00000E+00
   -0.56181E+06        -0.59923E+08         0.00000E+00
    0.00000E+00         0.00000E+00        -0.28576E+08
 
   -0.34172E+08        -0.51552E+06         0.00000E+00
   -0.51552E+06        -0.59836E+08         0.00000E+00
    0.00000E+00         0.00000E+00        -0.28810E+08
 
   -0.33727E+08        -0.44184E+06         0.00000E+00
   -0.44184E+06        -0.59747E+08         0.00000E+00
    0.00000E+00         0.00000E+00        -0.29006E+08
 
   -0.33345E+08        -0.35257E+06         0.00000E+00
   -0.35257E+06        -0.59667E+08         0.00000E+00
    0.00000E+00         0.00000E+00        -0.29182E+08
 
   -0.33009E+08        -0.25200E+06         0.00000E+00
   -0.25200E+06        -0.59605E+08         0.00000E+00
    0.00000E+00         0.00000E+00        -0.29356E+08
 
   -0.32709E+08        -0.14029E+06         0.00000E+00
   -0.14029E+06        -0.59567E+08         0.00000E+00
    0.00000E+00         0.00000E+00        -0.29540E+08
 
   -0.32434E+08        -0.14353E+05         0.00000E+00
   -0.14353E+05        -0.59559E+08         0.00000E+00
    0.00000E+00         0.00000E+00        -0.29750E+08
 
   -0.32179E+08         0.13262E+06         0.00000E+00
    0.13262E+06        -0.59587E+08         0.00000E+00
    0.00000E+00         0.00000E+00        -0.29997E+08
 
   -0.31945E+08         0.31215E+06         0.00000E+00
    0.31215E+06        -0.59657E+08         0.00000E+00
    0.00000E+00         0.00000E+00        -0.30291E+08
 
   -0.31740E+08         0.53957E+06         0.00000E+00
    0.53957E+06        -0.59772E+08         0.00000E+00
    0.00000E+00         0.00000E+00        -0.30635E+08
 
   -0.31575E+08         0.82827E+06         0.00000E+00
    0.82827E+06        -0.59921E+08         0.00000E+00
    0.00000E+00         0.00000E+00        -0.31010E+08
 
   -0.31503E+08         0.11938E+07         0.00000E+00
    0.11938E+07        -0.60087E+08         0.00000E+00
    0.00000E+00         0.00000E+00        -0.31354E+08
 
   -0.37103E+08        -0.21335E+06         0.00000E+00
   -0.21335E+06        -0.60010E+08         0.00000E+00
    0.00000E+00         0.00000E+00        -0.26974E+08
 
   -0.36141E+08        -0.43080E+06         0.00000E+00
   -0.43080E+06        -0.59989E+08         0.00000E+00
    0.00000E+00         0.00000E+00        -0.27329E+08
 
   -0.35330E+08        -0.48132E+06         0.00000E+00
   -0.48132E+06        -0.59909E+08         0.00000E+00
    0.00000E+00         0.00000E+00        -0.27661E+08
 
   -0.34660E+08        -0.45715E+06         0.00000E+00
   -0.45715E+06        -0.59786E+08         0.00000E+00
    0.00000E+00         0.00000E+00        -0.27907E+08
 
   -0.34110E+08        -0.40436E+06         0.00000E+00
   -0.40436E+06        -0.59654E+08         0.00000E+00
    0.00000E+00         0.00000E+00        -0.28096E+08
 
   -0.33651E+08        -0.33952E+06         0.00000E+00
   -0.33952E+06        -0.59530E+08         0.00000E+00
    0.00000E+00         0.00000E+00        -0.28252E+08
 
   -0.33260E+08        -0.26811E+06         0.00000E+00
   -0.26811E+06        -0.59425E+08         0.00000E+00
    0.00000E+00         0.00000E+00        -0.28397E+08
 
   -0.32916E+08        -0.19145E+06         0.00000E+00
   -0.19145E+06        -0.59344E+08         0.00000E+00
    0.00000E+00         0.00000E+00        -0.28544E+08
 
   -0.32606E+08        -0.10878E+06         0.00000E+00
   -0.10878E+06        -0.59291E+08         0.00000E+00
    0.00000E+00         0.00000E+00        -0.28708E+08
 
   -0.32317E+08        -0.17584E+05         0.00000E+00
   -0.17584E+05        -0.59271E+08         0.00000E+00
    0.00000E+00         0.00000E+00        -0.28901E+08
 
   -0.32040E+08         0.87314E+05         0.00000E+00
    0.87314E+05        -0.59289E+08         0.00000E+00
    0.00000E+00         0.00000E+00        -0.29140E+08
 
   -0.31768E+08         0.21653E+06         0.00000E+00
    0.21653E+06        -0.59355E+08         0.00000E+00
    0.00000E+00         0.00000E+00        -0.29444E+08
 
   -0.31501E+08         0.39113E+06         0.00000E+00
    0.39113E+06        -0.59477E+08         0.00000E+00
    0.00000E+00         0.00000E+00        -0.29829E+08
 
   -0.31259E+08         0.64237E+06         0.00000E+00
    0.64237E+06        -0.59666E+08         0.00000E+00
    0.00000E+00         0.00000E+00        -0.30304E+08
 
   -0.31078E+08         0.98892E+06         0.00000E+00
    0.98892E+06        -0.59891E+08         0.00000E+00
    0.00000E+00         0.00000E+00        -0.30810E+08
 
   -0.37438E+08        -0.21163E+06         0.00000E+00
   -0.21163E+06        -0.59997E+08         0.00000E+00
    0.00000E+00         0.00000E+00        -0.26423E+08
 
   -0.36223E+08        -0.34706E+06         0.00000E+00
   -0.34706E+06        -0.59914E+08         0.00000E+00
    0.00000E+00         0.00000E+00        -0.26714E+08
 
   -0.35316E+08        -0.33634E+06         0.00000E+00
   -0.33634E+06        -0.59746E+08         0.00000E+00
    0.00000E+00         0.00000E+00        -0.26982E+08
 
   -0.34617E+08        -0.29956E+06         0.00000E+00
   -0.29956E+06        -0.59563E+08         0.00000E+00
    0.00000E+00         0.00000E+00        -0.27166E+08
 
   -0.34057E+08        -0.25692E+06         0.00000E+00
   -0.25692E+06        -0.59394E+08         0.00000E+00
    0.00000E+00         0.00000E+00        -0.27307E+08
 
   -0.33593E+08        -0.21210E+06         0.00000E+00
   -0.21210E+06        -0.59246E+08         0.00000E+00
    0.00000E+00         0.00000E+00        -0.27428E+08
 
   -0.33199E+08        -0.16577E+06         0.00000E+00
   -0.16577E+06        -0.59125E+08         0.00000E+00
    0.00000E+00         0.00000E+00        -0.27545E+08
 
   -0.32852E+08        -0.11751E+06         0.00000E+00
   -0.11751E+06        -0.59033E+08         0.00000E+00
    0.00000E+00         0.00000E+00        -0.27671E+08
 
   -0.32536E+08        -0.66539E+05         0.00000E+00
   -0.66539E+05        -0.58972E+08         0.00000E+00
    0.00000E+00         0.00000E+00        -0.27817E+08
 
   -0.32240E+08        -0.11269E+05         0.00000E+00
   -0.11269E+05        -0.58946E+08         0.00000E+00
    0.00000E+00         0.00000E+00        -0.27996E+08
 
   -0.31949E+08         0.51037E+05         0.00000E+00
    0.51037E+05        -0.58959E+08         0.00000E+00
    0.00000E+00         0.00000E+00        -0.28223E+08
 
   -0.31650E+08         0.12643E+06         0.00000E+00
    0.12643E+06        -0.59018E+08         0.00000E+00
    0.00000E+00         0.00000E+00        -0.28521E+08
 
   -0.31328E+08         0.22961E+06         0.00000E+00
    0.22961E+06        -0.59137E+08         0.00000E+00
    0.00000E+00         0.00000E+00        -0.28924E+08
 
   -0.30978E+08         0.39911E+06         0.00000E+00
    0.39911E+06        -0.59339E+08         0.00000E+00
    0.00000E+00         0.00000E+00        -0.29480E+08
 
   -0.30648E+08         0.71402E+06         0.00000E+00
    0.71402E+06        -0.59662E+08         0.00000E+00
    0.00000E+00         0.00000E+00        -0.30221E+08
 
   -0.37691E+08        -0.14148E+06         0.00000E+00
   -0.14148E+06        -0.59907E+08         0.00000E+00
    0.00000E+00         0.00000E+00        -0.25854E+08
 
   -0.36217E+08        -0.14332E+06         0.00000E+00
   -0.14332E+06        -0.59679E+08         0.00000E+00
    0.00000E+00         0.00000E+00        -0.26000E+08
 
   -0.35289E+08        -0.12180E+06         0.00000E+00
   -0.12180E+06        -0.59437E+08         0.00000E+00
    0.00000E+00         0.00000E+00        -0.26184E+08
 
   -0.34587E+08        -0.10434E+06         0.00000E+00
   -0.10434E+06        -0.59222E+08         0.00000E+00
    0.00000E+00         0.00000E+00        -0.26317E+08
 
   -0.34026E+08        -0.87931E+05         0.00000E+00
   -0.87931E+05        -0.59036E+08         0.00000E+00
    0.00000E+00         0.00000E+00        -0.26425E+08
 
   -0.33562E+08        -0.71904E+05         0.00000E+00
   -0.71904E+05        -0.58880E+08         0.00000E+00
    0.00000E+00         0.00000E+00        -0.26523E+08
 
   -0.33167E+08        -0.55796E+05         0.00000E+00
   -0.55796E+05        -0.58756E+08         0.00000E+00
    0.00000E+00         0.00000E+00        -0.26623E+08
 
   -0.32818E+08        -0.39268E+05         0.00000E+00
   -0.39268E+05        -0.58664E+08         0.00000E+00
    0.00000E+00         0.00000E+00        -0.26736E+08
 
   -0.32501E+08        -0.21965E+05         0.00000E+00
   -0.21965E+05        -0.58605E+08         0.00000E+00
    0.00000E+00         0.00000E+00        -0.26871E+08
 
   -0.32201E+08        -0.33502E+04         0.00000E+00
   -0.33502E+04        -0.58582E+08         0.00000E+00
    0.00000E+00         0.00000E+00        -0.27041E+08
 
   -0.31904E+08         0.17364E+05         0.00000E+00
    0.17364E+05        -0.58599E+08         0.00000E+00
    0.00000E+00         0.00000E+00        -0.27260E+08
 
   -0.31593E+08         0.41802E+05         0.00000E+00
    0.41802E+05        -0.58661E+08         0.00000E+00
    0.00000E+00         0.00000E+00        -0.27550E+08
 
   -0.31243E+08         0.74213E+05         0.00000E+00
    0.74213E+05        -0.58783E+08         0.00000E+00
    0.00000E+00         0.00000E+00        -0.27952E+08
 
   -0.30811E+08         0.12936E+06         0.00000E+00
    0.12936E+06        -0.58992E+08         0.00000E+00
    0.00000E+00         0.00000E+00        -0.28549E+08
 
   -0.30221E+08         0.27844E+06         0.00000E+00
    0.27844E+06        -0.59357E+08         0.00000E+00
    0.00000E+00         0.00000E+00        -0.29536E+08
 
SCALARS stressS double 
LOOKUP_TABLE default
  -44630422.4548682     
  -44621886.7004965     
  -44600608.6311504     
  -44566222.8005552     
  -44519097.5204286     
  -44461346.8868693     
  -44395712.0879190     
  -44324905.0950323     
  -44251027.6817600     
  -44175368.1804274     
  -44098631.4195325     
  -44022048.8312726     
  -43952489.8405315     
  -44012972.7664353     
  -44092662.3606520     
  -44616747.5497710     
  -44608529.7129103     
  -44587546.7571412     
  -44553532.7959353     
  -44507267.0043748     
  -44451031.2957261     
  -44387347.9972964     
  -44318920.1817084     
  -44247781.1276463     
  -44175050.5596956     
  -44101114.2865867     
  -44026201.5650358     
  -43952915.3093799     
  -44000952.4370601     
  -44078761.5185889     
  -44589065.5172375     
  -44581192.9237830     
  -44560996.3206424     
  -44528302.0961180     
  -44484016.4205087     
  -44430768.7923760     
  -44370979.6104402     
  -44307083.1951700     
  -44240841.5728841     
  -44173240.4124145     
  -44104298.0350314     
  -44032639.6637217     
  -43957799.4297428     
  -43975901.7888591     
  -44051617.9023028     
  -44548154.9004682     
  -44540708.1013609     
  -44521334.2801944     
  -44490504.0029400     
  -44449761.1979268     
  -44401247.3255062     
  -44347169.8609559     
  -44289540.7586323     
  -44229686.1517884     
  -44168365.9618723     
  -44105423.4125483     
  -44039730.5247139     
  -43968666.8882531     
  -43943167.4961629     
  -44012000.8615477     
  -44493630.4207740     
  -44487136.6503535     
  -44469479.8414514     
  -44441436.7699718     
  -44405204.6481605     
  -44363018.4514874     
  -44316349.3550302     
  -44266296.5895583     
  -44213752.3015245     
  -44159156.7332525     
  -44102441.4130430     
  -44042909.8521829     
  -43978920.5284244     
  -43919147.7877245     
  -43957365.4376894     
  -44426198.6997792     
  -44420590.0599011     
  -44405097.2063427     
  -44381242.6126199     
  -44351315.5366457     
  -44316879.1457269     
  -44278668.2073265     
  -44237096.0578635     
  -44192503.5088901     
  -44144910.0999137     
  -44094039.3141014     
  -44039262.4488005     
  -43979174.6894857     
  -43915274.7902924     
  -43889143.9476722     
  -44345756.9390552     
  -44341774.8252934     
  -44329300.4568173     
  -44310947.5266453     
  -44288740.0097713     
  -44263005.4700980     
  -44233980.3482635     
  -44201442.4637806     
  -44165179.6991229     
  -44124746.5007590     
  -44079516.7834266     
  -44028730.6027406     
  -43971848.8360076     
  -43909235.8386229     
  -43849415.3466437     
  -44253061.6918249     
  -44250653.4918161     
  -44242572.4363297     
  -44231150.4727354     
  -44217173.8306939     
  -44200953.7465953     
  -44181675.4252947     
  -44158573.2331884     
  -44130879.0677527     
  -44097771.3786393     
  -44058450.5348665     
  -44012250.8000011     
  -43958809.6273986     
  -43898265.3361423     
  -43835401.2348107     
  -44148297.3760717     
  -44148672.0018280     
  -44145511.4454149     
  -44141324.9112726     
  -44136650.1444397     
  -44130238.5432183     
  -44120943.5530987     
  -44107429.6314726     
  -44088527.3505897     
  -44063178.8105108     
  -44030488.4921952     
  -43989867.4301325     
  -43941188.2635719     
  -43885485.7473629     
  -43824161.9169751     
  -44032024.2635932     
  -44034469.6559114     
  -44037278.5529452     
  -44041630.8326071     
  -44046388.7642096     
  -44050117.9076401     
  -44050958.1230973     
  -44047277.2308775     
  -44037524.0527547     
  -44020428.3367393     
  -43995069.6489153     
  -43961001.1178880     
  -43918338.3795324     
  -43867510.8506693     
  -43808820.9261424     
  -43903588.2948723     
  -43909054.5105234     
  -43918245.8109064     
  -43931109.3920405     
  -43945720.7017268     
  -43959742.7442528     
  -43970949.1609877     
  -43977244.7572042     
  -43976893.1583066     
  -43968516.0383517     
  -43951186.5371683     
  -43924348.7029618     
  -43887964.3876409     
  -43841976.4570068     
  -43786565.7471532     
  -43763238.8338914     
  -43772128.7179895     
  -43788291.9187134     
  -43809954.1879720     
  -43834314.1726857     
  -43858549.8916202     
  -43880035.9250640     
  -43896350.7269822     
  -43905561.5507072     
  -43906207.7835590     
  -43897224.9506220     
  -43877933.8179151     
  -43847962.0027491     
  -43807084.2963211     
  -43755526.4998408     
  -43612801.7446494     
  -43624776.8343949     
  -43647727.1835662     
  -43678004.3184456     
  -43711910.5323442     
  -43746114.3774627     
  -43777456.7830455     
  -43803510.3453327     
  -43822184.2741650     
  -43831827.0128903     
  -43831239.5970236     
  -43819637.5207146     
  -43796327.4555728     
  -43761066.1763132     
  -43714016.2662447     
  -43451836.6294940     
  -43467889.3125357     
  -43497391.0875300     
  -43535716.3786652     
  -43578484.1074127     
  -43621735.1252061     
  -43662323.3769217     
  -43697485.5819862     
  -43725072.1177132     
  -43743433.2524380     
  -43751196.8012584     
  -43747293.9700023     
  -43730973.5902960     
  -43701934.9093743     
  -43660251.1432160     
  -43283568.1053156     
  -43303138.8322265     
  -43338451.8510624     
  -43383701.8494488     
  -43433917.9904824     
  -43485012.0467010     
  -43533581.2991408     
  -43576878.4835725     
  -43612666.6831363     
  -43639119.8721811     
  -43654855.2022708     
  -43658672.6529570     
  -43649747.6605302     
  -43627610.6408527     
  -43592077.5885703     
  -43109923.3862690     
  -43132519.5889867     
  -43172118.6289559     
  -43222454.4239194     
  -43278397.1440262     
  -43335590.5858203     
  -43390531.0047972     
  -43440436.1195073     
  -43483125.8286119     
  -43516830.4918074     
  -43540039.5938243     
  -43551545.9042475     
  -43550380.3287736     
  -43535828.2685302     
  -43507148.3383817     
  -42933296.2732816     
  -42957804.5752740     
  -42999905.5354122     
  -43053219.9109615     
  -43112472.5492007     
  -43173429.5213177     
  -43232593.9131265     
  -43287272.2606705     
  -43335281.4071279     
  -43374885.0474658     
  -43404745.8517492     
  -43423706.1276429     
  -43430553.2234831     
  -43424106.4768404     
  -43403509.0569412     
  -42756081.5256068     
  -42780981.3657590     
  -42823391.0523627     
  -42877082.1734226     
  -42936904.5645734     
  -42998720.9273284     
  -43059314.6552497     
  -43116085.9730937     
  -43167154.5451525     
  -43211208.1068890     
  -43246895.7924639     
  -43272920.9967095     
  -43287988.4474929     
  -43290373.4346446     
  -43279158.9463212     
  -42580643.8434336     
  -42603871.4527152     
  -42644091.1512876     
  -42695191.4648888     
  -42752351.3658327     
  -42811724.1833953     
  -42870372.5273122     
  -42926206.1567427     
  -42977796.2079593     
  -43024034.5453990     
  -43064115.0513378     
  -43096766.2118022     
  -43120308.7043153     
  -43132779.2100539     
  -43132012.9662904     
  -42409200.7494394     
  -42428231.6624354     
  -42463354.9609369     
  -42508647.7221248     
  -42559553.8732069     
  -42612699.3757403     
  -42665657.7834651     
  -42716960.4332515     
  -42765840.5612140     
  -42811873.4202882     
  -42854561.4600312     
  -42893000.2916617     
  -42925326.1020574     
  -42948903.8639119     
  -42960446.7289698     
  -42243598.4518706     
  -42255494.3185967     
  -42282403.1629376     
  -42318395.8468909     
  -42359165.2958956     
  -42401859.7242220     
  -42444889.4250838     
  -42487706.0446354     
  -42530430.0941375     
  -42573424.9929484     
  -42616750.0424989     
  -42659894.4672062     
  -42701006.4115455     
  -42736726.4993291     
  -42762716.5644769     
  -42085396.2966126     
  -42086897.0044361     
  -42102188.8885769     
  -42125127.0315568     
  -42151523.4174764     
  -42179160.6755795     
  -42207637.7937271     
  -42237809.5660111     
  -42270925.9524378     
  -42308101.7407609     
  -42349980.5898732     
  -42396350.0978101     
  -42445759.7755783     
  -42494673.7763785     
  -42537258.2229732     
  -41935893.4700222     
  -41923359.1286962     
  -41923295.2979274     
  -41929000.6671571     
  -41936340.2192693     
  -41944021.2145542     
  -41953253.8169829     
  -41966599.3356947     
  -41986762.6094529     
  -42015673.8739166     
  -42054228.5487190     
  -42102349.8037080     
  -42159089.7299262     
  -42221552.7051386     
  -42282504.3990304     
  -41795977.0454734     
  -41765263.2116164     
  -41745636.5844381     
  -41729222.5756540     
  -41712170.4329827     
  -41694882.9510150     
  -41680566.9174190     
  -41673507.2076832     
  -41677740.4263390     
  -41696152.8574588     
  -41729978.9244248     
  -41779028.7939505     
  -41842099.2432236     
  -41917313.5788766     
  -41999577.1135848     
  -41666400.5644715     
  -41612586.3495132     
  -41568001.3987068     
  -41523048.0905202     
  -41475719.3400481     
  -41428863.7865358     
  -41387780.3566959     
  -41357934.1391454     
  -41344017.2136374     
  -41349728.6734718     
  -41377371.3826348     
  -41426971.6274780     
  -41496671.7657851     
  -41583980.6327244     
  -41687352.9122065     
  -41547224.8431574     
  -41464713.0080802     
  -41386303.5151844     
  -41304693.8249569     
  -41221047.8392421     
  -41141432.4581483     
  -41072430.6610348     
  -41019242.6790027     
  -40986207.9836247     
  -40977295.8956678     
  -40996128.3493485     
  -41045091.3168702     
  -41122926.5403022     
  -41225747.8432052     
  -41347034.3979871     
  -41444699.8466720     
  -41315527.7678369     
  -41191696.6944485     
  -41063826.5980372     
  -40939292.0211757     
  -40826625.5850512     
  -40731228.9307885     
  -40656502.9420975     
  -40605227.8379719     
  -40580780.5454235     
  -40587671.7185802     
  -40631294.0985347     
  -40715747.2773947     
  -40835325.0451499     
  -40981287.6006632     
  -41362390.5689163     
  -41152870.2184305     
  -40966988.6188111     
  -40784471.2196055     
  -40619811.3643205     
  -40477937.2514837     
  -40360434.2782307     
  -40267982.1753308     
  -40201604.8884978     
  -40163229.6518514     
  -40156684.5273349     
  -40188745.9017327     
  -40269341.0073772     
  -40409408.3216611     
  -40592560.1938234     
  -41285842.1140248     
  -40950361.7099943     
  -40681226.6635007     
  -40448666.4231627     
  -40252311.6415771     
  -40089051.0524987     
  -39956132.3205050     
  -39851764.1701515     
  -39775294.1377260     
  -39727354.2543765     
  -39710296.9622717     
  -39729464.0909552     
  -39796400.6472420     
  -39932377.4427214     
  -40177321.9917784     
  -41150462.6275458     
  -40632253.3112602     
  -40303639.3047884     
  -40041816.9212366     
  -39828859.1518636     
  -39655152.3327691     
  -39515194.2031170     
  -39405863.2755309     
  -39325711.1165832     
  -39274692.6923888     
  -39254269.0499159     
  -39268324.1083208     
  -39325930.3346376     
  -39450672.8945789     
  -39704463.2889873     
SCALARS 2waySource double 
LOOKUP_TABLE default
 -5.726468425687184E-005
 -5.861945170517408E-005
 -5.979160454790127E-005
 -6.072666183115145E-005
 -6.136581093174677E-005
 -6.165377550880263E-005
 -6.153390421032961E-005
 -6.096760723071030E-005
 -5.998313143166406E-005
 -5.872886929273852E-005
 -5.745581782938985E-005
 -5.887879675869982E-005
 -7.504191415385963E-005
 -8.000469501019347E-005
 -8.226734337357688E-005
 -5.708144426917836E-005
 -5.840586577747367E-005
 -5.954719029090217E-005
 -6.046357680704102E-005
 -6.111410551221290E-005
 -6.146670916460707E-005
 -6.148318931468682E-005
 -6.112072534355056E-005
 -6.035092836911414E-005
 -5.919278311263812E-005
 -5.779391623248369E-005
 -5.809762805363584E-005
 -7.388136056578394E-005
 -7.994673517917022E-005
 -8.224738953807142E-005
 -5.676190647012983E-005
 -5.802120320031354E-005
 -5.909845727226553E-005
 -5.996940022797655E-005
 -6.061793978989401E-005
 -6.104375213903052E-005
 -6.124344363381318E-005
 -6.120210526568468E-005
 -6.085530665757734E-005
 -6.007542031383364E-005
 -5.877827894131485E-005
 -5.786912875347847E-005
 -7.157510980042231E-005
 -8.003484672710872E-005
 -8.199913018211347E-005
 -5.629062980856902E-005
 -5.746756299262028E-005
 -5.846992472374647E-005
 -5.929091791770846E-005
 -5.994015116365462E-005
 -6.044145587622220E-005
 -6.082082337068462E-005
 -6.109429875825472E-005
 -6.122774226705888E-005
 -6.106721435397457E-005
 -6.026928502586597E-005
 -5.862896310846846E-005
 -6.754156417674851E-005
 -7.946944907832443E-005
 -8.135755181790458E-005
 -5.565440072289105E-005
 -5.675171316944785E-005
 -5.768955383775673E-005
 -5.847970488601218E-005
 -5.914811114419703E-005
 -5.972896312133654E-005
 -6.025943618860177E-005
 -6.077448022011782E-005
 -6.127698957636950E-005
 -6.169355548715417E-005
 -6.178149204205349E-005
 -6.079678832227003E-005
 -6.391843340026561E-005
 -7.711022873368699E-005
 -8.087727304455241E-005
 -5.485140499118221E-005
 -5.588825815237328E-005
 -5.678633600606983E-005
 -5.757211229275552E-005
 -5.828302360865991E-005
 -5.895541346997266E-005
 -5.961735900901018E-005
 -6.029562052653000E-005
 -6.099999534891138E-005
 -6.174698791805127E-005
 -6.251753472685578E-005
 -6.314570148026537E-005
 -6.411174543649005E-005
 -7.362739595278878E-005
 -8.095788263708142E-005
 -5.388932763310478E-005
 -5.488951442653800E-005
 -5.578206070217020E-005
 -5.660270262249751E-005
 -5.738736543450075E-005
 -5.816018571300560E-005
 -5.893486397831787E-005
 -5.972181461091621E-005
 -6.052956711471150E-005
 -6.139198455283888E-005
 -6.237457088216562E-005
 -6.358010634250542E-005
 -6.526716941409251E-005
 -7.068449938722702E-005
 -8.042769740206669E-005
 -5.279386688689192E-005
 -5.379136071496120E-005
 -5.471196476201327E-005
 -5.559493862788770E-005
 -5.646896263250922E-005
 -5.734127026475097E-005
 -5.821411007689384E-005
 -5.908020899891579E-005
 -5.994381879064647E-005
 -6.082083746019256E-005
 -6.175117453551728E-005
 -6.283578009258947E-005
 -6.440469379804835E-005
 -6.781051298284949E-005
 -7.529444996833874E-005
 -5.160202229219824E-005
 -5.261992569302867E-005
 -5.359290799515863E-005
 -5.455790457238845E-005
 -5.552513633251695E-005
 -5.648983759005184E-005
 -5.743917917329579E-005
 -5.836014388335073E-005
 -5.924495124206306E-005
 -6.008953175396385E-005
 -6.090014736967111E-005
 -6.170615089952392E-005
 -6.259189259233983E-005
 -6.398115025446139E-005
 -6.697215092189848E-005
 -5.035009682784065E-005
 -5.140311265004254E-005
 -5.244363269009401E-005
 -5.349380071484253E-005
 -5.454614704190504E-005
 -5.558344835145075E-005
 -5.658393870350999E-005
 -5.752878348467761E-005
 -5.839911511355496E-005
 -5.917735184412232E-005
 -5.984564467221093E-005
 -6.038691704986445E-005
 -6.081916014130815E-005
 -6.128307870577961E-005
 -6.215213538673653E-005
 -4.907429157289602E-005
 -5.016730025315349E-005
 -5.127571807954979E-005
 -5.239897730308433E-005
 -5.351590676901600E-005
 -5.459749947715225E-005
 -5.561726466927557E-005
 -5.655024525867945E-005
 -5.737204016877378E-005
 -5.805795400134070E-005
 -5.858398234592211E-005
 -5.893822731105106E-005
 -5.914694133336685E-005
 -5.931397611062853E-005
 -5.958795166075325E-005
 -4.780386000600866E-005
 -4.893254026244245E-005
 -5.009360419312093E-005
 -5.126701716187444E-005
 -5.241605271495862E-005
 -5.350680401758097E-005
 -5.450971663175244E-005
 -5.539743812340062E-005
 -5.614520536377344E-005
 -5.673225273440290E-005
 -5.714753756027252E-005
 -5.740203870923118E-005
 -5.754156659745586E-005
 -5.763765414880461E-005
 -5.774866085804711E-005
 -4.656076881842907E-005
 -4.771024086808926E-005
 -4.889936971712453E-005
 -5.008620483179840E-005
 -5.122818280941780E-005
 -5.229023711429357E-005
 -5.324146819481214E-005
 -5.405719996030421E-005
 -5.471917943570666E-005
 -5.521880648853557E-005
 -5.556341089942027E-005
 -5.578110019977687E-005
 -5.591445122562790E-005
 -5.600428495135889E-005
 -5.607020732440809E-005
 -4.535805495545028E-005
 -4.650806777831774E-005
 -4.768688897906318E-005
 -4.884477588699809E-005
 -4.993913887211806E-005
 -5.093429183073624E-005
 -5.180365515631014E-005
 -5.252912994438571E-005
 -5.310279338767818E-005
 -5.353018766128840E-005
 -5.383122847757829E-005
 -5.403541775583641E-005
 -5.417513669677357E-005
 -5.427268701876470E-005
 -5.433254816731472E-005
 -4.421017864053672E-005
 -4.532366921241010E-005
 -4.644974536642313E-005
 -4.753609686210578E-005
 -4.854104563370966E-005
 -4.943424106215018E-005
 -5.019590290655216E-005
 -5.081695957644293E-005
 -5.130059175111000E-005
 -5.166151900137733E-005
 -5.192370646990770E-005
 -5.211514919760995E-005
 -5.225880021934756E-005
 -5.236316235931467E-005
 -5.242722830812990E-005
 -4.311915661886408E-005
 -4.415707307258240E-005
 -4.518612653540947E-005
 -4.615652710066084E-005
 -4.703264325994282E-005
 -4.779121254057116E-005
 -4.842067151112271E-005
 -4.892138709547910E-005
 -4.930427215176366E-005
 -4.959114335068136E-005
 -4.980900478290237E-005
 -4.997829496599899E-005
 -5.011328196026866E-005
 -5.021967089960347E-005
 -5.029609772624315E-005
 -4.209654928183795E-005
 -4.301138250145333E-005
 -4.389701529705763E-005
 -4.470873872689120E-005
 -4.541761909643387E-005
 -4.600831169778699E-005
 -4.647749277868858E-005
 -4.683379939230373E-005
 -4.709803410458289E-005
 -4.729619813069352E-005
 -4.745151644467244E-005
 -4.758277655477002E-005
 -4.770228708099424E-005
 -4.781257152237101E-005
 -4.790875995888308E-005
 -4.115204893172021E-005
 -4.189328628508992E-005
 -4.258889863294910E-005
 -4.319942196011576E-005
 -4.370167173780917E-005
 -4.408637156595323E-005
 -4.435940527861663E-005
 -4.453969956521416E-005
 -4.465745546338295E-005
 -4.474263831415106E-005
 -4.482059484067243E-005
 -4.490664368259988E-005
 -4.500785581032037E-005
 -4.512313759295672E-005
 -4.524497682783348E-005
 -4.029962657943083E-005
 -4.081398554762991E-005
 -4.127283754375586E-005
 -4.163845591270247E-005
 -4.188894894987166E-005
 -4.202157310026106E-005
 -4.205167400901458E-005
 -4.201689805846749E-005
 -4.195976624945861E-005
 -4.191395300731802E-005
 -4.190205077840937E-005
 -4.193552849669341E-005
 -4.201635053158001E-005
 -4.213940266883115E-005
 -4.229272871509341E-005
 -3.955740712972680E-005
 -3.978972278138297E-005
 -3.996398202857538E-005
 -4.003582540682036E-005
 -3.997985149790058E-005
 -3.979903854308313E-005
 -3.953477109622614E-005
 -3.924949134941510E-005
 -3.899295343597613E-005
 -3.879916745510436E-005
 -3.868659214694920E-005
 -3.866168744219999E-005
 -3.872134161368891E-005
 -3.885503724230223E-005
 -3.904656518749480E-005
 -3.894855922510773E-005
 -3.884174271629128E-005
 -3.868129081244116E-005
 -3.839702391920329E-005
 -3.795784212981285E-005
 -3.739243872624892E-005
 -3.679186411964033E-005
 -3.622874927053949E-005
 -3.575347912826574E-005
 -3.539673545067462E-005
 -3.517316499187338E-005
 -3.508444905688755E-005
 -3.512203074048808E-005
 -3.526969973750937E-005
 -3.550610878250668E-005
 -3.850230505665943E-005
 -3.800219761325630E-005
 -3.744315229158795E-005
 -3.670812939034864E-005
 -3.577348017746400E-005
 -3.477423664251597E-005
 -3.381538245694604E-005
 -3.295936608737522E-005
 -3.224951096402273E-005
 -3.171474583461555E-005
 -3.136858698154507E-005
 -3.120922327403203E-005
 -3.122287941255718E-005
 -3.138740587537281E-005
 -3.167529629993165E-005
 -3.827226999348559E-005
 -3.731658337562138E-005
 -3.626765009711701E-005
 -3.486228195577841E-005
 -3.336351267885657E-005
 -3.192916555069776E-005
 -3.061355566626039E-005
 -2.945735796680015E-005
 -2.849912760113246E-005
 -2.777015328201845E-005
 -2.728692179779083E-005
 -2.704734582516532E-005
 -2.703304383677595E-005
 -2.721581270097789E-005
 -2.756124554032077E-005
 -3.828428807192015E-005
 -3.701929572079282E-005
 -3.489801387508293E-005
 -3.271197929110922E-005
 -3.070075776925658E-005
 -2.886182854166689E-005
 -2.719957578024967E-005
 -2.574289858910991E-005
 -2.452826293899849E-005
 -2.358971270754347E-005
 -2.295083970978574E-005
 -2.261578877729366E-005
 -2.256579921221634E-005
 -2.276561978179847E-005
 -2.317584150315193E-005
 -4.023545111886576E-005
 -3.627578481664706E-005
 -3.296894907090422E-005
 -3.022785097250189E-005
 -2.779232998904553E-005
 -2.557194876785438E-005
 -2.357623639312182E-005
 -2.183246372970504E-005
 -2.036766048263803E-005
 -1.921091594212530E-005
 -1.839393041076191E-005
 -1.793806568665186E-005
 -1.783642420009665E-005
 -1.805170629849597E-005
 -1.853200045319207E-005
 -4.222384712452273E-005
 -3.399535687822278E-005
 -3.052112386778206E-005
 -2.745858901792647E-005
 -2.461804605016808E-005
 -2.202920670703774E-005
 -1.972991724808585E-005
 -1.773417663745221E-005
 -1.604676746423042E-005
 -1.467977051669789E-005
 -1.366449840967718E-005
 -1.304951792692770E-005
 -1.286475054211363E-005
 -1.308644824345725E-005
 -1.364868531267842E-005
 -4.291286824822497E-005
 -3.106345413046874E-005
 -2.780493547695617E-005
 -2.435388743408840E-005
 -2.109458901356754E-005
 -1.818002682736374E-005
 -1.563658596462616E-005
 -1.344632426378686E-005
 -1.158441252759915E-005
 -1.003919616596053E-005
 -8.827182137726859E-006
 -8.008287313321843E-006
 -7.680606597884947E-006
 -7.882185929851830E-006
 -8.548174689802749E-006
 -4.468635995835245E-005
 -2.905485565132634E-005
 -2.484832599176785E-005
 -2.076800707782991E-005
 -1.712819027479653E-005
 -1.397708618507304E-005
 -1.127348171423795E-005
 -8.958154316153468E-006
 -6.981580885070031E-006
 -5.312522512065533E-006
 -3.945408758094510E-006
 -2.918705724680974E-006
 -2.352943893671069E-006
 -2.467497709240595E-006
 -3.267429266252725E-006
 -4.619985583040436E-005
 -2.738987216225131E-005
 -2.138555177698532E-005
 -1.660610207016764E-005
 -1.268275507382043E-005
 -9.402280479805984E-006
 -6.624494229212327E-006
 -4.253667526403010E-006
 -2.225497715680488E-006
 -4.987344616189365E-007
  9.466627876122891E-007
  2.103607040482375E-006
  2.905265868762288E-006
  3.109438726879442E-006
  2.112394877448757E-006
 -4.550140692550269E-005
 -2.405054985145326E-005
 -1.702274346568531E-005
 -1.183288339543702E-005
 -7.773907568890701E-006
 -4.462265098463164E-006
 -1.680062873948421E-006
  6.891288431652930E-007
  2.712630077775336E-006
  4.430008763477977E-006
  5.863186108442621E-006
  7.017255702839943E-006
  7.865302125438284E-006
  8.279314558587119E-006
  7.641897301961729E-006
SCALARS poroP double 
LOOKUP_TABLE default
  1.441309160579466E-005
  1.300070956208835E-005
  1.156019431547669E-005
  1.011176222716094E-005
  8.681759219113618E-006
  7.293094257655000E-006
  5.966363074258304E-006
  4.717987398491621E-006
  3.562775251779313E-006
  2.513229014093900E-006
  1.580615496907246E-006
  7.762209850891348E-007
  1.168386345397926E-007
  0.000000000000000E+000
  0.000000000000000E+000
  1.434238946004491E-005
  1.293580443915518E-005
  1.150403702182991E-005
  1.006871104438467E-005
  8.653458377978574E-006
  7.281007883049738E-006
  5.972298941858355E-006
  4.742870276738774E-006
  3.605793736885451E-006
  2.570477316216490E-006
  1.645156345855081E-006
  8.360686963468133E-007
  1.544713051660118E-007
  0.000000000000000E+000
  0.000000000000000E+000
  1.419987407933562E-005
  1.280862436196341E-005
  1.139479202604298E-005
  9.982400669479039E-006
  8.596349515009840E-006
  7.257488852884005E-006
  5.984401340788013E-006
  4.791337066370418E-006
  3.688423264750652E-006
  2.681609027065253E-006
  1.773174747704870E-006
  9.645262007817045E-007
  2.657182285745104E-007
  0.000000000000000E+000
  0.000000000000000E+000
  1.397799043295466E-005
  1.261215201978309E-005
  1.122999423473577E-005
  9.854677626869748E-006
  8.512378820948896E-006
  7.224008030516244E-006
  6.003492666740132E-006
  4.862126919898834E-006
  3.806270898018778E-006
  2.839096574503650E-006
  1.960144074789089E-006
  1.165277934026763E-006
  4.485399966370305E-007
  1.204081218877356E-008
  0.000000000000000E+000
  1.367489018792782E-005
  1.234254816913937E-005
  1.100241892221850E-005
  9.682655312902580E-006
  8.404609232605814E-006
  7.183978096798943E-006
  6.031773655977500E-006
  4.955020574111561E-006
  3.956253415806979E-006
  3.036803073510866E-006
  2.195279387099596E-006
  1.425536229462561E-006
  7.114524174643022E-007
  1.099072999661889E-007
  0.000000000000000E+000
  1.328418962828335E-005
  1.199621051052511E-005
  1.071575445535778E-005
  9.469092641375496E-006
  8.274859649083860E-006
  7.140634737356717E-006
  6.071946717806914E-006
  5.070418723716562E-006
  4.136587049388370E-006
  3.270168138924098E-006
  2.469358565851639E-006
  1.729992447962783E-006
  1.045000697109220E-006
  4.124491953300054E-007
  2.777994407754810E-008
  1.280420677174430E-005
  1.157144430601028E-005
  1.036889942867693E-005
  9.218639250845862E-006
  8.127829643929623E-006
  7.097389194440878E-006
  6.124715322834674E-006
  5.208109774841910E-006
  4.346536659903156E-006
  3.538559088175119E-006
  2.782869175645876E-006
  2.078405187611548E-006
  1.424672817972084E-006
  8.215407492922115E-007
  3.257614948444893E-007
  1.223399138170676E-005
  1.107383256324086E-005
  9.971495787945996E-006
  8.939026315940970E-006
  7.970315873604798E-006
  7.055969271512330E-006
  6.189620639334328E-006
  5.367248153928772E-006
  4.585932883053953E-006
  3.843894370491513E-006
  3.140568069960118E-006
  2.476776763395765E-006
  1.855399860762214E-006
  1.284088542192990E-006
  7.828673565950848E-007
  1.158410894669364E-005
  1.051380442786961E-005
  9.537108081892632E-006
  8.639747477213856E-006
  7.803695020798165E-006
  7.015637350518326E-006
  6.265699192281276E-006
  5.546949232537172E-006
  4.854969264064549E-006
  4.187579348365362E-006
  3.544962129587762E-006
  2.929390174720637E-006
  2.345613986411270E-006
  1.799957676987402E-006
  1.297675986282089E-006
  1.087208917860914E-005
  9.921517739680106E-006
  9.080770673691101E-006
  8.324883116739759E-006
  7.629159139928643E-006
  6.975521717726872E-006
  6.350717546011712E-006
  5.744654369473812E-006
  5.151476841929773E-006
  4.568641549155743E-006
  3.995819778904612E-006
  3.435406242668774E-006
  2.891074642242006E-006
  2.366700560955880E-006
  1.865524470556671E-006
  1.012897457877525E-005
  9.306896672883183E-006
  8.609690018158027E-006
  7.999062837887511E-006
  7.447569430570181E-006
  6.934242960390468E-006
  6.441601258471729E-006
  5.957377042605087E-006
  5.473388315926713E-006
  4.984709694907950E-006
  4.489737482755641E-006
  3.989198295376240E-006
  3.485642684013993E-006
  2.982482722792839E-006
  2.484124039700234E-006
  9.374868775680579E-006
  8.684798734605740E-006
  8.128737079739782E-006
  7.663467817418714E-006
  7.258653940138560E-006
  6.889676244989307E-006
  6.536207113860386E-006
  6.182369830506156E-006
  5.816531653390285E-006
  5.430715534625951E-006
  5.020641657554939E-006
  4.584935489902416E-006
  4.125150600441553E-006
  3.645123921714055E-006
  3.150582641218863E-006
  8.617770870717032E-006
  8.061569896387568E-006
  7.642955824937296E-006
  7.320991834333059E-006
  7.063027958539326E-006
  6.840986030748790E-006
  6.631918176565072E-006
  6.415387935295080E-006
  6.175160536184824E-006
  5.899916786904019E-006
  5.581676404421900E-006
  5.216883502746327E-006
  4.805563645971423E-006
  4.351464708118188E-006
  3.861454738564595E-006
  7.872774437561922E-006
  7.441667825993891E-006
  7.156253276610579E-006
  6.974791811846691E-006
  6.862373827327771E-006
  6.788666905604389E-006
  6.726037067204143E-006
  6.650786346555122E-006
  6.542380702999661E-006
  6.384272544405594E-006
  6.165377546276721E-006
  5.878603648357819E-006
  5.521678081231464E-006
  5.097358416073134E-006
  4.612898954778857E-006
  7.136828352767194E-006
  6.829712984051959E-006
  6.674154573964486E-006
  6.629207460736125E-006
  6.659410612244695E-006
  6.731586708798544E-006
  6.815319381065140E-006
  6.882814503686216E-006
  6.909626336570509E-006
  6.875232428792344E-006
  6.763089277734007E-006
  6.562023490716093E-006
  6.266734974762224E-006
  5.877317713696047E-006
  5.400338940672442E-006
  6.411615280382961E-006
  6.229748023101918E-006
  6.202320045193406E-006
  6.289562320251046E-006
  6.456162185104404E-006
  6.668836876439551E-006
  6.895358174417045E-006
  7.104926680355698E-006
  7.269192281334590E-006
  7.362756458835508E-006
  7.364060360821083E-006
  7.257054175116818E-006
  7.031673858581916E-006
  6.684221293355943E-006
  6.218491655024751E-006
  5.700574417325149E-006
  5.645019685879038E-006
  5.743285720615004E-006
  5.957922066494607E-006
  6.254380125470529E-006
  6.600219859944709E-006
  6.962917109046630E-006
  7.310070135224181E-006
  7.610508369268795E-006
  7.834306581052279E-006
  7.955126565584521E-006
  7.950935474961202E-006
  7.805117955528985E-006
  7.508914088998727E-006
  7.062371923256510E-006
  5.007374152118831E-006
  5.077972246379643E-006
  5.299259488964964E-006
  5.635894217123748E-006
  6.055266453552960E-006
  6.525762667389643E-006
  7.015519099630048E-006
  7.492583980161909E-006
  7.923978371361206E-006
  8.276895715119687E-006
  8.520608756201027E-006
  8.627417379300991E-006
  8.573219202441484E-006
  8.341319655149023E-006
  7.926508807031198E-006
  4.336340930381318E-006
  4.532028496217311E-006
  4.873183609828723E-006
  5.326167338759455E-006
  5.860200422567048E-006
  6.445094212783240E-006
  7.050586647882836E-006
  7.645582952412536E-006
  8.197804456280610E-006
  8.674739467443713E-006
  9.042517809216480E-006
  9.267934428068357E-006
  9.319741804949933E-006
  9.170223174965496E-006
  8.803767049906314E-006
  3.692702835150022E-006
  4.011666494273104E-006
  4.468825133881105E-006
  5.031845691656914E-006
  5.671067989063422E-006
  6.358050004975612E-006
  7.064511586592229E-006
  7.761670283935263E-006
  8.420374353798009E-006
  9.010554473322496E-006
  9.499646183833704E-006
  9.850986155755232E-006
  1.002520466099946E-005
  9.981794556328765E-006
  9.688288127347454E-006
  3.082278978576316E-006
  3.522134765280710E-006
  4.090998388861210E-006
  4.756616840508600E-006
  5.490041400999275E-006
  6.264318014102676E-006
  7.053438559072310E-006
  7.832674162489226E-006
  8.578370805062468E-006
  9.266441294358053E-006
  9.869192949246305E-006
  1.035109690669204E-005
  1.066613913760588E-005
  1.075864379704054E-005
  1.057294490769845E-005
  2.510724889191146E-006
  3.068852412833440E-006
  3.744843493086055E-006
  4.504975078588131E-006
  5.319748049460384E-006
  6.163050428879363E-006
  7.012354075216378E-006
  7.849165813778778E-006
  8.657989659430502E-006
  9.423749785007677E-006
  1.012737332085617E-005
  1.073946822363617E-005
  1.121315534534135E-005
  1.147815634615530E-005
  1.144676856048469E-005
  1.982632966794494E-006
  2.657091356114146E-006
  3.436058545290125E-006
  4.281837587584570E-006
  5.162435441766821E-006
  6.052386430781839E-006
  6.934702190792694E-006
  7.800291509101971E-006
  8.644979222680651E-006
  9.464927908843479E-006
  1.025189943641392E-005
  1.098738543381231E-005
  1.163263297850033E-005
  1.211149107189562E-005
  1.229700950169333E-005
  1.501381246442229E-006
  2.291889998739347E-006
  3.170462998113993E-006
  4.091549425581974E-006
  5.018307214582926E-006
  5.927836564524526E-006
  6.812037677896673E-006
  7.674662564591304E-006
  8.525612490332121E-006
  9.374232635027878E-006
  1.022408129632584E-005
  1.106892982784232E-005
  1.188548043317707E-005
  1.261124590339959E-005
  1.309542979306290E-005
  1.068838449680112E-006
  1.978240311552560E-006
  2.953732634352930E-006
  3.935069839973499E-006
  4.882208765709091E-006
  5.779841383063140E-006
  6.633346178382937E-006
  7.461685133804857E-006
  8.289385193171942E-006
  9.139837304533513E-006
  1.002975076758938E-005
  1.096588845725132E-005
  1.194399649322457E-005
  1.293759621591079E-005
  1.381852437061758E-005
  6.853772312612449E-007
  1.723440937572419E-006
  2.788841530607474E-006
  3.805408847259559E-006
  4.739276583787104E-006
  5.591351544893995E-006
  6.384942757126318E-006
  7.153102222447835E-006
  7.931785264539734E-006
  8.756750269285739E-006
  9.660254324349551E-006
  1.066584631093809E-005
  1.178760869383093E-005
  1.303456792832001E-005
  1.437390807213419E-005
  3.644009011243304E-007
  1.532949150502334E-006
  2.668243337237330E-006
  3.680674907833985E-006
  4.560557624572408E-006
  5.337191860699739E-006
  6.051191562983885E-006
  6.743930440299196E-006
  7.456616102941627E-006
  8.232200538067807E-006
  9.116933570322160E-006
  1.015875438708067E-005
  1.139886190237229E-005
  1.288680217556382E-005
  1.473396090139516E-005
  2.025319691424401E-007
  1.409084359007986E-006
  2.564783043981706E-006
  3.514668444884545E-006
  4.302997263547613E-006
  4.987576513840703E-006
  5.616722795852845E-006
  6.232223457069951E-006
  6.874221848489997E-006
  7.586307073885427E-006
  8.421893515955191E-006
  9.451097774462415E-006
  1.076674759670134E-005
  1.248355416376664E-005
  1.487489382651653E-005
  1.372654199500899E-007
  1.326407432030370E-006
  2.404003477162984E-006
  3.236102280756831E-006
  3.919649038324517E-006
  4.516124060760338E-006
  5.069864293687722E-006
  5.618128185665248E-006
  6.196919253446905E-006
  6.846286887789687E-006
  7.618247672978675E-006
  8.591044439681894E-006
  9.897228145215771E-006
  1.178239418631724E-005
  1.479065197504446E-005
  9.549471927443213E-008
  1.133267995726526E-006
  2.055089578947574E-006
  2.775519791733316E-006
  3.376570229008815E-006
  3.907712293059509E-006
  4.406326259432030E-006
  4.904932406449939E-006
  5.435722605654053E-006
  6.035074895671414E-006
  6.750563177048398E-006
  7.656011702576029E-006
  8.889435357900411E-006
  1.077362829448210E-005
  1.446886154867708E-005
SCALARS elementIsPlast double 
LOOKUP_TABLE default
   1.00000000000000     
   1.00000000000000     
   1.00000000000000     
   1.00000000000000     
   1.00000000000000     
   1.00000000000000     
   1.00000000000000     
   1.00000000000000     
   1.00000000000000     
   1.00000000000000     
   1.00000000000000     
   1.00000000000000     
   1.00000000000000     
  0.000000000000000E+000
  0.000000000000000E+000
   1.00000000000000     
   1.00000000000000     
   1.00000000000000     
   1.00000000000000     
   1.00000000000000     
   1.00000000000000     
   1.00000000000000     
   1.00000000000000     
   1.00000000000000     
   1.00000000000000     
   1.00000000000000     
   1.00000000000000     
   1.00000000000000     
  0.000000000000000E+000
  0.000000000000000E+000
   1.00000000000000     
   1.00000000000000     
   1.00000000000000     
   1.00000000000000     
   1.00000000000000     
   1.00000000000000     
   1.00000000000000     
   1.00000000000000     
   1.00000000000000     
   1.00000000000000     
   1.00000000000000     
   1.00000000000000     
   1.00000000000000     
  0.000000000000000E+000
  0.000000000000000E+000
   1.00000000000000     
   1.00000000000000     
   1.00000000000000     
   1.00000000000000     
   1.00000000000000     
   1.00000000000000     
   1.00000000000000     
   1.00000000000000     
   1.00000000000000     
   1.00000000000000     
   1.00000000000000     
   1.00000000000000     
   1.00000000000000     
   1.00000000000000     
  0.000000000000000E+000
   1.00000000000000     
   1.00000000000000     
   1.00000000000000     
   1.00000000000000     
   1.00000000000000     
   1.00000000000000     
   1.00000000000000     
   1.00000000000000     
   1.00000000000000     
   1.00000000000000     
   1.00000000000000     
   1.00000000000000     
   1.00000000000000     
   1.00000000000000     
  0.000000000000000E+000
   1.00000000000000     
   1.00000000000000     
   1.00000000000000     
   1.00000000000000     
   1.00000000000000     
   1.00000000000000     
   1.00000000000000     
   1.00000000000000     
   1.00000000000000     
   1.00000000000000     
   1.00000000000000     
   1.00000000000000     
   1.00000000000000     
   1.00000000000000     
   1.00000000000000     
   1.00000000000000     
   1.00000000000000     
   1.00000000000000     
   1.00000000000000     
   1.00000000000000     
   1.00000000000000     
   1.00000000000000     
   1.00000000000000     
   1.00000000000000     
   1.00000000000000     
   1.00000000000000     
   1.00000000000000     
   1.00000000000000     
   1.00000000000000     
   1.00000000000000     
   1.00000000000000     
   1.00000000000000     
   1.00000000000000     
   1.00000000000000     
   1.00000000000000     
   1.00000000000000     
   1.00000000000000     
   1.00000000000000     
   1.00000000000000     
   1.00000000000000     
   1.00000000000000     
   1.00000000000000     
   1.00000000000000     
   1.00000000000000     
   1.00000000000000     
   1.00000000000000     
   1.00000000000000     
   1.00000000000000     
   1.00000000000000     
   1.00000000000000     
   1.00000000000000     
   1.00000000000000     
   1.00000000000000     
   1.00000000000000     
   1.00000000000000     
   1.00000000000000     
   1.00000000000000     
   1.00000000000000     
   1.00000000000000     
   1.00000000000000     
   1.00000000000000     
   1.00000000000000     
   1.00000000000000     
   1.00000000000000     
   1.00000000000000     
   1.00000000000000     
   1.00000000000000     
   1.00000000000000     
   1.00000000000000     
   1.00000000000000     
   1.00000000000000     
   1.00000000000000     
   1.00000000000000     
   1.00000000000000     
   1.00000000000000     
   1.00000000000000     
   1.00000000000000     
   1.00000000000000     
   1.00000000000000     
   1.00000000000000     
   1.00000000000000     
   1.00000000000000     
   1.00000000000000     
   1.00000000000000     
   1.00000000000000     
   1.00000000000000     
   1.00000000000000     
   1.00000000000000     
   1.00000000000000     
   1.00000000000000     
   1.00000000000000     
   1.00000000000000     
   1.00000000000000     
   1.00000000000000     
   1.00000000000000     
   1.00000000000000     
   1.00000000000000     
   1.00000000000000     
   1.00000000000000     
   1.00000000000000     
   1.00000000000000     
   1.00000000000000     
   1.00000000000000     
   1.00000000000000     
   1.00000000000000     
   1.00000000000000     
   1.00000000000000     
   1.00000000000000     
   1.00000000000000     
   1.00000000000000     
   1.00000000000000     
   1.00000000000000     
   1.00000000000000     
   1.00000000000000     
   1.00000000000000     
   1.00000000000000     
   1.00000000000000     
   1.00000000000000     
   1.00000000000000     
   1.00000000000000     
   1.00000000000000     
   1.00000000000000     
   1.00000000000000     
   1.00000000000000     
   1.00000000000000     
   1.00000000000000     
   1.00000000000000     
   1.00000000000000     
   1.00000000000000     
   1.00000000000000     
   1.00000000000000     
   1.00000000000000     
   1.00000000000000     
   1.00000000000000     
   1.00000000000000     
   1.00000000000000     
   1.00000000000000     
   1.00000000000000     
   1.00000000000000     
   1.00000000000000     
   1.00000000000000     
   1.00000000000000     
   1.00000000000000     
   1.00000000000000     
   1.00000000000000     
   1.00000000000000     
   1.00000000000000     
   1.00000000000000     
   1.00000000000000     
   1.00000000000000     
   1.00000000000000     
   1.00000000000000     
   1.00000000000000     
   1.00000000000000     
   1.00000000000000     
   1.00000000000000     
   1.00000000000000     
   1.00000000000000     
   1.00000000000000     
   1.00000000000000     
   1.00000000000000     
   1.00000000000000     
   1.00000000000000     
   1.00000000000000     
   1.00000000000000     
   1.00000000000000     
   1.00000000000000     
   1.00000000000000     
   1.00000000000000     
   1.00000000000000     
   1.00000000000000     
   1.00000000000000     
   1.00000000000000     
   1.00000000000000     
   1.00000000000000     
   1.00000000000000     
   1.00000000000000     
   1.00000000000000     
   1.00000000000000     
   1.00000000000000     
   1.00000000000000     
   1.00000000000000     
   1.00000000000000     
   1.00000000000000     
   1.00000000000000     
   1.00000000000000     
   1.00000000000000     
   1.00000000000000     
   1.00000000000000     
   1.00000000000000     
   1.00000000000000     
   1.00000000000000     
   1.00000000000000     
   1.00000000000000     
   1.00000000000000     
   1.00000000000000     
   1.00000000000000     
   1.00000000000000     
   1.00000000000000     
   1.00000000000000     
   1.00000000000000     
   1.00000000000000     
   1.00000000000000     
   1.00000000000000     
   1.00000000000000     
   1.00000000000000     
   1.00000000000000     
   1.00000000000000     
   1.00000000000000     
   1.00000000000000     
   1.00000000000000     
   1.00000000000000     
   1.00000000000000     
   1.00000000000000     
   1.00000000000000     
   1.00000000000000     
   1.00000000000000     
   1.00000000000000     
   1.00000000000000     
   1.00000000000000     
   1.00000000000000     
   1.00000000000000     
   1.00000000000000     
   1.00000000000000     
   1.00000000000000     
   1.00000000000000     
   1.00000000000000     
   1.00000000000000     
   1.00000000000000     
   1.00000000000000     
   1.00000000000000     
   1.00000000000000     
   1.00000000000000     
   1.00000000000000     
   1.00000000000000     
   1.00000000000000     
   1.00000000000000     
   1.00000000000000     
   1.00000000000000     
   1.00000000000000     
   1.00000000000000     
   1.00000000000000     
   1.00000000000000     
   1.00000000000000     
   1.00000000000000     
   1.00000000000000     
   1.00000000000000     
   1.00000000000000     
   1.00000000000000     
   1.00000000000000     
   1.00000000000000     
   1.00000000000000     
   1.00000000000000     
   1.00000000000000     
   1.00000000000000     
   1.00000000000000     
   1.00000000000000     
   1.00000000000000     
   1.00000000000000     
   1.00000000000000     
   1.00000000000000     
   1.00000000000000     
   1.00000000000000     
   1.00000000000000     
   1.00000000000000     
   1.00000000000000     
   1.00000000000000     
   1.00000000000000     
   1.00000000000000     
   1.00000000000000     
   1.00000000000000     
   1.00000000000000     
   1.00000000000000     
   1.00000000000000     
   1.00000000000000     
   1.00000000000000     
   1.00000000000000     
   1.00000000000000     
   1.00000000000000     
   1.00000000000000     
   1.00000000000000     
   1.00000000000000     
   1.00000000000000     
   1.00000000000000     
   1.00000000000000     
   1.00000000000000     
   1.00000000000000     
   1.00000000000000     
   1.00000000000000     
   1.00000000000000     
   1.00000000000000     
   1.00000000000000     
   1.00000000000000     
   1.00000000000000     
   1.00000000000000     
   1.00000000000000     
   1.00000000000000     
   1.00000000000000     
   1.00000000000000     
   1.00000000000000     
   1.00000000000000     
   1.00000000000000     
   1.00000000000000     
   1.00000000000000     
   1.00000000000000     
   1.00000000000000     
   1.00000000000000     
   1.00000000000000     
   1.00000000000000     
   1.00000000000000     
   1.00000000000000     
   1.00000000000000     
   1.00000000000000     
   1.00000000000000     
   1.00000000000000     
   1.00000000000000     
   1.00000000000000     
   1.00000000000000     
   1.00000000000000     
   1.00000000000000     
   1.00000000000000     
   1.00000000000000     
   1.00000000000000     
   1.00000000000000     
   1.00000000000000     
   1.00000000000000     
   1.00000000000000     
   1.00000000000000     
   1.00000000000000     
   1.00000000000000     
   1.00000000000000     
   1.00000000000000     
   1.00000000000000     
   1.00000000000000     
   1.00000000000000     
   1.00000000000000     
   1.00000000000000     
   1.00000000000000     
   1.00000000000000     
   1.00000000000000     
   1.00000000000000     
   1.00000000000000     
   1.00000000000000     
   1.00000000000000     
   1.00000000000000     
   1.00000000000000     
   1.00000000000000     
   1.00000000000000     
   1.00000000000000     
   1.00000000000000     
   1.00000000000000     
   1.00000000000000     
   1.00000000000000     
   1.00000000000000     
   1.00000000000000     
   1.00000000000000     
   1.00000000000000     
   1.00000000000000     
   1.00000000000000     
   1.00000000000000     
   1.00000000000000     
   1.00000000000000     
   1.00000000000000     
   1.00000000000000     
   1.00000000000000     
   1.00000000000000     
   1.00000000000000     
   1.00000000000000     
   1.00000000000000     
   1.00000000000000     
   1.00000000000000     
   1.00000000000000     
   1.00000000000000     
   1.00000000000000     
   1.00000000000000     
SCALARS poroL double 
LOOKUP_TABLE default
  0.155897412495021     
  0.155896035930456     
  0.155894703920293     
  0.155893443474991     
  0.155892281610906     
  0.155891227934690     
  0.155890284291526     
  0.155889447843400     
  0.155888717972915     
  0.155888097080937     
  0.155887589928238     
  0.155887198426194     
  0.155886902225990     
  0.155886185736510     
  0.155885500629801     
  0.155897028280199     
  0.155895655150529     
  0.155894329680363     
  0.155893079431842     
  0.155891925472223     
  0.155890875895700     
  0.155889934603588     
  0.155889098099794     
  0.155888364900404     
  0.155887736139994     
  0.155887216611088     
  0.155886810736187     
  0.155886523702392     
  0.155885866290667     
  0.155885195714748     
  0.155896262418722     
  0.155894902114205     
  0.155893588635449     
  0.155892351081339     
  0.155891210692329     
  0.155890170958006     
  0.155889234271715     
  0.155888398175864     
  0.155887660872896     
  0.155887021936790     
  0.155886484119074     
  0.155886059540203     
  0.155885772870175     
  0.155885236792780     
  0.155884582563323     
  0.155895103623048     
  0.155893765631290     
  0.155892477624153     
  0.155891262708442     
  0.155890138382672     
  0.155889111928534     
  0.155888182834015     
  0.155887349237753     
  0.155886609495576     
  0.155885963047454     
  0.155885412514640     
  0.155884963533045     
  0.155884638329626     
  0.155884271152831     
  0.155883658520604     
  0.155893556415143     
  0.155892244773394     
  0.155890985733037     
  0.155889804886203     
  0.155888709810831     
  0.155887701893419     
  0.155886783536380     
  0.155885955942816     
  0.155885217460714     
  0.155884568842666     
  0.155884012151949     
  0.155883549218340     
  0.155883182643074     
  0.155882920916748     
  0.155882447638934     
  0.155891613558466     
  0.155890339662262     
  0.155889123850682     
  0.155887983999455     
  0.155886924253740     
  0.155885943150413     
  0.155885043484311     
  0.155884226639259     
  0.155883493583909     
  0.155882847144545     
  0.155882291221115     
  0.155881830437202     
  0.155881474092167     
  0.155881222420607     
  0.155880973199851     
  0.155889279947777     
  0.155888048981313     
  0.155886888194326     
  0.155885802830811     
  0.155884787662727     
  0.155883844218962     
  0.155882971225325     
  0.155882171917591     
  0.155881450258560     
  0.155880811831367     
  0.155880264105827     
  0.155879816469017     
  0.155879478346671     
  0.155879257473590     
  0.155879163460013     
  0.155886555828751     
  0.155885385669881     
  0.155884291870145     
  0.155883271843011     
  0.155882316705543     
  0.155881417965528     
  0.155880578890322     
  0.155879804822281     
  0.155879102384635     
  0.155878479986882     
  0.155877947456348     
  0.155877515586936     
  0.155877196001034     
  0.155877004071332     
  0.155876937798618     
  0.155883458616290     
  0.155882357374908     
  0.155881352310506     
  0.155880413215705     
  0.155879521314062     
  0.155878676350960     
  0.155877880819111     
  0.155877141731175     
  0.155876467499151     
  0.155875868149337     
  0.155875355170478     
  0.155874940316932     
  0.155874635114627     
  0.155874445242975     
  0.155874375518214     
  0.155880011058450     
  0.155879014329139     
  0.155878100742143     
  0.155877239691902     
  0.155876418724314     
  0.155875634370559     
  0.155874891357474     
  0.155874195934681     
  0.155873558113740     
  0.155872989259434     
  0.155872500538266     
  0.155872102563055     
  0.155871803354065     
  0.155871609285502     
  0.155871527663583     
  0.155876260004770     
  0.155875369553110     
  0.155874552478643     
  0.155873774378750     
  0.155873026163598     
  0.155872308473634     
  0.155871624661957     
  0.155870982374304     
  0.155870390686990     
  0.155869859309346     
  0.155869397947140     
  0.155869015918927     
  0.155868720463936     
  0.155868519806586     
  0.155868421026429     
  0.155872235633426     
  0.155871452251193     
  0.155870725476370     
  0.155870029222639     
  0.155869358246107     
  0.155868713232599     
  0.155868097689255     
  0.155867518044150     
  0.155866981248204     
  0.155866494308307     
  0.155866064885217     
  0.155865700527749     
  0.155865409218043     
  0.155865199841467     
  0.155865079222716     
  0.155867945061354     
  0.155867273637484     
  0.155866635672520     
  0.155866021700364     
  0.155865430957473     
  0.155864864445765     
  0.155864326962214     
  0.155863820164797     
  0.155863347288143     
  0.155862913044568     
  0.155862521906881     
  0.155862179440148     
  0.155861893892753     
  0.155861673491569     
  0.155861525989654     
  0.155863421046008     
  0.155862845627450     
  0.155862294863670     
  0.155861765829471     
  0.155861260542301     
  0.155860782309459     
  0.155860330816764     
  0.155859906660861     
  0.155859508786614     
  0.155859136167297     
  0.155858790972951     
  0.155858476882379     
  0.155858199771819     
  0.155857966829731     
  0.155857786447479     
  0.155858651058985     
  0.155858175317362     
  0.155857714942176     
  0.155857276588871     
  0.155856865917404     
  0.155856483985141     
  0.155856129221886     
  0.155855797515605     
  0.155855484054369     
  0.155855184670540     
  0.155854895655938     
  0.155854617158544     
  0.155854352181730     
  0.155854106189069     
  0.155853888577957     
  0.155853638279769     
  0.155853267731756     
  0.155852908575427     
  0.155852571772571     
  0.155852263881078     
  0.155851987392196     
  0.155851739145579     
  0.155851511723961     
  0.155851295415107     
  0.155851080219116     
  0.155850857928952     
  0.155850623471264     
  0.155850375860230     
  0.155850118380293     
  0.155849861758070     
  0.155848385005858     
  0.155848129738906     
  0.155847883878600     
  0.155847661026106     
  0.155847469019028     
  0.155847309615287     
  0.155847178660979     
  0.155847065825660     
  0.155846958017565     
  0.155846839938821     
  0.155846696835131     
  0.155846516912574     
  0.155846294226650     
  0.155846030381642     
  0.155845733131852     
  0.155842894681096     
  0.155842766668625     
  0.155842649041429     
  0.155842555660076     
  0.155842494613130     
  0.155842467004704     
  0.155842466466547     
  0.155842481727812     
  0.155842494964452     
  0.155842484232180     
  0.155842430083695     
  0.155842315809260     
  0.155842128381457     
  0.155841865508310     
  0.155841530092895     
  0.155837172555438     
  0.155837187015444     
  0.155837214361727     
  0.155837268424359     
  0.155837355744307     
  0.155837475787031     
  0.155837620861505     
  0.155837775939417     
  0.155837919832033     
  0.155838028837471     
  0.155838075798932     
  0.155838038030917     
  0.155837898128847     
  0.155837644515960     
  0.155837279282471     
  0.155831226837551     
  0.155831401744907     
  0.155831593145921     
  0.155831813737425     
  0.155832068174067     
  0.155832353123843     
  0.155832658133862     
  0.155832965013595     
  0.155833250041875     
  0.155833486256042     
  0.155833645093795     
  0.155833697348812     
  0.155833618767796     
  0.155833390093960     
  0.155833005222417     
  0.155825070130380     
  0.155825426031108     
  0.155825801655252     
  0.155826208660708     
  0.155826649403560     
  0.155827117052594     
  0.155827596180378     
  0.155828064921632     
  0.155828497718732     
  0.155828867135172     
  0.155829144903950     
  0.155829299724974     
  0.155829300497791     
  0.155829118345641     
  0.155828732113931     
  0.155818718059705     
  0.155819277696333     
  0.155819859486925     
  0.155820473883701     
  0.155821120550050     
  0.155821787636405     
  0.155822453312171     
  0.155823090604166     
  0.155823673006847     
  0.155824175992649     
  0.155824575176075     
  0.155824842932782     
  0.155824944125060     
  0.155824836631275     
  0.155824478850466     
  0.155812188211658     
  0.155812977901562     
  0.155813790642959     
  0.155814635467010     
  0.155815507828621     
  0.155816388527619     
  0.155817248299918     
  0.155818056049322     
  0.155818785103574     
  0.155819415665890     
  0.155819932060823     
  0.155820316368131     
  0.155820537639527     
  0.155820542965602     
  0.155820262367445     
  0.155805501207644     
  0.155806552853603     
  0.155807625434744     
  0.155808727031163     
  0.155809844859965     
  0.155810948619002     
  0.155812002230554     
  0.155812973974479     
  0.155813840862419     
  0.155814588797679     
  0.155815211168541     
  0.155815703090702     
  0.155816050962013     
  0.155816207698575     
  0.155816063109918     
  0.155798678500016     
  0.155800033146095     
  0.155801403707183     
  0.155802794448850     
  0.155804174511302     
  0.155805502116133     
  0.155806738495514     
  0.155807858063679     
  0.155808847437549     
  0.155809700310759     
  0.155810414953206     
  0.155810997718320     
  0.155811458989417     
  0.155811792382132     
  0.155811883104755     
  0.155791747129280     
  0.155793457403919     
  0.155795185377308     
  0.155796899372994     
  0.155798550442037     
  0.155800088423168     
  0.155801482822266     
  0.155802724415646     
  0.155803814161986     
  0.155804756173506     
  0.155805554155674     
  0.155806213034380     
  0.155806756797261     
  0.155807225196504     
  0.155807637073204     
  0.155784700993134     
  0.155786905421197     
  0.155789056669039     
  0.155791123614128     
  0.155793034589509     
  0.155794749549486     
  0.155796264964728     
  0.155797594241514     
  0.155798755943637     
  0.155799766177978     
  0.155800635926136     
  0.155801371359732     
  0.155801982234027     
  0.155802562641880     
  0.155803292611385     
  0.155777639700170     
  0.155780501598708     
  0.155783148822444     
  0.155785567865205     
  0.155787687892853     
  0.155789526370234     
  0.155791117716430     
  0.155792497314936     
  0.155793696622525     
  0.155794743840509     
  0.155795662546821     
  0.155796470493498     
  0.155797184126225     
  0.155797834448614     
  0.155798822106715     
  0.155770646458813     
  0.155774454438336     
  0.155777652046324     
  0.155780322177894     
  0.155782563522605     
  0.155784460484042     
  0.155786077809378     
  0.155787465989858     
  0.155788665663542     
  0.155789711745544     
  0.155790637958094     
  0.155791481310178     
  0.155792285485281     
  0.155793132658640     
  0.155794260882923     
  0.155764186405303     
  0.155769227006194     
  0.155772696876121     
  0.155775450311759     
  0.155777707403582     
  0.155779591393107     
  0.155781181821600     
  0.155782535090974     
  0.155783694438471     
  0.155784696517711     
  0.155785577609559     
  0.155786381618380     
  0.155787176742472     
  0.155788104390026     
  0.155789849127869     
