# vtk DataFile Version 3.0
vtk output
ASCII
DATASET UNSTRUCTURED_GRID
POINTS       496 double 
  0.00000000E+00  3.00000000E+02  0.00000000E+00
  0.00000000E+00  2.80000000E+02  0.00000000E+00
  0.00000000E+00  2.60000000E+02  0.00000000E+00
  0.00000000E+00  2.40000000E+02  0.00000000E+00
  0.00000000E+00  2.20000000E+02  0.00000000E+00
  0.00000000E+00  2.00000000E+02  0.00000000E+00
  0.00000000E+00  1.80000000E+02  0.00000000E+00
  0.00000000E+00  1.60000000E+02  0.00000000E+00
  0.00000000E+00  1.40000000E+02  0.00000000E+00
  0.00000000E+00  1.20000000E+02  0.00000000E+00
  0.00000000E+00  1.00000000E+02  0.00000000E+00
  0.00000000E+00  8.00000000E+01  0.00000000E+00
  0.00000000E+00  6.00000000E+01  0.00000000E+00
  0.00000000E+00  4.00000000E+01  0.00000000E+00
  0.00000000E+00  2.00000000E+01  0.00000000E+00
  0.00000000E+00  4.99600361E-14  0.00000000E+00
  2.00000000E+01  3.00000000E+02  0.00000000E+00
  2.00000000E+01  2.80000000E+02  0.00000000E+00
  2.00000000E+01  2.60000000E+02  0.00000000E+00
  2.00000000E+01  2.40000000E+02  0.00000000E+00
  2.00000000E+01  2.20000000E+02  0.00000000E+00
  2.00000000E+01  2.00000000E+02  0.00000000E+00
  2.00000000E+01  1.80000000E+02  0.00000000E+00
  2.00000000E+01  1.60000000E+02  0.00000000E+00
  2.00000000E+01  1.40000000E+02  0.00000000E+00
  2.00000000E+01  1.20000000E+02  0.00000000E+00
  2.00000000E+01  1.00000000E+02  0.00000000E+00
  2.00000000E+01  8.00000000E+01  0.00000000E+00
  2.00000000E+01  6.00000000E+01  0.00000000E+00
  2.00000000E+01  4.00000000E+01  0.00000000E+00
  2.00000000E+01  2.00000000E+01  0.00000000E+00
  2.00000000E+01  4.99600361E-14  0.00000000E+00
  4.00000000E+01  3.00000000E+02  0.00000000E+00
  4.00000000E+01  2.80000000E+02  0.00000000E+00
  4.00000000E+01  2.60000000E+02  0.00000000E+00
  4.00000000E+01  2.40000000E+02  0.00000000E+00
  4.00000000E+01  2.20000000E+02  0.00000000E+00
  4.00000000E+01  2.00000000E+02  0.00000000E+00
  4.00000000E+01  1.80000000E+02  0.00000000E+00
  4.00000000E+01  1.60000000E+02  0.00000000E+00
  4.00000000E+01  1.40000000E+02  0.00000000E+00
  4.00000000E+01  1.20000000E+02  0.00000000E+00
  4.00000000E+01  1.00000000E+02  0.00000000E+00
  4.00000000E+01  8.00000000E+01  0.00000000E+00
  4.00000000E+01  6.00000000E+01  0.00000000E+00
  4.00000000E+01  4.00000000E+01  0.00000000E+00
  4.00000000E+01  2.00000000E+01  0.00000000E+00
  4.00000000E+01  4.99600361E-14  0.00000000E+00
  6.00000000E+01  3.00000000E+02  0.00000000E+00
  6.00000000E+01  2.80000000E+02  0.00000000E+00
  6.00000000E+01  2.60000000E+02  0.00000000E+00
  6.00000000E+01  2.40000000E+02  0.00000000E+00
  6.00000000E+01  2.20000000E+02  0.00000000E+00
  6.00000000E+01  2.00000000E+02  0.00000000E+00
  6.00000000E+01  1.80000000E+02  0.00000000E+00
  6.00000000E+01  1.60000000E+02  0.00000000E+00
  6.00000000E+01  1.40000000E+02  0.00000000E+00
  6.00000000E+01  1.20000000E+02  0.00000000E+00
  6.00000000E+01  1.00000000E+02  0.00000000E+00
  6.00000000E+01  8.00000000E+01  0.00000000E+00
  6.00000000E+01  6.00000000E+01  0.00000000E+00
  6.00000000E+01  4.00000000E+01  0.00000000E+00
  6.00000000E+01  2.00000000E+01  0.00000000E+00
  6.00000000E+01  4.99600361E-14  0.00000000E+00
  8.00000000E+01  3.00000000E+02  0.00000000E+00
  8.00000000E+01  2.80000000E+02  0.00000000E+00
  8.00000000E+01  2.60000000E+02  0.00000000E+00
  8.00000000E+01  2.40000000E+02  0.00000000E+00
  8.00000000E+01  2.20000000E+02  0.00000000E+00
  8.00000000E+01  2.00000000E+02  0.00000000E+00
  8.00000000E+01  1.80000000E+02  0.00000000E+00
  8.00000000E+01  1.60000000E+02  0.00000000E+00
  8.00000000E+01  1.40000000E+02  0.00000000E+00
  8.00000000E+01  1.20000000E+02  0.00000000E+00
  8.00000000E+01  1.00000000E+02  0.00000000E+00
  8.00000000E+01  8.00000000E+01  0.00000000E+00
  8.00000000E+01  6.00000000E+01  0.00000000E+00
  8.00000000E+01  4.00000000E+01  0.00000000E+00
  8.00000000E+01  2.00000000E+01  0.00000000E+00
  8.00000000E+01  4.99600361E-14  0.00000000E+00
  1.00000000E+02  3.00000000E+02  0.00000000E+00
  1.00000000E+02  2.80000000E+02  0.00000000E+00
  1.00000000E+02  2.60000000E+02  0.00000000E+00
  1.00000000E+02  2.40000000E+02  0.00000000E+00
  1.00000000E+02  2.20000000E+02  0.00000000E+00
  1.00000000E+02  2.00000000E+02  0.00000000E+00
  1.00000000E+02  1.80000000E+02  0.00000000E+00
  1.00000000E+02  1.60000000E+02  0.00000000E+00
  1.00000000E+02  1.40000000E+02  0.00000000E+00
  1.00000000E+02  1.20000000E+02  0.00000000E+00
  1.00000000E+02  1.00000000E+02  0.00000000E+00
  1.00000000E+02  8.00000000E+01  0.00000000E+00
  1.00000000E+02  6.00000000E+01  0.00000000E+00
  1.00000000E+02  4.00000000E+01  0.00000000E+00
  1.00000000E+02  2.00000000E+01  0.00000000E+00
  1.00000000E+02  4.99600361E-14  0.00000000E+00
  1.20000000E+02  3.00000000E+02  0.00000000E+00
  1.20000000E+02  2.80000000E+02  0.00000000E+00
  1.20000000E+02  2.60000000E+02  0.00000000E+00
  1.20000000E+02  2.40000000E+02  0.00000000E+00
  1.20000000E+02  2.20000000E+02  0.00000000E+00
  1.20000000E+02  2.00000000E+02  0.00000000E+00
  1.20000000E+02  1.80000000E+02  0.00000000E+00
  1.20000000E+02  1.60000000E+02  0.00000000E+00
  1.20000000E+02  1.40000000E+02  0.00000000E+00
  1.20000000E+02  1.20000000E+02  0.00000000E+00
  1.20000000E+02  1.00000000E+02  0.00000000E+00
  1.20000000E+02  8.00000000E+01  0.00000000E+00
  1.20000000E+02  6.00000000E+01  0.00000000E+00
  1.20000000E+02  4.00000000E+01  0.00000000E+00
  1.20000000E+02  2.00000000E+01  0.00000000E+00
  1.20000000E+02  4.99600361E-14  0.00000000E+00
  1.40000000E+02  3.00000000E+02  0.00000000E+00
  1.40000000E+02  2.80000000E+02  0.00000000E+00
  1.40000000E+02  2.60000000E+02  0.00000000E+00
  1.40000000E+02  2.40000000E+02  0.00000000E+00
  1.40000000E+02  2.20000000E+02  0.00000000E+00
  1.40000000E+02  2.00000000E+02  0.00000000E+00
  1.40000000E+02  1.80000000E+02  0.00000000E+00
  1.40000000E+02  1.60000000E+02  0.00000000E+00
  1.40000000E+02  1.40000000E+02  0.00000000E+00
  1.40000000E+02  1.20000000E+02  0.00000000E+00
  1.40000000E+02  1.00000000E+02  0.00000000E+00
  1.40000000E+02  8.00000000E+01  0.00000000E+00
  1.40000000E+02  6.00000000E+01  0.00000000E+00
  1.40000000E+02  4.00000000E+01  0.00000000E+00
  1.40000000E+02  2.00000000E+01  0.00000000E+00
  1.40000000E+02  4.99600361E-14  0.00000000E+00
  1.60000000E+02  3.00000000E+02  0.00000000E+00
  1.60000000E+02  2.80000000E+02  0.00000000E+00
  1.60000000E+02  2.60000000E+02  0.00000000E+00
  1.60000000E+02  2.40000000E+02  0.00000000E+00
  1.60000000E+02  2.20000000E+02  0.00000000E+00
  1.60000000E+02  2.00000000E+02  0.00000000E+00
  1.60000000E+02  1.80000000E+02  0.00000000E+00
  1.60000000E+02  1.60000000E+02  0.00000000E+00
  1.60000000E+02  1.40000000E+02  0.00000000E+00
  1.60000000E+02  1.20000000E+02  0.00000000E+00
  1.60000000E+02  1.00000000E+02  0.00000000E+00
  1.60000000E+02  8.00000000E+01  0.00000000E+00
  1.60000000E+02  6.00000000E+01  0.00000000E+00
  1.60000000E+02  4.00000000E+01  0.00000000E+00
  1.60000000E+02  2.00000000E+01  0.00000000E+00
  1.60000000E+02  4.99600361E-14  0.00000000E+00
  1.80000000E+02  3.00000000E+02  0.00000000E+00
  1.80000000E+02  2.80000000E+02  0.00000000E+00
  1.80000000E+02  2.60000000E+02  0.00000000E+00
  1.80000000E+02  2.40000000E+02  0.00000000E+00
  1.80000000E+02  2.20000000E+02  0.00000000E+00
  1.80000000E+02  2.00000000E+02  0.00000000E+00
  1.80000000E+02  1.80000000E+02  0.00000000E+00
  1.80000000E+02  1.60000000E+02  0.00000000E+00
  1.80000000E+02  1.40000000E+02  0.00000000E+00
  1.80000000E+02  1.20000000E+02  0.00000000E+00
  1.80000000E+02  1.00000000E+02  0.00000000E+00
  1.80000000E+02  8.00000000E+01  0.00000000E+00
  1.80000000E+02  6.00000000E+01  0.00000000E+00
  1.80000000E+02  4.00000000E+01  0.00000000E+00
  1.80000000E+02  2.00000000E+01  0.00000000E+00
  1.80000000E+02  4.99600361E-14  0.00000000E+00
  2.00000000E+02  3.00000000E+02  0.00000000E+00
  2.00000000E+02  2.80000000E+02  0.00000000E+00
  2.00000000E+02  2.60000000E+02  0.00000000E+00
  2.00000000E+02  2.40000000E+02  0.00000000E+00
  2.00000000E+02  2.20000000E+02  0.00000000E+00
  2.00000000E+02  2.00000000E+02  0.00000000E+00
  2.00000000E+02  1.80000000E+02  0.00000000E+00
  2.00000000E+02  1.60000000E+02  0.00000000E+00
  2.00000000E+02  1.40000000E+02  0.00000000E+00
  2.00000000E+02  1.20000000E+02  0.00000000E+00
  2.00000000E+02  1.00000000E+02  0.00000000E+00
  2.00000000E+02  8.00000000E+01  0.00000000E+00
  2.00000000E+02  6.00000000E+01  0.00000000E+00
  2.00000000E+02  4.00000000E+01  0.00000000E+00
  2.00000000E+02  2.00000000E+01  0.00000000E+00
  2.00000000E+02  4.99600361E-14  0.00000000E+00
  2.20000000E+02  3.00000000E+02  0.00000000E+00
  2.20000000E+02  2.80000000E+02  0.00000000E+00
  2.20000000E+02  2.60000000E+02  0.00000000E+00
  2.20000000E+02  2.40000000E+02  0.00000000E+00
  2.20000000E+02  2.20000000E+02  0.00000000E+00
  2.20000000E+02  2.00000000E+02  0.00000000E+00
  2.20000000E+02  1.80000000E+02  0.00000000E+00
  2.20000000E+02  1.60000000E+02  0.00000000E+00
  2.20000000E+02  1.40000000E+02  0.00000000E+00
  2.20000000E+02  1.20000000E+02  0.00000000E+00
  2.20000000E+02  1.00000000E+02  0.00000000E+00
  2.20000000E+02  8.00000000E+01  0.00000000E+00
  2.20000000E+02  6.00000000E+01  0.00000000E+00
  2.20000000E+02  4.00000000E+01  0.00000000E+00
  2.20000000E+02  2.00000000E+01  0.00000000E+00
  2.20000000E+02  4.99600361E-14  0.00000000E+00
  2.40000000E+02  3.00000000E+02  0.00000000E+00
  2.40000000E+02  2.80000000E+02  0.00000000E+00
  2.40000000E+02  2.60000000E+02  0.00000000E+00
  2.40000000E+02  2.40000000E+02  0.00000000E+00
  2.40000000E+02  2.20000000E+02  0.00000000E+00
  2.40000000E+02  2.00000000E+02  0.00000000E+00
  2.40000000E+02  1.80000000E+02  0.00000000E+00
  2.40000000E+02  1.60000000E+02  0.00000000E+00
  2.40000000E+02  1.40000000E+02  0.00000000E+00
  2.40000000E+02  1.20000000E+02  0.00000000E+00
  2.40000000E+02  1.00000000E+02  0.00000000E+00
  2.40000000E+02  8.00000000E+01  0.00000000E+00
  2.40000000E+02  6.00000000E+01  0.00000000E+00
  2.40000000E+02  4.00000000E+01  0.00000000E+00
  2.40000000E+02  2.00000000E+01  0.00000000E+00
  2.40000000E+02  4.99600361E-14  0.00000000E+00
  2.60000000E+02  3.00000000E+02  0.00000000E+00
  2.60000000E+02  2.80000000E+02  0.00000000E+00
  2.60000000E+02  2.60000000E+02  0.00000000E+00
  2.60000000E+02  2.40000000E+02  0.00000000E+00
  2.60000000E+02  2.20000000E+02  0.00000000E+00
  2.60000000E+02  2.00000000E+02  0.00000000E+00
  2.60000000E+02  1.80000000E+02  0.00000000E+00
  2.60000000E+02  1.60000000E+02  0.00000000E+00
  2.60000000E+02  1.40000000E+02  0.00000000E+00
  2.60000000E+02  1.20000000E+02  0.00000000E+00
  2.60000000E+02  1.00000000E+02  0.00000000E+00
  2.60000000E+02  8.00000000E+01  0.00000000E+00
  2.60000000E+02  6.00000000E+01  0.00000000E+00
  2.60000000E+02  4.00000000E+01  0.00000000E+00
  2.60000000E+02  2.00000000E+01  0.00000000E+00
  2.60000000E+02  4.99600361E-14  0.00000000E+00
  2.80000000E+02  3.00000000E+02  0.00000000E+00
  2.80000000E+02  2.80000000E+02  0.00000000E+00
  2.80000000E+02  2.60000000E+02  0.00000000E+00
  2.80000000E+02  2.40000000E+02  0.00000000E+00
  2.80000000E+02  2.20000000E+02  0.00000000E+00
  2.80000000E+02  2.00000000E+02  0.00000000E+00
  2.80000000E+02  1.80000000E+02  0.00000000E+00
  2.80000000E+02  1.60000000E+02  0.00000000E+00
  2.80000000E+02  1.40000000E+02  0.00000000E+00
  2.80000000E+02  1.20000000E+02  0.00000000E+00
  2.80000000E+02  1.00000000E+02  0.00000000E+00
  2.80000000E+02  8.00000000E+01  0.00000000E+00
  2.80000000E+02  6.00000000E+01  0.00000000E+00
  2.80000000E+02  4.00000000E+01  0.00000000E+00
  2.80000000E+02  2.00000000E+01  0.00000000E+00
  2.80000000E+02  4.99600361E-14  0.00000000E+00
  3.00000000E+02  3.00000000E+02  0.00000000E+00
  3.00000000E+02  2.80000000E+02  0.00000000E+00
  3.00000000E+02  2.60000000E+02  0.00000000E+00
  3.00000000E+02  2.40000000E+02  0.00000000E+00
  3.00000000E+02  2.20000000E+02  0.00000000E+00
  3.00000000E+02  2.00000000E+02  0.00000000E+00
  3.00000000E+02  1.80000000E+02  0.00000000E+00
  3.00000000E+02  1.60000000E+02  0.00000000E+00
  3.00000000E+02  1.40000000E+02  0.00000000E+00
  3.00000000E+02  1.20000000E+02  0.00000000E+00
  3.00000000E+02  1.00000000E+02  0.00000000E+00
  3.00000000E+02  8.00000000E+01  0.00000000E+00
  3.00000000E+02  6.00000000E+01  0.00000000E+00
  3.00000000E+02  4.00000000E+01  0.00000000E+00
  3.00000000E+02  2.00000000E+01  0.00000000E+00
  3.00000000E+02  4.99600361E-14  0.00000000E+00
  3.20000000E+02  3.00000000E+02  0.00000000E+00
  3.20000000E+02  2.80000000E+02  0.00000000E+00
  3.20000000E+02  2.60000000E+02  0.00000000E+00
  3.20000000E+02  2.40000000E+02  0.00000000E+00
  3.20000000E+02  2.20000000E+02  0.00000000E+00
  3.20000000E+02  2.00000000E+02  0.00000000E+00
  3.20000000E+02  1.80000000E+02  0.00000000E+00
  3.20000000E+02  1.60000000E+02  0.00000000E+00
  3.20000000E+02  1.40000000E+02  0.00000000E+00
  3.20000000E+02  1.20000000E+02  0.00000000E+00
  3.20000000E+02  1.00000000E+02  0.00000000E+00
  3.20000000E+02  8.00000000E+01  0.00000000E+00
  3.20000000E+02  6.00000000E+01  0.00000000E+00
  3.20000000E+02  4.00000000E+01  0.00000000E+00
  3.20000000E+02  2.00000000E+01  0.00000000E+00
  3.20000000E+02  4.99600361E-14  0.00000000E+00
  3.40000000E+02  3.00000000E+02  0.00000000E+00
  3.40000000E+02  2.80000000E+02  0.00000000E+00
  3.40000000E+02  2.60000000E+02  0.00000000E+00
  3.40000000E+02  2.40000000E+02  0.00000000E+00
  3.40000000E+02  2.20000000E+02  0.00000000E+00
  3.40000000E+02  2.00000000E+02  0.00000000E+00
  3.40000000E+02  1.80000000E+02  0.00000000E+00
  3.40000000E+02  1.60000000E+02  0.00000000E+00
  3.40000000E+02  1.40000000E+02  0.00000000E+00
  3.40000000E+02  1.20000000E+02  0.00000000E+00
  3.40000000E+02  1.00000000E+02  0.00000000E+00
  3.40000000E+02  8.00000000E+01  0.00000000E+00
  3.40000000E+02  6.00000000E+01  0.00000000E+00
  3.40000000E+02  4.00000000E+01  0.00000000E+00
  3.40000000E+02  2.00000000E+01  0.00000000E+00
  3.40000000E+02  4.99600361E-14  0.00000000E+00
  3.60000000E+02  3.00000000E+02  0.00000000E+00
  3.60000000E+02  2.80000000E+02  0.00000000E+00
  3.60000000E+02  2.60000000E+02  0.00000000E+00
  3.60000000E+02  2.40000000E+02  0.00000000E+00
  3.60000000E+02  2.20000000E+02  0.00000000E+00
  3.60000000E+02  2.00000000E+02  0.00000000E+00
  3.60000000E+02  1.80000000E+02  0.00000000E+00
  3.60000000E+02  1.60000000E+02  0.00000000E+00
  3.60000000E+02  1.40000000E+02  0.00000000E+00
  3.60000000E+02  1.20000000E+02  0.00000000E+00
  3.60000000E+02  1.00000000E+02  0.00000000E+00
  3.60000000E+02  8.00000000E+01  0.00000000E+00
  3.60000000E+02  6.00000000E+01  0.00000000E+00
  3.60000000E+02  4.00000000E+01  0.00000000E+00
  3.60000000E+02  2.00000000E+01  0.00000000E+00
  3.60000000E+02  4.99600361E-14  0.00000000E+00
  3.80000000E+02  3.00000000E+02  0.00000000E+00
  3.80000000E+02  2.80000000E+02  0.00000000E+00
  3.80000000E+02  2.60000000E+02  0.00000000E+00
  3.80000000E+02  2.40000000E+02  0.00000000E+00
  3.80000000E+02  2.20000000E+02  0.00000000E+00
  3.80000000E+02  2.00000000E+02  0.00000000E+00
  3.80000000E+02  1.80000000E+02  0.00000000E+00
  3.80000000E+02  1.60000000E+02  0.00000000E+00
  3.80000000E+02  1.40000000E+02  0.00000000E+00
  3.80000000E+02  1.20000000E+02  0.00000000E+00
  3.80000000E+02  1.00000000E+02  0.00000000E+00
  3.80000000E+02  8.00000000E+01  0.00000000E+00
  3.80000000E+02  6.00000000E+01  0.00000000E+00
  3.80000000E+02  4.00000000E+01  0.00000000E+00
  3.80000000E+02  2.00000000E+01  0.00000000E+00
  3.80000000E+02  4.99600361E-14  0.00000000E+00
  4.00000000E+02  3.00000000E+02  0.00000000E+00
  4.00000000E+02  2.80000000E+02  0.00000000E+00
  4.00000000E+02  2.60000000E+02  0.00000000E+00
  4.00000000E+02  2.40000000E+02  0.00000000E+00
  4.00000000E+02  2.20000000E+02  0.00000000E+00
  4.00000000E+02  2.00000000E+02  0.00000000E+00
  4.00000000E+02  1.80000000E+02  0.00000000E+00
  4.00000000E+02  1.60000000E+02  0.00000000E+00
  4.00000000E+02  1.40000000E+02  0.00000000E+00
  4.00000000E+02  1.20000000E+02  0.00000000E+00
  4.00000000E+02  1.00000000E+02  0.00000000E+00
  4.00000000E+02  8.00000000E+01  0.00000000E+00
  4.00000000E+02  6.00000000E+01  0.00000000E+00
  4.00000000E+02  4.00000000E+01  0.00000000E+00
  4.00000000E+02  2.00000000E+01  0.00000000E+00
  4.00000000E+02  4.99600361E-14  0.00000000E+00
  4.20000000E+02  3.00000000E+02  0.00000000E+00
  4.20000000E+02  2.80000000E+02  0.00000000E+00
  4.20000000E+02  2.60000000E+02  0.00000000E+00
  4.20000000E+02  2.40000000E+02  0.00000000E+00
  4.20000000E+02  2.20000000E+02  0.00000000E+00
  4.20000000E+02  2.00000000E+02  0.00000000E+00
  4.20000000E+02  1.80000000E+02  0.00000000E+00
  4.20000000E+02  1.60000000E+02  0.00000000E+00
  4.20000000E+02  1.40000000E+02  0.00000000E+00
  4.20000000E+02  1.20000000E+02  0.00000000E+00
  4.20000000E+02  1.00000000E+02  0.00000000E+00
  4.20000000E+02  8.00000000E+01  0.00000000E+00
  4.20000000E+02  6.00000000E+01  0.00000000E+00
  4.20000000E+02  4.00000000E+01  0.00000000E+00
  4.20000000E+02  2.00000000E+01  0.00000000E+00
  4.20000000E+02  4.99600361E-14  0.00000000E+00
  4.40000000E+02  3.00000000E+02  0.00000000E+00
  4.40000000E+02  2.80000000E+02  0.00000000E+00
  4.40000000E+02  2.60000000E+02  0.00000000E+00
  4.40000000E+02  2.40000000E+02  0.00000000E+00
  4.40000000E+02  2.20000000E+02  0.00000000E+00
  4.40000000E+02  2.00000000E+02  0.00000000E+00
  4.40000000E+02  1.80000000E+02  0.00000000E+00
  4.40000000E+02  1.60000000E+02  0.00000000E+00
  4.40000000E+02  1.40000000E+02  0.00000000E+00
  4.40000000E+02  1.20000000E+02  0.00000000E+00
  4.40000000E+02  1.00000000E+02  0.00000000E+00
  4.40000000E+02  8.00000000E+01  0.00000000E+00
  4.40000000E+02  6.00000000E+01  0.00000000E+00
  4.40000000E+02  4.00000000E+01  0.00000000E+00
  4.40000000E+02  2.00000000E+01  0.00000000E+00
  4.40000000E+02  4.99600361E-14  0.00000000E+00
  4.60000000E+02  3.00000000E+02  0.00000000E+00
  4.60000000E+02  2.80000000E+02  0.00000000E+00
  4.60000000E+02  2.60000000E+02  0.00000000E+00
  4.60000000E+02  2.40000000E+02  0.00000000E+00
  4.60000000E+02  2.20000000E+02  0.00000000E+00
  4.60000000E+02  2.00000000E+02  0.00000000E+00
  4.60000000E+02  1.80000000E+02  0.00000000E+00
  4.60000000E+02  1.60000000E+02  0.00000000E+00
  4.60000000E+02  1.40000000E+02  0.00000000E+00
  4.60000000E+02  1.20000000E+02  0.00000000E+00
  4.60000000E+02  1.00000000E+02  0.00000000E+00
  4.60000000E+02  8.00000000E+01  0.00000000E+00
  4.60000000E+02  6.00000000E+01  0.00000000E+00
  4.60000000E+02  4.00000000E+01  0.00000000E+00
  4.60000000E+02  2.00000000E+01  0.00000000E+00
  4.60000000E+02  4.99600361E-14  0.00000000E+00
  4.80000000E+02  3.00000000E+02  0.00000000E+00
  4.80000000E+02  2.80000000E+02  0.00000000E+00
  4.80000000E+02  2.60000000E+02  0.00000000E+00
  4.80000000E+02  2.40000000E+02  0.00000000E+00
  4.80000000E+02  2.20000000E+02  0.00000000E+00
  4.80000000E+02  2.00000000E+02  0.00000000E+00
  4.80000000E+02  1.80000000E+02  0.00000000E+00
  4.80000000E+02  1.60000000E+02  0.00000000E+00
  4.80000000E+02  1.40000000E+02  0.00000000E+00
  4.80000000E+02  1.20000000E+02  0.00000000E+00
  4.80000000E+02  1.00000000E+02  0.00000000E+00
  4.80000000E+02  8.00000000E+01  0.00000000E+00
  4.80000000E+02  6.00000000E+01  0.00000000E+00
  4.80000000E+02  4.00000000E+01  0.00000000E+00
  4.80000000E+02  2.00000000E+01  0.00000000E+00
  4.80000000E+02  4.99600361E-14  0.00000000E+00
  5.00000000E+02  3.00000000E+02  0.00000000E+00
  5.00000000E+02  2.80000000E+02  0.00000000E+00
  5.00000000E+02  2.60000000E+02  0.00000000E+00
  5.00000000E+02  2.40000000E+02  0.00000000E+00
  5.00000000E+02  2.20000000E+02  0.00000000E+00
  5.00000000E+02  2.00000000E+02  0.00000000E+00
  5.00000000E+02  1.80000000E+02  0.00000000E+00
  5.00000000E+02  1.60000000E+02  0.00000000E+00
  5.00000000E+02  1.40000000E+02  0.00000000E+00
  5.00000000E+02  1.20000000E+02  0.00000000E+00
  5.00000000E+02  1.00000000E+02  0.00000000E+00
  5.00000000E+02  8.00000000E+01  0.00000000E+00
  5.00000000E+02  6.00000000E+01  0.00000000E+00
  5.00000000E+02  4.00000000E+01  0.00000000E+00
  5.00000000E+02  2.00000000E+01  0.00000000E+00
  5.00000000E+02  4.99600361E-14  0.00000000E+00
  5.20000000E+02  3.00000000E+02  0.00000000E+00
  5.20000000E+02  2.80000000E+02  0.00000000E+00
  5.20000000E+02  2.60000000E+02  0.00000000E+00
  5.20000000E+02  2.40000000E+02  0.00000000E+00
  5.20000000E+02  2.20000000E+02  0.00000000E+00
  5.20000000E+02  2.00000000E+02  0.00000000E+00
  5.20000000E+02  1.80000000E+02  0.00000000E+00
  5.20000000E+02  1.60000000E+02  0.00000000E+00
  5.20000000E+02  1.40000000E+02  0.00000000E+00
  5.20000000E+02  1.20000000E+02  0.00000000E+00
  5.20000000E+02  1.00000000E+02  0.00000000E+00
  5.20000000E+02  8.00000000E+01  0.00000000E+00
  5.20000000E+02  6.00000000E+01  0.00000000E+00
  5.20000000E+02  4.00000000E+01  0.00000000E+00
  5.20000000E+02  2.00000000E+01  0.00000000E+00
  5.20000000E+02  4.99600361E-14  0.00000000E+00
  5.40000000E+02  3.00000000E+02  0.00000000E+00
  5.40000000E+02  2.80000000E+02  0.00000000E+00
  5.40000000E+02  2.60000000E+02  0.00000000E+00
  5.40000000E+02  2.40000000E+02  0.00000000E+00
  5.40000000E+02  2.20000000E+02  0.00000000E+00
  5.40000000E+02  2.00000000E+02  0.00000000E+00
  5.40000000E+02  1.80000000E+02  0.00000000E+00
  5.40000000E+02  1.60000000E+02  0.00000000E+00
  5.40000000E+02  1.40000000E+02  0.00000000E+00
  5.40000000E+02  1.20000000E+02  0.00000000E+00
  5.40000000E+02  1.00000000E+02  0.00000000E+00
  5.40000000E+02  8.00000000E+01  0.00000000E+00
  5.40000000E+02  6.00000000E+01  0.00000000E+00
  5.40000000E+02  4.00000000E+01  0.00000000E+00
  5.40000000E+02  2.00000000E+01  0.00000000E+00
  5.40000000E+02  4.99600361E-14  0.00000000E+00
  5.60000000E+02  3.00000000E+02  0.00000000E+00
  5.60000000E+02  2.80000000E+02  0.00000000E+00
  5.60000000E+02  2.60000000E+02  0.00000000E+00
  5.60000000E+02  2.40000000E+02  0.00000000E+00
  5.60000000E+02  2.20000000E+02  0.00000000E+00
  5.60000000E+02  2.00000000E+02  0.00000000E+00
  5.60000000E+02  1.80000000E+02  0.00000000E+00
  5.60000000E+02  1.60000000E+02  0.00000000E+00
  5.60000000E+02  1.40000000E+02  0.00000000E+00
  5.60000000E+02  1.20000000E+02  0.00000000E+00
  5.60000000E+02  1.00000000E+02  0.00000000E+00
  5.60000000E+02  8.00000000E+01  0.00000000E+00
  5.60000000E+02  6.00000000E+01  0.00000000E+00
  5.60000000E+02  4.00000000E+01  0.00000000E+00
  5.60000000E+02  2.00000000E+01  0.00000000E+00
  5.60000000E+02  4.99600361E-14  0.00000000E+00
  5.80000000E+02  3.00000000E+02  0.00000000E+00
  5.80000000E+02  2.80000000E+02  0.00000000E+00
  5.80000000E+02  2.60000000E+02  0.00000000E+00
  5.80000000E+02  2.40000000E+02  0.00000000E+00
  5.80000000E+02  2.20000000E+02  0.00000000E+00
  5.80000000E+02  2.00000000E+02  0.00000000E+00
  5.80000000E+02  1.80000000E+02  0.00000000E+00
  5.80000000E+02  1.60000000E+02  0.00000000E+00
  5.80000000E+02  1.40000000E+02  0.00000000E+00
  5.80000000E+02  1.20000000E+02  0.00000000E+00
  5.80000000E+02  1.00000000E+02  0.00000000E+00
  5.80000000E+02  8.00000000E+01  0.00000000E+00
  5.80000000E+02  6.00000000E+01  0.00000000E+00
  5.80000000E+02  4.00000000E+01  0.00000000E+00
  5.80000000E+02  2.00000000E+01  0.00000000E+00
  5.80000000E+02  4.99600361E-14  0.00000000E+00
  6.00000000E+02  3.00000000E+02  0.00000000E+00
  6.00000000E+02  2.80000000E+02  0.00000000E+00
  6.00000000E+02  2.60000000E+02  0.00000000E+00
  6.00000000E+02  2.40000000E+02  0.00000000E+00
  6.00000000E+02  2.20000000E+02  0.00000000E+00
  6.00000000E+02  2.00000000E+02  0.00000000E+00
  6.00000000E+02  1.80000000E+02  0.00000000E+00
  6.00000000E+02  1.60000000E+02  0.00000000E+00
  6.00000000E+02  1.40000000E+02  0.00000000E+00
  6.00000000E+02  1.20000000E+02  0.00000000E+00
  6.00000000E+02  1.00000000E+02  0.00000000E+00
  6.00000000E+02  8.00000000E+01  0.00000000E+00
  6.00000000E+02  6.00000000E+01  0.00000000E+00
  6.00000000E+02  4.00000000E+01  0.00000000E+00
  6.00000000E+02  2.00000000E+01  0.00000000E+00
  6.00000000E+02  4.99600361E-14  0.00000000E+00
CELLS       450      2250
         4           0           1          17          16
         4           1           2          18          17
         4           2           3          19          18
         4           3           4          20          19
         4           4           5          21          20
         4           5           6          22          21
         4           6           7          23          22
         4           7           8          24          23
         4           8           9          25          24
         4           9          10          26          25
         4          10          11          27          26
         4          11          12          28          27
         4          12          13          29          28
         4          13          14          30          29
         4          14          15          31          30
         4          16          17          33          32
         4          17          18          34          33
         4          18          19          35          34
         4          19          20          36          35
         4          20          21          37          36
         4          21          22          38          37
         4          22          23          39          38
         4          23          24          40          39
         4          24          25          41          40
         4          25          26          42          41
         4          26          27          43          42
         4          27          28          44          43
         4          28          29          45          44
         4          29          30          46          45
         4          30          31          47          46
         4          32          33          49          48
         4          33          34          50          49
         4          34          35          51          50
         4          35          36          52          51
         4          36          37          53          52
         4          37          38          54          53
         4          38          39          55          54
         4          39          40          56          55
         4          40          41          57          56
         4          41          42          58          57
         4          42          43          59          58
         4          43          44          60          59
         4          44          45          61          60
         4          45          46          62          61
         4          46          47          63          62
         4          48          49          65          64
         4          49          50          66          65
         4          50          51          67          66
         4          51          52          68          67
         4          52          53          69          68
         4          53          54          70          69
         4          54          55          71          70
         4          55          56          72          71
         4          56          57          73          72
         4          57          58          74          73
         4          58          59          75          74
         4          59          60          76          75
         4          60          61          77          76
         4          61          62          78          77
         4          62          63          79          78
         4          64          65          81          80
         4          65          66          82          81
         4          66          67          83          82
         4          67          68          84          83
         4          68          69          85          84
         4          69          70          86          85
         4          70          71          87          86
         4          71          72          88          87
         4          72          73          89          88
         4          73          74          90          89
         4          74          75          91          90
         4          75          76          92          91
         4          76          77          93          92
         4          77          78          94          93
         4          78          79          95          94
         4          80          81          97          96
         4          81          82          98          97
         4          82          83          99          98
         4          83          84         100          99
         4          84          85         101         100
         4          85          86         102         101
         4          86          87         103         102
         4          87          88         104         103
         4          88          89         105         104
         4          89          90         106         105
         4          90          91         107         106
         4          91          92         108         107
         4          92          93         109         108
         4          93          94         110         109
         4          94          95         111         110
         4          96          97         113         112
         4          97          98         114         113
         4          98          99         115         114
         4          99         100         116         115
         4         100         101         117         116
         4         101         102         118         117
         4         102         103         119         118
         4         103         104         120         119
         4         104         105         121         120
         4         105         106         122         121
         4         106         107         123         122
         4         107         108         124         123
         4         108         109         125         124
         4         109         110         126         125
         4         110         111         127         126
         4         112         113         129         128
         4         113         114         130         129
         4         114         115         131         130
         4         115         116         132         131
         4         116         117         133         132
         4         117         118         134         133
         4         118         119         135         134
         4         119         120         136         135
         4         120         121         137         136
         4         121         122         138         137
         4         122         123         139         138
         4         123         124         140         139
         4         124         125         141         140
         4         125         126         142         141
         4         126         127         143         142
         4         128         129         145         144
         4         129         130         146         145
         4         130         131         147         146
         4         131         132         148         147
         4         132         133         149         148
         4         133         134         150         149
         4         134         135         151         150
         4         135         136         152         151
         4         136         137         153         152
         4         137         138         154         153
         4         138         139         155         154
         4         139         140         156         155
         4         140         141         157         156
         4         141         142         158         157
         4         142         143         159         158
         4         144         145         161         160
         4         145         146         162         161
         4         146         147         163         162
         4         147         148         164         163
         4         148         149         165         164
         4         149         150         166         165
         4         150         151         167         166
         4         151         152         168         167
         4         152         153         169         168
         4         153         154         170         169
         4         154         155         171         170
         4         155         156         172         171
         4         156         157         173         172
         4         157         158         174         173
         4         158         159         175         174
         4         160         161         177         176
         4         161         162         178         177
         4         162         163         179         178
         4         163         164         180         179
         4         164         165         181         180
         4         165         166         182         181
         4         166         167         183         182
         4         167         168         184         183
         4         168         169         185         184
         4         169         170         186         185
         4         170         171         187         186
         4         171         172         188         187
         4         172         173         189         188
         4         173         174         190         189
         4         174         175         191         190
         4         176         177         193         192
         4         177         178         194         193
         4         178         179         195         194
         4         179         180         196         195
         4         180         181         197         196
         4         181         182         198         197
         4         182         183         199         198
         4         183         184         200         199
         4         184         185         201         200
         4         185         186         202         201
         4         186         187         203         202
         4         187         188         204         203
         4         188         189         205         204
         4         189         190         206         205
         4         190         191         207         206
         4         192         193         209         208
         4         193         194         210         209
         4         194         195         211         210
         4         195         196         212         211
         4         196         197         213         212
         4         197         198         214         213
         4         198         199         215         214
         4         199         200         216         215
         4         200         201         217         216
         4         201         202         218         217
         4         202         203         219         218
         4         203         204         220         219
         4         204         205         221         220
         4         205         206         222         221
         4         206         207         223         222
         4         208         209         225         224
         4         209         210         226         225
         4         210         211         227         226
         4         211         212         228         227
         4         212         213         229         228
         4         213         214         230         229
         4         214         215         231         230
         4         215         216         232         231
         4         216         217         233         232
         4         217         218         234         233
         4         218         219         235         234
         4         219         220         236         235
         4         220         221         237         236
         4         221         222         238         237
         4         222         223         239         238
         4         224         225         241         240
         4         225         226         242         241
         4         226         227         243         242
         4         227         228         244         243
         4         228         229         245         244
         4         229         230         246         245
         4         230         231         247         246
         4         231         232         248         247
         4         232         233         249         248
         4         233         234         250         249
         4         234         235         251         250
         4         235         236         252         251
         4         236         237         253         252
         4         237         238         254         253
         4         238         239         255         254
         4         240         241         257         256
         4         241         242         258         257
         4         242         243         259         258
         4         243         244         260         259
         4         244         245         261         260
         4         245         246         262         261
         4         246         247         263         262
         4         247         248         264         263
         4         248         249         265         264
         4         249         250         266         265
         4         250         251         267         266
         4         251         252         268         267
         4         252         253         269         268
         4         253         254         270         269
         4         254         255         271         270
         4         256         257         273         272
         4         257         258         274         273
         4         258         259         275         274
         4         259         260         276         275
         4         260         261         277         276
         4         261         262         278         277
         4         262         263         279         278
         4         263         264         280         279
         4         264         265         281         280
         4         265         266         282         281
         4         266         267         283         282
         4         267         268         284         283
         4         268         269         285         284
         4         269         270         286         285
         4         270         271         287         286
         4         272         273         289         288
         4         273         274         290         289
         4         274         275         291         290
         4         275         276         292         291
         4         276         277         293         292
         4         277         278         294         293
         4         278         279         295         294
         4         279         280         296         295
         4         280         281         297         296
         4         281         282         298         297
         4         282         283         299         298
         4         283         284         300         299
         4         284         285         301         300
         4         285         286         302         301
         4         286         287         303         302
         4         288         289         305         304
         4         289         290         306         305
         4         290         291         307         306
         4         291         292         308         307
         4         292         293         309         308
         4         293         294         310         309
         4         294         295         311         310
         4         295         296         312         311
         4         296         297         313         312
         4         297         298         314         313
         4         298         299         315         314
         4         299         300         316         315
         4         300         301         317         316
         4         301         302         318         317
         4         302         303         319         318
         4         304         305         321         320
         4         305         306         322         321
         4         306         307         323         322
         4         307         308         324         323
         4         308         309         325         324
         4         309         310         326         325
         4         310         311         327         326
         4         311         312         328         327
         4         312         313         329         328
         4         313         314         330         329
         4         314         315         331         330
         4         315         316         332         331
         4         316         317         333         332
         4         317         318         334         333
         4         318         319         335         334
         4         320         321         337         336
         4         321         322         338         337
         4         322         323         339         338
         4         323         324         340         339
         4         324         325         341         340
         4         325         326         342         341
         4         326         327         343         342
         4         327         328         344         343
         4         328         329         345         344
         4         329         330         346         345
         4         330         331         347         346
         4         331         332         348         347
         4         332         333         349         348
         4         333         334         350         349
         4         334         335         351         350
         4         336         337         353         352
         4         337         338         354         353
         4         338         339         355         354
         4         339         340         356         355
         4         340         341         357         356
         4         341         342         358         357
         4         342         343         359         358
         4         343         344         360         359
         4         344         345         361         360
         4         345         346         362         361
         4         346         347         363         362
         4         347         348         364         363
         4         348         349         365         364
         4         349         350         366         365
         4         350         351         367         366
         4         352         353         369         368
         4         353         354         370         369
         4         354         355         371         370
         4         355         356         372         371
         4         356         357         373         372
         4         357         358         374         373
         4         358         359         375         374
         4         359         360         376         375
         4         360         361         377         376
         4         361         362         378         377
         4         362         363         379         378
         4         363         364         380         379
         4         364         365         381         380
         4         365         366         382         381
         4         366         367         383         382
         4         368         369         385         384
         4         369         370         386         385
         4         370         371         387         386
         4         371         372         388         387
         4         372         373         389         388
         4         373         374         390         389
         4         374         375         391         390
         4         375         376         392         391
         4         376         377         393         392
         4         377         378         394         393
         4         378         379         395         394
         4         379         380         396         395
         4         380         381         397         396
         4         381         382         398         397
         4         382         383         399         398
         4         384         385         401         400
         4         385         386         402         401
         4         386         387         403         402
         4         387         388         404         403
         4         388         389         405         404
         4         389         390         406         405
         4         390         391         407         406
         4         391         392         408         407
         4         392         393         409         408
         4         393         394         410         409
         4         394         395         411         410
         4         395         396         412         411
         4         396         397         413         412
         4         397         398         414         413
         4         398         399         415         414
         4         400         401         417         416
         4         401         402         418         417
         4         402         403         419         418
         4         403         404         420         419
         4         404         405         421         420
         4         405         406         422         421
         4         406         407         423         422
         4         407         408         424         423
         4         408         409         425         424
         4         409         410         426         425
         4         410         411         427         426
         4         411         412         428         427
         4         412         413         429         428
         4         413         414         430         429
         4         414         415         431         430
         4         416         417         433         432
         4         417         418         434         433
         4         418         419         435         434
         4         419         420         436         435
         4         420         421         437         436
         4         421         422         438         437
         4         422         423         439         438
         4         423         424         440         439
         4         424         425         441         440
         4         425         426         442         441
         4         426         427         443         442
         4         427         428         444         443
         4         428         429         445         444
         4         429         430         446         445
         4         430         431         447         446
         4         432         433         449         448
         4         433         434         450         449
         4         434         435         451         450
         4         435         436         452         451
         4         436         437         453         452
         4         437         438         454         453
         4         438         439         455         454
         4         439         440         456         455
         4         440         441         457         456
         4         441         442         458         457
         4         442         443         459         458
         4         443         444         460         459
         4         444         445         461         460
         4         445         446         462         461
         4         446         447         463         462
         4         448         449         465         464
         4         449         450         466         465
         4         450         451         467         466
         4         451         452         468         467
         4         452         453         469         468
         4         453         454         470         469
         4         454         455         471         470
         4         455         456         472         471
         4         456         457         473         472
         4         457         458         474         473
         4         458         459         475         474
         4         459         460         476         475
         4         460         461         477         476
         4         461         462         478         477
         4         462         463         479         478
         4         464         465         481         480
         4         465         466         482         481
         4         466         467         483         482
         4         467         468         484         483
         4         468         469         485         484
         4         469         470         486         485
         4         470         471         487         486
         4         471         472         488         487
         4         472         473         489         488
         4         473         474         490         489
         4         474         475         491         490
         4         475         476         492         491
         4         476         477         493         492
         4         477         478         494         493
         4         478         479         495         494
CELL_TYPES        450
9
9
9
9
9
9
9
9
9
9
9
9
9
9
9
9
9
9
9
9
9
9
9
9
9
9
9
9
9
9
9
9
9
9
9
9
9
9
9
9
9
9
9
9
9
9
9
9
9
9
9
9
9
9
9
9
9
9
9
9
9
9
9
9
9
9
9
9
9
9
9
9
9
9
9
9
9
9
9
9
9
9
9
9
9
9
9
9
9
9
9
9
9
9
9
9
9
9
9
9
9
9
9
9
9
9
9
9
9
9
9
9
9
9
9
9
9
9
9
9
9
9
9
9
9
9
9
9
9
9
9
9
9
9
9
9
9
9
9
9
9
9
9
9
9
9
9
9
9
9
9
9
9
9
9
9
9
9
9
9
9
9
9
9
9
9
9
9
9
9
9
9
9
9
9
9
9
9
9
9
9
9
9
9
9
9
9
9
9
9
9
9
9
9
9
9
9
9
9
9
9
9
9
9
9
9
9
9
9
9
9
9
9
9
9
9
9
9
9
9
9
9
9
9
9
9
9
9
9
9
9
9
9
9
9
9
9
9
9
9
9
9
9
9
9
9
9
9
9
9
9
9
9
9
9
9
9
9
9
9
9
9
9
9
9
9
9
9
9
9
9
9
9
9
9
9
9
9
9
9
9
9
9
9
9
9
9
9
9
9
9
9
9
9
9
9
9
9
9
9
9
9
9
9
9
9
9
9
9
9
9
9
9
9
9
9
9
9
9
9
9
9
9
9
9
9
9
9
9
9
9
9
9
9
9
9
9
9
9
9
9
9
9
9
9
9
9
9
9
9
9
9
9
9
9
9
9
9
9
9
9
9
9
9
9
9
9
9
9
9
9
9
9
9
9
9
9
9
9
9
9
9
9
9
9
9
9
9
9
9
9
9
9
9
9
9
9
9
9
9
9
9
9
9
9
9
9
9
9
9
9
9
9
9
9
9
9
9
9
9
9
9
9
9
9
9
9
9
9
9
9
9
9
9
9
9
9
9
9
9
9
9
9
9
9
9
9
9
9
9
POINT_DATA       496
SCALARS p double 
LOOKUP_TABLE default
   10000033.8057698     
   10000033.8057698     
   10000033.8057697     
   10000033.8057695     
   10000033.8057693     
   10000033.8057691     
   10000033.8057689     
   10000033.8057688     
   10000033.8057686     
   10000033.8057686     
   10000033.8057686     
   10000033.8057686     
   10000033.8057687     
   10000033.8057688     
   10000033.8057688     
   10000033.8057688     
   10000033.7594407     
   10000033.7594407     
   10000033.7594406     
   10000033.7594404     
   10000033.7594402     
   10000033.7594400     
   10000033.7594398     
   10000033.7594396     
   10000033.7594395     
   10000033.7594394     
   10000033.7594394     
   10000033.7594394     
   10000033.7594395     
   10000033.7594396     
   10000033.7594396     
   10000033.7594397     
   10000033.6205804     
   10000033.6205803     
   10000033.6205802     
   10000033.6205800     
   10000033.6205798     
   10000033.6205796     
   10000033.6205794     
   10000033.6205792     
   10000033.6205790     
   10000033.6205789     
   10000033.6205789     
   10000033.6205789     
   10000033.6205790     
   10000033.6205790     
   10000033.6205791     
   10000033.6205791     
   10000033.3895694     
   10000033.3895694     
   10000033.3895692     
   10000033.3895690     
   10000033.3895688     
   10000033.3895685     
   10000033.3895683     
   10000033.3895681     
   10000033.3895679     
   10000033.3895677     
   10000033.3895677     
   10000033.3895677     
   10000033.3895677     
   10000033.3895677     
   10000033.3895678     
   10000033.3895678     
   10000033.0670410     
   10000033.0670409     
   10000033.0670407     
   10000033.0670405     
   10000033.0670403     
   10000033.0670400     
   10000033.0670397     
   10000033.0670394     
   10000033.0670392     
   10000033.0670390     
   10000033.0670389     
   10000033.0670388     
   10000033.0670388     
   10000033.0670389     
   10000033.0670389     
   10000033.0670389     
   10000032.6538790     
   10000032.6538790     
   10000032.6538788     
   10000032.6538785     
   10000032.6538782     
   10000032.6538779     
   10000032.6538775     
   10000032.6538772     
   10000032.6538769     
   10000032.6538767     
   10000032.6538766     
   10000032.6538765     
   10000032.6538764     
   10000032.6538764     
   10000032.6538765     
   10000032.6538765     
   10000032.1512160     
   10000032.1512160     
   10000032.1512158     
   10000032.1512155     
   10000032.1512151     
   10000032.1512147     
   10000032.1512143     
   10000032.1512139     
   10000032.1512136     
   10000032.1512133     
   10000032.1512131     
   10000032.1512130     
   10000032.1512129     
   10000032.1512129     
   10000032.1512129     
   10000032.1512129     
   10000031.5604297     
   10000031.5604296     
   10000031.5604294     
   10000031.5604291     
   10000031.5604287     
   10000031.5604282     
   10000031.5604278     
   10000031.5604273     
   10000031.5604269     
   10000031.5604266     
   10000031.5604263     
   10000031.5604261     
   10000031.5604260     
   10000031.5604260     
   10000031.5604260     
   10000031.5604260     
   10000030.8831392     
   10000030.8831391     
   10000030.8831389     
   10000030.8831385     
   10000030.8831381     
   10000030.8831376     
   10000030.8831371     
   10000030.8831366     
   10000030.8831361     
   10000030.8831357     
   10000030.8831354     
   10000030.8831352     
   10000030.8831351     
   10000030.8831350     
   10000030.8831350     
   10000030.8831350     
   10000030.1212009     
   10000030.1212008     
   10000030.1212006     
   10000030.1212002     
   10000030.1211997     
   10000030.1211992     
   10000030.1211986     
   10000030.1211981     
   10000030.1211976     
   10000030.1211971     
   10000030.1211968     
   10000030.1211965     
   10000030.1211964     
   10000030.1211963     
   10000030.1211963     
   10000030.1211963     
   10000029.2767032     
   10000029.2767031     
   10000029.2767028     
   10000029.2767024     
   10000029.2767019     
   10000029.2767014     
   10000029.2767008     
   10000029.2767002     
   10000029.2766996     
   10000029.2766992     
   10000029.2766988     
   10000029.2766985     
   10000029.2766983     
   10000029.2766982     
   10000029.2766982     
   10000029.2766982     
   10000028.3519605     
   10000028.3519604     
   10000028.3519602     
   10000028.3519598     
   10000028.3519593     
   10000028.3519587     
   10000028.3519581     
   10000028.3519575     
   10000028.3519570     
   10000028.3519565     
   10000028.3519561     
   10000028.3519558     
   10000028.3519556     
   10000028.3519555     
   10000028.3519555     
   10000028.3519555     
   10000027.3495075     
   10000027.3495074     
   10000027.3495072     
   10000027.3495068     
   10000027.3495063     
   10000027.3495058     
   10000027.3495052     
   10000027.3495046     
   10000027.3495041     
   10000027.3495036     
   10000027.3495032     
   10000027.3495029     
   10000027.3495027     
   10000027.3495027     
   10000027.3495026     
   10000027.3495026     
   10000026.2720916     
   10000026.2720916     
   10000026.2720913     
   10000026.2720910     
   10000026.2720906     
   10000026.2720901     
   10000026.2720895     
   10000026.2720890     
   10000026.2720885     
   10000026.2720881     
   10000026.2720877     
   10000026.2720875     
   10000026.2720873     
   10000026.2720873     
   10000026.2720873     
   10000026.2720873     
   10000025.1226658     
   10000025.1226657     
   10000025.1226656     
   10000025.1226653     
   10000025.1226650     
   10000025.1226646     
   10000025.1226641     
   10000025.1226637     
   10000025.1226633     
   10000025.1226630     
   10000025.1226627     
   10000025.1226625     
   10000025.1226624     
   10000025.1226623     
   10000025.1226623     
   10000025.1226624     
   10000023.9043803     
   10000023.9043802     
   10000023.9043801     
   10000023.9043800     
   10000023.9043798     
   10000023.9043796     
   10000023.9043793     
   10000023.9043790     
   10000023.9043788     
   10000023.9043786     
   10000023.9043784     
   10000023.9043783     
   10000023.9043782     
   10000023.9043782     
   10000023.9043782     
   10000023.9043782     
   10000022.6205740     
   10000022.6205740     
   10000022.6205741     
   10000022.6205741     
   10000022.6205741     
   10000022.6205741     
   10000022.6205741     
   10000022.6205740     
   10000022.6205740     
   10000022.6205739     
   10000022.6205739     
   10000022.6205739     
   10000022.6205739     
   10000022.6205739     
   10000022.6205740     
   10000022.6205740     
   10000021.2747657     
   10000021.2747658     
   10000021.2747659     
   10000021.2747661     
   10000021.2747664     
   10000021.2747667     
   10000021.2747670     
   10000021.2747673     
   10000021.2747675     
   10000021.2747677     
   10000021.2747678     
   10000021.2747679     
   10000021.2747680     
   10000021.2747681     
   10000021.2747681     
   10000021.2747682     
   10000019.8706438     
   10000019.8706439     
   10000019.8706442     
   10000019.8706447     
   10000019.8706453     
   10000019.8706460     
   10000019.8706467     
   10000019.8706473     
   10000019.8706479     
   10000019.8706484     
   10000019.8706487     
   10000019.8706490     
   10000019.8706491     
   10000019.8706492     
   10000019.8706492     
   10000019.8706493     
   10000018.4120565     
   10000018.4120567     
   10000018.4120572     
   10000018.4120581     
   10000018.4120591     
   10000018.4120602     
   10000018.4120614     
   10000018.4120625     
   10000018.4120635     
   10000018.4120643     
   10000018.4120649     
   10000018.4120652     
   10000018.4120654     
   10000018.4120655     
   10000018.4120655     
   10000018.4120655     
   10000016.9030016     
   10000016.9030019     
   10000016.9030027     
   10000016.9030038     
   10000016.9030053     
   10000016.9030070     
   10000016.9030088     
   10000016.9030104     
   10000016.9030118     
   10000016.9030130     
   10000016.9030138     
   10000016.9030143     
   10000016.9030145     
   10000016.9030146     
   10000016.9030146     
   10000016.9030145     
   10000015.3476150     
   10000015.3476154     
   10000015.3476164     
   10000015.3476180     
   10000015.3476200     
   10000015.3476223     
   10000015.3476246     
   10000015.3476269     
   10000015.3476288     
   10000015.3476303     
   10000015.3476314     
   10000015.3476320     
   10000015.3476322     
   10000015.3476322     
   10000015.3476321     
   10000015.3476320     
   10000013.7501597     
   10000013.7501601     
   10000013.7501615     
   10000013.7501635     
   10000013.7501661     
   10000013.7501690     
   10000013.7501719     
   10000013.7501747     
   10000013.7501772     
   10000013.7501791     
   10000013.7501804     
   10000013.7501810     
   10000013.7501812     
   10000013.7501810     
   10000013.7501808     
   10000013.7501807     
   10000012.1150140     
   10000012.1150146     
   10000012.1150162     
   10000012.1150186     
   10000012.1150217     
   10000012.1150252     
   10000012.1150287     
   10000012.1150321     
   10000012.1150350     
   10000012.1150372     
   10000012.1150387     
   10000012.1150394     
   10000012.1150395     
   10000012.1150392     
   10000012.1150387     
   10000012.1150385     
   10000010.4466596     
   10000010.4466602     
   10000010.4466621     
   10000010.4466650     
   10000010.4466685     
   10000010.4466725     
   10000010.4466765     
   10000010.4466802     
   10000010.4466834     
   10000010.4466859     
   10000010.4466875     
   10000010.4466883     
   10000010.4466883     
   10000010.4466878     
   10000010.4466872     
   10000010.4466869     
   10000008.7496692     
   10000008.7496699     
   10000008.7496720     
   10000008.7496752     
   10000008.7496791     
   10000008.7496834     
   10000008.7496876     
   10000008.7496915     
   10000008.7496948     
   10000008.7496974     
   10000008.7496991     
   10000008.7496999     
   10000008.7496999     
   10000008.7496992     
   10000008.7496984     
   10000008.7496980     
   10000007.0286940     
   10000007.0286948     
   10000007.0286971     
   10000007.0287005     
   10000007.0287045     
   10000007.0287087     
   10000007.0287128     
   10000007.0287166     
   10000007.0287198     
   10000007.0287223     
   10000007.0287241     
   10000007.0287249     
   10000007.0287249     
   10000007.0287242     
   10000007.0287231     
   10000007.0287227     
   10000005.2884511     
   10000005.2884520     
   10000005.2884543     
   10000005.2884576     
   10000005.2884614     
   10000005.2884651     
   10000005.2884688     
   10000005.2884720     
   10000005.2884749     
   10000005.2884771     
   10000005.2884788     
   10000005.2884797     
   10000005.2884797     
   10000005.2884790     
   10000005.2884779     
   10000005.2884773     
   10000003.5337104     
   10000003.5337112     
   10000003.5337134     
   10000003.5337161     
   10000003.5337191     
   10000003.5337220     
   10000003.5337247     
   10000003.5337272     
   10000003.5337294     
   10000003.5337311     
   10000003.5337325     
   10000003.5337333     
   10000003.5337335     
   10000003.5337330     
   10000003.5337320     
   10000003.5337314     
   10000001.7692814     
   10000001.7692820     
   10000001.7692834     
   10000001.7692851     
   10000001.7692867     
   10000001.7692884     
   10000001.7692899     
   10000001.7692913     
   10000001.7692925     
   10000001.7692935     
   10000001.7692943     
   10000001.7692948     
   10000001.7692950     
   10000001.7692949     
   10000001.7692942     
   10000001.7692936     
   10000000.0000000     
   10000000.0000000     
   10000000.0000000     
   10000000.0000000     
   10000000.0000000     
   10000000.0000000     
   10000000.0000000     
   10000000.0000000     
   10000000.0000000     
   10000000.0000000     
   10000000.0000000     
   10000000.0000000     
   10000000.0000000     
  10000000.00000000     
   10000000.0000000     
   10000000.0000000     
VECTORS u double 
    0.00000E+00        -0.64182E-01         0.00000E+00
    0.00000E+00        -0.59898E-01         0.00000E+00
    0.00000E+00        -0.55614E-01         0.00000E+00
    0.00000E+00        -0.51329E-01         0.00000E+00
    0.00000E+00        -0.47045E-01         0.00000E+00
    0.00000E+00        -0.42761E-01         0.00000E+00
    0.00000E+00        -0.38478E-01         0.00000E+00
    0.00000E+00        -0.34196E-01         0.00000E+00
    0.00000E+00        -0.29916E-01         0.00000E+00
    0.00000E+00        -0.25636E-01         0.00000E+00
    0.00000E+00        -0.21358E-01         0.00000E+00
    0.00000E+00        -0.17082E-01         0.00000E+00
    0.00000E+00        -0.12808E-01         0.00000E+00
    0.00000E+00        -0.85363E-02         0.00000E+00
    0.00000E+00        -0.42669E-02         0.00000E+00
    0.00000E+00         0.00000E+00         0.00000E+00
    0.19678E-04        -0.64181E-01         0.00000E+00
    0.20422E-04        -0.59897E-01         0.00000E+00
    0.20859E-04        -0.55613E-01         0.00000E+00
    0.20991E-04        -0.51329E-01         0.00000E+00
    0.20821E-04        -0.47045E-01         0.00000E+00
    0.20348E-04        -0.42761E-01         0.00000E+00
    0.19574E-04        -0.38478E-01         0.00000E+00
    0.18500E-04        -0.34196E-01         0.00000E+00
    0.17129E-04        -0.29915E-01         0.00000E+00
    0.15467E-04        -0.25636E-01         0.00000E+00
    0.13521E-04        -0.21358E-01         0.00000E+00
    0.11302E-04        -0.17082E-01         0.00000E+00
    0.88226E-05        -0.12808E-01         0.00000E+00
    0.60987E-05        -0.85363E-02         0.00000E+00
    0.31500E-05        -0.42669E-02         0.00000E+00
    0.00000E+00         0.00000E+00         0.00000E+00
    0.39255E-04        -0.64180E-01         0.00000E+00
    0.40742E-04        -0.59896E-01         0.00000E+00
    0.41616E-04        -0.55612E-01         0.00000E+00
    0.41883E-04        -0.51328E-01         0.00000E+00
    0.41544E-04        -0.47044E-01         0.00000E+00
    0.40602E-04        -0.42760E-01         0.00000E+00
    0.39060E-04        -0.38478E-01         0.00000E+00
    0.36919E-04        -0.34196E-01         0.00000E+00
    0.34185E-04        -0.29915E-01         0.00000E+00
    0.30869E-04        -0.25635E-01         0.00000E+00
    0.26988E-04        -0.21358E-01         0.00000E+00
    0.22560E-04        -0.17082E-01         0.00000E+00
    0.17612E-04        -0.12808E-01         0.00000E+00
    0.12176E-04        -0.85362E-02         0.00000E+00
    0.62895E-05        -0.42668E-02         0.00000E+00
    0.00000E+00         0.00000E+00         0.00000E+00
    0.58625E-04        -0.64178E-01         0.00000E+00
    0.60855E-04        -0.59894E-01         0.00000E+00
    0.62170E-04        -0.55610E-01         0.00000E+00
    0.62574E-04        -0.51326E-01         0.00000E+00
    0.62073E-04        -0.47042E-01         0.00000E+00
    0.60669E-04        -0.42759E-01         0.00000E+00
    0.58369E-04        -0.38476E-01         0.00000E+00
    0.55173E-04        -0.34195E-01         0.00000E+00
    0.51092E-04        -0.29914E-01         0.00000E+00
    0.46141E-04        -0.25635E-01         0.00000E+00
    0.40345E-04        -0.21357E-01         0.00000E+00
    0.33731E-04        -0.17081E-01         0.00000E+00
    0.26337E-04        -0.12808E-01         0.00000E+00
    0.18210E-04        -0.85361E-02         0.00000E+00
    0.94083E-05        -0.42668E-02         0.00000E+00
    0.00000E+00         0.00000E+00         0.00000E+00
    0.77680E-04        -0.64175E-01         0.00000E+00
    0.80655E-04        -0.59891E-01         0.00000E+00
    0.82411E-04        -0.55608E-01         0.00000E+00
    0.82959E-04        -0.51324E-01         0.00000E+00
    0.82304E-04        -0.47040E-01         0.00000E+00
    0.80451E-04        -0.42757E-01         0.00000E+00
    0.77408E-04        -0.38475E-01         0.00000E+00
    0.73179E-04        -0.34193E-01         0.00000E+00
    0.67775E-04        -0.29913E-01         0.00000E+00
    0.61218E-04        -0.25634E-01         0.00000E+00
    0.53537E-04        -0.21357E-01         0.00000E+00
    0.44769E-04        -0.17081E-01         0.00000E+00
    0.34963E-04        -0.12807E-01         0.00000E+00
    0.24181E-04        -0.85359E-02         0.00000E+00
    0.12496E-04        -0.42667E-02         0.00000E+00
    0.00000E+00         0.00000E+00         0.00000E+00
    0.96307E-04        -0.64171E-01         0.00000E+00
    0.10003E-03        -0.59888E-01         0.00000E+00
    0.10223E-03        -0.55604E-01         0.00000E+00
    0.10293E-03        -0.51321E-01         0.00000E+00
    0.10213E-03        -0.47037E-01         0.00000E+00
    0.99847E-04        -0.42755E-01         0.00000E+00
    0.96084E-04        -0.38473E-01         0.00000E+00
    0.90850E-04        -0.34192E-01         0.00000E+00
    0.84158E-04        -0.29912E-01         0.00000E+00
    0.76032E-04        -0.25633E-01         0.00000E+00
    0.66508E-04        -0.21356E-01         0.00000E+00
    0.55631E-04        -0.17080E-01         0.00000E+00
    0.43459E-04        -0.12807E-01         0.00000E+00
    0.30066E-04        -0.85357E-02         0.00000E+00
    0.15542E-04        -0.42666E-02         0.00000E+00
    0.00000E+00         0.00000E+00         0.00000E+00
    0.11438E-03        -0.64166E-01         0.00000E+00
    0.11884E-03        -0.59883E-01         0.00000E+00
    0.12150E-03        -0.55600E-01         0.00000E+00
    0.12236E-03        -0.51317E-01         0.00000E+00
    0.12144E-03        -0.47034E-01         0.00000E+00
    0.11875E-03        -0.42752E-01         0.00000E+00
    0.11430E-03        -0.38470E-01         0.00000E+00
    0.10810E-03        -0.34189E-01         0.00000E+00
    0.10016E-03        -0.29910E-01         0.00000E+00
    0.90515E-04        -0.25632E-01         0.00000E+00
    0.79203E-04        -0.21355E-01         0.00000E+00
    0.66273E-04        -0.17080E-01         0.00000E+00
    0.51792E-04        -0.12807E-01         0.00000E+00
    0.35844E-04        -0.85355E-02         0.00000E+00
    0.18537E-04        -0.42666E-02         0.00000E+00
    0.00000E+00         0.00000E+00         0.00000E+00
    0.13178E-03        -0.64160E-01         0.00000E+00
    0.13698E-03        -0.59878E-01         0.00000E+00
    0.14009E-03        -0.55595E-01         0.00000E+00
    0.14113E-03        -0.51313E-01         0.00000E+00
    0.14011E-03        -0.47030E-01         0.00000E+00
    0.13704E-03        -0.42749E-01         0.00000E+00
    0.13194E-03        -0.38467E-01         0.00000E+00
    0.12482E-03        -0.34187E-01         0.00000E+00
    0.11570E-03        -0.29908E-01         0.00000E+00
    0.10460E-03        -0.25630E-01         0.00000E+00
    0.91562E-04        -0.21354E-01         0.00000E+00
    0.76648E-04        -0.17079E-01         0.00000E+00
    0.59928E-04        -0.12806E-01         0.00000E+00
    0.41496E-04        -0.85352E-02         0.00000E+00
    0.21471E-04        -0.42665E-02         0.00000E+00
    0.00000E+00         0.00000E+00         0.00000E+00
    0.14835E-03        -0.64153E-01         0.00000E+00
    0.15429E-03        -0.59872E-01         0.00000E+00
    0.15787E-03        -0.55590E-01         0.00000E+00
    0.15911E-03        -0.51308E-01         0.00000E+00
    0.15801E-03        -0.47026E-01         0.00000E+00
    0.15461E-03        -0.42745E-01         0.00000E+00
    0.14891E-03        -0.38464E-01         0.00000E+00
    0.14093E-03        -0.34185E-01         0.00000E+00
    0.13068E-03        -0.29906E-01         0.00000E+00
    0.11820E-03        -0.25629E-01         0.00000E+00
    0.10353E-03        -0.21353E-01         0.00000E+00
    0.86712E-04        -0.17078E-01         0.00000E+00
    0.67836E-04        -0.12806E-01         0.00000E+00
    0.46999E-04        -0.85350E-02         0.00000E+00
    0.24333E-04        -0.42664E-02         0.00000E+00
    0.00000E+00         0.00000E+00         0.00000E+00
    0.16394E-03        -0.64146E-01         0.00000E+00
    0.17061E-03        -0.59865E-01         0.00000E+00
    0.17467E-03        -0.55584E-01         0.00000E+00
    0.17613E-03        -0.51302E-01         0.00000E+00
    0.17501E-03        -0.47021E-01         0.00000E+00
    0.17132E-03        -0.42741E-01         0.00000E+00
    0.16508E-03        -0.38461E-01         0.00000E+00
    0.15631E-03        -0.34182E-01         0.00000E+00
    0.14503E-03        -0.29904E-01         0.00000E+00
    0.13126E-03        -0.25627E-01         0.00000E+00
    0.11504E-03        -0.21351E-01         0.00000E+00
    0.96417E-04        -0.17077E-01         0.00000E+00
    0.75480E-04        -0.12805E-01         0.00000E+00
    0.52332E-04        -0.85348E-02         0.00000E+00
    0.27113E-04        -0.42663E-02         0.00000E+00
    0.00000E+00         0.00000E+00         0.00000E+00
    0.17837E-03        -0.64137E-01         0.00000E+00
    0.18578E-03        -0.59857E-01         0.00000E+00
    0.19033E-03        -0.55577E-01         0.00000E+00
    0.19204E-03        -0.51296E-01         0.00000E+00
    0.19093E-03        -0.47016E-01         0.00000E+00
    0.18703E-03        -0.42736E-01         0.00000E+00
    0.18033E-03        -0.38457E-01         0.00000E+00
    0.17086E-03        -0.34179E-01         0.00000E+00
    0.15865E-03        -0.29901E-01         0.00000E+00
    0.14369E-03        -0.25625E-01         0.00000E+00
    0.12603E-03        -0.21350E-01         0.00000E+00
    0.10571E-03        -0.17077E-01         0.00000E+00
    0.82824E-04        -0.12805E-01         0.00000E+00
    0.57471E-04        -0.85346E-02         0.00000E+00
    0.29800E-04        -0.42663E-02         0.00000E+00
    0.00000E+00         0.00000E+00         0.00000E+00
    0.19146E-03        -0.64128E-01         0.00000E+00
    0.19959E-03        -0.59849E-01         0.00000E+00
    0.20465E-03        -0.55569E-01         0.00000E+00
    0.20666E-03        -0.51290E-01         0.00000E+00
    0.20564E-03        -0.47011E-01         0.00000E+00
    0.20159E-03        -0.42732E-01         0.00000E+00
    0.19453E-03        -0.38453E-01         0.00000E+00
    0.18447E-03        -0.34176E-01         0.00000E+00
    0.17142E-03        -0.29899E-01         0.00000E+00
    0.15541E-03        -0.25624E-01         0.00000E+00
    0.13643E-03        -0.21349E-01         0.00000E+00
    0.11455E-03        -0.17076E-01         0.00000E+00
    0.89831E-04        -0.12804E-01         0.00000E+00
    0.62391E-04        -0.85345E-02         0.00000E+00
    0.32381E-04        -0.42663E-02         0.00000E+00
    0.00000E+00         0.00000E+00         0.00000E+00
    0.20300E-03        -0.64118E-01         0.00000E+00
    0.21185E-03        -0.59840E-01         0.00000E+00
    0.21745E-03        -0.55561E-01         0.00000E+00
    0.21981E-03        -0.51283E-01         0.00000E+00
    0.21894E-03        -0.47005E-01         0.00000E+00
    0.21484E-03        -0.42727E-01         0.00000E+00
    0.20753E-03        -0.38449E-01         0.00000E+00
    0.19700E-03        -0.34173E-01         0.00000E+00
    0.18326E-03        -0.29897E-01         0.00000E+00
    0.16632E-03        -0.25622E-01         0.00000E+00
    0.14617E-03        -0.21348E-01         0.00000E+00
    0.12286E-03        -0.17076E-01         0.00000E+00
    0.96457E-04        -0.12804E-01         0.00000E+00
    0.67065E-04        -0.85345E-02         0.00000E+00
    0.34843E-04        -0.42664E-02         0.00000E+00
    0.00000E+00         0.00000E+00         0.00000E+00
    0.21277E-03        -0.64107E-01         0.00000E+00
    0.22234E-03        -0.59830E-01         0.00000E+00
    0.22851E-03        -0.55553E-01         0.00000E+00
    0.23128E-03        -0.51276E-01         0.00000E+00
    0.23065E-03        -0.46999E-01         0.00000E+00
    0.22662E-03        -0.42722E-01         0.00000E+00
    0.21919E-03        -0.38445E-01         0.00000E+00
    0.20833E-03        -0.34170E-01         0.00000E+00
    0.19405E-03        -0.29895E-01         0.00000E+00
    0.17633E-03        -0.25620E-01         0.00000E+00
    0.15517E-03        -0.21347E-01         0.00000E+00
    0.13059E-03        -0.17075E-01         0.00000E+00
    0.10265E-03        -0.12804E-01         0.00000E+00
    0.71460E-04        -0.85346E-02         0.00000E+00
    0.37170E-04        -0.42665E-02         0.00000E+00
    0.00000E+00         0.00000E+00         0.00000E+00
    0.22056E-03        -0.64095E-01         0.00000E+00
    0.23083E-03        -0.59820E-01         0.00000E+00
    0.23761E-03        -0.55544E-01         0.00000E+00
    0.24086E-03        -0.51268E-01         0.00000E+00
    0.24058E-03        -0.46992E-01         0.00000E+00
    0.23674E-03        -0.42717E-01         0.00000E+00
    0.22933E-03        -0.38441E-01         0.00000E+00
    0.21831E-03        -0.34167E-01         0.00000E+00
    0.20365E-03        -0.29893E-01         0.00000E+00
    0.18533E-03        -0.25619E-01         0.00000E+00
    0.16332E-03        -0.21347E-01         0.00000E+00
    0.13766E-03        -0.17075E-01         0.00000E+00
    0.10836E-03        -0.12804E-01         0.00000E+00
    0.75539E-04        -0.85349E-02         0.00000E+00
    0.39344E-04        -0.42668E-02         0.00000E+00
    0.00000E+00         0.00000E+00         0.00000E+00
    0.22614E-03        -0.64083E-01         0.00000E+00
    0.23710E-03        -0.59809E-01         0.00000E+00
    0.24451E-03        -0.55535E-01         0.00000E+00
    0.24833E-03        -0.51260E-01         0.00000E+00
    0.24851E-03        -0.46986E-01         0.00000E+00
    0.24501E-03        -0.42712E-01         0.00000E+00
    0.23778E-03        -0.38438E-01         0.00000E+00
    0.22677E-03        -0.34164E-01         0.00000E+00
    0.21192E-03        -0.29891E-01         0.00000E+00
    0.19319E-03        -0.25618E-01         0.00000E+00
    0.17054E-03        -0.21346E-01         0.00000E+00
    0.14397E-03        -0.17075E-01         0.00000E+00
    0.11352E-03        -0.12805E-01         0.00000E+00
    0.79256E-04        -0.85353E-02         0.00000E+00
    0.41343E-04        -0.42671E-02         0.00000E+00
    0.00000E+00         0.00000E+00         0.00000E+00
    0.22929E-03        -0.64070E-01         0.00000E+00
    0.24093E-03        -0.59798E-01         0.00000E+00
    0.24902E-03        -0.55525E-01         0.00000E+00
    0.25348E-03        -0.51252E-01         0.00000E+00
    0.25424E-03        -0.46979E-01         0.00000E+00
    0.25122E-03        -0.42706E-01         0.00000E+00
    0.24435E-03        -0.38434E-01         0.00000E+00
    0.23354E-03        -0.34161E-01         0.00000E+00
    0.21870E-03        -0.29889E-01         0.00000E+00
    0.19977E-03        -0.25617E-01         0.00000E+00
    0.17669E-03        -0.21346E-01         0.00000E+00
    0.14943E-03        -0.17075E-01         0.00000E+00
    0.11803E-03        -0.12805E-01         0.00000E+00
    0.82559E-04        -0.85360E-02         0.00000E+00
    0.43141E-04        -0.42675E-02         0.00000E+00
    0.00000E+00         0.00000E+00         0.00000E+00
    0.22982E-03        -0.64056E-01         0.00000E+00
    0.24210E-03        -0.59786E-01         0.00000E+00
    0.25090E-03        -0.55515E-01         0.00000E+00
    0.25608E-03        -0.51244E-01         0.00000E+00
    0.25754E-03        -0.46973E-01         0.00000E+00
    0.25516E-03        -0.42701E-01         0.00000E+00
    0.24882E-03        -0.38430E-01         0.00000E+00
    0.23841E-03        -0.34159E-01         0.00000E+00
    0.22380E-03        -0.29888E-01         0.00000E+00
    0.20489E-03        -0.25617E-01         0.00000E+00
    0.18161E-03        -0.21346E-01         0.00000E+00
    0.15392E-03        -0.17076E-01         0.00000E+00
    0.12183E-03        -0.12806E-01         0.00000E+00
    0.85384E-04        -0.85369E-02         0.00000E+00
    0.44709E-04        -0.42681E-02         0.00000E+00
    0.00000E+00         0.00000E+00         0.00000E+00
    0.22757E-03        -0.64042E-01         0.00000E+00
    0.24045E-03        -0.59774E-01         0.00000E+00
    0.24997E-03        -0.55505E-01         0.00000E+00
    0.25594E-03        -0.51235E-01         0.00000E+00
    0.25820E-03        -0.46966E-01         0.00000E+00
    0.25660E-03        -0.42696E-01         0.00000E+00
    0.25097E-03        -0.38426E-01         0.00000E+00
    0.24114E-03        -0.34156E-01         0.00000E+00
    0.22697E-03        -0.29887E-01         0.00000E+00
    0.20834E-03        -0.25617E-01         0.00000E+00
    0.18513E-03        -0.21347E-01         0.00000E+00
    0.15728E-03        -0.17077E-01         0.00000E+00
    0.12478E-03        -0.12807E-01         0.00000E+00
    0.87661E-04        -0.85380E-02         0.00000E+00
    0.46011E-04        -0.42688E-02         0.00000E+00
    0.00000E+00         0.00000E+00         0.00000E+00
    0.22244E-03        -0.64028E-01         0.00000E+00
    0.23585E-03        -0.59761E-01         0.00000E+00
    0.24607E-03        -0.55494E-01         0.00000E+00
    0.25286E-03        -0.51226E-01         0.00000E+00
    0.25601E-03        -0.46959E-01         0.00000E+00
    0.25530E-03        -0.42691E-01         0.00000E+00
    0.25052E-03        -0.38423E-01         0.00000E+00
    0.24147E-03        -0.34154E-01         0.00000E+00
    0.22797E-03        -0.29886E-01         0.00000E+00
    0.20986E-03        -0.25617E-01         0.00000E+00
    0.18701E-03        -0.21348E-01         0.00000E+00
    0.15933E-03        -0.17079E-01         0.00000E+00
    0.12676E-03        -0.12809E-01         0.00000E+00
    0.89304E-04        -0.85395E-02         0.00000E+00
    0.47009E-04        -0.42697E-02         0.00000E+00
    0.00000E+00         0.00000E+00         0.00000E+00
    0.21437E-03        -0.64012E-01         0.00000E+00
    0.22821E-03        -0.59748E-01         0.00000E+00
    0.23909E-03        -0.55483E-01         0.00000E+00
    0.24669E-03        -0.51217E-01         0.00000E+00
    0.25076E-03        -0.46952E-01         0.00000E+00
    0.25101E-03        -0.42686E-01         0.00000E+00
    0.24721E-03        -0.38419E-01         0.00000E+00
    0.23910E-03        -0.34153E-01         0.00000E+00
    0.22648E-03        -0.29885E-01         0.00000E+00
    0.20916E-03        -0.25618E-01         0.00000E+00
    0.18699E-03        -0.21349E-01         0.00000E+00
    0.15984E-03        -0.17081E-01         0.00000E+00
    0.12760E-03        -0.12811E-01         0.00000E+00
    0.90208E-04        -0.85412E-02         0.00000E+00
    0.47655E-04        -0.42708E-02         0.00000E+00
    0.00000E+00         0.00000E+00         0.00000E+00
    0.20341E-03        -0.63997E-01         0.00000E+00
    0.21754E-03        -0.59734E-01         0.00000E+00
    0.22895E-03        -0.55471E-01         0.00000E+00
    0.23731E-03        -0.51208E-01         0.00000E+00
    0.24226E-03        -0.46945E-01         0.00000E+00
    0.24350E-03        -0.42681E-01         0.00000E+00
    0.24073E-03        -0.38416E-01         0.00000E+00
    0.23369E-03        -0.34151E-01         0.00000E+00
    0.22215E-03        -0.29885E-01         0.00000E+00
    0.20591E-03        -0.25619E-01         0.00000E+00
    0.18477E-03        -0.21351E-01         0.00000E+00
    0.15856E-03        -0.17083E-01         0.00000E+00
    0.12710E-03        -0.12814E-01         0.00000E+00
    0.90242E-04        -0.85433E-02         0.00000E+00
    0.47888E-04        -0.42720E-02         0.00000E+00
    0.00000E+00         0.00000E+00         0.00000E+00
    0.18963E-03        -0.63982E-01         0.00000E+00
    0.20387E-03        -0.59721E-01         0.00000E+00
    0.21567E-03        -0.55460E-01         0.00000E+00
    0.22462E-03        -0.51199E-01         0.00000E+00
    0.23035E-03        -0.46937E-01         0.00000E+00
    0.23251E-03        -0.42676E-01         0.00000E+00
    0.23077E-03        -0.38413E-01         0.00000E+00
    0.22487E-03        -0.34150E-01         0.00000E+00
    0.21460E-03        -0.29886E-01         0.00000E+00
    0.19971E-03        -0.25620E-01         0.00000E+00
    0.17999E-03        -0.21354E-01         0.00000E+00
    0.15518E-03        -0.17086E-01         0.00000E+00
    0.12502E-03        -0.12816E-01         0.00000E+00
    0.89245E-04        -0.85456E-02         0.00000E+00
    0.47632E-04        -0.42734E-02         0.00000E+00
    0.00000E+00         0.00000E+00         0.00000E+00
    0.17317E-03        -0.63967E-01         0.00000E+00
    0.18731E-03        -0.59708E-01         0.00000E+00
    0.19927E-03        -0.55449E-01         0.00000E+00
    0.20861E-03        -0.51190E-01         0.00000E+00
    0.21491E-03        -0.46930E-01         0.00000E+00
    0.21781E-03        -0.42670E-01         0.00000E+00
    0.21701E-03        -0.38410E-01         0.00000E+00
    0.21229E-03        -0.34149E-01         0.00000E+00
    0.20341E-03        -0.29886E-01         0.00000E+00
    0.19015E-03        -0.25622E-01         0.00000E+00
    0.17224E-03        -0.21357E-01         0.00000E+00
    0.14934E-03        -0.17089E-01         0.00000E+00
    0.12106E-03        -0.12820E-01         0.00000E+00
    0.87013E-04        -0.85481E-02         0.00000E+00
    0.46783E-04        -0.42749E-02         0.00000E+00
    0.00000E+00         0.00000E+00         0.00000E+00
    0.15421E-03        -0.63952E-01         0.00000E+00
    0.16798E-03        -0.59694E-01         0.00000E+00
    0.17981E-03        -0.55437E-01         0.00000E+00
    0.18924E-03        -0.51180E-01         0.00000E+00
    0.19581E-03        -0.46923E-01         0.00000E+00
    0.19920E-03        -0.42666E-01         0.00000E+00
    0.19917E-03        -0.38407E-01         0.00000E+00
    0.19557E-03        -0.34148E-01         0.00000E+00
    0.18819E-03        -0.29887E-01         0.00000E+00
    0.17681E-03        -0.25624E-01         0.00000E+00
    0.16109E-03        -0.21359E-01         0.00000E+00
    0.14061E-03        -0.17092E-01         0.00000E+00
    0.11487E-03        -0.12823E-01         0.00000E+00
    0.83281E-04        -0.85509E-02         0.00000E+00
    0.45204E-04        -0.42765E-02         0.00000E+00
    0.00000E+00         0.00000E+00         0.00000E+00
    0.13298E-03        -0.63938E-01         0.00000E+00
    0.14603E-03        -0.59682E-01         0.00000E+00
    0.15737E-03        -0.55427E-01         0.00000E+00
    0.16649E-03        -0.51172E-01         0.00000E+00
    0.17295E-03        -0.46917E-01         0.00000E+00
    0.17650E-03        -0.42661E-01         0.00000E+00
    0.17702E-03        -0.38405E-01         0.00000E+00
    0.17443E-03        -0.34147E-01         0.00000E+00
    0.16859E-03        -0.29888E-01         0.00000E+00
    0.15925E-03        -0.25626E-01         0.00000E+00
    0.14605E-03        -0.21362E-01         0.00000E+00
    0.12852E-03        -0.17096E-01         0.00000E+00
    0.10600E-03        -0.12826E-01         0.00000E+00
    0.77699E-04        -0.85537E-02         0.00000E+00
    0.42703E-04        -0.42782E-02         0.00000E+00
    0.00000E+00         0.00000E+00         0.00000E+00
    0.10971E-03        -0.63924E-01         0.00000E+00
    0.12161E-03        -0.59670E-01         0.00000E+00
    0.13199E-03        -0.55417E-01         0.00000E+00
    0.14030E-03        -0.51164E-01         0.00000E+00
    0.14620E-03        -0.46911E-01         0.00000E+00
    0.14958E-03        -0.42657E-01         0.00000E+00
    0.15043E-03        -0.38402E-01         0.00000E+00
    0.14872E-03        -0.34146E-01         0.00000E+00
    0.14435E-03        -0.29888E-01         0.00000E+00
    0.13711E-03        -0.25628E-01         0.00000E+00
    0.12667E-03        -0.21365E-01         0.00000E+00
    0.11250E-03        -0.17099E-01         0.00000E+00
    0.93879E-04        -0.12829E-01         0.00000E+00
    0.69803E-04        -0.85565E-02         0.00000E+00
    0.39011E-04        -0.42800E-02         0.00000E+00
    0.00000E+00         0.00000E+00         0.00000E+00
    0.84646E-04        -0.63913E-01         0.00000E+00
    0.94836E-04        -0.59660E-01         0.00000E+00
    0.10365E-03        -0.55408E-01         0.00000E+00
    0.11059E-03        -0.51157E-01         0.00000E+00
    0.11549E-03        -0.46906E-01         0.00000E+00
    0.11840E-03        -0.42654E-01         0.00000E+00
    0.11936E-03        -0.38400E-01         0.00000E+00
    0.11836E-03        -0.34145E-01         0.00000E+00
    0.11534E-03        -0.29888E-01         0.00000E+00
    0.11015E-03        -0.25629E-01         0.00000E+00
    0.10252E-03        -0.21367E-01         0.00000E+00
    0.91996E-04        -0.17101E-01         0.00000E+00
    0.77849E-04        -0.12832E-01         0.00000E+00
    0.58967E-04        -0.85592E-02         0.00000E+00
    0.33736E-04        -0.42818E-02         0.00000E+00
    0.00000E+00         0.00000E+00         0.00000E+00
    0.57993E-04        -0.63903E-01         0.00000E+00
    0.65717E-04        -0.59652E-01         0.00000E+00
    0.72248E-04        -0.55402E-01         0.00000E+00
    0.77273E-04        -0.51152E-01         0.00000E+00
    0.80829E-04        -0.46902E-01         0.00000E+00
    0.83007E-04        -0.42651E-01         0.00000E+00
    0.83855E-04        -0.38399E-01         0.00000E+00
    0.83381E-04        -0.34145E-01         0.00000E+00
    0.81550E-04        -0.29888E-01         0.00000E+00
    0.78270E-04        -0.25630E-01         0.00000E+00
    0.73365E-04        -0.21368E-01         0.00000E+00
    0.66519E-04        -0.17103E-01         0.00000E+00
    0.57177E-04        -0.12835E-01         0.00000E+00
    0.44364E-04        -0.85616E-02         0.00000E+00
    0.26286E-04        -0.42836E-02         0.00000E+00
    0.00000E+00         0.00000E+00         0.00000E+00
    0.29807E-04        -0.63897E-01         0.00000E+00
    0.34100E-04        -0.59647E-01         0.00000E+00
    0.37695E-04        -0.55398E-01         0.00000E+00
    0.40388E-04        -0.51149E-01         0.00000E+00
    0.42303E-04        -0.46899E-01         0.00000E+00
    0.43503E-04        -0.42649E-01         0.00000E+00
    0.44024E-04        -0.38397E-01         0.00000E+00
    0.43876E-04        -0.34144E-01         0.00000E+00
    0.43047E-04        -0.29888E-01         0.00000E+00
    0.41497E-04        -0.25630E-01         0.00000E+00
    0.39144E-04        -0.21369E-01         0.00000E+00
    0.35834E-04        -0.17104E-01         0.00000E+00
    0.31283E-04        -0.12836E-01         0.00000E+00
    0.24931E-04        -0.85634E-02         0.00000E+00
    0.15656E-04        -0.42853E-02         0.00000E+00
    0.00000E+00         0.00000E+00         0.00000E+00
    0.00000E+00        -0.63895E-01         0.00000E+00
    0.00000E+00        -0.59645E-01         0.00000E+00
    0.00000E+00        -0.55396E-01         0.00000E+00
    0.00000E+00        -0.51148E-01         0.00000E+00
    0.00000E+00        -0.46898E-01         0.00000E+00
    0.00000E+00        -0.42648E-01         0.00000E+00
    0.00000E+00        -0.38397E-01         0.00000E+00
    0.00000E+00        -0.34143E-01         0.00000E+00
    0.00000E+00        -0.29888E-01         0.00000E+00
    0.00000E+00        -0.25630E-01         0.00000E+00
    0.00000E+00        -0.21369E-01         0.00000E+00
    0.00000E+00        -0.17105E-01         0.00000E+00
    0.00000E+00        -0.12837E-01         0.00000E+00
    0.00000E+00        -0.85642E-02         0.00000E+00
    0.00000E+00        -0.42862E-02         0.00000E+00
    0.00000E+00         0.00000E+00         0.00000E+00
CELL_DATA        450
VECTORS vDarcy double 
    0.26381E-13        -0.24320E-19         0.00000E+00
    0.26381E-13        -0.65709E-19         0.00000E+00
    0.26381E-13        -0.98274E-19         0.00000E+00
    0.26381E-13        -0.11236E-18         0.00000E+00
    0.26381E-13        -0.11766E-18         0.00000E+00
    0.26381E-13        -0.10954E-18         0.00000E+00
    0.26381E-13        -0.96037E-19         0.00000E+00
    0.26381E-13        -0.69769E-19         0.00000E+00
    0.26381E-13        -0.40188E-19         0.00000E+00
    0.26381E-13        -0.10606E-19         0.00000E+00
    0.26381E-13         0.16738E-19         0.00000E+00
    0.26381E-13         0.37951E-19         0.00000E+00
    0.26381E-13         0.49303E-19         0.00000E+00
    0.26381E-13         0.40851E-19         0.00000E+00
    0.26381E-13         0.14169E-19         0.00000E+00
    0.79070E-13        -0.25356E-19         0.00000E+00
    0.79070E-13        -0.67242E-19         0.00000E+00
    0.79070E-13        -0.10184E-18         0.00000E+00
    0.79070E-13        -0.11758E-18         0.00000E+00
    0.79070E-13        -0.12404E-18         0.00000E+00
    0.79070E-13        -0.11754E-18         0.00000E+00
    0.79070E-13        -0.10465E-18         0.00000E+00
    0.79070E-13        -0.76398E-19         0.00000E+00
    0.79070E-13        -0.48971E-19         0.00000E+00
    0.79070E-13        -0.17318E-19         0.00000E+00
    0.79070E-13         0.95291E-20         0.00000E+00
    0.79070E-13         0.33973E-19         0.00000E+00
    0.79070E-13         0.43999E-19         0.00000E+00
    0.79070E-13         0.39111E-19         0.00000E+00
    0.79070E-13         0.17774E-19         0.00000E+00
    0.13154E-12        -0.26640E-19         0.00000E+00
    0.13154E-12        -0.73498E-19         0.00000E+00
    0.13154E-12        -0.10983E-18         0.00000E+00
    0.13154E-12        -0.12918E-18         0.00000E+00
    0.13154E-12        -0.13954E-18         0.00000E+00
    0.13154E-12        -0.13299E-18         0.00000E+00
    0.13154E-12        -0.11733E-18         0.00000E+00
    0.13154E-12        -0.92308E-19         0.00000E+00
    0.13154E-12        -0.64135E-19         0.00000E+00
    0.13154E-12        -0.31736E-19         0.00000E+00
    0.13154E-12        -0.12429E-20         0.00000E+00
    0.13154E-12         0.23284E-19         0.00000E+00
    0.13154E-12         0.37619E-19         0.00000E+00
    0.13154E-12         0.34553E-19         0.00000E+00
    0.13154E-12         0.15992E-19         0.00000E+00
    0.18365E-12        -0.30410E-19         0.00000E+00
    0.18365E-12        -0.82572E-19         0.00000E+00
    0.18365E-12        -0.12102E-18         0.00000E+00
    0.18365E-12        -0.14658E-18         0.00000E+00
    0.18365E-12        -0.15980E-18         0.00000E+00
    0.18365E-12        -0.15557E-18         0.00000E+00
    0.18365E-12        -0.13958E-18         0.00000E+00
    0.18365E-12        -0.11364E-18         0.00000E+00
    0.18365E-12        -0.85679E-19         0.00000E+00
    0.18365E-12        -0.51706E-19         0.00000E+00
    0.18365E-12        -0.18147E-19         0.00000E+00
    0.18365E-12         0.87833E-20         0.00000E+00
    0.18365E-12         0.26267E-19         0.00000E+00
    0.18365E-12         0.29002E-19         0.00000E+00
    0.18365E-12         0.11683E-19         0.00000E+00
    0.23526E-12        -0.35713E-19         0.00000E+00
    0.23526E-12        -0.92349E-19         0.00000E+00
    0.23526E-12        -0.13589E-18         0.00000E+00
    0.23526E-12        -0.16784E-18         0.00000E+00
    0.23526E-12        -0.18114E-18         0.00000E+00
    0.23526E-12        -0.18304E-18         0.00000E+00
    0.23526E-12        -0.16871E-18         0.00000E+00
    0.23526E-12        -0.14078E-18         0.00000E+00
    0.23526E-12        -0.11244E-18         0.00000E+00
    0.23526E-12        -0.75818E-19         0.00000E+00
    0.23526E-12        -0.39939E-19         0.00000E+00
    0.23526E-12        -0.87005E-20         0.00000E+00
    0.23526E-12         0.12761E-19         0.00000E+00
    0.23526E-12         0.23118E-19         0.00000E+00
    0.23526E-12         0.10523E-19         0.00000E+00
    0.28623E-12        -0.36459E-19         0.00000E+00
    0.28623E-12        -0.10378E-18         0.00000E+00
    0.28623E-12        -0.15429E-18         0.00000E+00
    0.28623E-12        -0.19191E-18         0.00000E+00
    0.28623E-12        -0.20902E-18         0.00000E+00
    0.28623E-12        -0.21337E-18         0.00000E+00
    0.28623E-12        -0.20106E-18         0.00000E+00
    0.28623E-12        -0.17223E-18         0.00000E+00
    0.28623E-12        -0.14136E-18         0.00000E+00
    0.28623E-12        -0.10573E-18         0.00000E+00
    0.28623E-12        -0.64715E-19         0.00000E+00
    0.28623E-12        -0.27924E-19         0.00000E+00
    0.28623E-12        -0.62146E-21         0.00000E+00
    0.28623E-12         0.14252E-19         0.00000E+00
    0.28623E-12         0.71261E-20         0.00000E+00
    0.33641E-12        -0.40809E-19         0.00000E+00
    0.33641E-12        -0.11418E-18         0.00000E+00
    0.33641E-12        -0.17260E-18         0.00000E+00
    0.33641E-12        -0.21660E-18         0.00000E+00
    0.33641E-12        -0.23922E-18         0.00000E+00
    0.33641E-12        -0.24403E-18         0.00000E+00
    0.33641E-12        -0.23541E-18         0.00000E+00
    0.33641E-12        -0.20856E-18         0.00000E+00
    0.33641E-12        -0.17351E-18         0.00000E+00
    0.33641E-12        -0.13482E-18         0.00000E+00
    0.33641E-12        -0.92142E-19         0.00000E+00
    0.33641E-12        -0.47811E-19         0.00000E+00
    0.33641E-12        -0.14169E-19         0.00000E+00
    0.33641E-12         0.56346E-20         0.00000E+00
    0.33641E-12         0.51788E-20         0.00000E+00
    0.38566E-12        -0.44579E-19         0.00000E+00
    0.38566E-12        -0.12603E-18         0.00000E+00
    0.38566E-12        -0.19120E-18         0.00000E+00
    0.38566E-12        -0.23993E-18         0.00000E+00
    0.38566E-12        -0.26781E-18         0.00000E+00
    0.38566E-12        -0.27560E-18         0.00000E+00
    0.38566E-12        -0.26756E-18         0.00000E+00
    0.38566E-12        -0.24382E-18         0.00000E+00
    0.38566E-12        -0.20666E-18         0.00000E+00
    0.38566E-12        -0.16332E-18         0.00000E+00
    0.38566E-12        -0.11725E-18         0.00000E+00
    0.38566E-12        -0.69189E-19         0.00000E+00
    0.38566E-12        -0.27427E-19         0.00000E+00
    0.38566E-12        -0.13258E-20         0.00000E+00
    0.38566E-12         0.28173E-20         0.00000E+00
    0.43386E-12        -0.46941E-19         0.00000E+00
    0.43386E-12        -0.13689E-18         0.00000E+00
    0.43386E-12        -0.20761E-18         0.00000E+00
    0.43386E-12        -0.26130E-18         0.00000E+00
    0.43386E-12        -0.29408E-18         0.00000E+00
    0.43386E-12        -0.30671E-18         0.00000E+00
    0.43386E-12        -0.29706E-18         0.00000E+00
    0.43386E-12        -0.27361E-18         0.00000E+00
    0.43386E-12        -0.23690E-18         0.00000E+00
    0.43386E-12        -0.18967E-18         0.00000E+00
    0.43386E-12        -0.13647E-18         0.00000E+00
    0.43386E-12        -0.87502E-19         0.00000E+00
    0.43386E-12        -0.40602E-19         0.00000E+00
    0.43386E-12        -0.81204E-20         0.00000E+00
    0.43386E-12         0.11601E-20         0.00000E+00
    0.48087E-12        -0.50463E-19         0.00000E+00
    0.48087E-12        -0.14256E-18         0.00000E+00
    0.48087E-12        -0.21867E-18         0.00000E+00
    0.48087E-12        -0.27916E-18         0.00000E+00
    0.48087E-12        -0.31313E-18         0.00000E+00
    0.48087E-12        -0.33136E-18         0.00000E+00
    0.48087E-12        -0.32150E-18         0.00000E+00
    0.48087E-12        -0.29979E-18         0.00000E+00
    0.48087E-12        -0.25878E-18         0.00000E+00
    0.48087E-12        -0.21047E-18         0.00000E+00
    0.48087E-12        -0.15437E-18         0.00000E+00
    0.48087E-12        -0.99185E-19         0.00000E+00
    0.48087E-12        -0.48350E-19         0.00000E+00
    0.48087E-12        -0.13465E-19         0.00000E+00
    0.48087E-12         0.49717E-21         0.00000E+00
    0.52657E-12        -0.52203E-19         0.00000E+00
    0.52657E-12        -0.14443E-18         0.00000E+00
    0.52657E-12        -0.22476E-18         0.00000E+00
    0.52657E-12        -0.28550E-18         0.00000E+00
    0.52657E-12        -0.32436E-18         0.00000E+00
    0.52657E-12        -0.34338E-18         0.00000E+00
    0.52657E-12        -0.33650E-18         0.00000E+00
    0.52657E-12        -0.31483E-18         0.00000E+00
    0.52657E-12        -0.27261E-18         0.00000E+00
    0.52657E-12        -0.22228E-18         0.00000E+00
    0.52657E-12        -0.16547E-18         0.00000E+00
    0.52657E-12        -0.10552E-18         0.00000E+00
    0.52657E-12        -0.51043E-19         0.00000E+00
    0.52657E-12        -0.14335E-19         0.00000E+00
    0.52657E-12        -0.13258E-20         0.00000E+00
    0.57082E-12        -0.50214E-19         0.00000E+00
    0.57082E-12        -0.14178E-18         0.00000E+00
    0.57082E-12        -0.22083E-18         0.00000E+00
    0.57082E-12        -0.28082E-18         0.00000E+00
    0.57082E-12        -0.32059E-18         0.00000E+00
    0.57082E-12        -0.34139E-18         0.00000E+00
    0.57082E-12        -0.33857E-18         0.00000E+00
    0.57082E-12        -0.31367E-18         0.00000E+00
    0.57082E-12        -0.27394E-18         0.00000E+00
    0.57082E-12        -0.22286E-18         0.00000E+00
    0.57082E-12        -0.16572E-18         0.00000E+00
    0.57082E-12        -0.10548E-18         0.00000E+00
    0.57082E-12        -0.49717E-19         0.00000E+00
    0.57082E-12        -0.11518E-19         0.00000E+00
    0.57082E-12         0.00000E+00         0.00000E+00
    0.61350E-12        -0.45077E-19         0.00000E+00
    0.61350E-12        -0.13291E-18         0.00000E+00
    0.61350E-12        -0.20243E-18         0.00000E+00
    0.61350E-12        -0.26209E-18         0.00000E+00
    0.61350E-12        -0.29830E-18         0.00000E+00
    0.61350E-12        -0.32051E-18         0.00000E+00
    0.61350E-12        -0.31661E-18         0.00000E+00
    0.61350E-12        -0.29478E-18         0.00000E+00
    0.61350E-12        -0.25840E-18         0.00000E+00
    0.61350E-12        -0.20923E-18         0.00000E+00
    0.61350E-12        -0.15363E-18         0.00000E+00
    0.61350E-12        -0.97197E-19         0.00000E+00
    0.61350E-12        -0.43419E-19         0.00000E+00
    0.61350E-12        -0.76233E-20         0.00000E+00
    0.61350E-12         0.25687E-20         0.00000E+00
    0.65450E-12        -0.36873E-19         0.00000E+00
    0.65450E-12        -0.11103E-18         0.00000E+00
    0.65450E-12        -0.17020E-18         0.00000E+00
    0.65450E-12        -0.21904E-18         0.00000E+00
    0.65451E-12        -0.25422E-18         0.00000E+00
    0.65451E-12        -0.27079E-18         0.00000E+00
    0.65451E-12        -0.27096E-18         0.00000E+00
    0.65451E-12        -0.25509E-18         0.00000E+00
    0.65451E-12        -0.22373E-18         0.00000E+00
    0.65451E-12        -0.17977E-18         0.00000E+00
    0.65451E-12        -0.12868E-18         0.00000E+00
    0.65451E-12        -0.76813E-19         0.00000E+00
    0.65451E-12        -0.31985E-19         0.00000E+00
    0.65451E-12         0.00000E+00         0.00000E+00
    0.65451E-12         0.47645E-20         0.00000E+00
    0.69371E-12        -0.25397E-19         0.00000E+00
    0.69371E-12        -0.74907E-19         0.00000E+00
    0.69371E-12        -0.11642E-18         0.00000E+00
    0.69371E-12        -0.15014E-18         0.00000E+00
    0.69371E-12        -0.17981E-18         0.00000E+00
    0.69371E-12        -0.19278E-18         0.00000E+00
    0.69372E-12        -0.19762E-18         0.00000E+00
    0.69372E-12        -0.18718E-18         0.00000E+00
    0.69372E-12        -0.16448E-18         0.00000E+00
    0.69372E-12        -0.13076E-18         0.00000E+00
    0.69372E-12        -0.89739E-19         0.00000E+00
    0.69372E-12        -0.48018E-19         0.00000E+00
    0.69372E-12        -0.11559E-19         0.00000E+00
    0.69371E-12         0.81204E-20         0.00000E+00
    0.69371E-12         0.75404E-20         0.00000E+00
    0.73102E-12        -0.79547E-20         0.00000E+00
    0.73102E-12        -0.20591E-19         0.00000E+00
    0.73102E-12        -0.37329E-19         0.00000E+00
    0.73102E-12        -0.54357E-19         0.00000E+00
    0.73102E-12        -0.67781E-19         0.00000E+00
    0.73102E-12        -0.80790E-19         0.00000E+00
    0.73102E-12        -0.86756E-19         0.00000E+00
    0.73102E-12        -0.84726E-19         0.00000E+00
    0.73102E-12        -0.77973E-19         0.00000E+00
    0.73102E-12        -0.61483E-19         0.00000E+00
    0.73102E-12        -0.37371E-19         0.00000E+00
    0.73102E-12        -0.11683E-19         0.00000E+00
    0.73102E-12         0.99434E-20         0.00000E+00
    0.73102E-12         0.18975E-19         0.00000E+00
    0.73102E-12         0.10772E-19         0.00000E+00
    0.76633E-12         0.16448E-19         0.00000E+00
    0.76633E-12         0.50545E-19         0.00000E+00
    0.76633E-12         0.68692E-19         0.00000E+00
    0.76633E-12         0.80873E-19         0.00000E+00
    0.76633E-12         0.81411E-19         0.00000E+00
    0.76633E-12         0.75570E-19         0.00000E+00
    0.76633E-12         0.65129E-19         0.00000E+00
    0.76633E-12         0.52120E-19         0.00000E+00
    0.76633E-12         0.41845E-19         0.00000E+00
    0.76633E-12         0.26516E-19         0.00000E+00
    0.76633E-12         0.26847E-19         0.00000E+00
    0.76633E-12         0.25604E-19         0.00000E+00
    0.76633E-12         0.28753E-19         0.00000E+00
    0.76633E-12         0.28587E-19         0.00000E+00
    0.76633E-12         0.12429E-19         0.00000E+00
    0.79953E-12         0.48059E-19         0.00000E+00
    0.79953E-12         0.13921E-18         0.00000E+00
    0.79953E-12         0.20434E-18         0.00000E+00
    0.79953E-12         0.25517E-18         0.00000E+00
    0.79953E-12         0.27593E-18         0.00000E+00
    0.79953E-12         0.27908E-18         0.00000E+00
    0.79953E-12         0.25956E-18         0.00000E+00
    0.79953E-12         0.22716E-18         0.00000E+00
    0.79953E-12         0.18735E-18         0.00000E+00
    0.79953E-12         0.13830E-18         0.00000E+00
    0.79953E-12         0.99682E-19         0.00000E+00
    0.79953E-12         0.63803E-19         0.00000E+00
    0.79953E-12         0.43544E-19         0.00000E+00
    0.79953E-12         0.28339E-19         0.00000E+00
    0.79953E-12         0.11062E-19         0.00000E+00
    0.83054E-12         0.86880E-19         0.00000E+00
    0.83054E-12         0.24585E-18         0.00000E+00
    0.83054E-12         0.37486E-18         0.00000E+00
    0.83054E-12         0.46651E-18         0.00000E+00
    0.83054E-12         0.51987E-18         0.00000E+00
    0.83054E-12         0.52948E-18         0.00000E+00
    0.83054E-12         0.50023E-18         0.00000E+00
    0.83054E-12         0.44107E-18         0.00000E+00
    0.83054E-12         0.35763E-18         0.00000E+00
    0.83054E-12         0.26632E-18         0.00000E+00
    0.83054E-12         0.17492E-18         0.00000E+00
    0.83054E-12         0.98605E-19         0.00000E+00
    0.83054E-12         0.49095E-19         0.00000E+00
    0.83054E-12         0.17649E-19         0.00000E+00
    0.83054E-12         0.60903E-20         0.00000E+00
    0.85928E-12         0.13026E-18         0.00000E+00
    0.85928E-12         0.37548E-18         0.00000E+00
    0.85928E-12         0.57365E-18         0.00000E+00
    0.85928E-12         0.71782E-18         0.00000E+00
    0.85928E-12         0.80533E-18         0.00000E+00
    0.85928E-12         0.82637E-18         0.00000E+00
    0.85928E-12         0.78279E-18         0.00000E+00
    0.85928E-12         0.68932E-18         0.00000E+00
    0.85928E-12         0.55683E-18         0.00000E+00
    0.85928E-12         0.39914E-18         0.00000E+00
    0.85928E-12         0.24875E-18         0.00000E+00
    0.85928E-12         0.12007E-18         0.00000E+00
    0.85928E-12         0.37205E-19         0.00000E+00
    0.85928E-12        -0.60489E-20         0.00000E+00
    0.85928E-12        -0.76232E-20         0.00000E+00
    0.88566E-12         0.18151E-18         0.00000E+00
    0.88566E-12         0.52037E-18         0.00000E+00
    0.88566E-12         0.79758E-18         0.00000E+00
    0.88566E-12         0.10017E-17         0.00000E+00
    0.88566E-12         0.11255E-17         0.00000E+00
    0.88566E-12         0.11599E-17         0.00000E+00
    0.88566E-12         0.10994E-17         0.00000E+00
    0.88566E-12         0.96210E-18         0.00000E+00
    0.88566E-12         0.76829E-18         0.00000E+00
    0.88566E-12         0.53752E-18         0.00000E+00
    0.88566E-12         0.31454E-18         0.00000E+00
    0.88566E-12         0.12392E-18         0.00000E+00
    0.88566E-12         0.87004E-21         0.00000E+00
    0.88566E-12        -0.49510E-19         0.00000E+00
    0.88566E-12        -0.28090E-19         0.00000E+00
    0.90961E-12         0.23640E-18         0.00000E+00
    0.90961E-12         0.67391E-18         0.00000E+00
    0.90961E-12         0.10376E-17         0.00000E+00
    0.90961E-12         0.13069E-17         0.00000E+00
    0.90961E-12         0.14655E-17         0.00000E+00
    0.90961E-12         0.15125E-17         0.00000E+00
    0.90961E-12         0.14315E-17         0.00000E+00
    0.90961E-12         0.12456E-17         0.00000E+00
    0.90961E-12         0.97925E-18         0.00000E+00
    0.90961E-12         0.67192E-18         0.00000E+00
    0.90961E-12         0.36542E-18         0.00000E+00
    0.90961E-12         0.10834E-18         0.00000E+00
    0.90961E-12        -0.57837E-19         0.00000E+00
    0.90961E-12        -0.11489E-18         0.00000E+00
    0.90961E-12        -0.54813E-19         0.00000E+00
    0.93108E-12         0.29088E-18         0.00000E+00
    0.93108E-12         0.83395E-18         0.00000E+00
    0.93108E-12         0.12816E-17         0.00000E+00
    0.93108E-12         0.16133E-17         0.00000E+00
    0.93108E-12         0.18059E-17         0.00000E+00
    0.93107E-12         0.18559E-17         0.00000E+00
    0.93107E-12         0.17498E-17         0.00000E+00
    0.93107E-12         0.15122E-17         0.00000E+00
    0.93107E-12         0.11759E-17         0.00000E+00
    0.93107E-12         0.78983E-18         0.00000E+00
    0.93107E-12         0.40022E-18         0.00000E+00
    0.93107E-12         0.74450E-19         0.00000E+00
    0.93108E-12        -0.13805E-18         0.00000E+00
    0.93108E-12        -0.20135E-18         0.00000E+00
    0.93108E-12        -0.91147E-19         0.00000E+00
    0.94998E-12         0.34619E-18         0.00000E+00
    0.94998E-12         0.99010E-18         0.00000E+00
    0.94998E-12         0.15163E-17         0.00000E+00
    0.94998E-12         0.18979E-17         0.00000E+00
    0.94998E-12         0.21134E-17         0.00000E+00
    0.94998E-12         0.21480E-17         0.00000E+00
    0.94998E-12         0.20106E-17         0.00000E+00
    0.94998E-12         0.17289E-17         0.00000E+00
    0.94998E-12         0.13383E-17         0.00000E+00
    0.94998E-12         0.88607E-18         0.00000E+00
    0.94998E-12         0.42491E-18         0.00000E+00
    0.94998E-12         0.29084E-19         0.00000E+00
    0.94998E-12        -0.23466E-18         0.00000E+00
    0.94998E-12        -0.30194E-18         0.00000E+00
    0.94998E-12        -0.13846E-18         0.00000E+00
    0.96629E-12         0.39856E-18         0.00000E+00
    0.96629E-12         0.11329E-17         0.00000E+00
    0.96629E-12         0.17218E-17         0.00000E+00
    0.96629E-12         0.21303E-17         0.00000E+00
    0.96629E-12         0.23340E-17         0.00000E+00
    0.96629E-12         0.23378E-17         0.00000E+00
    0.96629E-12         0.21677E-17         0.00000E+00
    0.96629E-12         0.18576E-17         0.00000E+00
    0.96629E-12         0.14428E-17         0.00000E+00
    0.96629E-12         0.95497E-18         0.00000E+00
    0.96629E-12         0.44877E-18         0.00000E+00
    0.96629E-12        -0.11186E-19         0.00000E+00
    0.96629E-12        -0.33020E-18         0.00000E+00
    0.96629E-12        -0.41132E-18         0.00000E+00
    0.96629E-12        -0.19344E-18         0.00000E+00
    0.97995E-12         0.44380E-18         0.00000E+00
    0.97995E-12         0.12494E-17         0.00000E+00
    0.97995E-12         0.18686E-17         0.00000E+00
    0.97994E-12         0.22550E-17         0.00000E+00
    0.97994E-12         0.24097E-17         0.00000E+00
    0.97994E-12         0.23685E-17         0.00000E+00
    0.97994E-12         0.21738E-17         0.00000E+00
    0.97994E-12         0.18637E-17         0.00000E+00
    0.97994E-12         0.14627E-17         0.00000E+00
    0.97994E-12         0.98802E-18         0.00000E+00
    0.97994E-12         0.47537E-18         0.00000E+00
    0.97994E-12        -0.24444E-19         0.00000E+00
    0.97994E-12        -0.40121E-18         0.00000E+00
    0.97994E-12        -0.52028E-18         0.00000E+00
    0.97994E-12        -0.24784E-18         0.00000E+00
    0.99092E-12         0.47645E-18         0.00000E+00
    0.99092E-12         0.13180E-17         0.00000E+00
    0.99092E-12         0.19019E-17         0.00000E+00
    0.99091E-12         0.22038E-17         0.00000E+00
    0.99091E-12         0.22800E-17         0.00000E+00
    0.99091E-12         0.21965E-17         0.00000E+00
    0.99091E-12         0.20011E-17         0.00000E+00
    0.99091E-12         0.17222E-17         0.00000E+00
    0.99091E-12         0.13733E-17         0.00000E+00
    0.99091E-12         0.96126E-18         0.00000E+00
    0.99091E-12         0.49890E-18         0.00000E+00
    0.99091E-12         0.69188E-20         0.00000E+00
    0.99091E-12        -0.41848E-18         0.00000E+00
    0.99091E-12        -0.59813E-18         0.00000E+00
    0.99091E-12        -0.29896E-18         0.00000E+00
    0.99917E-12         0.48614E-18         0.00000E+00
    0.99917E-12         0.12806E-17         0.00000E+00
    0.99917E-12         0.17300E-17         0.00000E+00
    0.99917E-12         0.19018E-17         0.00000E+00
    0.99917E-12         0.19059E-17         0.00000E+00
    0.99917E-12         0.18073E-17         0.00000E+00
    0.99917E-12         0.16392E-17         0.00000E+00
    0.99917E-12         0.14200E-17         0.00000E+00
    0.99916E-12         0.11548E-17         0.00000E+00
    0.99916E-12         0.84517E-18         0.00000E+00
    0.99916E-12         0.48622E-18         0.00000E+00
    0.99917E-12         0.74574E-19         0.00000E+00
    0.99917E-12        -0.34967E-18         0.00000E+00
    0.99917E-12        -0.60459E-18         0.00000E+00
    0.99917E-12        -0.32792E-18         0.00000E+00
    0.10047E-11         0.41874E-18         0.00000E+00
    0.10047E-11         0.10153E-17         0.00000E+00
    0.10047E-11         0.12552E-17         0.00000E+00
    0.10047E-11         0.13163E-17         0.00000E+00
    0.10047E-11         0.12890E-17         0.00000E+00
    0.10047E-11         0.12118E-17         0.00000E+00
    0.10047E-11         0.10961E-17         0.00000E+00
    0.10047E-11         0.95835E-18         0.00000E+00
    0.10047E-11         0.79446E-18         0.00000E+00
    0.10047E-11         0.60827E-18         0.00000E+00
    0.10047E-11         0.38683E-18         0.00000E+00
    0.10047E-11         0.12404E-18         0.00000E+00
    0.10047E-11        -0.18511E-18         0.00000E+00
    0.10047E-11        -0.50089E-18         0.00000E+00
    0.10047E-11        -0.32166E-18         0.00000E+00
    0.10074E-11         0.17666E-18         0.00000E+00
    0.10074E-11         0.40295E-18         0.00000E+00
    0.10074E-11         0.46609E-18         0.00000E+00
    0.10074E-11         0.47669E-18         0.00000E+00
    0.10074E-11         0.46136E-18         0.00000E+00
    0.10074E-11         0.43186E-18         0.00000E+00
    0.10074E-11         0.39076E-18         0.00000E+00
    0.10074E-11         0.34362E-18         0.00000E+00
    0.10074E-11         0.28876E-18         0.00000E+00
    0.10074E-11         0.22753E-18         0.00000E+00
    0.10074E-11         0.15503E-18         0.00000E+00
    0.10074E-11         0.66370E-19         0.00000E+00
    0.10074E-11        -0.41140E-19         0.00000E+00
    0.10074E-11        -0.20773E-18         0.00000E+00
    0.10074E-11        -0.15511E-18         0.00000E+00
POINT_DATA        496
VECTORS vDarcyNodal double 
    0.26381E-13        -0.24527E-19         0.00000E+00
    0.26381E-13        -0.45077E-19         0.00000E+00
    0.26381E-13        -0.81204E-19         0.00000E+00
    0.26381E-13        -0.10407E-18         0.00000E+00
    0.26381E-13        -0.11335E-18         0.00000E+00
    0.26381E-13        -0.11137E-18         0.00000E+00
    0.26381E-13        -0.99765E-19         0.00000E+00
    0.26381E-13        -0.80542E-19         0.00000E+00
    0.26381E-13        -0.54026E-19         0.00000E+00
    0.26381E-13        -0.23864E-19         0.00000E+00
    0.26381E-13         0.56346E-20         0.00000E+00
    0.26381E-13         0.28504E-19         0.00000E+00
    0.26381E-13         0.45077E-19         0.00000E+00
    0.26381E-13         0.46734E-19         0.00000E+00
    0.26381E-13         0.26516E-19         0.00000E+00
    0.26381E-13         0.13258E-19         0.00000E+00
    0.52725E-13        -0.24684E-19         0.00000E+00
    0.52725E-13        -0.45077E-19         0.00000E+00
    0.52725E-13        -0.82696E-19         0.00000E+00
    0.52725E-13        -0.10573E-18         0.00000E+00
    0.52725E-13        -0.11543E-18         0.00000E+00
    0.52725E-13        -0.11542E-18         0.00000E+00
    0.52725E-13        -0.10598E-18         0.00000E+00
    0.52725E-13        -0.84519E-19         0.00000E+00
    0.52725E-13        -0.55352E-19         0.00000E+00
    0.52725E-13        -0.26847E-19         0.00000E+00
    0.52725E-13         0.66289E-21         0.00000E+00
    0.52725E-13         0.26847E-19         0.00000E+00
    0.52725E-13         0.42757E-19         0.00000E+00
    0.52725E-13         0.43419E-19         0.00000E+00
    0.52725E-13         0.28417E-19         0.00000E+00
    0.52725E-13         0.16067E-19         0.00000E+00
    0.10531E-12        -0.26167E-19         0.00000E+00
    0.10531E-12        -0.47894E-19         0.00000E+00
    0.10531E-12        -0.86342E-19         0.00000E+00
    0.10531E-12        -0.11352E-18         0.00000E+00
    0.10531E-12        -0.12646E-18         0.00000E+00
    0.10531E-12        -0.12644E-18         0.00000E+00
    0.10531E-12        -0.11616E-18         0.00000E+00
    0.10531E-12        -0.96119E-19         0.00000E+00
    0.10531E-12        -0.69604E-19         0.00000E+00
    0.10531E-12        -0.39111E-19         0.00000E+00
    0.10531E-12        -0.82862E-20         0.00000E+00
    0.10531E-12         0.17567E-19         0.00000E+00
    0.10531E-12         0.36128E-19         0.00000E+00
    0.10531E-12         0.39774E-19         0.00000E+00
    0.10531E-12         0.28330E-19         0.00000E+00
    0.10531E-12         0.18875E-19         0.00000E+00
    0.15760E-12        -0.27510E-19         0.00000E+00
    0.15760E-12        -0.52700E-19         0.00000E+00
    0.15760E-12        -0.96451E-19         0.00000E+00
    0.15760E-12        -0.12562E-18         0.00000E+00
    0.15760E-12        -0.14270E-18         0.00000E+00
    0.15760E-12        -0.14650E-18         0.00000E+00
    0.15760E-12        -0.13373E-18         0.00000E+00
    0.15760E-12        -0.11335E-18         0.00000E+00
    0.15760E-12        -0.87162E-19         0.00000E+00
    0.15760E-12        -0.56843E-19         0.00000E+00
    0.15760E-12        -0.25033E-19         0.00000E+00
    0.15760E-12         0.43088E-20         0.00000E+00
    0.15760E-12         0.24858E-19         0.00000E+00
    0.15760E-12         0.32150E-19         0.00000E+00
    0.15760E-12         0.22381E-19         0.00000E+00
    0.15760E-12         0.12944E-19         0.00000E+00
    0.20946E-12        -0.33773E-19         0.00000E+00
    0.20946E-12        -0.60323E-19         0.00000E+00
    0.20946E-12        -0.10706E-18         0.00000E+00
    0.20946E-12        -0.14153E-18         0.00000E+00
    0.20946E-12        -0.16276E-18         0.00000E+00
    0.20946E-12        -0.16852E-18         0.00000E+00
    0.20946E-12        -0.16073E-18         0.00000E+00
    0.20946E-12        -0.13954E-18         0.00000E+00
    0.20946E-12        -0.11203E-18         0.00000E+00
    0.20946E-12        -0.80210E-19         0.00000E+00
    0.20946E-12        -0.44414E-19         0.00000E+00
    0.20946E-12        -0.12926E-19         0.00000E+00
    0.20946E-12         0.10275E-19         0.00000E+00
    0.20946E-12         0.22870E-19         0.00000E+00
    0.20946E-12         0.19041E-19         0.00000E+00
    0.20946E-12         0.11898E-19         0.00000E+00
    0.26074E-12        -0.37122E-19         0.00000E+00
    0.26074E-12        -0.67466E-19         0.00000E+00
    0.26074E-12        -0.12065E-18         0.00000E+00
    0.26074E-12        -0.16208E-18         0.00000E+00
    0.26074E-12        -0.18677E-18         0.00000E+00
    0.26074E-12        -0.19587E-18         0.00000E+00
    0.26074E-12        -0.19091E-18         0.00000E+00
    0.26074E-12        -0.16970E-18         0.00000E+00
    0.26075E-12        -0.14086E-18         0.00000E+00
    0.26075E-12        -0.10805E-18         0.00000E+00
    0.26075E-12        -0.71261E-19         0.00000E+00
    0.26074E-12        -0.35133E-19         0.00000E+00
    0.26074E-12        -0.56346E-20         0.00000E+00
    0.26074E-12         0.12926E-19         0.00000E+00
    0.26074E-12         0.13921E-19         0.00000E+00
    0.26074E-12         0.86176E-20         0.00000E+00
    0.31132E-12        -0.35796E-19         0.00000E+00
    0.31132E-12        -0.73250E-19         0.00000E+00
    0.31132E-12        -0.13755E-18         0.00000E+00
    0.31132E-12        -0.18395E-18         0.00000E+00
    0.31132E-12        -0.21413E-18         0.00000E+00
    0.31132E-12        -0.22638E-18         0.00000E+00
    0.31132E-12        -0.22338E-18         0.00000E+00
    0.31132E-12        -0.20351E-18         0.00000E+00
    0.31132E-12        -0.17250E-18         0.00000E+00
    0.31132E-12        -0.13921E-18         0.00000E+00
    0.31132E-12        -0.99120E-19         0.00000E+00
    0.31132E-12        -0.57009E-19         0.00000E+00
    0.31132E-12        -0.22538E-19         0.00000E+00
    0.31132E-12         0.99434E-21         0.00000E+00
    0.31132E-12         0.83033E-20         0.00000E+00
    0.31132E-12         0.66632E-20         0.00000E+00
    0.36103E-12        -0.45008E-19         0.00000E+00
    0.36103E-12        -0.81867E-19         0.00000E+00
    0.36103E-12        -0.14985E-18         0.00000E+00
    0.36103E-12        -0.20497E-18         0.00000E+00
    0.36103E-12        -0.24126E-18         0.00000E+00
    0.36103E-12        -0.25657E-18         0.00000E+00
    0.36103E-12        -0.25591E-18         0.00000E+00
    0.36103E-12        -0.24010E-18         0.00000E+00
    0.36103E-12        -0.20861E-18         0.00000E+00
    0.36103E-12        -0.16904E-18         0.00000E+00
    0.36103E-12        -0.12797E-18         0.00000E+00
    0.36103E-12        -0.82399E-19         0.00000E+00
    0.36103E-12        -0.39442E-19         0.00000E+00
    0.36103E-12        -0.95776E-20         0.00000E+00
    0.36103E-12         0.26516E-20         0.00000E+00
    0.36103E-12         0.32458E-20         0.00000E+00
    0.40976E-12        -0.44345E-19         0.00000E+00
    0.40976E-12        -0.89159E-19         0.00000E+00
    0.40976E-12        -0.16705E-18         0.00000E+00
    0.40976E-12        -0.22538E-18         0.00000E+00
    0.40976E-12        -0.26619E-18         0.00000E+00
    0.40976E-12        -0.28667E-18         0.00000E+00
    0.40976E-12        -0.28766E-18         0.00000E+00
    0.40976E-12        -0.27179E-18         0.00000E+00
    0.40976E-12        -0.24162E-18         0.00000E+00
    0.40976E-12        -0.20086E-18         0.00000E+00
    0.40976E-12        -0.15280E-18         0.00000E+00
    0.40976E-12        -0.10407E-18         0.00000E+00
    0.40976E-12        -0.57340E-19         0.00000E+00
    0.40976E-12        -0.19555E-19         0.00000E+00
    0.40976E-12        -0.15258E-20         0.00000E+00
    0.40976E-12         0.25829E-20         0.00000E+00
    0.45737E-12        -0.48985E-19         0.00000E+00
    0.45737E-12        -0.95125E-19         0.00000E+00
    0.45737E-12        -0.17766E-18         0.00000E+00
    0.45737E-12        -0.24325E-18         0.00000E+00
    0.45737E-12        -0.28902E-18         0.00000E+00
    0.45737E-12        -0.31355E-18         0.00000E+00
    0.45737E-12        -0.31653E-18         0.00000E+00
    0.45737E-12        -0.29963E-18         0.00000E+00
    0.45737E-12        -0.26880E-18         0.00000E+00
    0.45737E-12        -0.22571E-18         0.00000E+00
    0.45737E-12        -0.17401E-18         0.00000E+00
    0.45737E-12        -0.12032E-18         0.00000E+00
    0.45737E-12        -0.70964E-19         0.00000E+00
    0.45737E-12        -0.29167E-19         0.00000E+00
    0.45737E-12        -0.52688E-20         0.00000E+00
    0.45737E-12         0.00000E+00         0.00000E+00
    0.50372E-12        -0.51706E-19         0.00000E+00
    0.50372E-12        -0.98142E-19         0.00000E+00
    0.50372E-12        -0.18362E-18         0.00000E+00
    0.50372E-12        -0.25455E-18         0.00000E+00
    0.50372E-12        -0.30327E-18         0.00000E+00
    0.50372E-12        -0.33075E-18         0.00000E+00
    0.50372E-12        -0.33642E-18         0.00000E+00
    0.50372E-12        -0.32150E-18         0.00000E+00
    0.50372E-12        -0.28935E-18         0.00000E+00
    0.50372E-12        -0.24328E-18         0.00000E+00
    0.50372E-12        -0.19091E-18         0.00000E+00
    0.50372E-12        -0.13324E-18         0.00000E+00
    0.50372E-12        -0.76564E-19         0.00000E+00
    0.50372E-12        -0.33145E-19         0.00000E+00
    0.50372E-12        -0.79547E-20         0.00000E+00
    0.50372E-12         0.13258E-20         0.00000E+00
    0.54869E-12        -0.51706E-19         0.00000E+00
    0.54869E-12        -0.98108E-19         0.00000E+00
    0.54869E-12        -0.18561E-18         0.00000E+00
    0.54869E-12        -0.25554E-18         0.00000E+00
    0.54869E-12        -0.30659E-18         0.00000E+00
    0.54869E-12        -0.33675E-18         0.00000E+00
    0.54869E-12        -0.34371E-18         0.00000E+00
    0.54869E-12        -0.33045E-18         0.00000E+00
    0.54869E-12        -0.29797E-18         0.00000E+00
    0.54869E-12        -0.25124E-18         0.00000E+00
    0.54869E-12        -0.19691E-18         0.00000E+00
    0.54869E-12        -0.13755E-18         0.00000E+00
    0.54869E-12        -0.79513E-19         0.00000E+00
    0.54869E-12        -0.32150E-19         0.00000E+00
    0.54869E-12        -0.72918E-20         0.00000E+00
    0.54869E-12        -0.33145E-20         0.00000E+00
    0.59216E-12        -0.49054E-19         0.00000E+00
    0.59216E-12        -0.94462E-19         0.00000E+00
    0.59216E-12        -0.17699E-18         0.00000E+00
    0.59216E-12        -0.24560E-18         0.00000E+00
    0.59216E-12        -0.29502E-18         0.00000E+00
    0.59216E-12        -0.32515E-18         0.00000E+00
    0.59216E-12        -0.33572E-18         0.00000E+00
    0.59216E-12        -0.32117E-18         0.00000E+00
    0.59216E-12        -0.28899E-18         0.00000E+00
    0.59216E-12        -0.24527E-18         0.00000E+00
    0.59216E-12        -0.19111E-18         0.00000E+00
    0.59216E-12        -0.13324E-18         0.00000E+00
    0.59216E-12        -0.75901E-19         0.00000E+00
    0.59216E-12        -0.29499E-19         0.00000E+00
    0.59216E-12        -0.44402E-20         0.00000E+00
    0.59216E-12         0.33831E-20         0.00000E+00
    0.63400E-12        -0.41762E-19         0.00000E+00
    0.63400E-12        -0.83193E-19         0.00000E+00
    0.63400E-12        -0.15777E-18         0.00000E+00
    0.63400E-12        -0.21909E-18         0.00000E+00
    0.63400E-12        -0.26516E-18         0.00000E+00
    0.63400E-12        -0.29333E-18         0.00000E+00
    0.63400E-12        -0.30128E-18         0.00000E+00
    0.63400E-12        -0.28962E-18         0.00000E+00
    0.63400E-12        -0.26416E-18         0.00000E+00
    0.63400E-12        -0.22313E-18         0.00000E+00
    0.63400E-12        -0.17169E-18         0.00000E+00
    0.63400E-12        -0.11733E-18         0.00000E+00
    0.63400E-12        -0.64963E-19         0.00000E+00
    0.63400E-12        -0.21544E-19         0.00000E+00
    0.63400E-12        -0.33145E-21         0.00000E+00
    0.63400E-12         0.19887E-20         0.00000E+00
    0.67411E-12        -0.31681E-19         0.00000E+00
    0.67411E-12        -0.64632E-19         0.00000E+00
    0.67411E-12        -0.12303E-18         0.00000E+00
    0.67411E-12        -0.16963E-18         0.00000E+00
    0.67411E-12        -0.20841E-18         0.00000E+00
    0.67411E-12        -0.23241E-18         0.00000E+00
    0.67411E-12        -0.24103E-18         0.00000E+00
    0.67411E-12        -0.23675E-18         0.00000E+00
    0.67411E-12        -0.21471E-18         0.00000E+00
    0.67411E-12        -0.18031E-18         0.00000E+00
    0.67411E-12        -0.13662E-18         0.00000E+00
    0.67411E-12        -0.88565E-19         0.00000E+00
    0.67411E-12        -0.44082E-19         0.00000E+00
    0.67411E-12        -0.98748E-20         0.00000E+00
    0.67411E-12         0.53031E-20         0.00000E+00
    0.67411E-12         0.71545E-20         0.00000E+00
    0.71237E-12        -0.18561E-19         0.00000E+00
    0.71237E-12        -0.35465E-19         0.00000E+00
    0.71237E-12        -0.67878E-19         0.00000E+00
    0.71237E-12        -0.97113E-19         0.00000E+00
    0.71237E-12        -0.12187E-18         0.00000E+00
    0.71237E-12        -0.13987E-18         0.00000E+00
    0.71237E-12        -0.14915E-18         0.00000E+00
    0.71237E-12        -0.14776E-18         0.00000E+00
    0.71237E-12        -0.13698E-18         0.00000E+00
    0.71237E-12        -0.11558E-18         0.00000E+00
    0.71237E-12        -0.83427E-19         0.00000E+00
    0.71237E-12        -0.48488E-19         0.00000E+00
    0.71237E-12        -0.15578E-19         0.00000E+00
    0.71237E-12         0.65603E-20         0.00000E+00
    0.71237E-12         0.10606E-19         0.00000E+00
    0.71237E-12         0.79547E-20         0.00000E+00
    0.74867E-12         0.31203E-20         0.00000E+00
    0.74867E-12         0.69603E-20         0.00000E+00
    0.74867E-12         0.96119E-20         0.00000E+00
    0.74867E-12         0.53031E-20         0.00000E+00
    0.74867E-12        -0.68629E-22         0.00000E+00
    0.74868E-12        -0.82175E-20         0.00000E+00
    0.74868E-12        -0.17829E-19         0.00000E+00
    0.74868E-12        -0.23533E-19         0.00000E+00
    0.74868E-12        -0.26184E-19         0.00000E+00
    0.74868E-12        -0.24196E-19         0.00000E+00
    0.74868E-12        -0.15247E-19         0.00000E+00
    0.74868E-12        -0.66289E-21         0.00000E+00
    0.74868E-12         0.13589E-19         0.00000E+00
    0.74868E-12         0.22538E-19         0.00000E+00
    0.74868E-12         0.18824E-19         0.00000E+00
    0.74868E-12         0.12458E-19         0.00000E+00
    0.78293E-12         0.29636E-19         0.00000E+00
    0.78293E-12         0.60060E-19         0.00000E+00
    0.78293E-12         0.10938E-18         0.00000E+00
    0.78293E-12         0.14378E-18         0.00000E+00
    0.78293E-12         0.16208E-18         0.00000E+00
    0.78293E-12         0.16563E-18         0.00000E+00
    0.78293E-12         0.15803E-18         0.00000E+00
    0.78293E-12         0.13987E-18         0.00000E+00
    0.78293E-12         0.12022E-18         0.00000E+00
    0.78293E-12         0.92805E-19         0.00000E+00
    0.78293E-12         0.68941E-19         0.00000E+00
    0.78293E-12         0.53694E-19         0.00000E+00
    0.78293E-12         0.40768E-19         0.00000E+00
    0.78293E-12         0.34470E-19         0.00000E+00
    0.78293E-12         0.21807E-19         0.00000E+00
    0.78293E-12         0.11795E-19         0.00000E+00
    0.81504E-12         0.67089E-19         0.00000E+00
    0.81504E-12         0.12727E-18         0.00000E+00
    0.81504E-12         0.23433E-18         0.00000E+00
    0.81504E-12         0.31627E-18         0.00000E+00
    0.81504E-12         0.36857E-18         0.00000E+00
    0.81504E-12         0.38912E-18         0.00000E+00
    0.81504E-12         0.38083E-18         0.00000E+00
    0.81504E-12         0.34669E-18         0.00000E+00
    0.81504E-12         0.29432E-18         0.00000E+00
    0.81504E-12         0.23301E-18         0.00000E+00
    0.81504E-12         0.16904E-18         0.00000E+00
    0.81504E-12         0.10938E-18         0.00000E+00
    0.81504E-12         0.66055E-19         0.00000E+00
    0.81504E-12         0.37785E-19         0.00000E+00
    0.81504E-12         0.18298E-19         0.00000E+00
    0.81504E-12         0.10606E-19         0.00000E+00
    0.84491E-12         0.10672E-18         0.00000E+00
    0.84491E-12         0.20573E-18         0.00000E+00
    0.84491E-12         0.38620E-18         0.00000E+00
    0.84491E-12         0.52501E-18         0.00000E+00
    0.84491E-12         0.61781E-18         0.00000E+00
    0.84491E-12         0.66024E-18         0.00000E+00
    0.84491E-12         0.64930E-18         0.00000E+00
    0.84491E-12         0.59428E-18         0.00000E+00
    0.84491E-12         0.50479E-18         0.00000E+00
    0.84491E-12         0.39144E-18         0.00000E+00
    0.84491E-12         0.27145E-18         0.00000E+00
    0.84491E-12         0.16340E-18         0.00000E+00
    0.84491E-12         0.81867E-19         0.00000E+00
    0.84491E-12         0.29236E-19         0.00000E+00
    0.84491E-12         0.53031E-20         0.00000E+00
    0.84491E-12         0.11885E-20         0.00000E+00
    0.87247E-12         0.15379E-18         0.00000E+00
    0.87247E-12         0.30005E-18         0.00000E+00
    0.87247E-12         0.56345E-18         0.00000E+00
    0.87247E-12         0.76646E-18         0.00000E+00
    0.87247E-12         0.90517E-18         0.00000E+00
    0.87247E-12         0.97153E-18         0.00000E+00
    0.87247E-12         0.95986E-18         0.00000E+00
    0.87247E-12         0.87766E-18         0.00000E+00
    0.87247E-12         0.74144E-18         0.00000E+00
    0.87247E-12         0.56478E-18         0.00000E+00
    0.87247E-12         0.37586E-18         0.00000E+00
    0.87247E-12         0.20550E-18         0.00000E+00
    0.87247E-12         0.75901E-19         0.00000E+00
    0.87247E-12         0.13258E-20         0.00000E+00
    0.87247E-12        -0.19224E-19         0.00000E+00
    0.87247E-12        -0.15909E-19         0.00000E+00
    0.89764E-12         0.20900E-18         0.00000E+00
    0.89764E-12         0.40164E-18         0.00000E+00
    0.89764E-12         0.75443E-18         0.00000E+00
    0.89764E-12         0.10329E-17         0.00000E+00
    0.89764E-12         0.12219E-17         0.00000E+00
    0.89764E-12         0.13139E-17         0.00000E+00
    0.89764E-12         0.12993E-17         0.00000E+00
    0.89764E-12         0.11836E-17         0.00000E+00
    0.89764E-12         0.98903E-18         0.00000E+00
    0.89764E-12         0.74144E-18         0.00000E+00
    0.89764E-12         0.47629E-18         0.00000E+00
    0.89764E-12         0.23334E-18         0.00000E+00
    0.89764E-12         0.49385E-19         0.00000E+00
    0.89764E-12        -0.49979E-19         0.00000E+00
    0.89764E-12        -0.58334E-19         0.00000E+00
    0.89764E-12        -0.39911E-19         0.00000E+00
    0.92035E-12         0.26449E-18         0.00000E+00
    0.92035E-12         0.50910E-18         0.00000E+00
    0.92035E-12         0.95654E-18         0.00000E+00
    0.92035E-12         0.13115E-17         0.00000E+00
    0.92034E-12         0.15508E-17         0.00000E+00
    0.92034E-12         0.16648E-17         0.00000E+00
    0.92034E-12         0.16450E-17         0.00000E+00
    0.92034E-12         0.14928E-17         0.00000E+00
    0.92034E-12         0.12356E-17         0.00000E+00
    0.92034E-12         0.90948E-18         0.00000E+00
    0.92034E-12         0.56040E-18         0.00000E+00
    0.92034E-12         0.24079E-18         0.00000E+00
    0.92034E-12         0.15601E-20         0.00000E+00
    0.92035E-12        -0.12313E-18         0.00000E+00
    0.92034E-12        -0.11137E-18         0.00000E+00
    0.92034E-12        -0.68940E-19         0.00000E+00
    0.94053E-12         0.31705E-18         0.00000E+00
    0.94053E-12         0.61516E-18         0.00000E+00
    0.94053E-12         0.11587E-17         0.00000E+00
    0.94053E-12         0.15836E-17         0.00000E+00
    0.94053E-12         0.18687E-17         0.00000E+00
    0.94053E-12         0.19976E-17         0.00000E+00
    0.94053E-12         0.19605E-17         0.00000E+00
    0.94053E-12         0.17692E-17         0.00000E+00
    0.94053E-12         0.14532E-17         0.00000E+00
    0.94053E-12         0.10565E-17         0.00000E+00
    0.94053E-12         0.62977E-18         0.00000E+00
    0.94053E-12         0.23410E-18         0.00000E+00
    0.94053E-12        -0.65226E-19         0.00000E+00
    0.94053E-12        -0.21650E-18         0.00000E+00
    0.94053E-12        -0.18140E-18         0.00000E+00
    0.94053E-12        -0.11341E-18         0.00000E+00
    0.95814E-12         0.37586E-18         0.00000E+00
    0.95814E-12         0.72122E-18         0.00000E+00
    0.95814E-12         0.13473E-17         0.00000E+00
    0.95814E-12         0.18306E-17         0.00000E+00
    0.95814E-12         0.21422E-17         0.00000E+00
    0.95814E-12         0.22641E-17         0.00000E+00
    0.95814E-12         0.21989E-17         0.00000E+00
    0.95813E-12         0.19704E-17         0.00000E+00
    0.95813E-12         0.16137E-17         0.00000E+00
    0.95813E-12         0.11680E-17         0.00000E+00
    0.95813E-12         0.68154E-18         0.00000E+00
    0.95813E-12         0.22041E-18         0.00000E+00
    0.95814E-12        -0.13987E-18         0.00000E+00
    0.95814E-12        -0.31984E-18         0.00000E+00
    0.95814E-12        -0.25945E-18         0.00000E+00
    0.95814E-12        -0.16426E-18         0.00000E+00
    0.97312E-12         0.42159E-18         0.00000E+00
    0.97312E-12         0.81004E-18         0.00000E+00
    0.97312E-12         0.15074E-17         0.00000E+00
    0.97312E-12         0.20219E-17         0.00000E+00
    0.97312E-12         0.23212E-17         0.00000E+00
    0.97312E-12         0.24076E-17         0.00000E+00
    0.97312E-12         0.23062E-17         0.00000E+00
    0.97311E-12         0.20543E-17         0.00000E+00
    0.97311E-12         0.16864E-17         0.00000E+00
    0.97311E-12         0.12296E-17         0.00000E+00
    0.97311E-12         0.72148E-18         0.00000E+00
    0.97311E-12         0.21676E-18         0.00000E+00
    0.97311E-12        -0.20152E-18         0.00000E+00
    0.97312E-12        -0.42166E-18         0.00000E+00
    0.97312E-12        -0.34463E-18         0.00000E+00
    0.97312E-12        -0.22127E-18         0.00000E+00
    0.98543E-12         0.46468E-18         0.00000E+00
    0.98543E-12         0.88263E-18         0.00000E+00
    0.98543E-12         0.16111E-17         0.00000E+00
    0.98543E-12         0.21027E-17         0.00000E+00
    0.98543E-12         0.23433E-17         0.00000E+00
    0.98543E-12         0.23705E-17         0.00000E+00
    0.98543E-12         0.22366E-17         0.00000E+00
    0.98543E-12         0.19833E-17         0.00000E+00
    0.98543E-12         0.16396E-17         0.00000E+00
    0.98543E-12         0.12207E-17         0.00000E+00
    0.98543E-12         0.74176E-18         0.00000E+00
    0.98543E-12         0.23433E-18         0.00000E+00
    0.98543E-12        -0.22372E-18         0.00000E+00
    0.98543E-12        -0.49948E-18         0.00000E+00
    0.98543E-12        -0.42358E-18         0.00000E+00
    0.98543E-12        -0.27443E-18         0.00000E+00
    0.99504E-12         0.48788E-18         0.00000E+00
    0.99504E-12         0.91160E-18         0.00000E+00
    0.99504E-12         0.16085E-17         0.00000E+00
    0.99504E-12         0.20029E-17         0.00000E+00
    0.99504E-12         0.21404E-17         0.00000E+00
    0.99504E-12         0.21059E-17         0.00000E+00
    0.99504E-12         0.19615E-17         0.00000E+00
    0.99504E-12         0.17398E-17         0.00000E+00
    0.99504E-12         0.14557E-17         0.00000E+00
    0.99504E-12         0.11143E-17         0.00000E+00
    0.99504E-12         0.71859E-18         0.00000E+00
    0.99504E-12         0.27145E-18         0.00000E+00
    0.99504E-12        -0.18793E-18         0.00000E+00
    0.99504E-12        -0.51738E-18         0.00000E+00
    0.99504E-12        -0.47299E-18         0.00000E+00
    0.99504E-12        -0.32216E-18         0.00000E+00
    0.10019E-11         0.48484E-18         0.00000E+00
    0.10019E-11         0.85528E-18         0.00000E+00
    0.10019E-11         0.14012E-17         0.00000E+00
    0.10019E-11         0.16282E-17         0.00000E+00
    0.10019E-11         0.16674E-17         0.00000E+00
    0.10019E-11         0.16075E-17         0.00000E+00
    0.10019E-11         0.14849E-17         0.00000E+00
    0.10019E-11         0.13198E-17         0.00000E+00
    0.10019E-11         0.11199E-17         0.00000E+00
    0.10019E-11         0.88627E-18         0.00000E+00
    0.10019E-11         0.61319E-18         0.00000E+00
    0.10019E-11         0.28971E-18         0.00000E+00
    0.10019E-11        -0.87500E-19         0.00000E+00
    0.10019E-11        -0.43753E-18         0.00000E+00
    0.10019E-11        -0.45937E-18         0.00000E+00
    0.10019E-11        -0.33337E-18         0.00000E+00
    0.10061E-11         0.35332E-18         0.00000E+00
    0.10061E-11         0.57972E-18         0.00000E+00
    0.10061E-11         0.86907E-18         0.00000E+00
    0.10061E-11         0.94261E-18         0.00000E+00
    0.10061E-11         0.93797E-18         0.00000E+00
    0.10061E-11         0.89356E-18         0.00000E+00
    0.10061E-11         0.82329E-18         0.00000E+00
    0.10061E-11         0.73447E-18         0.00000E+00
    0.10061E-11         0.63219E-18         0.00000E+00
    0.10061E-11         0.51671E-18         0.00000E+00
    0.10061E-11         0.38248E-18         0.00000E+00
    0.10061E-11         0.22104E-18         0.00000E+00
    0.10061E-11         0.25852E-19         0.00000E+00
    0.10061E-11        -0.24858E-18         0.00000E+00
    0.10061E-11        -0.36326E-18         0.00000E+00
    0.10061E-11        -0.31023E-18         0.00000E+00
    0.10074E-11         0.00000E+00         0.00000E+00
    0.10074E-11         0.00000E+00         0.00000E+00
    0.10074E-11         0.00000E+00         0.00000E+00
    0.10074E-11         0.00000E+00         0.00000E+00
    0.10074E-11         0.33144E-21         0.00000E+00
    0.10074E-11         0.00000E+00         0.00000E+00
    0.10074E-11         0.00000E+00         0.00000E+00
    0.10074E-11         0.00000E+00         0.00000E+00
    0.10074E-11         0.00000E+00         0.00000E+00
    0.10074E-11         0.00000E+00         0.00000E+00
    0.10074E-11         0.33144E-21         0.00000E+00
    0.10074E-11        -0.33144E-21         0.00000E+00
    0.10074E-11        -0.33144E-21         0.00000E+00
    0.10074E-11         0.33144E-21         0.00000E+00
    0.10074E-11         0.66287E-21         0.00000E+00
    0.10074E-11         0.00000E+00         0.00000E+00
CELL_DATA        450
TENSORS stressef double 
   -0.20302E+08         0.19339E+03         0.00000E+00
    0.19339E+03        -0.50000E+08         0.00000E+00
    0.00000E+00         0.00000E+00        -0.19935E+08
 
   -0.20270E+08         0.55122E+03         0.00000E+00
    0.55122E+03        -0.49999E+08         0.00000E+00
    0.00000E+00         0.00000E+00        -0.19966E+08
 
   -0.20240E+08         0.87217E+03         0.00000E+00
    0.87217E+03        -0.49997E+08         0.00000E+00
    0.00000E+00         0.00000E+00        -0.19993E+08
 
   -0.20213E+08         0.11587E+04         0.00000E+00
    0.11587E+04        -0.49995E+08         0.00000E+00
    0.00000E+00         0.00000E+00        -0.20017E+08
 
   -0.20189E+08         0.14131E+04         0.00000E+00
    0.14131E+04        -0.49993E+08         0.00000E+00
    0.00000E+00         0.00000E+00        -0.20037E+08
 
   -0.20167E+08         0.16380E+04         0.00000E+00
    0.16380E+04        -0.49990E+08         0.00000E+00
    0.00000E+00         0.00000E+00        -0.20055E+08
 
   -0.20148E+08         0.18362E+04         0.00000E+00
    0.18362E+04        -0.49986E+08         0.00000E+00
    0.00000E+00         0.00000E+00        -0.20069E+08
 
   -0.20132E+08         0.20091E+04         0.00000E+00
    0.20091E+04        -0.49982E+08         0.00000E+00
    0.00000E+00         0.00000E+00        -0.20081E+08
 
   -0.20118E+08         0.21590E+04         0.00000E+00
    0.21590E+04        -0.49978E+08         0.00000E+00
    0.00000E+00         0.00000E+00        -0.20089E+08
 
   -0.20106E+08         0.22882E+04         0.00000E+00
    0.22882E+04        -0.49974E+08         0.00000E+00
    0.00000E+00         0.00000E+00        -0.20095E+08
 
   -0.20096E+08         0.23989E+04         0.00000E+00
    0.23989E+04        -0.49969E+08         0.00000E+00
    0.00000E+00         0.00000E+00        -0.20098E+08
 
   -0.20089E+08         0.24931E+04         0.00000E+00
    0.24931E+04        -0.49964E+08         0.00000E+00
    0.00000E+00         0.00000E+00        -0.20099E+08
 
   -0.20085E+08         0.25730E+04         0.00000E+00
    0.25730E+04        -0.49959E+08         0.00000E+00
    0.00000E+00         0.00000E+00        -0.20097E+08
 
   -0.20082E+08         0.26406E+04         0.00000E+00
    0.26406E+04        -0.49954E+08         0.00000E+00
    0.00000E+00         0.00000E+00        -0.20093E+08
 
   -0.20082E+08         0.26980E+04         0.00000E+00
    0.26980E+04        -0.49949E+08         0.00000E+00
    0.00000E+00         0.00000E+00        -0.20086E+08
 
   -0.20301E+08         0.58437E+03         0.00000E+00
    0.58437E+03        -0.50000E+08         0.00000E+00
    0.00000E+00         0.00000E+00        -0.19936E+08
 
   -0.20269E+08         0.16644E+04         0.00000E+00
    0.16644E+04        -0.49999E+08         0.00000E+00
    0.00000E+00         0.00000E+00        -0.19967E+08
 
   -0.20240E+08         0.26316E+04         0.00000E+00
    0.26316E+04        -0.49997E+08         0.00000E+00
    0.00000E+00         0.00000E+00        -0.19993E+08
 
   -0.20213E+08         0.34936E+04         0.00000E+00
    0.34936E+04        -0.49995E+08         0.00000E+00
    0.00000E+00         0.00000E+00        -0.20017E+08
 
   -0.20189E+08         0.42576E+04         0.00000E+00
    0.42576E+04        -0.49993E+08         0.00000E+00
    0.00000E+00         0.00000E+00        -0.20038E+08
 
   -0.20167E+08         0.49316E+04         0.00000E+00
    0.49316E+04        -0.49990E+08         0.00000E+00
    0.00000E+00         0.00000E+00        -0.20055E+08
 
   -0.20148E+08         0.55238E+04         0.00000E+00
    0.55238E+04        -0.49986E+08         0.00000E+00
    0.00000E+00         0.00000E+00        -0.20069E+08
 
   -0.20131E+08         0.60396E+04         0.00000E+00
    0.60396E+04        -0.49982E+08         0.00000E+00
    0.00000E+00         0.00000E+00        -0.20081E+08
 
   -0.20117E+08         0.64857E+04         0.00000E+00
    0.64857E+04        -0.49978E+08         0.00000E+00
    0.00000E+00         0.00000E+00        -0.20089E+08
 
   -0.20106E+08         0.68690E+04         0.00000E+00
    0.68690E+04        -0.49974E+08         0.00000E+00
    0.00000E+00         0.00000E+00        -0.20095E+08
 
   -0.20096E+08         0.71964E+04         0.00000E+00
    0.71964E+04        -0.49969E+08         0.00000E+00
    0.00000E+00         0.00000E+00        -0.20098E+08
 
   -0.20089E+08         0.74744E+04         0.00000E+00
    0.74744E+04        -0.49964E+08         0.00000E+00
    0.00000E+00         0.00000E+00        -0.20099E+08
 
   -0.20084E+08         0.77094E+04         0.00000E+00
    0.77094E+04        -0.49959E+08         0.00000E+00
    0.00000E+00         0.00000E+00        -0.20097E+08
 
   -0.20082E+08         0.79076E+04         0.00000E+00
    0.79076E+04        -0.49954E+08         0.00000E+00
    0.00000E+00         0.00000E+00        -0.20093E+08
 
   -0.20082E+08         0.80751E+04         0.00000E+00
    0.80751E+04        -0.49948E+08         0.00000E+00
    0.00000E+00         0.00000E+00        -0.20086E+08
 
   -0.20300E+08         0.98794E+03         0.00000E+00
    0.98794E+03        -0.50000E+08         0.00000E+00
    0.00000E+00         0.00000E+00        -0.19938E+08
 
   -0.20268E+08         0.28096E+04         0.00000E+00
    0.28096E+04        -0.49999E+08         0.00000E+00
    0.00000E+00         0.00000E+00        -0.19968E+08
 
   -0.20238E+08         0.44362E+04         0.00000E+00
    0.44362E+04        -0.49997E+08         0.00000E+00
    0.00000E+00         0.00000E+00        -0.19995E+08
 
   -0.20212E+08         0.58808E+04         0.00000E+00
    0.58808E+04        -0.49995E+08         0.00000E+00
    0.00000E+00         0.00000E+00        -0.20018E+08
 
   -0.20188E+08         0.71567E+04         0.00000E+00
    0.71567E+04        -0.49992E+08         0.00000E+00
    0.00000E+00         0.00000E+00        -0.20038E+08
 
   -0.20166E+08         0.82771E+04         0.00000E+00
    0.82771E+04        -0.49989E+08         0.00000E+00
    0.00000E+00         0.00000E+00        -0.20055E+08
 
   -0.20147E+08         0.92568E+04         0.00000E+00
    0.92568E+04        -0.49986E+08         0.00000E+00
    0.00000E+00         0.00000E+00        -0.20069E+08
 
   -0.20131E+08         0.10107E+05         0.00000E+00
    0.10107E+05        -0.49982E+08         0.00000E+00
    0.00000E+00         0.00000E+00        -0.20081E+08
 
   -0.20117E+08         0.10838E+05         0.00000E+00
    0.10838E+05        -0.49978E+08         0.00000E+00
    0.00000E+00         0.00000E+00        -0.20089E+08
 
   -0.20105E+08         0.11463E+05         0.00000E+00
    0.11463E+05        -0.49973E+08         0.00000E+00
    0.00000E+00         0.00000E+00        -0.20095E+08
 
   -0.20096E+08         0.11993E+05         0.00000E+00
    0.11993E+05        -0.49968E+08         0.00000E+00
    0.00000E+00         0.00000E+00        -0.20098E+08
 
   -0.20089E+08         0.12441E+05         0.00000E+00
    0.12441E+05        -0.49964E+08         0.00000E+00
    0.00000E+00         0.00000E+00        -0.20098E+08
 
   -0.20084E+08         0.12816E+05         0.00000E+00
    0.12816E+05        -0.49959E+08         0.00000E+00
    0.00000E+00         0.00000E+00        -0.20097E+08
 
   -0.20082E+08         0.13131E+05         0.00000E+00
    0.13131E+05        -0.49953E+08         0.00000E+00
    0.00000E+00         0.00000E+00        -0.20092E+08
 
   -0.20081E+08         0.13395E+05         0.00000E+00
    0.13395E+05        -0.49948E+08         0.00000E+00
    0.00000E+00         0.00000E+00        -0.20086E+08
 
   -0.20297E+08         0.14122E+04         0.00000E+00
    0.14122E+04        -0.50000E+08         0.00000E+00
    0.00000E+00         0.00000E+00        -0.19940E+08
 
   -0.20266E+08         0.40076E+04         0.00000E+00
    0.40076E+04        -0.49999E+08         0.00000E+00
    0.00000E+00         0.00000E+00        -0.19970E+08
 
   -0.20237E+08         0.63149E+04         0.00000E+00
    0.63149E+04        -0.49997E+08         0.00000E+00
    0.00000E+00         0.00000E+00        -0.19996E+08
 
   -0.20210E+08         0.83540E+04         0.00000E+00
    0.83540E+04        -0.49995E+08         0.00000E+00
    0.00000E+00         0.00000E+00        -0.20019E+08
 
   -0.20186E+08         0.10145E+05         0.00000E+00
    0.10145E+05        -0.49992E+08         0.00000E+00
    0.00000E+00         0.00000E+00        -0.20039E+08
 
   -0.20165E+08         0.11707E+05         0.00000E+00
    0.11707E+05        -0.49989E+08         0.00000E+00
    0.00000E+00         0.00000E+00        -0.20056E+08
 
   -0.20146E+08         0.13064E+05         0.00000E+00
    0.13064E+05        -0.49985E+08         0.00000E+00
    0.00000E+00         0.00000E+00        -0.20070E+08
 
   -0.20130E+08         0.14233E+05         0.00000E+00
    0.14233E+05        -0.49981E+08         0.00000E+00
    0.00000E+00         0.00000E+00        -0.20081E+08
 
   -0.20116E+08         0.15230E+05         0.00000E+00
    0.15230E+05        -0.49977E+08         0.00000E+00
    0.00000E+00         0.00000E+00        -0.20089E+08
 
   -0.20104E+08         0.16075E+05         0.00000E+00
    0.16075E+05        -0.49972E+08         0.00000E+00
    0.00000E+00         0.00000E+00        -0.20095E+08
 
   -0.20095E+08         0.16786E+05         0.00000E+00
    0.16786E+05        -0.49968E+08         0.00000E+00
    0.00000E+00         0.00000E+00        -0.20098E+08
 
   -0.20088E+08         0.17380E+05         0.00000E+00
    0.17380E+05        -0.49963E+08         0.00000E+00
    0.00000E+00         0.00000E+00        -0.20098E+08
 
   -0.20084E+08         0.17873E+05         0.00000E+00
    0.17873E+05        -0.49958E+08         0.00000E+00
    0.00000E+00         0.00000E+00        -0.20096E+08
 
   -0.20081E+08         0.18280E+05         0.00000E+00
    0.18280E+05        -0.49953E+08         0.00000E+00
    0.00000E+00         0.00000E+00        -0.20092E+08
 
   -0.20081E+08         0.18618E+05         0.00000E+00
    0.18618E+05        -0.49948E+08         0.00000E+00
    0.00000E+00         0.00000E+00        -0.20085E+08
 
   -0.20294E+08         0.18649E+04         0.00000E+00
    0.18649E+04        -0.50000E+08         0.00000E+00
    0.00000E+00         0.00000E+00        -0.19943E+08
 
   -0.20263E+08         0.52778E+04         0.00000E+00
    0.52778E+04        -0.49999E+08         0.00000E+00
    0.00000E+00         0.00000E+00        -0.19972E+08
 
   -0.20234E+08         0.82952E+04         0.00000E+00
    0.82952E+04        -0.49997E+08         0.00000E+00
    0.00000E+00         0.00000E+00        -0.19998E+08
 
   -0.20208E+08         0.10945E+05         0.00000E+00
    0.10945E+05        -0.49995E+08         0.00000E+00
    0.00000E+00         0.00000E+00        -0.20021E+08
 
   -0.20184E+08         0.13254E+05         0.00000E+00
    0.13254E+05        -0.49992E+08         0.00000E+00
    0.00000E+00         0.00000E+00        -0.20041E+08
 
   -0.20163E+08         0.15252E+05         0.00000E+00
    0.15252E+05        -0.49988E+08         0.00000E+00
    0.00000E+00         0.00000E+00        -0.20057E+08
 
   -0.20145E+08         0.16971E+05         0.00000E+00
    0.16971E+05        -0.49985E+08         0.00000E+00
    0.00000E+00         0.00000E+00        -0.20070E+08
 
   -0.20129E+08         0.18437E+05         0.00000E+00
    0.18437E+05        -0.49980E+08         0.00000E+00
    0.00000E+00         0.00000E+00        -0.20081E+08
 
   -0.20115E+08         0.19675E+05         0.00000E+00
    0.19675E+05        -0.49976E+08         0.00000E+00
    0.00000E+00         0.00000E+00        -0.20089E+08
 
   -0.20104E+08         0.20712E+05         0.00000E+00
    0.20712E+05        -0.49971E+08         0.00000E+00
    0.00000E+00         0.00000E+00        -0.20094E+08
 
   -0.20095E+08         0.21571E+05         0.00000E+00
    0.21571E+05        -0.49967E+08         0.00000E+00
    0.00000E+00         0.00000E+00        -0.20097E+08
 
   -0.20088E+08         0.22279E+05         0.00000E+00
    0.22279E+05        -0.49962E+08         0.00000E+00
    0.00000E+00         0.00000E+00        -0.20098E+08
 
   -0.20083E+08         0.22855E+05         0.00000E+00
    0.22855E+05        -0.49957E+08         0.00000E+00
    0.00000E+00         0.00000E+00        -0.20096E+08
 
   -0.20081E+08         0.23323E+05         0.00000E+00
    0.23323E+05        -0.49952E+08         0.00000E+00
    0.00000E+00         0.00000E+00        -0.20091E+08
 
   -0.20081E+08         0.23704E+05         0.00000E+00
    0.23704E+05        -0.49947E+08         0.00000E+00
    0.00000E+00         0.00000E+00        -0.20085E+08
 
   -0.20290E+08         0.23529E+04         0.00000E+00
    0.23529E+04        -0.50000E+08         0.00000E+00
    0.00000E+00         0.00000E+00        -0.19947E+08
 
   -0.20259E+08         0.66382E+04         0.00000E+00
    0.66382E+04        -0.49999E+08         0.00000E+00
    0.00000E+00         0.00000E+00        -0.19976E+08
 
   -0.20231E+08         0.10402E+05         0.00000E+00
    0.10402E+05        -0.49997E+08         0.00000E+00
    0.00000E+00         0.00000E+00        -0.20001E+08
 
   -0.20205E+08         0.13680E+05         0.00000E+00
    0.13680E+05        -0.49994E+08         0.00000E+00
    0.00000E+00         0.00000E+00        -0.20023E+08
 
   -0.20182E+08         0.16513E+05         0.00000E+00
    0.16513E+05        -0.49991E+08         0.00000E+00
    0.00000E+00         0.00000E+00        -0.20042E+08
 
   -0.20161E+08         0.18938E+05         0.00000E+00
    0.18938E+05        -0.49988E+08         0.00000E+00
    0.00000E+00         0.00000E+00        -0.20058E+08
 
   -0.20143E+08         0.21000E+05         0.00000E+00
    0.21000E+05        -0.49984E+08         0.00000E+00
    0.00000E+00         0.00000E+00        -0.20071E+08
 
   -0.20127E+08         0.22737E+05         0.00000E+00
    0.22737E+05        -0.49979E+08         0.00000E+00
    0.00000E+00         0.00000E+00        -0.20081E+08
 
   -0.20114E+08         0.24182E+05         0.00000E+00
    0.24182E+05        -0.49975E+08         0.00000E+00
    0.00000E+00         0.00000E+00        -0.20089E+08
 
   -0.20103E+08         0.25372E+05         0.00000E+00
    0.25372E+05        -0.49970E+08         0.00000E+00
    0.00000E+00         0.00000E+00        -0.20094E+08
 
   -0.20094E+08         0.26341E+05         0.00000E+00
    0.26341E+05        -0.49966E+08         0.00000E+00
    0.00000E+00         0.00000E+00        -0.20097E+08
 
   -0.20087E+08         0.27119E+05         0.00000E+00
    0.27119E+05        -0.49961E+08         0.00000E+00
    0.00000E+00         0.00000E+00        -0.20097E+08
 
   -0.20083E+08         0.27738E+05         0.00000E+00
    0.27738E+05        -0.49956E+08         0.00000E+00
    0.00000E+00         0.00000E+00        -0.20095E+08
 
   -0.20080E+08         0.28224E+05         0.00000E+00
    0.28224E+05        -0.49951E+08         0.00000E+00
    0.00000E+00         0.00000E+00        -0.20091E+08
 
   -0.20080E+08         0.28606E+05         0.00000E+00
    0.28606E+05        -0.49947E+08         0.00000E+00
    0.00000E+00         0.00000E+00        -0.20085E+08
 
   -0.20285E+08         0.28831E+04         0.00000E+00
    0.28831E+04        -0.50000E+08         0.00000E+00
    0.00000E+00         0.00000E+00        -0.19952E+08
 
   -0.20255E+08         0.81041E+04         0.00000E+00
    0.81041E+04        -0.49998E+08         0.00000E+00
    0.00000E+00         0.00000E+00        -0.19980E+08
 
   -0.20227E+08         0.12655E+05         0.00000E+00
    0.12655E+05        -0.49997E+08         0.00000E+00
    0.00000E+00         0.00000E+00        -0.20005E+08
 
   -0.20202E+08         0.16585E+05         0.00000E+00
    0.16585E+05        -0.49994E+08         0.00000E+00
    0.00000E+00         0.00000E+00        -0.20026E+08
 
   -0.20179E+08         0.19944E+05         0.00000E+00
    0.19944E+05        -0.49991E+08         0.00000E+00
    0.00000E+00         0.00000E+00        -0.20044E+08
 
   -0.20159E+08         0.22787E+05         0.00000E+00
    0.22787E+05        -0.49987E+08         0.00000E+00
    0.00000E+00         0.00000E+00        -0.20059E+08
 
   -0.20141E+08         0.25168E+05         0.00000E+00
    0.25168E+05        -0.49983E+08         0.00000E+00
    0.00000E+00         0.00000E+00        -0.20072E+08
 
   -0.20125E+08         0.27141E+05         0.00000E+00
    0.27141E+05        -0.49978E+08         0.00000E+00
    0.00000E+00         0.00000E+00        -0.20082E+08
 
   -0.20112E+08         0.28755E+05         0.00000E+00
    0.28755E+05        -0.49974E+08         0.00000E+00
    0.00000E+00         0.00000E+00        -0.20089E+08
 
   -0.20101E+08         0.30054E+05         0.00000E+00
    0.30054E+05        -0.49969E+08         0.00000E+00
    0.00000E+00         0.00000E+00        -0.20094E+08
 
   -0.20093E+08         0.31083E+05         0.00000E+00
    0.31083E+05        -0.49965E+08         0.00000E+00
    0.00000E+00         0.00000E+00        -0.20096E+08
 
   -0.20086E+08         0.31882E+05         0.00000E+00
    0.31882E+05        -0.49960E+08         0.00000E+00
    0.00000E+00         0.00000E+00        -0.20096E+08
 
   -0.20082E+08         0.32489E+05         0.00000E+00
    0.32489E+05        -0.49955E+08         0.00000E+00
    0.00000E+00         0.00000E+00        -0.20094E+08
 
   -0.20080E+08         0.32942E+05         0.00000E+00
    0.32942E+05        -0.49951E+08         0.00000E+00
    0.00000E+00         0.00000E+00        -0.20090E+08
 
   -0.20080E+08         0.33276E+05         0.00000E+00
    0.33276E+05        -0.49946E+08         0.00000E+00
    0.00000E+00         0.00000E+00        -0.20084E+08
 
   -0.20279E+08         0.34608E+04         0.00000E+00
    0.34608E+04        -0.49999E+08         0.00000E+00
    0.00000E+00         0.00000E+00        -0.19958E+08
 
   -0.20249E+08         0.96883E+04         0.00000E+00
    0.96883E+04        -0.49998E+08         0.00000E+00
    0.00000E+00         0.00000E+00        -0.19985E+08
 
   -0.20222E+08         0.15072E+05         0.00000E+00
    0.15072E+05        -0.49996E+08         0.00000E+00
    0.00000E+00         0.00000E+00        -0.20009E+08
 
   -0.20198E+08         0.19676E+05         0.00000E+00
    0.19676E+05        -0.49993E+08         0.00000E+00
    0.00000E+00         0.00000E+00        -0.20029E+08
 
   -0.20176E+08         0.23566E+05         0.00000E+00
    0.23566E+05        -0.49990E+08         0.00000E+00
    0.00000E+00         0.00000E+00        -0.20047E+08
 
   -0.20156E+08         0.26813E+05         0.00000E+00
    0.26813E+05        -0.49986E+08         0.00000E+00
    0.00000E+00         0.00000E+00        -0.20061E+08
 
   -0.20139E+08         0.29486E+05         0.00000E+00
    0.29486E+05        -0.49982E+08         0.00000E+00
    0.00000E+00         0.00000E+00        -0.20073E+08
 
   -0.20124E+08         0.31659E+05         0.00000E+00
    0.31659E+05        -0.49977E+08         0.00000E+00
    0.00000E+00         0.00000E+00        -0.20082E+08
 
   -0.20111E+08         0.33394E+05         0.00000E+00
    0.33394E+05        -0.49973E+08         0.00000E+00
    0.00000E+00         0.00000E+00        -0.20089E+08
 
   -0.20100E+08         0.34749E+05         0.00000E+00
    0.34749E+05        -0.49968E+08         0.00000E+00
    0.00000E+00         0.00000E+00        -0.20093E+08
 
   -0.20092E+08         0.35780E+05         0.00000E+00
    0.35780E+05        -0.49963E+08         0.00000E+00
    0.00000E+00         0.00000E+00        -0.20095E+08
 
   -0.20086E+08         0.36540E+05         0.00000E+00
    0.36540E+05        -0.49959E+08         0.00000E+00
    0.00000E+00         0.00000E+00        -0.20095E+08
 
   -0.20082E+08         0.37076E+05         0.00000E+00
    0.37076E+05        -0.49954E+08         0.00000E+00
    0.00000E+00         0.00000E+00        -0.20093E+08
 
   -0.20080E+08         0.37434E+05         0.00000E+00
    0.37434E+05        -0.49950E+08         0.00000E+00
    0.00000E+00         0.00000E+00        -0.20090E+08
 
   -0.20080E+08         0.37660E+05         0.00000E+00
    0.37660E+05        -0.49945E+08         0.00000E+00
    0.00000E+00         0.00000E+00        -0.20084E+08
 
   -0.20272E+08         0.40880E+04         0.00000E+00
    0.40880E+04        -0.49999E+08         0.00000E+00
    0.00000E+00         0.00000E+00        -0.19965E+08
 
   -0.20243E+08         0.11399E+05         0.00000E+00
    0.11399E+05        -0.49998E+08         0.00000E+00
    0.00000E+00         0.00000E+00        -0.19991E+08
 
   -0.20217E+08         0.17662E+05         0.00000E+00
    0.17662E+05        -0.49996E+08         0.00000E+00
    0.00000E+00         0.00000E+00        -0.20014E+08
 
   -0.20193E+08         0.22964E+05         0.00000E+00
    0.22964E+05        -0.49993E+08         0.00000E+00
    0.00000E+00         0.00000E+00        -0.20033E+08
 
   -0.20172E+08         0.27388E+05         0.00000E+00
    0.27388E+05        -0.49989E+08         0.00000E+00
    0.00000E+00         0.00000E+00        -0.20050E+08
 
   -0.20153E+08         0.31024E+05         0.00000E+00
    0.31024E+05        -0.49985E+08         0.00000E+00
    0.00000E+00         0.00000E+00        -0.20063E+08
 
   -0.20136E+08         0.33960E+05         0.00000E+00
    0.33960E+05        -0.49981E+08         0.00000E+00
    0.00000E+00         0.00000E+00        -0.20074E+08
 
   -0.20122E+08         0.36289E+05         0.00000E+00
    0.36289E+05        -0.49976E+08         0.00000E+00
    0.00000E+00         0.00000E+00        -0.20083E+08
 
   -0.20109E+08         0.38093E+05         0.00000E+00
    0.38093E+05        -0.49971E+08         0.00000E+00
    0.00000E+00         0.00000E+00        -0.20089E+08
 
   -0.20099E+08         0.39444E+05         0.00000E+00
    0.39444E+05        -0.49967E+08         0.00000E+00
    0.00000E+00         0.00000E+00        -0.20093E+08
 
   -0.20091E+08         0.40413E+05         0.00000E+00
    0.40413E+05        -0.49962E+08         0.00000E+00
    0.00000E+00         0.00000E+00        -0.20095E+08
 
   -0.20085E+08         0.41064E+05         0.00000E+00
    0.41064E+05        -0.49958E+08         0.00000E+00
    0.00000E+00         0.00000E+00        -0.20095E+08
 
   -0.20081E+08         0.41456E+05         0.00000E+00
    0.41456E+05        -0.49953E+08         0.00000E+00
    0.00000E+00         0.00000E+00        -0.20093E+08
 
   -0.20080E+08         0.41648E+05         0.00000E+00
    0.41648E+05        -0.49949E+08         0.00000E+00
    0.00000E+00         0.00000E+00        -0.20089E+08
 
   -0.20080E+08         0.41698E+05         0.00000E+00
    0.41698E+05        -0.49945E+08         0.00000E+00
    0.00000E+00         0.00000E+00        -0.20084E+08
 
   -0.20263E+08         0.47659E+04         0.00000E+00
    0.47659E+04        -0.49999E+08         0.00000E+00
    0.00000E+00         0.00000E+00        -0.19973E+08
 
   -0.20236E+08         0.13236E+05         0.00000E+00
    0.13236E+05        -0.49998E+08         0.00000E+00
    0.00000E+00         0.00000E+00        -0.19998E+08
 
   -0.20211E+08         0.20430E+05         0.00000E+00
    0.20430E+05        -0.49996E+08         0.00000E+00
    0.00000E+00         0.00000E+00        -0.20020E+08
 
   -0.20188E+08         0.26452E+05         0.00000E+00
    0.26452E+05        -0.49993E+08         0.00000E+00
    0.00000E+00         0.00000E+00        -0.20038E+08
 
   -0.20168E+08         0.31412E+05         0.00000E+00
    0.31412E+05        -0.49989E+08         0.00000E+00
    0.00000E+00         0.00000E+00        -0.20053E+08
 
   -0.20149E+08         0.35420E+05         0.00000E+00
    0.35420E+05        -0.49984E+08         0.00000E+00
    0.00000E+00         0.00000E+00        -0.20066E+08
 
   -0.20133E+08         0.38588E+05         0.00000E+00
    0.38588E+05        -0.49980E+08         0.00000E+00
    0.00000E+00         0.00000E+00        -0.20075E+08
 
   -0.20119E+08         0.41026E+05         0.00000E+00
    0.41026E+05        -0.49975E+08         0.00000E+00
    0.00000E+00         0.00000E+00        -0.20083E+08
 
   -0.20108E+08         0.42840E+05         0.00000E+00
    0.42840E+05        -0.49970E+08         0.00000E+00
    0.00000E+00         0.00000E+00        -0.20089E+08
 
   -0.20098E+08         0.44121E+05         0.00000E+00
    0.44121E+05        -0.49966E+08         0.00000E+00
    0.00000E+00         0.00000E+00        -0.20092E+08
 
   -0.20090E+08         0.44953E+05         0.00000E+00
    0.44953E+05        -0.49961E+08         0.00000E+00
    0.00000E+00         0.00000E+00        -0.20094E+08
 
   -0.20085E+08         0.45416E+05         0.00000E+00
    0.45416E+05        -0.49957E+08         0.00000E+00
    0.00000E+00         0.00000E+00        -0.20094E+08
 
   -0.20081E+08         0.45583E+05         0.00000E+00
    0.45583E+05        -0.49953E+08         0.00000E+00
    0.00000E+00         0.00000E+00        -0.20092E+08
 
   -0.20080E+08         0.45528E+05         0.00000E+00
    0.45528E+05        -0.49949E+08         0.00000E+00
    0.00000E+00         0.00000E+00        -0.20088E+08
 
   -0.20080E+08         0.45323E+05         0.00000E+00
    0.45323E+05        -0.49945E+08         0.00000E+00
    0.00000E+00         0.00000E+00        -0.20083E+08
 
   -0.20253E+08         0.54923E+04         0.00000E+00
    0.54923E+04        -0.49999E+08         0.00000E+00
    0.00000E+00         0.00000E+00        -0.19983E+08
 
   -0.20227E+08         0.15194E+05         0.00000E+00
    0.15194E+05        -0.49998E+08         0.00000E+00
    0.00000E+00         0.00000E+00        -0.20006E+08
 
   -0.20204E+08         0.23366E+05         0.00000E+00
    0.23366E+05        -0.49995E+08         0.00000E+00
    0.00000E+00         0.00000E+00        -0.20026E+08
 
   -0.20182E+08         0.30133E+05         0.00000E+00
    0.30133E+05        -0.49992E+08         0.00000E+00
    0.00000E+00         0.00000E+00        -0.20043E+08
 
   -0.20163E+08         0.35630E+05         0.00000E+00
    0.35630E+05        -0.49988E+08         0.00000E+00
    0.00000E+00         0.00000E+00        -0.20057E+08
 
   -0.20146E+08         0.39994E+05         0.00000E+00
    0.39994E+05        -0.49984E+08         0.00000E+00
    0.00000E+00         0.00000E+00        -0.20068E+08
 
   -0.20131E+08         0.43359E+05         0.00000E+00
    0.43359E+05        -0.49979E+08         0.00000E+00
    0.00000E+00         0.00000E+00        -0.20077E+08
 
   -0.20117E+08         0.45857E+05         0.00000E+00
    0.45857E+05        -0.49974E+08         0.00000E+00
    0.00000E+00         0.00000E+00        -0.20084E+08
 
   -0.20106E+08         0.47618E+05         0.00000E+00
    0.47618E+05        -0.49969E+08         0.00000E+00
    0.00000E+00         0.00000E+00        -0.20089E+08
 
   -0.20097E+08         0.48754E+05         0.00000E+00
    0.48754E+05        -0.49964E+08         0.00000E+00
    0.00000E+00         0.00000E+00        -0.20092E+08
 
   -0.20090E+08         0.49367E+05         0.00000E+00
    0.49367E+05        -0.49960E+08         0.00000E+00
    0.00000E+00         0.00000E+00        -0.20093E+08
 
   -0.20085E+08         0.49552E+05         0.00000E+00
    0.49552E+05        -0.49956E+08         0.00000E+00
    0.00000E+00         0.00000E+00        -0.20093E+08
 
   -0.20081E+08         0.49403E+05         0.00000E+00
    0.49403E+05        -0.49952E+08         0.00000E+00
    0.00000E+00         0.00000E+00        -0.20091E+08
 
   -0.20080E+08         0.49008E+05         0.00000E+00
    0.49008E+05        -0.49949E+08         0.00000E+00
    0.00000E+00         0.00000E+00        -0.20088E+08
 
   -0.20080E+08         0.48458E+05         0.00000E+00
    0.48458E+05        -0.49946E+08         0.00000E+00
    0.00000E+00         0.00000E+00        -0.20084E+08
 
   -0.20242E+08         0.62619E+04         0.00000E+00
    0.62619E+04        -0.49999E+08         0.00000E+00
    0.00000E+00         0.00000E+00        -0.19994E+08
 
   -0.20218E+08         0.17260E+05         0.00000E+00
    0.17260E+05        -0.49998E+08         0.00000E+00
    0.00000E+00         0.00000E+00        -0.20016E+08
 
   -0.20196E+08         0.26453E+05         0.00000E+00
    0.26453E+05        -0.49995E+08         0.00000E+00
    0.00000E+00         0.00000E+00        -0.20034E+08
 
   -0.20176E+08         0.33988E+05         0.00000E+00
    0.33988E+05        -0.49992E+08         0.00000E+00
    0.00000E+00         0.00000E+00        -0.20049E+08
 
   -0.20158E+08         0.40025E+05         0.00000E+00
    0.40025E+05        -0.49988E+08         0.00000E+00
    0.00000E+00         0.00000E+00        -0.20061E+08
 
   -0.20142E+08         0.44726E+05         0.00000E+00
    0.44726E+05        -0.49983E+08         0.00000E+00
    0.00000E+00         0.00000E+00        -0.20071E+08
 
   -0.20128E+08         0.48254E+05         0.00000E+00
    0.48254E+05        -0.49978E+08         0.00000E+00
    0.00000E+00         0.00000E+00        -0.20079E+08
 
   -0.20115E+08         0.50762E+05         0.00000E+00
    0.50762E+05        -0.49973E+08         0.00000E+00
    0.00000E+00         0.00000E+00        -0.20085E+08
 
   -0.20105E+08         0.52402E+05         0.00000E+00
    0.52402E+05        -0.49968E+08         0.00000E+00
    0.00000E+00         0.00000E+00        -0.20089E+08
 
   -0.20096E+08         0.53310E+05         0.00000E+00
    0.53310E+05        -0.49964E+08         0.00000E+00
    0.00000E+00         0.00000E+00        -0.20091E+08
 
   -0.20090E+08         0.53612E+05         0.00000E+00
    0.53612E+05        -0.49959E+08         0.00000E+00
    0.00000E+00         0.00000E+00        -0.20092E+08
 
   -0.20085E+08         0.53421E+05         0.00000E+00
    0.53421E+05        -0.49955E+08         0.00000E+00
    0.00000E+00         0.00000E+00        -0.20092E+08
 
   -0.20082E+08         0.52850E+05         0.00000E+00
    0.52850E+05        -0.49952E+08         0.00000E+00
    0.00000E+00         0.00000E+00        -0.20091E+08
 
   -0.20081E+08         0.52012E+05         0.00000E+00
    0.52012E+05        -0.49949E+08         0.00000E+00
    0.00000E+00         0.00000E+00        -0.20088E+08
 
   -0.20081E+08         0.51018E+05         0.00000E+00
    0.51018E+05        -0.49946E+08         0.00000E+00
    0.00000E+00         0.00000E+00        -0.20084E+08
 
   -0.20229E+08         0.70652E+04         0.00000E+00
    0.70652E+04        -0.49999E+08         0.00000E+00
    0.00000E+00         0.00000E+00        -0.20006E+08
 
   -0.20207E+08         0.19411E+05         0.00000E+00
    0.19411E+05        -0.49998E+08         0.00000E+00
    0.00000E+00         0.00000E+00        -0.20026E+08
 
   -0.20187E+08         0.29661E+05         0.00000E+00
    0.29661E+05        -0.49995E+08         0.00000E+00
    0.00000E+00         0.00000E+00        -0.20042E+08
 
   -0.20169E+08         0.37985E+05         0.00000E+00
    0.37985E+05        -0.49991E+08         0.00000E+00
    0.00000E+00         0.00000E+00        -0.20056E+08
 
   -0.20152E+08         0.44566E+05         0.00000E+00
    0.44566E+05        -0.49987E+08         0.00000E+00
    0.00000E+00         0.00000E+00        -0.20066E+08
 
   -0.20138E+08         0.49590E+05         0.00000E+00
    0.49590E+05        -0.49982E+08         0.00000E+00
    0.00000E+00         0.00000E+00        -0.20075E+08
 
   -0.20125E+08         0.53245E+05         0.00000E+00
    0.53245E+05        -0.49977E+08         0.00000E+00
    0.00000E+00         0.00000E+00        -0.20081E+08
 
   -0.20113E+08         0.55711E+05         0.00000E+00
    0.55711E+05        -0.49972E+08         0.00000E+00
    0.00000E+00         0.00000E+00        -0.20086E+08
 
   -0.20104E+08         0.57157E+05         0.00000E+00
    0.57157E+05        -0.49968E+08         0.00000E+00
    0.00000E+00         0.00000E+00        -0.20089E+08
 
   -0.20096E+08         0.57749E+05         0.00000E+00
    0.57749E+05        -0.49963E+08         0.00000E+00
    0.00000E+00         0.00000E+00        -0.20091E+08
 
   -0.20090E+08         0.57636E+05         0.00000E+00
    0.57636E+05        -0.49959E+08         0.00000E+00
    0.00000E+00         0.00000E+00        -0.20092E+08
 
   -0.20085E+08         0.56958E+05         0.00000E+00
    0.56958E+05        -0.49955E+08         0.00000E+00
    0.00000E+00         0.00000E+00        -0.20091E+08
 
   -0.20083E+08         0.55852E+05         0.00000E+00
    0.55852E+05        -0.49952E+08         0.00000E+00
    0.00000E+00         0.00000E+00        -0.20090E+08
 
   -0.20082E+08         0.54457E+05         0.00000E+00
    0.54457E+05        -0.49950E+08         0.00000E+00
    0.00000E+00         0.00000E+00        -0.20088E+08
 
   -0.20082E+08         0.52910E+05         0.00000E+00
    0.52910E+05        -0.49948E+08         0.00000E+00
    0.00000E+00         0.00000E+00        -0.20085E+08
 
   -0.20215E+08         0.78888E+04         0.00000E+00
    0.78888E+04        -0.49999E+08         0.00000E+00
    0.00000E+00         0.00000E+00        -0.20020E+08
 
   -0.20195E+08         0.21616E+05         0.00000E+00
    0.21616E+05        -0.49998E+08         0.00000E+00
    0.00000E+00         0.00000E+00        -0.20038E+08
 
   -0.20177E+08         0.32950E+05         0.00000E+00
    0.32950E+05        -0.49995E+08         0.00000E+00
    0.00000E+00         0.00000E+00        -0.20052E+08
 
   -0.20161E+08         0.42081E+05         0.00000E+00
    0.42081E+05        -0.49991E+08         0.00000E+00
    0.00000E+00         0.00000E+00        -0.20063E+08
 
   -0.20146E+08         0.49211E+05         0.00000E+00
    0.49211E+05        -0.49987E+08         0.00000E+00
    0.00000E+00         0.00000E+00        -0.20072E+08
 
   -0.20133E+08         0.54546E+05         0.00000E+00
    0.54546E+05        -0.49982E+08         0.00000E+00
    0.00000E+00         0.00000E+00        -0.20079E+08
 
   -0.20121E+08         0.58296E+05         0.00000E+00
    0.58296E+05        -0.49977E+08         0.00000E+00
    0.00000E+00         0.00000E+00        -0.20084E+08
 
   -0.20111E+08         0.60662E+05         0.00000E+00
    0.60662E+05        -0.49972E+08         0.00000E+00
    0.00000E+00         0.00000E+00        -0.20088E+08
 
   -0.20103E+08         0.61840E+05         0.00000E+00
    0.61840E+05        -0.49967E+08         0.00000E+00
    0.00000E+00         0.00000E+00        -0.20090E+08
 
   -0.20096E+08         0.62018E+05         0.00000E+00
    0.62018E+05        -0.49963E+08         0.00000E+00
    0.00000E+00         0.00000E+00        -0.20091E+08
 
   -0.20090E+08         0.61376E+05         0.00000E+00
    0.61376E+05        -0.49959E+08         0.00000E+00
    0.00000E+00         0.00000E+00        -0.20091E+08
 
   -0.20087E+08         0.60089E+05         0.00000E+00
    0.60089E+05        -0.49956E+08         0.00000E+00
    0.00000E+00         0.00000E+00        -0.20091E+08
 
   -0.20084E+08         0.58323E+05         0.00000E+00
    0.58323E+05        -0.49953E+08         0.00000E+00
    0.00000E+00         0.00000E+00        -0.20090E+08
 
   -0.20084E+08         0.56249E+05         0.00000E+00
    0.56249E+05        -0.49952E+08         0.00000E+00
    0.00000E+00         0.00000E+00        -0.20088E+08
 
   -0.20084E+08         0.54033E+05         0.00000E+00
    0.54033E+05        -0.49950E+08         0.00000E+00
    0.00000E+00         0.00000E+00        -0.20086E+08
 
   -0.20199E+08         0.87154E+04         0.00000E+00
    0.87154E+04        -0.49999E+08         0.00000E+00
    0.00000E+00         0.00000E+00        -0.20036E+08
 
   -0.20182E+08         0.23832E+05         0.00000E+00
    0.23832E+05        -0.49998E+08         0.00000E+00
    0.00000E+00         0.00000E+00        -0.20051E+08
 
   -0.20167E+08         0.36266E+05         0.00000E+00
    0.36266E+05        -0.49995E+08         0.00000E+00
    0.00000E+00         0.00000E+00        -0.20063E+08
 
   -0.20153E+08         0.46219E+05         0.00000E+00
    0.46219E+05        -0.49991E+08         0.00000E+00
    0.00000E+00         0.00000E+00        -0.20072E+08
 
   -0.20140E+08         0.53905E+05         0.00000E+00
    0.53905E+05        -0.49987E+08         0.00000E+00
    0.00000E+00         0.00000E+00        -0.20079E+08
 
   -0.20128E+08         0.59542E+05         0.00000E+00
    0.59542E+05        -0.49982E+08         0.00000E+00
    0.00000E+00         0.00000E+00        -0.20084E+08
 
   -0.20118E+08         0.63354E+05         0.00000E+00
    0.63354E+05        -0.49977E+08         0.00000E+00
    0.00000E+00         0.00000E+00        -0.20087E+08
 
   -0.20110E+08         0.65563E+05         0.00000E+00
    0.65563E+05        -0.49972E+08         0.00000E+00
    0.00000E+00         0.00000E+00        -0.20089E+08
 
   -0.20102E+08         0.66389E+05         0.00000E+00
    0.66389E+05        -0.49967E+08         0.00000E+00
    0.00000E+00         0.00000E+00        -0.20091E+08
 
   -0.20096E+08         0.66047E+05         0.00000E+00
    0.66047E+05        -0.49963E+08         0.00000E+00
    0.00000E+00         0.00000E+00        -0.20091E+08
 
   -0.20092E+08         0.64755E+05         0.00000E+00
    0.64755E+05        -0.49960E+08         0.00000E+00
    0.00000E+00         0.00000E+00        -0.20091E+08
 
   -0.20088E+08         0.62724E+05         0.00000E+00
    0.62724E+05        -0.49957E+08         0.00000E+00
    0.00000E+00         0.00000E+00        -0.20091E+08
 
   -0.20087E+08         0.60167E+05         0.00000E+00
    0.60167E+05        -0.49955E+08         0.00000E+00
    0.00000E+00         0.00000E+00        -0.20090E+08
 
   -0.20086E+08         0.57287E+05         0.00000E+00
    0.57287E+05        -0.49954E+08         0.00000E+00
    0.00000E+00         0.00000E+00        -0.20089E+08
 
   -0.20087E+08         0.54282E+05         0.00000E+00
    0.54282E+05        -0.49954E+08         0.00000E+00
    0.00000E+00         0.00000E+00        -0.20088E+08
 
   -0.20182E+08         0.95245E+04         0.00000E+00
    0.95245E+04        -0.49999E+08         0.00000E+00
    0.00000E+00         0.00000E+00        -0.20053E+08
 
   -0.20168E+08         0.26011E+05         0.00000E+00
    0.26011E+05        -0.49998E+08         0.00000E+00
    0.00000E+00         0.00000E+00        -0.20065E+08
 
   -0.20155E+08         0.39545E+05         0.00000E+00
    0.39545E+05        -0.49995E+08         0.00000E+00
    0.00000E+00         0.00000E+00        -0.20074E+08
 
   -0.20143E+08         0.50330E+05         0.00000E+00
    0.50330E+05        -0.49992E+08         0.00000E+00
    0.00000E+00         0.00000E+00        -0.20081E+08
 
   -0.20133E+08         0.58579E+05         0.00000E+00
    0.58579E+05        -0.49987E+08         0.00000E+00
    0.00000E+00         0.00000E+00        -0.20086E+08
 
   -0.20124E+08         0.64510E+05         0.00000E+00
    0.64510E+05        -0.49982E+08         0.00000E+00
    0.00000E+00         0.00000E+00        -0.20089E+08
 
   -0.20115E+08         0.68353E+05         0.00000E+00
    0.68353E+05        -0.49977E+08         0.00000E+00
    0.00000E+00         0.00000E+00        -0.20091E+08
 
   -0.20108E+08         0.70343E+05         0.00000E+00
    0.70343E+05        -0.49973E+08         0.00000E+00
    0.00000E+00         0.00000E+00        -0.20091E+08
 
   -0.20102E+08         0.70725E+05         0.00000E+00
    0.70725E+05        -0.49968E+08         0.00000E+00
    0.00000E+00         0.00000E+00        -0.20092E+08
 
   -0.20098E+08         0.69750E+05         0.00000E+00
    0.69750E+05        -0.49964E+08         0.00000E+00
    0.00000E+00         0.00000E+00        -0.20091E+08
 
   -0.20094E+08         0.67675E+05         0.00000E+00
    0.67675E+05        -0.49961E+08         0.00000E+00
    0.00000E+00         0.00000E+00        -0.20091E+08
 
   -0.20091E+08         0.64766E+05         0.00000E+00
    0.64766E+05        -0.49959E+08         0.00000E+00
    0.00000E+00         0.00000E+00        -0.20091E+08
 
   -0.20090E+08         0.61279E+05         0.00000E+00
    0.61279E+05        -0.49958E+08         0.00000E+00
    0.00000E+00         0.00000E+00        -0.20091E+08
 
   -0.20089E+08         0.57466E+05         0.00000E+00
    0.57466E+05        -0.49958E+08         0.00000E+00
    0.00000E+00         0.00000E+00        -0.20091E+08
 
   -0.20090E+08         0.53556E+05         0.00000E+00
    0.53556E+05        -0.49959E+08         0.00000E+00
    0.00000E+00         0.00000E+00        -0.20091E+08
 
   -0.20163E+08         0.10294E+05         0.00000E+00
    0.10294E+05        -0.49999E+08         0.00000E+00
    0.00000E+00         0.00000E+00        -0.20072E+08
 
   -0.20152E+08         0.28098E+05         0.00000E+00
    0.28098E+05        -0.49998E+08         0.00000E+00
    0.00000E+00         0.00000E+00        -0.20081E+08
 
   -0.20142E+08         0.42714E+05         0.00000E+00
    0.42714E+05        -0.49996E+08         0.00000E+00
    0.00000E+00         0.00000E+00        -0.20087E+08
 
   -0.20134E+08         0.54332E+05         0.00000E+00
    0.54332E+05        -0.49992E+08         0.00000E+00
    0.00000E+00         0.00000E+00        -0.20092E+08
 
   -0.20126E+08         0.63146E+05         0.00000E+00
    0.63146E+05        -0.49988E+08         0.00000E+00
    0.00000E+00         0.00000E+00        -0.20094E+08
 
   -0.20119E+08         0.69363E+05         0.00000E+00
    0.69363E+05        -0.49983E+08         0.00000E+00
    0.00000E+00         0.00000E+00        -0.20095E+08
 
   -0.20113E+08         0.73203E+05         0.00000E+00
    0.73203E+05        -0.49978E+08         0.00000E+00
    0.00000E+00         0.00000E+00        -0.20095E+08
 
   -0.20107E+08         0.74909E+05         0.00000E+00
    0.74909E+05        -0.49974E+08         0.00000E+00
    0.00000E+00         0.00000E+00        -0.20094E+08
 
   -0.20103E+08         0.74748E+05         0.00000E+00
    0.74748E+05        -0.49970E+08         0.00000E+00
    0.00000E+00         0.00000E+00        -0.20093E+08
 
   -0.20099E+08         0.73015E+05         0.00000E+00
    0.73015E+05        -0.49966E+08         0.00000E+00
    0.00000E+00         0.00000E+00        -0.20092E+08
 
   -0.20097E+08         0.70022E+05         0.00000E+00
    0.70022E+05        -0.49964E+08         0.00000E+00
    0.00000E+00         0.00000E+00        -0.20091E+08
 
   -0.20095E+08         0.66094E+05         0.00000E+00
    0.66094E+05        -0.49962E+08         0.00000E+00
    0.00000E+00         0.00000E+00        -0.20091E+08
 
   -0.20094E+08         0.61554E+05         0.00000E+00
    0.61554E+05        -0.49962E+08         0.00000E+00
    0.00000E+00         0.00000E+00        -0.20092E+08
 
   -0.20094E+08         0.56690E+05         0.00000E+00
    0.56690E+05        -0.49963E+08         0.00000E+00
    0.00000E+00         0.00000E+00        -0.20093E+08
 
   -0.20095E+08         0.51771E+05         0.00000E+00
    0.51771E+05        -0.49965E+08         0.00000E+00
    0.00000E+00         0.00000E+00        -0.20094E+08
 
   -0.20143E+08         0.11004E+05         0.00000E+00
    0.11004E+05        -0.50000E+08         0.00000E+00
    0.00000E+00         0.00000E+00        -0.20092E+08
 
   -0.20135E+08         0.30040E+05         0.00000E+00
    0.30040E+05        -0.49998E+08         0.00000E+00
    0.00000E+00         0.00000E+00        -0.20098E+08
 
   -0.20129E+08         0.45696E+05         0.00000E+00
    0.45696E+05        -0.49996E+08         0.00000E+00
    0.00000E+00         0.00000E+00        -0.20101E+08
 
   -0.20123E+08         0.58129E+05         0.00000E+00
    0.58129E+05        -0.49993E+08         0.00000E+00
    0.00000E+00         0.00000E+00        -0.20103E+08
 
   -0.20118E+08         0.67501E+05         0.00000E+00
    0.67501E+05        -0.49989E+08         0.00000E+00
    0.00000E+00         0.00000E+00        -0.20103E+08
 
   -0.20114E+08         0.73985E+05         0.00000E+00
    0.73985E+05        -0.49984E+08         0.00000E+00
    0.00000E+00         0.00000E+00        -0.20101E+08
 
   -0.20110E+08         0.77782E+05         0.00000E+00
    0.77782E+05        -0.49980E+08         0.00000E+00
    0.00000E+00         0.00000E+00        -0.20099E+08
 
   -0.20107E+08         0.79130E+05         0.00000E+00
    0.79130E+05        -0.49976E+08         0.00000E+00
    0.00000E+00         0.00000E+00        -0.20097E+08
 
   -0.20104E+08         0.78324E+05         0.00000E+00
    0.78324E+05        -0.49972E+08         0.00000E+00
    0.00000E+00         0.00000E+00        -0.20095E+08
 
   -0.20102E+08         0.75707E+05         0.00000E+00
    0.75707E+05        -0.49969E+08         0.00000E+00
    0.00000E+00         0.00000E+00        -0.20093E+08
 
   -0.20101E+08         0.71664E+05         0.00000E+00
    0.71664E+05        -0.49967E+08         0.00000E+00
    0.00000E+00         0.00000E+00        -0.20092E+08
 
   -0.20100E+08         0.66595E+05         0.00000E+00
    0.66595E+05        -0.49967E+08         0.00000E+00
    0.00000E+00         0.00000E+00        -0.20092E+08
 
   -0.20099E+08         0.60886E+05         0.00000E+00
    0.60886E+05        -0.49967E+08         0.00000E+00
    0.00000E+00         0.00000E+00        -0.20093E+08
 
   -0.20099E+08         0.54887E+05         0.00000E+00
    0.54887E+05        -0.49969E+08         0.00000E+00
    0.00000E+00         0.00000E+00        -0.20096E+08
 
   -0.20100E+08         0.48868E+05         0.00000E+00
    0.48868E+05        -0.49972E+08         0.00000E+00
    0.00000E+00         0.00000E+00        -0.20099E+08
 
   -0.20122E+08         0.11636E+05         0.00000E+00
    0.11636E+05        -0.50000E+08         0.00000E+00
    0.00000E+00         0.00000E+00        -0.20113E+08
 
   -0.20117E+08         0.31793E+05         0.00000E+00
    0.31793E+05        -0.49999E+08         0.00000E+00
    0.00000E+00         0.00000E+00        -0.20116E+08
 
   -0.20114E+08         0.48413E+05         0.00000E+00
    0.48413E+05        -0.49996E+08         0.00000E+00
    0.00000E+00         0.00000E+00        -0.20117E+08
 
   -0.20112E+08         0.61614E+05         0.00000E+00
    0.61614E+05        -0.49993E+08         0.00000E+00
    0.00000E+00         0.00000E+00        -0.20115E+08
 
   -0.20110E+08         0.71511E+05         0.00000E+00
    0.71511E+05        -0.49990E+08         0.00000E+00
    0.00000E+00         0.00000E+00        -0.20113E+08
 
   -0.20108E+08         0.78227E+05         0.00000E+00
    0.78227E+05        -0.49986E+08         0.00000E+00
    0.00000E+00         0.00000E+00        -0.20109E+08
 
   -0.20108E+08         0.81925E+05         0.00000E+00
    0.81925E+05        -0.49982E+08         0.00000E+00
    0.00000E+00         0.00000E+00        -0.20105E+08
 
   -0.20107E+08         0.82835E+05         0.00000E+00
    0.82835E+05        -0.49978E+08         0.00000E+00
    0.00000E+00         0.00000E+00        -0.20100E+08
 
   -0.20107E+08         0.81276E+05         0.00000E+00
    0.81276E+05        -0.49975E+08         0.00000E+00
    0.00000E+00         0.00000E+00        -0.20097E+08
 
   -0.20106E+08         0.77659E+05         0.00000E+00
    0.77659E+05        -0.49973E+08         0.00000E+00
    0.00000E+00         0.00000E+00        -0.20095E+08
 
   -0.20106E+08         0.72454E+05         0.00000E+00
    0.72454E+05        -0.49972E+08         0.00000E+00
    0.00000E+00         0.00000E+00        -0.20094E+08
 
   -0.20106E+08         0.66149E+05         0.00000E+00
    0.66149E+05        -0.49973E+08         0.00000E+00
    0.00000E+00         0.00000E+00        -0.20094E+08
 
   -0.20106E+08         0.59203E+05         0.00000E+00
    0.59203E+05        -0.49974E+08         0.00000E+00
    0.00000E+00         0.00000E+00        -0.20096E+08
 
   -0.20106E+08         0.52002E+05         0.00000E+00
    0.52002E+05        -0.49977E+08         0.00000E+00
    0.00000E+00         0.00000E+00        -0.20100E+08
 
   -0.20107E+08         0.44831E+05         0.00000E+00
    0.44831E+05        -0.49981E+08         0.00000E+00
    0.00000E+00         0.00000E+00        -0.20104E+08
 
   -0.20099E+08         0.12187E+05         0.00000E+00
    0.12187E+05        -0.50000E+08         0.00000E+00
    0.00000E+00         0.00000E+00        -0.20136E+08
 
   -0.20099E+08         0.33313E+05         0.00000E+00
    0.33313E+05        -0.49999E+08         0.00000E+00
    0.00000E+00         0.00000E+00        -0.20135E+08
 
   -0.20099E+08         0.50787E+05         0.00000E+00
    0.50787E+05        -0.49997E+08         0.00000E+00
    0.00000E+00         0.00000E+00        -0.20133E+08
 
   -0.20100E+08         0.64670E+05         0.00000E+00
    0.64670E+05        -0.49994E+08         0.00000E+00
    0.00000E+00         0.00000E+00        -0.20128E+08
 
   -0.20101E+08         0.75016E+05         0.00000E+00
    0.75016E+05        -0.49991E+08         0.00000E+00
    0.00000E+00         0.00000E+00        -0.20123E+08
 
   -0.20103E+08         0.81890E+05         0.00000E+00
    0.81890E+05        -0.49988E+08         0.00000E+00
    0.00000E+00         0.00000E+00        -0.20117E+08
 
   -0.20105E+08         0.85408E+05         0.00000E+00
    0.85408E+05        -0.49985E+08         0.00000E+00
    0.00000E+00         0.00000E+00        -0.20111E+08
 
   -0.20108E+08         0.85788E+05         0.00000E+00
    0.85788E+05        -0.49982E+08         0.00000E+00
    0.00000E+00         0.00000E+00        -0.20105E+08
 
   -0.20110E+08         0.83383E+05         0.00000E+00
    0.83383E+05        -0.49980E+08         0.00000E+00
    0.00000E+00         0.00000E+00        -0.20100E+08
 
   -0.20111E+08         0.78680E+05         0.00000E+00
    0.78680E+05        -0.49979E+08         0.00000E+00
    0.00000E+00         0.00000E+00        -0.20097E+08
 
   -0.20112E+08         0.72248E+05         0.00000E+00
    0.72248E+05        -0.49979E+08         0.00000E+00
    0.00000E+00         0.00000E+00        -0.20096E+08
 
   -0.20113E+08         0.64665E+05         0.00000E+00
    0.64665E+05        -0.49981E+08         0.00000E+00
    0.00000E+00         0.00000E+00        -0.20097E+08
 
   -0.20113E+08         0.56457E+05         0.00000E+00
    0.56457E+05        -0.49983E+08         0.00000E+00
    0.00000E+00         0.00000E+00        -0.20100E+08
 
   -0.20114E+08         0.48040E+05         0.00000E+00
    0.48040E+05        -0.49987E+08         0.00000E+00
    0.00000E+00         0.00000E+00        -0.20105E+08
 
   -0.20114E+08         0.39700E+05         0.00000E+00
    0.39700E+05        -0.49992E+08         0.00000E+00
    0.00000E+00         0.00000E+00        -0.20111E+08
 
   -0.20076E+08         0.12656E+05         0.00000E+00
    0.12656E+05        -0.50000E+08         0.00000E+00
    0.00000E+00         0.00000E+00        -0.20160E+08
 
   -0.20079E+08         0.34578E+05         0.00000E+00
    0.34578E+05        -0.49999E+08         0.00000E+00
    0.00000E+00         0.00000E+00        -0.20155E+08
 
   -0.20083E+08         0.52745E+05         0.00000E+00
    0.52745E+05        -0.49998E+08         0.00000E+00
    0.00000E+00         0.00000E+00        -0.20149E+08
 
   -0.20088E+08         0.67165E+05         0.00000E+00
    0.67165E+05        -0.49996E+08         0.00000E+00
    0.00000E+00         0.00000E+00        -0.20142E+08
 
   -0.20093E+08         0.77819E+05         0.00000E+00
    0.77819E+05        -0.49993E+08         0.00000E+00
    0.00000E+00         0.00000E+00        -0.20134E+08
 
   -0.20098E+08         0.84714E+05         0.00000E+00
    0.84714E+05        -0.49991E+08         0.00000E+00
    0.00000E+00         0.00000E+00        -0.20126E+08
 
   -0.20104E+08         0.87928E+05         0.00000E+00
    0.87928E+05        -0.49989E+08         0.00000E+00
    0.00000E+00         0.00000E+00        -0.20117E+08
 
   -0.20109E+08         0.87682E+05         0.00000E+00
    0.87682E+05        -0.49987E+08         0.00000E+00
    0.00000E+00         0.00000E+00        -0.20110E+08
 
   -0.20114E+08         0.84373E+05         0.00000E+00
    0.84373E+05        -0.49986E+08         0.00000E+00
    0.00000E+00         0.00000E+00        -0.20104E+08
 
   -0.20117E+08         0.78566E+05         0.00000E+00
    0.78566E+05        -0.49987E+08         0.00000E+00
    0.00000E+00         0.00000E+00        -0.20101E+08
 
   -0.20120E+08         0.70920E+05         0.00000E+00
    0.70920E+05        -0.49988E+08         0.00000E+00
    0.00000E+00         0.00000E+00        -0.20100E+08
 
   -0.20122E+08         0.62094E+05         0.00000E+00
    0.62094E+05        -0.49990E+08         0.00000E+00
    0.00000E+00         0.00000E+00        -0.20101E+08
 
   -0.20122E+08         0.52663E+05         0.00000E+00
    0.52663E+05        -0.49994E+08         0.00000E+00
    0.00000E+00         0.00000E+00        -0.20106E+08
 
   -0.20123E+08         0.43065E+05         0.00000E+00
    0.43065E+05        -0.49999E+08         0.00000E+00
    0.00000E+00         0.00000E+00        -0.20112E+08
 
   -0.20123E+08         0.33576E+05         0.00000E+00
    0.33576E+05        -0.50005E+08         0.00000E+00
    0.00000E+00         0.00000E+00        -0.20119E+08
 
   -0.20052E+08         0.13029E+05         0.00000E+00
    0.13029E+05        -0.50000E+08         0.00000E+00
    0.00000E+00         0.00000E+00        -0.20184E+08
 
   -0.20059E+08         0.35577E+05         0.00000E+00
    0.35577E+05        -0.49999E+08         0.00000E+00
    0.00000E+00         0.00000E+00        -0.20176E+08
 
   -0.20066E+08         0.54234E+05         0.00000E+00
    0.54234E+05        -0.49998E+08         0.00000E+00
    0.00000E+00         0.00000E+00        -0.20167E+08
 
   -0.20075E+08         0.68952E+05         0.00000E+00
    0.68952E+05        -0.49997E+08         0.00000E+00
    0.00000E+00         0.00000E+00        -0.20157E+08
 
   -0.20084E+08         0.79678E+05         0.00000E+00
    0.79678E+05        -0.49995E+08         0.00000E+00
    0.00000E+00         0.00000E+00        -0.20146E+08
 
   -0.20093E+08         0.86360E+05         0.00000E+00
    0.86360E+05        -0.49994E+08         0.00000E+00
    0.00000E+00         0.00000E+00        -0.20135E+08
 
   -0.20102E+08         0.89089E+05         0.00000E+00
    0.89089E+05        -0.49994E+08         0.00000E+00
    0.00000E+00         0.00000E+00        -0.20125E+08
 
   -0.20111E+08         0.88127E+05         0.00000E+00
    0.88127E+05        -0.49994E+08         0.00000E+00
    0.00000E+00         0.00000E+00        -0.20117E+08
 
   -0.20119E+08         0.83933E+05         0.00000E+00
    0.83933E+05        -0.49995E+08         0.00000E+00
    0.00000E+00         0.00000E+00        -0.20110E+08
 
   -0.20125E+08         0.77122E+05         0.00000E+00
    0.77122E+05        -0.49996E+08         0.00000E+00
    0.00000E+00         0.00000E+00        -0.20106E+08
 
   -0.20129E+08         0.68396E+05         0.00000E+00
    0.68396E+05        -0.49999E+08         0.00000E+00
    0.00000E+00         0.00000E+00        -0.20105E+08
 
   -0.20131E+08         0.58456E+05         0.00000E+00
    0.58456E+05        -0.50003E+08         0.00000E+00
    0.00000E+00         0.00000E+00        -0.20108E+08
 
   -0.20133E+08         0.47911E+05         0.00000E+00
    0.47911E+05        -0.50007E+08         0.00000E+00
    0.00000E+00         0.00000E+00        -0.20113E+08
 
   -0.20133E+08         0.37213E+05         0.00000E+00
    0.37213E+05        -0.50013E+08         0.00000E+00
    0.00000E+00         0.00000E+00        -0.20120E+08
 
   -0.20133E+08         0.26628E+05         0.00000E+00
    0.26628E+05        -0.50020E+08         0.00000E+00
    0.00000E+00         0.00000E+00        -0.20128E+08
 
   -0.20027E+08         0.13312E+05         0.00000E+00
    0.13312E+05        -0.50000E+08         0.00000E+00
    0.00000E+00         0.00000E+00        -0.20209E+08
 
   -0.20038E+08         0.36268E+05         0.00000E+00
    0.36268E+05        -0.50000E+08         0.00000E+00
    0.00000E+00         0.00000E+00        -0.20198E+08
 
   -0.20050E+08         0.55172E+05         0.00000E+00
    0.55172E+05        -0.49999E+08         0.00000E+00
    0.00000E+00         0.00000E+00        -0.20185E+08
 
   -0.20062E+08         0.69883E+05         0.00000E+00
    0.69883E+05        -0.49998E+08         0.00000E+00
    0.00000E+00         0.00000E+00        -0.20172E+08
 
   -0.20075E+08         0.80285E+05         0.00000E+00
    0.80285E+05        -0.49998E+08         0.00000E+00
    0.00000E+00         0.00000E+00        -0.20158E+08
 
   -0.20089E+08         0.86399E+05         0.00000E+00
    0.86399E+05        -0.49999E+08         0.00000E+00
    0.00000E+00         0.00000E+00        -0.20145E+08
 
   -0.20102E+08         0.88397E+05         0.00000E+00
    0.88397E+05        -0.50000E+08         0.00000E+00
    0.00000E+00         0.00000E+00        -0.20134E+08
 
   -0.20114E+08         0.86669E+05         0.00000E+00
    0.86669E+05        -0.50002E+08         0.00000E+00
    0.00000E+00         0.00000E+00        -0.20125E+08
 
   -0.20125E+08         0.81735E+05         0.00000E+00
    0.81735E+05        -0.50005E+08         0.00000E+00
    0.00000E+00         0.00000E+00        -0.20118E+08
 
   -0.20133E+08         0.74189E+05         0.00000E+00
    0.74189E+05        -0.50009E+08         0.00000E+00
    0.00000E+00         0.00000E+00        -0.20114E+08
 
   -0.20139E+08         0.64673E+05         0.00000E+00
    0.64673E+05        -0.50013E+08         0.00000E+00
    0.00000E+00         0.00000E+00        -0.20114E+08
 
   -0.20142E+08         0.53860E+05         0.00000E+00
    0.53860E+05        -0.50017E+08         0.00000E+00
    0.00000E+00         0.00000E+00        -0.20116E+08
 
   -0.20144E+08         0.42373E+05         0.00000E+00
    0.42373E+05        -0.50023E+08         0.00000E+00
    0.00000E+00         0.00000E+00        -0.20122E+08
 
   -0.20144E+08         0.30694E+05         0.00000E+00
    0.30694E+05        -0.50029E+08         0.00000E+00
    0.00000E+00         0.00000E+00        -0.20130E+08
 
   -0.20144E+08         0.19098E+05         0.00000E+00
    0.19098E+05        -0.50036E+08         0.00000E+00
    0.00000E+00         0.00000E+00        -0.20139E+08
 
   -0.20002E+08         0.13504E+05         0.00000E+00
    0.13504E+05        -0.50000E+08         0.00000E+00
    0.00000E+00         0.00000E+00        -0.20235E+08
 
   -0.20017E+08         0.36617E+05         0.00000E+00
    0.36617E+05        -0.50000E+08         0.00000E+00
    0.00000E+00         0.00000E+00        -0.20219E+08
 
   -0.20033E+08         0.55426E+05         0.00000E+00
    0.55426E+05        -0.50000E+08         0.00000E+00
    0.00000E+00         0.00000E+00        -0.20203E+08
 
   -0.20050E+08         0.69682E+05         0.00000E+00
    0.69682E+05        -0.50000E+08         0.00000E+00
    0.00000E+00         0.00000E+00        -0.20187E+08
 
   -0.20067E+08         0.79259E+05         0.00000E+00
    0.79259E+05        -0.50002E+08         0.00000E+00
    0.00000E+00         0.00000E+00        -0.20171E+08
 
   -0.20085E+08         0.84309E+05         0.00000E+00
    0.84309E+05        -0.50004E+08         0.00000E+00
    0.00000E+00         0.00000E+00        -0.20157E+08
 
   -0.20102E+08         0.85313E+05         0.00000E+00
    0.85313E+05        -0.50008E+08         0.00000E+00
    0.00000E+00         0.00000E+00        -0.20145E+08
 
   -0.20118E+08         0.82855E+05         0.00000E+00
    0.82855E+05        -0.50013E+08         0.00000E+00
    0.00000E+00         0.00000E+00        -0.20135E+08
 
   -0.20131E+08         0.77484E+05         0.00000E+00
    0.77484E+05        -0.50018E+08         0.00000E+00
    0.00000E+00         0.00000E+00        -0.20129E+08
 
   -0.20142E+08         0.69658E+05         0.00000E+00
    0.69658E+05        -0.50024E+08         0.00000E+00
    0.00000E+00         0.00000E+00        -0.20125E+08
 
   -0.20149E+08         0.59818E+05         0.00000E+00
    0.59818E+05        -0.50029E+08         0.00000E+00
    0.00000E+00         0.00000E+00        -0.20125E+08
 
   -0.20154E+08         0.48500E+05         0.00000E+00
    0.48500E+05        -0.50035E+08         0.00000E+00
    0.00000E+00         0.00000E+00        -0.20127E+08
 
   -0.20156E+08         0.36313E+05         0.00000E+00
    0.36313E+05        -0.50040E+08         0.00000E+00
    0.00000E+00         0.00000E+00        -0.20133E+08
 
   -0.20156E+08         0.23802E+05         0.00000E+00
    0.23802E+05        -0.50047E+08         0.00000E+00
    0.00000E+00         0.00000E+00        -0.20141E+08
 
   -0.20156E+08         0.11296E+05         0.00000E+00
    0.11296E+05        -0.50054E+08         0.00000E+00
    0.00000E+00         0.00000E+00        -0.20151E+08
 
   -0.19977E+08         0.13606E+05         0.00000E+00
    0.13606E+05        -0.50000E+08         0.00000E+00
    0.00000E+00         0.00000E+00        -0.20260E+08
 
   -0.19996E+08         0.36559E+05         0.00000E+00
    0.36559E+05        -0.50000E+08         0.00000E+00
    0.00000E+00         0.00000E+00        -0.20241E+08
 
   -0.20017E+08         0.54782E+05         0.00000E+00
    0.54782E+05        -0.50001E+08         0.00000E+00
    0.00000E+00         0.00000E+00        -0.20221E+08
 
   -0.20038E+08         0.67922E+05         0.00000E+00
    0.67922E+05        -0.50003E+08         0.00000E+00
    0.00000E+00         0.00000E+00        -0.20201E+08
 
   -0.20061E+08         0.75991E+05         0.00000E+00
    0.75991E+05        -0.50007E+08         0.00000E+00
    0.00000E+00         0.00000E+00        -0.20184E+08
 
   -0.20083E+08         0.79527E+05         0.00000E+00
    0.79527E+05        -0.50012E+08         0.00000E+00
    0.00000E+00         0.00000E+00        -0.20169E+08
 
   -0.20103E+08         0.79383E+05         0.00000E+00
    0.79383E+05        -0.50019E+08         0.00000E+00
    0.00000E+00         0.00000E+00        -0.20158E+08
 
   -0.20122E+08         0.76364E+05         0.00000E+00
    0.76364E+05        -0.50027E+08         0.00000E+00
    0.00000E+00         0.00000E+00        -0.20149E+08
 
   -0.20138E+08         0.70977E+05         0.00000E+00
    0.70977E+05        -0.50034E+08         0.00000E+00
    0.00000E+00         0.00000E+00        -0.20143E+08
 
   -0.20150E+08         0.63455E+05         0.00000E+00
    0.63455E+05        -0.50042E+08         0.00000E+00
    0.00000E+00         0.00000E+00        -0.20140E+08
 
   -0.20160E+08         0.53924E+05         0.00000E+00
    0.53924E+05        -0.50048E+08         0.00000E+00
    0.00000E+00         0.00000E+00        -0.20140E+08
 
   -0.20166E+08         0.42627E+05         0.00000E+00
    0.42627E+05        -0.50055E+08         0.00000E+00
    0.00000E+00         0.00000E+00        -0.20142E+08
 
   -0.20168E+08         0.30076E+05         0.00000E+00
    0.30076E+05        -0.50061E+08         0.00000E+00
    0.00000E+00         0.00000E+00        -0.20147E+08
 
   -0.20169E+08         0.16912E+05         0.00000E+00
    0.16912E+05        -0.50067E+08         0.00000E+00
    0.00000E+00         0.00000E+00        -0.20155E+08
 
   -0.20169E+08         0.36057E+04         0.00000E+00
    0.36057E+04        -0.50074E+08         0.00000E+00
    0.00000E+00         0.00000E+00        -0.20164E+08
 
   -0.19952E+08         0.13610E+05         0.00000E+00
    0.13610E+05        -0.50000E+08         0.00000E+00
    0.00000E+00         0.00000E+00        -0.20286E+08
 
   -0.19976E+08         0.35953E+05         0.00000E+00
    0.35953E+05        -0.50001E+08         0.00000E+00
    0.00000E+00         0.00000E+00        -0.20262E+08
 
   -0.20002E+08         0.52825E+05         0.00000E+00
    0.52825E+05        -0.50002E+08         0.00000E+00
    0.00000E+00         0.00000E+00        -0.20238E+08
 
   -0.20029E+08         0.63902E+05         0.00000E+00
    0.63902E+05        -0.50007E+08         0.00000E+00
    0.00000E+00         0.00000E+00        -0.20216E+08
 
   -0.20056E+08         0.69725E+05         0.00000E+00
    0.69725E+05        -0.50013E+08         0.00000E+00
    0.00000E+00         0.00000E+00        -0.20198E+08
 
   -0.20082E+08         0.71499E+05         0.00000E+00
    0.71499E+05        -0.50022E+08         0.00000E+00
    0.00000E+00         0.00000E+00        -0.20184E+08
 
   -0.20105E+08         0.70390E+05         0.00000E+00
    0.70390E+05        -0.50033E+08         0.00000E+00
    0.00000E+00         0.00000E+00        -0.20173E+08
 
   -0.20126E+08         0.67153E+05         0.00000E+00
    0.67153E+05        -0.50043E+08         0.00000E+00
    0.00000E+00         0.00000E+00        -0.20166E+08
 
   -0.20144E+08         0.62169E+05         0.00000E+00
    0.62169E+05        -0.50053E+08         0.00000E+00
    0.00000E+00         0.00000E+00        -0.20162E+08
 
   -0.20158E+08         0.55512E+05         0.00000E+00
    0.55512E+05        -0.50063E+08         0.00000E+00
    0.00000E+00         0.00000E+00        -0.20160E+08
 
   -0.20170E+08         0.47004E+05         0.00000E+00
    0.47004E+05        -0.50071E+08         0.00000E+00
    0.00000E+00         0.00000E+00        -0.20159E+08
 
   -0.20177E+08         0.36468E+05         0.00000E+00
    0.36468E+05        -0.50078E+08         0.00000E+00
    0.00000E+00         0.00000E+00        -0.20160E+08
 
   -0.20181E+08         0.24072E+05         0.00000E+00
    0.24072E+05        -0.50083E+08         0.00000E+00
    0.00000E+00         0.00000E+00        -0.20164E+08
 
   -0.20183E+08         0.10503E+05         0.00000E+00
    0.10503E+05        -0.50089E+08         0.00000E+00
    0.00000E+00         0.00000E+00        -0.20170E+08
 
   -0.20183E+08        -0.34945E+04         0.00000E+00
   -0.34945E+04        -0.50096E+08         0.00000E+00
    0.00000E+00         0.00000E+00        -0.20178E+08
 
   -0.19927E+08         0.13487E+05         0.00000E+00
    0.13487E+05        -0.50000E+08         0.00000E+00
    0.00000E+00         0.00000E+00        -0.20311E+08
 
   -0.19957E+08         0.34454E+05         0.00000E+00
    0.34454E+05        -0.50001E+08         0.00000E+00
    0.00000E+00         0.00000E+00        -0.20282E+08
 
   -0.19989E+08         0.48708E+05         0.00000E+00
    0.48708E+05        -0.50005E+08         0.00000E+00
    0.00000E+00         0.00000E+00        -0.20255E+08
 
   -0.20022E+08         0.56563E+05         0.00000E+00
    0.56563E+05        -0.50013E+08         0.00000E+00
    0.00000E+00         0.00000E+00        -0.20232E+08
 
   -0.20053E+08         0.59760E+05         0.00000E+00
    0.59760E+05        -0.50024E+08         0.00000E+00
    0.00000E+00         0.00000E+00        -0.20214E+08
 
   -0.20082E+08         0.60041E+05         0.00000E+00
    0.60041E+05        -0.50036E+08         0.00000E+00
    0.00000E+00         0.00000E+00        -0.20202E+08
 
   -0.20108E+08         0.58430E+05         0.00000E+00
    0.58430E+05        -0.50049E+08         0.00000E+00
    0.00000E+00         0.00000E+00        -0.20193E+08
 
   -0.20130E+08         0.55428E+05         0.00000E+00
    0.55428E+05        -0.50063E+08         0.00000E+00
    0.00000E+00         0.00000E+00        -0.20188E+08
 
   -0.20149E+08         0.51228E+05         0.00000E+00
    0.51228E+05        -0.50075E+08         0.00000E+00
    0.00000E+00         0.00000E+00        -0.20185E+08
 
   -0.20165E+08         0.45801E+05         0.00000E+00
    0.45801E+05        -0.50086E+08         0.00000E+00
    0.00000E+00         0.00000E+00        -0.20183E+08
 
   -0.20178E+08         0.38906E+05         0.00000E+00
    0.38906E+05        -0.50096E+08         0.00000E+00
    0.00000E+00         0.00000E+00        -0.20183E+08
 
   -0.20188E+08         0.30033E+05         0.00000E+00
    0.30033E+05        -0.50103E+08         0.00000E+00
    0.00000E+00         0.00000E+00        -0.20183E+08
 
   -0.20194E+08         0.18699E+05         0.00000E+00
    0.18699E+05        -0.50109E+08         0.00000E+00
    0.00000E+00         0.00000E+00        -0.20185E+08
 
   -0.20196E+08         0.51881E+04         0.00000E+00
    0.51881E+04        -0.50114E+08         0.00000E+00
    0.00000E+00         0.00000E+00        -0.20189E+08
 
   -0.20197E+08        -0.93862E+04         0.00000E+00
   -0.93862E+04        -0.50119E+08         0.00000E+00
    0.00000E+00         0.00000E+00        -0.20194E+08
 
   -0.19904E+08         0.13128E+05         0.00000E+00
    0.13128E+05        -0.50000E+08         0.00000E+00
    0.00000E+00         0.00000E+00        -0.20335E+08
 
   -0.19941E+08         0.31133E+05         0.00000E+00
    0.31133E+05        -0.50003E+08         0.00000E+00
    0.00000E+00         0.00000E+00        -0.20301E+08
 
   -0.19980E+08         0.40845E+05         0.00000E+00
    0.40845E+05        -0.50011E+08         0.00000E+00
    0.00000E+00         0.00000E+00        -0.20272E+08
 
   -0.20018E+08         0.44859E+05         0.00000E+00
    0.44859E+05        -0.50023E+08         0.00000E+00
    0.00000E+00         0.00000E+00        -0.20249E+08
 
   -0.20052E+08         0.45976E+05         0.00000E+00
    0.45976E+05        -0.50038E+08         0.00000E+00
    0.00000E+00         0.00000E+00        -0.20234E+08
 
   -0.20083E+08         0.45482E+05         0.00000E+00
    0.45482E+05        -0.50054E+08         0.00000E+00
    0.00000E+00         0.00000E+00        -0.20224E+08
 
   -0.20110E+08         0.43926E+05         0.00000E+00
    0.43926E+05        -0.50069E+08         0.00000E+00
    0.00000E+00         0.00000E+00        -0.20217E+08
 
   -0.20133E+08         0.41544E+05         0.00000E+00
    0.41544E+05        -0.50085E+08         0.00000E+00
    0.00000E+00         0.00000E+00        -0.20214E+08
 
   -0.20153E+08         0.38403E+05         0.00000E+00
    0.38403E+05        -0.50099E+08         0.00000E+00
    0.00000E+00         0.00000E+00        -0.20212E+08
 
   -0.20171E+08         0.34437E+05         0.00000E+00
    0.34437E+05        -0.50112E+08         0.00000E+00
    0.00000E+00         0.00000E+00        -0.20212E+08
 
   -0.20185E+08         0.29434E+05         0.00000E+00
    0.29434E+05        -0.50123E+08         0.00000E+00
    0.00000E+00         0.00000E+00        -0.20212E+08
 
   -0.20197E+08         0.22929E+05         0.00000E+00
    0.22929E+05        -0.50132E+08         0.00000E+00
    0.00000E+00         0.00000E+00        -0.20212E+08
 
   -0.20205E+08         0.14030E+05         0.00000E+00
    0.14030E+05        -0.50138E+08         0.00000E+00
    0.00000E+00         0.00000E+00        -0.20211E+08
 
   -0.20210E+08         0.17411E+04         0.00000E+00
    0.17411E+04        -0.50141E+08         0.00000E+00
    0.00000E+00         0.00000E+00        -0.20211E+08
 
   -0.20212E+08        -0.13152E+05         0.00000E+00
   -0.13152E+05        -0.50143E+08         0.00000E+00
    0.00000E+00         0.00000E+00        -0.20212E+08
 
   -0.19883E+08         0.11911E+05         0.00000E+00
    0.11911E+05        -0.50001E+08         0.00000E+00
    0.00000E+00         0.00000E+00        -0.20358E+08
 
   -0.19930E+08         0.23537E+05         0.00000E+00
    0.23537E+05        -0.50008E+08         0.00000E+00
    0.00000E+00         0.00000E+00        -0.20320E+08
 
   -0.19975E+08         0.27512E+05         0.00000E+00
    0.27512E+05        -0.50022E+08         0.00000E+00
    0.00000E+00         0.00000E+00        -0.20291E+08
 
   -0.20016E+08         0.28886E+05         0.00000E+00
    0.28886E+05        -0.50039E+08         0.00000E+00
    0.00000E+00         0.00000E+00        -0.20271E+08
 
   -0.20053E+08         0.29054E+05         0.00000E+00
    0.29054E+05        -0.50057E+08         0.00000E+00
    0.00000E+00         0.00000E+00        -0.20258E+08
 
   -0.20084E+08         0.28492E+05         0.00000E+00
    0.28492E+05        -0.50075E+08         0.00000E+00
    0.00000E+00         0.00000E+00        -0.20250E+08
 
   -0.20112E+08         0.27409E+05         0.00000E+00
    0.27409E+05        -0.50092E+08         0.00000E+00
    0.00000E+00         0.00000E+00        -0.20246E+08
 
   -0.20135E+08         0.25899E+05         0.00000E+00
    0.25899E+05        -0.50109E+08         0.00000E+00
    0.00000E+00         0.00000E+00        -0.20244E+08
 
   -0.20156E+08         0.23976E+05         0.00000E+00
    0.23976E+05        -0.50125E+08         0.00000E+00
    0.00000E+00         0.00000E+00        -0.20244E+08
 
   -0.20174E+08         0.21584E+05         0.00000E+00
    0.21584E+05        -0.50139E+08         0.00000E+00
    0.00000E+00         0.00000E+00        -0.20245E+08
 
   -0.20190E+08         0.18576E+05         0.00000E+00
    0.18576E+05        -0.50152E+08         0.00000E+00
    0.00000E+00         0.00000E+00        -0.20245E+08
 
   -0.20203E+08         0.14664E+05         0.00000E+00
    0.14664E+05        -0.50162E+08         0.00000E+00
    0.00000E+00         0.00000E+00        -0.20245E+08
 
   -0.20214E+08         0.92100E+04         0.00000E+00
    0.92100E+04        -0.50169E+08         0.00000E+00
    0.00000E+00         0.00000E+00        -0.20243E+08
 
   -0.20222E+08         0.70416E+03         0.00000E+00
    0.70416E+03        -0.50171E+08         0.00000E+00
    0.00000E+00         0.00000E+00        -0.20238E+08
 
   -0.20227E+08        -0.13307E+05         0.00000E+00
   -0.13307E+05        -0.50171E+08         0.00000E+00
    0.00000E+00         0.00000E+00        -0.20232E+08
 
   -0.19870E+08         0.60889E+04         0.00000E+00
    0.60889E+04        -0.50008E+08         0.00000E+00
    0.00000E+00         0.00000E+00        -0.20381E+08
 
   -0.19925E+08         0.85374E+04         0.00000E+00
    0.85374E+04        -0.50022E+08         0.00000E+00
    0.00000E+00         0.00000E+00        -0.20342E+08
 
   -0.19974E+08         0.96165E+04         0.00000E+00
    0.96165E+04        -0.50040E+08         0.00000E+00
    0.00000E+00         0.00000E+00        -0.20316E+08
 
   -0.20016E+08         0.99793E+04         0.00000E+00
    0.99793E+04        -0.50059E+08         0.00000E+00
    0.00000E+00         0.00000E+00        -0.20299E+08
 
   -0.20053E+08         0.99682E+04         0.00000E+00
    0.99682E+04        -0.50079E+08         0.00000E+00
    0.00000E+00         0.00000E+00        -0.20288E+08
 
   -0.20085E+08         0.97401E+04         0.00000E+00
    0.97401E+04        -0.50099E+08         0.00000E+00
    0.00000E+00         0.00000E+00        -0.20282E+08
 
   -0.20112E+08         0.93560E+04         0.00000E+00
    0.93560E+04        -0.50118E+08         0.00000E+00
    0.00000E+00         0.00000E+00        -0.20279E+08
 
   -0.20137E+08         0.88414E+04         0.00000E+00
    0.88414E+04        -0.50136E+08         0.00000E+00
    0.00000E+00         0.00000E+00        -0.20278E+08
 
   -0.20158E+08         0.81976E+04         0.00000E+00
    0.81976E+04        -0.50153E+08         0.00000E+00
    0.00000E+00         0.00000E+00        -0.20279E+08
 
   -0.20176E+08         0.74028E+04         0.00000E+00
    0.74028E+04        -0.50169E+08         0.00000E+00
    0.00000E+00         0.00000E+00        -0.20281E+08
 
   -0.20192E+08         0.64043E+04         0.00000E+00
    0.64043E+04        -0.50182E+08         0.00000E+00
    0.00000E+00         0.00000E+00        -0.20284E+08
 
   -0.20206E+08         0.50951E+04         0.00000E+00
    0.50951E+04        -0.50194E+08         0.00000E+00
    0.00000E+00         0.00000E+00        -0.20285E+08
 
   -0.20219E+08         0.32825E+04         0.00000E+00
    0.32825E+04        -0.50202E+08         0.00000E+00
    0.00000E+00         0.00000E+00        -0.20283E+08
 
   -0.20230E+08         0.40092E+03         0.00000E+00
    0.40092E+03        -0.50206E+08         0.00000E+00
    0.00000E+00         0.00000E+00        -0.20276E+08
 
   -0.20239E+08        -0.60417E+04         0.00000E+00
   -0.60417E+04        -0.50200E+08         0.00000E+00
    0.00000E+00         0.00000E+00        -0.20259E+08
 
TENSORS stresstot double 
   -0.30302E+08         0.19339E+03         0.00000E+00
    0.19339E+03        -0.60000E+08         0.00000E+00
    0.00000E+00         0.00000E+00        -0.29936E+08
 
   -0.30270E+08         0.55122E+03         0.00000E+00
    0.55122E+03        -0.59999E+08         0.00000E+00
    0.00000E+00         0.00000E+00        -0.29966E+08
 
   -0.30240E+08         0.87217E+03         0.00000E+00
    0.87217E+03        -0.59997E+08         0.00000E+00
    0.00000E+00         0.00000E+00        -0.29993E+08
 
   -0.30213E+08         0.11587E+04         0.00000E+00
    0.11587E+04        -0.59995E+08         0.00000E+00
    0.00000E+00         0.00000E+00        -0.30017E+08
 
   -0.30189E+08         0.14131E+04         0.00000E+00
    0.14131E+04        -0.59993E+08         0.00000E+00
    0.00000E+00         0.00000E+00        -0.30037E+08
 
   -0.30167E+08         0.16380E+04         0.00000E+00
    0.16380E+04        -0.59990E+08         0.00000E+00
    0.00000E+00         0.00000E+00        -0.30055E+08
 
   -0.30148E+08         0.18362E+04         0.00000E+00
    0.18362E+04        -0.59986E+08         0.00000E+00
    0.00000E+00         0.00000E+00        -0.30069E+08
 
   -0.30132E+08         0.20091E+04         0.00000E+00
    0.20091E+04        -0.59982E+08         0.00000E+00
    0.00000E+00         0.00000E+00        -0.30081E+08
 
   -0.30118E+08         0.21590E+04         0.00000E+00
    0.21590E+04        -0.59978E+08         0.00000E+00
    0.00000E+00         0.00000E+00        -0.30089E+08
 
   -0.30106E+08         0.22882E+04         0.00000E+00
    0.22882E+04        -0.59974E+08         0.00000E+00
    0.00000E+00         0.00000E+00        -0.30095E+08
 
   -0.30096E+08         0.23989E+04         0.00000E+00
    0.23989E+04        -0.59969E+08         0.00000E+00
    0.00000E+00         0.00000E+00        -0.30098E+08
 
   -0.30089E+08         0.24931E+04         0.00000E+00
    0.24931E+04        -0.59964E+08         0.00000E+00
    0.00000E+00         0.00000E+00        -0.30099E+08
 
   -0.30085E+08         0.25730E+04         0.00000E+00
    0.25730E+04        -0.59959E+08         0.00000E+00
    0.00000E+00         0.00000E+00        -0.30097E+08
 
   -0.30082E+08         0.26406E+04         0.00000E+00
    0.26406E+04        -0.59954E+08         0.00000E+00
    0.00000E+00         0.00000E+00        -0.30093E+08
 
   -0.30082E+08         0.26980E+04         0.00000E+00
    0.26980E+04        -0.59949E+08         0.00000E+00
    0.00000E+00         0.00000E+00        -0.30086E+08
 
   -0.30301E+08         0.58437E+03         0.00000E+00
    0.58437E+03        -0.60000E+08         0.00000E+00
    0.00000E+00         0.00000E+00        -0.29936E+08
 
   -0.30269E+08         0.16644E+04         0.00000E+00
    0.16644E+04        -0.59999E+08         0.00000E+00
    0.00000E+00         0.00000E+00        -0.29967E+08
 
   -0.30240E+08         0.26316E+04         0.00000E+00
    0.26316E+04        -0.59997E+08         0.00000E+00
    0.00000E+00         0.00000E+00        -0.29993E+08
 
   -0.30213E+08         0.34936E+04         0.00000E+00
    0.34936E+04        -0.59995E+08         0.00000E+00
    0.00000E+00         0.00000E+00        -0.30017E+08
 
   -0.30189E+08         0.42576E+04         0.00000E+00
    0.42576E+04        -0.59993E+08         0.00000E+00
    0.00000E+00         0.00000E+00        -0.30038E+08
 
   -0.30167E+08         0.49316E+04         0.00000E+00
    0.49316E+04        -0.59990E+08         0.00000E+00
    0.00000E+00         0.00000E+00        -0.30055E+08
 
   -0.30148E+08         0.55238E+04         0.00000E+00
    0.55238E+04        -0.59986E+08         0.00000E+00
    0.00000E+00         0.00000E+00        -0.30069E+08
 
   -0.30131E+08         0.60396E+04         0.00000E+00
    0.60396E+04        -0.59982E+08         0.00000E+00
    0.00000E+00         0.00000E+00        -0.30081E+08
 
   -0.30117E+08         0.64857E+04         0.00000E+00
    0.64857E+04        -0.59978E+08         0.00000E+00
    0.00000E+00         0.00000E+00        -0.30089E+08
 
   -0.30106E+08         0.68690E+04         0.00000E+00
    0.68690E+04        -0.59974E+08         0.00000E+00
    0.00000E+00         0.00000E+00        -0.30095E+08
 
   -0.30096E+08         0.71964E+04         0.00000E+00
    0.71964E+04        -0.59969E+08         0.00000E+00
    0.00000E+00         0.00000E+00        -0.30098E+08
 
   -0.30089E+08         0.74744E+04         0.00000E+00
    0.74744E+04        -0.59964E+08         0.00000E+00
    0.00000E+00         0.00000E+00        -0.30099E+08
 
   -0.30084E+08         0.77094E+04         0.00000E+00
    0.77094E+04        -0.59959E+08         0.00000E+00
    0.00000E+00         0.00000E+00        -0.30097E+08
 
   -0.30082E+08         0.79076E+04         0.00000E+00
    0.79076E+04        -0.59954E+08         0.00000E+00
    0.00000E+00         0.00000E+00        -0.30093E+08
 
   -0.30082E+08         0.80751E+04         0.00000E+00
    0.80751E+04        -0.59949E+08         0.00000E+00
    0.00000E+00         0.00000E+00        -0.30086E+08
 
   -0.30300E+08         0.98794E+03         0.00000E+00
    0.98794E+03        -0.60000E+08         0.00000E+00
    0.00000E+00         0.00000E+00        -0.29938E+08
 
   -0.30268E+08         0.28096E+04         0.00000E+00
    0.28096E+04        -0.59999E+08         0.00000E+00
    0.00000E+00         0.00000E+00        -0.29968E+08
 
   -0.30238E+08         0.44362E+04         0.00000E+00
    0.44362E+04        -0.59997E+08         0.00000E+00
    0.00000E+00         0.00000E+00        -0.29995E+08
 
   -0.30212E+08         0.58808E+04         0.00000E+00
    0.58808E+04        -0.59995E+08         0.00000E+00
    0.00000E+00         0.00000E+00        -0.30018E+08
 
   -0.30188E+08         0.71567E+04         0.00000E+00
    0.71567E+04        -0.59992E+08         0.00000E+00
    0.00000E+00         0.00000E+00        -0.30038E+08
 
   -0.30166E+08         0.82771E+04         0.00000E+00
    0.82771E+04        -0.59989E+08         0.00000E+00
    0.00000E+00         0.00000E+00        -0.30055E+08
 
   -0.30147E+08         0.92568E+04         0.00000E+00
    0.92568E+04        -0.59986E+08         0.00000E+00
    0.00000E+00         0.00000E+00        -0.30069E+08
 
   -0.30131E+08         0.10107E+05         0.00000E+00
    0.10107E+05        -0.59982E+08         0.00000E+00
    0.00000E+00         0.00000E+00        -0.30081E+08
 
   -0.30117E+08         0.10838E+05         0.00000E+00
    0.10838E+05        -0.59978E+08         0.00000E+00
    0.00000E+00         0.00000E+00        -0.30089E+08
 
   -0.30105E+08         0.11463E+05         0.00000E+00
    0.11463E+05        -0.59973E+08         0.00000E+00
    0.00000E+00         0.00000E+00        -0.30095E+08
 
   -0.30096E+08         0.11993E+05         0.00000E+00
    0.11993E+05        -0.59968E+08         0.00000E+00
    0.00000E+00         0.00000E+00        -0.30098E+08
 
   -0.30089E+08         0.12441E+05         0.00000E+00
    0.12441E+05        -0.59964E+08         0.00000E+00
    0.00000E+00         0.00000E+00        -0.30099E+08
 
   -0.30084E+08         0.12816E+05         0.00000E+00
    0.12816E+05        -0.59959E+08         0.00000E+00
    0.00000E+00         0.00000E+00        -0.30097E+08
 
   -0.30082E+08         0.13131E+05         0.00000E+00
    0.13131E+05        -0.59953E+08         0.00000E+00
    0.00000E+00         0.00000E+00        -0.30092E+08
 
   -0.30081E+08         0.13395E+05         0.00000E+00
    0.13395E+05        -0.59948E+08         0.00000E+00
    0.00000E+00         0.00000E+00        -0.30086E+08
 
   -0.30297E+08         0.14122E+04         0.00000E+00
    0.14122E+04        -0.60000E+08         0.00000E+00
    0.00000E+00         0.00000E+00        -0.29940E+08
 
   -0.30266E+08         0.40076E+04         0.00000E+00
    0.40076E+04        -0.59999E+08         0.00000E+00
    0.00000E+00         0.00000E+00        -0.29970E+08
 
   -0.30237E+08         0.63149E+04         0.00000E+00
    0.63149E+04        -0.59997E+08         0.00000E+00
    0.00000E+00         0.00000E+00        -0.29996E+08
 
   -0.30210E+08         0.83540E+04         0.00000E+00
    0.83540E+04        -0.59995E+08         0.00000E+00
    0.00000E+00         0.00000E+00        -0.30019E+08
 
   -0.30186E+08         0.10145E+05         0.00000E+00
    0.10145E+05        -0.59992E+08         0.00000E+00
    0.00000E+00         0.00000E+00        -0.30039E+08
 
   -0.30165E+08         0.11707E+05         0.00000E+00
    0.11707E+05        -0.59989E+08         0.00000E+00
    0.00000E+00         0.00000E+00        -0.30056E+08
 
   -0.30146E+08         0.13064E+05         0.00000E+00
    0.13064E+05        -0.59985E+08         0.00000E+00
    0.00000E+00         0.00000E+00        -0.30070E+08
 
   -0.30130E+08         0.14233E+05         0.00000E+00
    0.14233E+05        -0.59981E+08         0.00000E+00
    0.00000E+00         0.00000E+00        -0.30081E+08
 
   -0.30116E+08         0.15230E+05         0.00000E+00
    0.15230E+05        -0.59977E+08         0.00000E+00
    0.00000E+00         0.00000E+00        -0.30089E+08
 
   -0.30104E+08         0.16075E+05         0.00000E+00
    0.16075E+05        -0.59972E+08         0.00000E+00
    0.00000E+00         0.00000E+00        -0.30095E+08
 
   -0.30095E+08         0.16786E+05         0.00000E+00
    0.16786E+05        -0.59968E+08         0.00000E+00
    0.00000E+00         0.00000E+00        -0.30098E+08
 
   -0.30088E+08         0.17380E+05         0.00000E+00
    0.17380E+05        -0.59963E+08         0.00000E+00
    0.00000E+00         0.00000E+00        -0.30098E+08
 
   -0.30084E+08         0.17873E+05         0.00000E+00
    0.17873E+05        -0.59958E+08         0.00000E+00
    0.00000E+00         0.00000E+00        -0.30096E+08
 
   -0.30081E+08         0.18280E+05         0.00000E+00
    0.18280E+05        -0.59953E+08         0.00000E+00
    0.00000E+00         0.00000E+00        -0.30092E+08
 
   -0.30081E+08         0.18618E+05         0.00000E+00
    0.18618E+05        -0.59948E+08         0.00000E+00
    0.00000E+00         0.00000E+00        -0.30085E+08
 
   -0.30294E+08         0.18649E+04         0.00000E+00
    0.18649E+04        -0.60000E+08         0.00000E+00
    0.00000E+00         0.00000E+00        -0.29943E+08
 
   -0.30263E+08         0.52778E+04         0.00000E+00
    0.52778E+04        -0.59999E+08         0.00000E+00
    0.00000E+00         0.00000E+00        -0.29972E+08
 
   -0.30234E+08         0.82952E+04         0.00000E+00
    0.82952E+04        -0.59997E+08         0.00000E+00
    0.00000E+00         0.00000E+00        -0.29998E+08
 
   -0.30208E+08         0.10945E+05         0.00000E+00
    0.10945E+05        -0.59995E+08         0.00000E+00
    0.00000E+00         0.00000E+00        -0.30021E+08
 
   -0.30184E+08         0.13254E+05         0.00000E+00
    0.13254E+05        -0.59992E+08         0.00000E+00
    0.00000E+00         0.00000E+00        -0.30041E+08
 
   -0.30163E+08         0.15252E+05         0.00000E+00
    0.15252E+05        -0.59988E+08         0.00000E+00
    0.00000E+00         0.00000E+00        -0.30057E+08
 
   -0.30145E+08         0.16971E+05         0.00000E+00
    0.16971E+05        -0.59985E+08         0.00000E+00
    0.00000E+00         0.00000E+00        -0.30070E+08
 
   -0.30129E+08         0.18437E+05         0.00000E+00
    0.18437E+05        -0.59980E+08         0.00000E+00
    0.00000E+00         0.00000E+00        -0.30081E+08
 
   -0.30115E+08         0.19675E+05         0.00000E+00
    0.19675E+05        -0.59976E+08         0.00000E+00
    0.00000E+00         0.00000E+00        -0.30089E+08
 
   -0.30104E+08         0.20712E+05         0.00000E+00
    0.20712E+05        -0.59972E+08         0.00000E+00
    0.00000E+00         0.00000E+00        -0.30094E+08
 
   -0.30095E+08         0.21571E+05         0.00000E+00
    0.21571E+05        -0.59967E+08         0.00000E+00
    0.00000E+00         0.00000E+00        -0.30097E+08
 
   -0.30088E+08         0.22279E+05         0.00000E+00
    0.22279E+05        -0.59962E+08         0.00000E+00
    0.00000E+00         0.00000E+00        -0.30098E+08
 
   -0.30083E+08         0.22855E+05         0.00000E+00
    0.22855E+05        -0.59957E+08         0.00000E+00
    0.00000E+00         0.00000E+00        -0.30096E+08
 
   -0.30081E+08         0.23323E+05         0.00000E+00
    0.23323E+05        -0.59952E+08         0.00000E+00
    0.00000E+00         0.00000E+00        -0.30091E+08
 
   -0.30081E+08         0.23704E+05         0.00000E+00
    0.23704E+05        -0.59947E+08         0.00000E+00
    0.00000E+00         0.00000E+00        -0.30085E+08
 
   -0.30290E+08         0.23529E+04         0.00000E+00
    0.23529E+04        -0.60000E+08         0.00000E+00
    0.00000E+00         0.00000E+00        -0.29947E+08
 
   -0.30259E+08         0.66382E+04         0.00000E+00
    0.66382E+04        -0.59999E+08         0.00000E+00
    0.00000E+00         0.00000E+00        -0.29976E+08
 
   -0.30231E+08         0.10402E+05         0.00000E+00
    0.10402E+05        -0.59997E+08         0.00000E+00
    0.00000E+00         0.00000E+00        -0.30001E+08
 
   -0.30205E+08         0.13680E+05         0.00000E+00
    0.13680E+05        -0.59994E+08         0.00000E+00
    0.00000E+00         0.00000E+00        -0.30023E+08
 
   -0.30182E+08         0.16513E+05         0.00000E+00
    0.16513E+05        -0.59991E+08         0.00000E+00
    0.00000E+00         0.00000E+00        -0.30042E+08
 
   -0.30161E+08         0.18938E+05         0.00000E+00
    0.18938E+05        -0.59988E+08         0.00000E+00
    0.00000E+00         0.00000E+00        -0.30058E+08
 
   -0.30143E+08         0.21000E+05         0.00000E+00
    0.21000E+05        -0.59984E+08         0.00000E+00
    0.00000E+00         0.00000E+00        -0.30071E+08
 
   -0.30127E+08         0.22737E+05         0.00000E+00
    0.22737E+05        -0.59980E+08         0.00000E+00
    0.00000E+00         0.00000E+00        -0.30081E+08
 
   -0.30114E+08         0.24182E+05         0.00000E+00
    0.24182E+05        -0.59975E+08         0.00000E+00
    0.00000E+00         0.00000E+00        -0.30089E+08
 
   -0.30103E+08         0.25372E+05         0.00000E+00
    0.25372E+05        -0.59970E+08         0.00000E+00
    0.00000E+00         0.00000E+00        -0.30094E+08
 
   -0.30094E+08         0.26341E+05         0.00000E+00
    0.26341E+05        -0.59966E+08         0.00000E+00
    0.00000E+00         0.00000E+00        -0.30097E+08
 
   -0.30087E+08         0.27119E+05         0.00000E+00
    0.27119E+05        -0.59961E+08         0.00000E+00
    0.00000E+00         0.00000E+00        -0.30097E+08
 
   -0.30083E+08         0.27738E+05         0.00000E+00
    0.27738E+05        -0.59956E+08         0.00000E+00
    0.00000E+00         0.00000E+00        -0.30095E+08
 
   -0.30081E+08         0.28224E+05         0.00000E+00
    0.28224E+05        -0.59951E+08         0.00000E+00
    0.00000E+00         0.00000E+00        -0.30091E+08
 
   -0.30080E+08         0.28606E+05         0.00000E+00
    0.28606E+05        -0.59947E+08         0.00000E+00
    0.00000E+00         0.00000E+00        -0.30085E+08
 
   -0.30285E+08         0.28831E+04         0.00000E+00
    0.28831E+04        -0.60000E+08         0.00000E+00
    0.00000E+00         0.00000E+00        -0.29952E+08
 
   -0.30255E+08         0.81041E+04         0.00000E+00
    0.81041E+04        -0.59998E+08         0.00000E+00
    0.00000E+00         0.00000E+00        -0.29980E+08
 
   -0.30227E+08         0.12655E+05         0.00000E+00
    0.12655E+05        -0.59997E+08         0.00000E+00
    0.00000E+00         0.00000E+00        -0.30005E+08
 
   -0.30202E+08         0.16585E+05         0.00000E+00
    0.16585E+05        -0.59994E+08         0.00000E+00
    0.00000E+00         0.00000E+00        -0.30026E+08
 
   -0.30179E+08         0.19944E+05         0.00000E+00
    0.19944E+05        -0.59991E+08         0.00000E+00
    0.00000E+00         0.00000E+00        -0.30044E+08
 
   -0.30159E+08         0.22787E+05         0.00000E+00
    0.22787E+05        -0.59987E+08         0.00000E+00
    0.00000E+00         0.00000E+00        -0.30060E+08
 
   -0.30141E+08         0.25168E+05         0.00000E+00
    0.25168E+05        -0.59983E+08         0.00000E+00
    0.00000E+00         0.00000E+00        -0.30072E+08
 
   -0.30125E+08         0.27141E+05         0.00000E+00
    0.27141E+05        -0.59978E+08         0.00000E+00
    0.00000E+00         0.00000E+00        -0.30082E+08
 
   -0.30112E+08         0.28755E+05         0.00000E+00
    0.28755E+05        -0.59974E+08         0.00000E+00
    0.00000E+00         0.00000E+00        -0.30089E+08
 
   -0.30101E+08         0.30054E+05         0.00000E+00
    0.30054E+05        -0.59969E+08         0.00000E+00
    0.00000E+00         0.00000E+00        -0.30094E+08
 
   -0.30093E+08         0.31083E+05         0.00000E+00
    0.31083E+05        -0.59965E+08         0.00000E+00
    0.00000E+00         0.00000E+00        -0.30096E+08
 
   -0.30086E+08         0.31882E+05         0.00000E+00
    0.31882E+05        -0.59960E+08         0.00000E+00
    0.00000E+00         0.00000E+00        -0.30096E+08
 
   -0.30082E+08         0.32489E+05         0.00000E+00
    0.32489E+05        -0.59955E+08         0.00000E+00
    0.00000E+00         0.00000E+00        -0.30094E+08
 
   -0.30080E+08         0.32942E+05         0.00000E+00
    0.32942E+05        -0.59951E+08         0.00000E+00
    0.00000E+00         0.00000E+00        -0.30090E+08
 
   -0.30080E+08         0.33276E+05         0.00000E+00
    0.33276E+05        -0.59946E+08         0.00000E+00
    0.00000E+00         0.00000E+00        -0.30084E+08
 
   -0.30279E+08         0.34608E+04         0.00000E+00
    0.34608E+04        -0.60000E+08         0.00000E+00
    0.00000E+00         0.00000E+00        -0.29958E+08
 
   -0.30249E+08         0.96883E+04         0.00000E+00
    0.96883E+04        -0.59998E+08         0.00000E+00
    0.00000E+00         0.00000E+00        -0.29985E+08
 
   -0.30222E+08         0.15072E+05         0.00000E+00
    0.15072E+05        -0.59996E+08         0.00000E+00
    0.00000E+00         0.00000E+00        -0.30009E+08
 
   -0.30198E+08         0.19676E+05         0.00000E+00
    0.19676E+05        -0.59993E+08         0.00000E+00
    0.00000E+00         0.00000E+00        -0.30029E+08
 
   -0.30176E+08         0.23566E+05         0.00000E+00
    0.23566E+05        -0.59990E+08         0.00000E+00
    0.00000E+00         0.00000E+00        -0.30047E+08
 
   -0.30156E+08         0.26813E+05         0.00000E+00
    0.26813E+05        -0.59986E+08         0.00000E+00
    0.00000E+00         0.00000E+00        -0.30061E+08
 
   -0.30139E+08         0.29486E+05         0.00000E+00
    0.29486E+05        -0.59982E+08         0.00000E+00
    0.00000E+00         0.00000E+00        -0.30073E+08
 
   -0.30124E+08         0.31659E+05         0.00000E+00
    0.31659E+05        -0.59977E+08         0.00000E+00
    0.00000E+00         0.00000E+00        -0.30082E+08
 
   -0.30111E+08         0.33394E+05         0.00000E+00
    0.33394E+05        -0.59973E+08         0.00000E+00
    0.00000E+00         0.00000E+00        -0.30089E+08
 
   -0.30100E+08         0.34749E+05         0.00000E+00
    0.34749E+05        -0.59968E+08         0.00000E+00
    0.00000E+00         0.00000E+00        -0.30093E+08
 
   -0.30092E+08         0.35780E+05         0.00000E+00
    0.35780E+05        -0.59963E+08         0.00000E+00
    0.00000E+00         0.00000E+00        -0.30095E+08
 
   -0.30086E+08         0.36540E+05         0.00000E+00
    0.36540E+05        -0.59959E+08         0.00000E+00
    0.00000E+00         0.00000E+00        -0.30095E+08
 
   -0.30082E+08         0.37076E+05         0.00000E+00
    0.37076E+05        -0.59954E+08         0.00000E+00
    0.00000E+00         0.00000E+00        -0.30093E+08
 
   -0.30080E+08         0.37434E+05         0.00000E+00
    0.37434E+05        -0.59950E+08         0.00000E+00
    0.00000E+00         0.00000E+00        -0.30090E+08
 
   -0.30080E+08         0.37660E+05         0.00000E+00
    0.37660E+05        -0.59946E+08         0.00000E+00
    0.00000E+00         0.00000E+00        -0.30084E+08
 
   -0.30272E+08         0.40880E+04         0.00000E+00
    0.40880E+04        -0.59999E+08         0.00000E+00
    0.00000E+00         0.00000E+00        -0.29965E+08
 
   -0.30243E+08         0.11399E+05         0.00000E+00
    0.11399E+05        -0.59998E+08         0.00000E+00
    0.00000E+00         0.00000E+00        -0.29991E+08
 
   -0.30217E+08         0.17662E+05         0.00000E+00
    0.17662E+05        -0.59996E+08         0.00000E+00
    0.00000E+00         0.00000E+00        -0.30014E+08
 
   -0.30193E+08         0.22964E+05         0.00000E+00
    0.22964E+05        -0.59993E+08         0.00000E+00
    0.00000E+00         0.00000E+00        -0.30033E+08
 
   -0.30172E+08         0.27388E+05         0.00000E+00
    0.27388E+05        -0.59989E+08         0.00000E+00
    0.00000E+00         0.00000E+00        -0.30050E+08
 
   -0.30153E+08         0.31024E+05         0.00000E+00
    0.31024E+05        -0.59985E+08         0.00000E+00
    0.00000E+00         0.00000E+00        -0.30063E+08
 
   -0.30136E+08         0.33960E+05         0.00000E+00
    0.33960E+05        -0.59981E+08         0.00000E+00
    0.00000E+00         0.00000E+00        -0.30074E+08
 
   -0.30122E+08         0.36289E+05         0.00000E+00
    0.36289E+05        -0.59976E+08         0.00000E+00
    0.00000E+00         0.00000E+00        -0.30083E+08
 
   -0.30109E+08         0.38093E+05         0.00000E+00
    0.38093E+05        -0.59971E+08         0.00000E+00
    0.00000E+00         0.00000E+00        -0.30089E+08
 
   -0.30099E+08         0.39444E+05         0.00000E+00
    0.39444E+05        -0.59967E+08         0.00000E+00
    0.00000E+00         0.00000E+00        -0.30093E+08
 
   -0.30091E+08         0.40413E+05         0.00000E+00
    0.40413E+05        -0.59962E+08         0.00000E+00
    0.00000E+00         0.00000E+00        -0.30095E+08
 
   -0.30085E+08         0.41064E+05         0.00000E+00
    0.41064E+05        -0.59958E+08         0.00000E+00
    0.00000E+00         0.00000E+00        -0.30095E+08
 
   -0.30081E+08         0.41456E+05         0.00000E+00
    0.41456E+05        -0.59953E+08         0.00000E+00
    0.00000E+00         0.00000E+00        -0.30093E+08
 
   -0.30080E+08         0.41648E+05         0.00000E+00
    0.41648E+05        -0.59949E+08         0.00000E+00
    0.00000E+00         0.00000E+00        -0.30089E+08
 
   -0.30080E+08         0.41698E+05         0.00000E+00
    0.41698E+05        -0.59945E+08         0.00000E+00
    0.00000E+00         0.00000E+00        -0.30084E+08
 
   -0.30263E+08         0.47659E+04         0.00000E+00
    0.47659E+04        -0.59999E+08         0.00000E+00
    0.00000E+00         0.00000E+00        -0.29973E+08
 
   -0.30236E+08         0.13236E+05         0.00000E+00
    0.13236E+05        -0.59998E+08         0.00000E+00
    0.00000E+00         0.00000E+00        -0.29998E+08
 
   -0.30211E+08         0.20430E+05         0.00000E+00
    0.20430E+05        -0.59996E+08         0.00000E+00
    0.00000E+00         0.00000E+00        -0.30020E+08
 
   -0.30188E+08         0.26452E+05         0.00000E+00
    0.26452E+05        -0.59993E+08         0.00000E+00
    0.00000E+00         0.00000E+00        -0.30038E+08
 
   -0.30168E+08         0.31412E+05         0.00000E+00
    0.31412E+05        -0.59989E+08         0.00000E+00
    0.00000E+00         0.00000E+00        -0.30053E+08
 
   -0.30149E+08         0.35420E+05         0.00000E+00
    0.35420E+05        -0.59984E+08         0.00000E+00
    0.00000E+00         0.00000E+00        -0.30066E+08
 
   -0.30133E+08         0.38588E+05         0.00000E+00
    0.38588E+05        -0.59980E+08         0.00000E+00
    0.00000E+00         0.00000E+00        -0.30076E+08
 
   -0.30119E+08         0.41026E+05         0.00000E+00
    0.41026E+05        -0.59975E+08         0.00000E+00
    0.00000E+00         0.00000E+00        -0.30083E+08
 
   -0.30108E+08         0.42840E+05         0.00000E+00
    0.42840E+05        -0.59970E+08         0.00000E+00
    0.00000E+00         0.00000E+00        -0.30089E+08
 
   -0.30098E+08         0.44121E+05         0.00000E+00
    0.44121E+05        -0.59966E+08         0.00000E+00
    0.00000E+00         0.00000E+00        -0.30092E+08
 
   -0.30090E+08         0.44953E+05         0.00000E+00
    0.44953E+05        -0.59961E+08         0.00000E+00
    0.00000E+00         0.00000E+00        -0.30094E+08
 
   -0.30085E+08         0.45416E+05         0.00000E+00
    0.45416E+05        -0.59957E+08         0.00000E+00
    0.00000E+00         0.00000E+00        -0.30094E+08
 
   -0.30081E+08         0.45583E+05         0.00000E+00
    0.45583E+05        -0.59953E+08         0.00000E+00
    0.00000E+00         0.00000E+00        -0.30092E+08
 
   -0.30080E+08         0.45528E+05         0.00000E+00
    0.45528E+05        -0.59949E+08         0.00000E+00
    0.00000E+00         0.00000E+00        -0.30088E+08
 
   -0.30080E+08         0.45323E+05         0.00000E+00
    0.45323E+05        -0.59945E+08         0.00000E+00
    0.00000E+00         0.00000E+00        -0.30083E+08
 
   -0.30253E+08         0.54923E+04         0.00000E+00
    0.54923E+04        -0.59999E+08         0.00000E+00
    0.00000E+00         0.00000E+00        -0.29983E+08
 
   -0.30227E+08         0.15194E+05         0.00000E+00
    0.15194E+05        -0.59998E+08         0.00000E+00
    0.00000E+00         0.00000E+00        -0.30006E+08
 
   -0.30204E+08         0.23366E+05         0.00000E+00
    0.23366E+05        -0.59996E+08         0.00000E+00
    0.00000E+00         0.00000E+00        -0.30026E+08
 
   -0.30182E+08         0.30133E+05         0.00000E+00
    0.30133E+05        -0.59992E+08         0.00000E+00
    0.00000E+00         0.00000E+00        -0.30043E+08
 
   -0.30163E+08         0.35630E+05         0.00000E+00
    0.35630E+05        -0.59988E+08         0.00000E+00
    0.00000E+00         0.00000E+00        -0.30057E+08
 
   -0.30146E+08         0.39994E+05         0.00000E+00
    0.39994E+05        -0.59984E+08         0.00000E+00
    0.00000E+00         0.00000E+00        -0.30068E+08
 
   -0.30131E+08         0.43359E+05         0.00000E+00
    0.43359E+05        -0.59979E+08         0.00000E+00
    0.00000E+00         0.00000E+00        -0.30077E+08
 
   -0.30117E+08         0.45857E+05         0.00000E+00
    0.45857E+05        -0.59974E+08         0.00000E+00
    0.00000E+00         0.00000E+00        -0.30084E+08
 
   -0.30106E+08         0.47618E+05         0.00000E+00
    0.47618E+05        -0.59969E+08         0.00000E+00
    0.00000E+00         0.00000E+00        -0.30089E+08
 
   -0.30097E+08         0.48754E+05         0.00000E+00
    0.48754E+05        -0.59964E+08         0.00000E+00
    0.00000E+00         0.00000E+00        -0.30092E+08
 
   -0.30090E+08         0.49367E+05         0.00000E+00
    0.49367E+05        -0.59960E+08         0.00000E+00
    0.00000E+00         0.00000E+00        -0.30093E+08
 
   -0.30085E+08         0.49552E+05         0.00000E+00
    0.49552E+05        -0.59956E+08         0.00000E+00
    0.00000E+00         0.00000E+00        -0.30093E+08
 
   -0.30081E+08         0.49403E+05         0.00000E+00
    0.49403E+05        -0.59952E+08         0.00000E+00
    0.00000E+00         0.00000E+00        -0.30091E+08
 
   -0.30080E+08         0.49008E+05         0.00000E+00
    0.49008E+05        -0.59949E+08         0.00000E+00
    0.00000E+00         0.00000E+00        -0.30088E+08
 
   -0.30080E+08         0.48458E+05         0.00000E+00
    0.48458E+05        -0.59946E+08         0.00000E+00
    0.00000E+00         0.00000E+00        -0.30084E+08
 
   -0.30242E+08         0.62619E+04         0.00000E+00
    0.62619E+04        -0.59999E+08         0.00000E+00
    0.00000E+00         0.00000E+00        -0.29994E+08
 
   -0.30218E+08         0.17260E+05         0.00000E+00
    0.17260E+05        -0.59998E+08         0.00000E+00
    0.00000E+00         0.00000E+00        -0.30016E+08
 
   -0.30196E+08         0.26453E+05         0.00000E+00
    0.26453E+05        -0.59995E+08         0.00000E+00
    0.00000E+00         0.00000E+00        -0.30034E+08
 
   -0.30176E+08         0.33988E+05         0.00000E+00
    0.33988E+05        -0.59992E+08         0.00000E+00
    0.00000E+00         0.00000E+00        -0.30049E+08
 
   -0.30158E+08         0.40025E+05         0.00000E+00
    0.40025E+05        -0.59988E+08         0.00000E+00
    0.00000E+00         0.00000E+00        -0.30061E+08
 
   -0.30142E+08         0.44726E+05         0.00000E+00
    0.44726E+05        -0.59983E+08         0.00000E+00
    0.00000E+00         0.00000E+00        -0.30071E+08
 
   -0.30128E+08         0.48254E+05         0.00000E+00
    0.48254E+05        -0.59978E+08         0.00000E+00
    0.00000E+00         0.00000E+00        -0.30079E+08
 
   -0.30115E+08         0.50762E+05         0.00000E+00
    0.50762E+05        -0.59973E+08         0.00000E+00
    0.00000E+00         0.00000E+00        -0.30085E+08
 
   -0.30105E+08         0.52402E+05         0.00000E+00
    0.52402E+05        -0.59968E+08         0.00000E+00
    0.00000E+00         0.00000E+00        -0.30089E+08
 
   -0.30096E+08         0.53310E+05         0.00000E+00
    0.53310E+05        -0.59964E+08         0.00000E+00
    0.00000E+00         0.00000E+00        -0.30091E+08
 
   -0.30090E+08         0.53612E+05         0.00000E+00
    0.53612E+05        -0.59959E+08         0.00000E+00
    0.00000E+00         0.00000E+00        -0.30092E+08
 
   -0.30085E+08         0.53421E+05         0.00000E+00
    0.53421E+05        -0.59955E+08         0.00000E+00
    0.00000E+00         0.00000E+00        -0.30092E+08
 
   -0.30082E+08         0.52850E+05         0.00000E+00
    0.52850E+05        -0.59952E+08         0.00000E+00
    0.00000E+00         0.00000E+00        -0.30091E+08
 
   -0.30081E+08         0.52012E+05         0.00000E+00
    0.52012E+05        -0.59949E+08         0.00000E+00
    0.00000E+00         0.00000E+00        -0.30088E+08
 
   -0.30081E+08         0.51018E+05         0.00000E+00
    0.51018E+05        -0.59946E+08         0.00000E+00
    0.00000E+00         0.00000E+00        -0.30084E+08
 
   -0.30229E+08         0.70652E+04         0.00000E+00
    0.70652E+04        -0.59999E+08         0.00000E+00
    0.00000E+00         0.00000E+00        -0.30006E+08
 
   -0.30207E+08         0.19411E+05         0.00000E+00
    0.19411E+05        -0.59998E+08         0.00000E+00
    0.00000E+00         0.00000E+00        -0.30026E+08
 
   -0.30187E+08         0.29661E+05         0.00000E+00
    0.29661E+05        -0.59995E+08         0.00000E+00
    0.00000E+00         0.00000E+00        -0.30042E+08
 
   -0.30169E+08         0.37985E+05         0.00000E+00
    0.37985E+05        -0.59992E+08         0.00000E+00
    0.00000E+00         0.00000E+00        -0.30056E+08
 
   -0.30152E+08         0.44566E+05         0.00000E+00
    0.44566E+05        -0.59987E+08         0.00000E+00
    0.00000E+00         0.00000E+00        -0.30066E+08
 
   -0.30138E+08         0.49590E+05         0.00000E+00
    0.49590E+05        -0.59982E+08         0.00000E+00
    0.00000E+00         0.00000E+00        -0.30075E+08
 
   -0.30125E+08         0.53245E+05         0.00000E+00
    0.53245E+05        -0.59977E+08         0.00000E+00
    0.00000E+00         0.00000E+00        -0.30081E+08
 
   -0.30113E+08         0.55711E+05         0.00000E+00
    0.55711E+05        -0.59972E+08         0.00000E+00
    0.00000E+00         0.00000E+00        -0.30086E+08
 
   -0.30104E+08         0.57157E+05         0.00000E+00
    0.57157E+05        -0.59968E+08         0.00000E+00
    0.00000E+00         0.00000E+00        -0.30089E+08
 
   -0.30096E+08         0.57749E+05         0.00000E+00
    0.57749E+05        -0.59963E+08         0.00000E+00
    0.00000E+00         0.00000E+00        -0.30091E+08
 
   -0.30090E+08         0.57636E+05         0.00000E+00
    0.57636E+05        -0.59959E+08         0.00000E+00
    0.00000E+00         0.00000E+00        -0.30092E+08
 
   -0.30085E+08         0.56958E+05         0.00000E+00
    0.56958E+05        -0.59955E+08         0.00000E+00
    0.00000E+00         0.00000E+00        -0.30091E+08
 
   -0.30083E+08         0.55852E+05         0.00000E+00
    0.55852E+05        -0.59952E+08         0.00000E+00
    0.00000E+00         0.00000E+00        -0.30090E+08
 
   -0.30082E+08         0.54457E+05         0.00000E+00
    0.54457E+05        -0.59950E+08         0.00000E+00
    0.00000E+00         0.00000E+00        -0.30088E+08
 
   -0.30082E+08         0.52910E+05         0.00000E+00
    0.52910E+05        -0.59948E+08         0.00000E+00
    0.00000E+00         0.00000E+00        -0.30085E+08
 
   -0.30215E+08         0.78888E+04         0.00000E+00
    0.78888E+04        -0.59999E+08         0.00000E+00
    0.00000E+00         0.00000E+00        -0.30020E+08
 
   -0.30195E+08         0.21616E+05         0.00000E+00
    0.21616E+05        -0.59998E+08         0.00000E+00
    0.00000E+00         0.00000E+00        -0.30038E+08
 
   -0.30177E+08         0.32950E+05         0.00000E+00
    0.32950E+05        -0.59995E+08         0.00000E+00
    0.00000E+00         0.00000E+00        -0.30052E+08
 
   -0.30161E+08         0.42081E+05         0.00000E+00
    0.42081E+05        -0.59991E+08         0.00000E+00
    0.00000E+00         0.00000E+00        -0.30063E+08
 
   -0.30146E+08         0.49211E+05         0.00000E+00
    0.49211E+05        -0.59987E+08         0.00000E+00
    0.00000E+00         0.00000E+00        -0.30072E+08
 
   -0.30133E+08         0.54546E+05         0.00000E+00
    0.54546E+05        -0.59982E+08         0.00000E+00
    0.00000E+00         0.00000E+00        -0.30079E+08
 
   -0.30121E+08         0.58296E+05         0.00000E+00
    0.58296E+05        -0.59977E+08         0.00000E+00
    0.00000E+00         0.00000E+00        -0.30084E+08
 
   -0.30111E+08         0.60662E+05         0.00000E+00
    0.60662E+05        -0.59972E+08         0.00000E+00
    0.00000E+00         0.00000E+00        -0.30088E+08
 
   -0.30103E+08         0.61840E+05         0.00000E+00
    0.61840E+05        -0.59967E+08         0.00000E+00
    0.00000E+00         0.00000E+00        -0.30090E+08
 
   -0.30096E+08         0.62018E+05         0.00000E+00
    0.62018E+05        -0.59963E+08         0.00000E+00
    0.00000E+00         0.00000E+00        -0.30091E+08
 
   -0.30090E+08         0.61376E+05         0.00000E+00
    0.61376E+05        -0.59959E+08         0.00000E+00
    0.00000E+00         0.00000E+00        -0.30091E+08
 
   -0.30087E+08         0.60089E+05         0.00000E+00
    0.60089E+05        -0.59956E+08         0.00000E+00
    0.00000E+00         0.00000E+00        -0.30091E+08
 
   -0.30084E+08         0.58323E+05         0.00000E+00
    0.58323E+05        -0.59953E+08         0.00000E+00
    0.00000E+00         0.00000E+00        -0.30090E+08
 
   -0.30084E+08         0.56249E+05         0.00000E+00
    0.56249E+05        -0.59952E+08         0.00000E+00
    0.00000E+00         0.00000E+00        -0.30088E+08
 
   -0.30084E+08         0.54033E+05         0.00000E+00
    0.54033E+05        -0.59951E+08         0.00000E+00
    0.00000E+00         0.00000E+00        -0.30086E+08
 
   -0.30199E+08         0.87154E+04         0.00000E+00
    0.87154E+04        -0.59999E+08         0.00000E+00
    0.00000E+00         0.00000E+00        -0.30036E+08
 
   -0.30182E+08         0.23832E+05         0.00000E+00
    0.23832E+05        -0.59998E+08         0.00000E+00
    0.00000E+00         0.00000E+00        -0.30051E+08
 
   -0.30167E+08         0.36266E+05         0.00000E+00
    0.36266E+05        -0.59995E+08         0.00000E+00
    0.00000E+00         0.00000E+00        -0.30063E+08
 
   -0.30153E+08         0.46219E+05         0.00000E+00
    0.46219E+05        -0.59991E+08         0.00000E+00
    0.00000E+00         0.00000E+00        -0.30072E+08
 
   -0.30140E+08         0.53905E+05         0.00000E+00
    0.53905E+05        -0.59987E+08         0.00000E+00
    0.00000E+00         0.00000E+00        -0.30079E+08
 
   -0.30129E+08         0.59542E+05         0.00000E+00
    0.59542E+05        -0.59982E+08         0.00000E+00
    0.00000E+00         0.00000E+00        -0.30084E+08
 
   -0.30118E+08         0.63354E+05         0.00000E+00
    0.63354E+05        -0.59977E+08         0.00000E+00
    0.00000E+00         0.00000E+00        -0.30087E+08
 
   -0.30110E+08         0.65563E+05         0.00000E+00
    0.65563E+05        -0.59972E+08         0.00000E+00
    0.00000E+00         0.00000E+00        -0.30089E+08
 
   -0.30102E+08         0.66389E+05         0.00000E+00
    0.66389E+05        -0.59967E+08         0.00000E+00
    0.00000E+00         0.00000E+00        -0.30091E+08
 
   -0.30096E+08         0.66047E+05         0.00000E+00
    0.66047E+05        -0.59963E+08         0.00000E+00
    0.00000E+00         0.00000E+00        -0.30091E+08
 
   -0.30092E+08         0.64755E+05         0.00000E+00
    0.64755E+05        -0.59960E+08         0.00000E+00
    0.00000E+00         0.00000E+00        -0.30091E+08
 
   -0.30089E+08         0.62724E+05         0.00000E+00
    0.62724E+05        -0.59957E+08         0.00000E+00
    0.00000E+00         0.00000E+00        -0.30091E+08
 
   -0.30087E+08         0.60167E+05         0.00000E+00
    0.60167E+05        -0.59955E+08         0.00000E+00
    0.00000E+00         0.00000E+00        -0.30090E+08
 
   -0.30086E+08         0.57287E+05         0.00000E+00
    0.57287E+05        -0.59954E+08         0.00000E+00
    0.00000E+00         0.00000E+00        -0.30089E+08
 
   -0.30087E+08         0.54282E+05         0.00000E+00
    0.54282E+05        -0.59954E+08         0.00000E+00
    0.00000E+00         0.00000E+00        -0.30088E+08
 
   -0.30182E+08         0.95245E+04         0.00000E+00
    0.95245E+04        -0.59999E+08         0.00000E+00
    0.00000E+00         0.00000E+00        -0.30053E+08
 
   -0.30168E+08         0.26011E+05         0.00000E+00
    0.26011E+05        -0.59998E+08         0.00000E+00
    0.00000E+00         0.00000E+00        -0.30065E+08
 
   -0.30155E+08         0.39545E+05         0.00000E+00
    0.39545E+05        -0.59995E+08         0.00000E+00
    0.00000E+00         0.00000E+00        -0.30074E+08
 
   -0.30143E+08         0.50330E+05         0.00000E+00
    0.50330E+05        -0.59992E+08         0.00000E+00
    0.00000E+00         0.00000E+00        -0.30081E+08
 
   -0.30133E+08         0.58579E+05         0.00000E+00
    0.58579E+05        -0.59987E+08         0.00000E+00
    0.00000E+00         0.00000E+00        -0.30086E+08
 
   -0.30124E+08         0.64510E+05         0.00000E+00
    0.64510E+05        -0.59982E+08         0.00000E+00
    0.00000E+00         0.00000E+00        -0.30089E+08
 
   -0.30116E+08         0.68353E+05         0.00000E+00
    0.68353E+05        -0.59978E+08         0.00000E+00
    0.00000E+00         0.00000E+00        -0.30091E+08
 
   -0.30108E+08         0.70343E+05         0.00000E+00
    0.70343E+05        -0.59973E+08         0.00000E+00
    0.00000E+00         0.00000E+00        -0.30091E+08
 
   -0.30102E+08         0.70725E+05         0.00000E+00
    0.70725E+05        -0.59968E+08         0.00000E+00
    0.00000E+00         0.00000E+00        -0.30092E+08
 
   -0.30098E+08         0.69750E+05         0.00000E+00
    0.69750E+05        -0.59964E+08         0.00000E+00
    0.00000E+00         0.00000E+00        -0.30091E+08
 
   -0.30094E+08         0.67675E+05         0.00000E+00
    0.67675E+05        -0.59961E+08         0.00000E+00
    0.00000E+00         0.00000E+00        -0.30091E+08
 
   -0.30091E+08         0.64766E+05         0.00000E+00
    0.64766E+05        -0.59959E+08         0.00000E+00
    0.00000E+00         0.00000E+00        -0.30091E+08
 
   -0.30090E+08         0.61279E+05         0.00000E+00
    0.61279E+05        -0.59958E+08         0.00000E+00
    0.00000E+00         0.00000E+00        -0.30091E+08
 
   -0.30089E+08         0.57466E+05         0.00000E+00
    0.57466E+05        -0.59958E+08         0.00000E+00
    0.00000E+00         0.00000E+00        -0.30091E+08
 
   -0.30090E+08         0.53556E+05         0.00000E+00
    0.53556E+05        -0.59959E+08         0.00000E+00
    0.00000E+00         0.00000E+00        -0.30091E+08
 
   -0.30163E+08         0.10294E+05         0.00000E+00
    0.10294E+05        -0.60000E+08         0.00000E+00
    0.00000E+00         0.00000E+00        -0.30072E+08
 
   -0.30152E+08         0.28098E+05         0.00000E+00
    0.28098E+05        -0.59998E+08         0.00000E+00
    0.00000E+00         0.00000E+00        -0.30081E+08
 
   -0.30142E+08         0.42714E+05         0.00000E+00
    0.42714E+05        -0.59996E+08         0.00000E+00
    0.00000E+00         0.00000E+00        -0.30087E+08
 
   -0.30134E+08         0.54332E+05         0.00000E+00
    0.54332E+05        -0.59992E+08         0.00000E+00
    0.00000E+00         0.00000E+00        -0.30092E+08
 
   -0.30126E+08         0.63146E+05         0.00000E+00
    0.63146E+05        -0.59988E+08         0.00000E+00
    0.00000E+00         0.00000E+00        -0.30094E+08
 
   -0.30119E+08         0.69363E+05         0.00000E+00
    0.69363E+05        -0.59983E+08         0.00000E+00
    0.00000E+00         0.00000E+00        -0.30095E+08
 
   -0.30113E+08         0.73203E+05         0.00000E+00
    0.73203E+05        -0.59978E+08         0.00000E+00
    0.00000E+00         0.00000E+00        -0.30095E+08
 
   -0.30107E+08         0.74909E+05         0.00000E+00
    0.74909E+05        -0.59974E+08         0.00000E+00
    0.00000E+00         0.00000E+00        -0.30094E+08
 
   -0.30103E+08         0.74748E+05         0.00000E+00
    0.74748E+05        -0.59970E+08         0.00000E+00
    0.00000E+00         0.00000E+00        -0.30093E+08
 
   -0.30100E+08         0.73015E+05         0.00000E+00
    0.73015E+05        -0.59966E+08         0.00000E+00
    0.00000E+00         0.00000E+00        -0.30092E+08
 
   -0.30097E+08         0.70022E+05         0.00000E+00
    0.70022E+05        -0.59964E+08         0.00000E+00
    0.00000E+00         0.00000E+00        -0.30091E+08
 
   -0.30095E+08         0.66094E+05         0.00000E+00
    0.66094E+05        -0.59962E+08         0.00000E+00
    0.00000E+00         0.00000E+00        -0.30091E+08
 
   -0.30094E+08         0.61554E+05         0.00000E+00
    0.61554E+05        -0.59962E+08         0.00000E+00
    0.00000E+00         0.00000E+00        -0.30092E+08
 
   -0.30094E+08         0.56690E+05         0.00000E+00
    0.56690E+05        -0.59963E+08         0.00000E+00
    0.00000E+00         0.00000E+00        -0.30093E+08
 
   -0.30095E+08         0.51771E+05         0.00000E+00
    0.51771E+05        -0.59965E+08         0.00000E+00
    0.00000E+00         0.00000E+00        -0.30094E+08
 
   -0.30143E+08         0.11004E+05         0.00000E+00
    0.11004E+05        -0.60000E+08         0.00000E+00
    0.00000E+00         0.00000E+00        -0.30092E+08
 
   -0.30135E+08         0.30040E+05         0.00000E+00
    0.30040E+05        -0.59998E+08         0.00000E+00
    0.00000E+00         0.00000E+00        -0.30098E+08
 
   -0.30129E+08         0.45696E+05         0.00000E+00
    0.45696E+05        -0.59996E+08         0.00000E+00
    0.00000E+00         0.00000E+00        -0.30101E+08
 
   -0.30123E+08         0.58129E+05         0.00000E+00
    0.58129E+05        -0.59993E+08         0.00000E+00
    0.00000E+00         0.00000E+00        -0.30103E+08
 
   -0.30118E+08         0.67501E+05         0.00000E+00
    0.67501E+05        -0.59989E+08         0.00000E+00
    0.00000E+00         0.00000E+00        -0.30103E+08
 
   -0.30114E+08         0.73985E+05         0.00000E+00
    0.73985E+05        -0.59984E+08         0.00000E+00
    0.00000E+00         0.00000E+00        -0.30101E+08
 
   -0.30110E+08         0.77782E+05         0.00000E+00
    0.77782E+05        -0.59980E+08         0.00000E+00
    0.00000E+00         0.00000E+00        -0.30099E+08
 
   -0.30107E+08         0.79130E+05         0.00000E+00
    0.79130E+05        -0.59976E+08         0.00000E+00
    0.00000E+00         0.00000E+00        -0.30097E+08
 
   -0.30104E+08         0.78324E+05         0.00000E+00
    0.78324E+05        -0.59972E+08         0.00000E+00
    0.00000E+00         0.00000E+00        -0.30095E+08
 
   -0.30102E+08         0.75707E+05         0.00000E+00
    0.75707E+05        -0.59969E+08         0.00000E+00
    0.00000E+00         0.00000E+00        -0.30093E+08
 
   -0.30101E+08         0.71664E+05         0.00000E+00
    0.71664E+05        -0.59967E+08         0.00000E+00
    0.00000E+00         0.00000E+00        -0.30092E+08
 
   -0.30100E+08         0.66595E+05         0.00000E+00
    0.66595E+05        -0.59967E+08         0.00000E+00
    0.00000E+00         0.00000E+00        -0.30092E+08
 
   -0.30099E+08         0.60886E+05         0.00000E+00
    0.60886E+05        -0.59967E+08         0.00000E+00
    0.00000E+00         0.00000E+00        -0.30093E+08
 
   -0.30099E+08         0.54887E+05         0.00000E+00
    0.54887E+05        -0.59969E+08         0.00000E+00
    0.00000E+00         0.00000E+00        -0.30096E+08
 
   -0.30100E+08         0.48868E+05         0.00000E+00
    0.48868E+05        -0.59972E+08         0.00000E+00
    0.00000E+00         0.00000E+00        -0.30099E+08
 
   -0.30122E+08         0.11636E+05         0.00000E+00
    0.11636E+05        -0.60000E+08         0.00000E+00
    0.00000E+00         0.00000E+00        -0.30113E+08
 
   -0.30117E+08         0.31793E+05         0.00000E+00
    0.31793E+05        -0.59999E+08         0.00000E+00
    0.00000E+00         0.00000E+00        -0.30116E+08
 
   -0.30114E+08         0.48413E+05         0.00000E+00
    0.48413E+05        -0.59996E+08         0.00000E+00
    0.00000E+00         0.00000E+00        -0.30117E+08
 
   -0.30112E+08         0.61614E+05         0.00000E+00
    0.61614E+05        -0.59993E+08         0.00000E+00
    0.00000E+00         0.00000E+00        -0.30115E+08
 
   -0.30110E+08         0.71511E+05         0.00000E+00
    0.71511E+05        -0.59990E+08         0.00000E+00
    0.00000E+00         0.00000E+00        -0.30113E+08
 
   -0.30109E+08         0.78227E+05         0.00000E+00
    0.78227E+05        -0.59986E+08         0.00000E+00
    0.00000E+00         0.00000E+00        -0.30109E+08
 
   -0.30108E+08         0.81925E+05         0.00000E+00
    0.81925E+05        -0.59982E+08         0.00000E+00
    0.00000E+00         0.00000E+00        -0.30105E+08
 
   -0.30107E+08         0.82835E+05         0.00000E+00
    0.82835E+05        -0.59978E+08         0.00000E+00
    0.00000E+00         0.00000E+00        -0.30100E+08
 
   -0.30107E+08         0.81276E+05         0.00000E+00
    0.81276E+05        -0.59975E+08         0.00000E+00
    0.00000E+00         0.00000E+00        -0.30097E+08
 
   -0.30106E+08         0.77659E+05         0.00000E+00
    0.77659E+05        -0.59973E+08         0.00000E+00
    0.00000E+00         0.00000E+00        -0.30095E+08
 
   -0.30106E+08         0.72454E+05         0.00000E+00
    0.72454E+05        -0.59972E+08         0.00000E+00
    0.00000E+00         0.00000E+00        -0.30094E+08
 
   -0.30106E+08         0.66149E+05         0.00000E+00
    0.66149E+05        -0.59973E+08         0.00000E+00
    0.00000E+00         0.00000E+00        -0.30094E+08
 
   -0.30106E+08         0.59203E+05         0.00000E+00
    0.59203E+05        -0.59974E+08         0.00000E+00
    0.00000E+00         0.00000E+00        -0.30096E+08
 
   -0.30106E+08         0.52002E+05         0.00000E+00
    0.52002E+05        -0.59977E+08         0.00000E+00
    0.00000E+00         0.00000E+00        -0.30100E+08
 
   -0.30107E+08         0.44831E+05         0.00000E+00
    0.44831E+05        -0.59981E+08         0.00000E+00
    0.00000E+00         0.00000E+00        -0.30104E+08
 
   -0.30099E+08         0.12187E+05         0.00000E+00
    0.12187E+05        -0.60000E+08         0.00000E+00
    0.00000E+00         0.00000E+00        -0.30136E+08
 
   -0.30099E+08         0.33313E+05         0.00000E+00
    0.33313E+05        -0.59999E+08         0.00000E+00
    0.00000E+00         0.00000E+00        -0.30135E+08
 
   -0.30099E+08         0.50787E+05         0.00000E+00
    0.50787E+05        -0.59997E+08         0.00000E+00
    0.00000E+00         0.00000E+00        -0.30133E+08
 
   -0.30100E+08         0.64670E+05         0.00000E+00
    0.64670E+05        -0.59994E+08         0.00000E+00
    0.00000E+00         0.00000E+00        -0.30128E+08
 
   -0.30101E+08         0.75016E+05         0.00000E+00
    0.75016E+05        -0.59991E+08         0.00000E+00
    0.00000E+00         0.00000E+00        -0.30123E+08
 
   -0.30103E+08         0.81890E+05         0.00000E+00
    0.81890E+05        -0.59988E+08         0.00000E+00
    0.00000E+00         0.00000E+00        -0.30117E+08
 
   -0.30105E+08         0.85408E+05         0.00000E+00
    0.85408E+05        -0.59985E+08         0.00000E+00
    0.00000E+00         0.00000E+00        -0.30111E+08
 
   -0.30108E+08         0.85788E+05         0.00000E+00
    0.85788E+05        -0.59982E+08         0.00000E+00
    0.00000E+00         0.00000E+00        -0.30105E+08
 
   -0.30110E+08         0.83383E+05         0.00000E+00
    0.83383E+05        -0.59980E+08         0.00000E+00
    0.00000E+00         0.00000E+00        -0.30100E+08
 
   -0.30111E+08         0.78680E+05         0.00000E+00
    0.78680E+05        -0.59979E+08         0.00000E+00
    0.00000E+00         0.00000E+00        -0.30097E+08
 
   -0.30112E+08         0.72248E+05         0.00000E+00
    0.72248E+05        -0.59979E+08         0.00000E+00
    0.00000E+00         0.00000E+00        -0.30096E+08
 
   -0.30113E+08         0.64665E+05         0.00000E+00
    0.64665E+05        -0.59981E+08         0.00000E+00
    0.00000E+00         0.00000E+00        -0.30097E+08
 
   -0.30113E+08         0.56457E+05         0.00000E+00
    0.56457E+05        -0.59983E+08         0.00000E+00
    0.00000E+00         0.00000E+00        -0.30100E+08
 
   -0.30114E+08         0.48040E+05         0.00000E+00
    0.48040E+05        -0.59987E+08         0.00000E+00
    0.00000E+00         0.00000E+00        -0.30105E+08
 
   -0.30114E+08         0.39700E+05         0.00000E+00
    0.39700E+05        -0.59992E+08         0.00000E+00
    0.00000E+00         0.00000E+00        -0.30111E+08
 
   -0.30076E+08         0.12656E+05         0.00000E+00
    0.12656E+05        -0.60000E+08         0.00000E+00
    0.00000E+00         0.00000E+00        -0.30160E+08
 
   -0.30079E+08         0.34578E+05         0.00000E+00
    0.34578E+05        -0.59999E+08         0.00000E+00
    0.00000E+00         0.00000E+00        -0.30155E+08
 
   -0.30083E+08         0.52745E+05         0.00000E+00
    0.52745E+05        -0.59998E+08         0.00000E+00
    0.00000E+00         0.00000E+00        -0.30149E+08
 
   -0.30088E+08         0.67165E+05         0.00000E+00
    0.67165E+05        -0.59996E+08         0.00000E+00
    0.00000E+00         0.00000E+00        -0.30142E+08
 
   -0.30093E+08         0.77819E+05         0.00000E+00
    0.77819E+05        -0.59993E+08         0.00000E+00
    0.00000E+00         0.00000E+00        -0.30134E+08
 
   -0.30098E+08         0.84714E+05         0.00000E+00
    0.84714E+05        -0.59991E+08         0.00000E+00
    0.00000E+00         0.00000E+00        -0.30126E+08
 
   -0.30104E+08         0.87928E+05         0.00000E+00
    0.87928E+05        -0.59989E+08         0.00000E+00
    0.00000E+00         0.00000E+00        -0.30117E+08
 
   -0.30109E+08         0.87682E+05         0.00000E+00
    0.87682E+05        -0.59987E+08         0.00000E+00
    0.00000E+00         0.00000E+00        -0.30110E+08
 
   -0.30114E+08         0.84373E+05         0.00000E+00
    0.84373E+05        -0.59986E+08         0.00000E+00
    0.00000E+00         0.00000E+00        -0.30104E+08
 
   -0.30117E+08         0.78566E+05         0.00000E+00
    0.78566E+05        -0.59987E+08         0.00000E+00
    0.00000E+00         0.00000E+00        -0.30101E+08
 
   -0.30120E+08         0.70920E+05         0.00000E+00
    0.70920E+05        -0.59988E+08         0.00000E+00
    0.00000E+00         0.00000E+00        -0.30100E+08
 
   -0.30122E+08         0.62094E+05         0.00000E+00
    0.62094E+05        -0.59991E+08         0.00000E+00
    0.00000E+00         0.00000E+00        -0.30101E+08
 
   -0.30122E+08         0.52663E+05         0.00000E+00
    0.52663E+05        -0.59994E+08         0.00000E+00
    0.00000E+00         0.00000E+00        -0.30106E+08
 
   -0.30123E+08         0.43065E+05         0.00000E+00
    0.43065E+05        -0.59999E+08         0.00000E+00
    0.00000E+00         0.00000E+00        -0.30112E+08
 
   -0.30123E+08         0.33576E+05         0.00000E+00
    0.33576E+05        -0.60005E+08         0.00000E+00
    0.00000E+00         0.00000E+00        -0.30119E+08
 
   -0.30052E+08         0.13029E+05         0.00000E+00
    0.13029E+05        -0.60000E+08         0.00000E+00
    0.00000E+00         0.00000E+00        -0.30184E+08
 
   -0.30059E+08         0.35577E+05         0.00000E+00
    0.35577E+05        -0.59999E+08         0.00000E+00
    0.00000E+00         0.00000E+00        -0.30176E+08
 
   -0.30066E+08         0.54234E+05         0.00000E+00
    0.54234E+05        -0.59998E+08         0.00000E+00
    0.00000E+00         0.00000E+00        -0.30167E+08
 
   -0.30075E+08         0.68952E+05         0.00000E+00
    0.68952E+05        -0.59997E+08         0.00000E+00
    0.00000E+00         0.00000E+00        -0.30157E+08
 
   -0.30084E+08         0.79678E+05         0.00000E+00
    0.79678E+05        -0.59995E+08         0.00000E+00
    0.00000E+00         0.00000E+00        -0.30146E+08
 
   -0.30093E+08         0.86360E+05         0.00000E+00
    0.86360E+05        -0.59994E+08         0.00000E+00
    0.00000E+00         0.00000E+00        -0.30135E+08
 
   -0.30102E+08         0.89089E+05         0.00000E+00
    0.89089E+05        -0.59994E+08         0.00000E+00
    0.00000E+00         0.00000E+00        -0.30125E+08
 
   -0.30111E+08         0.88127E+05         0.00000E+00
    0.88127E+05        -0.59994E+08         0.00000E+00
    0.00000E+00         0.00000E+00        -0.30117E+08
 
   -0.30119E+08         0.83933E+05         0.00000E+00
    0.83933E+05        -0.59995E+08         0.00000E+00
    0.00000E+00         0.00000E+00        -0.30110E+08
 
   -0.30125E+08         0.77122E+05         0.00000E+00
    0.77122E+05        -0.59996E+08         0.00000E+00
    0.00000E+00         0.00000E+00        -0.30106E+08
 
   -0.30129E+08         0.68396E+05         0.00000E+00
    0.68396E+05        -0.59999E+08         0.00000E+00
    0.00000E+00         0.00000E+00        -0.30105E+08
 
   -0.30131E+08         0.58456E+05         0.00000E+00
    0.58456E+05        -0.60003E+08         0.00000E+00
    0.00000E+00         0.00000E+00        -0.30108E+08
 
   -0.30133E+08         0.47911E+05         0.00000E+00
    0.47911E+05        -0.60007E+08         0.00000E+00
    0.00000E+00         0.00000E+00        -0.30113E+08
 
   -0.30133E+08         0.37213E+05         0.00000E+00
    0.37213E+05        -0.60013E+08         0.00000E+00
    0.00000E+00         0.00000E+00        -0.30120E+08
 
   -0.30133E+08         0.26628E+05         0.00000E+00
    0.26628E+05        -0.60020E+08         0.00000E+00
    0.00000E+00         0.00000E+00        -0.30128E+08
 
   -0.30027E+08         0.13312E+05         0.00000E+00
    0.13312E+05        -0.60000E+08         0.00000E+00
    0.00000E+00         0.00000E+00        -0.30209E+08
 
   -0.30038E+08         0.36268E+05         0.00000E+00
    0.36268E+05        -0.60000E+08         0.00000E+00
    0.00000E+00         0.00000E+00        -0.30198E+08
 
   -0.30050E+08         0.55172E+05         0.00000E+00
    0.55172E+05        -0.59999E+08         0.00000E+00
    0.00000E+00         0.00000E+00        -0.30185E+08
 
   -0.30062E+08         0.69883E+05         0.00000E+00
    0.69883E+05        -0.59998E+08         0.00000E+00
    0.00000E+00         0.00000E+00        -0.30172E+08
 
   -0.30075E+08         0.80285E+05         0.00000E+00
    0.80285E+05        -0.59998E+08         0.00000E+00
    0.00000E+00         0.00000E+00        -0.30158E+08
 
   -0.30089E+08         0.86399E+05         0.00000E+00
    0.86399E+05        -0.59999E+08         0.00000E+00
    0.00000E+00         0.00000E+00        -0.30146E+08
 
   -0.30102E+08         0.88397E+05         0.00000E+00
    0.88397E+05        -0.60000E+08         0.00000E+00
    0.00000E+00         0.00000E+00        -0.30134E+08
 
   -0.30114E+08         0.86669E+05         0.00000E+00
    0.86669E+05        -0.60002E+08         0.00000E+00
    0.00000E+00         0.00000E+00        -0.30125E+08
 
   -0.30125E+08         0.81735E+05         0.00000E+00
    0.81735E+05        -0.60005E+08         0.00000E+00
    0.00000E+00         0.00000E+00        -0.30118E+08
 
   -0.30133E+08         0.74189E+05         0.00000E+00
    0.74189E+05        -0.60009E+08         0.00000E+00
    0.00000E+00         0.00000E+00        -0.30114E+08
 
   -0.30139E+08         0.64673E+05         0.00000E+00
    0.64673E+05        -0.60013E+08         0.00000E+00
    0.00000E+00         0.00000E+00        -0.30114E+08
 
   -0.30142E+08         0.53860E+05         0.00000E+00
    0.53860E+05        -0.60017E+08         0.00000E+00
    0.00000E+00         0.00000E+00        -0.30116E+08
 
   -0.30144E+08         0.42373E+05         0.00000E+00
    0.42373E+05        -0.60023E+08         0.00000E+00
    0.00000E+00         0.00000E+00        -0.30122E+08
 
   -0.30144E+08         0.30694E+05         0.00000E+00
    0.30694E+05        -0.60029E+08         0.00000E+00
    0.00000E+00         0.00000E+00        -0.30130E+08
 
   -0.30144E+08         0.19098E+05         0.00000E+00
    0.19098E+05        -0.60036E+08         0.00000E+00
    0.00000E+00         0.00000E+00        -0.30139E+08
 
   -0.30002E+08         0.13504E+05         0.00000E+00
    0.13504E+05        -0.60000E+08         0.00000E+00
    0.00000E+00         0.00000E+00        -0.30235E+08
 
   -0.30017E+08         0.36617E+05         0.00000E+00
    0.36617E+05        -0.60000E+08         0.00000E+00
    0.00000E+00         0.00000E+00        -0.30219E+08
 
   -0.30033E+08         0.55426E+05         0.00000E+00
    0.55426E+05        -0.60000E+08         0.00000E+00
    0.00000E+00         0.00000E+00        -0.30203E+08
 
   -0.30050E+08         0.69682E+05         0.00000E+00
    0.69682E+05        -0.60000E+08         0.00000E+00
    0.00000E+00         0.00000E+00        -0.30187E+08
 
   -0.30067E+08         0.79259E+05         0.00000E+00
    0.79259E+05        -0.60002E+08         0.00000E+00
    0.00000E+00         0.00000E+00        -0.30171E+08
 
   -0.30085E+08         0.84309E+05         0.00000E+00
    0.84309E+05        -0.60004E+08         0.00000E+00
    0.00000E+00         0.00000E+00        -0.30157E+08
 
   -0.30102E+08         0.85313E+05         0.00000E+00
    0.85313E+05        -0.60008E+08         0.00000E+00
    0.00000E+00         0.00000E+00        -0.30145E+08
 
   -0.30118E+08         0.82855E+05         0.00000E+00
    0.82855E+05        -0.60013E+08         0.00000E+00
    0.00000E+00         0.00000E+00        -0.30135E+08
 
   -0.30131E+08         0.77484E+05         0.00000E+00
    0.77484E+05        -0.60018E+08         0.00000E+00
    0.00000E+00         0.00000E+00        -0.30129E+08
 
   -0.30142E+08         0.69658E+05         0.00000E+00
    0.69658E+05        -0.60024E+08         0.00000E+00
    0.00000E+00         0.00000E+00        -0.30125E+08
 
   -0.30149E+08         0.59818E+05         0.00000E+00
    0.59818E+05        -0.60029E+08         0.00000E+00
    0.00000E+00         0.00000E+00        -0.30125E+08
 
   -0.30154E+08         0.48500E+05         0.00000E+00
    0.48500E+05        -0.60035E+08         0.00000E+00
    0.00000E+00         0.00000E+00        -0.30127E+08
 
   -0.30156E+08         0.36313E+05         0.00000E+00
    0.36313E+05        -0.60040E+08         0.00000E+00
    0.00000E+00         0.00000E+00        -0.30133E+08
 
   -0.30156E+08         0.23802E+05         0.00000E+00
    0.23802E+05        -0.60047E+08         0.00000E+00
    0.00000E+00         0.00000E+00        -0.30141E+08
 
   -0.30156E+08         0.11296E+05         0.00000E+00
    0.11296E+05        -0.60054E+08         0.00000E+00
    0.00000E+00         0.00000E+00        -0.30151E+08
 
   -0.29977E+08         0.13606E+05         0.00000E+00
    0.13606E+05        -0.60000E+08         0.00000E+00
    0.00000E+00         0.00000E+00        -0.30260E+08
 
   -0.29996E+08         0.36559E+05         0.00000E+00
    0.36559E+05        -0.60000E+08         0.00000E+00
    0.00000E+00         0.00000E+00        -0.30241E+08
 
   -0.30017E+08         0.54782E+05         0.00000E+00
    0.54782E+05        -0.60001E+08         0.00000E+00
    0.00000E+00         0.00000E+00        -0.30221E+08
 
   -0.30038E+08         0.67922E+05         0.00000E+00
    0.67922E+05        -0.60003E+08         0.00000E+00
    0.00000E+00         0.00000E+00        -0.30201E+08
 
   -0.30061E+08         0.75991E+05         0.00000E+00
    0.75991E+05        -0.60007E+08         0.00000E+00
    0.00000E+00         0.00000E+00        -0.30184E+08
 
   -0.30083E+08         0.79527E+05         0.00000E+00
    0.79527E+05        -0.60012E+08         0.00000E+00
    0.00000E+00         0.00000E+00        -0.30169E+08
 
   -0.30103E+08         0.79383E+05         0.00000E+00
    0.79383E+05        -0.60019E+08         0.00000E+00
    0.00000E+00         0.00000E+00        -0.30158E+08
 
   -0.30122E+08         0.76364E+05         0.00000E+00
    0.76364E+05        -0.60027E+08         0.00000E+00
    0.00000E+00         0.00000E+00        -0.30149E+08
 
   -0.30138E+08         0.70977E+05         0.00000E+00
    0.70977E+05        -0.60034E+08         0.00000E+00
    0.00000E+00         0.00000E+00        -0.30143E+08
 
   -0.30150E+08         0.63455E+05         0.00000E+00
    0.63455E+05        -0.60042E+08         0.00000E+00
    0.00000E+00         0.00000E+00        -0.30140E+08
 
   -0.30160E+08         0.53924E+05         0.00000E+00
    0.53924E+05        -0.60048E+08         0.00000E+00
    0.00000E+00         0.00000E+00        -0.30140E+08
 
   -0.30166E+08         0.42627E+05         0.00000E+00
    0.42627E+05        -0.60055E+08         0.00000E+00
    0.00000E+00         0.00000E+00        -0.30142E+08
 
   -0.30168E+08         0.30076E+05         0.00000E+00
    0.30076E+05        -0.60061E+08         0.00000E+00
    0.00000E+00         0.00000E+00        -0.30147E+08
 
   -0.30169E+08         0.16912E+05         0.00000E+00
    0.16912E+05        -0.60067E+08         0.00000E+00
    0.00000E+00         0.00000E+00        -0.30155E+08
 
   -0.30169E+08         0.36057E+04         0.00000E+00
    0.36057E+04        -0.60074E+08         0.00000E+00
    0.00000E+00         0.00000E+00        -0.30164E+08
 
   -0.29952E+08         0.13610E+05         0.00000E+00
    0.13610E+05        -0.60000E+08         0.00000E+00
    0.00000E+00         0.00000E+00        -0.30286E+08
 
   -0.29976E+08         0.35953E+05         0.00000E+00
    0.35953E+05        -0.60001E+08         0.00000E+00
    0.00000E+00         0.00000E+00        -0.30262E+08
 
   -0.30002E+08         0.52825E+05         0.00000E+00
    0.52825E+05        -0.60002E+08         0.00000E+00
    0.00000E+00         0.00000E+00        -0.30238E+08
 
   -0.30029E+08         0.63902E+05         0.00000E+00
    0.63902E+05        -0.60007E+08         0.00000E+00
    0.00000E+00         0.00000E+00        -0.30216E+08
 
   -0.30056E+08         0.69725E+05         0.00000E+00
    0.69725E+05        -0.60014E+08         0.00000E+00
    0.00000E+00         0.00000E+00        -0.30198E+08
 
   -0.30082E+08         0.71499E+05         0.00000E+00
    0.71499E+05        -0.60022E+08         0.00000E+00
    0.00000E+00         0.00000E+00        -0.30184E+08
 
   -0.30105E+08         0.70390E+05         0.00000E+00
    0.70390E+05        -0.60033E+08         0.00000E+00
    0.00000E+00         0.00000E+00        -0.30173E+08
 
   -0.30126E+08         0.67153E+05         0.00000E+00
    0.67153E+05        -0.60043E+08         0.00000E+00
    0.00000E+00         0.00000E+00        -0.30166E+08
 
   -0.30144E+08         0.62169E+05         0.00000E+00
    0.62169E+05        -0.60053E+08         0.00000E+00
    0.00000E+00         0.00000E+00        -0.30162E+08
 
   -0.30158E+08         0.55512E+05         0.00000E+00
    0.55512E+05        -0.60063E+08         0.00000E+00
    0.00000E+00         0.00000E+00        -0.30160E+08
 
   -0.30170E+08         0.47004E+05         0.00000E+00
    0.47004E+05        -0.60071E+08         0.00000E+00
    0.00000E+00         0.00000E+00        -0.30159E+08
 
   -0.30177E+08         0.36468E+05         0.00000E+00
    0.36468E+05        -0.60078E+08         0.00000E+00
    0.00000E+00         0.00000E+00        -0.30160E+08
 
   -0.30181E+08         0.24072E+05         0.00000E+00
    0.24072E+05        -0.60083E+08         0.00000E+00
    0.00000E+00         0.00000E+00        -0.30164E+08
 
   -0.30183E+08         0.10503E+05         0.00000E+00
    0.10503E+05        -0.60089E+08         0.00000E+00
    0.00000E+00         0.00000E+00        -0.30170E+08
 
   -0.30183E+08        -0.34945E+04         0.00000E+00
   -0.34945E+04        -0.60096E+08         0.00000E+00
    0.00000E+00         0.00000E+00        -0.30178E+08
 
   -0.29927E+08         0.13487E+05         0.00000E+00
    0.13487E+05        -0.60000E+08         0.00000E+00
    0.00000E+00         0.00000E+00        -0.30311E+08
 
   -0.29957E+08         0.34454E+05         0.00000E+00
    0.34454E+05        -0.60001E+08         0.00000E+00
    0.00000E+00         0.00000E+00        -0.30282E+08
 
   -0.29989E+08         0.48708E+05         0.00000E+00
    0.48708E+05        -0.60005E+08         0.00000E+00
    0.00000E+00         0.00000E+00        -0.30255E+08
 
   -0.30022E+08         0.56563E+05         0.00000E+00
    0.56563E+05        -0.60013E+08         0.00000E+00
    0.00000E+00         0.00000E+00        -0.30232E+08
 
   -0.30053E+08         0.59760E+05         0.00000E+00
    0.59760E+05        -0.60024E+08         0.00000E+00
    0.00000E+00         0.00000E+00        -0.30214E+08
 
   -0.30082E+08         0.60041E+05         0.00000E+00
    0.60041E+05        -0.60036E+08         0.00000E+00
    0.00000E+00         0.00000E+00        -0.30202E+08
 
   -0.30108E+08         0.58430E+05         0.00000E+00
    0.58430E+05        -0.60050E+08         0.00000E+00
    0.00000E+00         0.00000E+00        -0.30193E+08
 
   -0.30130E+08         0.55428E+05         0.00000E+00
    0.55428E+05        -0.60063E+08         0.00000E+00
    0.00000E+00         0.00000E+00        -0.30188E+08
 
   -0.30149E+08         0.51228E+05         0.00000E+00
    0.51228E+05        -0.60075E+08         0.00000E+00
    0.00000E+00         0.00000E+00        -0.30185E+08
 
   -0.30165E+08         0.45801E+05         0.00000E+00
    0.45801E+05        -0.60086E+08         0.00000E+00
    0.00000E+00         0.00000E+00        -0.30183E+08
 
   -0.30178E+08         0.38906E+05         0.00000E+00
    0.38906E+05        -0.60096E+08         0.00000E+00
    0.00000E+00         0.00000E+00        -0.30183E+08
 
   -0.30188E+08         0.30033E+05         0.00000E+00
    0.30033E+05        -0.60103E+08         0.00000E+00
    0.00000E+00         0.00000E+00        -0.30183E+08
 
   -0.30194E+08         0.18699E+05         0.00000E+00
    0.18699E+05        -0.60109E+08         0.00000E+00
    0.00000E+00         0.00000E+00        -0.30185E+08
 
   -0.30196E+08         0.51881E+04         0.00000E+00
    0.51881E+04        -0.60114E+08         0.00000E+00
    0.00000E+00         0.00000E+00        -0.30189E+08
 
   -0.30197E+08        -0.93862E+04         0.00000E+00
   -0.93862E+04        -0.60119E+08         0.00000E+00
    0.00000E+00         0.00000E+00        -0.30194E+08
 
   -0.29904E+08         0.13128E+05         0.00000E+00
    0.13128E+05        -0.60000E+08         0.00000E+00
    0.00000E+00         0.00000E+00        -0.30335E+08
 
   -0.29941E+08         0.31133E+05         0.00000E+00
    0.31133E+05        -0.60003E+08         0.00000E+00
    0.00000E+00         0.00000E+00        -0.30301E+08
 
   -0.29980E+08         0.40845E+05         0.00000E+00
    0.40845E+05        -0.60011E+08         0.00000E+00
    0.00000E+00         0.00000E+00        -0.30272E+08
 
   -0.30018E+08         0.44859E+05         0.00000E+00
    0.44859E+05        -0.60023E+08         0.00000E+00
    0.00000E+00         0.00000E+00        -0.30249E+08
 
   -0.30052E+08         0.45976E+05         0.00000E+00
    0.45976E+05        -0.60038E+08         0.00000E+00
    0.00000E+00         0.00000E+00        -0.30234E+08
 
   -0.30083E+08         0.45482E+05         0.00000E+00
    0.45482E+05        -0.60054E+08         0.00000E+00
    0.00000E+00         0.00000E+00        -0.30224E+08
 
   -0.30110E+08         0.43926E+05         0.00000E+00
    0.43926E+05        -0.60070E+08         0.00000E+00
    0.00000E+00         0.00000E+00        -0.30217E+08
 
   -0.30133E+08         0.41544E+05         0.00000E+00
    0.41544E+05        -0.60085E+08         0.00000E+00
    0.00000E+00         0.00000E+00        -0.30214E+08
 
   -0.30153E+08         0.38403E+05         0.00000E+00
    0.38403E+05        -0.60099E+08         0.00000E+00
    0.00000E+00         0.00000E+00        -0.30212E+08
 
   -0.30171E+08         0.34437E+05         0.00000E+00
    0.34437E+05        -0.60112E+08         0.00000E+00
    0.00000E+00         0.00000E+00        -0.30212E+08
 
   -0.30185E+08         0.29434E+05         0.00000E+00
    0.29434E+05        -0.60123E+08         0.00000E+00
    0.00000E+00         0.00000E+00        -0.30212E+08
 
   -0.30197E+08         0.22929E+05         0.00000E+00
    0.22929E+05        -0.60132E+08         0.00000E+00
    0.00000E+00         0.00000E+00        -0.30212E+08
 
   -0.30205E+08         0.14030E+05         0.00000E+00
    0.14030E+05        -0.60138E+08         0.00000E+00
    0.00000E+00         0.00000E+00        -0.30211E+08
 
   -0.30210E+08         0.17411E+04         0.00000E+00
    0.17411E+04        -0.60141E+08         0.00000E+00
    0.00000E+00         0.00000E+00        -0.30211E+08
 
   -0.30212E+08        -0.13152E+05         0.00000E+00
   -0.13152E+05        -0.60143E+08         0.00000E+00
    0.00000E+00         0.00000E+00        -0.30212E+08
 
   -0.29883E+08         0.11911E+05         0.00000E+00
    0.11911E+05        -0.60001E+08         0.00000E+00
    0.00000E+00         0.00000E+00        -0.30358E+08
 
   -0.29930E+08         0.23537E+05         0.00000E+00
    0.23537E+05        -0.60008E+08         0.00000E+00
    0.00000E+00         0.00000E+00        -0.30320E+08
 
   -0.29975E+08         0.27512E+05         0.00000E+00
    0.27512E+05        -0.60022E+08         0.00000E+00
    0.00000E+00         0.00000E+00        -0.30291E+08
 
   -0.30016E+08         0.28886E+05         0.00000E+00
    0.28886E+05        -0.60039E+08         0.00000E+00
    0.00000E+00         0.00000E+00        -0.30271E+08
 
   -0.30053E+08         0.29054E+05         0.00000E+00
    0.29054E+05        -0.60057E+08         0.00000E+00
    0.00000E+00         0.00000E+00        -0.30258E+08
 
   -0.30084E+08         0.28492E+05         0.00000E+00
    0.28492E+05        -0.60075E+08         0.00000E+00
    0.00000E+00         0.00000E+00        -0.30250E+08
 
   -0.30112E+08         0.27409E+05         0.00000E+00
    0.27409E+05        -0.60092E+08         0.00000E+00
    0.00000E+00         0.00000E+00        -0.30246E+08
 
   -0.30135E+08         0.25899E+05         0.00000E+00
    0.25899E+05        -0.60109E+08         0.00000E+00
    0.00000E+00         0.00000E+00        -0.30244E+08
 
   -0.30156E+08         0.23976E+05         0.00000E+00
    0.23976E+05        -0.60125E+08         0.00000E+00
    0.00000E+00         0.00000E+00        -0.30244E+08
 
   -0.30174E+08         0.21584E+05         0.00000E+00
    0.21584E+05        -0.60139E+08         0.00000E+00
    0.00000E+00         0.00000E+00        -0.30245E+08
 
   -0.30190E+08         0.18576E+05         0.00000E+00
    0.18576E+05        -0.60152E+08         0.00000E+00
    0.00000E+00         0.00000E+00        -0.30245E+08
 
   -0.30203E+08         0.14664E+05         0.00000E+00
    0.14664E+05        -0.60162E+08         0.00000E+00
    0.00000E+00         0.00000E+00        -0.30245E+08
 
   -0.30214E+08         0.92100E+04         0.00000E+00
    0.92100E+04        -0.60169E+08         0.00000E+00
    0.00000E+00         0.00000E+00        -0.30243E+08
 
   -0.30222E+08         0.70416E+03         0.00000E+00
    0.70416E+03        -0.60171E+08         0.00000E+00
    0.00000E+00         0.00000E+00        -0.30238E+08
 
   -0.30227E+08        -0.13307E+05         0.00000E+00
   -0.13307E+05        -0.60171E+08         0.00000E+00
    0.00000E+00         0.00000E+00        -0.30232E+08
 
   -0.29870E+08         0.60889E+04         0.00000E+00
    0.60889E+04        -0.60008E+08         0.00000E+00
    0.00000E+00         0.00000E+00        -0.30381E+08
 
   -0.29925E+08         0.85374E+04         0.00000E+00
    0.85374E+04        -0.60022E+08         0.00000E+00
    0.00000E+00         0.00000E+00        -0.30342E+08
 
   -0.29974E+08         0.96165E+04         0.00000E+00
    0.96165E+04        -0.60040E+08         0.00000E+00
    0.00000E+00         0.00000E+00        -0.30316E+08
 
   -0.30016E+08         0.99793E+04         0.00000E+00
    0.99793E+04        -0.60059E+08         0.00000E+00
    0.00000E+00         0.00000E+00        -0.30299E+08
 
   -0.30053E+08         0.99682E+04         0.00000E+00
    0.99682E+04        -0.60079E+08         0.00000E+00
    0.00000E+00         0.00000E+00        -0.30288E+08
 
   -0.30085E+08         0.97401E+04         0.00000E+00
    0.97401E+04        -0.60099E+08         0.00000E+00
    0.00000E+00         0.00000E+00        -0.30282E+08
 
   -0.30112E+08         0.93560E+04         0.00000E+00
    0.93560E+04        -0.60118E+08         0.00000E+00
    0.00000E+00         0.00000E+00        -0.30279E+08
 
   -0.30137E+08         0.88414E+04         0.00000E+00
    0.88414E+04        -0.60136E+08         0.00000E+00
    0.00000E+00         0.00000E+00        -0.30278E+08
 
   -0.30158E+08         0.81976E+04         0.00000E+00
    0.81976E+04        -0.60153E+08         0.00000E+00
    0.00000E+00         0.00000E+00        -0.30279E+08
 
   -0.30176E+08         0.74028E+04         0.00000E+00
    0.74028E+04        -0.60169E+08         0.00000E+00
    0.00000E+00         0.00000E+00        -0.30281E+08
 
   -0.30192E+08         0.64043E+04         0.00000E+00
    0.64043E+04        -0.60182E+08         0.00000E+00
    0.00000E+00         0.00000E+00        -0.30284E+08
 
   -0.30206E+08         0.50951E+04         0.00000E+00
    0.50951E+04        -0.60194E+08         0.00000E+00
    0.00000E+00         0.00000E+00        -0.30285E+08
 
   -0.30219E+08         0.32825E+04         0.00000E+00
    0.32825E+04        -0.60202E+08         0.00000E+00
    0.00000E+00         0.00000E+00        -0.30283E+08
 
   -0.30230E+08         0.40092E+03         0.00000E+00
    0.40092E+03        -0.60206E+08         0.00000E+00
    0.00000E+00         0.00000E+00        -0.30276E+08
 
   -0.30239E+08        -0.60417E+04         0.00000E+00
   -0.60417E+04        -0.60200E+08         0.00000E+00
    0.00000E+00         0.00000E+00        -0.30259E+08
 
SCALARS stressS double 
LOOKUP_TABLE default
  -40079028.9269761     
  -40078180.0739474     
  -40076876.1071198     
  -40075158.8786085     
  -40073068.3614937     
  -40070642.5329514     
  -40067916.4594832     
  -40064923.1810110     
  -40061694.1770705     
  -40058258.5606715     
  -40054643.1703829     
  -40050872.5155272     
  -40046968.7847038     
  -40042951.8534309     
  -40038839.2836566     
  -40079018.2925622     
  -40078159.6480646     
  -40076837.2379729     
  -40075096.0693419     
  -40072978.9320835     
  -40070526.1500985     
  -40067775.5300889     
  -40064761.5902940     
  -40061516.7398158     
  -40058071.3748883     
  -40054452.9968518     
  -40050686.5013166     
  -40046794.2251695     
  -40042796.0347538     
  -40038709.3410646     
  -40078997.0237694     
  -40078119.0617927     
  -40076760.1818770     
  -40074971.6738234     
  -40072802.0593949     
  -40070296.8044107     
  -40067497.8468606     
  -40064442.6615565     
  -40061167.1294268     
  -40057703.1705268     
  -40054079.6480988     
  -40050322.2036837     
  -40046453.5195154     
  -40042493.4675363     
  -40038459.1490255     
  -40078965.1505039     
  -40078058.9117451     
  -40076646.4607079     
  -40074788.3520693     
  -40072541.5828459     
  -40069958.9805779     
  -40067089.5089797     
  -40063975.4878005     
  -40060656.1391303     
  -40057166.4378272     
  -40053537.1203079     
  -40049795.0296181     
  -40045963.4603777     
  -40042062.3084974     
  -40038108.1730870     
  -40078922.7536293     
  -40077980.2674622     
  -40076498.4606135     
  -40074550.4752031     
  -40072204.5949639     
  -40069523.0064730     
  -40066562.9330215     
  -40063374.3535298     
  -40060000.4851274     
  -40056480.0609182     
  -40052846.3793287     
  -40049128.0057196     
  -40045349.0796746     
  -40041529.6468019     
  -40037685.5732108     
  -40078871.1017706     
  -40077884.3240291     
  -40076319.5247436     
  -40074264.3767714     
  -40071800.4044108     
  -40069002.3156612     
  -40065935.4053109     
  -40062658.9098573     
  -40059222.7149148     
  -40055669.2675496     
  -40052035.3840581     
  -40048351.7661778     
  -40044643.6719850     
  -40040931.2789831     
  -40037229.8806654     
  -40078807.8104267     
  -40077772.9763112     
  -40076114.5363280     
  -40073938.3623298     
  -40071341.4729874     
  -40068411.3484161     
  -40065225.9567575     
  -40061854.0556237     
  -40058350.8933261     
  -40054765.7700268     
  -40051139.2025666     
  -40047504.5978280     
  -40043888.7063979     
  -40040312.1710148     
  -40036789.4884407     
  -40078735.5905310     
  -40077648.9761474     
  -40075890.0477295     
  -40073583.6901190     
  -40070843.9048676     
  -40067773.1586999     
  -40064461.8795981     
  -40060989.2019860     
  -40057419.5874320     
  -40053808.1126186     
  -40050200.1158255     
  -40046632.3798717     
  -40043133.9033203     
  -40039726.0097124     
  -40036422.3496129     
  -40078655.9593382     
  -40077517.5726429     
  -40075655.4511855     
  -40073215.1816743     
  -40070328.6630117     
  -40067114.1879973     
  -40063675.5015220     
  -40060101.9422538     
  -40056470.2745728     
  -40052841.8416720     
  -40049267.4054569     
  -40045788.6818887     
  -40042437.3487179     
  -40039235.6947087     
  -40036196.4714000     
  -40078570.4880788     
  -40077383.8379567     
  -40075422.1690357     
  -40072850.8369243     
  -40069820.7372423     
  -40066465.5305228     
  -40062903.4366576     
  -40059235.6923655     
  -40055551.0171324     
  -40051918.3210508     
  -40048397.6399355     
  -40045035.0912546     
  -40041865.8939735     
  -40038913.7298049     
  -40036190.2765316     
  -40078481.8021704     
  -40077254.4015360     
  -40075203.2934147     
  -40072512.0386852     
  -40069348.5283673     
  -40065863.0616702     
  -40062187.5104040     
  -40058437.4089366     
  -40054712.8063893     
  -40051096.5283705     
  -40047655.1209262     
  -40044441.5563336     
  -40041495.7875464     
  -40038842.9032664     
  -40036493.2871700     
  -40078393.4771094     
  -40077136.9619709     
  -40075013.9698042     
  -40072222.3767869     
  -40068944.7440910     
  -40065346.8052714     
  -40061575.9314536     
  -40057762.9986546     
  -40054018.8857504     
  -40050442.9205335     
  -40047111.5421551     
  -40044087.3205121     
  -40041413.6423063     
  -40039117.1704890     
  -40037206.5551847     
  -40078309.8969974     
  -40077040.5900125     
  -40074870.5616649     
  -40072007.0670223     
  -40068643.8931608     
  -40064960.1514085     
  -40061118.9970161     
  -40057266.0611027     
  -40053532.6132053     
  -40050028.9470540     
  -40046848.6292233     
  -40044061.8974218     
  -40041717.4894584     
  -40039842.6081696     
  -40038442.7294404     
  -40078236.2204632     
  -40076974.7756552     
  -40074790.2890332     
  -40071892.2390565     
  -40068480.8491404     
  -40064746.6112681     
  -40060868.8074291     
  -40057012.1533342     
  -40053325.2519627     
  -40049938.6377976     
  -40046958.5769834     
  -40044466.7046688     
  -40042518.2261734     
  -40041137.3360707     
  -40040325.5964963     
  -40078178.0216007     
  -40076948.6483512     
  -40074789.1354098     
  -40071902.4749605     
  -40068489.9795712     
  -40064750.9247689     
  -40060880.2429839     
  -40057064.6049318     
  -40053474.2716636     
  -40050259.7016909     
  -40047545.0220768     
  -40045419.2530265     
  -40043939.6481746     
  -40043131.7951618     
  -40042988.0229507     
  -40078140.8255300     
  -40076969.6039453     
  -40074879.5137908     
  -40072058.0984457     
  -40068701.8942920     
  -40065016.2130612     
  -40061211.4705779     
  -40057495.8295928     
  -40054066.1767284     
  -40051095.1597391     
  -40048722.7174088     
  -40047048.1922739     
  -40046123.4811588     
  -40045965.9683793     
  -40046565.8888599     
  -40078129.3451738     
  -40077041.8857334     
  -40075067.6252787     
  -40072371.8630891     
  -40069141.0303404     
  -40065582.6697209     
  -40061921.3614138     
  -40058388.5241761     
  -40055206.4849234     
  -40052570.9092232     
  -40050634.6741838     
  -40049500.5444076     
  -40049218.2039883     
  -40049789.9041969     
  -40051192.1144861     
  -40078147.3299441     
  -40077164.4166251     
  -40075351.4325904     
  -40072847.1064719     
  -40069823.4700141     
  -40066486.7226237     
  -40063072.7520633     
  -40059833.9665657     
  -40057016.5651647     
  -40054834.5210337     
  -40053448.4432734     
  -40052954.9716989     
  -40053392.7481204     
  -40054752.3305122     
  -40056998.7089039     
  -40078193.1179815     
  -40077331.5640216     
  -40075721.1806066     
  -40073476.9699693     
  -40070756.9712870     
  -40067762.0562566     
  -40064735.0775552     
  -40061942.0880117     
  -40059643.6764448     
  -40058061.1001597     
  -40057350.8548342     
  -40057596.8362815     
  -40058819.3873090     
  -40060998.3014870     
  -40064095.3972539     
  -40078277.2997749     
  -40077533.8621165     
  -40076158.8357974     
  -40074248.4550747     
  -40071943.2815556     
  -40069444.4777952     
  -40066992.2638742     
  -40064850.4022325     
  -40063271.0499564     
  -40062460.3870952     
  -40062555.4512486     
  -40063620.7462313     
  -40065663.1517821     
  -40068656.1991233     
  -40072563.1516963     
  -40078370.0427857     
  -40077765.5126465     
  -40076654.4997137     
  -40075143.8365079     
  -40073389.6102383     
  -40071582.9319024     
  -40069955.6640464     
  -40068736.3437089     
  -40068125.7962563     
  -40068278.2812509     
  -40069294.3057857     
  -40071222.6891676     
  -40074070.4844425     
  -40077820.5586512     
  -40082450.4572877     
  -40078503.2776612     
  -40078018.8839781     
  -40077200.6442921     
  -40076174.7837370     
  -40075123.7805742     
  -40074264.0025191     
  -40073784.4599350     
  -40073828.0670636     
  -40074477.7199723     
  -40075786.1403744     
  -40077804.7143528     
  -40080583.9485534     
  -40084160.2419182     
  -40088549.2661635     
  -40093758.1409566     
  -40078662.5361460     
  -40078307.9747926     
  -40077816.3689520     
  -40077379.7844097     
  -40077248.7355184     
  -40077652.4847493     
  -40078713.5775650     
  -40080405.0990927     
  -40082615.8165534     
  -40085252.1333321     
  -40088307.1392290     
  -40091860.7649521     
  -40096020.0422796     
  -40100868.4566024     
  -40106454.7721943     
  -40078847.9201741     
  -40078623.3527052     
  -40078533.2970750     
  -40078875.7571016     
  -40079981.3478403     
  -40082062.5434464     
  -40085080.6284836     
  -40088771.6553361     
  -40092795.6258984     
  -40096889.5041242     
  -40100979.1759537     
  -40105180.8245414     
  -40109713.5981747     
  -40114774.3745891     
  -40120480.0980329     
  -40079056.5038989     
  -40078981.5525876     
  -40079430.1641917     
  -40080882.1326023     
  -40083723.2889401     
  -40087980.6033064     
  -40093314.8223522     
  -40099209.6250523     
  -40105161.1087013     
  -40110792.8480411     
  -40115922.1108405     
  -40120647.2117275     
  -40125302.8849325     
  -40130261.1439140     
  -40135762.1484855     
  -40079285.2976646     
  -40079423.7112831     
  -40080724.2785368     
  -40083884.4618219     
  -40089123.8435367     
  -40096004.5738547     
  -40103810.9854313     
  -40111890.9371247     
  -40119720.4108942     
  -40126884.4294613     
  -40133106.9951096     
  -40138336.0912951     
  -40142885.1414369     
  -40147361.1737791     
  -40152239.1905753     
  -40079527.7665417     
  -40080099.5171825     
  -40082965.5268122     
  -40088802.2466335     
  -40097041.4251210     
  -40106654.9407258     
  -40116786.6499837     
  -40126826.3897654     
  -40136333.6010873     
  -40144949.6511036     
  -40152332.7755917     
  -40158213.4032276     
  -40162638.5160318     
  -40166209.1675649     
  -40169917.4176068     
  -40079844.4645874     
  -40081541.6312823     
  -40087492.1790882     
  -40096890.0329109     
  -40108150.7266269     
  -40120150.7302723     
  -40132212.2739045     
  -40143884.4511836     
  -40154823.4450093     
  -40164724.0533056     
  -40173267.5227303     
  -40180054.1349343     
  -40184643.7098894     
  -40187239.2233084     
  -40188908.8075578     
  -40080512.9851724     
  -40085935.4794150     
  -40096244.4728010     
  -40108947.5944863     
  -40122562.0857265     
  -40136361.1610958     
  -40149898.8171202     
  -40162861.1677603     
  -40174985.9613755     
  -40186013.5180279     
  -40195640.5186838     
  -40203456.6377149     
  -40208826.5561249     
  -40210673.7440334     
  -40210075.7444814     
  -40086380.0774663     
  -40096462.0697835     
  -40110025.6459347     
  -40124808.9831223     
  -40139961.5316124     
  -40155001.5526593     
  -40169617.1226641     
  -40183571.4566962     
  -40196656.5020694     
  -40208654.5638460     
  -40219295.1171952     
  -40228189.3074021     
  -40234688.6082463     
  -40237538.2665744     
  -40232751.5866716     
SCALARS 2waySource double 
LOOKUP_TABLE default
  0.000000000000000E+000
  0.000000000000000E+000
  0.000000000000000E+000
  0.000000000000000E+000
  0.000000000000000E+000
  0.000000000000000E+000
  0.000000000000000E+000
  0.000000000000000E+000
  0.000000000000000E+000
  0.000000000000000E+000
  0.000000000000000E+000
  0.000000000000000E+000
  0.000000000000000E+000
  0.000000000000000E+000
  0.000000000000000E+000
  0.000000000000000E+000
  0.000000000000000E+000
  0.000000000000000E+000
  0.000000000000000E+000
  0.000000000000000E+000
  0.000000000000000E+000
  0.000000000000000E+000
  0.000000000000000E+000
  0.000000000000000E+000
  0.000000000000000E+000
  0.000000000000000E+000
  0.000000000000000E+000
  0.000000000000000E+000
  0.000000000000000E+000
  0.000000000000000E+000
  0.000000000000000E+000
  0.000000000000000E+000
  0.000000000000000E+000
  0.000000000000000E+000
  0.000000000000000E+000
  0.000000000000000E+000
  0.000000000000000E+000
  0.000000000000000E+000
  0.000000000000000E+000
  0.000000000000000E+000
  0.000000000000000E+000
  0.000000000000000E+000
  0.000000000000000E+000
  0.000000000000000E+000
  0.000000000000000E+000
  0.000000000000000E+000
  0.000000000000000E+000
  0.000000000000000E+000
  0.000000000000000E+000
  0.000000000000000E+000
  0.000000000000000E+000
  0.000000000000000E+000
  0.000000000000000E+000
  0.000000000000000E+000
  0.000000000000000E+000
  0.000000000000000E+000
  0.000000000000000E+000
  0.000000000000000E+000
  0.000000000000000E+000
  0.000000000000000E+000
  0.000000000000000E+000
  0.000000000000000E+000
  0.000000000000000E+000
  0.000000000000000E+000
  0.000000000000000E+000
  0.000000000000000E+000
  0.000000000000000E+000
  0.000000000000000E+000
  0.000000000000000E+000
  0.000000000000000E+000
  0.000000000000000E+000
  0.000000000000000E+000
  0.000000000000000E+000
  0.000000000000000E+000
  0.000000000000000E+000
  0.000000000000000E+000
  0.000000000000000E+000
  0.000000000000000E+000
  0.000000000000000E+000
  0.000000000000000E+000
  0.000000000000000E+000
  0.000000000000000E+000
  0.000000000000000E+000
  0.000000000000000E+000
  0.000000000000000E+000
  0.000000000000000E+000
  0.000000000000000E+000
  0.000000000000000E+000
  0.000000000000000E+000
  0.000000000000000E+000
  0.000000000000000E+000
  0.000000000000000E+000
  0.000000000000000E+000
  0.000000000000000E+000
  0.000000000000000E+000
  0.000000000000000E+000
  0.000000000000000E+000
  0.000000000000000E+000
  0.000000000000000E+000
  0.000000000000000E+000
  0.000000000000000E+000
  0.000000000000000E+000
  0.000000000000000E+000
  0.000000000000000E+000
  0.000000000000000E+000
  0.000000000000000E+000
  0.000000000000000E+000
  0.000000000000000E+000
  0.000000000000000E+000
  0.000000000000000E+000
  0.000000000000000E+000
  0.000000000000000E+000
  0.000000000000000E+000
  0.000000000000000E+000
  0.000000000000000E+000
  0.000000000000000E+000
  0.000000000000000E+000
  0.000000000000000E+000
  0.000000000000000E+000
  0.000000000000000E+000
  0.000000000000000E+000
  0.000000000000000E+000
  0.000000000000000E+000
  0.000000000000000E+000
  0.000000000000000E+000
  0.000000000000000E+000
  0.000000000000000E+000
  0.000000000000000E+000
  0.000000000000000E+000
  0.000000000000000E+000
  0.000000000000000E+000
  0.000000000000000E+000
  0.000000000000000E+000
  0.000000000000000E+000
  0.000000000000000E+000
  0.000000000000000E+000
  0.000000000000000E+000
  0.000000000000000E+000
  0.000000000000000E+000
  0.000000000000000E+000
  0.000000000000000E+000
  0.000000000000000E+000
  0.000000000000000E+000
  0.000000000000000E+000
  0.000000000000000E+000
  0.000000000000000E+000
  0.000000000000000E+000
  0.000000000000000E+000
  0.000000000000000E+000
  0.000000000000000E+000
  0.000000000000000E+000
  0.000000000000000E+000
  0.000000000000000E+000
  0.000000000000000E+000
  0.000000000000000E+000
  0.000000000000000E+000
  0.000000000000000E+000
  0.000000000000000E+000
  0.000000000000000E+000
  0.000000000000000E+000
  0.000000000000000E+000
  0.000000000000000E+000
  0.000000000000000E+000
  0.000000000000000E+000
  0.000000000000000E+000
  0.000000000000000E+000
  0.000000000000000E+000
  0.000000000000000E+000
  0.000000000000000E+000
  0.000000000000000E+000
  0.000000000000000E+000
  0.000000000000000E+000
  0.000000000000000E+000
  0.000000000000000E+000
  0.000000000000000E+000
  0.000000000000000E+000
  0.000000000000000E+000
  0.000000000000000E+000
  0.000000000000000E+000
  0.000000000000000E+000
  0.000000000000000E+000
  0.000000000000000E+000
  0.000000000000000E+000
  0.000000000000000E+000
  0.000000000000000E+000
  0.000000000000000E+000
  0.000000000000000E+000
  0.000000000000000E+000
  0.000000000000000E+000
  0.000000000000000E+000
  0.000000000000000E+000
  0.000000000000000E+000
  0.000000000000000E+000
  0.000000000000000E+000
  0.000000000000000E+000
  0.000000000000000E+000
  0.000000000000000E+000
  0.000000000000000E+000
  0.000000000000000E+000
  0.000000000000000E+000
  0.000000000000000E+000
  0.000000000000000E+000
  0.000000000000000E+000
  0.000000000000000E+000
  0.000000000000000E+000
  0.000000000000000E+000
  0.000000000000000E+000
  0.000000000000000E+000
  0.000000000000000E+000
  0.000000000000000E+000
  0.000000000000000E+000
  0.000000000000000E+000
  0.000000000000000E+000
  0.000000000000000E+000
  0.000000000000000E+000
  0.000000000000000E+000
  0.000000000000000E+000
  0.000000000000000E+000
  0.000000000000000E+000
  0.000000000000000E+000
  0.000000000000000E+000
  0.000000000000000E+000
  0.000000000000000E+000
  0.000000000000000E+000
  0.000000000000000E+000
  0.000000000000000E+000
  0.000000000000000E+000
  0.000000000000000E+000
  0.000000000000000E+000
  0.000000000000000E+000
  0.000000000000000E+000
  0.000000000000000E+000
  0.000000000000000E+000
  0.000000000000000E+000
  0.000000000000000E+000
  0.000000000000000E+000
  0.000000000000000E+000
  0.000000000000000E+000
  0.000000000000000E+000
  0.000000000000000E+000
  0.000000000000000E+000
  0.000000000000000E+000
  0.000000000000000E+000
  0.000000000000000E+000
  0.000000000000000E+000
  0.000000000000000E+000
  0.000000000000000E+000
  0.000000000000000E+000
  0.000000000000000E+000
  0.000000000000000E+000
  0.000000000000000E+000
  0.000000000000000E+000
  0.000000000000000E+000
  0.000000000000000E+000
  0.000000000000000E+000
  0.000000000000000E+000
  0.000000000000000E+000
  0.000000000000000E+000
  0.000000000000000E+000
  0.000000000000000E+000
  0.000000000000000E+000
  0.000000000000000E+000
  0.000000000000000E+000
  0.000000000000000E+000
  0.000000000000000E+000
  0.000000000000000E+000
  0.000000000000000E+000
  0.000000000000000E+000
  0.000000000000000E+000
  0.000000000000000E+000
  0.000000000000000E+000
  0.000000000000000E+000
  0.000000000000000E+000
  0.000000000000000E+000
  0.000000000000000E+000
  0.000000000000000E+000
  0.000000000000000E+000
  0.000000000000000E+000
  0.000000000000000E+000
  0.000000000000000E+000
  0.000000000000000E+000
  0.000000000000000E+000
  0.000000000000000E+000
  0.000000000000000E+000
  0.000000000000000E+000
  0.000000000000000E+000
  0.000000000000000E+000
  0.000000000000000E+000
  0.000000000000000E+000
  0.000000000000000E+000
  0.000000000000000E+000
  0.000000000000000E+000
  0.000000000000000E+000
  0.000000000000000E+000
  0.000000000000000E+000
  0.000000000000000E+000
  0.000000000000000E+000
  0.000000000000000E+000
  0.000000000000000E+000
  0.000000000000000E+000
  0.000000000000000E+000
  0.000000000000000E+000
  0.000000000000000E+000
  0.000000000000000E+000
  0.000000000000000E+000
  0.000000000000000E+000
  0.000000000000000E+000
  0.000000000000000E+000
  0.000000000000000E+000
  0.000000000000000E+000
  0.000000000000000E+000
  0.000000000000000E+000
  0.000000000000000E+000
  0.000000000000000E+000
  0.000000000000000E+000
  0.000000000000000E+000
  0.000000000000000E+000
  0.000000000000000E+000
  0.000000000000000E+000
  0.000000000000000E+000
  0.000000000000000E+000
  0.000000000000000E+000
  0.000000000000000E+000
  0.000000000000000E+000
  0.000000000000000E+000
  0.000000000000000E+000
  0.000000000000000E+000
  0.000000000000000E+000
  0.000000000000000E+000
  0.000000000000000E+000
  0.000000000000000E+000
  0.000000000000000E+000
  0.000000000000000E+000
  0.000000000000000E+000
  0.000000000000000E+000
  0.000000000000000E+000
  0.000000000000000E+000
  0.000000000000000E+000
  0.000000000000000E+000
  0.000000000000000E+000
  0.000000000000000E+000
  0.000000000000000E+000
  0.000000000000000E+000
  0.000000000000000E+000
  0.000000000000000E+000
  0.000000000000000E+000
  0.000000000000000E+000
  0.000000000000000E+000
  0.000000000000000E+000
  0.000000000000000E+000
  0.000000000000000E+000
  0.000000000000000E+000
  0.000000000000000E+000
  0.000000000000000E+000
  0.000000000000000E+000
  0.000000000000000E+000
  0.000000000000000E+000
  0.000000000000000E+000
  0.000000000000000E+000
  0.000000000000000E+000
  0.000000000000000E+000
  0.000000000000000E+000
  0.000000000000000E+000
  0.000000000000000E+000
  0.000000000000000E+000
  0.000000000000000E+000
  0.000000000000000E+000
  0.000000000000000E+000
  0.000000000000000E+000
  0.000000000000000E+000
  0.000000000000000E+000
  0.000000000000000E+000
  0.000000000000000E+000
  0.000000000000000E+000
  0.000000000000000E+000
  0.000000000000000E+000
  0.000000000000000E+000
  0.000000000000000E+000
  0.000000000000000E+000
  0.000000000000000E+000
  0.000000000000000E+000
  0.000000000000000E+000
  0.000000000000000E+000
  0.000000000000000E+000
  0.000000000000000E+000
  0.000000000000000E+000
  0.000000000000000E+000
  0.000000000000000E+000
  0.000000000000000E+000
  0.000000000000000E+000
  0.000000000000000E+000
  0.000000000000000E+000
  0.000000000000000E+000
  0.000000000000000E+000
  0.000000000000000E+000
  0.000000000000000E+000
  0.000000000000000E+000
  0.000000000000000E+000
  0.000000000000000E+000
  0.000000000000000E+000
  0.000000000000000E+000
  0.000000000000000E+000
  0.000000000000000E+000
  0.000000000000000E+000
  0.000000000000000E+000
  0.000000000000000E+000
  0.000000000000000E+000
  0.000000000000000E+000
  0.000000000000000E+000
  0.000000000000000E+000
  0.000000000000000E+000
  0.000000000000000E+000
  0.000000000000000E+000
  0.000000000000000E+000
  0.000000000000000E+000
  0.000000000000000E+000
  0.000000000000000E+000
  0.000000000000000E+000
  0.000000000000000E+000
  0.000000000000000E+000
  0.000000000000000E+000
  0.000000000000000E+000
  0.000000000000000E+000
  0.000000000000000E+000
  0.000000000000000E+000
  0.000000000000000E+000
  0.000000000000000E+000
  0.000000000000000E+000
  0.000000000000000E+000
  0.000000000000000E+000
  0.000000000000000E+000
  0.000000000000000E+000
  0.000000000000000E+000
  0.000000000000000E+000
  0.000000000000000E+000
  0.000000000000000E+000
  0.000000000000000E+000
  0.000000000000000E+000
  0.000000000000000E+000
  0.000000000000000E+000
  0.000000000000000E+000
  0.000000000000000E+000
  0.000000000000000E+000
  0.000000000000000E+000
  0.000000000000000E+000
  0.000000000000000E+000
  0.000000000000000E+000
  0.000000000000000E+000
  0.000000000000000E+000
  0.000000000000000E+000
SCALARS poroP double 
LOOKUP_TABLE default
  1.818463907730527E-005
  1.819049304483497E-005
  1.819108114276223E-005
  1.818641596824281E-005
  1.817650534848249E-005
  1.816136168097846E-005
  1.814099102025087E-005
  1.811541990034660E-005
  1.808472802452789E-005
  1.804903226987386E-005
  1.800848950609473E-005
  1.796330287221832E-005
  1.791372876575045E-005
  1.786008429474909E-005
  1.780275285297335E-005
  1.818273600405071E-005
  1.818860940855211E-005
  1.818921835102251E-005
  1.818458037944428E-005
  1.817470799110088E-005
  1.815961981128260E-005
  1.813933181440614E-005
  1.811387215332496E-005
  1.808331675753768E-005
  1.804778220384920E-005
  1.800742355654469E-005
  1.796244038101208E-005
  1.791308441941790E-005
  1.785966740871154E-005
  1.780256711837567E-005
  1.817889466547692E-005
  1.818480748849805E-005
  1.818546030396057E-005
  1.818088061032596E-005
  1.817109035462352E-005
  1.815611817273723E-005
  1.813600094851096E-005
  1.811076913112465E-005
  1.808049088932393E-005
  1.804528372735836E-005
  1.800529743948175E-005
  1.796072413626001E-005
  1.791180629342281E-005
  1.785884518241572E-005
  1.780220741144663E-005
  1.817304468817259E-005
  1.817901833941992E-005
  1.817974289956360E-005
  1.817525970637244E-005
  1.816560615874442E-005
  1.815082811274009E-005
  1.813097738164907E-005
  1.810609401339308E-005
  1.807624523265206E-005
  1.804154116152363E-005
  1.800212300399445E-005
  1.795817141159189E-005
  1.790991519251663E-005
  1.785764012963457E-005
  1.780169692278990E-005
  1.816508027606341E-005
  1.817113949763876E-005
  1.817197146819190E-005
  1.816763491038844E-005
  1.815818734750833E-005
  1.814369177569018E-005
  1.812421957136475E-005
  1.809982689895518E-005
  1.807057504048872E-005
  1.803656233018493E-005
  1.799791794244587E-005
  1.795480726173182E-005
  1.790744124383718E-005
  1.785608549431035E-005
  1.780107043236341E-005
  1.815486653540417E-005
  1.816103506653347E-005
  1.816201978252179E-005
  1.815789643556091E-005
  1.814874451224603E-005
  1.813463914648819E-005
  1.811567924248476E-005
  1.809194354503240E-005
  1.806347534629260E-005
  1.803035747132905E-005
  1.799270484003737E-005
  1.795066371495633E-005
  1.790442291970227E-005
  1.785422461279566E-005
  1.780037422020217E-005
  1.814225072561979E-005
  1.814854202149644E-005
  1.814973253945598E-005
  1.814590949483232E-005
  1.813716732700694E-005
  1.812360074002853E-005
  1.810531662524860E-005
  1.808241606949314E-005
  1.805493895327644E-005
  1.802293782976199E-005
  1.798651027983419E-005
  1.794577865704438E-005
  1.790090615090591E-005
  1.785210858958017E-005
  1.779966388663487E-005
  1.812702469893223E-005
  1.813347658464110E-005
  1.813493641429385E-005
  1.813152189998677E-005
  1.812333608449795E-005
  1.811048530630971E-005
  1.809307610427539E-005
  1.807121854697175E-005
  1.804495756134969E-005
  1.801431665511721E-005
  1.797936379873239E-005
  1.794019361521689E-005
  1.789694159909109E-005
  1.784979577500113E-005
  1.779900564163259E-005
  1.810894802588184E-005
  1.811561793549888E-005
  1.811744451213139E-005
  1.811457163870819E-005
  1.810712170199752E-005
  1.809519743312043E-005
  1.807889331810309E-005
  1.805831617424282E-005
  1.803352394329537E-005
  1.800450780220640E-005
  1.797129410762842E-005
  1.793394996706469E-005
  1.789258213582614E-005
  1.784735004963173E-005
  1.779847547049673E-005
  1.808777252353806E-005
  1.809472344407467E-005
  1.809705111837292E-005
  1.809489287665172E-005
  1.808838849831097E-005
  1.807763689183636E-005
  1.806270628290466E-005
  1.804367965349662E-005
  1.802062729132080E-005
  1.799351635749847E-005
  1.796232243338596E-005
  1.792708484080944E-005
  1.788787983728225E-005
  1.784483935184552E-005
  1.779815917021888E-005
  1.806325536232523E-005
  1.807055465334960E-005
  1.807353914227530E-005
  1.807231426373365E-005
  1.806700331115218E-005
  1.805770170605026E-005
  1.804445182386463E-005
  1.802728273534191E-005
  1.800624868185907E-005
  1.798133148826327E-005
  1.795245907049654E-005
  1.791962602922444E-005
  1.788288229879953E-005
  1.784233397422326E-005
  1.779815242273585E-005
  1.803517795536643E-005
  1.804289814425633E-005
  1.804670814463758E-005
  1.804666359302439E-005
  1.804283637425953E-005
  1.803529065451574E-005
  1.802404443466243E-005
  1.800906335320063E-005
  1.799035283474345E-005
  1.796792786744252E-005
  1.794169319900655E-005
  1.791158522279871E-005
  1.787762930142295E-005
  1.783990517628678E-005
  1.779856057861003E-005
  1.800337549718671E-005
  1.801158597682273E-005
  1.801639787808719E-005
  1.801778848580314E-005
  1.801575613678886E-005
  1.801029451858751E-005
  1.800137847771462E-005
  1.798894040708511E-005
  1.797290233666113E-005
  1.795326200374398E-005
  1.792998215045248E-005
  1.790295291890377E-005
  1.787214908964311E-005
  1.783762436249174E-005
  1.779949830800762E-005
  1.796777300252119E-005
  1.797652572224017E-005
  1.798250482746151E-005
  1.798557417592583E-005
  1.798563383782623E-005
  1.798258711679297E-005
  1.797633368966710E-005
  1.796677014279529E-005
  1.795377505091224E-005
  1.793726880748751E-005
  1.791726204576718E-005
  1.789369058878114E-005
  1.786645542980953E-005
  1.783556145374068E-005
  1.780108912068719E-005
  1.792842560531203E-005
  1.793773337834457E-005
  1.794500428063817E-005
  1.794995495887729E-005
  1.795235857878223E-005
  1.795201497543557E-005
  1.794874081410885E-005
  1.794237193356845E-005
  1.793276968335298E-005
  1.791981793844272E-005
  1.790346821405302E-005
  1.788373709401377E-005
  1.786054298550694E-005
  1.783378199407281E-005
  1.780346264779799E-005
  1.788555890633300E-005
  1.789536595864450E-005
  1.790397302281485E-005
  1.791092351844299E-005
  1.791584205400186E-005
  1.791841203968180E-005
  1.791836786222415E-005
  1.791549455798477E-005
  1.790962811620820E-005
  1.790064864711009E-005
  1.788846806976060E-005
  1.787305645053688E-005
  1.785439937062352E-005
  1.783234754123172E-005
  1.780674499897135E-005
  1.783960217745893E-005
  1.784974972923676E-005
  1.785960882210787E-005
  1.786854155440157E-005
  1.787601689761161E-005
  1.788159916208453E-005
  1.788494617166286E-005
  1.788580623157688E-005
  1.788400623414527E-005
  1.787942884194737E-005
  1.787198006931271E-005
  1.786155266756750E-005
  1.784804751498286E-005
  1.783131186574321E-005
  1.781105421677538E-005
  1.779120840829174E-005
  1.780139514399486E-005
  1.781224551753522E-005
  1.782295322082488E-005
  1.783284418312038E-005
  1.784137936868899E-005
  1.784815860215659E-005
  1.785291653729554E-005
  1.785549345317790E-005
  1.785578329140647E-005
  1.785367080928862E-005
  1.784897739915375E-005
  1.784143384035832E-005
  1.783074022796846E-005
  1.781649438879048E-005
  1.774123307684576E-005
  1.775099728842903E-005
  1.776236622874472E-005
  1.777439868463087E-005
  1.778632827929591E-005
  1.779754903347946E-005
  1.780764428600218E-005
  1.781637480436654E-005
  1.782362001548368E-005
  1.782928464070583E-005
  1.783320175138896E-005
  1.783506457649918E-005
  1.783440467247875E-005
  1.783064500941833E-005
  1.782315556295659E-005
  1.769083560670035E-005
  1.769943952702677E-005
  1.771058603243345E-005
  1.772322468088323E-005
  1.773653604504845E-005
  1.774992453880443E-005
  1.776303153602136E-005
  1.777570324253392E-005
  1.778788474346619E-005
  1.779947304445340E-005
  1.781019290513410E-005
  1.781953363604287E-005
  1.782675151124101E-005
  1.783092299777423E-005
  1.783105398537496E-005
  1.764138748514739E-005
  1.764786071906917E-005
  1.765767836740007E-005
  1.766987830770668E-005
  1.768361896339392E-005
  1.769838857731413E-005
  1.771400158611611E-005
  1.773047163678180E-005
  1.774782099862247E-005
  1.776589138179744E-005
  1.778422080510910E-005
  1.780201367231797E-005
  1.781817352911536E-005
  1.783135970312273E-005
  1.784010847438666E-005
  1.759375796682184E-005
  1.759732283898963E-005
  1.760463894214989E-005
  1.761498377416882E-005
  1.762784546678969E-005
  1.764295955202571E-005
  1.766040330981446E-005
  1.768042337348858E-005
  1.770309562881432E-005
  1.772812894820939E-005
  1.775480427840377E-005
  1.778199130899216E-005
  1.780819493045505E-005
  1.783160012465192E-005
  1.785014588431010E-005
  1.754877902932430E-005
  1.754846063553022E-005
  1.755216728059062E-005
  1.755929836461683E-005
  1.756974112874972E-005
  1.758392850914510E-005
  1.760243590709476E-005
  1.762565964698848E-005
  1.765363185874492E-005
  1.768586646135415E-005
  1.772138461776548E-005
  1.775875563103495E-005
  1.779609770309367E-005
  1.783106421796271E-005
  1.786086002234682E-005
  1.750723835455720E-005
  1.750182580777823E-005
  1.750057835211628E-005
  1.750316228295762E-005
  1.750998141510732E-005
  1.752215907802797E-005
  1.754092265471648E-005
  1.756684206104446E-005
  1.759973381054487E-005
  1.763892689668948E-005
  1.768332563050222E-005
  1.773135694091046E-005
  1.778084680764439E-005
  1.782889664931099E-005
  1.787181291696895E-005
  1.746963944260619E-005
  1.745770500908192E-005
  1.744999401013266E-005
  1.744672217829287E-005
  1.744917516559548E-005
  1.745905746676078E-005
  1.747761260549924E-005
  1.750537358772229E-005
  1.754217422519176E-005
  1.758736573580732E-005
  1.763999239319443E-005
  1.769862775326411E-005
  1.776105405549743E-005
  1.782389424059521E-005
  1.788239068026264E-005
  1.743610193962134E-005
  1.741587864359596E-005
  1.740017885689354E-005
  1.739029195718972E-005
  1.738849833278655E-005
  1.739647274361649E-005
  1.741476591055087E-005
  1.744338699074351E-005
  1.748236602238701E-005
  1.753168022113969E-005
  1.759096453182392E-005
  1.765934046053006E-005
  1.773498442728288E-005
  1.781442650194537E-005
  1.789177068286775E-005
  1.740619276474057E-005
  1.737551110425818E-005
  1.735079277028584E-005
  1.733491612556542E-005
  1.733009535725455E-005
  1.733675010273950E-005
  1.735447200947962E-005
  1.738296572992604E-005
  1.742237224270218E-005
  1.747329412607737E-005
  1.753653625614192E-005
  1.761253435090881E-005
  1.770069986243541E-005
  1.779829714131786E-005
  1.789884651490325E-005
  1.737872479708905E-005
  1.733540986931555E-005
  1.730274346069966E-005
  1.728309649851901E-005
  1.727650403158753E-005
  1.728189602109959E-005
  1.729841095574161E-005
  1.732575927456655E-005
  1.736421063757016E-005
  1.741463434508679E-005
  1.747861038909545E-005
  1.755836652468260E-005
  1.765624594162782E-005
  1.777273070698305E-005
  1.790202078127772E-005
  1.735115255290695E-005
  1.729689079149404E-005
  1.725957442130150E-005
  1.723761733234527E-005
  1.722921566091258E-005
  1.723281929489303E-005
  1.724757908619932E-005
  1.727318567444370E-005
  1.730986071231832E-005
  1.735846679171908E-005
  1.742076354654875E-005
  1.749994136070303E-005
  1.760120866583952E-005
  1.773290504195561E-005
  1.789901352354447E-005
  1.732930938116131E-005
  1.726616504775031E-005
  1.722394714515921E-005
  1.719907504151910E-005
  1.718829197420935E-005
  1.718981978987621E-005
  1.720267592381206E-005
  1.722642629683047E-005
  1.726114087043674E-005
  1.730750907360609E-005
  1.736715075688619E-005
  1.744327316230657E-005
  1.754225372722741E-005
  1.767703476333259E-005
  1.788257348636072E-005
SCALARS elementIsPlast double 
LOOKUP_TABLE default
   1.00000000000000     
   1.00000000000000     
   1.00000000000000     
   1.00000000000000     
   1.00000000000000     
   1.00000000000000     
   1.00000000000000     
   1.00000000000000     
   1.00000000000000     
   1.00000000000000     
   1.00000000000000     
   1.00000000000000     
   1.00000000000000     
   1.00000000000000     
   1.00000000000000     
   1.00000000000000     
   1.00000000000000     
   1.00000000000000     
   1.00000000000000     
   1.00000000000000     
   1.00000000000000     
   1.00000000000000     
   1.00000000000000     
   1.00000000000000     
   1.00000000000000     
   1.00000000000000     
   1.00000000000000     
   1.00000000000000     
   1.00000000000000     
   1.00000000000000     
   1.00000000000000     
   1.00000000000000     
   1.00000000000000     
   1.00000000000000     
   1.00000000000000     
   1.00000000000000     
   1.00000000000000     
   1.00000000000000     
   1.00000000000000     
   1.00000000000000     
   1.00000000000000     
   1.00000000000000     
   1.00000000000000     
   1.00000000000000     
   1.00000000000000     
   1.00000000000000     
   1.00000000000000     
   1.00000000000000     
   1.00000000000000     
   1.00000000000000     
   1.00000000000000     
   1.00000000000000     
   1.00000000000000     
   1.00000000000000     
   1.00000000000000     
   1.00000000000000     
   1.00000000000000     
   1.00000000000000     
   1.00000000000000     
   1.00000000000000     
   1.00000000000000     
   1.00000000000000     
   1.00000000000000     
   1.00000000000000     
   1.00000000000000     
   1.00000000000000     
   1.00000000000000     
   1.00000000000000     
   1.00000000000000     
   1.00000000000000     
   1.00000000000000     
   1.00000000000000     
   1.00000000000000     
   1.00000000000000     
   1.00000000000000     
   1.00000000000000     
   1.00000000000000     
   1.00000000000000     
   1.00000000000000     
   1.00000000000000     
   1.00000000000000     
   1.00000000000000     
   1.00000000000000     
   1.00000000000000     
   1.00000000000000     
   1.00000000000000     
   1.00000000000000     
   1.00000000000000     
   1.00000000000000     
   1.00000000000000     
   1.00000000000000     
   1.00000000000000     
   1.00000000000000     
   1.00000000000000     
   1.00000000000000     
   1.00000000000000     
   1.00000000000000     
   1.00000000000000     
   1.00000000000000     
   1.00000000000000     
   1.00000000000000     
   1.00000000000000     
   1.00000000000000     
   1.00000000000000     
   1.00000000000000     
   1.00000000000000     
   1.00000000000000     
   1.00000000000000     
   1.00000000000000     
   1.00000000000000     
   1.00000000000000     
   1.00000000000000     
   1.00000000000000     
   1.00000000000000     
   1.00000000000000     
   1.00000000000000     
   1.00000000000000     
   1.00000000000000     
   1.00000000000000     
   1.00000000000000     
   1.00000000000000     
   1.00000000000000     
   1.00000000000000     
   1.00000000000000     
   1.00000000000000     
   1.00000000000000     
   1.00000000000000     
   1.00000000000000     
   1.00000000000000     
   1.00000000000000     
   1.00000000000000     
   1.00000000000000     
   1.00000000000000     
   1.00000000000000     
   1.00000000000000     
   1.00000000000000     
   1.00000000000000     
   1.00000000000000     
   1.00000000000000     
   1.00000000000000     
   1.00000000000000     
   1.00000000000000     
   1.00000000000000     
   1.00000000000000     
   1.00000000000000     
   1.00000000000000     
   1.00000000000000     
   1.00000000000000     
   1.00000000000000     
   1.00000000000000     
   1.00000000000000     
   1.00000000000000     
   1.00000000000000     
   1.00000000000000     
   1.00000000000000     
   1.00000000000000     
   1.00000000000000     
   1.00000000000000     
   1.00000000000000     
   1.00000000000000     
   1.00000000000000     
   1.00000000000000     
   1.00000000000000     
   1.00000000000000     
   1.00000000000000     
   1.00000000000000     
   1.00000000000000     
   1.00000000000000     
   1.00000000000000     
   1.00000000000000     
   1.00000000000000     
   1.00000000000000     
   1.00000000000000     
   1.00000000000000     
   1.00000000000000     
   1.00000000000000     
   1.00000000000000     
   1.00000000000000     
   1.00000000000000     
   1.00000000000000     
   1.00000000000000     
   1.00000000000000     
   1.00000000000000     
   1.00000000000000     
   1.00000000000000     
   1.00000000000000     
   1.00000000000000     
   1.00000000000000     
   1.00000000000000     
   1.00000000000000     
   1.00000000000000     
   1.00000000000000     
   1.00000000000000     
   1.00000000000000     
   1.00000000000000     
   1.00000000000000     
   1.00000000000000     
   1.00000000000000     
   1.00000000000000     
   1.00000000000000     
   1.00000000000000     
   1.00000000000000     
   1.00000000000000     
   1.00000000000000     
   1.00000000000000     
   1.00000000000000     
   1.00000000000000     
   1.00000000000000     
   1.00000000000000     
   1.00000000000000     
   1.00000000000000     
   1.00000000000000     
   1.00000000000000     
   1.00000000000000     
   1.00000000000000     
   1.00000000000000     
   1.00000000000000     
   1.00000000000000     
   1.00000000000000     
   1.00000000000000     
   1.00000000000000     
   1.00000000000000     
   1.00000000000000     
   1.00000000000000     
   1.00000000000000     
   1.00000000000000     
   1.00000000000000     
   1.00000000000000     
   1.00000000000000     
   1.00000000000000     
   1.00000000000000     
   1.00000000000000     
   1.00000000000000     
   1.00000000000000     
   1.00000000000000     
   1.00000000000000     
   1.00000000000000     
   1.00000000000000     
   1.00000000000000     
   1.00000000000000     
   1.00000000000000     
   1.00000000000000     
   1.00000000000000     
   1.00000000000000     
   1.00000000000000     
   1.00000000000000     
   1.00000000000000     
   1.00000000000000     
   1.00000000000000     
   1.00000000000000     
   1.00000000000000     
   1.00000000000000     
   1.00000000000000     
   1.00000000000000     
   1.00000000000000     
   1.00000000000000     
   1.00000000000000     
   1.00000000000000     
   1.00000000000000     
   1.00000000000000     
   1.00000000000000     
   1.00000000000000     
   1.00000000000000     
   1.00000000000000     
   1.00000000000000     
   1.00000000000000     
   1.00000000000000     
   1.00000000000000     
   1.00000000000000     
   1.00000000000000     
   1.00000000000000     
   1.00000000000000     
   1.00000000000000     
   1.00000000000000     
   1.00000000000000     
   1.00000000000000     
   1.00000000000000     
   1.00000000000000     
   1.00000000000000     
   1.00000000000000     
   1.00000000000000     
   1.00000000000000     
   1.00000000000000     
   1.00000000000000     
   1.00000000000000     
   1.00000000000000     
   1.00000000000000     
   1.00000000000000     
   1.00000000000000     
   1.00000000000000     
   1.00000000000000     
   1.00000000000000     
   1.00000000000000     
   1.00000000000000     
   1.00000000000000     
   1.00000000000000     
   1.00000000000000     
   1.00000000000000     
   1.00000000000000     
   1.00000000000000     
   1.00000000000000     
   1.00000000000000     
   1.00000000000000     
   1.00000000000000     
   1.00000000000000     
   1.00000000000000     
   1.00000000000000     
   1.00000000000000     
   1.00000000000000     
   1.00000000000000     
   1.00000000000000     
   1.00000000000000     
   1.00000000000000     
   1.00000000000000     
   1.00000000000000     
   1.00000000000000     
   1.00000000000000     
   1.00000000000000     
   1.00000000000000     
   1.00000000000000     
   1.00000000000000     
   1.00000000000000     
   1.00000000000000     
   1.00000000000000     
   1.00000000000000     
   1.00000000000000     
   1.00000000000000     
   1.00000000000000     
   1.00000000000000     
   1.00000000000000     
   1.00000000000000     
   1.00000000000000     
   1.00000000000000     
   1.00000000000000     
   1.00000000000000     
   1.00000000000000     
   1.00000000000000     
   1.00000000000000     
   1.00000000000000     
   1.00000000000000     
   1.00000000000000     
   1.00000000000000     
   1.00000000000000     
   1.00000000000000     
   1.00000000000000     
   1.00000000000000     
   1.00000000000000     
   1.00000000000000     
   1.00000000000000     
   1.00000000000000     
   1.00000000000000     
   1.00000000000000     
   1.00000000000000     
   1.00000000000000     
   1.00000000000000     
   1.00000000000000     
   1.00000000000000     
   1.00000000000000     
   1.00000000000000     
   1.00000000000000     
   1.00000000000000     
   1.00000000000000     
   1.00000000000000     
   1.00000000000000     
   1.00000000000000     
   1.00000000000000     
   1.00000000000000     
   1.00000000000000     
   1.00000000000000     
   1.00000000000000     
   1.00000000000000     
   1.00000000000000     
   1.00000000000000     
   1.00000000000000     
   1.00000000000000     
   1.00000000000000     
   1.00000000000000     
   1.00000000000000     
   1.00000000000000     
   1.00000000000000     
   1.00000000000000     
   1.00000000000000     
   1.00000000000000     
   1.00000000000000     
   1.00000000000000     
   1.00000000000000     
   1.00000000000000     
   1.00000000000000     
   1.00000000000000     
   1.00000000000000     
   1.00000000000000     
   1.00000000000000     
   1.00000000000000     
   1.00000000000000     
   1.00000000000000     
   1.00000000000000     
   1.00000000000000     
   1.00000000000000     
   1.00000000000000     
   1.00000000000000     
   1.00000000000000     
   1.00000000000000     
   1.00000000000000     
   1.00000000000000     
   1.00000000000000     
   1.00000000000000     
   1.00000000000000     
   1.00000000000000     
   1.00000000000000     
   1.00000000000000     
   1.00000000000000     
   1.00000000000000     
   1.00000000000000     
   1.00000000000000     
   1.00000000000000     
   1.00000000000000     
   1.00000000000000     
   1.00000000000000     
   1.00000000000000     
   1.00000000000000     
   1.00000000000000     
   1.00000000000000     
   1.00000000000000     
   1.00000000000000     
   1.00000000000000     
   1.00000000000000     
   1.00000000000000     
   1.00000000000000     
   1.00000000000000     
   1.00000000000000     
   1.00000000000000     
   1.00000000000000     
   1.00000000000000     
   1.00000000000000     
   1.00000000000000     
   1.00000000000000     
   1.00000000000000     
   1.00000000000000     
   1.00000000000000     
   1.00000000000000     
   1.00000000000000     
   1.00000000000000     
   1.00000000000000     
   1.00000000000000     
   1.00000000000000     
   1.00000000000000     
   1.00000000000000     
   1.00000000000000     
   1.00000000000000     
   1.00000000000000     
SCALARS poroL double 
LOOKUP_TABLE default
  0.155786807753351     
  0.155786820136958     
  0.155786830755570     
  0.155786839299845     
  0.155786845470126     
  0.155786848986678     
  0.155786849585813     
  0.155786847039913     
  0.155786841186529     
  0.155786831918592     
  0.155786819186523     
  0.155786803004927     
  0.155786783459519     
  0.155786760714519     
  0.155786735018230     
  0.155786805931369     
  0.155786818409731     
  0.155786829191059     
  0.155786837946692     
  0.155786844359975     
  0.155786848139349     
  0.155786849009968     
  0.155786846734459     
  0.155786841139451     
  0.155786832107705     
  0.155786819582735     
  0.155786803572602     
  0.155786784157226     
  0.155786761495526     
  0.155786735831341     
  0.155786802252214     
  0.155786814918591     
  0.155786826024329     
  0.155786835202389     
  0.155786842101475     
  0.155786846400486     
  0.155786847813704     
  0.155786846083312     
  0.155786841001471     
  0.155786832440147     
  0.155786820327108     
  0.155786804657224     
  0.155786785498490     
  0.155786762999317     
  0.155786737394766     
  0.155786796645287     
  0.155786809590005     
  0.155786821179573     
  0.155786830989524     
  0.155786838618816     
  0.155786843706941     
  0.155786845929069     
  0.155786844999710     
  0.155786840684380     
  0.155786832824165     
  0.155786821323835     
  0.155786806157555     
  0.155786787374946     
  0.155786765108744     
  0.155786739581963     
  0.155786789004175     
  0.155786802313290     
  0.155786814543775     
  0.155786825191720     
  0.155786833789390     
  0.155786839921422     
  0.155786843219013     
  0.155786843353875     
  0.155786840054851     
  0.155786833122327     
  0.155786822429336     
  0.155786807921529     
  0.155786789624173     
  0.155786767648676     
  0.155786742203411     
  0.155786779184234     
  0.155786792943363     
  0.155786805964996     
  0.155786817650480     
  0.155786827452190     
  0.155786834870584     
  0.155786839502298     
  0.155786840970412     
  0.155786838934482     
  0.155786833150817     
  0.155786823451136     
  0.155786809745533     
  0.155786792028539     
  0.155786770387102     
  0.155786745009004     
  0.155786767051075     
  0.155786781302633     
  0.155786795250382     
  0.155786808167137     
  0.155786819401041     
  0.155786828373874     
  0.155786834592772     
  0.155786837629917     
  0.155786837100203     
  0.155786832676951     
  0.155786824146074     
  0.155786811372949     
  0.155786794314993     
  0.155786773029242     
  0.155786747682097     
  0.155786752375709     
  0.155786767186166     
  0.155786782176215     
  0.155786796502913     
  0.155786809392368     
  0.155786820162715     
  0.155786828224890     
  0.155786833080238     
  0.155786834277826     
  0.155786831417495     
  0.155786824218460     
  0.155786812492399     
  0.155786796151741     
  0.155786775220483     
  0.155786749843120     
  0.155786734906048     
  0.155786750332778     
  0.155786766483366     
  0.155786782381796     
  0.155786797135849     
  0.155786809938311     
  0.155786820085631     
  0.155786826997404     
  0.155786830141079     
  0.155786829035960     
  0.155786823317928     
  0.155786812733200     
  0.155786797144855     
  0.155786776540876     
  0.155786751044938     
  0.155786714381838     
  0.155786730460836     
  0.155786747878272     
  0.155786765499508     
  0.155786782303588     
  0.155786797361264     
  0.155786809831377     
  0.155786819018166     
  0.155786824309459     
  0.155786825142341     
  0.155786821030580     
  0.155786811658746     
  0.155786796832183     
  0.155786776500653     
  0.155786750770112     
  0.155786690540071     
  0.155786707280906     
  0.155786726043149     
  0.155786745520230     
  0.155786764543972     
  0.155786782053650     
  0.155786797077239     
  0.155786808755085     
  0.155786816371820     
  0.155786819272149     
  0.155786816872097     
  0.155786808758783     
  0.155786794674812     
  0.155786774533290     
  0.155786748425709     
  0.155786663134676     
  0.155786680520366     
  0.155786700661075     
  0.155786722090316     
  0.155786743475656     
  0.155786763606389     
  0.155786781366891     
  0.155786795716061     
  0.155786805806412     
  0.155786810888869     
  0.155786810280188     
  0.155786803435455     
  0.155786790046289     
  0.155786769987332     
  0.155786743339775     
  0.155786631967142     
  0.155786649941521     
  0.155786671445948     
  0.155786694863438     
  0.155786718701657     
  0.155786741576514     
  0.155786762207814     
  0.155786779407712     
  0.155786792088472     
  0.155786799399417     
  0.155786800583547     
  0.155786794990714     
  0.155786782220792     
  0.155786762118229     
  0.155786734760472     
  0.155786596922825     
  0.155786615378966     
  0.155786638161815     
  0.155786663523855     
  0.155786689824978     
  0.155786715503164     
  0.155786739078997     
  0.155786759182020     
  0.155786774547708     
  0.155786784092343     
  0.155786787009126     
  0.155786782605917     
  0.155786770359054     
  0.155786750087310     
  0.155786721859127     
  0.155786558014005     
  0.155786576778495     
  0.155786600661035     
  0.155786627816794     
  0.155786656470378     
  0.155786684888735     
  0.155786711389049     
  0.155786734371230     
  0.155786752386928     
  0.155786764162645     
  0.155786768695071     
  0.155786765316021     
  0.155786753503488     
  0.155786732956751     
  0.155786703743344     
  0.155786515423806     
  0.155786534240255     
  0.155786558924936     
  0.155786587578626     
  0.155786618314117     
  0.155786649235497     
  0.155786678458569     
  0.155786704167119     
  0.155786724682622     
  0.155786738557130     
  0.155786744626109     
  0.155786742095452     
  0.155786730551535     
  0.155786709711342     
  0.155786679494027     
  0.155786469545274     
  0.155786488057898     
  0.155786513103610     
  0.155786542772974     
  0.155786575100877     
  0.155786608055146     
  0.155786639566066     
  0.155786667601797     
  0.155786690279025     
  0.155786705975292     
  0.155786713420635     
  0.155786711717308     
  0.155786700384005     
  0.155786679250662     
  0.155786648206780     
  0.155786421002583     
  0.155786438750191     
  0.155786463546595     
  0.155786493518346     
  0.155786526668050     
  0.155786560870523     
  0.155786593911069     
  0.155786623582738     
  0.155786647831973     
  0.155786664906766     
  0.155786673456420     
  0.155786672558945     
  0.155786661647876     
  0.155786640495937     
  0.155786608970264     
  0.155786370664026     
  0.155786387055576     
  0.155786410812081     
  0.155786440107695     
  0.155786472960357     
  0.155786507218919     
  0.155786540598623     
  0.155786570813676     
  0.155786595738976     
  0.155786613577265     
  0.155786622957802     
  0.155786622928462     
  0.155786612864319     
  0.155786592343778     
  0.155786561030518     
  0.155786319607589     
  0.155786333930261     
  0.155786355653892     
  0.155786382987777     
  0.155786414031245     
  0.155786446641306     
  0.155786478611487     
  0.155786507759053     
  0.155786532089417     
  0.155786549913586     
  0.155786559902184     
  0.155786561048338     
  0.155786552555402     
  0.155786533703447     
  0.155786503780953     
  0.155786269434274     
  0.155786280557740     
  0.155786298921641     
  0.155786322742068     
  0.155786349976772     
  0.155786378643911     
  0.155786406774365     
  0.155786432623803     
  0.155786454669684     
  0.155786471567105     
  0.155786482080955     
  0.155786485040104     
  0.155786479293844     
  0.155786463633293     
  0.155786436767459     
  0.155786220767745     
  0.155786228058723     
  0.155786241668978     
  0.155786259905045     
  0.155786280851377     
  0.155786302579140     
  0.155786323711686     
  0.155786343396311     
  0.155786361071236     
  0.155786376039783     
  0.155786387187621     
  0.155786392995927     
  0.155786391689600     
  0.155786381333069     
  0.155786359810561     
  0.155786174551310     
  0.155786176960311     
  0.155786184448539     
  0.155786194937966     
  0.155786206388799     
  0.155786217470416     
  0.155786227815561     
  0.155786238027597     
  0.155786248994290     
  0.155786260949533     
  0.155786272967644     
  0.155786283003075     
  0.155786288350706     
  0.155786286021726     
  0.155786272845872     
  0.155786131571898     
  0.155786127886793     
  0.155786127332073     
  0.155786127281696     
  0.155786125596284     
  0.155786121764750     
  0.155786117312288     
  0.155786114839180     
  0.155786116777310     
  0.155786124479025     
  0.155786137418745     
  0.155786153129682     
  0.155786167752059     
  0.155786176872851     
  0.155786175898939     
  0.155786092355552     
  0.155786080997667     
  0.155786069835810     
  0.155786055394990     
  0.155786035992929     
  0.155786013126658     
  0.155785990649343     
  0.155785973065689     
  0.155785964085683     
  0.155785965956122     
  0.155785979126911     
  0.155786001415341     
  0.155786028028773     
  0.155786052728504     
  0.155786068909524     
  0.155786057044951     
  0.155786035756935     
  0.155786010052785     
  0.155785975856783     
  0.155785933760222     
  0.155785888805939     
  0.155785847049786     
  0.155785813517391     
  0.155785792269702     
  0.155785786476065     
  0.155785797894486     
  0.155785826046598     
  0.155785866697872     
  0.155785911708928     
  0.155785951529903     
  0.155786025257319     
  0.155785990177576     
  0.155785943413015     
  0.155785882638525     
  0.155785814439461     
  0.155785747144086     
  0.155785686929768     
  0.155785638194721     
  0.155785604468839     
  0.155785589113415     
  0.155785595562279     
  0.155785626324777     
  0.155785680450959     
  0.155785750581688     
  0.155785822606061     
  0.155785995339770     
  0.155785938969714     
  0.155785860529861     
  0.155785768591715     
  0.155785675378527     
  0.155785588462797     
  0.155785512196626     
  0.155785449758966     
  0.155785404064223     
  0.155785378329405     
  0.155785376586454     
  0.155785404137880     
  0.155785466712874     
  0.155785563232152     
  0.155785679679270     
  0.155785962611525     
  0.155785866638269     
  0.155785750021950     
  0.155785630348540     
  0.155785517220013     
  0.155785414676913     
  0.155785325300889     
  0.155785251197088     
  0.155785194604483     
  0.155785158383203     
  0.155785146626107     
  0.155785165679928     
  0.155785225640169     
  0.155785343127407     
  0.155785513835885     
  0.155785895623283     
  0.155785754925162     
  0.155785608372058     
  0.155785469781976     
  0.155785342440844     
  0.155785228276190     
  0.155785128704862     
  0.155785045114204     
  0.155784979174583     
  0.155784933250003     
  0.155784911041276     
  0.155784918746833     
  0.155784967732776     
  0.155785080593364     
  0.155785322952702     
