# vtk DataFile Version 3.0
vtk output
ASCII
DATASET UNSTRUCTURED_GRID
POINTS       496 double 
  0.00000000E+00  3.00000000E+02  0.00000000E+00
  0.00000000E+00  2.80000000E+02  0.00000000E+00
  0.00000000E+00  2.60000000E+02  0.00000000E+00
  0.00000000E+00  2.40000000E+02  0.00000000E+00
  0.00000000E+00  2.20000000E+02  0.00000000E+00
  0.00000000E+00  2.00000000E+02  0.00000000E+00
  0.00000000E+00  1.80000000E+02  0.00000000E+00
  0.00000000E+00  1.60000000E+02  0.00000000E+00
  0.00000000E+00  1.40000000E+02  0.00000000E+00
  0.00000000E+00  1.20000000E+02  0.00000000E+00
  0.00000000E+00  1.00000000E+02  0.00000000E+00
  0.00000000E+00  8.00000000E+01  0.00000000E+00
  0.00000000E+00  6.00000000E+01  0.00000000E+00
  0.00000000E+00  4.00000000E+01  0.00000000E+00
  0.00000000E+00  2.00000000E+01  0.00000000E+00
  0.00000000E+00  4.99600361E-14  0.00000000E+00
  2.00000000E+01  3.00000000E+02  0.00000000E+00
  2.00000000E+01  2.80000000E+02  0.00000000E+00
  2.00000000E+01  2.60000000E+02  0.00000000E+00
  2.00000000E+01  2.40000000E+02  0.00000000E+00
  2.00000000E+01  2.20000000E+02  0.00000000E+00
  2.00000000E+01  2.00000000E+02  0.00000000E+00
  2.00000000E+01  1.80000000E+02  0.00000000E+00
  2.00000000E+01  1.60000000E+02  0.00000000E+00
  2.00000000E+01  1.40000000E+02  0.00000000E+00
  2.00000000E+01  1.20000000E+02  0.00000000E+00
  2.00000000E+01  1.00000000E+02  0.00000000E+00
  2.00000000E+01  8.00000000E+01  0.00000000E+00
  2.00000000E+01  6.00000000E+01  0.00000000E+00
  2.00000000E+01  4.00000000E+01  0.00000000E+00
  2.00000000E+01  2.00000000E+01  0.00000000E+00
  2.00000000E+01  4.99600361E-14  0.00000000E+00
  4.00000000E+01  3.00000000E+02  0.00000000E+00
  4.00000000E+01  2.80000000E+02  0.00000000E+00
  4.00000000E+01  2.60000000E+02  0.00000000E+00
  4.00000000E+01  2.40000000E+02  0.00000000E+00
  4.00000000E+01  2.20000000E+02  0.00000000E+00
  4.00000000E+01  2.00000000E+02  0.00000000E+00
  4.00000000E+01  1.80000000E+02  0.00000000E+00
  4.00000000E+01  1.60000000E+02  0.00000000E+00
  4.00000000E+01  1.40000000E+02  0.00000000E+00
  4.00000000E+01  1.20000000E+02  0.00000000E+00
  4.00000000E+01  1.00000000E+02  0.00000000E+00
  4.00000000E+01  8.00000000E+01  0.00000000E+00
  4.00000000E+01  6.00000000E+01  0.00000000E+00
  4.00000000E+01  4.00000000E+01  0.00000000E+00
  4.00000000E+01  2.00000000E+01  0.00000000E+00
  4.00000000E+01  4.99600361E-14  0.00000000E+00
  6.00000000E+01  3.00000000E+02  0.00000000E+00
  6.00000000E+01  2.80000000E+02  0.00000000E+00
  6.00000000E+01  2.60000000E+02  0.00000000E+00
  6.00000000E+01  2.40000000E+02  0.00000000E+00
  6.00000000E+01  2.20000000E+02  0.00000000E+00
  6.00000000E+01  2.00000000E+02  0.00000000E+00
  6.00000000E+01  1.80000000E+02  0.00000000E+00
  6.00000000E+01  1.60000000E+02  0.00000000E+00
  6.00000000E+01  1.40000000E+02  0.00000000E+00
  6.00000000E+01  1.20000000E+02  0.00000000E+00
  6.00000000E+01  1.00000000E+02  0.00000000E+00
  6.00000000E+01  8.00000000E+01  0.00000000E+00
  6.00000000E+01  6.00000000E+01  0.00000000E+00
  6.00000000E+01  4.00000000E+01  0.00000000E+00
  6.00000000E+01  2.00000000E+01  0.00000000E+00
  6.00000000E+01  4.99600361E-14  0.00000000E+00
  8.00000000E+01  3.00000000E+02  0.00000000E+00
  8.00000000E+01  2.80000000E+02  0.00000000E+00
  8.00000000E+01  2.60000000E+02  0.00000000E+00
  8.00000000E+01  2.40000000E+02  0.00000000E+00
  8.00000000E+01  2.20000000E+02  0.00000000E+00
  8.00000000E+01  2.00000000E+02  0.00000000E+00
  8.00000000E+01  1.80000000E+02  0.00000000E+00
  8.00000000E+01  1.60000000E+02  0.00000000E+00
  8.00000000E+01  1.40000000E+02  0.00000000E+00
  8.00000000E+01  1.20000000E+02  0.00000000E+00
  8.00000000E+01  1.00000000E+02  0.00000000E+00
  8.00000000E+01  8.00000000E+01  0.00000000E+00
  8.00000000E+01  6.00000000E+01  0.00000000E+00
  8.00000000E+01  4.00000000E+01  0.00000000E+00
  8.00000000E+01  2.00000000E+01  0.00000000E+00
  8.00000000E+01  4.99600361E-14  0.00000000E+00
  1.00000000E+02  3.00000000E+02  0.00000000E+00
  1.00000000E+02  2.80000000E+02  0.00000000E+00
  1.00000000E+02  2.60000000E+02  0.00000000E+00
  1.00000000E+02  2.40000000E+02  0.00000000E+00
  1.00000000E+02  2.20000000E+02  0.00000000E+00
  1.00000000E+02  2.00000000E+02  0.00000000E+00
  1.00000000E+02  1.80000000E+02  0.00000000E+00
  1.00000000E+02  1.60000000E+02  0.00000000E+00
  1.00000000E+02  1.40000000E+02  0.00000000E+00
  1.00000000E+02  1.20000000E+02  0.00000000E+00
  1.00000000E+02  1.00000000E+02  0.00000000E+00
  1.00000000E+02  8.00000000E+01  0.00000000E+00
  1.00000000E+02  6.00000000E+01  0.00000000E+00
  1.00000000E+02  4.00000000E+01  0.00000000E+00
  1.00000000E+02  2.00000000E+01  0.00000000E+00
  1.00000000E+02  4.99600361E-14  0.00000000E+00
  1.20000000E+02  3.00000000E+02  0.00000000E+00
  1.20000000E+02  2.80000000E+02  0.00000000E+00
  1.20000000E+02  2.60000000E+02  0.00000000E+00
  1.20000000E+02  2.40000000E+02  0.00000000E+00
  1.20000000E+02  2.20000000E+02  0.00000000E+00
  1.20000000E+02  2.00000000E+02  0.00000000E+00
  1.20000000E+02  1.80000000E+02  0.00000000E+00
  1.20000000E+02  1.60000000E+02  0.00000000E+00
  1.20000000E+02  1.40000000E+02  0.00000000E+00
  1.20000000E+02  1.20000000E+02  0.00000000E+00
  1.20000000E+02  1.00000000E+02  0.00000000E+00
  1.20000000E+02  8.00000000E+01  0.00000000E+00
  1.20000000E+02  6.00000000E+01  0.00000000E+00
  1.20000000E+02  4.00000000E+01  0.00000000E+00
  1.20000000E+02  2.00000000E+01  0.00000000E+00
  1.20000000E+02  4.99600361E-14  0.00000000E+00
  1.40000000E+02  3.00000000E+02  0.00000000E+00
  1.40000000E+02  2.80000000E+02  0.00000000E+00
  1.40000000E+02  2.60000000E+02  0.00000000E+00
  1.40000000E+02  2.40000000E+02  0.00000000E+00
  1.40000000E+02  2.20000000E+02  0.00000000E+00
  1.40000000E+02  2.00000000E+02  0.00000000E+00
  1.40000000E+02  1.80000000E+02  0.00000000E+00
  1.40000000E+02  1.60000000E+02  0.00000000E+00
  1.40000000E+02  1.40000000E+02  0.00000000E+00
  1.40000000E+02  1.20000000E+02  0.00000000E+00
  1.40000000E+02  1.00000000E+02  0.00000000E+00
  1.40000000E+02  8.00000000E+01  0.00000000E+00
  1.40000000E+02  6.00000000E+01  0.00000000E+00
  1.40000000E+02  4.00000000E+01  0.00000000E+00
  1.40000000E+02  2.00000000E+01  0.00000000E+00
  1.40000000E+02  4.99600361E-14  0.00000000E+00
  1.60000000E+02  3.00000000E+02  0.00000000E+00
  1.60000000E+02  2.80000000E+02  0.00000000E+00
  1.60000000E+02  2.60000000E+02  0.00000000E+00
  1.60000000E+02  2.40000000E+02  0.00000000E+00
  1.60000000E+02  2.20000000E+02  0.00000000E+00
  1.60000000E+02  2.00000000E+02  0.00000000E+00
  1.60000000E+02  1.80000000E+02  0.00000000E+00
  1.60000000E+02  1.60000000E+02  0.00000000E+00
  1.60000000E+02  1.40000000E+02  0.00000000E+00
  1.60000000E+02  1.20000000E+02  0.00000000E+00
  1.60000000E+02  1.00000000E+02  0.00000000E+00
  1.60000000E+02  8.00000000E+01  0.00000000E+00
  1.60000000E+02  6.00000000E+01  0.00000000E+00
  1.60000000E+02  4.00000000E+01  0.00000000E+00
  1.60000000E+02  2.00000000E+01  0.00000000E+00
  1.60000000E+02  4.99600361E-14  0.00000000E+00
  1.80000000E+02  3.00000000E+02  0.00000000E+00
  1.80000000E+02  2.80000000E+02  0.00000000E+00
  1.80000000E+02  2.60000000E+02  0.00000000E+00
  1.80000000E+02  2.40000000E+02  0.00000000E+00
  1.80000000E+02  2.20000000E+02  0.00000000E+00
  1.80000000E+02  2.00000000E+02  0.00000000E+00
  1.80000000E+02  1.80000000E+02  0.00000000E+00
  1.80000000E+02  1.60000000E+02  0.00000000E+00
  1.80000000E+02  1.40000000E+02  0.00000000E+00
  1.80000000E+02  1.20000000E+02  0.00000000E+00
  1.80000000E+02  1.00000000E+02  0.00000000E+00
  1.80000000E+02  8.00000000E+01  0.00000000E+00
  1.80000000E+02  6.00000000E+01  0.00000000E+00
  1.80000000E+02  4.00000000E+01  0.00000000E+00
  1.80000000E+02  2.00000000E+01  0.00000000E+00
  1.80000000E+02  4.99600361E-14  0.00000000E+00
  2.00000000E+02  3.00000000E+02  0.00000000E+00
  2.00000000E+02  2.80000000E+02  0.00000000E+00
  2.00000000E+02  2.60000000E+02  0.00000000E+00
  2.00000000E+02  2.40000000E+02  0.00000000E+00
  2.00000000E+02  2.20000000E+02  0.00000000E+00
  2.00000000E+02  2.00000000E+02  0.00000000E+00
  2.00000000E+02  1.80000000E+02  0.00000000E+00
  2.00000000E+02  1.60000000E+02  0.00000000E+00
  2.00000000E+02  1.40000000E+02  0.00000000E+00
  2.00000000E+02  1.20000000E+02  0.00000000E+00
  2.00000000E+02  1.00000000E+02  0.00000000E+00
  2.00000000E+02  8.00000000E+01  0.00000000E+00
  2.00000000E+02  6.00000000E+01  0.00000000E+00
  2.00000000E+02  4.00000000E+01  0.00000000E+00
  2.00000000E+02  2.00000000E+01  0.00000000E+00
  2.00000000E+02  4.99600361E-14  0.00000000E+00
  2.20000000E+02  3.00000000E+02  0.00000000E+00
  2.20000000E+02  2.80000000E+02  0.00000000E+00
  2.20000000E+02  2.60000000E+02  0.00000000E+00
  2.20000000E+02  2.40000000E+02  0.00000000E+00
  2.20000000E+02  2.20000000E+02  0.00000000E+00
  2.20000000E+02  2.00000000E+02  0.00000000E+00
  2.20000000E+02  1.80000000E+02  0.00000000E+00
  2.20000000E+02  1.60000000E+02  0.00000000E+00
  2.20000000E+02  1.40000000E+02  0.00000000E+00
  2.20000000E+02  1.20000000E+02  0.00000000E+00
  2.20000000E+02  1.00000000E+02  0.00000000E+00
  2.20000000E+02  8.00000000E+01  0.00000000E+00
  2.20000000E+02  6.00000000E+01  0.00000000E+00
  2.20000000E+02  4.00000000E+01  0.00000000E+00
  2.20000000E+02  2.00000000E+01  0.00000000E+00
  2.20000000E+02  4.99600361E-14  0.00000000E+00
  2.40000000E+02  3.00000000E+02  0.00000000E+00
  2.40000000E+02  2.80000000E+02  0.00000000E+00
  2.40000000E+02  2.60000000E+02  0.00000000E+00
  2.40000000E+02  2.40000000E+02  0.00000000E+00
  2.40000000E+02  2.20000000E+02  0.00000000E+00
  2.40000000E+02  2.00000000E+02  0.00000000E+00
  2.40000000E+02  1.80000000E+02  0.00000000E+00
  2.40000000E+02  1.60000000E+02  0.00000000E+00
  2.40000000E+02  1.40000000E+02  0.00000000E+00
  2.40000000E+02  1.20000000E+02  0.00000000E+00
  2.40000000E+02  1.00000000E+02  0.00000000E+00
  2.40000000E+02  8.00000000E+01  0.00000000E+00
  2.40000000E+02  6.00000000E+01  0.00000000E+00
  2.40000000E+02  4.00000000E+01  0.00000000E+00
  2.40000000E+02  2.00000000E+01  0.00000000E+00
  2.40000000E+02  4.99600361E-14  0.00000000E+00
  2.60000000E+02  3.00000000E+02  0.00000000E+00
  2.60000000E+02  2.80000000E+02  0.00000000E+00
  2.60000000E+02  2.60000000E+02  0.00000000E+00
  2.60000000E+02  2.40000000E+02  0.00000000E+00
  2.60000000E+02  2.20000000E+02  0.00000000E+00
  2.60000000E+02  2.00000000E+02  0.00000000E+00
  2.60000000E+02  1.80000000E+02  0.00000000E+00
  2.60000000E+02  1.60000000E+02  0.00000000E+00
  2.60000000E+02  1.40000000E+02  0.00000000E+00
  2.60000000E+02  1.20000000E+02  0.00000000E+00
  2.60000000E+02  1.00000000E+02  0.00000000E+00
  2.60000000E+02  8.00000000E+01  0.00000000E+00
  2.60000000E+02  6.00000000E+01  0.00000000E+00
  2.60000000E+02  4.00000000E+01  0.00000000E+00
  2.60000000E+02  2.00000000E+01  0.00000000E+00
  2.60000000E+02  4.99600361E-14  0.00000000E+00
  2.80000000E+02  3.00000000E+02  0.00000000E+00
  2.80000000E+02  2.80000000E+02  0.00000000E+00
  2.80000000E+02  2.60000000E+02  0.00000000E+00
  2.80000000E+02  2.40000000E+02  0.00000000E+00
  2.80000000E+02  2.20000000E+02  0.00000000E+00
  2.80000000E+02  2.00000000E+02  0.00000000E+00
  2.80000000E+02  1.80000000E+02  0.00000000E+00
  2.80000000E+02  1.60000000E+02  0.00000000E+00
  2.80000000E+02  1.40000000E+02  0.00000000E+00
  2.80000000E+02  1.20000000E+02  0.00000000E+00
  2.80000000E+02  1.00000000E+02  0.00000000E+00
  2.80000000E+02  8.00000000E+01  0.00000000E+00
  2.80000000E+02  6.00000000E+01  0.00000000E+00
  2.80000000E+02  4.00000000E+01  0.00000000E+00
  2.80000000E+02  2.00000000E+01  0.00000000E+00
  2.80000000E+02  4.99600361E-14  0.00000000E+00
  3.00000000E+02  3.00000000E+02  0.00000000E+00
  3.00000000E+02  2.80000000E+02  0.00000000E+00
  3.00000000E+02  2.60000000E+02  0.00000000E+00
  3.00000000E+02  2.40000000E+02  0.00000000E+00
  3.00000000E+02  2.20000000E+02  0.00000000E+00
  3.00000000E+02  2.00000000E+02  0.00000000E+00
  3.00000000E+02  1.80000000E+02  0.00000000E+00
  3.00000000E+02  1.60000000E+02  0.00000000E+00
  3.00000000E+02  1.40000000E+02  0.00000000E+00
  3.00000000E+02  1.20000000E+02  0.00000000E+00
  3.00000000E+02  1.00000000E+02  0.00000000E+00
  3.00000000E+02  8.00000000E+01  0.00000000E+00
  3.00000000E+02  6.00000000E+01  0.00000000E+00
  3.00000000E+02  4.00000000E+01  0.00000000E+00
  3.00000000E+02  2.00000000E+01  0.00000000E+00
  3.00000000E+02  4.99600361E-14  0.00000000E+00
  3.20000000E+02  3.00000000E+02  0.00000000E+00
  3.20000000E+02  2.80000000E+02  0.00000000E+00
  3.20000000E+02  2.60000000E+02  0.00000000E+00
  3.20000000E+02  2.40000000E+02  0.00000000E+00
  3.20000000E+02  2.20000000E+02  0.00000000E+00
  3.20000000E+02  2.00000000E+02  0.00000000E+00
  3.20000000E+02  1.80000000E+02  0.00000000E+00
  3.20000000E+02  1.60000000E+02  0.00000000E+00
  3.20000000E+02  1.40000000E+02  0.00000000E+00
  3.20000000E+02  1.20000000E+02  0.00000000E+00
  3.20000000E+02  1.00000000E+02  0.00000000E+00
  3.20000000E+02  8.00000000E+01  0.00000000E+00
  3.20000000E+02  6.00000000E+01  0.00000000E+00
  3.20000000E+02  4.00000000E+01  0.00000000E+00
  3.20000000E+02  2.00000000E+01  0.00000000E+00
  3.20000000E+02  4.99600361E-14  0.00000000E+00
  3.40000000E+02  3.00000000E+02  0.00000000E+00
  3.40000000E+02  2.80000000E+02  0.00000000E+00
  3.40000000E+02  2.60000000E+02  0.00000000E+00
  3.40000000E+02  2.40000000E+02  0.00000000E+00
  3.40000000E+02  2.20000000E+02  0.00000000E+00
  3.40000000E+02  2.00000000E+02  0.00000000E+00
  3.40000000E+02  1.80000000E+02  0.00000000E+00
  3.40000000E+02  1.60000000E+02  0.00000000E+00
  3.40000000E+02  1.40000000E+02  0.00000000E+00
  3.40000000E+02  1.20000000E+02  0.00000000E+00
  3.40000000E+02  1.00000000E+02  0.00000000E+00
  3.40000000E+02  8.00000000E+01  0.00000000E+00
  3.40000000E+02  6.00000000E+01  0.00000000E+00
  3.40000000E+02  4.00000000E+01  0.00000000E+00
  3.40000000E+02  2.00000000E+01  0.00000000E+00
  3.40000000E+02  4.99600361E-14  0.00000000E+00
  3.60000000E+02  3.00000000E+02  0.00000000E+00
  3.60000000E+02  2.80000000E+02  0.00000000E+00
  3.60000000E+02  2.60000000E+02  0.00000000E+00
  3.60000000E+02  2.40000000E+02  0.00000000E+00
  3.60000000E+02  2.20000000E+02  0.00000000E+00
  3.60000000E+02  2.00000000E+02  0.00000000E+00
  3.60000000E+02  1.80000000E+02  0.00000000E+00
  3.60000000E+02  1.60000000E+02  0.00000000E+00
  3.60000000E+02  1.40000000E+02  0.00000000E+00
  3.60000000E+02  1.20000000E+02  0.00000000E+00
  3.60000000E+02  1.00000000E+02  0.00000000E+00
  3.60000000E+02  8.00000000E+01  0.00000000E+00
  3.60000000E+02  6.00000000E+01  0.00000000E+00
  3.60000000E+02  4.00000000E+01  0.00000000E+00
  3.60000000E+02  2.00000000E+01  0.00000000E+00
  3.60000000E+02  4.99600361E-14  0.00000000E+00
  3.80000000E+02  3.00000000E+02  0.00000000E+00
  3.80000000E+02  2.80000000E+02  0.00000000E+00
  3.80000000E+02  2.60000000E+02  0.00000000E+00
  3.80000000E+02  2.40000000E+02  0.00000000E+00
  3.80000000E+02  2.20000000E+02  0.00000000E+00
  3.80000000E+02  2.00000000E+02  0.00000000E+00
  3.80000000E+02  1.80000000E+02  0.00000000E+00
  3.80000000E+02  1.60000000E+02  0.00000000E+00
  3.80000000E+02  1.40000000E+02  0.00000000E+00
  3.80000000E+02  1.20000000E+02  0.00000000E+00
  3.80000000E+02  1.00000000E+02  0.00000000E+00
  3.80000000E+02  8.00000000E+01  0.00000000E+00
  3.80000000E+02  6.00000000E+01  0.00000000E+00
  3.80000000E+02  4.00000000E+01  0.00000000E+00
  3.80000000E+02  2.00000000E+01  0.00000000E+00
  3.80000000E+02  4.99600361E-14  0.00000000E+00
  4.00000000E+02  3.00000000E+02  0.00000000E+00
  4.00000000E+02  2.80000000E+02  0.00000000E+00
  4.00000000E+02  2.60000000E+02  0.00000000E+00
  4.00000000E+02  2.40000000E+02  0.00000000E+00
  4.00000000E+02  2.20000000E+02  0.00000000E+00
  4.00000000E+02  2.00000000E+02  0.00000000E+00
  4.00000000E+02  1.80000000E+02  0.00000000E+00
  4.00000000E+02  1.60000000E+02  0.00000000E+00
  4.00000000E+02  1.40000000E+02  0.00000000E+00
  4.00000000E+02  1.20000000E+02  0.00000000E+00
  4.00000000E+02  1.00000000E+02  0.00000000E+00
  4.00000000E+02  8.00000000E+01  0.00000000E+00
  4.00000000E+02  6.00000000E+01  0.00000000E+00
  4.00000000E+02  4.00000000E+01  0.00000000E+00
  4.00000000E+02  2.00000000E+01  0.00000000E+00
  4.00000000E+02  4.99600361E-14  0.00000000E+00
  4.20000000E+02  3.00000000E+02  0.00000000E+00
  4.20000000E+02  2.80000000E+02  0.00000000E+00
  4.20000000E+02  2.60000000E+02  0.00000000E+00
  4.20000000E+02  2.40000000E+02  0.00000000E+00
  4.20000000E+02  2.20000000E+02  0.00000000E+00
  4.20000000E+02  2.00000000E+02  0.00000000E+00
  4.20000000E+02  1.80000000E+02  0.00000000E+00
  4.20000000E+02  1.60000000E+02  0.00000000E+00
  4.20000000E+02  1.40000000E+02  0.00000000E+00
  4.20000000E+02  1.20000000E+02  0.00000000E+00
  4.20000000E+02  1.00000000E+02  0.00000000E+00
  4.20000000E+02  8.00000000E+01  0.00000000E+00
  4.20000000E+02  6.00000000E+01  0.00000000E+00
  4.20000000E+02  4.00000000E+01  0.00000000E+00
  4.20000000E+02  2.00000000E+01  0.00000000E+00
  4.20000000E+02  4.99600361E-14  0.00000000E+00
  4.40000000E+02  3.00000000E+02  0.00000000E+00
  4.40000000E+02  2.80000000E+02  0.00000000E+00
  4.40000000E+02  2.60000000E+02  0.00000000E+00
  4.40000000E+02  2.40000000E+02  0.00000000E+00
  4.40000000E+02  2.20000000E+02  0.00000000E+00
  4.40000000E+02  2.00000000E+02  0.00000000E+00
  4.40000000E+02  1.80000000E+02  0.00000000E+00
  4.40000000E+02  1.60000000E+02  0.00000000E+00
  4.40000000E+02  1.40000000E+02  0.00000000E+00
  4.40000000E+02  1.20000000E+02  0.00000000E+00
  4.40000000E+02  1.00000000E+02  0.00000000E+00
  4.40000000E+02  8.00000000E+01  0.00000000E+00
  4.40000000E+02  6.00000000E+01  0.00000000E+00
  4.40000000E+02  4.00000000E+01  0.00000000E+00
  4.40000000E+02  2.00000000E+01  0.00000000E+00
  4.40000000E+02  4.99600361E-14  0.00000000E+00
  4.60000000E+02  3.00000000E+02  0.00000000E+00
  4.60000000E+02  2.80000000E+02  0.00000000E+00
  4.60000000E+02  2.60000000E+02  0.00000000E+00
  4.60000000E+02  2.40000000E+02  0.00000000E+00
  4.60000000E+02  2.20000000E+02  0.00000000E+00
  4.60000000E+02  2.00000000E+02  0.00000000E+00
  4.60000000E+02  1.80000000E+02  0.00000000E+00
  4.60000000E+02  1.60000000E+02  0.00000000E+00
  4.60000000E+02  1.40000000E+02  0.00000000E+00
  4.60000000E+02  1.20000000E+02  0.00000000E+00
  4.60000000E+02  1.00000000E+02  0.00000000E+00
  4.60000000E+02  8.00000000E+01  0.00000000E+00
  4.60000000E+02  6.00000000E+01  0.00000000E+00
  4.60000000E+02  4.00000000E+01  0.00000000E+00
  4.60000000E+02  2.00000000E+01  0.00000000E+00
  4.60000000E+02  4.99600361E-14  0.00000000E+00
  4.80000000E+02  3.00000000E+02  0.00000000E+00
  4.80000000E+02  2.80000000E+02  0.00000000E+00
  4.80000000E+02  2.60000000E+02  0.00000000E+00
  4.80000000E+02  2.40000000E+02  0.00000000E+00
  4.80000000E+02  2.20000000E+02  0.00000000E+00
  4.80000000E+02  2.00000000E+02  0.00000000E+00
  4.80000000E+02  1.80000000E+02  0.00000000E+00
  4.80000000E+02  1.60000000E+02  0.00000000E+00
  4.80000000E+02  1.40000000E+02  0.00000000E+00
  4.80000000E+02  1.20000000E+02  0.00000000E+00
  4.80000000E+02  1.00000000E+02  0.00000000E+00
  4.80000000E+02  8.00000000E+01  0.00000000E+00
  4.80000000E+02  6.00000000E+01  0.00000000E+00
  4.80000000E+02  4.00000000E+01  0.00000000E+00
  4.80000000E+02  2.00000000E+01  0.00000000E+00
  4.80000000E+02  4.99600361E-14  0.00000000E+00
  5.00000000E+02  3.00000000E+02  0.00000000E+00
  5.00000000E+02  2.80000000E+02  0.00000000E+00
  5.00000000E+02  2.60000000E+02  0.00000000E+00
  5.00000000E+02  2.40000000E+02  0.00000000E+00
  5.00000000E+02  2.20000000E+02  0.00000000E+00
  5.00000000E+02  2.00000000E+02  0.00000000E+00
  5.00000000E+02  1.80000000E+02  0.00000000E+00
  5.00000000E+02  1.60000000E+02  0.00000000E+00
  5.00000000E+02  1.40000000E+02  0.00000000E+00
  5.00000000E+02  1.20000000E+02  0.00000000E+00
  5.00000000E+02  1.00000000E+02  0.00000000E+00
  5.00000000E+02  8.00000000E+01  0.00000000E+00
  5.00000000E+02  6.00000000E+01  0.00000000E+00
  5.00000000E+02  4.00000000E+01  0.00000000E+00
  5.00000000E+02  2.00000000E+01  0.00000000E+00
  5.00000000E+02  4.99600361E-14  0.00000000E+00
  5.20000000E+02  3.00000000E+02  0.00000000E+00
  5.20000000E+02  2.80000000E+02  0.00000000E+00
  5.20000000E+02  2.60000000E+02  0.00000000E+00
  5.20000000E+02  2.40000000E+02  0.00000000E+00
  5.20000000E+02  2.20000000E+02  0.00000000E+00
  5.20000000E+02  2.00000000E+02  0.00000000E+00
  5.20000000E+02  1.80000000E+02  0.00000000E+00
  5.20000000E+02  1.60000000E+02  0.00000000E+00
  5.20000000E+02  1.40000000E+02  0.00000000E+00
  5.20000000E+02  1.20000000E+02  0.00000000E+00
  5.20000000E+02  1.00000000E+02  0.00000000E+00
  5.20000000E+02  8.00000000E+01  0.00000000E+00
  5.20000000E+02  6.00000000E+01  0.00000000E+00
  5.20000000E+02  4.00000000E+01  0.00000000E+00
  5.20000000E+02  2.00000000E+01  0.00000000E+00
  5.20000000E+02  4.99600361E-14  0.00000000E+00
  5.40000000E+02  3.00000000E+02  0.00000000E+00
  5.40000000E+02  2.80000000E+02  0.00000000E+00
  5.40000000E+02  2.60000000E+02  0.00000000E+00
  5.40000000E+02  2.40000000E+02  0.00000000E+00
  5.40000000E+02  2.20000000E+02  0.00000000E+00
  5.40000000E+02  2.00000000E+02  0.00000000E+00
  5.40000000E+02  1.80000000E+02  0.00000000E+00
  5.40000000E+02  1.60000000E+02  0.00000000E+00
  5.40000000E+02  1.40000000E+02  0.00000000E+00
  5.40000000E+02  1.20000000E+02  0.00000000E+00
  5.40000000E+02  1.00000000E+02  0.00000000E+00
  5.40000000E+02  8.00000000E+01  0.00000000E+00
  5.40000000E+02  6.00000000E+01  0.00000000E+00
  5.40000000E+02  4.00000000E+01  0.00000000E+00
  5.40000000E+02  2.00000000E+01  0.00000000E+00
  5.40000000E+02  4.99600361E-14  0.00000000E+00
  5.60000000E+02  3.00000000E+02  0.00000000E+00
  5.60000000E+02  2.80000000E+02  0.00000000E+00
  5.60000000E+02  2.60000000E+02  0.00000000E+00
  5.60000000E+02  2.40000000E+02  0.00000000E+00
  5.60000000E+02  2.20000000E+02  0.00000000E+00
  5.60000000E+02  2.00000000E+02  0.00000000E+00
  5.60000000E+02  1.80000000E+02  0.00000000E+00
  5.60000000E+02  1.60000000E+02  0.00000000E+00
  5.60000000E+02  1.40000000E+02  0.00000000E+00
  5.60000000E+02  1.20000000E+02  0.00000000E+00
  5.60000000E+02  1.00000000E+02  0.00000000E+00
  5.60000000E+02  8.00000000E+01  0.00000000E+00
  5.60000000E+02  6.00000000E+01  0.00000000E+00
  5.60000000E+02  4.00000000E+01  0.00000000E+00
  5.60000000E+02  2.00000000E+01  0.00000000E+00
  5.60000000E+02  4.99600361E-14  0.00000000E+00
  5.80000000E+02  3.00000000E+02  0.00000000E+00
  5.80000000E+02  2.80000000E+02  0.00000000E+00
  5.80000000E+02  2.60000000E+02  0.00000000E+00
  5.80000000E+02  2.40000000E+02  0.00000000E+00
  5.80000000E+02  2.20000000E+02  0.00000000E+00
  5.80000000E+02  2.00000000E+02  0.00000000E+00
  5.80000000E+02  1.80000000E+02  0.00000000E+00
  5.80000000E+02  1.60000000E+02  0.00000000E+00
  5.80000000E+02  1.40000000E+02  0.00000000E+00
  5.80000000E+02  1.20000000E+02  0.00000000E+00
  5.80000000E+02  1.00000000E+02  0.00000000E+00
  5.80000000E+02  8.00000000E+01  0.00000000E+00
  5.80000000E+02  6.00000000E+01  0.00000000E+00
  5.80000000E+02  4.00000000E+01  0.00000000E+00
  5.80000000E+02  2.00000000E+01  0.00000000E+00
  5.80000000E+02  4.99600361E-14  0.00000000E+00
  6.00000000E+02  3.00000000E+02  0.00000000E+00
  6.00000000E+02  2.80000000E+02  0.00000000E+00
  6.00000000E+02  2.60000000E+02  0.00000000E+00
  6.00000000E+02  2.40000000E+02  0.00000000E+00
  6.00000000E+02  2.20000000E+02  0.00000000E+00
  6.00000000E+02  2.00000000E+02  0.00000000E+00
  6.00000000E+02  1.80000000E+02  0.00000000E+00
  6.00000000E+02  1.60000000E+02  0.00000000E+00
  6.00000000E+02  1.40000000E+02  0.00000000E+00
  6.00000000E+02  1.20000000E+02  0.00000000E+00
  6.00000000E+02  1.00000000E+02  0.00000000E+00
  6.00000000E+02  8.00000000E+01  0.00000000E+00
  6.00000000E+02  6.00000000E+01  0.00000000E+00
  6.00000000E+02  4.00000000E+01  0.00000000E+00
  6.00000000E+02  2.00000000E+01  0.00000000E+00
  6.00000000E+02  4.99600361E-14  0.00000000E+00
CELLS       450      2250
         4           0           1          17          16
         4           1           2          18          17
         4           2           3          19          18
         4           3           4          20          19
         4           4           5          21          20
         4           5           6          22          21
         4           6           7          23          22
         4           7           8          24          23
         4           8           9          25          24
         4           9          10          26          25
         4          10          11          27          26
         4          11          12          28          27
         4          12          13          29          28
         4          13          14          30          29
         4          14          15          31          30
         4          16          17          33          32
         4          17          18          34          33
         4          18          19          35          34
         4          19          20          36          35
         4          20          21          37          36
         4          21          22          38          37
         4          22          23          39          38
         4          23          24          40          39
         4          24          25          41          40
         4          25          26          42          41
         4          26          27          43          42
         4          27          28          44          43
         4          28          29          45          44
         4          29          30          46          45
         4          30          31          47          46
         4          32          33          49          48
         4          33          34          50          49
         4          34          35          51          50
         4          35          36          52          51
         4          36          37          53          52
         4          37          38          54          53
         4          38          39          55          54
         4          39          40          56          55
         4          40          41          57          56
         4          41          42          58          57
         4          42          43          59          58
         4          43          44          60          59
         4          44          45          61          60
         4          45          46          62          61
         4          46          47          63          62
         4          48          49          65          64
         4          49          50          66          65
         4          50          51          67          66
         4          51          52          68          67
         4          52          53          69          68
         4          53          54          70          69
         4          54          55          71          70
         4          55          56          72          71
         4          56          57          73          72
         4          57          58          74          73
         4          58          59          75          74
         4          59          60          76          75
         4          60          61          77          76
         4          61          62          78          77
         4          62          63          79          78
         4          64          65          81          80
         4          65          66          82          81
         4          66          67          83          82
         4          67          68          84          83
         4          68          69          85          84
         4          69          70          86          85
         4          70          71          87          86
         4          71          72          88          87
         4          72          73          89          88
         4          73          74          90          89
         4          74          75          91          90
         4          75          76          92          91
         4          76          77          93          92
         4          77          78          94          93
         4          78          79          95          94
         4          80          81          97          96
         4          81          82          98          97
         4          82          83          99          98
         4          83          84         100          99
         4          84          85         101         100
         4          85          86         102         101
         4          86          87         103         102
         4          87          88         104         103
         4          88          89         105         104
         4          89          90         106         105
         4          90          91         107         106
         4          91          92         108         107
         4          92          93         109         108
         4          93          94         110         109
         4          94          95         111         110
         4          96          97         113         112
         4          97          98         114         113
         4          98          99         115         114
         4          99         100         116         115
         4         100         101         117         116
         4         101         102         118         117
         4         102         103         119         118
         4         103         104         120         119
         4         104         105         121         120
         4         105         106         122         121
         4         106         107         123         122
         4         107         108         124         123
         4         108         109         125         124
         4         109         110         126         125
         4         110         111         127         126
         4         112         113         129         128
         4         113         114         130         129
         4         114         115         131         130
         4         115         116         132         131
         4         116         117         133         132
         4         117         118         134         133
         4         118         119         135         134
         4         119         120         136         135
         4         120         121         137         136
         4         121         122         138         137
         4         122         123         139         138
         4         123         124         140         139
         4         124         125         141         140
         4         125         126         142         141
         4         126         127         143         142
         4         128         129         145         144
         4         129         130         146         145
         4         130         131         147         146
         4         131         132         148         147
         4         132         133         149         148
         4         133         134         150         149
         4         134         135         151         150
         4         135         136         152         151
         4         136         137         153         152
         4         137         138         154         153
         4         138         139         155         154
         4         139         140         156         155
         4         140         141         157         156
         4         141         142         158         157
         4         142         143         159         158
         4         144         145         161         160
         4         145         146         162         161
         4         146         147         163         162
         4         147         148         164         163
         4         148         149         165         164
         4         149         150         166         165
         4         150         151         167         166
         4         151         152         168         167
         4         152         153         169         168
         4         153         154         170         169
         4         154         155         171         170
         4         155         156         172         171
         4         156         157         173         172
         4         157         158         174         173
         4         158         159         175         174
         4         160         161         177         176
         4         161         162         178         177
         4         162         163         179         178
         4         163         164         180         179
         4         164         165         181         180
         4         165         166         182         181
         4         166         167         183         182
         4         167         168         184         183
         4         168         169         185         184
         4         169         170         186         185
         4         170         171         187         186
         4         171         172         188         187
         4         172         173         189         188
         4         173         174         190         189
         4         174         175         191         190
         4         176         177         193         192
         4         177         178         194         193
         4         178         179         195         194
         4         179         180         196         195
         4         180         181         197         196
         4         181         182         198         197
         4         182         183         199         198
         4         183         184         200         199
         4         184         185         201         200
         4         185         186         202         201
         4         186         187         203         202
         4         187         188         204         203
         4         188         189         205         204
         4         189         190         206         205
         4         190         191         207         206
         4         192         193         209         208
         4         193         194         210         209
         4         194         195         211         210
         4         195         196         212         211
         4         196         197         213         212
         4         197         198         214         213
         4         198         199         215         214
         4         199         200         216         215
         4         200         201         217         216
         4         201         202         218         217
         4         202         203         219         218
         4         203         204         220         219
         4         204         205         221         220
         4         205         206         222         221
         4         206         207         223         222
         4         208         209         225         224
         4         209         210         226         225
         4         210         211         227         226
         4         211         212         228         227
         4         212         213         229         228
         4         213         214         230         229
         4         214         215         231         230
         4         215         216         232         231
         4         216         217         233         232
         4         217         218         234         233
         4         218         219         235         234
         4         219         220         236         235
         4         220         221         237         236
         4         221         222         238         237
         4         222         223         239         238
         4         224         225         241         240
         4         225         226         242         241
         4         226         227         243         242
         4         227         228         244         243
         4         228         229         245         244
         4         229         230         246         245
         4         230         231         247         246
         4         231         232         248         247
         4         232         233         249         248
         4         233         234         250         249
         4         234         235         251         250
         4         235         236         252         251
         4         236         237         253         252
         4         237         238         254         253
         4         238         239         255         254
         4         240         241         257         256
         4         241         242         258         257
         4         242         243         259         258
         4         243         244         260         259
         4         244         245         261         260
         4         245         246         262         261
         4         246         247         263         262
         4         247         248         264         263
         4         248         249         265         264
         4         249         250         266         265
         4         250         251         267         266
         4         251         252         268         267
         4         252         253         269         268
         4         253         254         270         269
         4         254         255         271         270
         4         256         257         273         272
         4         257         258         274         273
         4         258         259         275         274
         4         259         260         276         275
         4         260         261         277         276
         4         261         262         278         277
         4         262         263         279         278
         4         263         264         280         279
         4         264         265         281         280
         4         265         266         282         281
         4         266         267         283         282
         4         267         268         284         283
         4         268         269         285         284
         4         269         270         286         285
         4         270         271         287         286
         4         272         273         289         288
         4         273         274         290         289
         4         274         275         291         290
         4         275         276         292         291
         4         276         277         293         292
         4         277         278         294         293
         4         278         279         295         294
         4         279         280         296         295
         4         280         281         297         296
         4         281         282         298         297
         4         282         283         299         298
         4         283         284         300         299
         4         284         285         301         300
         4         285         286         302         301
         4         286         287         303         302
         4         288         289         305         304
         4         289         290         306         305
         4         290         291         307         306
         4         291         292         308         307
         4         292         293         309         308
         4         293         294         310         309
         4         294         295         311         310
         4         295         296         312         311
         4         296         297         313         312
         4         297         298         314         313
         4         298         299         315         314
         4         299         300         316         315
         4         300         301         317         316
         4         301         302         318         317
         4         302         303         319         318
         4         304         305         321         320
         4         305         306         322         321
         4         306         307         323         322
         4         307         308         324         323
         4         308         309         325         324
         4         309         310         326         325
         4         310         311         327         326
         4         311         312         328         327
         4         312         313         329         328
         4         313         314         330         329
         4         314         315         331         330
         4         315         316         332         331
         4         316         317         333         332
         4         317         318         334         333
         4         318         319         335         334
         4         320         321         337         336
         4         321         322         338         337
         4         322         323         339         338
         4         323         324         340         339
         4         324         325         341         340
         4         325         326         342         341
         4         326         327         343         342
         4         327         328         344         343
         4         328         329         345         344
         4         329         330         346         345
         4         330         331         347         346
         4         331         332         348         347
         4         332         333         349         348
         4         333         334         350         349
         4         334         335         351         350
         4         336         337         353         352
         4         337         338         354         353
         4         338         339         355         354
         4         339         340         356         355
         4         340         341         357         356
         4         341         342         358         357
         4         342         343         359         358
         4         343         344         360         359
         4         344         345         361         360
         4         345         346         362         361
         4         346         347         363         362
         4         347         348         364         363
         4         348         349         365         364
         4         349         350         366         365
         4         350         351         367         366
         4         352         353         369         368
         4         353         354         370         369
         4         354         355         371         370
         4         355         356         372         371
         4         356         357         373         372
         4         357         358         374         373
         4         358         359         375         374
         4         359         360         376         375
         4         360         361         377         376
         4         361         362         378         377
         4         362         363         379         378
         4         363         364         380         379
         4         364         365         381         380
         4         365         366         382         381
         4         366         367         383         382
         4         368         369         385         384
         4         369         370         386         385
         4         370         371         387         386
         4         371         372         388         387
         4         372         373         389         388
         4         373         374         390         389
         4         374         375         391         390
         4         375         376         392         391
         4         376         377         393         392
         4         377         378         394         393
         4         378         379         395         394
         4         379         380         396         395
         4         380         381         397         396
         4         381         382         398         397
         4         382         383         399         398
         4         384         385         401         400
         4         385         386         402         401
         4         386         387         403         402
         4         387         388         404         403
         4         388         389         405         404
         4         389         390         406         405
         4         390         391         407         406
         4         391         392         408         407
         4         392         393         409         408
         4         393         394         410         409
         4         394         395         411         410
         4         395         396         412         411
         4         396         397         413         412
         4         397         398         414         413
         4         398         399         415         414
         4         400         401         417         416
         4         401         402         418         417
         4         402         403         419         418
         4         403         404         420         419
         4         404         405         421         420
         4         405         406         422         421
         4         406         407         423         422
         4         407         408         424         423
         4         408         409         425         424
         4         409         410         426         425
         4         410         411         427         426
         4         411         412         428         427
         4         412         413         429         428
         4         413         414         430         429
         4         414         415         431         430
         4         416         417         433         432
         4         417         418         434         433
         4         418         419         435         434
         4         419         420         436         435
         4         420         421         437         436
         4         421         422         438         437
         4         422         423         439         438
         4         423         424         440         439
         4         424         425         441         440
         4         425         426         442         441
         4         426         427         443         442
         4         427         428         444         443
         4         428         429         445         444
         4         429         430         446         445
         4         430         431         447         446
         4         432         433         449         448
         4         433         434         450         449
         4         434         435         451         450
         4         435         436         452         451
         4         436         437         453         452
         4         437         438         454         453
         4         438         439         455         454
         4         439         440         456         455
         4         440         441         457         456
         4         441         442         458         457
         4         442         443         459         458
         4         443         444         460         459
         4         444         445         461         460
         4         445         446         462         461
         4         446         447         463         462
         4         448         449         465         464
         4         449         450         466         465
         4         450         451         467         466
         4         451         452         468         467
         4         452         453         469         468
         4         453         454         470         469
         4         454         455         471         470
         4         455         456         472         471
         4         456         457         473         472
         4         457         458         474         473
         4         458         459         475         474
         4         459         460         476         475
         4         460         461         477         476
         4         461         462         478         477
         4         462         463         479         478
         4         464         465         481         480
         4         465         466         482         481
         4         466         467         483         482
         4         467         468         484         483
         4         468         469         485         484
         4         469         470         486         485
         4         470         471         487         486
         4         471         472         488         487
         4         472         473         489         488
         4         473         474         490         489
         4         474         475         491         490
         4         475         476         492         491
         4         476         477         493         492
         4         477         478         494         493
         4         478         479         495         494
CELL_TYPES        450
9
9
9
9
9
9
9
9
9
9
9
9
9
9
9
9
9
9
9
9
9
9
9
9
9
9
9
9
9
9
9
9
9
9
9
9
9
9
9
9
9
9
9
9
9
9
9
9
9
9
9
9
9
9
9
9
9
9
9
9
9
9
9
9
9
9
9
9
9
9
9
9
9
9
9
9
9
9
9
9
9
9
9
9
9
9
9
9
9
9
9
9
9
9
9
9
9
9
9
9
9
9
9
9
9
9
9
9
9
9
9
9
9
9
9
9
9
9
9
9
9
9
9
9
9
9
9
9
9
9
9
9
9
9
9
9
9
9
9
9
9
9
9
9
9
9
9
9
9
9
9
9
9
9
9
9
9
9
9
9
9
9
9
9
9
9
9
9
9
9
9
9
9
9
9
9
9
9
9
9
9
9
9
9
9
9
9
9
9
9
9
9
9
9
9
9
9
9
9
9
9
9
9
9
9
9
9
9
9
9
9
9
9
9
9
9
9
9
9
9
9
9
9
9
9
9
9
9
9
9
9
9
9
9
9
9
9
9
9
9
9
9
9
9
9
9
9
9
9
9
9
9
9
9
9
9
9
9
9
9
9
9
9
9
9
9
9
9
9
9
9
9
9
9
9
9
9
9
9
9
9
9
9
9
9
9
9
9
9
9
9
9
9
9
9
9
9
9
9
9
9
9
9
9
9
9
9
9
9
9
9
9
9
9
9
9
9
9
9
9
9
9
9
9
9
9
9
9
9
9
9
9
9
9
9
9
9
9
9
9
9
9
9
9
9
9
9
9
9
9
9
9
9
9
9
9
9
9
9
9
9
9
9
9
9
9
9
9
9
9
9
9
9
9
9
9
9
9
9
9
9
9
9
9
9
9
9
9
9
9
9
9
9
9
9
9
9
9
9
9
9
9
9
9
9
9
9
9
9
9
9
9
9
9
9
9
9
9
9
9
9
9
9
9
9
9
9
9
9
9
9
9
9
9
9
9
9
9
9
9
9
9
9
9
9
9
9
9
9
9
POINT_DATA       496
SCALARS p double 
LOOKUP_TABLE default
   33833549.3581704     
   33830977.8756071     
   33823264.7941250     
   33810361.0081002     
   33792202.9134727     
   33768732.7458073     
   33739919.2637442     
   33705768.0585170     
   33666311.6482794     
   33623703.1451964     
   33583150.3142957     
   33548154.6668074     
   33519526.9083573     
   33498062.3419246     
   33484555.0348034     
   33479801.4198945     
   33800361.7962345     
   33797763.6036865     
   33790009.5695947     
   33777081.2460584     
   33758934.2389943     
   33735515.5052820     
   33706786.4336363     
   33672740.9880365     
   33633403.6849087     
   33590889.5933939     
   33550396.8185866     
   33515458.1695716     
   33486876.4517278     
   33465444.2929506     
   33451955.7193178     
   33447208.0057940     
   33700890.7947623     
   33698217.2812920     
   33690343.0738947     
   33677335.5319216     
   33659208.8397893     
   33635931.6174028     
   33607451.2289323     
   33573729.0410289     
   33534760.9921779     
   33492535.5809512     
   33452226.0150287     
   33417459.5817370     
   33389015.6421679     
   33367680.2353639     
   33354247.5092393     
   33349517.3847522     
   33535407.3101898     
   33532623.5498435     
   33524560.6530247     
   33511408.8564400     
   33493278.8862589     
   33470194.2772041     
   33442105.5628889     
   33408931.6682801     
   33370613.0420853     
   33328892.4260399     
   33288904.4609717     
   33254428.9668414     
   33226214.6768280     
   33205039.6083777     
   33191699.1812277     
   33186998.0945312     
   33304352.2394679     
   33301443.1123900     
   33293146.0769994     
   33279784.7446665     
   33261592.6390714     
   33238691.9585884     
   33211083.6576036     
   33178667.9322823     
   33141304.3830142     
   33100367.3654521     
   33060865.4084611     
   33026809.9497255     
   32998919.6775953     
   32977969.2508451     
   32964758.0366985     
   32960097.2663135     
   33008328.3999916     
   33005299.6571287     
   32996757.7343016     
   32983143.6688004     
   32964817.1679520     
   32942032.4990251     
   32914906.8896125     
   32883394.1463909     
   32847300.7037897     
   32807493.4621465     
   32768704.5233846     
   32735214.9130873     
   32707747.5405062     
   32687092.9681462     
   32674050.7806259     
   32669441.8930125     
   32648098.9900725     
   32644972.9136533     
   32636213.7360583     
   32622347.9956967     
   32603841.2547063     
   32581083.1900752     
   32554354.5763325     
   32523768.3169538     
   32489193.8269292     
   32450948.2428748     
   32413213.9963367     
   32380411.4602713     
   32353487.2737920     
   32333214.0841284     
   32320387.4940934     
   32315842.7966860     
   32224593.3762441     
   32221401.5985458     
   32212485.1485942     
   32198422.8411669     
   32179753.9458048     
   32156977.1030942     
   32130533.5442815     
   32100753.8347557     
   32067767.2971773     
   32031510.6877780     
   31995294.5081988     
   31963327.5342696     
   31937105.5493252     
   31917322.7149730     
   31904768.6019067     
   31900301.0975006     
   31738917.1834964     
   31735694.6581750     
   31726703.0020548     
   31712548.8237344     
   31693816.8024871     
   31671077.2043866     
   31644885.3354464     
   31615766.0216965     
   31584142.0617014     
   31550129.6302809     
   31515932.0028988     
   31485075.2878687     
   31459756.0710426     
   31440602.1764804     
   31428391.6238670     
   31424016.3684314     
   31192363.0213158     
   31189145.3518526     
   31180175.1594130     
   31166073.8404125     
   31147453.8284165     
   31124927.4274800     
   31099111.4509268     
   31070631.6744377     
   31040127.9136491     
   31008204.7872753     
   30976176.9762968     
   30946964.6228151     
   30922761.6604375     
   30904418.9688889     
   30892662.4441416     
   30888396.3175524     
   30586418.5017982     
   30583243.0304389     
   30574404.3683917     
   30560534.3336366     
   30542264.3521345     
   30520230.6914013     
   30495077.0244486     
   30467467.2401767     
   30438121.1446319     
   30407878.1249341     
   30377883.2524929     
   30350395.9354679     
   30327537.2421378     
   30310323.4782191     
   30299203.3807988     
   30295064.4584992     
   29922770.7780670     
   29919679.3407140     
   29911099.2654023     
   29897672.0660972     
   29880042.6934794     
   29858859.3782289     
   29834774.6745856     
   29808458.3293441     
   29780626.7964591     
   29752103.0232762     
   29723932.6580086     
   29697909.0977308     
   29676150.8895826     
   29659904.7356370     
   29649767.6633865     
   29645971.8809937     
   29203305.7910867     
   29200348.2898311     
   29192176.0171667     
   29179438.5062296     
   29162786.5427814     
   29142867.0212629     
   29120322.7897103     
   29095803.7112434     
   29069993.3510761     
   29043648.2945319     
   29017688.1270145     
   28993331.4564905     
   28972471.6272571     
   28956801.9528021     
   28947207.0484376     
   28944078.2957420     
   28430102.3725072     
   28427339.9106808     
   28419751.5018070     
   28407987.1809746     
   28392688.5994864     
   28374479.7146187     
   28353967.2091919     
   28331755.7726459     
   28308475.7873250     
   28284823.1091415     
   28261599.7727628     
   28239807.2499161     
   28220714.9289324     
   28205896.9346465     
   28196661.9052466     
   28193847.1879340     
   27605422.6601765     
   27602929.8238359     
   27596131.0535425     
   27585658.5535559     
   27572117.9193626     
   27556076.3494447     
   27538070.1033239     
   27518631.3784144     
   27498322.5605142     
   27477766.6374150     
   27457677.7195030     
   27438890.9441990     
   27422413.5397376     
   27409410.2499489     
   27401074.3788748     
   27398394.2236696     
   26731701.6282148     
   26729567.8515578     
   26723795.2784685     
   26714964.6378923     
   26703601.1501855     
   26690166.3808595     
   26675088.8184757     
   26658805.8406049     
   26641797.7065754     
   26624607.4051328     
   26607850.7290622     
   26592224.8574551     
   26578514.2031651     
   26567604.5822765     
   26560470.0495374     
   26558142.2808140     
   25811538.8104581     
   25809867.9432263     
   25805390.7037756     
   25798580.9257770     
   25789806.5261333     
   25779367.4451544     
   25767555.7951271     
   25754703.8297387     
   25741202.3735527     
   25727502.6064617     
   25714111.8580565     
   25701589.6428930     
   25690554.7050323     
   25681710.0814067     
   25675872.9104860     
   25673929.0609965     
   24847695.5761258     
   24846595.5312486     
   24843736.4500779     
   24839343.3814420     
   24833527.4429943     
   24826382.9387591     
   24818064.9653106     
   24808803.8532556     
   24798896.5629955     
   24788693.0780307     
   24778587.7426097     
   24769019.8705745     
   24760488.3621003     
   24753578.4070765     
   24748972.7783256     
   24747404.6090336     
   23843074.9388532     
   23842681.1453656     
   23841837.9604067     
   23840243.0268174     
   23837654.6134283     
   23833983.8952816     
   23829271.6658182     
   23823654.6460500     
   23817331.1571986     
   23810545.7589823     
   23803586.6644063     
   23796794.4701509     
   23790579.8369858     
   23785439.3847630     
   23781952.0722454     
   23780732.6954738     
   22800715.4629171     
   22801296.1436971     
   22802910.3842594     
   22804372.2711722     
   22805144.8607201     
   22805002.7554031     
   22803907.0796610     
   22801899.2347832     
   22799074.3269059     
   22795574.3590826     
   22791593.4052374     
   22787391.2711089     
   22783308.4365366     
   22779772.6895051     
   22777286.8917935     
   22776384.9533266     
   21724246.0772235     
   21725912.5147658     
   21730150.6092077     
   21734860.5206797     
   21738989.0410715     
   21742345.4677878     
   21744800.4480708     
   21746294.2027479     
   21746821.8843115     
   21746432.2317882     
   21745238.4336884     
   21743432.9535284     
   21741298.8148910     
   21739210.2757847     
   21737616.3799366     
   21737000.3958537     
   20616830.8157708     
   20619623.4317414     
   20626524.0854474     
   20634673.0150902     
   20642213.9123480     
   20649016.2007483     
   20654895.6126506     
   20659716.0735019     
   20663389.5792868     
   20665888.0542936     
   20667258.5481865     
   20667638.1618865     
   20667263.0149344     
   20666466.0151926     
   20665659.4228115     
   20665298.3587207     
   19482108.9880209     
   19485814.8150501     
   19495283.5955510     
   19506925.9798668     
   19517985.2789118     
   19528146.6881748     
   19537260.5197455     
   19545155.4989035     
   19551693.2258774     
   19556793.9872970     
   19560457.0590853     
   19562776.8907466     
   19563952.0853633     
   19564283.5935778     
   19564159.1208965     
   19564021.4651859     
   18324678.6695206     
   18328941.1808801     
   18340482.9166708     
   18355304.2460883     
   18369738.5953167     
   18383053.7780930     
   18395099.1418802     
   18405705.9543689     
   18414723.5632793     
   18422052.0070774     
   18427665.5548354     
   18431630.2484151     
   18434115.3385343     
   18435395.7747177     
   18435842.1600211     
   18435894.9263183     
   17148889.0837500     
   17153640.0761430     
   17166690.1886695     
   17184025.0942407     
   17201316.6802518     
   17217296.9159430     
   17231765.1439921     
   17244551.8100979     
   17255520.3207527     
   17264581.2908543     
   17271708.6701223     
   17276954.8253802     
   17280465.5072645     
   17282491.0114619     
   17283386.2159584     
   17283594.0130638     
   15959448.3175314     
   15964584.7515806     
   15978623.4710688     
   15997602.9313378     
   16016860.3860615     
   16034666.2204124     
   16050752.8527040     
   16064947.7670366     
   16077144.1415290     
   16087287.7091962     
   16095373.3283008     
   16101452.2544098     
   16105649.2105790     
   16108185.1191571     
   16109393.7774616     
   16109718.8799016     
   14761319.5332917     
   14766657.0203575     
   14781065.6601948     
   14800642.4468063     
   14820656.1429633     
   14839079.8394633     
   14855632.7070151     
   14870170.2466031     
   14882638.5101356     
   14893033.6862613     
   14901383.3097504     
   14907745.0336706     
   14912222.7507941     
   14914998.1032361     
   14916369.2922720     
   14916771.3155329     
   13559841.8410892     
   13565098.8843496     
   13579021.4108373     
   13597845.9157260     
   13617008.7100843     
   13634435.1194595     
   13649923.2568618     
   13663428.8294671     
   13674973.2015723     
   13684603.9265198     
   13692378.3183057     
   13698361.2725029     
   13702635.6194344     
   13705335.8969947     
   13706701.8680922     
   13707140.8226144     
   12360923.6186113     
   12365682.2304481     
   12377801.2799823     
   12393921.2023515     
   12410093.0892229     
   12424402.4238684     
   12436919.2086765     
   12447746.4392683     
   12456969.5969878     
   12464662.9354940     
   12470895.1528186     
   12475730.2954367     
   12479231.5792559     
   12481480.7656247     
   12482655.0646716     
   12483093.2013717     
   11171378.4923125     
   11174911.7341836     
   11182950.9916080     
   11193433.4427762     
   11203600.6062212     
   11212139.5621923     
   11219501.9928068     
   11225836.2443506     
   11231217.8543552     
   11235704.7223308     
   11239347.4431052     
   11242190.6704248     
   11244273.4900766     
   11245634.7696983     
   11246346.1120093     
   11246796.8709892     
   10000000.0000000     
   10000000.0000000     
   10000000.0000000     
   10000000.0000000     
   10000000.0000000     
   10000000.0000000     
   10000000.0000000     
   10000000.0000000     
   10000000.0000000     
   10000000.0000000     
   10000000.0000000     
   10000000.0000000     
   10000000.0000000     
  10000000.00000000     
   10000000.0000000     
   10000000.0000000     
VECTORS u double 
    0.00000E+00        -0.32600E-01         0.00000E+00
    0.00000E+00        -0.30099E-01         0.00000E+00
    0.00000E+00        -0.27649E-01         0.00000E+00
    0.00000E+00        -0.25253E-01         0.00000E+00
    0.00000E+00        -0.22913E-01         0.00000E+00
    0.00000E+00        -0.20631E-01         0.00000E+00
    0.00000E+00        -0.18404E-01         0.00000E+00
    0.00000E+00        -0.16231E-01         0.00000E+00
    0.00000E+00        -0.14108E-01         0.00000E+00
    0.00000E+00        -0.12030E-01         0.00000E+00
    0.00000E+00        -0.99790E-02         0.00000E+00
    0.00000E+00        -0.79443E-02         0.00000E+00
    0.00000E+00        -0.59270E-02         0.00000E+00
    0.00000E+00        -0.39287E-02         0.00000E+00
    0.00000E+00        -0.19520E-02         0.00000E+00
    0.00000E+00         0.00000E+00         0.00000E+00
    0.95519E-03        -0.32640E-01         0.00000E+00
    0.87442E-03        -0.30137E-01         0.00000E+00
    0.79208E-03        -0.27685E-01         0.00000E+00
    0.70938E-03        -0.25287E-01         0.00000E+00
    0.62776E-03        -0.22945E-01         0.00000E+00
    0.54874E-03        -0.20660E-01         0.00000E+00
    0.47372E-03        -0.18431E-01         0.00000E+00
    0.40379E-03        -0.16255E-01         0.00000E+00
    0.33982E-03        -0.14130E-01         0.00000E+00
    0.28245E-03        -0.12049E-01         0.00000E+00
    0.23036E-03        -0.99955E-02         0.00000E+00
    0.18147E-03        -0.79577E-02         0.00000E+00
    0.13488E-03        -0.59373E-02         0.00000E+00
    0.89679E-04        -0.39357E-02         0.00000E+00
    0.45004E-04        -0.19556E-02         0.00000E+00
    0.00000E+00         0.00000E+00         0.00000E+00
    0.19054E-02        -0.32759E-01         0.00000E+00
    0.17442E-02        -0.30251E-01         0.00000E+00
    0.15798E-02        -0.27793E-01         0.00000E+00
    0.14145E-02        -0.25389E-01         0.00000E+00
    0.12513E-02        -0.23041E-01         0.00000E+00
    0.10932E-02        -0.20749E-01         0.00000E+00
    0.94318E-03        -0.18513E-01         0.00000E+00
    0.80355E-03        -0.16330E-01         0.00000E+00
    0.67601E-03        -0.14196E-01         0.00000E+00
    0.56179E-03        -0.12107E-01         0.00000E+00
    0.45815E-03        -0.10045E-01         0.00000E+00
    0.36090E-03        -0.79980E-02         0.00000E+00
    0.26822E-03        -0.59681E-02         0.00000E+00
    0.17834E-03        -0.39568E-02         0.00000E+00
    0.89504E-04        -0.19663E-02         0.00000E+00
    0.00000E+00         0.00000E+00         0.00000E+00
    0.28450E-02        -0.32957E-01         0.00000E+00
    0.26042E-02        -0.30441E-01         0.00000E+00
    0.23584E-02        -0.27974E-01         0.00000E+00
    0.21109E-02        -0.25560E-01         0.00000E+00
    0.18663E-02        -0.23202E-01         0.00000E+00
    0.16292E-02        -0.20898E-01         0.00000E+00
    0.14044E-02        -0.18650E-01         0.00000E+00
    0.11955E-02        -0.16454E-01         0.00000E+00
    0.10051E-02        -0.14307E-01         0.00000E+00
    0.83496E-03        -0.12204E-01         0.00000E+00
    0.68081E-03        -0.10127E-01         0.00000E+00
    0.53623E-03        -0.80650E-02         0.00000E+00
    0.39851E-03        -0.60195E-02         0.00000E+00
    0.26498E-03        -0.39917E-02         0.00000E+00
    0.13300E-03        -0.19842E-02         0.00000E+00
    0.00000E+00         0.00000E+00         0.00000E+00
    0.37678E-02        -0.33233E-01         0.00000E+00
    0.34486E-02        -0.30706E-01         0.00000E+00
    0.31223E-02        -0.28228E-01         0.00000E+00
    0.27936E-02        -0.25802E-01         0.00000E+00
    0.24684E-02        -0.23429E-01         0.00000E+00
    0.21532E-02        -0.21110E-01         0.00000E+00
    0.18541E-02        -0.18844E-01         0.00000E+00
    0.15763E-02        -0.16629E-01         0.00000E+00
    0.13239E-02        -0.14462E-01         0.00000E+00
    0.10989E-02        -0.12338E-01         0.00000E+00
    0.89578E-03        -0.10241E-01         0.00000E+00
    0.70543E-03        -0.81584E-02         0.00000E+00
    0.52422E-03        -0.60910E-02         0.00000E+00
    0.34856E-03        -0.40405E-02         0.00000E+00
    0.17497E-03        -0.20091E-02         0.00000E+00
    0.00000E+00         0.00000E+00         0.00000E+00
    0.46666E-02        -0.33586E-01         0.00000E+00
    0.42703E-02        -0.31047E-01         0.00000E+00
    0.38651E-02        -0.28555E-01         0.00000E+00
    0.34570E-02        -0.26113E-01         0.00000E+00
    0.30532E-02        -0.23723E-01         0.00000E+00
    0.26615E-02        -0.21384E-01         0.00000E+00
    0.22895E-02        -0.19096E-01         0.00000E+00
    0.19439E-02        -0.16856E-01         0.00000E+00
    0.16298E-02        -0.14662E-01         0.00000E+00
    0.13507E-02        -0.12510E-01         0.00000E+00
    0.11005E-02        -0.10387E-01         0.00000E+00
    0.86648E-03        -0.82778E-02         0.00000E+00
    0.64380E-03        -0.61825E-02         0.00000E+00
    0.42805E-03        -0.41027E-02         0.00000E+00
    0.21489E-03        -0.20409E-02         0.00000E+00
    0.00000E+00         0.00000E+00         0.00000E+00
    0.55333E-02        -0.34013E-01         0.00000E+00
    0.50616E-02        -0.31461E-01         0.00000E+00
    0.45796E-02        -0.28955E-01         0.00000E+00
    0.40947E-02        -0.26497E-01         0.00000E+00
    0.36155E-02        -0.24086E-01         0.00000E+00
    0.31507E-02        -0.21723E-01         0.00000E+00
    0.27086E-02        -0.19407E-01         0.00000E+00
    0.22967E-02        -0.17135E-01         0.00000E+00
    0.19216E-02        -0.14907E-01         0.00000E+00
    0.15883E-02        -0.12720E-01         0.00000E+00
    0.12925E-02        -0.10564E-01         0.00000E+00
    0.10174E-02        -0.84226E-02         0.00000E+00
    0.75569E-03        -0.62933E-02         0.00000E+00
    0.50233E-03        -0.41782E-02         0.00000E+00
    0.25219E-03        -0.20795E-02         0.00000E+00
    0.00000E+00         0.00000E+00         0.00000E+00
    0.63590E-02        -0.34515E-01         0.00000E+00
    0.58139E-02        -0.31949E-01         0.00000E+00
    0.52580E-02        -0.29427E-01         0.00000E+00
    0.47002E-02        -0.26950E-01         0.00000E+00
    0.41500E-02        -0.24518E-01         0.00000E+00
    0.36169E-02        -0.22128E-01         0.00000E+00
    0.31091E-02        -0.19779E-01         0.00000E+00
    0.26343E-02        -0.17469E-01         0.00000E+00
    0.21994E-02        -0.15199E-01         0.00000E+00
    0.18105E-02        -0.12967E-01         0.00000E+00
    0.14692E-02        -0.10772E-01         0.00000E+00
    0.11562E-02        -0.85917E-02         0.00000E+00
    0.85822E-03        -0.64228E-02         0.00000E+00
    0.57023E-03        -0.42666E-02         0.00000E+00
    0.28625E-03        -0.21247E-02         0.00000E+00
    0.00000E+00         0.00000E+00         0.00000E+00
    0.71345E-02        -0.35087E-01         0.00000E+00
    0.65184E-02        -0.32508E-01         0.00000E+00
    0.58924E-02        -0.29970E-01         0.00000E+00
    0.52666E-02        -0.27474E-01         0.00000E+00
    0.46513E-02        -0.25016E-01         0.00000E+00
    0.40558E-02        -0.22596E-01         0.00000E+00
    0.34881E-02        -0.20211E-01         0.00000E+00
    0.29554E-02        -0.17859E-01         0.00000E+00
    0.24639E-02        -0.15541E-01         0.00000E+00
    0.20199E-02        -0.13257E-01         0.00000E+00
    0.16299E-02        -0.11009E-01         0.00000E+00
    0.12807E-02        -0.87845E-02         0.00000E+00
    0.94959E-03        -0.65704E-02         0.00000E+00
    0.63039E-03        -0.43672E-02         0.00000E+00
    0.31632E-03        -0.21763E-02         0.00000E+00
    0.00000E+00         0.00000E+00         0.00000E+00
    0.78506E-02        -0.35730E-01         0.00000E+00
    0.71664E-02        -0.33136E-01         0.00000E+00
    0.64750E-02        -0.30582E-01         0.00000E+00
    0.57876E-02        -0.28064E-01         0.00000E+00
    0.51140E-02        -0.25580E-01         0.00000E+00
    0.44629E-02        -0.23126E-01         0.00000E+00
    0.38419E-02        -0.20702E-01         0.00000E+00
    0.32575E-02        -0.18304E-01         0.00000E+00
    0.27152E-02        -0.15934E-01         0.00000E+00
    0.22201E-02        -0.13591E-01         0.00000E+00
    0.17778E-02        -0.11279E-01         0.00000E+00
    0.13882E-02        -0.89996E-02         0.00000E+00
    0.10281E-02        -0.67350E-02         0.00000E+00
    0.68120E-03        -0.44795E-02         0.00000E+00
    0.34143E-03        -0.22340E-02         0.00000E+00
    0.00000E+00         0.00000E+00         0.00000E+00
    0.84982E-02        -0.36440E-01         0.00000E+00
    0.77500E-02        -0.33832E-01         0.00000E+00
    0.69993E-02        -0.31260E-01         0.00000E+00
    0.62572E-02        -0.28719E-01         0.00000E+00
    0.55327E-02        -0.26205E-01         0.00000E+00
    0.48336E-02        -0.23716E-01         0.00000E+00
    0.41667E-02        -0.21249E-01         0.00000E+00
    0.35377E-02        -0.18802E-01         0.00000E+00
    0.29512E-02        -0.16376E-01         0.00000E+00
    0.24111E-02        -0.13972E-01         0.00000E+00
    0.19207E-02        -0.11592E-01         0.00000E+00
    0.14831E-02        -0.92401E-02         0.00000E+00
    0.10909E-02        -0.69153E-02         0.00000E+00
    0.72076E-03        -0.46024E-02         0.00000E+00
    0.36012E-03        -0.22973E-02         0.00000E+00
    0.00000E+00         0.00000E+00         0.00000E+00
    0.90694E-02        -0.37215E-01         0.00000E+00
    0.82624E-02        -0.34591E-01         0.00000E+00
    0.74594E-02        -0.31999E-01         0.00000E+00
    0.66701E-02        -0.29433E-01         0.00000E+00
    0.59026E-02        -0.26888E-01         0.00000E+00
    0.51634E-02        -0.24361E-01         0.00000E+00
    0.44585E-02        -0.21848E-01         0.00000E+00
    0.37925E-02        -0.19349E-01         0.00000E+00
    0.31690E-02        -0.16865E-01         0.00000E+00
    0.25908E-02        -0.14397E-01         0.00000E+00
    0.20601E-02        -0.11947E-01         0.00000E+00
    0.15780E-02        -0.95189E-02         0.00000E+00
    0.11435E-02        -0.71160E-02         0.00000E+00
    0.74670E-03        -0.47349E-02         0.00000E+00
    0.36964E-03        -0.23656E-02         0.00000E+00
    0.00000E+00         0.00000E+00         0.00000E+00
    0.95580E-02        -0.38049E-01         0.00000E+00
    0.86979E-02        -0.35409E-01         0.00000E+00
    0.78496E-02        -0.32796E-01         0.00000E+00
    0.70211E-02        -0.30203E-01         0.00000E+00
    0.62188E-02        -0.27624E-01         0.00000E+00
    0.54482E-02        -0.25056E-01         0.00000E+00
    0.47136E-02        -0.22495E-01         0.00000E+00
    0.40186E-02        -0.19942E-01         0.00000E+00
    0.33657E-02        -0.17396E-01         0.00000E+00
    0.27568E-02        -0.14861E-01         0.00000E+00
    0.21929E-02        -0.12339E-01         0.00000E+00
    0.16747E-02        -0.98335E-02         0.00000E+00
    0.12018E-02        -0.73488E-02         0.00000E+00
    0.77038E-03        -0.48859E-02         0.00000E+00
    0.37220E-03        -0.24402E-02         0.00000E+00
    0.00000E+00         0.00000E+00         0.00000E+00
    0.99588E-02        -0.38939E-01         0.00000E+00
    0.90517E-02        -0.36280E-01         0.00000E+00
    0.81653E-02        -0.33644E-01         0.00000E+00
    0.73055E-02        -0.31022E-01         0.00000E+00
    0.64772E-02        -0.28407E-01         0.00000E+00
    0.56840E-02        -0.25795E-01         0.00000E+00
    0.49287E-02        -0.23184E-01         0.00000E+00
    0.42134E-02        -0.20573E-01         0.00000E+00
    0.35393E-02        -0.17964E-01         0.00000E+00
    0.29071E-02        -0.15359E-01         0.00000E+00
    0.23173E-02        -0.12761E-01         0.00000E+00
    0.17702E-02        -0.10176E-01         0.00000E+00
    0.12661E-02        -0.76066E-02         0.00000E+00
    0.80453E-03        -0.50557E-02         0.00000E+00
    0.38393E-03        -0.25217E-02         0.00000E+00
    0.00000E+00         0.00000E+00         0.00000E+00
    0.10267E-01        -0.39878E-01         0.00000E+00
    0.93190E-02        -0.37200E-01         0.00000E+00
    0.84020E-02        -0.34538E-01         0.00000E+00
    0.75194E-02        -0.31884E-01         0.00000E+00
    0.66740E-02        -0.29231E-01         0.00000E+00
    0.58676E-02        -0.26573E-01         0.00000E+00
    0.51011E-02        -0.23909E-01         0.00000E+00
    0.43747E-02        -0.21238E-01         0.00000E+00
    0.36881E-02        -0.18562E-01         0.00000E+00
    0.30409E-02        -0.15884E-01         0.00000E+00
    0.24327E-02        -0.13208E-01         0.00000E+00
    0.18639E-02        -0.10539E-01         0.00000E+00
    0.13352E-02        -0.78805E-02         0.00000E+00
    0.84807E-03        -0.52370E-02         0.00000E+00
    0.40340E-03        -0.26101E-02         0.00000E+00
    0.00000E+00         0.00000E+00         0.00000E+00
    0.10476E-01        -0.40861E-01         0.00000E+00
    0.94955E-02        -0.38160E-01         0.00000E+00
    0.85559E-02        -0.35470E-01         0.00000E+00
    0.76592E-02        -0.32782E-01         0.00000E+00
    0.68062E-02        -0.30087E-01         0.00000E+00
    0.59962E-02        -0.27381E-01         0.00000E+00
    0.52282E-02        -0.24662E-01         0.00000E+00
    0.45003E-02        -0.21929E-01         0.00000E+00
    0.38106E-02        -0.19184E-01         0.00000E+00
    0.31571E-02        -0.16430E-01         0.00000E+00
    0.25388E-02        -0.13673E-01         0.00000E+00
    0.19554E-02        -0.10916E-01         0.00000E+00
    0.14081E-02        -0.81655E-02         0.00000E+00
    0.89855E-03        -0.54264E-02         0.00000E+00
    0.42881E-03        -0.27033E-02         0.00000E+00
    0.00000E+00         0.00000E+00         0.00000E+00
    0.10583E-01        -0.41879E-01         0.00000E+00
    0.95774E-02        -0.39153E-01         0.00000E+00
    0.86239E-02        -0.36433E-01         0.00000E+00
    0.77225E-02        -0.33707E-01         0.00000E+00
    0.68713E-02        -0.30968E-01         0.00000E+00
    0.60676E-02        -0.28211E-01         0.00000E+00
    0.53080E-02        -0.25434E-01         0.00000E+00
    0.45885E-02        -0.22637E-01         0.00000E+00
    0.39052E-02        -0.19821E-01         0.00000E+00
    0.32547E-02        -0.16990E-01         0.00000E+00
    0.26347E-02        -0.14149E-01         0.00000E+00
    0.20441E-02        -0.11303E-01         0.00000E+00
    0.14833E-02        -0.84582E-02         0.00000E+00
    0.95405E-03        -0.56216E-02         0.00000E+00
    0.45869E-03        -0.28001E-02         0.00000E+00
    0.00000E+00         0.00000E+00         0.00000E+00
    0.10584E-01        -0.42925E-01         0.00000E+00
    0.95614E-02        -0.40171E-01         0.00000E+00
    0.86035E-02        -0.37417E-01         0.00000E+00
    0.77068E-02        -0.34650E-01         0.00000E+00
    0.68673E-02        -0.31864E-01         0.00000E+00
    0.60798E-02        -0.29053E-01         0.00000E+00
    0.53385E-02        -0.26217E-01         0.00000E+00
    0.46372E-02        -0.23354E-01         0.00000E+00
    0.39701E-02        -0.20466E-01         0.00000E+00
    0.33319E-02        -0.17557E-01         0.00000E+00
    0.27188E-02        -0.14632E-01         0.00000E+00
    0.21281E-02        -0.11695E-01         0.00000E+00
    0.15592E-02        -0.87557E-02         0.00000E+00
    0.10130E-02        -0.58207E-02         0.00000E+00
    0.49198E-03        -0.28993E-02         0.00000E+00
    0.00000E+00         0.00000E+00         0.00000E+00
    0.10473E-01        -0.43988E-01         0.00000E+00
    0.94444E-02        -0.41204E-01         0.00000E+00
    0.84921E-02        -0.38412E-01         0.00000E+00
    0.76104E-02        -0.35601E-01         0.00000E+00
    0.67926E-02        -0.32765E-01         0.00000E+00
    0.60310E-02        -0.29898E-01         0.00000E+00
    0.53175E-02        -0.27001E-01         0.00000E+00
    0.46440E-02        -0.24071E-01         0.00000E+00
    0.40026E-02        -0.21112E-01         0.00000E+00
    0.33860E-02        -0.18125E-01         0.00000E+00
    0.27882E-02        -0.15115E-01         0.00000E+00
    0.22048E-02        -0.12089E-01         0.00000E+00
    0.16334E-02        -0.90553E-02         0.00000E+00
    0.10736E-02        -0.60220E-02         0.00000E+00
    0.52776E-03        -0.30000E-02         0.00000E+00
    0.00000E+00         0.00000E+00         0.00000E+00
    0.10248E-01        -0.45060E-01         0.00000E+00
    0.92237E-02        -0.42242E-01         0.00000E+00
    0.82882E-02        -0.39408E-01         0.00000E+00
    0.74321E-02        -0.36550E-01         0.00000E+00
    0.66458E-02        -0.33660E-01         0.00000E+00
    0.59194E-02        -0.30736E-01         0.00000E+00
    0.52429E-02        -0.27776E-01         0.00000E+00
    0.46062E-02        -0.24780E-01         0.00000E+00
    0.39995E-02        -0.21749E-01         0.00000E+00
    0.34133E-02        -0.18686E-01         0.00000E+00
    0.28393E-02        -0.15594E-01         0.00000E+00
    0.22707E-02        -0.12481E-01         0.00000E+00
    0.17031E-02        -0.93543E-02         0.00000E+00
    0.11342E-02        -0.62238E-02         0.00000E+00
    0.56511E-03        -0.31014E-02         0.00000E+00
    0.00000E+00         0.00000E+00         0.00000E+00
    0.99043E-02        -0.46129E-01         0.00000E+00
    0.88967E-02        -0.43273E-01         0.00000E+00
    0.79908E-02        -0.40394E-01         0.00000E+00
    0.71710E-02        -0.37484E-01         0.00000E+00
    0.64256E-02        -0.34538E-01         0.00000E+00
    0.57431E-02        -0.31555E-01         0.00000E+00
    0.51120E-02        -0.28533E-01         0.00000E+00
    0.45205E-02        -0.25471E-01         0.00000E+00
    0.39567E-02        -0.22370E-01         0.00000E+00
    0.34091E-02        -0.19232E-01         0.00000E+00
    0.28670E-02        -0.16063E-01         0.00000E+00
    0.23213E-02        -0.12866E-01         0.00000E+00
    0.17646E-02        -0.96496E-02         0.00000E+00
    0.11922E-02        -0.64244E-02         0.00000E+00
    0.60301E-03        -0.32029E-02         0.00000E+00
    0.00000E+00         0.00000E+00         0.00000E+00
    0.94436E-02        -0.47189E-01         0.00000E+00
    0.84633E-02        -0.44282E-01         0.00000E+00
    0.75994E-02        -0.41354E-01         0.00000E+00
    0.68260E-02        -0.38391E-01         0.00000E+00
    0.61304E-02        -0.35388E-01         0.00000E+00
    0.55001E-02        -0.32345E-01         0.00000E+00
    0.49222E-02        -0.29260E-01         0.00000E+00
    0.43831E-02        -0.26133E-01         0.00000E+00
    0.38695E-02        -0.22965E-01         0.00000E+00
    0.33678E-02        -0.19758E-01         0.00000E+00
    0.28654E-02        -0.16514E-01         0.00000E+00
    0.23506E-02        -0.13239E-01         0.00000E+00
    0.18130E-02        -0.99381E-02         0.00000E+00
    0.12446E-02        -0.66220E-02         0.00000E+00
    0.64020E-03        -0.33035E-02         0.00000E+00
    0.00000E+00         0.00000E+00         0.00000E+00
    0.88735E-02        -0.48228E-01         0.00000E+00
    0.79283E-02        -0.45262E-01         0.00000E+00
    0.71135E-02        -0.42279E-01         0.00000E+00
    0.63962E-02        -0.39260E-01         0.00000E+00
    0.57590E-02        -0.36199E-01         0.00000E+00
    0.51884E-02        -0.33095E-01         0.00000E+00
    0.46703E-02        -0.29947E-01         0.00000E+00
    0.41900E-02        -0.26757E-01         0.00000E+00
    0.37324E-02        -0.23525E-01         0.00000E+00
    0.32828E-02        -0.20253E-01         0.00000E+00
    0.28270E-02        -0.16942E-01         0.00000E+00
    0.23511E-02        -0.13594E-01         0.00000E+00
    0.18419E-02        -0.10216E-01         0.00000E+00
    0.12869E-02        -0.68145E-02         0.00000E+00
    0.67490E-03        -0.34026E-02         0.00000E+00
    0.00000E+00         0.00000E+00         0.00000E+00
    0.81906E-02        -0.49231E-01         0.00000E+00
    0.72933E-02        -0.46203E-01         0.00000E+00
    0.65351E-02        -0.43158E-01         0.00000E+00
    0.58816E-02        -0.40080E-01         0.00000E+00
    0.53104E-02        -0.36958E-01         0.00000E+00
    0.48063E-02        -0.33792E-01         0.00000E+00
    0.43536E-02        -0.30584E-01         0.00000E+00
    0.39365E-02        -0.27333E-01         0.00000E+00
    0.35392E-02        -0.24042E-01         0.00000E+00
    0.31465E-02        -0.20710E-01         0.00000E+00
    0.27431E-02        -0.17338E-01         0.00000E+00
    0.23138E-02        -0.13927E-01         0.00000E+00
    0.18428E-02        -0.10479E-01         0.00000E+00
    0.13129E-02        -0.69995E-02         0.00000E+00
    0.70450E-03        -0.34990E-02         0.00000E+00
    0.00000E+00         0.00000E+00         0.00000E+00
    0.73909E-02        -0.50181E-01         0.00000E+00
    0.65563E-02        -0.47090E-01         0.00000E+00
    0.58653E-02        -0.43981E-01         0.00000E+00
    0.52833E-02        -0.40840E-01         0.00000E+00
    0.47850E-02        -0.37655E-01         0.00000E+00
    0.43526E-02        -0.34427E-01         0.00000E+00
    0.39690E-02        -0.31158E-01         0.00000E+00
    0.36177E-02        -0.27851E-01         0.00000E+00
    0.32832E-02        -0.24505E-01         0.00000E+00
    0.29503E-02        -0.21121E-01         0.00000E+00
    0.26038E-02        -0.17697E-01         0.00000E+00
    0.22280E-02        -0.14231E-01         0.00000E+00
    0.18050E-02        -0.10723E-01         0.00000E+00
    0.13136E-02        -0.71744E-02         0.00000E+00
    0.72446E-03        -0.35926E-02         0.00000E+00
    0.00000E+00         0.00000E+00         0.00000E+00
    0.64714E-02        -0.51062E-01         0.00000E+00
    0.57153E-02        -0.47909E-01         0.00000E+00
    0.51044E-02        -0.44733E-01         0.00000E+00
    0.46027E-02        -0.41527E-01         0.00000E+00
    0.41836E-02        -0.38277E-01         0.00000E+00
    0.38266E-02        -0.34987E-01         0.00000E+00
    0.35136E-02        -0.31661E-01         0.00000E+00
    0.32284E-02        -0.28300E-01         0.00000E+00
    0.29567E-02        -0.24906E-01         0.00000E+00
    0.26848E-02        -0.21477E-01         0.00000E+00
    0.23984E-02        -0.18010E-01         0.00000E+00
    0.20817E-02        -0.14500E-01         0.00000E+00
    0.17162E-02        -0.10943E-01         0.00000E+00
    0.12774E-02        -0.73359E-02         0.00000E+00
    0.72759E-03        -0.36810E-02         0.00000E+00
    0.00000E+00         0.00000E+00         0.00000E+00
    0.54294E-02        -0.51859E-01         0.00000E+00
    0.47693E-02        -0.48641E-01         0.00000E+00
    0.42529E-02        -0.45399E-01         0.00000E+00
    0.38414E-02        -0.42126E-01         0.00000E+00
    0.35068E-02        -0.38812E-01         0.00000E+00
    0.32269E-02        -0.35462E-01         0.00000E+00
    0.29836E-02        -0.32082E-01         0.00000E+00
    0.27628E-02        -0.28674E-01         0.00000E+00
    0.25522E-02        -0.25238E-01         0.00000E+00
    0.23404E-02        -0.21773E-01         0.00000E+00
    0.21151E-02        -0.18272E-01         0.00000E+00
    0.18621E-02        -0.14729E-01         0.00000E+00
    0.15627E-02        -0.11135E-01         0.00000E+00
    0.11907E-02        -0.74817E-02         0.00000E+00
    0.70223E-03        -0.37652E-02         0.00000E+00
    0.00000E+00         0.00000E+00         0.00000E+00
    0.42627E-02        -0.52550E-01         0.00000E+00
    0.37191E-02        -0.49269E-01         0.00000E+00
    0.33131E-02        -0.45960E-01         0.00000E+00
    0.30014E-02        -0.42620E-01         0.00000E+00
    0.27546E-02        -0.39244E-01         0.00000E+00
    0.25506E-02        -0.35840E-01         0.00000E+00
    0.23743E-02        -0.32413E-01         0.00000E+00
    0.22144E-02        -0.28966E-01         0.00000E+00
    0.20617E-02        -0.25497E-01         0.00000E+00
    0.19076E-02        -0.22002E-01         0.00000E+00
    0.17428E-02        -0.18477E-01         0.00000E+00
    0.15556E-02        -0.14911E-01         0.00000E+00
    0.13293E-02        -0.11294E-01         0.00000E+00
    0.10379E-02        -0.76094E-02         0.00000E+00
    0.63539E-03        -0.38444E-02         0.00000E+00
    0.00000E+00         0.00000E+00         0.00000E+00
    0.29691E-02        -0.53113E-01         0.00000E+00
    0.25679E-02        -0.49768E-01         0.00000E+00
    0.22891E-02        -0.46392E-01         0.00000E+00
    0.20840E-02        -0.42990E-01         0.00000E+00
    0.19244E-02        -0.39561E-01         0.00000E+00
    0.17928E-02        -0.36114E-01         0.00000E+00
    0.16792E-02        -0.32651E-01         0.00000E+00
    0.15762E-02        -0.29173E-01         0.00000E+00
    0.14777E-02        -0.25679E-01         0.00000E+00
    0.13781E-02        -0.22163E-01         0.00000E+00
    0.12713E-02        -0.18621E-01         0.00000E+00
    0.11493E-02        -0.15042E-01         0.00000E+00
    0.10001E-02        -0.11413E-01         0.00000E+00
    0.80219E-03        -0.77144E-02         0.00000E+00
    0.51117E-03        -0.39176E-02         0.00000E+00
    0.00000E+00         0.00000E+00         0.00000E+00
    0.15464E-02        -0.53513E-01         0.00000E+00
    0.13241E-02        -0.50105E-01         0.00000E+00
    0.11853E-02        -0.46667E-01         0.00000E+00
    0.10867E-02        -0.43217E-01         0.00000E+00
    0.10095E-02        -0.39753E-01         0.00000E+00
    0.94567E-03        -0.36278E-01         0.00000E+00
    0.89056E-03        -0.32792E-01         0.00000E+00
    0.84059E-03        -0.29296E-01         0.00000E+00
    0.79280E-03        -0.25786E-01         0.00000E+00
    0.74442E-03        -0.22257E-01         0.00000E+00
    0.69246E-03        -0.18705E-01         0.00000E+00
    0.63308E-03        -0.15119E-01         0.00000E+00
    0.56019E-03        -0.11487E-01         0.00000E+00
    0.46222E-03        -0.77867E-02         0.00000E+00
    0.31111E-03        -0.39821E-02         0.00000E+00
    0.00000E+00         0.00000E+00         0.00000E+00
    0.00000E+00        -0.53685E-01         0.00000E+00
    0.00000E+00        -0.50229E-01         0.00000E+00
    0.00000E+00        -0.46761E-01         0.00000E+00
    0.00000E+00        -0.43293E-01         0.00000E+00
    0.00000E+00        -0.39817E-01         0.00000E+00
    0.00000E+00        -0.36332E-01         0.00000E+00
    0.00000E+00        -0.32838E-01         0.00000E+00
    0.00000E+00        -0.29336E-01         0.00000E+00
    0.00000E+00        -0.25820E-01         0.00000E+00
    0.00000E+00        -0.22288E-01         0.00000E+00
    0.00000E+00        -0.18732E-01         0.00000E+00
    0.00000E+00        -0.15144E-01         0.00000E+00
    0.00000E+00        -0.11511E-01         0.00000E+00
    0.00000E+00        -0.78134E-02         0.00000E+00
    0.00000E+00        -0.40132E-02         0.00000E+00
    0.00000E+00         0.00000E+00         0.00000E+00
CELL_DATA        450
VECTORS vDarcy double 
    0.23684E-09        -0.18439E-10         0.00000E+00
    0.23707E-09        -0.55166E-10         0.00000E+00
    0.23730E-09        -0.92132E-10         0.00000E+00
    0.23735E-09        -0.12948E-09         0.00000E+00
    0.23712E-09        -0.16723E-09         0.00000E+00
    0.23663E-09        -0.20522E-09         0.00000E+00
    0.23595E-09        -0.24321E-09         0.00000E+00
    0.23514E-09        -0.28100E-09         0.00000E+00
    0.23438E-09        -0.30357E-09         0.00000E+00
    0.23382E-09        -0.28902E-09         0.00000E+00
    0.23340E-09        -0.24939E-09         0.00000E+00
    0.23302E-09        -0.20401E-09         0.00000E+00
    0.23274E-09        -0.15296E-09         0.00000E+00
    0.23255E-09        -0.96262E-10         0.00000E+00
    0.23246E-09        -0.33879E-10         0.00000E+00
    0.70984E-09        -0.18803E-10         0.00000E+00
    0.71052E-09        -0.55740E-10         0.00000E+00
    0.71121E-09        -0.92502E-10         0.00000E+00
    0.71141E-09        -0.12937E-09         0.00000E+00
    0.71082E-09        -0.16654E-09         0.00000E+00
    0.70941E-09        -0.20403E-09         0.00000E+00
    0.70736E-09        -0.24168E-09         0.00000E+00
    0.70488E-09        -0.27926E-09         0.00000E+00
    0.70253E-09        -0.30220E-09         0.00000E+00
    0.70083E-09        -0.28815E-09         0.00000E+00
    0.69954E-09        -0.24857E-09         0.00000E+00
    0.69842E-09        -0.20335E-09         0.00000E+00
    0.69757E-09        -0.15250E-09         0.00000E+00
    0.69701E-09        -0.95995E-10         0.00000E+00
    0.69674E-09        -0.33795E-10         0.00000E+00
    0.11808E-08        -0.19464E-10         0.00000E+00
    0.11819E-08        -0.56841E-10         0.00000E+00
    0.11830E-08        -0.93297E-10         0.00000E+00
    0.11835E-08        -0.12931E-09         0.00000E+00
    0.11828E-08        -0.16534E-09         0.00000E+00
    0.11807E-08        -0.20174E-09         0.00000E+00
    0.11774E-08        -0.23857E-09         0.00000E+00
    0.11731E-08        -0.27562E-09         0.00000E+00
    0.11689E-08        -0.29936E-09         0.00000E+00
    0.11660E-08        -0.28635E-09         0.00000E+00
    0.11638E-08        -0.24691E-09         0.00000E+00
    0.11619E-08        -0.20204E-09         0.00000E+00
    0.11605E-08        -0.15158E-09         0.00000E+00
    0.11595E-08        -0.95466E-10         0.00000E+00
    0.11591E-08        -0.33629E-10         0.00000E+00
    0.16486E-08        -0.20304E-10         0.00000E+00
    0.16499E-08        -0.58348E-10         0.00000E+00
    0.16514E-08        -0.94557E-10         0.00000E+00
    0.16523E-08        -0.12954E-09         0.00000E+00
    0.16519E-08        -0.16400E-09         0.00000E+00
    0.16495E-08        -0.19863E-09         0.00000E+00
    0.16450E-08        -0.23390E-09         0.00000E+00
    0.16389E-08        -0.26989E-09         0.00000E+00
    0.16327E-08        -0.29476E-09         0.00000E+00
    0.16281E-08        -0.28346E-09         0.00000E+00
    0.16248E-08        -0.24437E-09         0.00000E+00
    0.16221E-08        -0.20006E-09         0.00000E+00
    0.16201E-08        -0.15021E-09         0.00000E+00
    0.16189E-08        -0.94674E-10         0.00000E+00
    0.16182E-08        -0.33381E-10         0.00000E+00
    0.21120E-08        -0.21177E-10         0.00000E+00
    0.21132E-08        -0.60055E-10         0.00000E+00
    0.21149E-08        -0.96203E-10         0.00000E+00
    0.21163E-08        -0.13023E-09         0.00000E+00
    0.21163E-08        -0.16292E-09         0.00000E+00
    0.21141E-08        -0.19519E-09         0.00000E+00
    0.21091E-08        -0.22797E-09         0.00000E+00
    0.21014E-08        -0.26195E-09         0.00000E+00
    0.20928E-08        -0.28793E-09         0.00000E+00
    0.20862E-08        -0.27918E-09         0.00000E+00
    0.20816E-08        -0.24085E-09         0.00000E+00
    0.20780E-08        -0.19739E-09         0.00000E+00
    0.20754E-08        -0.14835E-09         0.00000E+00
    0.20737E-08        -0.93609E-10         0.00000E+00
    0.20729E-08        -0.33051E-10         0.00000E+00
    0.25698E-08        -0.21950E-10         0.00000E+00
    0.25708E-08        -0.61701E-10         0.00000E+00
    0.25724E-08        -0.97999E-10         0.00000E+00
    0.25739E-08        -0.13135E-09         0.00000E+00
    0.25744E-08        -0.16241E-09         0.00000E+00
    0.25729E-08        -0.19204E-09         0.00000E+00
    0.25681E-08        -0.22144E-09         0.00000E+00
    0.25593E-08        -0.25199E-09         0.00000E+00
    0.25483E-08        -0.27832E-09         0.00000E+00
    0.25389E-08        -0.27286E-09         0.00000E+00
    0.25327E-08        -0.23638E-09         0.00000E+00
    0.25282E-08        -0.19394E-09         0.00000E+00
    0.25249E-08        -0.14593E-09         0.00000E+00
    0.25227E-08        -0.92234E-10         0.00000E+00
    0.25217E-08        -0.32636E-10         0.00000E+00
    0.30209E-08        -0.22531E-10         0.00000E+00
    0.30216E-08        -0.63034E-10         0.00000E+00
    0.30228E-08        -0.99593E-10         0.00000E+00
    0.30240E-08        -0.13257E-09         0.00000E+00
    0.30246E-08        -0.16237E-09         0.00000E+00
    0.30236E-08        -0.18960E-09         0.00000E+00
    0.30196E-08        -0.21525E-09         0.00000E+00
    0.30110E-08        -0.24090E-09         0.00000E+00
    0.29982E-08        -0.26565E-09         0.00000E+00
    0.29857E-08        -0.26368E-09         0.00000E+00
    0.29772E-08        -0.23094E-09         0.00000E+00
    0.29717E-08        -0.18949E-09         0.00000E+00
    0.29674E-08        -0.14282E-09         0.00000E+00
    0.29646E-08        -0.90491E-10         0.00000E+00
    0.29633E-08        -0.32131E-10         0.00000E+00
    0.34640E-08        -0.22874E-10         0.00000E+00
    0.34643E-08        -0.63859E-10         0.00000E+00
    0.34648E-08        -0.10062E-09         0.00000E+00
    0.34653E-08        -0.13336E-09         0.00000E+00
    0.34653E-08        -0.16230E-09         0.00000E+00
    0.34642E-08        -0.18768E-09         0.00000E+00
    0.34609E-08        -0.21001E-09         0.00000E+00
    0.34536E-08        -0.23037E-09         0.00000E+00
    0.34407E-08        -0.25054E-09         0.00000E+00
    0.34255E-08        -0.25106E-09         0.00000E+00
    0.34142E-08        -0.22399E-09         0.00000E+00
    0.34070E-08        -0.18376E-09         0.00000E+00
    0.34015E-08        -0.13882E-09         0.00000E+00
    0.33980E-08        -0.88291E-10         0.00000E+00
    0.33964E-08        -0.31526E-10         0.00000E+00
    0.38978E-08        -0.22965E-10         0.00000E+00
    0.38976E-08        -0.64047E-10         0.00000E+00
    0.38973E-08        -0.10075E-09         0.00000E+00
    0.38966E-08        -0.13318E-09         0.00000E+00
    0.38954E-08        -0.16140E-09         0.00000E+00
    0.38932E-08        -0.18543E-09         0.00000E+00
    0.38895E-08        -0.20536E-09         0.00000E+00
    0.38832E-08        -0.22151E-09         0.00000E+00
    0.38717E-08        -0.23508E-09         0.00000E+00
    0.38564E-08        -0.23611E-09         0.00000E+00
    0.38428E-08        -0.21416E-09         0.00000E+00
    0.38329E-08        -0.17655E-09         0.00000E+00
    0.38259E-08        -0.13368E-09         0.00000E+00
    0.38214E-08        -0.85443E-10         0.00000E+00
    0.38193E-08        -0.30806E-10         0.00000E+00
    0.43209E-08        -0.22795E-10         0.00000E+00
    0.43202E-08        -0.63498E-10         0.00000E+00
    0.43189E-08        -0.99730E-10         0.00000E+00
    0.43167E-08        -0.13153E-09         0.00000E+00
    0.43136E-08        -0.15887E-09         0.00000E+00
    0.43094E-08        -0.18172E-09         0.00000E+00
    0.43039E-08        -0.19997E-09         0.00000E+00
    0.42966E-08        -0.21337E-09         0.00000E+00
    0.42864E-08        -0.22163E-09         0.00000E+00
    0.42731E-08        -0.22111E-09         0.00000E+00
    0.42596E-08        -0.20213E-09         0.00000E+00
    0.42486E-08        -0.16777E-09         0.00000E+00
    0.42397E-08        -0.12675E-09         0.00000E+00
    0.42334E-08        -0.81551E-10         0.00000E+00
    0.42307E-08        -0.29962E-10         0.00000E+00
    0.47319E-08        -0.22344E-10         0.00000E+00
    0.47306E-08        -0.62102E-10         0.00000E+00
    0.47280E-08        -0.97320E-10         0.00000E+00
    0.47241E-08        -0.12799E-09         0.00000E+00
    0.47187E-08        -0.15407E-09         0.00000E+00
    0.47118E-08        -0.17554E-09         0.00000E+00
    0.47033E-08        -0.19224E-09         0.00000E+00
    0.46932E-08        -0.20383E-09         0.00000E+00
    0.46816E-08        -0.20949E-09         0.00000E+00
    0.46689E-08        -0.20735E-09         0.00000E+00
    0.46571E-08        -0.19075E-09         0.00000E+00
    0.46479E-08        -0.15905E-09         0.00000E+00
    0.46405E-08        -0.11927E-09         0.00000E+00
    0.46335E-08        -0.75773E-10         0.00000E+00
    0.46287E-08        -0.28284E-10         0.00000E+00
    0.51294E-08        -0.21565E-10         0.00000E+00
    0.51273E-08        -0.59722E-10         0.00000E+00
    0.51234E-08        -0.93275E-10         0.00000E+00
    0.51173E-08        -0.12221E-09         0.00000E+00
    0.51093E-08        -0.14652E-09         0.00000E+00
    0.50992E-08        -0.16622E-09         0.00000E+00
    0.50872E-08        -0.18121E-09         0.00000E+00
    0.50735E-08        -0.19121E-09         0.00000E+00
    0.50585E-08        -0.19559E-09         0.00000E+00
    0.50428E-08        -0.19295E-09         0.00000E+00
    0.50289E-08        -0.17958E-09         0.00000E+00
    0.50197E-08        -0.15191E-09         0.00000E+00
    0.50144E-08        -0.11376E-09         0.00000E+00
    0.50103E-08        -0.70332E-10         0.00000E+00
    0.50060E-08        -0.24682E-10         0.00000E+00
    0.55118E-08        -0.20390E-10         0.00000E+00
    0.55090E-08        -0.56182E-10         0.00000E+00
    0.55034E-08        -0.87340E-10         0.00000E+00
    0.54950E-08        -0.11389E-09         0.00000E+00
    0.54840E-08        -0.13591E-09         0.00000E+00
    0.54706E-08        -0.15347E-09         0.00000E+00
    0.54550E-08        -0.16657E-09         0.00000E+00
    0.54377E-08        -0.17498E-09         0.00000E+00
    0.54190E-08        -0.17821E-09         0.00000E+00
    0.53996E-08        -0.17530E-09         0.00000E+00
    0.53806E-08        -0.16449E-09         0.00000E+00
    0.53652E-08        -0.14240E-09         0.00000E+00
    0.53558E-08        -0.10866E-09         0.00000E+00
    0.53514E-08        -0.67113E-10         0.00000E+00
    0.53490E-08        -0.21183E-10         0.00000E+00
    0.58780E-08        -0.18732E-10         0.00000E+00
    0.58742E-08        -0.51281E-10         0.00000E+00
    0.58667E-08        -0.79259E-10         0.00000E+00
    0.58557E-08        -0.10279E-09         0.00000E+00
    0.58417E-08        -0.12208E-09         0.00000E+00
    0.58249E-08        -0.13729E-09         0.00000E+00
    0.58061E-08        -0.14845E-09         0.00000E+00
    0.57855E-08        -0.15535E-09         0.00000E+00
    0.57638E-08        -0.15756E-09         0.00000E+00
    0.57416E-08        -0.15437E-09         0.00000E+00
    0.57196E-08        -0.14462E-09         0.00000E+00
    0.56996E-08        -0.12677E-09         0.00000E+00
    0.56837E-08        -0.99154E-10         0.00000E+00
    0.56740E-08        -0.62621E-10         0.00000E+00
    0.56703E-08        -0.19583E-10         0.00000E+00
    0.62267E-08        -0.16490E-10         0.00000E+00
    0.62217E-08        -0.44805E-10         0.00000E+00
    0.62121E-08        -0.68796E-10         0.00000E+00
    0.61985E-08        -0.88757E-10         0.00000E+00
    0.61814E-08        -0.10505E-09         0.00000E+00
    0.61616E-08        -0.11791E-09         0.00000E+00
    0.61398E-08        -0.12731E-09         0.00000E+00
    0.61168E-08        -0.13299E-09         0.00000E+00
    0.60929E-08        -0.13452E-09         0.00000E+00
    0.60690E-08        -0.13131E-09         0.00000E+00
    0.60458E-08        -0.12264E-09         0.00000E+00
    0.60247E-08        -0.10758E-09         0.00000E+00
    0.60073E-08        -0.85218E-10         0.00000E+00
    0.59955E-08        -0.55131E-10         0.00000E+00
    0.59900E-08        -0.17846E-10         0.00000E+00
    0.65568E-08        -0.13559E-10         0.00000E+00
    0.65504E-08        -0.36527E-10         0.00000E+00
    0.65385E-08        -0.55737E-10         0.00000E+00
    0.65221E-08        -0.71764E-10         0.00000E+00
    0.65021E-08        -0.85077E-10         0.00000E+00
    0.64797E-08        -0.95821E-10         0.00000E+00
    0.64558E-08        -0.10382E-09         0.00000E+00
    0.64311E-08        -0.10872E-09         0.00000E+00
    0.64061E-08        -0.11008E-09         0.00000E+00
    0.63816E-08        -0.10743E-09         0.00000E+00
    0.63585E-08        -0.10030E-09         0.00000E+00
    0.63379E-08        -0.88179E-10         0.00000E+00
    0.63210E-08        -0.70393E-10         0.00000E+00
    0.63090E-08        -0.46223E-10         0.00000E+00
    0.63029E-08        -0.15221E-10         0.00000E+00
    0.68670E-08        -0.98737E-11         0.00000E+00
    0.68591E-08        -0.26142E-10         0.00000E+00
    0.68447E-08        -0.39919E-10         0.00000E+00
    0.68255E-08        -0.51989E-10         0.00000E+00
    0.68032E-08        -0.62655E-10         0.00000E+00
    0.67790E-08        -0.71726E-10         0.00000E+00
    0.67537E-08        -0.78794E-10         0.00000E+00
    0.67281E-08        -0.83410E-10         0.00000E+00
    0.67028E-08        -0.85172E-10         0.00000E+00
    0.66786E-08        -0.83721E-10         0.00000E+00
    0.66563E-08        -0.78711E-10         0.00000E+00
    0.66368E-08        -0.69718E-10         0.00000E+00
    0.66210E-08        -0.56136E-10         0.00000E+00
    0.66097E-08        -0.37209E-10         0.00000E+00
    0.66039E-08        -0.12514E-10         0.00000E+00
    0.71563E-08        -0.53225E-11         0.00000E+00
    0.71466E-08        -0.13191E-10         0.00000E+00
    0.71294E-08        -0.21335E-10         0.00000E+00
    0.71079E-08        -0.29944E-10         0.00000E+00
    0.70840E-08        -0.38533E-10         0.00000E+00
    0.70588E-08        -0.46425E-10         0.00000E+00
    0.70329E-08        -0.53009E-10         0.00000E+00
    0.70072E-08        -0.57828E-10         0.00000E+00
    0.69822E-08        -0.60529E-10         0.00000E+00
    0.69588E-08        -0.60798E-10         0.00000E+00
    0.69377E-08        -0.58289E-10         0.00000E+00
    0.69195E-08        -0.52538E-10         0.00000E+00
    0.69050E-08        -0.42934E-10         0.00000E+00
    0.68946E-08        -0.28834E-10         0.00000E+00
    0.68894E-08        -0.99315E-11         0.00000E+00
    0.74234E-08         0.66579E-12         0.00000E+00
    0.74112E-08         0.27469E-11         0.00000E+00
    0.73915E-08        -0.47398E-12         0.00000E+00
    0.73686E-08        -0.64689E-11         0.00000E+00
    0.73441E-08        -0.13583E-10         0.00000E+00
    0.73187E-08        -0.20691E-10         0.00000E+00
    0.72929E-08        -0.27164E-10         0.00000E+00
    0.72676E-08        -0.32592E-10         0.00000E+00
    0.72435E-08        -0.36642E-10         0.00000E+00
    0.72212E-08        -0.38975E-10         0.00000E+00
    0.72014E-08        -0.39168E-10         0.00000E+00
    0.71845E-08        -0.36685E-10         0.00000E+00
    0.71712E-08        -0.30909E-10         0.00000E+00
    0.71619E-08        -0.21279E-10         0.00000E+00
    0.71571E-08        -0.75572E-11         0.00000E+00
    0.76651E-08         0.80044E-11         0.00000E+00
    0.76519E-08         0.20847E-10         0.00000E+00
    0.76310E-08         0.21985E-10         0.00000E+00
    0.76075E-08         0.17458E-10         0.00000E+00
    0.75831E-08         0.11450E-10         0.00000E+00
    0.75581E-08         0.48421E-11         0.00000E+00
    0.75330E-08        -0.18313E-11         0.00000E+00
    0.75086E-08        -0.81832E-11         0.00000E+00
    0.74857E-08        -0.13856E-10         0.00000E+00
    0.74647E-08        -0.18434E-10         0.00000E+00
    0.74462E-08        -0.21401E-10         0.00000E+00
    0.74308E-08        -0.22146E-10         0.00000E+00
    0.74186E-08        -0.20035E-10         0.00000E+00
    0.74103E-08        -0.14533E-10         0.00000E+00
    0.74060E-08        -0.54071E-11         0.00000E+00
    0.78844E-08         0.15881E-10         0.00000E+00
    0.78710E-08         0.39672E-10         0.00000E+00
    0.78493E-08         0.45799E-10         0.00000E+00
    0.78250E-08         0.41563E-10         0.00000E+00
    0.78006E-08         0.36183E-10         0.00000E+00
    0.77762E-08         0.29685E-10         0.00000E+00
    0.77523E-08         0.22490E-10         0.00000E+00
    0.77293E-08         0.14964E-10         0.00000E+00
    0.77079E-08         0.75114E-11         0.00000E+00
    0.76885E-08         0.62938E-12         0.00000E+00
    0.76716E-08        -0.50789E-11         0.00000E+00
    0.76576E-08        -0.89379E-11         0.00000E+00
    0.76467E-08        -0.10278E-10         0.00000E+00
    0.76393E-08        -0.85504E-11         0.00000E+00
    0.76355E-08        -0.34802E-11         0.00000E+00
    0.80786E-08         0.23142E-10         0.00000E+00
    0.80663E-08         0.58295E-10         0.00000E+00
    0.80449E-08         0.70482E-10         0.00000E+00
    0.80200E-08         0.66241E-10         0.00000E+00
    0.79956E-08         0.60414E-10         0.00000E+00
    0.79723E-08         0.53397E-10         0.00000E+00
    0.79499E-08         0.45286E-10         0.00000E+00
    0.79289E-08         0.36368E-10         0.00000E+00
    0.79095E-08         0.27065E-10         0.00000E+00
    0.78921E-08         0.17928E-10         0.00000E+00
    0.78771E-08         0.96144E-11         0.00000E+00
    0.78647E-08         0.28495E-11         0.00000E+00
    0.78552E-08        -0.16579E-11         0.00000E+00
    0.78487E-08        -0.33161E-11         0.00000E+00
    0.78454E-08        -0.17762E-11         0.00000E+00
    0.82405E-08         0.28373E-10         0.00000E+00
    0.82313E-08         0.74814E-10         0.00000E+00
    0.82128E-08         0.94233E-10         0.00000E+00
    0.81896E-08         0.90781E-10         0.00000E+00
    0.81665E-08         0.83600E-10         0.00000E+00
    0.81450E-08         0.75349E-10         0.00000E+00
    0.81251E-08         0.65887E-10         0.00000E+00
    0.81067E-08         0.55395E-10         0.00000E+00
    0.80901E-08         0.44263E-10         0.00000E+00
    0.80753E-08         0.33037E-10         0.00000E+00
    0.80626E-08         0.22381E-10         0.00000E+00
    0.80521E-08         0.13035E-10         0.00000E+00
    0.80441E-08         0.57407E-11         0.00000E+00
    0.80387E-08         0.11464E-11         0.00000E+00
    0.80359E-08        -0.30232E-12         0.00000E+00
    0.83703E-08         0.32090E-10         0.00000E+00
    0.83635E-08         0.87554E-10         0.00000E+00
    0.83494E-08         0.11449E-09         0.00000E+00
    0.83305E-08         0.11296E-09         0.00000E+00
    0.83110E-08         0.10431E-09         0.00000E+00
    0.82931E-08         0.94406E-10         0.00000E+00
    0.82769E-08         0.83298E-10         0.00000E+00
    0.82624E-08         0.71167E-10         0.00000E+00
    0.82494E-08         0.58361E-10         0.00000E+00
    0.82380E-08         0.45370E-10         0.00000E+00
    0.82281E-08         0.32800E-10         0.00000E+00
    0.82200E-08         0.21351E-10         0.00000E+00
    0.82137E-08         0.11773E-10         0.00000E+00
    0.82095E-08         0.47774E-11         0.00000E+00
    0.82073E-08         0.92787E-12         0.00000E+00
    0.84666E-08         0.35196E-10         0.00000E+00
    0.84621E-08         0.96431E-10         0.00000E+00
    0.84531E-08         0.12928E-09         0.00000E+00
    0.84405E-08         0.13012E-09         0.00000E+00
    0.84272E-08         0.12028E-09         0.00000E+00
    0.84152E-08         0.10878E-09         0.00000E+00
    0.84047E-08         0.96064E-10         0.00000E+00
    0.83955E-08         0.82478E-10         0.00000E+00
    0.83874E-08         0.68378E-10         0.00000E+00
    0.83803E-08         0.54167E-10         0.00000E+00
    0.83741E-08         0.40325E-10         0.00000E+00
    0.83687E-08         0.27444E-10         0.00000E+00
    0.83645E-08         0.16242E-10         0.00000E+00
    0.83617E-08         0.74913E-11         0.00000E+00
    0.83601E-08         0.18975E-11         0.00000E+00
    0.85279E-08         0.37278E-10         0.00000E+00
    0.85263E-08         0.10125E-09         0.00000E+00
    0.85233E-08         0.13724E-09         0.00000E+00
    0.85188E-08         0.13979E-09         0.00000E+00
    0.85142E-08         0.12897E-09         0.00000E+00
    0.85107E-08         0.11619E-09         0.00000E+00
    0.85080E-08         0.10229E-09         0.00000E+00
    0.85061E-08         0.87808E-10         0.00000E+00
    0.85044E-08         0.73122E-10         0.00000E+00
    0.85027E-08         0.58514E-10         0.00000E+00
    0.85009E-08         0.44293E-10         0.00000E+00
    0.84990E-08         0.30885E-10         0.00000E+00
    0.84973E-08         0.18910E-10         0.00000E+00
    0.84959E-08         0.91853E-11         0.00000E+00
    0.84951E-08         0.25889E-11         0.00000E+00
    0.85514E-08         0.37702E-10         0.00000E+00
    0.85541E-08         0.10083E-09         0.00000E+00
    0.85590E-08         0.13667E-09         0.00000E+00
    0.85651E-08         0.13944E-09         0.00000E+00
    0.85720E-08         0.12760E-09         0.00000E+00
    0.85797E-08         0.11405E-09         0.00000E+00
    0.85874E-08         0.99823E-10         0.00000E+00
    0.85947E-08         0.85479E-10         0.00000E+00
    0.86009E-08         0.71289E-10         0.00000E+00
    0.86058E-08         0.57400E-10         0.00000E+00
    0.86094E-08         0.43947E-10         0.00000E+00
    0.86116E-08         0.31158E-10         0.00000E+00
    0.86127E-08         0.19494E-10         0.00000E+00
    0.86130E-08         0.97445E-11         0.00000E+00
    0.86130E-08         0.29940E-11         0.00000E+00
    0.85335E-08         0.35636E-10         0.00000E+00
    0.85424E-08         0.92666E-10         0.00000E+00
    0.85591E-08         0.12435E-09         0.00000E+00
    0.85798E-08         0.12575E-09         0.00000E+00
    0.86019E-08         0.11295E-09         0.00000E+00
    0.86240E-08         0.99674E-10         0.00000E+00
    0.86444E-08         0.86607E-10         0.00000E+00
    0.86624E-08         0.73920E-10         0.00000E+00
    0.86778E-08         0.61665E-10         0.00000E+00
    0.86904E-08         0.49857E-10         0.00000E+00
    0.87001E-08         0.38508E-10         0.00000E+00
    0.87071E-08         0.27679E-10         0.00000E+00
    0.87116E-08         0.17619E-10         0.00000E+00
    0.87140E-08         0.90428E-11         0.00000E+00
    0.87148E-08         0.31223E-11         0.00000E+00
    0.84681E-08         0.29499E-10         0.00000E+00
    0.84879E-08         0.71722E-10         0.00000E+00
    0.85232E-08         0.94658E-10         0.00000E+00
    0.85652E-08         0.93727E-10         0.00000E+00
    0.86075E-08         0.81309E-10         0.00000E+00
    0.86467E-08         0.70746E-10         0.00000E+00
    0.86814E-08         0.61076E-10         0.00000E+00
    0.87113E-08         0.51979E-10         0.00000E+00
    0.87366E-08         0.43351E-10         0.00000E+00
    0.87574E-08         0.35147E-10         0.00000E+00
    0.87739E-08         0.27329E-10         0.00000E+00
    0.87862E-08         0.19876E-10         0.00000E+00
    0.87946E-08         0.12851E-10         0.00000E+00
    0.87995E-08         0.67118E-11         0.00000E+00
    0.88013E-08         0.31640E-11         0.00000E+00
    0.83460E-08         0.12568E-10         0.00000E+00
    0.83883E-08         0.28600E-10         0.00000E+00
    0.84549E-08         0.37296E-10         0.00000E+00
    0.85290E-08         0.36176E-10         0.00000E+00
    0.85959E-08         0.30384E-10         0.00000E+00
    0.86529E-08         0.26199E-10         0.00000E+00
    0.87019E-08         0.22541E-10         0.00000E+00
    0.87439E-08         0.19151E-10         0.00000E+00
    0.87792E-08         0.15968E-10         0.00000E+00
    0.88083E-08         0.12964E-10         0.00000E+00
    0.88316E-08         0.10119E-10         0.00000E+00
    0.88493E-08         0.74127E-11         0.00000E+00
    0.88617E-08         0.48448E-11         0.00000E+00
    0.88692E-08         0.25317E-11         0.00000E+00
    0.88736E-08         0.16043E-11         0.00000E+00
POINT_DATA        496
VECTORS vDarcyNodal double 
    0.23674E-09        -0.18344E-10         0.00000E+00
    0.23693E-09        -0.36682E-10         0.00000E+00
    0.23722E-09        -0.73532E-10         0.00000E+00
    0.23739E-09        -0.11078E-09         0.00000E+00
    0.23730E-09        -0.14847E-09         0.00000E+00
    0.23693E-09        -0.18646E-09         0.00000E+00
    0.23633E-09        -0.22455E-09         0.00000E+00
    0.23557E-09        -0.26251E-09         0.00000E+00
    0.23472E-09        -0.29266E-09         0.00000E+00
    0.23404E-09        -0.29657E-09         0.00000E+00
    0.23360E-09        -0.26941E-09         0.00000E+00
    0.23319E-09        -0.22688E-09         0.00000E+00
    0.23286E-09        -0.17862E-09         0.00000E+00
    0.23262E-09        -0.12470E-09         0.00000E+00
    0.23248E-09        -0.65115E-10         0.00000E+00
    0.23244E-09        -0.33900E-10         0.00000E+00
    0.47316E-09        -0.18534E-10         0.00000E+00
    0.47352E-09        -0.36923E-10         0.00000E+00
    0.47408E-09        -0.73766E-10         0.00000E+00
    0.47444E-09        -0.11083E-09         0.00000E+00
    0.47432E-09        -0.14824E-09         0.00000E+00
    0.47362E-09        -0.18598E-09         0.00000E+00
    0.47242E-09        -0.22387E-09         0.00000E+00
    0.47089E-09        -0.26170E-09         0.00000E+00
    0.46914E-09        -0.29190E-09         0.00000E+00
    0.46776E-09        -0.29602E-09         0.00000E+00
    0.46689E-09        -0.26899E-09         0.00000E+00
    0.46606E-09        -0.22651E-09         0.00000E+00
    0.46539E-09        -0.17834E-09         0.00000E+00
    0.46492E-09        -0.12452E-09         0.00000E+00
    0.46464E-09        -0.65026E-10         0.00000E+00
    0.46456E-09        -0.33858E-10         0.00000E+00
    0.94501E-09        -0.19071E-10         0.00000E+00
    0.94566E-09        -0.37620E-10         0.00000E+00
    0.94674E-09        -0.74476E-10         0.00000E+00
    0.94752E-09        -0.11104E-09         0.00000E+00
    0.94744E-09        -0.14766E-09         0.00000E+00
    0.94623E-09        -0.18459E-09         0.00000E+00
    0.94393E-09        -0.22183E-09         0.00000E+00
    0.94081E-09        -0.25923E-09         0.00000E+00
    0.93716E-09        -0.28955E-09         0.00000E+00
    0.93431E-09        -0.29433E-09         0.00000E+00
    0.93249E-09        -0.26772E-09         0.00000E+00
    0.93081E-09        -0.22540E-09         0.00000E+00
    0.92948E-09        -0.17751E-09         0.00000E+00
    0.92855E-09        -0.12398E-09         0.00000E+00
    0.92800E-09        -0.64764E-10         0.00000E+00
    0.92783E-09        -0.33732E-10         0.00000E+00
    0.14143E-08        -0.19857E-10         0.00000E+00
    0.14151E-08        -0.38685E-10         0.00000E+00
    0.14166E-08        -0.75662E-10         0.00000E+00
    0.14178E-08        -0.11156E-09         0.00000E+00
    0.14180E-08        -0.14699E-09         0.00000E+00
    0.14167E-08        -0.18250E-09         0.00000E+00
    0.14135E-08        -0.21848E-09         0.00000E+00
    0.14089E-08        -0.25495E-09         0.00000E+00
    0.14031E-08        -0.28543E-09         0.00000E+00
    0.13985E-08        -0.29138E-09         0.00000E+00
    0.13956E-08        -0.26554E-09         0.00000E+00
    0.13930E-08        -0.22354E-09         0.00000E+00
    0.13910E-08        -0.17611E-09         0.00000E+00
    0.13896E-08        -0.12307E-09         0.00000E+00
    0.13888E-08        -0.64330E-10         0.00000E+00
    0.13885E-08        -0.33525E-10         0.00000E+00
    0.18799E-08        -0.20751E-10         0.00000E+00
    0.18807E-08        -0.39967E-10         0.00000E+00
    0.18824E-08        -0.77243E-10         0.00000E+00
    0.18840E-08        -0.11253E-09         0.00000E+00
    0.18846E-08        -0.14655E-09         0.00000E+00
    0.18835E-08        -0.18012E-09         0.00000E+00
    0.18801E-08        -0.21405E-09         0.00000E+00
    0.18741E-08        -0.24884E-09         0.00000E+00
    0.18661E-08        -0.27922E-09         0.00000E+00
    0.18593E-08        -0.28684E-09         0.00000E+00
    0.18550E-08        -0.26230E-09         0.00000E+00
    0.18514E-08        -0.22089E-09         0.00000E+00
    0.18487E-08        -0.17415E-09         0.00000E+00
    0.18468E-08        -0.12181E-09         0.00000E+00
    0.18457E-08        -0.63724E-10         0.00000E+00
    0.18454E-08        -0.33237E-10         0.00000E+00
    0.23405E-08        -0.21604E-10         0.00000E+00
    0.23412E-08        -0.41265E-10         0.00000E+00
    0.23428E-08        -0.79015E-10         0.00000E+00
    0.23446E-08        -0.11391E-09         0.00000E+00
    0.23456E-08        -0.14661E-09         0.00000E+00
    0.23451E-08        -0.17798E-09         0.00000E+00
    0.23419E-08        -0.20911E-09         0.00000E+00
    0.23353E-08        -0.24108E-09         0.00000E+00
    0.23254E-08        -0.27065E-09         0.00000E+00
    0.23157E-08        -0.28026E-09         0.00000E+00
    0.23094E-08        -0.25773E-09         0.00000E+00
    0.23049E-08        -0.21735E-09         0.00000E+00
    0.23014E-08        -0.17158E-09         0.00000E+00
    0.22989E-08        -0.12015E-09         0.00000E+00
    0.22975E-08        -0.62935E-10         0.00000E+00
    0.22971E-08        -0.32866E-10         0.00000E+00
    0.27950E-08        -0.22297E-10         0.00000E+00
    0.27956E-08        -0.42386E-10         0.00000E+00
    0.27968E-08        -0.80684E-10         0.00000E+00
    0.27984E-08        -0.11544E-09         0.00000E+00
    0.27995E-08        -0.14715E-09         0.00000E+00
    0.27995E-08        -0.17647E-09         0.00000E+00
    0.27970E-08        -0.20438E-09         0.00000E+00
    0.27907E-08        -0.23235E-09         0.00000E+00
    0.27796E-08        -0.25966E-09         0.00000E+00
    0.27669E-08        -0.27092E-09         0.00000E+00
    0.27577E-08        -0.25151E-09         0.00000E+00
    0.27522E-08        -0.21296E-09         0.00000E+00
    0.27477E-08        -0.16828E-09         0.00000E+00
    0.27446E-08        -0.11802E-09         0.00000E+00
    0.27428E-08        -0.61935E-10         0.00000E+00
    0.27423E-08        -0.32407E-10         0.00000E+00
    0.32422E-08        -0.22765E-10         0.00000E+00
    0.32426E-08        -0.43179E-10         0.00000E+00
    0.32433E-08        -0.81942E-10         0.00000E+00
    0.32443E-08        -0.11672E-09         0.00000E+00
    0.32450E-08        -0.14779E-09         0.00000E+00
    0.32449E-08        -0.17551E-09         0.00000E+00
    0.32429E-08        -0.20048E-09         0.00000E+00
    0.32376E-08        -0.22380E-09         0.00000E+00
    0.32270E-08        -0.24689E-09         0.00000E+00
    0.32119E-08        -0.25840E-09         0.00000E+00
    0.31992E-08        -0.24311E-09         0.00000E+00
    0.31922E-08        -0.20747E-09         0.00000E+00
    0.31865E-08        -0.16402E-09         0.00000E+00
    0.31824E-08        -0.11529E-09         0.00000E+00
    0.31802E-08        -0.60686E-10         0.00000E+00
    0.31795E-08        -0.31855E-10         0.00000E+00
    0.36808E-08        -0.22983E-10         0.00000E+00
    0.36809E-08        -0.43554E-10         0.00000E+00
    0.36810E-08        -0.82533E-10         0.00000E+00
    0.36811E-08        -0.11726E-09         0.00000E+00
    0.36808E-08        -0.14787E-09         0.00000E+00
    0.36799E-08        -0.17447E-09         0.00000E+00
    0.36776E-08        -0.19721E-09         0.00000E+00
    0.36729E-08        -0.21658E-09         0.00000E+00
    0.36639E-08        -0.23402E-09         0.00000E+00
    0.36484E-08        -0.24319E-09         0.00000E+00
    0.36335E-08        -0.23194E-09         0.00000E+00
    0.36236E-08        -0.20028E-09         0.00000E+00
    0.36163E-08        -0.15855E-09         0.00000E+00
    0.36111E-08        -0.11182E-09         0.00000E+00
    0.36082E-08        -0.59130E-10         0.00000E+00
    0.36075E-08        -0.31196E-10         0.00000E+00
    0.41095E-08        -0.22946E-10         0.00000E+00
    0.41092E-08        -0.43458E-10         0.00000E+00
    0.41086E-08        -0.82263E-10         0.00000E+00
    0.41075E-08        -0.11667E-09         0.00000E+00
    0.41058E-08        -0.14671E-09         0.00000E+00
    0.41032E-08        -0.17236E-09         0.00000E+00
    0.40994E-08        -0.19358E-09         0.00000E+00
    0.40940E-08        -0.21029E-09         0.00000E+00
    0.40858E-08        -0.22256E-09         0.00000E+00
    0.40723E-08        -0.22799E-09         0.00000E+00
    0.40572E-08        -0.21833E-09         0.00000E+00
    0.40452E-08        -0.19043E-09         0.00000E+00
    0.40363E-08        -0.15167E-09         0.00000E+00
    0.40294E-08        -0.10730E-09         0.00000E+00
    0.40254E-08        -0.57119E-10         0.00000E+00
    0.40246E-08        -0.30416E-10         0.00000E+00
    0.45267E-08        -0.22644E-10         0.00000E+00
    0.45262E-08        -0.42835E-10         0.00000E+00
    0.45247E-08        -0.80964E-10         0.00000E+00
    0.45222E-08        -0.11459E-09         0.00000E+00
    0.45186E-08        -0.14369E-09         0.00000E+00
    0.45137E-08        -0.16823E-09         0.00000E+00
    0.45075E-08        -0.18811E-09         0.00000E+00
    0.44997E-08        -0.20305E-09         0.00000E+00
    0.44901E-08        -0.21243E-09         0.00000E+00
    0.44779E-08        -0.21474E-09         0.00000E+00
    0.44641E-08        -0.20492E-09         0.00000E+00
    0.44527E-08        -0.17947E-09         0.00000E+00
    0.44439E-08        -0.14285E-09         0.00000E+00
    0.44363E-08        -0.10100E-09         0.00000E+00
    0.44305E-08        -0.54394E-10         0.00000E+00
    0.44288E-08        -0.29508E-10         0.00000E+00
    0.49310E-08        -0.22043E-10         0.00000E+00
    0.49302E-08        -0.41611E-10         0.00000E+00
    0.49278E-08        -0.78458E-10         0.00000E+00
    0.49236E-08        -0.11072E-09         0.00000E+00
    0.49178E-08        -0.13837E-09         0.00000E+00
    0.49102E-08        -0.16138E-09         0.00000E+00
    0.49008E-08        -0.17967E-09         0.00000E+00
    0.48897E-08        -0.19303E-09         0.00000E+00
    0.48770E-08        -0.20089E-09         0.00000E+00
    0.48631E-08        -0.20210E-09         0.00000E+00
    0.48486E-08        -0.19318E-09         0.00000E+00
    0.48374E-08        -0.17032E-09         0.00000E+00
    0.48302E-08        -0.13547E-09         0.00000E+00
    0.48246E-08        -0.94043E-10         0.00000E+00
    0.48192E-08        -0.49663E-10         0.00000E+00
    0.48155E-08        -0.27060E-10         0.00000E+00
    0.53212E-08        -0.21086E-10         0.00000E+00
    0.53200E-08        -0.39676E-10         0.00000E+00
    0.53164E-08        -0.74539E-10         0.00000E+00
    0.53103E-08        -0.10477E-09         0.00000E+00
    0.53020E-08        -0.13037E-09         0.00000E+00
    0.52913E-08        -0.15137E-09         0.00000E+00
    0.52785E-08        -0.16776E-09         0.00000E+00
    0.52638E-08        -0.17940E-09         0.00000E+00
    0.52475E-08        -0.18591E-09         0.00000E+00
    0.52300E-08        -0.18644E-09         0.00000E+00
    0.52123E-08        -0.17935E-09         0.00000E+00
    0.51972E-08        -0.16117E-09         0.00000E+00
    0.51876E-08        -0.13020E-09         0.00000E+00
    0.51825E-08        -0.90050E-10         0.00000E+00
    0.51792E-08        -0.45350E-10         0.00000E+00
    0.51757E-08        -0.22303E-10         0.00000E+00
    0.56958E-08        -0.19694E-10         0.00000E+00
    0.56941E-08        -0.36896E-10         0.00000E+00
    0.56891E-08        -0.68983E-10         0.00000E+00
    0.56809E-08        -0.96464E-10         0.00000E+00
    0.56698E-08        -0.11943E-09         0.00000E+00
    0.56559E-08        -0.13802E-09         0.00000E+00
    0.56396E-08        -0.15228E-09         0.00000E+00
    0.56215E-08        -0.16214E-09         0.00000E+00
    0.56018E-08        -0.16728E-09         0.00000E+00
    0.55811E-08        -0.16707E-09         0.00000E+00
    0.55601E-08        -0.16044E-09         0.00000E+00
    0.55402E-08        -0.14572E-09         0.00000E+00
    0.55245E-08        -0.12086E-09         0.00000E+00
    0.55150E-08        -0.85726E-10         0.00000E+00
    0.55105E-08        -0.42946E-10         0.00000E+00
    0.55088E-08        -0.20063E-10         0.00000E+00
    0.60535E-08        -0.17770E-10         0.00000E+00
    0.60512E-08        -0.33117E-10         0.00000E+00
    0.60447E-08        -0.61558E-10         0.00000E+00
    0.60342E-08        -0.85586E-10         0.00000E+00
    0.60201E-08        -0.10543E-09         0.00000E+00
    0.60030E-08        -0.12135E-09         0.00000E+00
    0.59835E-08        -0.13345E-09         0.00000E+00
    0.59623E-08        -0.14166E-09         0.00000E+00
    0.59399E-08        -0.14564E-09         0.00000E+00
    0.59169E-08        -0.14485E-09         0.00000E+00
    0.58938E-08        -0.13855E-09         0.00000E+00
    0.58717E-08        -0.12568E-09         0.00000E+00
    0.58525E-08        -0.10506E-09         0.00000E+00
    0.58385E-08        -0.76049E-10         0.00000E+00
    0.58310E-08        -0.39259E-10         0.00000E+00
    0.58293E-08        -0.19103E-10         0.00000E+00
    0.63932E-08        -0.15209E-10         0.00000E+00
    0.63902E-08        -0.28177E-10         0.00000E+00
    0.63819E-08        -0.52043E-10         0.00000E+00
    0.63688E-08        -0.71968E-10         0.00000E+00
    0.63517E-08        -0.88375E-10         0.00000E+00
    0.63317E-08        -0.10161E-09         0.00000E+00
    0.63096E-08        -0.11176E-09         0.00000E+00
    0.62861E-08        -0.11864E-09         0.00000E+00
    0.62618E-08        -0.12187E-09         0.00000E+00
    0.62373E-08        -0.12097E-09         0.00000E+00
    0.62134E-08        -0.11540E-09         0.00000E+00
    0.61910E-08        -0.10454E-09         0.00000E+00
    0.61716E-08        -0.87736E-10         0.00000E+00
    0.61567E-08        -0.64301E-10         0.00000E+00
    0.61478E-08        -0.33719E-10         0.00000E+00
    0.61451E-08        -0.16590E-10         0.00000E+00
    0.67137E-08        -0.11908E-10         0.00000E+00
    0.67100E-08        -0.21909E-10         0.00000E+00
    0.66996E-08        -0.40221E-10         0.00000E+00
    0.66837E-08        -0.55533E-10         0.00000E+00
    0.66639E-08        -0.68466E-10         0.00000E+00
    0.66414E-08        -0.79288E-10         0.00000E+00
    0.66173E-08        -0.87886E-10         0.00000E+00
    0.65922E-08        -0.93907E-10         0.00000E+00
    0.65669E-08        -0.96927E-10         0.00000E+00
    0.65420E-08        -0.96532E-10         0.00000E+00
    0.65182E-08        -0.92336E-10         0.00000E+00
    0.64966E-08        -0.83941E-10         0.00000E+00
    0.64781E-08        -0.70836E-10         0.00000E+00
    0.64638E-08        -0.52315E-10         0.00000E+00
    0.64548E-08        -0.27726E-10         0.00000E+00
    0.64521E-08        -0.13853E-10         0.00000E+00
    0.70139E-08        -0.78392E-11         0.00000E+00
    0.70093E-08        -0.14107E-10         0.00000E+00
    0.69963E-08        -0.25840E-10         0.00000E+00
    0.69777E-08        -0.36376E-10         0.00000E+00
    0.69557E-08        -0.46179E-10         0.00000E+00
    0.69315E-08        -0.55094E-10         0.00000E+00
    0.69062E-08        -0.62635E-10         0.00000E+00
    0.68804E-08        -0.68298E-10         0.00000E+00
    0.68548E-08        -0.71655E-10         0.00000E+00
    0.68302E-08        -0.72361E-10         0.00000E+00
    0.68072E-08        -0.70096E-10         0.00000E+00
    0.67868E-08        -0.64488E-10         0.00000E+00
    0.67696E-08        -0.55018E-10         0.00000E+00
    0.67564E-08        -0.41030E-10         0.00000E+00
    0.67479E-08        -0.21997E-10         0.00000E+00
    0.67453E-08        -0.11175E-10         0.00000E+00
    0.72928E-08        -0.28060E-11         0.00000E+00
    0.72868E-08        -0.44070E-11         0.00000E+00
    0.72709E-08        -0.86863E-11         0.00000E+00
    0.72500E-08        -0.14904E-10         0.00000E+00
    0.72265E-08        -0.22299E-10         0.00000E+00
    0.72016E-08        -0.29866E-10         0.00000E+00
    0.71759E-08        -0.36800E-10         0.00000E+00
    0.71500E-08        -0.42541E-10         0.00000E+00
    0.71248E-08        -0.46703E-10         0.00000E+00
    0.71009E-08        -0.48968E-10         0.00000E+00
    0.70791E-08        -0.48992E-10         0.00000E+00
    0.70600E-08        -0.46340E-10         0.00000E+00
    0.70441E-08        -0.40455E-10         0.00000E+00
    0.70320E-08        -0.30738E-10         0.00000E+00
    0.70244E-08        -0.16768E-10         0.00000E+00
    0.70220E-08        -0.86884E-11         0.00000E+00
    0.75479E-08         0.41371E-11         0.00000E+00
    0.75406E-08         0.78190E-11         0.00000E+00
    0.75225E-08         0.10958E-10         0.00000E+00
    0.75000E-08         0.79599E-11         0.00000E+00
    0.74761E-08         0.22460E-11         0.00000E+00
    0.74511E-08        -0.44094E-11         0.00000E+00
    0.74256E-08        -0.11056E-10         0.00000E+00
    0.74003E-08        -0.17216E-10         0.00000E+00
    0.73759E-08        -0.22532E-10         0.00000E+00
    0.73532E-08        -0.26650E-10         0.00000E+00
    0.73327E-08        -0.29151E-10         0.00000E+00
    0.73149E-08        -0.29514E-10         0.00000E+00
    0.73004E-08        -0.27140E-10         0.00000E+00
    0.72895E-08        -0.21451E-10         0.00000E+00
    0.72827E-08        -0.12068E-10         0.00000E+00
    0.72805E-08        -0.64260E-11         0.00000E+00
    0.77787E-08         0.11871E-10         0.00000E+00
    0.77708E-08         0.21031E-10         0.00000E+00
    0.77521E-08         0.31872E-10         0.00000E+00
    0.77283E-08         0.31482E-10         0.00000E+00
    0.77042E-08         0.26661E-10         0.00000E+00
    0.76796E-08         0.20700E-10         0.00000E+00
    0.76548E-08         0.14065E-10         0.00000E+00
    0.76305E-08         0.72004E-11         0.00000E+00
    0.76074E-08         0.49166E-12         0.00000E+00
    0.75861E-08        -0.56404E-11         0.00000E+00
    0.75671E-08        -0.10684E-10         0.00000E+00
    0.75508E-08        -0.14033E-10         0.00000E+00
    0.75376E-08        -0.15042E-10         0.00000E+00
    0.75278E-08        -0.13117E-10         0.00000E+00
    0.75218E-08        -0.78718E-11         0.00000E+00
    0.75198E-08        -0.43883E-11         0.00000E+00
    0.79851E-08         0.19891E-10         0.00000E+00
    0.79779E-08         0.34522E-10         0.00000E+00
    0.79594E-08         0.53599E-10         0.00000E+00
    0.79348E-08         0.55879E-10         0.00000E+00
    0.79102E-08         0.51084E-10         0.00000E+00
    0.78861E-08         0.45167E-10         0.00000E+00
    0.78624E-08         0.38109E-10         0.00000E+00
    0.78397E-08         0.30253E-10         0.00000E+00
    0.78184E-08         0.21983E-10         0.00000E+00
    0.77989E-08         0.13780E-10         0.00000E+00
    0.77817E-08         0.62335E-11         0.00000E+00
    0.77670E-08         0.15905E-13         0.00000E+00
    0.77553E-08        -0.41749E-11         0.00000E+00
    0.77466E-08        -0.57117E-11         0.00000E+00
    0.77413E-08        -0.41589E-11         0.00000E+00
    0.77396E-08        -0.25720E-11         0.00000E+00
    0.81621E-08         0.26392E-10         0.00000E+00
    0.81570E-08         0.46914E-10         0.00000E+00
    0.81407E-08         0.75178E-10         0.00000E+00
    0.81170E-08         0.80843E-10         0.00000E+00
    0.80926E-08         0.75570E-10         0.00000E+00
    0.80696E-08         0.68643E-10         0.00000E+00
    0.80477E-08         0.60573E-10         0.00000E+00
    0.80272E-08         0.51399E-10         0.00000E+00
    0.80083E-08         0.41449E-10         0.00000E+00
    0.79912E-08         0.31212E-10         0.00000E+00
    0.79762E-08         0.21308E-10         0.00000E+00
    0.79635E-08         0.12447E-10         0.00000E+00
    0.79533E-08         0.53661E-11         0.00000E+00
    0.79459E-08         0.73736E-12         0.00000E+00
    0.79414E-08        -0.93356E-12         0.00000E+00
    0.79399E-08        -0.98051E-12         0.00000E+00
    0.83072E-08         0.30353E-10         0.00000E+00
    0.83036E-08         0.56271E-10         0.00000E+00
    0.82911E-08         0.93868E-10         0.00000E+00
    0.82711E-08         0.10417E-09         0.00000E+00
    0.82490E-08         0.98809E-10         0.00000E+00
    0.82285E-08         0.90304E-10         0.00000E+00
    0.82096E-08         0.80662E-10         0.00000E+00
    0.81923E-08         0.69882E-10         0.00000E+00
    0.81767E-08         0.58209E-10         0.00000E+00
    0.81627E-08         0.46087E-10         0.00000E+00
    0.81505E-08         0.34109E-10         0.00000E+00
    0.81402E-08         0.22969E-10         0.00000E+00
    0.81319E-08         0.13410E-10         0.00000E+00
    0.81259E-08         0.61495E-11         0.00000E+00
    0.81222E-08         0.17776E-11         0.00000E+00
    0.81210E-08         0.37582E-12         0.00000E+00
    0.84200E-08         0.33826E-10         0.00000E+00
    0.84171E-08         0.63372E-10         0.00000E+00
    0.84085E-08         0.10817E-09         0.00000E+00
    0.83940E-08         0.12328E-09         0.00000E+00
    0.83770E-08         0.11846E-09         0.00000E+00
    0.83612E-08         0.10841E-09         0.00000E+00
    0.83471E-08         0.97041E-10         0.00000E+00
    0.83345E-08         0.84582E-10         0.00000E+00
    0.83233E-08         0.71318E-10         0.00000E+00
    0.83135E-08         0.57642E-10         0.00000E+00
    0.83048E-08         0.44059E-10         0.00000E+00
    0.82974E-08         0.31182E-10         0.00000E+00
    0.82913E-08         0.19714E-10         0.00000E+00
    0.82869E-08         0.10400E-10         0.00000E+00
    0.82842E-08         0.39277E-11         0.00000E+00
    0.82832E-08         0.14799E-11         0.00000E+00
    0.84983E-08         0.36565E-10         0.00000E+00
    0.84964E-08         0.68254E-10         0.00000E+00
    0.84920E-08         0.11753E-09         0.00000E+00
    0.84844E-08         0.13612E-09         0.00000E+00
    0.84750E-08         0.13194E-09         0.00000E+00
    0.84665E-08         0.12066E-09         0.00000E+00
    0.84593E-08         0.10781E-09         0.00000E+00
    0.84533E-08         0.93959E-10         0.00000E+00
    0.84482E-08         0.79537E-10         0.00000E+00
    0.84436E-08         0.64903E-10         0.00000E+00
    0.84394E-08         0.50432E-10         0.00000E+00
    0.84356E-08         0.36587E-10         0.00000E+00
    0.84322E-08         0.23973E-10         0.00000E+00
    0.84296E-08         0.13333E-10         0.00000E+00
    0.84279E-08         0.54611E-11         0.00000E+00
    0.84273E-08         0.23151E-11         0.00000E+00
    0.85399E-08         0.37991E-10         0.00000E+00
    0.85397E-08         0.70277E-10         0.00000E+00
    0.85407E-08         0.12096E-09         0.00000E+00
    0.85416E-08         0.14092E-09         0.00000E+00
    0.85423E-08         0.13682E-09         0.00000E+00
    0.85440E-08         0.12450E-09         0.00000E+00
    0.85464E-08         0.11067E-09         0.00000E+00
    0.85491E-08         0.96137E-10         0.00000E+00
    0.85516E-08         0.81393E-10         0.00000E+00
    0.85536E-08         0.66732E-10         0.00000E+00
    0.85549E-08         0.52374E-10         0.00000E+00
    0.85554E-08         0.38590E-10         0.00000E+00
    0.85552E-08         0.25822E-10         0.00000E+00
    0.85547E-08         0.14763E-10         0.00000E+00
    0.85542E-08         0.63131E-11         0.00000E+00
    0.85538E-08         0.28626E-11         0.00000E+00
    0.85414E-08         0.37413E-10         0.00000E+00
    0.85438E-08         0.68251E-10         0.00000E+00
    0.85526E-08         0.11654E-09         0.00000E+00
    0.85654E-08         0.13519E-09         0.00000E+00
    0.85795E-08         0.13023E-09         0.00000E+00
    0.85945E-08         0.11715E-09         0.00000E+00
    0.86092E-08         0.10320E-09         0.00000E+00
    0.86226E-08         0.89165E-10         0.00000E+00
    0.86344E-08         0.75375E-10         0.00000E+00
    0.86442E-08         0.61957E-10         0.00000E+00
    0.86520E-08         0.48973E-10         0.00000E+00
    0.86575E-08         0.36514E-10         0.00000E+00
    0.86611E-08         0.24829E-10         0.00000E+00
    0.86631E-08         0.14475E-10         0.00000E+00
    0.86639E-08         0.64254E-11         0.00000E+00
    0.86638E-08         0.31253E-11         0.00000E+00
    0.84977E-08         0.33861E-10         0.00000E+00
    0.85043E-08         0.60052E-10         0.00000E+00
    0.85260E-08         0.10048E-09         0.00000E+00
    0.85562E-08         0.11491E-09         0.00000E+00
    0.85887E-08         0.10847E-09         0.00000E+00
    0.86207E-08         0.95471E-10         0.00000E+00
    0.86500E-08         0.83082E-10         0.00000E+00
    0.86758E-08         0.71362E-10         0.00000E+00
    0.86979E-08         0.60210E-10         0.00000E+00
    0.87165E-08         0.49566E-10         0.00000E+00
    0.87313E-08         0.39393E-10         0.00000E+00
    0.87427E-08         0.29673E-10         0.00000E+00
    0.87506E-08         0.20469E-10         0.00000E+00
    0.87555E-08         0.12186E-10         0.00000E+00
    0.87580E-08         0.57397E-11         0.00000E+00
    0.87580E-08         0.31192E-11         0.00000E+00
    0.83986E-08         0.25138E-10         0.00000E+00
    0.84160E-08         0.41171E-10         0.00000E+00
    0.84600E-08         0.65899E-10         0.00000E+00
    0.85180E-08         0.73475E-10         0.00000E+00
    0.85760E-08         0.66563E-10         0.00000E+00
    0.86274E-08         0.56586E-10         0.00000E+00
    0.86722E-08         0.48742E-10         0.00000E+00
    0.87110E-08         0.41694E-10         0.00000E+00
    0.87441E-08         0.35121E-10         0.00000E+00
    0.87717E-08         0.28933E-10         0.00000E+00
    0.87941E-08         0.23084E-10         0.00000E+00
    0.88114E-08         0.17532E-10         0.00000E+00
    0.88240E-08         0.12258E-10         0.00000E+00
    0.88322E-08         0.73769E-11         0.00000E+00
    0.88365E-08         0.41363E-11         0.00000E+00
    0.88382E-08         0.32088E-11         0.00000E+00
    0.83334E-08         0.00000E+00         0.00000E+00
    0.83591E-08         0.00000E+00         0.00000E+00
    0.84173E-08        -0.24852E-22         0.00000E+00
    0.84925E-08         0.15656E-26         0.00000E+00
    0.85653E-08         0.28995E-22         0.00000E+00
    0.86265E-08         0.00000E+00         0.00000E+00
    0.86792E-08         0.00000E+00         0.00000E+00
    0.87246E-08        -0.24857E-22         0.00000E+00
    0.87631E-08        -0.24857E-22         0.00000E+00
    0.87953E-08         0.24858E-22         0.00000E+00
    0.88214E-08         0.29001E-22         0.00000E+00
    0.88418E-08        -0.29002E-22         0.00000E+00
    0.88568E-08        -0.41429E-23         0.00000E+00
    0.88666E-08         0.29003E-22         0.00000E+00
    0.88719E-08         0.82867E-23         0.00000E+00
    0.88752E-08         0.00000E+00         0.00000E+00
CELL_DATA        450
TENSORS stressef double 
   -0.22159E+07         0.45740E+04         0.00000E+00
    0.45740E+04        -0.26178E+08         0.00000E+00
    0.00000E+00         0.00000E+00        -0.74016E+07
 
   -0.22359E+07         0.13984E+05         0.00000E+00
    0.13984E+05        -0.26165E+08         0.00000E+00
    0.00000E+00         0.00000E+00        -0.73432E+07
 
   -0.22621E+07         0.22833E+05         0.00000E+00
    0.22833E+05        -0.26139E+08         0.00000E+00
    0.00000E+00         0.00000E+00        -0.72510E+07
 
   -0.23018E+07         0.30334E+05         0.00000E+00
    0.30334E+05        -0.26102E+08         0.00000E+00
    0.00000E+00         0.00000E+00        -0.71167E+07
 
   -0.23638E+07         0.35741E+05         0.00000E+00
    0.35741E+05        -0.26057E+08         0.00000E+00
    0.00000E+00         0.00000E+00        -0.69342E+07
 
   -0.24532E+07         0.38716E+05         0.00000E+00
    0.38716E+05        -0.26009E+08         0.00000E+00
    0.00000E+00         0.00000E+00        -0.67067E+07
 
   -0.25719E+07         0.39731E+05         0.00000E+00
    0.39731E+05        -0.25962E+08         0.00000E+00
    0.00000E+00         0.00000E+00        -0.64435E+07
 
   -0.27164E+07         0.39326E+05         0.00000E+00
    0.39326E+05        -0.25920E+08         0.00000E+00
    0.00000E+00         0.00000E+00        -0.61600E+07
 
   -0.28787E+07         0.38144E+05         0.00000E+00
    0.38144E+05        -0.25885E+08         0.00000E+00
    0.00000E+00         0.00000E+00        -0.58728E+07
 
   -0.33374E+07         0.39795E+05         0.00000E+00
    0.39795E+05        -0.25849E+08         0.00000E+00
    0.00000E+00         0.00000E+00        -0.58374E+07
 
   -0.39408E+07         0.46282E+05         0.00000E+00
    0.46282E+05        -0.25802E+08         0.00000E+00
    0.00000E+00         0.00000E+00        -0.59485E+07
 
   -0.45052E+07         0.55677E+05         0.00000E+00
    0.55677E+05        -0.25732E+08         0.00000E+00
    0.00000E+00         0.00000E+00        -0.60474E+07
 
   -0.50400E+07         0.67935E+05         0.00000E+00
    0.67935E+05        -0.25634E+08         0.00000E+00
    0.00000E+00         0.00000E+00        -0.61347E+07
 
   -0.55544E+07         0.83039E+05         0.00000E+00
    0.83039E+05        -0.25501E+08         0.00000E+00
    0.00000E+00         0.00000E+00        -0.62110E+07
 
   -0.60573E+07         0.10095E+06         0.00000E+00
    0.10095E+06        -0.25326E+08         0.00000E+00
    0.00000E+00         0.00000E+00        -0.62767E+07
 
   -0.22636E+07         0.13471E+05         0.00000E+00
    0.13471E+05        -0.26245E+08         0.00000E+00
    0.00000E+00         0.00000E+00        -0.74367E+07
 
   -0.22841E+07         0.41268E+05         0.00000E+00
    0.41268E+05        -0.26233E+08         0.00000E+00
    0.00000E+00         0.00000E+00        -0.73796E+07
 
   -0.23121E+07         0.67489E+05         0.00000E+00
    0.67489E+05        -0.26208E+08         0.00000E+00
    0.00000E+00         0.00000E+00        -0.72880E+07
 
   -0.23553E+07         0.89840E+05         0.00000E+00
    0.89840E+05        -0.26173E+08         0.00000E+00
    0.00000E+00         0.00000E+00        -0.71527E+07
 
   -0.24219E+07         0.10605E+06         0.00000E+00
    0.10605E+06        -0.26131E+08         0.00000E+00
    0.00000E+00         0.00000E+00        -0.69677E+07
 
   -0.25155E+07         0.11507E+06         0.00000E+00
    0.11507E+06        -0.26085E+08         0.00000E+00
    0.00000E+00         0.00000E+00        -0.67384E+07
 
   -0.26374E+07         0.11817E+06         0.00000E+00
    0.11817E+06        -0.26040E+08         0.00000E+00
    0.00000E+00         0.00000E+00        -0.64744E+07
 
   -0.27839E+07         0.11691E+06         0.00000E+00
    0.11691E+06        -0.26000E+08         0.00000E+00
    0.00000E+00         0.00000E+00        -0.61920E+07
 
   -0.29471E+07         0.11334E+06         0.00000E+00
    0.11334E+06        -0.25966E+08         0.00000E+00
    0.00000E+00         0.00000E+00        -0.59075E+07
 
   -0.33929E+07         0.11837E+06         0.00000E+00
    0.11837E+06        -0.25933E+08         0.00000E+00
    0.00000E+00         0.00000E+00        -0.58652E+07
 
   -0.39903E+07         0.13785E+06         0.00000E+00
    0.13785E+06        -0.25887E+08         0.00000E+00
    0.00000E+00         0.00000E+00        -0.59755E+07
 
   -0.45489E+07         0.16599E+06         0.00000E+00
    0.16599E+06        -0.25819E+08         0.00000E+00
    0.00000E+00         0.00000E+00        -0.60736E+07
 
   -0.50779E+07         0.20271E+06         0.00000E+00
    0.20271E+06        -0.25723E+08         0.00000E+00
    0.00000E+00         0.00000E+00        -0.61602E+07
 
   -0.55866E+07         0.24797E+06         0.00000E+00
    0.24797E+06        -0.25592E+08         0.00000E+00
    0.00000E+00         0.00000E+00        -0.62358E+07
 
   -0.60839E+07         0.30167E+06         0.00000E+00
    0.30167E+06        -0.25420E+08         0.00000E+00
    0.00000E+00         0.00000E+00        -0.63008E+07
 
   -0.23597E+07         0.21700E+05         0.00000E+00
    0.21700E+05        -0.26377E+08         0.00000E+00
    0.00000E+00         0.00000E+00        -0.75054E+07
 
   -0.23809E+07         0.66590E+05         0.00000E+00
    0.66590E+05        -0.26367E+08         0.00000E+00
    0.00000E+00         0.00000E+00        -0.74509E+07
 
   -0.24125E+07         0.10921E+06         0.00000E+00
    0.10921E+06        -0.26346E+08         0.00000E+00
    0.00000E+00         0.00000E+00        -0.73602E+07
 
   -0.24623E+07         0.14571E+06         0.00000E+00
    0.14571E+06        -0.26316E+08         0.00000E+00
    0.00000E+00         0.00000E+00        -0.72235E+07
 
   -0.25379E+07         0.17249E+06         0.00000E+00
    0.17249E+06        -0.26279E+08         0.00000E+00
    0.00000E+00         0.00000E+00        -0.70349E+07
 
   -0.26399E+07         0.18797E+06         0.00000E+00
    0.18797E+06        -0.26238E+08         0.00000E+00
    0.00000E+00         0.00000E+00        -0.68029E+07
 
   -0.27685E+07         0.19352E+06         0.00000E+00
    0.19352E+06        -0.26197E+08         0.00000E+00
    0.00000E+00         0.00000E+00        -0.65379E+07
 
   -0.29190E+07         0.19150E+06         0.00000E+00
    0.19150E+06        -0.26161E+08         0.00000E+00
    0.00000E+00         0.00000E+00        -0.62573E+07
 
   -0.30838E+07         0.18548E+06         0.00000E+00
    0.18548E+06        -0.26130E+08         0.00000E+00
    0.00000E+00         0.00000E+00        -0.59775E+07
 
   -0.35036E+07         0.19399E+06         0.00000E+00
    0.19399E+06        -0.26100E+08         0.00000E+00
    0.00000E+00         0.00000E+00        -0.59208E+07
 
   -0.40892E+07         0.22644E+06         0.00000E+00
    0.22644E+06        -0.26058E+08         0.00000E+00
    0.00000E+00         0.00000E+00        -0.60294E+07
 
   -0.46361E+07         0.27317E+06         0.00000E+00
    0.27317E+06        -0.25994E+08         0.00000E+00
    0.00000E+00         0.00000E+00        -0.61260E+07
 
   -0.51536E+07         0.33423E+06         0.00000E+00
    0.33423E+06        -0.25902E+08         0.00000E+00
    0.00000E+00         0.00000E+00        -0.62111E+07
 
   -0.56509E+07         0.40949E+06         0.00000E+00
    0.40949E+06        -0.25775E+08         0.00000E+00
    0.00000E+00         0.00000E+00        -0.62852E+07
 
   -0.61369E+07         0.49881E+06         0.00000E+00
    0.49881E+06        -0.25608E+08         0.00000E+00
    0.00000E+00         0.00000E+00        -0.63489E+07
 
   -0.25056E+07         0.29045E+05         0.00000E+00
    0.29045E+05        -0.26575E+08         0.00000E+00
    0.00000E+00         0.00000E+00        -0.76053E+07
 
   -0.25274E+07         0.89028E+05         0.00000E+00
    0.89028E+05        -0.26567E+08         0.00000E+00
    0.00000E+00         0.00000E+00        -0.75543E+07
 
   -0.25640E+07         0.14615E+06         0.00000E+00
    0.14615E+06        -0.26551E+08         0.00000E+00
    0.00000E+00         0.00000E+00        -0.74647E+07
 
   -0.26236E+07         0.19522E+06         0.00000E+00
    0.19522E+06        -0.26527E+08         0.00000E+00
    0.00000E+00         0.00000E+00        -0.73257E+07
 
   -0.27111E+07         0.23177E+06         0.00000E+00
    0.23177E+06        -0.26499E+08         0.00000E+00
    0.00000E+00         0.00000E+00        -0.71353E+07
 
   -0.28255E+07         0.25428E+06         0.00000E+00
    0.25428E+06        -0.26467E+08         0.00000E+00
    0.00000E+00         0.00000E+00        -0.69017E+07
 
   -0.29642E+07         0.26336E+06         0.00000E+00
    0.26336E+06        -0.26435E+08         0.00000E+00
    0.00000E+00         0.00000E+00        -0.66369E+07
 
   -0.31211E+07         0.26163E+06         0.00000E+00
    0.26163E+06        -0.26403E+08         0.00000E+00
    0.00000E+00         0.00000E+00        -0.63586E+07
 
   -0.32883E+07         0.25332E+06         0.00000E+00
    0.25332E+06        -0.26376E+08         0.00000E+00
    0.00000E+00         0.00000E+00        -0.60840E+07
 
   -0.36690E+07         0.26491E+06         0.00000E+00
    0.26491E+06        -0.26350E+08         0.00000E+00
    0.00000E+00         0.00000E+00        -0.60039E+07
 
   -0.42374E+07         0.31005E+06         0.00000E+00
    0.31005E+06        -0.26313E+08         0.00000E+00
    0.00000E+00         0.00000E+00        -0.61102E+07
 
   -0.47667E+07         0.37526E+06         0.00000E+00
    0.37526E+06        -0.26255E+08         0.00000E+00
    0.00000E+00         0.00000E+00        -0.62044E+07
 
   -0.52669E+07         0.46043E+06         0.00000E+00
    0.46043E+06        -0.26169E+08         0.00000E+00
    0.00000E+00         0.00000E+00        -0.62872E+07
 
   -0.57471E+07         0.56534E+06         0.00000E+00
    0.56534E+06        -0.26049E+08         0.00000E+00
    0.00000E+00         0.00000E+00        -0.63592E+07
 
   -0.62163E+07         0.68996E+06         0.00000E+00
    0.68996E+06        -0.25888E+08         0.00000E+00
    0.00000E+00         0.00000E+00        -0.64209E+07
 
   -0.27027E+07         0.35368E+05         0.00000E+00
    0.35368E+05        -0.26838E+08         0.00000E+00
    0.00000E+00         0.00000E+00        -0.77331E+07
 
   -0.27254E+07         0.10808E+06         0.00000E+00
    0.10808E+06        -0.26833E+08         0.00000E+00
    0.00000E+00         0.00000E+00        -0.76861E+07
 
   -0.27682E+07         0.17679E+06         0.00000E+00
    0.17679E+06        -0.26822E+08         0.00000E+00
    0.00000E+00         0.00000E+00        -0.75973E+07
 
   -0.28401E+07         0.23553E+06         0.00000E+00
    0.23553E+06        -0.26808E+08         0.00000E+00
    0.00000E+00         0.00000E+00        -0.74563E+07
 
   -0.29416E+07         0.28012E+06         0.00000E+00
    0.28012E+06        -0.26791E+08         0.00000E+00
    0.00000E+00         0.00000E+00        -0.72663E+07
 
   -0.30710E+07         0.30984E+06         0.00000E+00
    0.30984E+06        -0.26773E+08         0.00000E+00
    0.00000E+00         0.00000E+00        -0.70351E+07
 
   -0.32226E+07         0.32449E+06         0.00000E+00
    0.32449E+06        -0.26752E+08         0.00000E+00
    0.00000E+00         0.00000E+00        -0.67748E+07
 
   -0.33887E+07         0.32570E+06         0.00000E+00
    0.32570E+06        -0.26729E+08         0.00000E+00
    0.00000E+00         0.00000E+00        -0.65004E+07
 
   -0.35607E+07         0.31694E+06         0.00000E+00
    0.31694E+06        -0.26706E+08         0.00000E+00
    0.00000E+00         0.00000E+00        -0.62301E+07
 
   -0.38891E+07         0.32952E+06         0.00000E+00
    0.32952E+06        -0.26684E+08         0.00000E+00
    0.00000E+00         0.00000E+00        -0.61147E+07
 
   -0.44344E+07         0.38704E+06         0.00000E+00
    0.38704E+06        -0.26654E+08         0.00000E+00
    0.00000E+00         0.00000E+00        -0.62176E+07
 
   -0.49404E+07         0.47060E+06         0.00000E+00
    0.47060E+06        -0.26602E+08         0.00000E+00
    0.00000E+00         0.00000E+00        -0.63085E+07
 
   -0.54178E+07         0.57937E+06         0.00000E+00
    0.57937E+06        -0.26523E+08         0.00000E+00
    0.00000E+00         0.00000E+00        -0.63882E+07
 
   -0.58753E+07         0.71332E+06         0.00000E+00
    0.71332E+06        -0.26412E+08         0.00000E+00
    0.00000E+00         0.00000E+00        -0.64574E+07
 
   -0.63218E+07         0.87269E+06         0.00000E+00
    0.87269E+06        -0.26260E+08         0.00000E+00
    0.00000E+00         0.00000E+00        -0.65164E+07
 
   -0.29526E+07         0.40649E+05         0.00000E+00
    0.40649E+05        -0.27166E+08         0.00000E+00
    0.00000E+00         0.00000E+00        -0.78859E+07
 
   -0.29767E+07         0.12317E+06         0.00000E+00
    0.12317E+06        -0.27164E+08         0.00000E+00
    0.00000E+00         0.00000E+00        -0.78421E+07
 
   -0.30285E+07         0.19983E+06         0.00000E+00
    0.19983E+06        -0.27160E+08         0.00000E+00
    0.00000E+00         0.00000E+00        -0.77519E+07
 
   -0.31132E+07         0.26420E+06         0.00000E+00
    0.26420E+06        -0.27156E+08         0.00000E+00
    0.00000E+00         0.00000E+00        -0.76109E+07
 
   -0.32302E+07         0.31417E+06         0.00000E+00
    0.31417E+06        -0.27154E+08         0.00000E+00
    0.00000E+00         0.00000E+00        -0.74243E+07
 
   -0.33747E+07         0.34995E+06         0.00000E+00
    0.34995E+06        -0.27152E+08         0.00000E+00
    0.00000E+00         0.00000E+00        -0.72019E+07
 
   -0.35399E+07         0.37237E+06         0.00000E+00
    0.37237E+06        -0.27147E+08         0.00000E+00
    0.00000E+00         0.00000E+00        -0.69532E+07
 
   -0.37182E+07         0.38148E+06         0.00000E+00
    0.38148E+06        -0.27137E+08         0.00000E+00
    0.00000E+00         0.00000E+00        -0.66877E+07
 
   -0.38975E+07         0.37659E+06         0.00000E+00
    0.37659E+06        -0.27120E+08         0.00000E+00
    0.00000E+00         0.00000E+00        -0.64208E+07
 
   -0.41682E+07         0.38742E+06         0.00000E+00
    0.38742E+06        -0.27099E+08         0.00000E+00
    0.00000E+00         0.00000E+00        -0.62608E+07
 
   -0.46794E+07         0.45632E+06         0.00000E+00
    0.45632E+06        -0.27076E+08         0.00000E+00
    0.00000E+00         0.00000E+00        -0.63511E+07
 
   -0.51570E+07         0.55769E+06         0.00000E+00
    0.55769E+06        -0.27033E+08         0.00000E+00
    0.00000E+00         0.00000E+00        -0.64381E+07
 
   -0.56063E+07         0.68934E+06         0.00000E+00
    0.68934E+06        -0.26963E+08         0.00000E+00
    0.00000E+00         0.00000E+00        -0.65139E+07
 
   -0.60355E+07         0.85116E+06         0.00000E+00
    0.85116E+06        -0.26862E+08         0.00000E+00
    0.00000E+00         0.00000E+00        -0.65795E+07
 
   -0.64533E+07         0.10444E+07         0.00000E+00
    0.10444E+07        -0.26722E+08         0.00000E+00
    0.00000E+00         0.00000E+00        -0.66351E+07
 
   -0.32569E+07         0.44672E+05         0.00000E+00
    0.44672E+05        -0.27559E+08         0.00000E+00
    0.00000E+00         0.00000E+00        -0.80603E+07
 
   -0.32848E+07         0.13378E+06         0.00000E+00
    0.13378E+06        -0.27559E+08         0.00000E+00
    0.00000E+00         0.00000E+00        -0.80176E+07
 
   -0.33472E+07         0.21381E+06         0.00000E+00
    0.21381E+06        -0.27563E+08         0.00000E+00
    0.00000E+00         0.00000E+00        -0.79248E+07
 
   -0.34466E+07         0.27962E+06         0.00000E+00
    0.27962E+06        -0.27571E+08         0.00000E+00
    0.00000E+00         0.00000E+00        -0.77837E+07
 
   -0.35786E+07         0.33132E+06         0.00000E+00
    0.33132E+06        -0.27585E+08         0.00000E+00
    0.00000E+00         0.00000E+00        -0.76048E+07
 
   -0.37352E+07         0.37141E+06         0.00000E+00
    0.37141E+06        -0.27601E+08         0.00000E+00
    0.00000E+00         0.00000E+00        -0.73987E+07
 
   -0.39117E+07         0.40205E+06         0.00000E+00
    0.40205E+06        -0.27615E+08         0.00000E+00
    0.00000E+00         0.00000E+00        -0.71701E+07
 
   -0.41018E+07         0.42336E+06         0.00000E+00
    0.42336E+06        -0.27623E+08         0.00000E+00
    0.00000E+00         0.00000E+00        -0.69228E+07
 
   -0.42951E+07         0.43210E+06         0.00000E+00
    0.43210E+06        -0.27619E+08         0.00000E+00
    0.00000E+00         0.00000E+00        -0.66643E+07
 
   -0.45096E+07         0.44144E+06         0.00000E+00
    0.44144E+06        -0.27603E+08         0.00000E+00
    0.00000E+00         0.00000E+00        -0.64488E+07
 
   -0.49726E+07         0.51553E+06         0.00000E+00
    0.51553E+06        -0.27582E+08         0.00000E+00
    0.00000E+00         0.00000E+00        -0.65109E+07
 
   -0.54157E+07         0.63602E+06         0.00000E+00
    0.63602E+06        -0.27546E+08         0.00000E+00
    0.00000E+00         0.00000E+00        -0.65924E+07
 
   -0.58332E+07         0.78847E+06         0.00000E+00
    0.78847E+06        -0.27487E+08         0.00000E+00
    0.00000E+00         0.00000E+00        -0.66640E+07
 
   -0.62281E+07         0.97644E+06         0.00000E+00
    0.97644E+06        -0.27398E+08         0.00000E+00
    0.00000E+00         0.00000E+00        -0.67252E+07
 
   -0.66106E+07         0.12023E+07         0.00000E+00
    0.12023E+07        -0.27272E+08         0.00000E+00
    0.00000E+00         0.00000E+00        -0.67766E+07
 
   -0.36177E+07         0.47139E+05         0.00000E+00
    0.47139E+05        -0.28014E+08         0.00000E+00
    0.00000E+00         0.00000E+00        -0.82531E+07
 
   -0.36521E+07         0.13879E+06         0.00000E+00
    0.13879E+06        -0.28019E+08         0.00000E+00
    0.00000E+00         0.00000E+00        -0.82076E+07
 
   -0.37284E+07         0.21734E+06         0.00000E+00
    0.21734E+06        -0.28031E+08         0.00000E+00
    0.00000E+00         0.00000E+00        -0.81104E+07
 
   -0.38440E+07         0.28032E+06         0.00000E+00
    0.28032E+06        -0.28054E+08         0.00000E+00
    0.00000E+00         0.00000E+00        -0.79706E+07
 
   -0.39875E+07         0.33092E+06         0.00000E+00
    0.33092E+06        -0.28083E+08         0.00000E+00
    0.00000E+00         0.00000E+00        -0.78049E+07
 
   -0.41528E+07         0.37336E+06         0.00000E+00
    0.37336E+06        -0.28116E+08         0.00000E+00
    0.00000E+00         0.00000E+00        -0.76205E+07
 
   -0.43358E+07         0.41070E+06         0.00000E+00
    0.41070E+06        -0.28150E+08         0.00000E+00
    0.00000E+00         0.00000E+00        -0.74191E+07
 
   -0.45327E+07         0.44471E+06         0.00000E+00
    0.44471E+06        -0.28178E+08         0.00000E+00
    0.00000E+00         0.00000E+00        -0.72004E+07
 
   -0.47371E+07         0.47386E+06         0.00000E+00
    0.47386E+06        -0.28194E+08         0.00000E+00
    0.00000E+00         0.00000E+00        -0.69635E+07
 
   -0.49315E+07         0.49594E+06         0.00000E+00
    0.49594E+06        -0.28188E+08         0.00000E+00
    0.00000E+00         0.00000E+00        -0.67187E+07
 
   -0.53037E+07         0.56780E+06         0.00000E+00
    0.56780E+06        -0.28165E+08         0.00000E+00
    0.00000E+00         0.00000E+00        -0.66937E+07
 
   -0.57192E+07         0.70382E+06         0.00000E+00
    0.70382E+06        -0.28139E+08         0.00000E+00
    0.00000E+00         0.00000E+00        -0.67716E+07
 
   -0.60992E+07         0.87495E+06         0.00000E+00
    0.87495E+06        -0.28091E+08         0.00000E+00
    0.00000E+00         0.00000E+00        -0.68380E+07
 
   -0.64541E+07         0.10868E+07         0.00000E+00
    0.10868E+07        -0.28016E+08         0.00000E+00
    0.00000E+00         0.00000E+00        -0.68940E+07
 
   -0.67938E+07         0.13430E+07         0.00000E+00
    0.13430E+07        -0.27908E+08         0.00000E+00
    0.00000E+00         0.00000E+00        -0.69404E+07
 
   -0.40375E+07         0.47663E+05         0.00000E+00
    0.47663E+05        -0.28531E+08         0.00000E+00
    0.00000E+00         0.00000E+00        -0.84594E+07
 
   -0.40821E+07         0.13657E+06         0.00000E+00
    0.13657E+06        -0.28542E+08         0.00000E+00
    0.00000E+00         0.00000E+00        -0.84087E+07
 
   -0.41766E+07         0.20865E+06         0.00000E+00
    0.20865E+06        -0.28565E+08         0.00000E+00
    0.00000E+00         0.00000E+00        -0.83038E+07
 
   -0.43054E+07         0.26584E+06         0.00000E+00
    0.26584E+06        -0.28601E+08         0.00000E+00
    0.00000E+00         0.00000E+00        -0.81702E+07
 
   -0.44579E+07         0.31370E+06         0.00000E+00
    0.31370E+06        -0.28646E+08         0.00000E+00
    0.00000E+00         0.00000E+00        -0.80218E+07
 
   -0.46279E+07         0.35676E+06         0.00000E+00
    0.35676E+06        -0.28696E+08         0.00000E+00
    0.00000E+00         0.00000E+00        -0.78632E+07
 
   -0.48121E+07         0.39901E+06         0.00000E+00
    0.39901E+06        -0.28747E+08         0.00000E+00
    0.00000E+00         0.00000E+00        -0.76937E+07
 
   -0.50080E+07         0.44399E+06         0.00000E+00
    0.44399E+06        -0.28794E+08         0.00000E+00
    0.00000E+00         0.00000E+00        -0.75108E+07
 
   -0.52126E+07         0.49364E+06         0.00000E+00
    0.49364E+06        -0.28829E+08         0.00000E+00
    0.00000E+00         0.00000E+00        -0.73103E+07
 
   -0.54244E+07         0.54309E+06         0.00000E+00
    0.54309E+06        -0.28847E+08         0.00000E+00
    0.00000E+00         0.00000E+00        -0.70852E+07
 
   -0.56786E+07         0.61572E+06         0.00000E+00
    0.61572E+06        -0.28840E+08         0.00000E+00
    0.00000E+00         0.00000E+00        -0.69219E+07
 
   -0.60689E+07         0.75947E+06         0.00000E+00
    0.75947E+06        -0.28809E+08         0.00000E+00
    0.00000E+00         0.00000E+00        -0.69756E+07
 
   -0.64053E+07         0.94860E+06         0.00000E+00
    0.94860E+06        -0.28772E+08         0.00000E+00
    0.00000E+00         0.00000E+00        -0.70355E+07
 
   -0.67156E+07         0.11796E+07         0.00000E+00
    0.11796E+07        -0.28713E+08         0.00000E+00
    0.00000E+00         0.00000E+00        -0.70857E+07
 
   -0.70034E+07         0.14628E+07         0.00000E+00
    0.14628E+07        -0.28626E+08         0.00000E+00
    0.00000E+00         0.00000E+00        -0.71259E+07
 
   -0.45190E+07         0.45354E+05         0.00000E+00
    0.45354E+05        -0.29110E+08         0.00000E+00
    0.00000E+00         0.00000E+00        -0.86767E+07
 
   -0.45812E+07         0.12526E+06         0.00000E+00
    0.12526E+06        -0.29127E+08         0.00000E+00
    0.00000E+00         0.00000E+00        -0.86112E+07
 
   -0.46924E+07         0.18686E+06         0.00000E+00
    0.18686E+06        -0.29161E+08         0.00000E+00
    0.00000E+00         0.00000E+00        -0.85030E+07
 
   -0.48321E+07         0.23664E+06         0.00000E+00
    0.23664E+06        -0.29211E+08         0.00000E+00
    0.00000E+00         0.00000E+00        -0.83807E+07
 
   -0.49896E+07         0.28044E+06         0.00000E+00
    0.28044E+06        -0.29270E+08         0.00000E+00
    0.00000E+00         0.00000E+00        -0.82541E+07
 
   -0.51601E+07         0.32329E+06         0.00000E+00
    0.32329E+06        -0.29336E+08         0.00000E+00
    0.00000E+00         0.00000E+00        -0.81246E+07
 
   -0.53404E+07         0.36963E+06         0.00000E+00
    0.36963E+06        -0.29402E+08         0.00000E+00
    0.00000E+00         0.00000E+00        -0.79898E+07
 
   -0.55288E+07         0.42336E+06         0.00000E+00
    0.42336E+06        -0.29464E+08         0.00000E+00
    0.00000E+00         0.00000E+00        -0.78459E+07
 
   -0.57252E+07         0.48689E+06         0.00000E+00
    0.48689E+06        -0.29518E+08         0.00000E+00
    0.00000E+00         0.00000E+00        -0.76872E+07
 
   -0.59331E+07         0.56208E+06         0.00000E+00
    0.56208E+06        -0.29556E+08         0.00000E+00
    0.00000E+00         0.00000E+00        -0.75022E+07
 
   -0.61500E+07         0.65928E+06         0.00000E+00
    0.65928E+06        -0.29575E+08         0.00000E+00
    0.00000E+00         0.00000E+00        -0.72932E+07
 
   -0.64417E+07         0.80807E+06         0.00000E+00
    0.80807E+06        -0.29568E+08         0.00000E+00
    0.00000E+00         0.00000E+00        -0.72095E+07
 
   -0.67584E+07         0.10086E+07         0.00000E+00
    0.10086E+07        -0.29529E+08         0.00000E+00
    0.00000E+00         0.00000E+00        -0.72574E+07
 
   -0.70161E+07         0.12533E+07         0.00000E+00
    0.12533E+07        -0.29484E+08         0.00000E+00
    0.00000E+00         0.00000E+00        -0.73001E+07
 
   -0.72418E+07         0.15557E+07         0.00000E+00
    0.15557E+07        -0.29423E+08         0.00000E+00
    0.00000E+00         0.00000E+00        -0.73329E+07
 
   -0.50679E+07         0.38865E+05         0.00000E+00
    0.38865E+05        -0.29748E+08         0.00000E+00
    0.00000E+00         0.00000E+00        -0.88959E+07
 
   -0.51521E+07         0.10392E+06         0.00000E+00
    0.10392E+06        -0.29772E+08         0.00000E+00
    0.00000E+00         0.00000E+00        -0.88124E+07
 
   -0.52771E+07         0.15238E+06         0.00000E+00
    0.15238E+06        -0.29817E+08         0.00000E+00
    0.00000E+00         0.00000E+00        -0.87063E+07
 
   -0.54231E+07         0.19293E+06         0.00000E+00
    0.19293E+06        -0.29879E+08         0.00000E+00
    0.00000E+00         0.00000E+00        -0.86009E+07
 
   -0.55814E+07         0.23194E+06         0.00000E+00
    0.23194E+06        -0.29953E+08         0.00000E+00
    0.00000E+00         0.00000E+00        -0.85009E+07
 
   -0.57479E+07         0.27445E+06         0.00000E+00
    0.27445E+06        -0.30032E+08         0.00000E+00
    0.00000E+00         0.00000E+00        -0.84041E+07
 
   -0.59196E+07         0.32497E+06         0.00000E+00
    0.32497E+06        -0.30112E+08         0.00000E+00
    0.00000E+00         0.00000E+00        -0.83062E+07
 
   -0.60959E+07         0.38706E+06         0.00000E+00
    0.38706E+06        -0.30187E+08         0.00000E+00
    0.00000E+00         0.00000E+00        -0.82013E+07
 
   -0.62771E+07         0.46362E+06         0.00000E+00
    0.46362E+06        -0.30252E+08         0.00000E+00
    0.00000E+00         0.00000E+00        -0.80824E+07
 
   -0.64645E+07         0.55822E+06         0.00000E+00
    0.55822E+06        -0.30300E+08         0.00000E+00
    0.00000E+00         0.00000E+00        -0.79416E+07
 
   -0.66657E+07         0.67511E+06         0.00000E+00
    0.67511E+06        -0.30331E+08         0.00000E+00
    0.00000E+00         0.00000E+00        -0.77713E+07
 
   -0.68823E+07         0.83582E+06         0.00000E+00
    0.83582E+06        -0.30354E+08         0.00000E+00
    0.00000E+00         0.00000E+00        -0.75922E+07
 
   -0.71399E+07         0.10550E+07         0.00000E+00
    0.10550E+07        -0.30363E+08         0.00000E+00
    0.00000E+00         0.00000E+00        -0.75221E+07
 
   -0.73655E+07         0.13084E+07         0.00000E+00
    0.13084E+07        -0.30326E+08         0.00000E+00
    0.00000E+00         0.00000E+00        -0.75383E+07
 
   -0.75153E+07         0.16121E+07         0.00000E+00
    0.16121E+07        -0.30293E+08         0.00000E+00
    0.00000E+00         0.00000E+00        -0.75617E+07
 
   -0.56909E+07         0.27593E+05         0.00000E+00
    0.27593E+05        -0.30443E+08         0.00000E+00
    0.00000E+00         0.00000E+00        -0.91081E+07
 
   -0.57961E+07         0.72537E+05         0.00000E+00
    0.72537E+05        -0.30474E+08         0.00000E+00
    0.00000E+00         0.00000E+00        -0.90102E+07
 
   -0.59304E+07         0.10547E+06         0.00000E+00
    0.10547E+06        -0.30529E+08         0.00000E+00
    0.00000E+00         0.00000E+00        -0.89136E+07
 
   -0.60780E+07         0.13539E+06         0.00000E+00
    0.13539E+06        -0.30603E+08         0.00000E+00
    0.00000E+00         0.00000E+00        -0.88310E+07
 
   -0.62319E+07         0.16890E+06         0.00000E+00
    0.16890E+06        -0.30690E+08         0.00000E+00
    0.00000E+00         0.00000E+00        -0.87621E+07
 
   -0.63888E+07         0.21144E+06         0.00000E+00
    0.21144E+06        -0.30782E+08         0.00000E+00
    0.00000E+00         0.00000E+00        -0.87016E+07
 
   -0.65469E+07         0.26716E+06         0.00000E+00
    0.26716E+06        -0.30873E+08         0.00000E+00
    0.00000E+00         0.00000E+00        -0.86424E+07
 
   -0.67061E+07         0.33936E+06         0.00000E+00
    0.33936E+06        -0.30958E+08         0.00000E+00
    0.00000E+00         0.00000E+00        -0.85765E+07
 
   -0.68670E+07         0.43065E+06         0.00000E+00
    0.43065E+06        -0.31029E+08         0.00000E+00
    0.00000E+00         0.00000E+00        -0.84964E+07
 
   -0.70316E+07         0.54275E+06         0.00000E+00
    0.54275E+06        -0.31084E+08         0.00000E+00
    0.00000E+00         0.00000E+00        -0.83949E+07
 
   -0.72021E+07         0.67913E+06         0.00000E+00
    0.67913E+06        -0.31117E+08         0.00000E+00
    0.00000E+00         0.00000E+00        -0.82666E+07
 
   -0.73840E+07         0.84709E+06         0.00000E+00
    0.84709E+06        -0.31132E+08         0.00000E+00
    0.00000E+00         0.00000E+00        -0.81145E+07
 
   -0.75773E+07         0.10630E+07         0.00000E+00
    0.10630E+07        -0.31145E+08         0.00000E+00
    0.00000E+00         0.00000E+00        -0.79695E+07
 
   -0.77543E+07         0.13291E+07         0.00000E+00
    0.13291E+07        -0.31167E+08         0.00000E+00
    0.00000E+00         0.00000E+00        -0.78811E+07
 
   -0.78624E+07         0.16174E+07         0.00000E+00
    0.16174E+07        -0.31173E+08         0.00000E+00
    0.00000E+00         0.00000E+00        -0.78748E+07
 
   -0.63942E+07         0.11916E+05         0.00000E+00
    0.11916E+05        -0.31191E+08         0.00000E+00
    0.00000E+00         0.00000E+00        -0.93074E+07
 
   -0.65146E+07         0.31991E+05         0.00000E+00
    0.31991E+05        -0.31228E+08         0.00000E+00
    0.00000E+00         0.00000E+00        -0.92047E+07
 
   -0.66523E+07         0.46484E+05         0.00000E+00
    0.46484E+05        -0.31294E+08         0.00000E+00
    0.00000E+00         0.00000E+00        -0.91250E+07
 
   -0.67954E+07         0.64364E+05         0.00000E+00
    0.64364E+05        -0.31379E+08         0.00000E+00
    0.00000E+00         0.00000E+00        -0.90714E+07
 
   -0.69387E+07         0.92341E+05         0.00000E+00
    0.92341E+05        -0.31477E+08         0.00000E+00
    0.00000E+00         0.00000E+00        -0.90383E+07
 
   -0.70798E+07         0.13562E+06         0.00000E+00
    0.13562E+06        -0.31580E+08         0.00000E+00
    0.00000E+00         0.00000E+00        -0.90171E+07
 
   -0.72183E+07         0.19816E+06         0.00000E+00
    0.19816E+06        -0.31680E+08         0.00000E+00
    0.00000E+00         0.00000E+00        -0.89984E+07
 
   -0.73550E+07         0.28263E+06         0.00000E+00
    0.28263E+06        -0.31772E+08         0.00000E+00
    0.00000E+00         0.00000E+00        -0.89727E+07
 
   -0.74916E+07         0.39061E+06         0.00000E+00
    0.39061E+06        -0.31849E+08         0.00000E+00
    0.00000E+00         0.00000E+00        -0.89312E+07
 
   -0.76298E+07         0.52315E+06         0.00000E+00
    0.52315E+06        -0.31906E+08         0.00000E+00
    0.00000E+00         0.00000E+00        -0.88670E+07
 
   -0.77718E+07         0.68073E+06         0.00000E+00
    0.68073E+06        -0.31940E+08         0.00000E+00
    0.00000E+00         0.00000E+00        -0.87759E+07
 
   -0.79190E+07         0.86587E+06         0.00000E+00
    0.86587E+06        -0.31950E+08         0.00000E+00
    0.00000E+00         0.00000E+00        -0.86588E+07
 
   -0.80692E+07         0.10845E+07         0.00000E+00
    0.10845E+07        -0.31942E+08         0.00000E+00
    0.00000E+00         0.00000E+00        -0.85309E+07
 
   -0.82107E+07         0.13377E+07         0.00000E+00
    0.13377E+07        -0.31928E+08         0.00000E+00
    0.00000E+00         0.00000E+00        -0.84281E+07
 
   -0.83303E+07         0.15986E+07         0.00000E+00
    0.15986E+07        -0.31932E+08         0.00000E+00
    0.00000E+00         0.00000E+00        -0.83863E+07
 
   -0.71820E+07        -0.71031E+04         0.00000E+00
   -0.71031E+04        -0.31992E+08         0.00000E+00
    0.00000E+00         0.00000E+00        -0.94935E+07
 
   -0.73090E+07        -0.16910E+05         0.00000E+00
   -0.16910E+05        -0.32034E+08         0.00000E+00
    0.00000E+00         0.00000E+00        -0.93979E+07
 
   -0.74427E+07        -0.23763E+05         0.00000E+00
   -0.23763E+05        -0.32108E+08         0.00000E+00
    0.00000E+00         0.00000E+00        -0.93427E+07
 
   -0.75737E+07        -0.19084E+05         0.00000E+00
   -0.19084E+05        -0.32203E+08         0.00000E+00
    0.00000E+00         0.00000E+00        -0.93234E+07
 
   -0.76988E+07         0.35375E+04         0.00000E+00
    0.35375E+04        -0.32311E+08         0.00000E+00
    0.00000E+00         0.00000E+00        -0.93299E+07
 
   -0.78171E+07         0.48722E+05         0.00000E+00
    0.48722E+05        -0.32422E+08         0.00000E+00
    0.00000E+00         0.00000E+00        -0.93507E+07
 
   -0.79296E+07         0.11967E+06         0.00000E+00
    0.11967E+06        -0.32529E+08         0.00000E+00
    0.00000E+00         0.00000E+00        -0.93743E+07
 
   -0.80383E+07         0.21822E+06         0.00000E+00
    0.21822E+06        -0.32626E+08         0.00000E+00
    0.00000E+00         0.00000E+00        -0.93898E+07
 
   -0.81459E+07         0.34499E+06         0.00000E+00
    0.34499E+06        -0.32706E+08         0.00000E+00
    0.00000E+00         0.00000E+00        -0.93881E+07
 
   -0.82551E+07         0.49944E+06         0.00000E+00
    0.49944E+06        -0.32766E+08         0.00000E+00
    0.00000E+00         0.00000E+00        -0.93621E+07
 
   -0.83681E+07         0.68075E+06         0.00000E+00
    0.68075E+06        -0.32801E+08         0.00000E+00
    0.00000E+00         0.00000E+00        -0.93079E+07
 
   -0.84859E+07         0.88743E+06         0.00000E+00
    0.88743E+06        -0.32811E+08         0.00000E+00
    0.00000E+00         0.00000E+00        -0.92268E+07
 
   -0.86085E+07         0.11170E+07         0.00000E+00
    0.11170E+07        -0.32800E+08         0.00000E+00
    0.00000E+00         0.00000E+00        -0.91280E+07
 
   -0.87353E+07         0.13619E+07         0.00000E+00
    0.13619E+07        -0.32781E+08         0.00000E+00
    0.00000E+00         0.00000E+00        -0.90296E+07
 
   -0.88572E+07         0.16100E+07         0.00000E+00
    0.16100E+07        -0.32759E+08         0.00000E+00
    0.00000E+00         0.00000E+00        -0.89492E+07
 
   -0.80575E+07        -0.28790E+05         0.00000E+00
   -0.28790E+05        -0.32843E+08         0.00000E+00
    0.00000E+00         0.00000E+00        -0.96698E+07
 
   -0.81812E+07        -0.72917E+05         0.00000E+00
   -0.72917E+05        -0.32889E+08         0.00000E+00
    0.00000E+00         0.00000E+00        -0.95924E+07
 
   -0.83011E+07        -0.10373E+06         0.00000E+00
   -0.10373E+06        -0.32969E+08         0.00000E+00
    0.00000E+00         0.00000E+00        -0.95687E+07
 
   -0.84109E+07        -0.11306E+06         0.00000E+00
   -0.11306E+06        -0.33071E+08         0.00000E+00
    0.00000E+00         0.00000E+00        -0.95885E+07
 
   -0.85093E+07        -0.95545E+05         0.00000E+00
   -0.95545E+05        -0.33186E+08         0.00000E+00
    0.00000E+00         0.00000E+00        -0.96376E+07
 
   -0.85971E+07        -0.47457E+05         0.00000E+00
   -0.47457E+05        -0.33303E+08         0.00000E+00
    0.00000E+00         0.00000E+00        -0.97022E+07
 
   -0.86768E+07         0.33257E+05         0.00000E+00
    0.33257E+05        -0.33415E+08         0.00000E+00
    0.00000E+00         0.00000E+00        -0.97692E+07
 
   -0.87519E+07         0.14719E+06         0.00000E+00
    0.14719E+06        -0.33515E+08         0.00000E+00
    0.00000E+00         0.00000E+00        -0.98271E+07
 
   -0.88264E+07         0.29358E+06         0.00000E+00
    0.29358E+06        -0.33598E+08         0.00000E+00
    0.00000E+00         0.00000E+00        -0.98664E+07
 
   -0.89041E+07         0.47066E+06         0.00000E+00
    0.47066E+06        -0.33660E+08         0.00000E+00
    0.00000E+00         0.00000E+00        -0.98801E+07
 
   -0.89883E+07         0.67532E+06         0.00000E+00
    0.67532E+06        -0.33699E+08         0.00000E+00
    0.00000E+00         0.00000E+00        -0.98648E+07
 
   -0.90818E+07         0.90274E+06         0.00000E+00
    0.90274E+06        -0.33714E+08         0.00000E+00
    0.00000E+00         0.00000E+00        -0.98200E+07
 
   -0.91879E+07         0.11459E+07         0.00000E+00
    0.11459E+07        -0.33708E+08         0.00000E+00
    0.00000E+00         0.00000E+00        -0.97489E+07
 
   -0.93073E+07         0.13970E+07         0.00000E+00
    0.13970E+07        -0.33686E+08         0.00000E+00
    0.00000E+00         0.00000E+00        -0.96569E+07
 
   -0.94346E+07         0.16468E+07         0.00000E+00
    0.16468E+07        -0.33651E+08         0.00000E+00
    0.00000E+00         0.00000E+00        -0.95531E+07
 
   -0.90227E+07        -0.52738E+05         0.00000E+00
   -0.52738E+05        -0.33742E+08         0.00000E+00
    0.00000E+00         0.00000E+00        -0.98401E+07
 
   -0.91315E+07        -0.13460E+06         0.00000E+00
   -0.13460E+06        -0.33790E+08         0.00000E+00
    0.00000E+00         0.00000E+00        -0.97909E+07
 
   -0.92264E+07        -0.19105E+06         0.00000E+00
   -0.19105E+06        -0.33874E+08         0.00000E+00
    0.00000E+00         0.00000E+00        -0.98057E+07
 
   -0.93045E+07        -0.21516E+06         0.00000E+00
   -0.21516E+06        -0.33981E+08         0.00000E+00
    0.00000E+00         0.00000E+00        -0.98684E+07
 
   -0.93668E+07        -0.20244E+06         0.00000E+00
   -0.20244E+06        -0.34099E+08         0.00000E+00
    0.00000E+00         0.00000E+00        -0.99623E+07
 
   -0.94161E+07        -0.15075E+06         0.00000E+00
   -0.15075E+06        -0.34219E+08         0.00000E+00
    0.00000E+00         0.00000E+00        -0.10071E+08
 
   -0.94565E+07        -0.59496E+05         0.00000E+00
   -0.59496E+05        -0.34334E+08         0.00000E+00
    0.00000E+00         0.00000E+00        -0.10182E+08
 
   -0.94930E+07         0.70178E+05         0.00000E+00
    0.70178E+05        -0.34436E+08         0.00000E+00
    0.00000E+00         0.00000E+00        -0.10282E+08
 
   -0.95310E+07         0.23604E+06         0.00000E+00
    0.23604E+06        -0.34521E+08         0.00000E+00
    0.00000E+00         0.00000E+00        -0.10363E+08
 
   -0.95755E+07         0.43472E+06         0.00000E+00
    0.43472E+06        -0.34587E+08         0.00000E+00
    0.00000E+00         0.00000E+00        -0.10418E+08
 
   -0.96317E+07         0.66116E+06         0.00000E+00
    0.66116E+06        -0.34630E+08         0.00000E+00
    0.00000E+00         0.00000E+00        -0.10441E+08
 
   -0.97046E+07         0.90866E+06         0.00000E+00
    0.90866E+06        -0.34652E+08         0.00000E+00
    0.00000E+00         0.00000E+00        -0.10431E+08
 
   -0.97983E+07         0.11695E+07         0.00000E+00
    0.11695E+07        -0.34652E+08         0.00000E+00
    0.00000E+00         0.00000E+00        -0.10384E+08
 
   -0.99141E+07         0.14357E+07         0.00000E+00
    0.14357E+07        -0.34631E+08         0.00000E+00
    0.00000E+00         0.00000E+00        -0.10302E+08
 
   -0.10049E+08         0.16989E+07         0.00000E+00
    0.16989E+07        -0.34589E+08         0.00000E+00
    0.00000E+00         0.00000E+00        -0.10186E+08
 
   -0.10079E+08        -0.78466E+05         0.00000E+00
   -0.78466E+05        -0.34685E+08         0.00000E+00
    0.00000E+00         0.00000E+00        -0.10009E+08
 
   -0.10159E+08        -0.20031E+06         0.00000E+00
   -0.20031E+06        -0.34734E+08         0.00000E+00
    0.00000E+00         0.00000E+00        -0.99979E+07
 
   -0.10217E+08        -0.28349E+06         0.00000E+00
   -0.28349E+06        -0.34820E+08         0.00000E+00
    0.00000E+00         0.00000E+00        -0.10057E+08
 
   -0.10252E+08        -0.32248E+06         0.00000E+00
   -0.32248E+06        -0.34928E+08         0.00000E+00
    0.00000E+00         0.00000E+00        -0.10166E+08
 
   -0.10268E+08        -0.31418E+06         0.00000E+00
   -0.31418E+06        -0.35047E+08         0.00000E+00
    0.00000E+00         0.00000E+00        -0.10305E+08
 
   -0.10271E+08        -0.25841E+06         0.00000E+00
   -0.25841E+06        -0.35166E+08         0.00000E+00
    0.00000E+00         0.00000E+00        -0.10457E+08
 
   -0.10266E+08        -0.15671E+06         0.00000E+00
   -0.15671E+06        -0.35280E+08         0.00000E+00
    0.00000E+00         0.00000E+00        -0.10610E+08
 
   -0.10260E+08        -0.12072E+05         0.00000E+00
   -0.12072E+05        -0.35383E+08         0.00000E+00
    0.00000E+00         0.00000E+00        -0.10752E+08
 
   -0.10258E+08         0.17201E+06         0.00000E+00
    0.17201E+06        -0.35470E+08         0.00000E+00
    0.00000E+00         0.00000E+00        -0.10874E+08
 
   -0.10269E+08         0.39054E+06         0.00000E+00
    0.39054E+06        -0.35539E+08         0.00000E+00
    0.00000E+00         0.00000E+00        -0.10968E+08
 
   -0.10297E+08         0.63735E+06         0.00000E+00
    0.63735E+06        -0.35588E+08         0.00000E+00
    0.00000E+00         0.00000E+00        -0.11029E+08
 
   -0.10351E+08         0.90537E+06         0.00000E+00
    0.90537E+06        -0.35617E+08         0.00000E+00
    0.00000E+00         0.00000E+00        -0.11051E+08
 
   -0.10433E+08         0.11869E+07         0.00000E+00
    0.11869E+07        -0.35623E+08         0.00000E+00
    0.00000E+00         0.00000E+00        -0.11028E+08
 
   -0.10546E+08         0.14737E+07         0.00000E+00
    0.14737E+07        -0.35604E+08         0.00000E+00
    0.00000E+00         0.00000E+00        -0.10958E+08
 
   -0.10689E+08         0.17571E+07         0.00000E+00
    0.17571E+07        -0.35561E+08         0.00000E+00
    0.00000E+00         0.00000E+00        -0.10840E+08
 
   -0.11226E+08        -0.10533E+06         0.00000E+00
   -0.10533E+06        -0.35670E+08         0.00000E+00
    0.00000E+00         0.00000E+00        -0.10183E+08
 
   -0.11262E+08        -0.26877E+06         0.00000E+00
   -0.26877E+06        -0.35720E+08         0.00000E+00
    0.00000E+00         0.00000E+00        -0.10218E+08
 
   -0.11269E+08        -0.37900E+06         0.00000E+00
   -0.37900E+06        -0.35805E+08         0.00000E+00
    0.00000E+00         0.00000E+00        -0.10326E+08
 
   -0.11250E+08        -0.43176E+06         0.00000E+00
   -0.43176E+06        -0.35911E+08         0.00000E+00
    0.00000E+00         0.00000E+00        -0.10482E+08
 
   -0.11211E+08        -0.42692E+06         0.00000E+00
   -0.42692E+06        -0.36026E+08         0.00000E+00
    0.00000E+00         0.00000E+00        -0.10665E+08
 
   -0.11159E+08        -0.36710E+06         0.00000E+00
   -0.36710E+06        -0.36141E+08         0.00000E+00
    0.00000E+00         0.00000E+00        -0.10858E+08
 
   -0.11104E+08        -0.25606E+06         0.00000E+00
   -0.25606E+06        -0.36251E+08         0.00000E+00
    0.00000E+00         0.00000E+00        -0.11050E+08
 
   -0.11051E+08        -0.97951E+05         0.00000E+00
   -0.97951E+05        -0.36351E+08         0.00000E+00
    0.00000E+00         0.00000E+00        -0.11231E+08
 
   -0.11008E+08         0.10213E+06         0.00000E+00
    0.10213E+06        -0.36438E+08         0.00000E+00
    0.00000E+00         0.00000E+00        -0.11391E+08
 
   -0.10983E+08         0.33844E+06         0.00000E+00
    0.33844E+06        -0.36510E+08         0.00000E+00
    0.00000E+00         0.00000E+00        -0.11523E+08
 
   -0.10983E+08         0.60453E+06         0.00000E+00
    0.60453E+06        -0.36564E+08         0.00000E+00
    0.00000E+00         0.00000E+00        -0.11620E+08
 
   -0.11016E+08         0.89332E+06         0.00000E+00
    0.89332E+06        -0.36599E+08         0.00000E+00
    0.00000E+00         0.00000E+00        -0.11673E+08
 
   -0.11086E+08         0.11973E+07         0.00000E+00
    0.11973E+07        -0.36611E+08         0.00000E+00
    0.00000E+00         0.00000E+00        -0.11675E+08
 
   -0.11197E+08         0.15080E+07         0.00000E+00
    0.15080E+07        -0.36597E+08         0.00000E+00
    0.00000E+00         0.00000E+00        -0.11621E+08
 
   -0.11348E+08         0.18154E+07         0.00000E+00
    0.18154E+07        -0.36557E+08         0.00000E+00
    0.00000E+00         0.00000E+00        -0.11507E+08
 
   -0.12462E+08        -0.13299E+06         0.00000E+00
   -0.13299E+06        -0.36693E+08         0.00000E+00
    0.00000E+00         0.00000E+00        -0.10369E+08
 
   -0.12439E+08        -0.33979E+06         0.00000E+00
   -0.33979E+06        -0.36744E+08         0.00000E+00
    0.00000E+00         0.00000E+00        -0.10458E+08
 
   -0.12380E+08        -0.47477E+06         0.00000E+00
   -0.47477E+06        -0.36828E+08         0.00000E+00
    0.00000E+00         0.00000E+00        -0.10619E+08
 
   -0.12293E+08        -0.53852E+06         0.00000E+00
   -0.53852E+06        -0.36926E+08         0.00000E+00
    0.00000E+00         0.00000E+00        -0.10820E+08
 
   -0.12190E+08        -0.53626E+06         0.00000E+00
   -0.53626E+06        -0.37032E+08         0.00000E+00
    0.00000E+00         0.00000E+00        -0.11042E+08
 
   -0.12079E+08        -0.47312E+06         0.00000E+00
   -0.47312E+06        -0.37138E+08         0.00000E+00
    0.00000E+00         0.00000E+00        -0.11271E+08
 
   -0.11969E+08        -0.35434E+06         0.00000E+00
   -0.35434E+06        -0.37241E+08         0.00000E+00
    0.00000E+00         0.00000E+00        -0.11498E+08
 
   -0.11866E+08        -0.18517E+06         0.00000E+00
   -0.18517E+06        -0.37336E+08         0.00000E+00
    0.00000E+00         0.00000E+00        -0.11713E+08
 
   -0.11780E+08         0.28360E+05         0.00000E+00
    0.28360E+05        -0.37420E+08         0.00000E+00
    0.00000E+00         0.00000E+00        -0.11907E+08
 
   -0.11717E+08         0.28017E+06         0.00000E+00
    0.28017E+06        -0.37492E+08         0.00000E+00
    0.00000E+00         0.00000E+00        -0.12074E+08
 
   -0.11688E+08         0.56382E+06         0.00000E+00
    0.56382E+06        -0.37550E+08         0.00000E+00
    0.00000E+00         0.00000E+00        -0.12204E+08
 
   -0.11698E+08         0.87259E+06         0.00000E+00
    0.87259E+06        -0.37590E+08         0.00000E+00
    0.00000E+00         0.00000E+00        -0.12289E+08
 
   -0.11754E+08         0.11993E+07         0.00000E+00
    0.11993E+07        -0.37609E+08         0.00000E+00
    0.00000E+00         0.00000E+00        -0.12318E+08
 
   -0.11860E+08         0.15354E+07         0.00000E+00
    0.15354E+07        -0.37604E+08         0.00000E+00
    0.00000E+00         0.00000E+00        -0.12285E+08
 
   -0.12019E+08         0.18700E+07         0.00000E+00
    0.18700E+07        -0.37570E+08         0.00000E+00
    0.00000E+00         0.00000E+00        -0.12182E+08
 
   -0.13788E+08        -0.16284E+06         0.00000E+00
   -0.16284E+06        -0.37757E+08         0.00000E+00
    0.00000E+00         0.00000E+00        -0.10577E+08
 
   -0.13683E+08        -0.41294E+06         0.00000E+00
   -0.41294E+06        -0.37807E+08         0.00000E+00
    0.00000E+00         0.00000E+00        -0.10725E+08
 
   -0.13540E+08        -0.56566E+06         0.00000E+00
   -0.56566E+06        -0.37882E+08         0.00000E+00
    0.00000E+00         0.00000E+00        -0.10936E+08
 
   -0.13377E+08        -0.63769E+06         0.00000E+00
   -0.63769E+06        -0.37969E+08         0.00000E+00
    0.00000E+00         0.00000E+00        -0.11176E+08
 
   -0.13205E+08        -0.63781E+06         0.00000E+00
   -0.63781E+06        -0.38061E+08         0.00000E+00
    0.00000E+00         0.00000E+00        -0.11432E+08
 
   -0.13030E+08        -0.57248E+06         0.00000E+00
   -0.57248E+06        -0.38154E+08         0.00000E+00
    0.00000E+00         0.00000E+00        -0.11692E+08
 
   -0.12861E+08        -0.44787E+06         0.00000E+00
   -0.44787E+06        -0.38245E+08         0.00000E+00
    0.00000E+00         0.00000E+00        -0.11948E+08
 
   -0.12706E+08        -0.27021E+06         0.00000E+00
   -0.27021E+06        -0.38331E+08         0.00000E+00
    0.00000E+00         0.00000E+00        -0.12191E+08
 
   -0.12574E+08        -0.46035E+05         0.00000E+00
   -0.46035E+05        -0.38409E+08         0.00000E+00
    0.00000E+00         0.00000E+00        -0.12415E+08
 
   -0.12472E+08         0.21820E+06         0.00000E+00
    0.21820E+06        -0.38479E+08         0.00000E+00
    0.00000E+00         0.00000E+00        -0.12612E+08
 
   -0.12410E+08         0.51653E+06         0.00000E+00
    0.51653E+06        -0.38538E+08         0.00000E+00
    0.00000E+00         0.00000E+00        -0.12773E+08
 
   -0.12395E+08         0.84307E+06         0.00000E+00
    0.84307E+06        -0.38583E+08         0.00000E+00
    0.00000E+00         0.00000E+00        -0.12890E+08
 
   -0.12434E+08         0.11911E+07         0.00000E+00
    0.11911E+07        -0.38610E+08         0.00000E+00
    0.00000E+00         0.00000E+00        -0.12951E+08
 
   -0.12534E+08         0.15523E+07         0.00000E+00
    0.15523E+07        -0.38615E+08         0.00000E+00
    0.00000E+00         0.00000E+00        -0.12944E+08
 
   -0.12698E+08         0.19159E+07         0.00000E+00
    0.19159E+07        -0.38593E+08         0.00000E+00
    0.00000E+00         0.00000E+00        -0.12860E+08
 
   -0.15207E+08        -0.19941E+06         0.00000E+00
   -0.19941E+06        -0.38878E+08         0.00000E+00
    0.00000E+00         0.00000E+00        -0.10860E+08
 
   -0.14980E+08        -0.48145E+06         0.00000E+00
   -0.48145E+06        -0.38898E+08         0.00000E+00
    0.00000E+00         0.00000E+00        -0.11020E+08
 
   -0.14743E+08        -0.64669E+06         0.00000E+00
   -0.64669E+06        -0.38961E+08         0.00000E+00
    0.00000E+00         0.00000E+00        -0.11275E+08
 
   -0.14498E+08        -0.72548E+06         0.00000E+00
   -0.72548E+06        -0.39033E+08         0.00000E+00
    0.00000E+00         0.00000E+00        -0.11550E+08
 
   -0.14251E+08        -0.72776E+06         0.00000E+00
   -0.72776E+06        -0.39109E+08         0.00000E+00
    0.00000E+00         0.00000E+00        -0.11834E+08
 
   -0.14009E+08        -0.66089E+06         0.00000E+00
   -0.66089E+06        -0.39185E+08         0.00000E+00
    0.00000E+00         0.00000E+00        -0.12118E+08
 
   -0.13779E+08        -0.53205E+06         0.00000E+00
   -0.53205E+06        -0.39260E+08         0.00000E+00
    0.00000E+00         0.00000E+00        -0.12396E+08
 
   -0.13570E+08        -0.34848E+06         0.00000E+00
   -0.34848E+06        -0.39332E+08         0.00000E+00
    0.00000E+00         0.00000E+00        -0.12660E+08
 
   -0.13391E+08        -0.11715E+06         0.00000E+00
   -0.11715E+06        -0.39399E+08         0.00000E+00
    0.00000E+00         0.00000E+00        -0.12906E+08
 
   -0.13248E+08         0.15554E+06         0.00000E+00
    0.15554E+06        -0.39463E+08         0.00000E+00
    0.00000E+00         0.00000E+00        -0.13128E+08
 
   -0.13151E+08         0.46430E+06         0.00000E+00
    0.46430E+06        -0.39520E+08         0.00000E+00
    0.00000E+00         0.00000E+00        -0.13318E+08
 
   -0.13107E+08         0.80431E+06         0.00000E+00
    0.80431E+06        -0.39570E+08         0.00000E+00
    0.00000E+00         0.00000E+00        -0.13467E+08
 
   -0.13125E+08         0.11705E+07         0.00000E+00
    0.11705E+07        -0.39607E+08         0.00000E+00
    0.00000E+00         0.00000E+00        -0.13563E+08
 
   -0.13214E+08         0.15556E+07         0.00000E+00
    0.15556E+07        -0.39626E+08         0.00000E+00
    0.00000E+00         0.00000E+00        -0.13591E+08
 
   -0.13380E+08         0.19483E+07         0.00000E+00
    0.19483E+07        -0.39619E+08         0.00000E+00
    0.00000E+00         0.00000E+00        -0.13535E+08
 
   -0.16726E+08        -0.22833E+06         0.00000E+00
   -0.22833E+06        -0.39966E+08         0.00000E+00
    0.00000E+00         0.00000E+00        -0.11338E+08
 
   -0.16309E+08        -0.54756E+06         0.00000E+00
   -0.54756E+06        -0.40009E+08         0.00000E+00
    0.00000E+00         0.00000E+00        -0.11362E+08
 
   -0.15981E+08        -0.71897E+06         0.00000E+00
   -0.71897E+06        -0.40055E+08         0.00000E+00
    0.00000E+00         0.00000E+00        -0.11633E+08
 
   -0.15651E+08        -0.80029E+06         0.00000E+00
   -0.80029E+06        -0.40113E+08         0.00000E+00
    0.00000E+00         0.00000E+00        -0.11937E+08
 
   -0.15327E+08        -0.80271E+06         0.00000E+00
   -0.80271E+06        -0.40171E+08         0.00000E+00
    0.00000E+00         0.00000E+00        -0.12243E+08
 
   -0.15014E+08        -0.73366E+06         0.00000E+00
   -0.73366E+06        -0.40226E+08         0.00000E+00
    0.00000E+00         0.00000E+00        -0.12545E+08
 
   -0.14722E+08        -0.60154E+06         0.00000E+00
   -0.60154E+06        -0.40280E+08         0.00000E+00
    0.00000E+00         0.00000E+00        -0.12836E+08
 
   -0.14459E+08        -0.41475E+06         0.00000E+00
   -0.41475E+06        -0.40332E+08         0.00000E+00
    0.00000E+00         0.00000E+00        -0.13113E+08
 
   -0.14232E+08        -0.18051E+06         0.00000E+00
   -0.18051E+06        -0.40384E+08         0.00000E+00
    0.00000E+00         0.00000E+00        -0.13373E+08
 
   -0.14048E+08         0.95409E+05         0.00000E+00
    0.95409E+05        -0.40438E+08         0.00000E+00
    0.00000E+00         0.00000E+00        -0.13613E+08
 
   -0.13914E+08         0.40864E+06         0.00000E+00
    0.40864E+06        -0.40492E+08         0.00000E+00
    0.00000E+00         0.00000E+00        -0.13829E+08
 
   -0.13837E+08         0.75625E+06         0.00000E+00
    0.75625E+06        -0.40546E+08         0.00000E+00
    0.00000E+00         0.00000E+00        -0.14012E+08
 
   -0.13827E+08         0.11354E+07         0.00000E+00
    0.11354E+07        -0.40594E+08         0.00000E+00
    0.00000E+00         0.00000E+00        -0.14148E+08
 
   -0.13898E+08         0.15409E+07         0.00000E+00
    0.15409E+07        -0.40630E+08         0.00000E+00
    0.00000E+00         0.00000E+00        -0.14219E+08
 
   -0.14061E+08         0.19624E+07         0.00000E+00
    0.19624E+07        -0.40644E+08         0.00000E+00
    0.00000E+00         0.00000E+00        -0.14201E+08
 
   -0.18307E+08        -0.24492E+06         0.00000E+00
   -0.24492E+06        -0.41100E+08         0.00000E+00
    0.00000E+00         0.00000E+00        -0.11881E+08
 
   -0.17700E+08        -0.60050E+06         0.00000E+00
   -0.60050E+06        -0.41135E+08         0.00000E+00
    0.00000E+00         0.00000E+00        -0.11793E+08
 
   -0.17242E+08        -0.78491E+06         0.00000E+00
   -0.78491E+06        -0.41165E+08         0.00000E+00
    0.00000E+00         0.00000E+00        -0.12017E+08
 
   -0.16829E+08        -0.86145E+06         0.00000E+00
   -0.86145E+06        -0.41207E+08         0.00000E+00
    0.00000E+00         0.00000E+00        -0.12341E+08
 
   -0.16425E+08        -0.85910E+06         0.00000E+00
   -0.85910E+06        -0.41243E+08         0.00000E+00
    0.00000E+00         0.00000E+00        -0.12661E+08
 
   -0.16043E+08        -0.78535E+06         0.00000E+00
   -0.78535E+06        -0.41273E+08         0.00000E+00
    0.00000E+00         0.00000E+00        -0.12970E+08
 
   -0.15689E+08        -0.65036E+06         0.00000E+00
   -0.65036E+06        -0.41299E+08         0.00000E+00
    0.00000E+00         0.00000E+00        -0.13263E+08
 
   -0.15373E+08        -0.46346E+06         0.00000E+00
   -0.46346E+06        -0.41326E+08         0.00000E+00
    0.00000E+00         0.00000E+00        -0.13542E+08
 
   -0.15100E+08        -0.23164E+06         0.00000E+00
   -0.23164E+06        -0.41358E+08         0.00000E+00
    0.00000E+00         0.00000E+00        -0.13808E+08
 
   -0.14874E+08         0.40746E+05         0.00000E+00
    0.40746E+05        -0.41398E+08         0.00000E+00
    0.00000E+00         0.00000E+00        -0.14061E+08
 
   -0.14701E+08         0.35132E+06         0.00000E+00
    0.35132E+06        -0.41448E+08         0.00000E+00
    0.00000E+00         0.00000E+00        -0.14299E+08
 
   -0.14587E+08         0.69908E+06         0.00000E+00
    0.69908E+06        -0.41505E+08         0.00000E+00
    0.00000E+00         0.00000E+00        -0.14515E+08
 
   -0.14544E+08         0.10837E+07         0.00000E+00
    0.10837E+07        -0.41565E+08         0.00000E+00
    0.00000E+00         0.00000E+00        -0.14697E+08
 
   -0.14588E+08         0.15037E+07         0.00000E+00
    0.15037E+07        -0.41621E+08         0.00000E+00
    0.00000E+00         0.00000E+00        -0.14820E+08
 
   -0.14739E+08         0.19513E+07         0.00000E+00
    0.19513E+07        -0.41661E+08         0.00000E+00
    0.00000E+00         0.00000E+00        -0.14853E+08
 
   -0.19931E+08        -0.25692E+06         0.00000E+00
   -0.25692E+06        -0.42266E+08         0.00000E+00
    0.00000E+00         0.00000E+00        -0.12439E+08
 
   -0.19147E+08        -0.63559E+06         0.00000E+00
   -0.63559E+06        -0.42280E+08         0.00000E+00
    0.00000E+00         0.00000E+00        -0.12292E+08
 
   -0.18522E+08        -0.83322E+06         0.00000E+00
   -0.83322E+06        -0.42297E+08         0.00000E+00
    0.00000E+00         0.00000E+00        -0.12433E+08
 
   -0.18021E+08        -0.90399E+06         0.00000E+00
   -0.90399E+06        -0.42314E+08         0.00000E+00
    0.00000E+00         0.00000E+00        -0.12764E+08
 
   -0.17539E+08        -0.89138E+06         0.00000E+00
   -0.89138E+06        -0.42321E+08         0.00000E+00
    0.00000E+00         0.00000E+00        -0.13087E+08
 
   -0.17089E+08        -0.80959E+06         0.00000E+00
   -0.80959E+06        -0.42318E+08         0.00000E+00
    0.00000E+00         0.00000E+00        -0.13390E+08
 
   -0.16679E+08        -0.67200E+06         0.00000E+00
   -0.67200E+06        -0.42311E+08         0.00000E+00
    0.00000E+00         0.00000E+00        -0.13673E+08
 
   -0.16315E+08        -0.48896E+06         0.00000E+00
   -0.48896E+06        -0.42307E+08         0.00000E+00
    0.00000E+00         0.00000E+00        -0.13941E+08
 
   -0.15998E+08        -0.26631E+06         0.00000E+00
   -0.26631E+06        -0.42315E+08         0.00000E+00
    0.00000E+00         0.00000E+00        -0.14202E+08
 
   -0.15732E+08        -0.58254E+04         0.00000E+00
   -0.58254E+04        -0.42340E+08         0.00000E+00
    0.00000E+00         0.00000E+00        -0.14461E+08
 
   -0.15518E+08         0.29320E+06         0.00000E+00
    0.29320E+06        -0.42383E+08         0.00000E+00
    0.00000E+00         0.00000E+00        -0.14719E+08
 
   -0.15364E+08         0.63221E+06         0.00000E+00
    0.63221E+06        -0.42444E+08         0.00000E+00
    0.00000E+00         0.00000E+00        -0.14969E+08
 
   -0.15279E+08         0.10134E+07         0.00000E+00
    0.10134E+07        -0.42517E+08         0.00000E+00
    0.00000E+00         0.00000E+00        -0.15200E+08
 
   -0.15284E+08         0.14396E+07         0.00000E+00
    0.14396E+07        -0.42596E+08         0.00000E+00
    0.00000E+00         0.00000E+00        -0.15387E+08
 
   -0.15414E+08         0.19107E+07         0.00000E+00
    0.19107E+07        -0.42668E+08         0.00000E+00
    0.00000E+00         0.00000E+00        -0.15486E+08
 
   -0.21590E+08        -0.26689E+06         0.00000E+00
   -0.26689E+06        -0.43448E+08         0.00000E+00
    0.00000E+00         0.00000E+00        -0.13008E+08
 
   -0.20625E+08        -0.65542E+06         0.00000E+00
   -0.65542E+06        -0.43451E+08         0.00000E+00
    0.00000E+00         0.00000E+00        -0.12815E+08
 
   -0.19820E+08        -0.85659E+06         0.00000E+00
   -0.85659E+06        -0.43447E+08         0.00000E+00
    0.00000E+00         0.00000E+00        -0.12876E+08
 
   -0.19221E+08        -0.91778E+06         0.00000E+00
   -0.91778E+06        -0.43431E+08         0.00000E+00
    0.00000E+00         0.00000E+00        -0.13207E+08
 
   -0.18660E+08        -0.89062E+06         0.00000E+00
   -0.89062E+06        -0.43399E+08         0.00000E+00
    0.00000E+00         0.00000E+00        -0.13517E+08
 
   -0.18148E+08        -0.79876E+06         0.00000E+00
   -0.79876E+06        -0.43355E+08         0.00000E+00
    0.00000E+00         0.00000E+00        -0.13799E+08
 
   -0.17691E+08        -0.66031E+06         0.00000E+00
   -0.66031E+06        -0.43308E+08         0.00000E+00
    0.00000E+00         0.00000E+00        -0.14057E+08
 
   -0.17287E+08        -0.48623E+06         0.00000E+00
   -0.48623E+06        -0.43270E+08         0.00000E+00
    0.00000E+00         0.00000E+00        -0.14303E+08
 
   -0.16934E+08        -0.28058E+06         0.00000E+00
   -0.28058E+06        -0.43250E+08         0.00000E+00
    0.00000E+00         0.00000E+00        -0.14549E+08
 
   -0.16628E+08        -0.41935E+05         0.00000E+00
   -0.41935E+05        -0.43257E+08         0.00000E+00
    0.00000E+00         0.00000E+00        -0.14807E+08
 
   -0.16373E+08         0.23453E+06         0.00000E+00
    0.23453E+06        -0.43293E+08         0.00000E+00
    0.00000E+00         0.00000E+00        -0.15079E+08
 
   -0.16174E+08         0.55457E+06         0.00000E+00
    0.55457E+06        -0.43359E+08         0.00000E+00
    0.00000E+00         0.00000E+00        -0.15365E+08
 
   -0.16040E+08         0.92314E+06         0.00000E+00
    0.92314E+06        -0.43449E+08         0.00000E+00
    0.00000E+00         0.00000E+00        -0.15651E+08
 
   -0.15993E+08         0.13453E+07         0.00000E+00
    0.13453E+07        -0.43553E+08         0.00000E+00
    0.00000E+00         0.00000E+00        -0.15913E+08
 
   -0.16084E+08         0.18239E+07         0.00000E+00
    0.18239E+07        -0.43663E+08         0.00000E+00
    0.00000E+00         0.00000E+00        -0.16094E+08
 
   -0.23274E+08        -0.27535E+06         0.00000E+00
   -0.27535E+06        -0.44641E+08         0.00000E+00
    0.00000E+00         0.00000E+00        -0.13583E+08
 
   -0.22111E+08        -0.66120E+06         0.00000E+00
   -0.66120E+06        -0.44634E+08         0.00000E+00
    0.00000E+00         0.00000E+00        -0.13349E+08
 
   -0.21123E+08        -0.84875E+06         0.00000E+00
   -0.84875E+06        -0.44605E+08         0.00000E+00
    0.00000E+00         0.00000E+00        -0.13340E+08
 
   -0.20417E+08        -0.89128E+06         0.00000E+00
   -0.89128E+06        -0.44545E+08         0.00000E+00
    0.00000E+00         0.00000E+00        -0.13661E+08
 
   -0.19781E+08        -0.84570E+06         0.00000E+00
   -0.84570E+06        -0.44463E+08         0.00000E+00
    0.00000E+00         0.00000E+00        -0.13941E+08
 
   -0.19218E+08        -0.74513E+06         0.00000E+00
   -0.74513E+06        -0.44371E+08         0.00000E+00
    0.00000E+00         0.00000E+00        -0.14185E+08
 
   -0.18726E+08        -0.61066E+06         0.00000E+00
   -0.61066E+06        -0.44281E+08         0.00000E+00
    0.00000E+00         0.00000E+00        -0.14406E+08
 
   -0.18294E+08        -0.45212E+06         0.00000E+00
   -0.45212E+06        -0.44207E+08         0.00000E+00
    0.00000E+00         0.00000E+00        -0.14619E+08
 
   -0.17911E+08        -0.27138E+06         0.00000E+00
   -0.27138E+06        -0.44159E+08         0.00000E+00
    0.00000E+00         0.00000E+00        -0.14842E+08
 
   -0.17572E+08        -0.64741E+05         0.00000E+00
   -0.64741E+05        -0.44145E+08         0.00000E+00
    0.00000E+00         0.00000E+00        -0.15090E+08
 
   -0.17276E+08         0.17631E+06         0.00000E+00
    0.17631E+06        -0.44172E+08         0.00000E+00
    0.00000E+00         0.00000E+00        -0.15372E+08
 
   -0.17026E+08         0.46344E+06         0.00000E+00
    0.46344E+06        -0.44243E+08         0.00000E+00
    0.00000E+00         0.00000E+00        -0.15691E+08
 
   -0.16836E+08         0.80709E+06         0.00000E+00
    0.80709E+06        -0.44354E+08         0.00000E+00
    0.00000E+00         0.00000E+00        -0.16039E+08
 
   -0.16725E+08         0.12153E+07         0.00000E+00
    0.12153E+07        -0.44492E+08         0.00000E+00
    0.00000E+00         0.00000E+00        -0.16390E+08
 
   -0.16750E+08         0.16995E+07         0.00000E+00
    0.16995E+07        -0.44641E+08         0.00000E+00
    0.00000E+00         0.00000E+00        -0.16675E+08
 
   -0.24969E+08        -0.28146E+06         0.00000E+00
   -0.28146E+06        -0.45839E+08         0.00000E+00
    0.00000E+00         0.00000E+00        -0.14162E+08
 
   -0.23581E+08        -0.64791E+06         0.00000E+00
   -0.64791E+06        -0.45819E+08         0.00000E+00
    0.00000E+00         0.00000E+00        -0.13880E+08
 
   -0.22411E+08        -0.79991E+06         0.00000E+00
   -0.79991E+06        -0.45752E+08         0.00000E+00
    0.00000E+00         0.00000E+00        -0.13813E+08
 
   -0.21599E+08        -0.81083E+06         0.00000E+00
   -0.81083E+06        -0.45636E+08         0.00000E+00
    0.00000E+00         0.00000E+00        -0.14105E+08
 
   -0.20899E+08        -0.74608E+06         0.00000E+00
   -0.74608E+06        -0.45493E+08         0.00000E+00
    0.00000E+00         0.00000E+00        -0.14339E+08
 
   -0.20302E+08        -0.64378E+06         0.00000E+00
   -0.64378E+06        -0.45347E+08         0.00000E+00
    0.00000E+00         0.00000E+00        -0.14533E+08
 
   -0.19788E+08        -0.52189E+06         0.00000E+00
   -0.52189E+06        -0.45216E+08         0.00000E+00
    0.00000E+00         0.00000E+00        -0.14708E+08
 
   -0.19338E+08        -0.38649E+06         0.00000E+00
   -0.38649E+06        -0.45109E+08         0.00000E+00
    0.00000E+00         0.00000E+00        -0.14884E+08
 
   -0.18937E+08        -0.23768E+06         0.00000E+00
   -0.23768E+06        -0.45034E+08         0.00000E+00
    0.00000E+00         0.00000E+00        -0.15078E+08
 
   -0.18572E+08        -0.71202E+05         0.00000E+00
   -0.71202E+05        -0.45001E+08         0.00000E+00
    0.00000E+00         0.00000E+00        -0.15307E+08
 
   -0.18237E+08         0.12233E+06         0.00000E+00
    0.12233E+06        -0.45016E+08         0.00000E+00
    0.00000E+00         0.00000E+00        -0.15588E+08
 
   -0.17934E+08         0.35885E+06         0.00000E+00
    0.35885E+06        -0.45088E+08         0.00000E+00
    0.00000E+00         0.00000E+00        -0.15933E+08
 
   -0.17676E+08         0.65977E+06         0.00000E+00
    0.65977E+06        -0.45220E+08         0.00000E+00
    0.00000E+00         0.00000E+00        -0.16344E+08
 
   -0.17482E+08         0.10427E+07         0.00000E+00
    0.10427E+07        -0.45399E+08         0.00000E+00
    0.00000E+00         0.00000E+00        -0.16800E+08
 
   -0.17412E+08         0.15223E+07         0.00000E+00
    0.15223E+07        -0.45602E+08         0.00000E+00
    0.00000E+00         0.00000E+00        -0.17228E+08
 
   -0.26658E+08        -0.28399E+06         0.00000E+00
   -0.28399E+06        -0.47038E+08         0.00000E+00
    0.00000E+00         0.00000E+00        -0.14739E+08
 
   -0.25003E+08        -0.59984E+06         0.00000E+00
   -0.59984E+06        -0.46992E+08         0.00000E+00
    0.00000E+00         0.00000E+00        -0.14399E+08
 
   -0.23662E+08        -0.68837E+06         0.00000E+00
   -0.68837E+06        -0.46859E+08         0.00000E+00
    0.00000E+00         0.00000E+00        -0.14278E+08
 
   -0.22758E+08        -0.66059E+06         0.00000E+00
   -0.66059E+06        -0.46664E+08         0.00000E+00
    0.00000E+00         0.00000E+00        -0.14510E+08
 
   -0.22019E+08        -0.58631E+06         0.00000E+00
   -0.58631E+06        -0.46456E+08         0.00000E+00
    0.00000E+00         0.00000E+00        -0.14680E+08
 
   -0.21405E+08        -0.49597E+06         0.00000E+00
   -0.49597E+06        -0.46263E+08         0.00000E+00
    0.00000E+00         0.00000E+00        -0.14819E+08
 
   -0.20882E+08        -0.39764E+06         0.00000E+00
   -0.39764E+06        -0.46097E+08         0.00000E+00
    0.00000E+00         0.00000E+00        -0.14949E+08
 
   -0.20425E+08        -0.29334E+06         0.00000E+00
   -0.29334E+06        -0.45964E+08         0.00000E+00
    0.00000E+00         0.00000E+00        -0.15089E+08
 
   -0.20014E+08        -0.18214E+06         0.00000E+00
   -0.18214E+06        -0.45871E+08         0.00000E+00
    0.00000E+00         0.00000E+00        -0.15255E+08
 
   -0.19633E+08        -0.60530E+05         0.00000E+00
   -0.60530E+05        -0.45822E+08         0.00000E+00
    0.00000E+00         0.00000E+00        -0.15462E+08
 
   -0.19269E+08         0.78483E+05         0.00000E+00
    0.78483E+05        -0.45824E+08         0.00000E+00
    0.00000E+00         0.00000E+00        -0.15730E+08
 
   -0.18916E+08         0.24905E+06         0.00000E+00
    0.24905E+06        -0.45890E+08         0.00000E+00
    0.00000E+00         0.00000E+00        -0.16082E+08
 
   -0.18577E+08         0.47935E+06         0.00000E+00
    0.47935E+06        -0.46032E+08         0.00000E+00
    0.00000E+00         0.00000E+00        -0.16543E+08
 
   -0.18281E+08         0.81168E+06         0.00000E+00
    0.81168E+06        -0.46263E+08         0.00000E+00
    0.00000E+00         0.00000E+00        -0.17120E+08
 
   -0.18077E+08         0.12699E+07         0.00000E+00
    0.12699E+07        -0.46545E+08         0.00000E+00
    0.00000E+00         0.00000E+00        -0.17747E+08
 
   -0.28304E+08        -0.27661E+06         0.00000E+00
   -0.27661E+06        -0.48224E+08         0.00000E+00
    0.00000E+00         0.00000E+00        -0.15306E+08
 
   -0.26332E+08        -0.47384E+06         0.00000E+00
   -0.47384E+06        -0.48107E+08         0.00000E+00
    0.00000E+00         0.00000E+00        -0.14888E+08
 
   -0.24859E+08        -0.48036E+06         0.00000E+00
   -0.48036E+06        -0.47859E+08         0.00000E+00
    0.00000E+00         0.00000E+00        -0.14683E+08
 
   -0.23903E+08        -0.43223E+06         0.00000E+00
   -0.43223E+06        -0.47577E+08         0.00000E+00
    0.00000E+00         0.00000E+00        -0.14822E+08
 
   -0.23154E+08        -0.37305E+06         0.00000E+00
   -0.37305E+06        -0.47318E+08         0.00000E+00
    0.00000E+00         0.00000E+00        -0.14930E+08
 
   -0.22538E+08        -0.31110E+06         0.00000E+00
   -0.31110E+06        -0.47093E+08         0.00000E+00
    0.00000E+00         0.00000E+00        -0.15022E+08
 
   -0.22016E+08        -0.24702E+06         0.00000E+00
   -0.24702E+06        -0.46906E+08         0.00000E+00
    0.00000E+00         0.00000E+00        -0.15117E+08
 
   -0.21558E+08        -0.18082E+06         0.00000E+00
   -0.18082E+06        -0.46761E+08         0.00000E+00
    0.00000E+00         0.00000E+00        -0.15229E+08
 
   -0.21143E+08        -0.11162E+06         0.00000E+00
   -0.11162E+06        -0.46658E+08         0.00000E+00
    0.00000E+00         0.00000E+00        -0.15371E+08
 
   -0.20755E+08        -0.37290E+05         0.00000E+00
   -0.37290E+05        -0.46603E+08         0.00000E+00
    0.00000E+00         0.00000E+00        -0.15559E+08
 
   -0.20376E+08         0.45932E+05         0.00000E+00
    0.45932E+05        -0.46601E+08         0.00000E+00
    0.00000E+00         0.00000E+00        -0.15810E+08
 
   -0.19989E+08         0.14617E+06         0.00000E+00
    0.14617E+06        -0.46660E+08         0.00000E+00
    0.00000E+00         0.00000E+00        -0.16153E+08
 
   -0.19578E+08         0.28237E+06         0.00000E+00
    0.28237E+06        -0.46800E+08         0.00000E+00
    0.00000E+00         0.00000E+00        -0.16631E+08
 
   -0.19141E+08         0.50515E+06         0.00000E+00
    0.50515E+06        -0.47051E+08         0.00000E+00
    0.00000E+00         0.00000E+00        -0.17306E+08
 
   -0.18751E+08         0.91805E+06         0.00000E+00
    0.91805E+06        -0.47459E+08         0.00000E+00
    0.00000E+00         0.00000E+00        -0.18219E+08
 
   -0.29813E+08        -0.18072E+06         0.00000E+00
   -0.18072E+06        -0.49284E+08         0.00000E+00
    0.00000E+00         0.00000E+00        -0.15819E+08
 
   -0.27533E+08        -0.19379E+06         0.00000E+00
   -0.19379E+06        -0.48963E+08         0.00000E+00
    0.00000E+00         0.00000E+00        -0.15299E+08
 
   -0.26027E+08        -0.17437E+06         0.00000E+00
   -0.17437E+06        -0.48630E+08         0.00000E+00
    0.00000E+00         0.00000E+00        -0.14972E+08
 
   -0.25060E+08        -0.15037E+06         0.00000E+00
   -0.15037E+06        -0.48321E+08         0.00000E+00
    0.00000E+00         0.00000E+00        -0.14996E+08
 
   -0.24320E+08        -0.12788E+06         0.00000E+00
   -0.12788E+06        -0.48047E+08         0.00000E+00
    0.00000E+00         0.00000E+00        -0.15064E+08
 
   -0.23711E+08        -0.10592E+06         0.00000E+00
   -0.10592E+06        -0.47815E+08         0.00000E+00
    0.00000E+00         0.00000E+00        -0.15129E+08
 
   -0.23193E+08        -0.83577E+05         0.00000E+00
   -0.83577E+05        -0.47627E+08         0.00000E+00
    0.00000E+00         0.00000E+00        -0.15203E+08
 
   -0.22738E+08        -0.60785E+05         0.00000E+00
   -0.60785E+05        -0.47483E+08         0.00000E+00
    0.00000E+00         0.00000E+00        -0.15299E+08
 
   -0.22326E+08        -0.37123E+05         0.00000E+00
   -0.37123E+05        -0.47386E+08         0.00000E+00
    0.00000E+00         0.00000E+00        -0.15428E+08
 
   -0.21937E+08        -0.11951E+05         0.00000E+00
   -0.11951E+05        -0.47339E+08         0.00000E+00
    0.00000E+00         0.00000E+00        -0.15603E+08
 
   -0.21553E+08         0.15847E+05         0.00000E+00
    0.15847E+05        -0.47344E+08         0.00000E+00
    0.00000E+00         0.00000E+00        -0.15844E+08
 
   -0.21153E+08         0.48615E+05         0.00000E+00
    0.48615E+05        -0.47412E+08         0.00000E+00
    0.00000E+00         0.00000E+00        -0.16175E+08
 
   -0.20706E+08         0.91690E+05         0.00000E+00
    0.91690E+05        -0.47558E+08         0.00000E+00
    0.00000E+00         0.00000E+00        -0.16648E+08
 
   -0.20163E+08         0.16421E+06         0.00000E+00
    0.16421E+06        -0.47820E+08         0.00000E+00
    0.00000E+00         0.00000E+00        -0.17366E+08
 
   -0.19444E+08         0.35752E+06         0.00000E+00
    0.35752E+06        -0.48287E+08         0.00000E+00
    0.00000E+00         0.00000E+00        -0.18574E+08
 
TENSORS stresstot double 
   -0.36032E+08         0.45740E+04         0.00000E+00
    0.45740E+04        -0.59994E+08         0.00000E+00
    0.00000E+00         0.00000E+00        -0.41217E+08
 
   -0.36046E+08         0.13984E+05         0.00000E+00
    0.13984E+05        -0.59976E+08         0.00000E+00
    0.00000E+00         0.00000E+00        -0.41154E+08
 
   -0.36062E+08         0.22833E+05         0.00000E+00
    0.22833E+05        -0.59940E+08         0.00000E+00
    0.00000E+00         0.00000E+00        -0.41051E+08
 
   -0.36086E+08         0.30334E+05         0.00000E+00
    0.30334E+05        -0.59887E+08         0.00000E+00
    0.00000E+00         0.00000E+00        -0.40901E+08
 
   -0.36128E+08         0.35741E+05         0.00000E+00
    0.35741E+05        -0.59821E+08         0.00000E+00
    0.00000E+00         0.00000E+00        -0.40698E+08
 
   -0.36191E+08         0.38716E+05         0.00000E+00
    0.38716E+05        -0.59746E+08         0.00000E+00
    0.00000E+00         0.00000E+00        -0.40444E+08
 
   -0.36278E+08         0.39731E+05         0.00000E+00
    0.39731E+05        -0.59668E+08         0.00000E+00
    0.00000E+00         0.00000E+00        -0.40150E+08
 
   -0.36386E+08         0.39326E+05         0.00000E+00
    0.39326E+05        -0.59590E+08         0.00000E+00
    0.00000E+00         0.00000E+00        -0.39830E+08
 
   -0.36507E+08         0.38144E+05         0.00000E+00
    0.38144E+05        -0.59513E+08         0.00000E+00
    0.00000E+00         0.00000E+00        -0.39501E+08
 
   -0.36924E+08         0.39795E+05         0.00000E+00
    0.39795E+05        -0.59437E+08         0.00000E+00
    0.00000E+00         0.00000E+00        -0.39424E+08
 
   -0.37490E+08         0.46282E+05         0.00000E+00
    0.46282E+05        -0.59351E+08         0.00000E+00
    0.00000E+00         0.00000E+00        -0.39498E+08
 
   -0.38023E+08         0.55677E+05         0.00000E+00
    0.55677E+05        -0.59249E+08         0.00000E+00
    0.00000E+00         0.00000E+00        -0.39565E+08
 
   -0.38533E+08         0.67935E+05         0.00000E+00
    0.67935E+05        -0.59126E+08         0.00000E+00
    0.00000E+00         0.00000E+00        -0.39627E+08
 
   -0.39029E+08         0.83039E+05         0.00000E+00
    0.83039E+05        -0.58976E+08         0.00000E+00
    0.00000E+00         0.00000E+00        -0.39686E+08
 
   -0.39523E+08         0.10095E+06         0.00000E+00
    0.10095E+06        -0.58792E+08         0.00000E+00
    0.00000E+00         0.00000E+00        -0.39743E+08
 
   -0.36013E+08         0.13471E+05         0.00000E+00
    0.13471E+05        -0.59994E+08         0.00000E+00
    0.00000E+00         0.00000E+00        -0.41186E+08
 
   -0.36028E+08         0.41268E+05         0.00000E+00
    0.41268E+05        -0.59977E+08         0.00000E+00
    0.00000E+00         0.00000E+00        -0.41124E+08
 
   -0.36046E+08         0.67489E+05         0.00000E+00
    0.67489E+05        -0.59942E+08         0.00000E+00
    0.00000E+00         0.00000E+00        -0.41022E+08
 
   -0.36073E+08         0.89840E+05         0.00000E+00
    0.89840E+05        -0.59892E+08         0.00000E+00
    0.00000E+00         0.00000E+00        -0.40871E+08
 
   -0.36119E+08         0.10605E+06         0.00000E+00
    0.10605E+06        -0.59828E+08         0.00000E+00
    0.00000E+00         0.00000E+00        -0.40665E+08
 
   -0.36187E+08         0.11507E+06         0.00000E+00
    0.11507E+06        -0.59756E+08         0.00000E+00
    0.00000E+00         0.00000E+00        -0.40410E+08
 
   -0.36278E+08         0.11817E+06         0.00000E+00
    0.11817E+06        -0.59680E+08         0.00000E+00
    0.00000E+00         0.00000E+00        -0.40115E+08
 
   -0.36388E+08         0.11691E+06         0.00000E+00
    0.11691E+06        -0.59604E+08         0.00000E+00
    0.00000E+00         0.00000E+00        -0.39796E+08
 
   -0.36510E+08         0.11334E+06         0.00000E+00
    0.11334E+06        -0.59529E+08         0.00000E+00
    0.00000E+00         0.00000E+00        -0.39470E+08
 
   -0.36914E+08         0.11837E+06         0.00000E+00
    0.11837E+06        -0.59455E+08         0.00000E+00
    0.00000E+00         0.00000E+00        -0.39387E+08
 
   -0.37474E+08         0.13785E+06         0.00000E+00
    0.13785E+06        -0.59371E+08         0.00000E+00
    0.00000E+00         0.00000E+00        -0.39459E+08
 
   -0.38001E+08         0.16599E+06         0.00000E+00
    0.16599E+06        -0.59271E+08         0.00000E+00
    0.00000E+00         0.00000E+00        -0.39526E+08
 
   -0.38505E+08         0.20271E+06         0.00000E+00
    0.20271E+06        -0.59150E+08         0.00000E+00
    0.00000E+00         0.00000E+00        -0.39587E+08
 
   -0.38996E+08         0.24797E+06         0.00000E+00
    0.24797E+06        -0.59002E+08         0.00000E+00
    0.00000E+00         0.00000E+00        -0.39646E+08
 
   -0.39485E+08         0.30167E+06         0.00000E+00
    0.30167E+06        -0.58821E+08         0.00000E+00
    0.00000E+00         0.00000E+00        -0.39702E+08
 
   -0.35977E+08         0.21700E+05         0.00000E+00
    0.21700E+05        -0.59994E+08         0.00000E+00
    0.00000E+00         0.00000E+00        -0.41122E+08
 
   -0.35992E+08         0.66590E+05         0.00000E+00
    0.66590E+05        -0.59978E+08         0.00000E+00
    0.00000E+00         0.00000E+00        -0.41062E+08
 
   -0.36013E+08         0.10921E+06         0.00000E+00
    0.10921E+06        -0.59947E+08         0.00000E+00
    0.00000E+00         0.00000E+00        -0.40961E+08
 
   -0.36048E+08         0.14571E+06         0.00000E+00
    0.14571E+06        -0.59901E+08         0.00000E+00
    0.00000E+00         0.00000E+00        -0.40809E+08
 
   -0.36103E+08         0.17249E+06         0.00000E+00
    0.17249E+06        -0.59843E+08         0.00000E+00
    0.00000E+00         0.00000E+00        -0.40600E+08
 
   -0.36179E+08         0.18797E+06         0.00000E+00
    0.18797E+06        -0.59777E+08         0.00000E+00
    0.00000E+00         0.00000E+00        -0.40342E+08
 
   -0.36277E+08         0.19352E+06         0.00000E+00
    0.19352E+06        -0.59705E+08         0.00000E+00
    0.00000E+00         0.00000E+00        -0.40046E+08
 
   -0.36391E+08         0.19150E+06         0.00000E+00
    0.19150E+06        -0.59633E+08         0.00000E+00
    0.00000E+00         0.00000E+00        -0.39729E+08
 
   -0.36515E+08         0.18548E+06         0.00000E+00
    0.18548E+06        -0.59562E+08         0.00000E+00
    0.00000E+00         0.00000E+00        -0.39409E+08
 
   -0.36894E+08         0.19399E+06         0.00000E+00
    0.19399E+06        -0.59491E+08         0.00000E+00
    0.00000E+00         0.00000E+00        -0.39311E+08
 
   -0.37442E+08         0.22644E+06         0.00000E+00
    0.22644E+06        -0.59411E+08         0.00000E+00
    0.00000E+00         0.00000E+00        -0.39383E+08
 
   -0.37958E+08         0.27317E+06         0.00000E+00
    0.27317E+06        -0.59316E+08         0.00000E+00
    0.00000E+00         0.00000E+00        -0.39448E+08
 
   -0.38451E+08         0.33423E+06         0.00000E+00
    0.33423E+06        -0.59199E+08         0.00000E+00
    0.00000E+00         0.00000E+00        -0.39508E+08
 
   -0.38931E+08         0.40949E+06         0.00000E+00
    0.40949E+06        -0.59055E+08         0.00000E+00
    0.00000E+00         0.00000E+00        -0.39565E+08
 
   -0.39408E+08         0.49881E+06         0.00000E+00
    0.49881E+06        -0.58878E+08         0.00000E+00
    0.00000E+00         0.00000E+00        -0.39620E+08
 
   -0.35924E+08         0.29045E+05         0.00000E+00
    0.29045E+05        -0.59993E+08         0.00000E+00
    0.00000E+00         0.00000E+00        -0.41024E+08
 
   -0.35940E+08         0.89028E+05         0.00000E+00
    0.89028E+05        -0.59980E+08         0.00000E+00
    0.00000E+00         0.00000E+00        -0.40967E+08
 
   -0.35966E+08         0.14615E+06         0.00000E+00
    0.14615E+06        -0.59953E+08         0.00000E+00
    0.00000E+00         0.00000E+00        -0.40867E+08
 
   -0.36010E+08         0.19522E+06         0.00000E+00
    0.19522E+06        -0.59914E+08         0.00000E+00
    0.00000E+00         0.00000E+00        -0.40712E+08
 
   -0.36077E+08         0.23177E+06         0.00000E+00
    0.23177E+06        -0.59865E+08         0.00000E+00
    0.00000E+00         0.00000E+00        -0.40501E+08
 
   -0.36166E+08         0.25428E+06         0.00000E+00
    0.25428E+06        -0.59808E+08         0.00000E+00
    0.00000E+00         0.00000E+00        -0.40242E+08
 
   -0.36274E+08         0.26336E+06         0.00000E+00
    0.26336E+06        -0.59745E+08         0.00000E+00
    0.00000E+00         0.00000E+00        -0.39947E+08
 
   -0.36396E+08         0.26163E+06         0.00000E+00
    0.26163E+06        -0.59678E+08         0.00000E+00
    0.00000E+00         0.00000E+00        -0.39633E+08
 
   -0.36524E+08         0.25332E+06         0.00000E+00
    0.25332E+06        -0.59611E+08         0.00000E+00
    0.00000E+00         0.00000E+00        -0.39319E+08
 
   -0.36864E+08         0.26491E+06         0.00000E+00
    0.26491E+06        -0.59545E+08         0.00000E+00
    0.00000E+00         0.00000E+00        -0.39199E+08
 
   -0.37395E+08         0.31005E+06         0.00000E+00
    0.31005E+06        -0.59471E+08         0.00000E+00
    0.00000E+00         0.00000E+00        -0.39268E+08
 
   -0.37893E+08         0.37526E+06         0.00000E+00
    0.37526E+06        -0.59382E+08         0.00000E+00
    0.00000E+00         0.00000E+00        -0.39331E+08
 
   -0.38369E+08         0.46043E+06         0.00000E+00
    0.46043E+06        -0.59271E+08         0.00000E+00
    0.00000E+00         0.00000E+00        -0.39389E+08
 
   -0.38832E+08         0.56534E+06         0.00000E+00
    0.56534E+06        -0.59134E+08         0.00000E+00
    0.00000E+00         0.00000E+00        -0.39444E+08
 
   -0.39292E+08         0.68996E+06         0.00000E+00
    0.68996E+06        -0.58964E+08         0.00000E+00
    0.00000E+00         0.00000E+00        -0.39497E+08
 
   -0.35858E+08         0.35368E+05         0.00000E+00
    0.35368E+05        -0.59993E+08         0.00000E+00
    0.00000E+00         0.00000E+00        -0.40888E+08
 
   -0.35875E+08         0.10808E+06         0.00000E+00
    0.10808E+06        -0.59982E+08         0.00000E+00
    0.00000E+00         0.00000E+00        -0.40835E+08
 
   -0.35906E+08         0.17679E+06         0.00000E+00
    0.17679E+06        -0.59960E+08         0.00000E+00
    0.00000E+00         0.00000E+00        -0.40736E+08
 
   -0.35962E+08         0.23553E+06         0.00000E+00
    0.23553E+06        -0.59930E+08         0.00000E+00
    0.00000E+00         0.00000E+00        -0.40579E+08
 
   -0.36043E+08         0.28012E+06         0.00000E+00
    0.28012E+06        -0.59893E+08         0.00000E+00
    0.00000E+00         0.00000E+00        -0.40368E+08
 
   -0.36148E+08         0.30984E+06         0.00000E+00
    0.30984E+06        -0.59849E+08         0.00000E+00
    0.00000E+00         0.00000E+00        -0.40112E+08
 
   -0.36270E+08         0.32449E+06         0.00000E+00
    0.32449E+06        -0.59799E+08         0.00000E+00
    0.00000E+00         0.00000E+00        -0.39822E+08
 
   -0.36401E+08         0.32570E+06         0.00000E+00
    0.32570E+06        -0.59741E+08         0.00000E+00
    0.00000E+00         0.00000E+00        -0.39513E+08
 
   -0.36535E+08         0.31694E+06         0.00000E+00
    0.31694E+06        -0.59680E+08         0.00000E+00
    0.00000E+00         0.00000E+00        -0.39204E+08
 
   -0.36824E+08         0.32952E+06         0.00000E+00
    0.32952E+06        -0.59619E+08         0.00000E+00
    0.00000E+00         0.00000E+00        -0.39049E+08
 
   -0.37332E+08         0.38704E+06         0.00000E+00
    0.38704E+06        -0.59551E+08         0.00000E+00
    0.00000E+00         0.00000E+00        -0.39115E+08
 
   -0.37808E+08         0.47060E+06         0.00000E+00
    0.47060E+06        -0.59469E+08         0.00000E+00
    0.00000E+00         0.00000E+00        -0.39176E+08
 
   -0.38261E+08         0.57937E+06         0.00000E+00
    0.57937E+06        -0.59366E+08         0.00000E+00
    0.00000E+00         0.00000E+00        -0.39231E+08
 
   -0.38701E+08         0.71332E+06         0.00000E+00
    0.71332E+06        -0.59238E+08         0.00000E+00
    0.00000E+00         0.00000E+00        -0.39283E+08
 
   -0.39139E+08         0.87269E+06         0.00000E+00
    0.87269E+06        -0.59077E+08         0.00000E+00
    0.00000E+00         0.00000E+00        -0.39334E+08
 
   -0.35779E+08         0.40649E+05         0.00000E+00
    0.40649E+05        -0.59993E+08         0.00000E+00
    0.00000E+00         0.00000E+00        -0.40713E+08
 
   -0.35798E+08         0.12317E+06         0.00000E+00
    0.12317E+06        -0.59984E+08         0.00000E+00
    0.00000E+00         0.00000E+00        -0.40663E+08
 
   -0.35838E+08         0.19983E+06         0.00000E+00
    0.19983E+06        -0.59969E+08         0.00000E+00
    0.00000E+00         0.00000E+00        -0.40561E+08
 
   -0.35907E+08         0.26420E+06         0.00000E+00
    0.26420E+06        -0.59950E+08         0.00000E+00
    0.00000E+00         0.00000E+00        -0.40404E+08
 
   -0.36003E+08         0.31417E+06         0.00000E+00
    0.31417E+06        -0.59927E+08         0.00000E+00
    0.00000E+00         0.00000E+00        -0.40197E+08
 
   -0.36123E+08         0.34995E+06         0.00000E+00
    0.34995E+06        -0.59900E+08         0.00000E+00
    0.00000E+00         0.00000E+00        -0.39950E+08
 
   -0.36259E+08         0.37237E+06         0.00000E+00
    0.37237E+06        -0.59866E+08         0.00000E+00
    0.00000E+00         0.00000E+00        -0.39672E+08
 
   -0.36404E+08         0.38148E+06         0.00000E+00
    0.38148E+06        -0.59823E+08         0.00000E+00
    0.00000E+00         0.00000E+00        -0.39374E+08
 
   -0.36546E+08         0.37659E+06         0.00000E+00
    0.37659E+06        -0.59768E+08         0.00000E+00
    0.00000E+00         0.00000E+00        -0.39070E+08
 
   -0.36778E+08         0.38742E+06         0.00000E+00
    0.38742E+06        -0.59709E+08         0.00000E+00
    0.00000E+00         0.00000E+00        -0.38871E+08
 
   -0.37254E+08         0.45632E+06         0.00000E+00
    0.45632E+06        -0.59651E+08         0.00000E+00
    0.00000E+00         0.00000E+00        -0.38926E+08
 
   -0.37701E+08         0.55769E+06         0.00000E+00
    0.55769E+06        -0.59578E+08         0.00000E+00
    0.00000E+00         0.00000E+00        -0.38982E+08
 
   -0.38127E+08         0.68934E+06         0.00000E+00
    0.68934E+06        -0.59484E+08         0.00000E+00
    0.00000E+00         0.00000E+00        -0.39034E+08
 
   -0.38539E+08         0.85116E+06         0.00000E+00
    0.85116E+06        -0.59366E+08         0.00000E+00
    0.00000E+00         0.00000E+00        -0.39083E+08
 
   -0.38948E+08         0.10444E+07         0.00000E+00
    0.10444E+07        -0.59217E+08         0.00000E+00
    0.00000E+00         0.00000E+00        -0.39130E+08
 
   -0.35692E+08         0.44672E+05         0.00000E+00
    0.44672E+05        -0.59993E+08         0.00000E+00
    0.00000E+00         0.00000E+00        -0.40495E+08
 
   -0.35714E+08         0.13378E+06         0.00000E+00
    0.13378E+06        -0.59988E+08         0.00000E+00
    0.00000E+00         0.00000E+00        -0.40446E+08
 
   -0.35765E+08         0.21381E+06         0.00000E+00
    0.21381E+06        -0.59980E+08         0.00000E+00
    0.00000E+00         0.00000E+00        -0.40342E+08
 
   -0.35848E+08         0.27962E+06         0.00000E+00
    0.27962E+06        -0.59972E+08         0.00000E+00
    0.00000E+00         0.00000E+00        -0.40185E+08
 
   -0.35959E+08         0.33132E+06         0.00000E+00
    0.33132E+06        -0.59965E+08         0.00000E+00
    0.00000E+00         0.00000E+00        -0.39985E+08
 
   -0.36091E+08         0.37141E+06         0.00000E+00
    0.37141E+06        -0.59956E+08         0.00000E+00
    0.00000E+00         0.00000E+00        -0.39754E+08
 
   -0.36239E+08         0.40205E+06         0.00000E+00
    0.40205E+06        -0.59942E+08         0.00000E+00
    0.00000E+00         0.00000E+00        -0.39497E+08
 
   -0.36397E+08         0.42336E+06         0.00000E+00
    0.42336E+06        -0.59918E+08         0.00000E+00
    0.00000E+00         0.00000E+00        -0.39218E+08
 
   -0.36555E+08         0.43210E+06         0.00000E+00
    0.43210E+06        -0.59879E+08         0.00000E+00
    0.00000E+00         0.00000E+00        -0.38924E+08
 
   -0.36732E+08         0.44144E+06         0.00000E+00
    0.44144E+06        -0.59825E+08         0.00000E+00
    0.00000E+00         0.00000E+00        -0.38672E+08
 
   -0.37161E+08         0.51553E+06         0.00000E+00
    0.51553E+06        -0.59770E+08         0.00000E+00
    0.00000E+00         0.00000E+00        -0.38699E+08
 
   -0.37574E+08         0.63602E+06         0.00000E+00
    0.63602E+06        -0.59705E+08         0.00000E+00
    0.00000E+00         0.00000E+00        -0.38751E+08
 
   -0.37968E+08         0.78847E+06         0.00000E+00
    0.78847E+06        -0.59622E+08         0.00000E+00
    0.00000E+00         0.00000E+00        -0.38799E+08
 
   -0.38347E+08         0.97644E+06         0.00000E+00
    0.97644E+06        -0.59517E+08         0.00000E+00
    0.00000E+00         0.00000E+00        -0.38844E+08
 
   -0.38721E+08         0.12023E+07         0.00000E+00
    0.12023E+07        -0.59383E+08         0.00000E+00
    0.00000E+00         0.00000E+00        -0.38887E+08
 
   -0.35598E+08         0.47139E+05         0.00000E+00
    0.47139E+05        -0.59994E+08         0.00000E+00
    0.00000E+00         0.00000E+00        -0.40233E+08
 
   -0.35626E+08         0.13879E+06         0.00000E+00
    0.13879E+06        -0.59993E+08         0.00000E+00
    0.00000E+00         0.00000E+00        -0.40182E+08
 
   -0.35691E+08         0.21734E+06         0.00000E+00
    0.21734E+06        -0.59994E+08         0.00000E+00
    0.00000E+00         0.00000E+00        -0.40073E+08
 
   -0.35790E+08         0.28032E+06         0.00000E+00
    0.28032E+06        -0.60000E+08         0.00000E+00
    0.00000E+00         0.00000E+00        -0.39917E+08
 
   -0.35913E+08         0.33092E+06         0.00000E+00
    0.33092E+06        -0.60008E+08         0.00000E+00
    0.00000E+00         0.00000E+00        -0.39730E+08
 
   -0.36054E+08         0.37336E+06         0.00000E+00
    0.37336E+06        -0.60017E+08         0.00000E+00
    0.00000E+00         0.00000E+00        -0.39521E+08
 
   -0.36209E+08         0.41070E+06         0.00000E+00
    0.41070E+06        -0.60023E+08         0.00000E+00
    0.00000E+00         0.00000E+00        -0.39292E+08
 
   -0.36375E+08         0.44471E+06         0.00000E+00
    0.44471E+06        -0.60020E+08         0.00000E+00
    0.00000E+00         0.00000E+00        -0.39043E+08
 
   -0.36545E+08         0.47386E+06         0.00000E+00
    0.47386E+06        -0.60002E+08         0.00000E+00
    0.00000E+00         0.00000E+00        -0.38772E+08
 
   -0.36705E+08         0.49594E+06         0.00000E+00
    0.49594E+06        -0.59961E+08         0.00000E+00
    0.00000E+00         0.00000E+00        -0.38492E+08
 
   -0.37044E+08         0.56780E+06         0.00000E+00
    0.56780E+06        -0.59905E+08         0.00000E+00
    0.00000E+00         0.00000E+00        -0.38434E+08
 
   -0.37431E+08         0.70382E+06         0.00000E+00
    0.70382E+06        -0.59850E+08         0.00000E+00
    0.00000E+00         0.00000E+00        -0.38483E+08
 
   -0.37788E+08         0.87495E+06         0.00000E+00
    0.87495E+06        -0.59779E+08         0.00000E+00
    0.00000E+00         0.00000E+00        -0.38527E+08
 
   -0.38127E+08         0.10868E+07         0.00000E+00
    0.10868E+07        -0.59688E+08         0.00000E+00
    0.00000E+00         0.00000E+00        -0.38567E+08
 
   -0.38458E+08         0.13430E+07         0.00000E+00
    0.13430E+07        -0.59572E+08         0.00000E+00
    0.00000E+00         0.00000E+00        -0.38605E+08
 
   -0.35502E+08         0.47663E+05         0.00000E+00
    0.47663E+05        -0.59995E+08         0.00000E+00
    0.00000E+00         0.00000E+00        -0.39923E+08
 
   -0.35540E+08         0.13657E+06         0.00000E+00
    0.13657E+06        -0.60000E+08         0.00000E+00
    0.00000E+00         0.00000E+00        -0.39867E+08
 
   -0.35623E+08         0.20865E+06         0.00000E+00
    0.20865E+06        -0.60012E+08         0.00000E+00
    0.00000E+00         0.00000E+00        -0.39750E+08
 
   -0.35735E+08         0.26584E+06         0.00000E+00
    0.26584E+06        -0.60031E+08         0.00000E+00
    0.00000E+00         0.00000E+00        -0.39600E+08
 
   -0.35867E+08         0.31370E+06         0.00000E+00
    0.31370E+06        -0.60055E+08         0.00000E+00
    0.00000E+00         0.00000E+00        -0.39431E+08
 
   -0.36013E+08         0.35676E+06         0.00000E+00
    0.35676E+06        -0.60081E+08         0.00000E+00
    0.00000E+00         0.00000E+00        -0.39248E+08
 
   -0.36170E+08         0.39901E+06         0.00000E+00
    0.39901E+06        -0.60104E+08         0.00000E+00
    0.00000E+00         0.00000E+00        -0.39051E+08
 
   -0.36336E+08         0.44399E+06         0.00000E+00
    0.44399E+06        -0.60121E+08         0.00000E+00
    0.00000E+00         0.00000E+00        -0.38838E+08
 
   -0.36508E+08         0.49364E+06         0.00000E+00
    0.49364E+06        -0.60125E+08         0.00000E+00
    0.00000E+00         0.00000E+00        -0.38606E+08
 
   -0.36687E+08         0.54309E+06         0.00000E+00
    0.54309E+06        -0.60110E+08         0.00000E+00
    0.00000E+00         0.00000E+00        -0.38348E+08
 
   -0.36910E+08         0.61572E+06         0.00000E+00
    0.61572E+06        -0.60071E+08         0.00000E+00
    0.00000E+00         0.00000E+00        -0.38153E+08
 
   -0.37272E+08         0.75947E+06         0.00000E+00
    0.75947E+06        -0.60013E+08         0.00000E+00
    0.00000E+00         0.00000E+00        -0.38179E+08
 
   -0.37587E+08         0.94860E+06         0.00000E+00
    0.94860E+06        -0.59954E+08         0.00000E+00
    0.00000E+00         0.00000E+00        -0.38217E+08
 
   -0.37882E+08         0.11796E+07         0.00000E+00
    0.11796E+07        -0.59879E+08         0.00000E+00
    0.00000E+00         0.00000E+00        -0.38252E+08
 
   -0.38162E+08         0.14628E+07         0.00000E+00
    0.14628E+07        -0.59784E+08         0.00000E+00
    0.00000E+00         0.00000E+00        -0.38284E+08
 
   -0.35407E+08         0.45354E+05         0.00000E+00
    0.45354E+05        -0.59998E+08         0.00000E+00
    0.00000E+00         0.00000E+00        -0.39565E+08
 
   -0.35463E+08         0.12526E+06         0.00000E+00
    0.12526E+06        -0.60009E+08         0.00000E+00
    0.00000E+00         0.00000E+00        -0.39493E+08
 
   -0.35563E+08         0.18686E+06         0.00000E+00
    0.18686E+06        -0.60032E+08         0.00000E+00
    0.00000E+00         0.00000E+00        -0.39373E+08
 
   -0.35686E+08         0.23664E+06         0.00000E+00
    0.23664E+06        -0.60065E+08         0.00000E+00
    0.00000E+00         0.00000E+00        -0.39235E+08
 
   -0.35823E+08         0.28044E+06         0.00000E+00
    0.28044E+06        -0.60104E+08         0.00000E+00
    0.00000E+00         0.00000E+00        -0.39088E+08
 
   -0.35970E+08         0.32329E+06         0.00000E+00
    0.32329E+06        -0.60145E+08         0.00000E+00
    0.00000E+00         0.00000E+00        -0.38934E+08
 
   -0.36124E+08         0.36963E+06         0.00000E+00
    0.36963E+06        -0.60185E+08         0.00000E+00
    0.00000E+00         0.00000E+00        -0.38773E+08
 
   -0.36283E+08         0.42336E+06         0.00000E+00
    0.42336E+06        -0.60218E+08         0.00000E+00
    0.00000E+00         0.00000E+00        -0.38600E+08
 
   -0.36449E+08         0.48689E+06         0.00000E+00
    0.48689E+06        -0.60241E+08         0.00000E+00
    0.00000E+00         0.00000E+00        -0.38411E+08
 
   -0.36626E+08         0.56208E+06         0.00000E+00
    0.56208E+06        -0.60248E+08         0.00000E+00
    0.00000E+00         0.00000E+00        -0.38195E+08
 
   -0.36813E+08         0.65928E+06         0.00000E+00
    0.65928E+06        -0.60237E+08         0.00000E+00
    0.00000E+00         0.00000E+00        -0.37956E+08
 
   -0.37079E+08         0.80807E+06         0.00000E+00
    0.80807E+06        -0.60205E+08         0.00000E+00
    0.00000E+00         0.00000E+00        -0.37846E+08
 
   -0.37375E+08         0.10086E+07         0.00000E+00
    0.10086E+07        -0.60145E+08         0.00000E+00
    0.00000E+00         0.00000E+00        -0.37874E+08
 
   -0.37618E+08         0.12533E+07         0.00000E+00
    0.12533E+07        -0.60086E+08         0.00000E+00
    0.00000E+00         0.00000E+00        -0.37902E+08
 
   -0.37836E+08         0.15557E+07         0.00000E+00
    0.15557E+07        -0.60016E+08         0.00000E+00
    0.00000E+00         0.00000E+00        -0.37927E+08
 
   -0.35321E+08         0.38865E+05         0.00000E+00
    0.38865E+05        -0.60001E+08         0.00000E+00
    0.00000E+00         0.00000E+00        -0.39149E+08
 
   -0.35399E+08         0.10392E+06         0.00000E+00
    0.10392E+06        -0.60019E+08         0.00000E+00
    0.00000E+00         0.00000E+00        -0.39059E+08
 
   -0.35513E+08         0.15238E+06         0.00000E+00
    0.15238E+06        -0.60053E+08         0.00000E+00
    0.00000E+00         0.00000E+00        -0.38942E+08
 
   -0.35643E+08         0.19293E+06         0.00000E+00
    0.19293E+06        -0.60099E+08         0.00000E+00
    0.00000E+00         0.00000E+00        -0.38821E+08
 
   -0.35782E+08         0.23194E+06         0.00000E+00
    0.23194E+06        -0.60153E+08         0.00000E+00
    0.00000E+00         0.00000E+00        -0.38701E+08
 
   -0.35925E+08         0.27445E+06         0.00000E+00
    0.27445E+06        -0.60209E+08         0.00000E+00
    0.00000E+00         0.00000E+00        -0.38581E+08
 
   -0.36071E+08         0.32497E+06         0.00000E+00
    0.32497E+06        -0.60263E+08         0.00000E+00
    0.00000E+00         0.00000E+00        -0.38458E+08
 
   -0.36220E+08         0.38706E+06         0.00000E+00
    0.38706E+06        -0.60311E+08         0.00000E+00
    0.00000E+00         0.00000E+00        -0.38325E+08
 
   -0.36372E+08         0.46362E+06         0.00000E+00
    0.46362E+06        -0.60347E+08         0.00000E+00
    0.00000E+00         0.00000E+00        -0.38177E+08
 
   -0.36530E+08         0.55822E+06         0.00000E+00
    0.55822E+06        -0.60366E+08         0.00000E+00
    0.00000E+00         0.00000E+00        -0.38007E+08
 
   -0.36703E+08         0.67511E+06         0.00000E+00
    0.67511E+06        -0.60368E+08         0.00000E+00
    0.00000E+00         0.00000E+00        -0.37809E+08
 
   -0.36895E+08         0.83582E+06         0.00000E+00
    0.83582E+06        -0.60367E+08         0.00000E+00
    0.00000E+00         0.00000E+00        -0.37605E+08
 
   -0.37133E+08         0.10550E+07         0.00000E+00
    0.10550E+07        -0.60356E+08         0.00000E+00
    0.00000E+00         0.00000E+00        -0.37516E+08
 
   -0.37345E+08         0.13084E+07         0.00000E+00
    0.13084E+07        -0.60306E+08         0.00000E+00
    0.00000E+00         0.00000E+00        -0.37518E+08
 
   -0.37488E+08         0.16121E+07         0.00000E+00
    0.16121E+07        -0.60266E+08         0.00000E+00
    0.00000E+00         0.00000E+00        -0.37534E+08
 
   -0.35252E+08         0.27593E+05         0.00000E+00
    0.27593E+05        -0.60004E+08         0.00000E+00
    0.00000E+00         0.00000E+00        -0.38670E+08
 
   -0.35352E+08         0.72537E+05         0.00000E+00
    0.72537E+05        -0.60030E+08         0.00000E+00
    0.00000E+00         0.00000E+00        -0.38566E+08
 
   -0.35476E+08         0.10547E+06         0.00000E+00
    0.10547E+06        -0.60074E+08         0.00000E+00
    0.00000E+00         0.00000E+00        -0.38459E+08
 
   -0.35608E+08         0.13539E+06         0.00000E+00
    0.13539E+06        -0.60133E+08         0.00000E+00
    0.00000E+00         0.00000E+00        -0.38361E+08
 
   -0.35743E+08         0.16890E+06         0.00000E+00
    0.16890E+06        -0.60201E+08         0.00000E+00
    0.00000E+00         0.00000E+00        -0.38273E+08
 
   -0.35878E+08         0.21144E+06         0.00000E+00
    0.21144E+06        -0.60271E+08         0.00000E+00
    0.00000E+00         0.00000E+00        -0.38191E+08
 
   -0.36012E+08         0.26716E+06         0.00000E+00
    0.26716E+06        -0.60338E+08         0.00000E+00
    0.00000E+00         0.00000E+00        -0.38107E+08
 
   -0.36145E+08         0.33936E+06         0.00000E+00
    0.33936E+06        -0.60396E+08         0.00000E+00
    0.00000E+00         0.00000E+00        -0.38015E+08
 
   -0.36279E+08         0.43065E+06         0.00000E+00
    0.43065E+06        -0.60441E+08         0.00000E+00
    0.00000E+00         0.00000E+00        -0.37908E+08
 
   -0.36416E+08         0.54275E+06         0.00000E+00
    0.54275E+06        -0.60469E+08         0.00000E+00
    0.00000E+00         0.00000E+00        -0.37779E+08
 
   -0.36560E+08         0.67913E+06         0.00000E+00
    0.67913E+06        -0.60475E+08         0.00000E+00
    0.00000E+00         0.00000E+00        -0.37625E+08
 
   -0.36719E+08         0.84709E+06         0.00000E+00
    0.84709E+06        -0.60467E+08         0.00000E+00
    0.00000E+00         0.00000E+00        -0.37449E+08
 
   -0.36894E+08         0.10630E+07         0.00000E+00
    0.10630E+07        -0.60461E+08         0.00000E+00
    0.00000E+00         0.00000E+00        -0.37286E+08
 
   -0.37058E+08         0.13291E+07         0.00000E+00
    0.13291E+07        -0.60470E+08         0.00000E+00
    0.00000E+00         0.00000E+00        -0.37185E+08
 
   -0.37159E+08         0.16174E+07         0.00000E+00
    0.16174E+07        -0.60469E+08         0.00000E+00
    0.00000E+00         0.00000E+00        -0.37172E+08
 
   -0.35209E+08         0.11916E+05         0.00000E+00
    0.11916E+05        -0.60007E+08         0.00000E+00
    0.00000E+00         0.00000E+00        -0.38123E+08
 
   -0.35324E+08         0.31991E+05         0.00000E+00
    0.31991E+05        -0.60038E+08         0.00000E+00
    0.00000E+00         0.00000E+00        -0.38015E+08
 
   -0.35452E+08         0.46484E+05         0.00000E+00
    0.46484E+05        -0.60094E+08         0.00000E+00
    0.00000E+00         0.00000E+00        -0.37925E+08
 
   -0.35581E+08         0.64364E+05         0.00000E+00
    0.64364E+05        -0.60165E+08         0.00000E+00
    0.00000E+00         0.00000E+00        -0.37857E+08
 
   -0.35707E+08         0.92341E+05         0.00000E+00
    0.92341E+05        -0.60245E+08         0.00000E+00
    0.00000E+00         0.00000E+00        -0.37806E+08
 
   -0.35828E+08         0.13562E+06         0.00000E+00
    0.13562E+06        -0.60328E+08         0.00000E+00
    0.00000E+00         0.00000E+00        -0.37765E+08
 
   -0.35944E+08         0.19816E+06         0.00000E+00
    0.19816E+06        -0.60406E+08         0.00000E+00
    0.00000E+00         0.00000E+00        -0.37724E+08
 
   -0.36056E+08         0.28263E+06         0.00000E+00
    0.28263E+06        -0.60473E+08         0.00000E+00
    0.00000E+00         0.00000E+00        -0.37674E+08
 
   -0.36168E+08         0.39061E+06         0.00000E+00
    0.39061E+06        -0.60526E+08         0.00000E+00
    0.00000E+00         0.00000E+00        -0.37608E+08
 
   -0.36282E+08         0.52315E+06         0.00000E+00
    0.52315E+06        -0.60558E+08         0.00000E+00
    0.00000E+00         0.00000E+00        -0.37519E+08
 
   -0.36400E+08         0.68073E+06         0.00000E+00
    0.68073E+06        -0.60568E+08         0.00000E+00
    0.00000E+00         0.00000E+00        -0.37404E+08
 
   -0.36526E+08         0.86587E+06         0.00000E+00
    0.86587E+06        -0.60557E+08         0.00000E+00
    0.00000E+00         0.00000E+00        -0.37265E+08
 
   -0.36658E+08         0.10845E+07         0.00000E+00
    0.10845E+07        -0.60531E+08         0.00000E+00
    0.00000E+00         0.00000E+00        -0.37120E+08
 
   -0.36787E+08         0.13377E+07         0.00000E+00
    0.13377E+07        -0.60505E+08         0.00000E+00
    0.00000E+00         0.00000E+00        -0.37005E+08
 
   -0.36901E+08         0.15986E+07         0.00000E+00
    0.15986E+07        -0.60502E+08         0.00000E+00
    0.00000E+00         0.00000E+00        -0.36957E+08
 
   -0.35198E+08        -0.71031E+04         0.00000E+00
   -0.71031E+04        -0.60008E+08         0.00000E+00
    0.00000E+00         0.00000E+00        -0.37510E+08
 
   -0.35321E+08        -0.16910E+05         0.00000E+00
   -0.16910E+05        -0.60046E+08         0.00000E+00
    0.00000E+00         0.00000E+00        -0.37409E+08
 
   -0.35445E+08        -0.23763E+05         0.00000E+00
   -0.23763E+05        -0.60110E+08         0.00000E+00
    0.00000E+00         0.00000E+00        -0.37345E+08
 
   -0.35563E+08        -0.19084E+05         0.00000E+00
   -0.19084E+05        -0.60193E+08         0.00000E+00
    0.00000E+00         0.00000E+00        -0.37313E+08
 
   -0.35673E+08         0.35375E+04         0.00000E+00
    0.35375E+04        -0.60285E+08         0.00000E+00
    0.00000E+00         0.00000E+00        -0.37304E+08
 
   -0.35773E+08         0.48722E+05         0.00000E+00
    0.48722E+05        -0.60378E+08         0.00000E+00
    0.00000E+00         0.00000E+00        -0.37306E+08
 
   -0.35865E+08         0.11967E+06         0.00000E+00
    0.11967E+06        -0.60465E+08         0.00000E+00
    0.00000E+00         0.00000E+00        -0.37310E+08
 
   -0.35953E+08         0.21822E+06         0.00000E+00
    0.21822E+06        -0.60540E+08         0.00000E+00
    0.00000E+00         0.00000E+00        -0.37304E+08
 
   -0.36038E+08         0.34499E+06         0.00000E+00
    0.34499E+06        -0.60599E+08         0.00000E+00
    0.00000E+00         0.00000E+00        -0.37280E+08
 
   -0.36126E+08         0.49944E+06         0.00000E+00
    0.49944E+06        -0.60636E+08         0.00000E+00
    0.00000E+00         0.00000E+00        -0.37233E+08
 
   -0.36218E+08         0.68075E+06         0.00000E+00
    0.68075E+06        -0.60650E+08         0.00000E+00
    0.00000E+00         0.00000E+00        -0.37157E+08
 
   -0.36316E+08         0.88743E+06         0.00000E+00
    0.88743E+06        -0.60641E+08         0.00000E+00
    0.00000E+00         0.00000E+00        -0.37057E+08
 
   -0.36423E+08         0.11170E+07         0.00000E+00
    0.11170E+07        -0.60615E+08         0.00000E+00
    0.00000E+00         0.00000E+00        -0.36943E+08
 
   -0.36539E+08         0.13619E+07         0.00000E+00
    0.13619E+07        -0.60584E+08         0.00000E+00
    0.00000E+00         0.00000E+00        -0.36833E+08
 
   -0.36655E+08         0.16100E+07         0.00000E+00
    0.16100E+07        -0.60557E+08         0.00000E+00
    0.00000E+00         0.00000E+00        -0.36747E+08
 
   -0.35225E+08        -0.28790E+05         0.00000E+00
   -0.28790E+05        -0.60011E+08         0.00000E+00
    0.00000E+00         0.00000E+00        -0.36837E+08
 
   -0.35344E+08        -0.72917E+05         0.00000E+00
   -0.72917E+05        -0.60052E+08         0.00000E+00
    0.00000E+00         0.00000E+00        -0.36755E+08
 
   -0.35456E+08        -0.10373E+06         0.00000E+00
   -0.10373E+06        -0.60124E+08         0.00000E+00
    0.00000E+00         0.00000E+00        -0.36724E+08
 
   -0.35555E+08        -0.11306E+06         0.00000E+00
   -0.11306E+06        -0.60216E+08         0.00000E+00
    0.00000E+00         0.00000E+00        -0.36733E+08
 
   -0.35640E+08        -0.95545E+05         0.00000E+00
   -0.95545E+05        -0.60316E+08         0.00000E+00
    0.00000E+00         0.00000E+00        -0.36768E+08
 
   -0.35712E+08        -0.47457E+05         0.00000E+00
   -0.47457E+05        -0.60418E+08         0.00000E+00
    0.00000E+00         0.00000E+00        -0.36817E+08
 
   -0.35774E+08         0.33257E+05         0.00000E+00
    0.33257E+05        -0.60513E+08         0.00000E+00
    0.00000E+00         0.00000E+00        -0.36867E+08
 
   -0.35831E+08         0.14719E+06         0.00000E+00
    0.14719E+06        -0.60595E+08         0.00000E+00
    0.00000E+00         0.00000E+00        -0.36907E+08
 
   -0.35887E+08         0.29358E+06         0.00000E+00
    0.29358E+06        -0.60659E+08         0.00000E+00
    0.00000E+00         0.00000E+00        -0.36927E+08
 
   -0.35946E+08         0.47066E+06         0.00000E+00
    0.47066E+06        -0.60702E+08         0.00000E+00
    0.00000E+00         0.00000E+00        -0.36922E+08
 
   -0.36012E+08         0.67532E+06         0.00000E+00
    0.67532E+06        -0.60723E+08         0.00000E+00
    0.00000E+00         0.00000E+00        -0.36889E+08
 
   -0.36090E+08         0.90274E+06         0.00000E+00
    0.90274E+06        -0.60722E+08         0.00000E+00
    0.00000E+00         0.00000E+00        -0.36828E+08
 
   -0.36182E+08         0.11459E+07         0.00000E+00
    0.11459E+07        -0.60703E+08         0.00000E+00
    0.00000E+00         0.00000E+00        -0.36743E+08
 
   -0.36292E+08         0.13970E+07         0.00000E+00
    0.13970E+07        -0.60671E+08         0.00000E+00
    0.00000E+00         0.00000E+00        -0.36642E+08
 
   -0.36414E+08         0.16468E+07         0.00000E+00
    0.16468E+07        -0.60630E+08         0.00000E+00
    0.00000E+00         0.00000E+00        -0.36533E+08
 
   -0.35293E+08        -0.52738E+05         0.00000E+00
   -0.52738E+05        -0.60012E+08         0.00000E+00
    0.00000E+00         0.00000E+00        -0.36111E+08
 
   -0.35399E+08        -0.13460E+06         0.00000E+00
   -0.13460E+06        -0.60057E+08         0.00000E+00
    0.00000E+00         0.00000E+00        -0.36058E+08
 
   -0.35487E+08        -0.19105E+06         0.00000E+00
   -0.19105E+06        -0.60135E+08         0.00000E+00
    0.00000E+00         0.00000E+00        -0.36066E+08
 
   -0.35556E+08        -0.21516E+06         0.00000E+00
   -0.21516E+06        -0.60232E+08         0.00000E+00
    0.00000E+00         0.00000E+00        -0.36120E+08
 
   -0.35608E+08        -0.20244E+06         0.00000E+00
   -0.20244E+06        -0.60340E+08         0.00000E+00
    0.00000E+00         0.00000E+00        -0.36203E+08
 
   -0.35644E+08        -0.15075E+06         0.00000E+00
   -0.15075E+06        -0.60447E+08         0.00000E+00
    0.00000E+00         0.00000E+00        -0.36299E+08
 
   -0.35671E+08        -0.59496E+05         0.00000E+00
   -0.59496E+05        -0.60548E+08         0.00000E+00
    0.00000E+00         0.00000E+00        -0.36396E+08
 
   -0.35692E+08         0.70178E+05         0.00000E+00
    0.70178E+05        -0.60635E+08         0.00000E+00
    0.00000E+00         0.00000E+00        -0.36481E+08
 
   -0.35715E+08         0.23604E+06         0.00000E+00
    0.23604E+06        -0.60705E+08         0.00000E+00
    0.00000E+00         0.00000E+00        -0.36547E+08
 
   -0.35744E+08         0.43472E+06         0.00000E+00
    0.43472E+06        -0.60755E+08         0.00000E+00
    0.00000E+00         0.00000E+00        -0.36586E+08
 
   -0.35786E+08         0.66116E+06         0.00000E+00
    0.66116E+06        -0.60784E+08         0.00000E+00
    0.00000E+00         0.00000E+00        -0.36595E+08
 
   -0.35845E+08         0.90866E+06         0.00000E+00
    0.90866E+06        -0.60793E+08         0.00000E+00
    0.00000E+00         0.00000E+00        -0.36572E+08
 
   -0.35928E+08         0.11695E+07         0.00000E+00
    0.11695E+07        -0.60782E+08         0.00000E+00
    0.00000E+00         0.00000E+00        -0.36514E+08
 
   -0.36036E+08         0.14357E+07         0.00000E+00
    0.14357E+07        -0.60753E+08         0.00000E+00
    0.00000E+00         0.00000E+00        -0.36423E+08
 
   -0.36166E+08         0.16989E+07         0.00000E+00
    0.16989E+07        -0.60706E+08         0.00000E+00
    0.00000E+00         0.00000E+00        -0.36303E+08
 
   -0.35408E+08        -0.78466E+05         0.00000E+00
   -0.78466E+05        -0.60014E+08         0.00000E+00
    0.00000E+00         0.00000E+00        -0.35338E+08
 
   -0.35485E+08        -0.20031E+06         0.00000E+00
   -0.20031E+06        -0.60061E+08         0.00000E+00
    0.00000E+00         0.00000E+00        -0.35324E+08
 
   -0.35538E+08        -0.28349E+06         0.00000E+00
   -0.28349E+06        -0.60142E+08         0.00000E+00
    0.00000E+00         0.00000E+00        -0.35379E+08
 
   -0.35567E+08        -0.32248E+06         0.00000E+00
   -0.32248E+06        -0.60243E+08         0.00000E+00
    0.00000E+00         0.00000E+00        -0.35481E+08
 
   -0.35576E+08        -0.31418E+06         0.00000E+00
   -0.31418E+06        -0.60354E+08         0.00000E+00
    0.00000E+00         0.00000E+00        -0.35612E+08
 
   -0.35569E+08        -0.25841E+06         0.00000E+00
   -0.25841E+06        -0.60464E+08         0.00000E+00
    0.00000E+00         0.00000E+00        -0.35755E+08
 
   -0.35553E+08        -0.15671E+06         0.00000E+00
   -0.15671E+06        -0.60567E+08         0.00000E+00
    0.00000E+00         0.00000E+00        -0.35897E+08
 
   -0.35536E+08        -0.12072E+05         0.00000E+00
   -0.12072E+05        -0.60658E+08         0.00000E+00
    0.00000E+00         0.00000E+00        -0.36028E+08
 
   -0.35522E+08         0.17201E+06         0.00000E+00
    0.17201E+06        -0.60734E+08         0.00000E+00
    0.00000E+00         0.00000E+00        -0.36138E+08
 
   -0.35521E+08         0.39054E+06         0.00000E+00
    0.39054E+06        -0.60791E+08         0.00000E+00
    0.00000E+00         0.00000E+00        -0.36221E+08
 
   -0.35538E+08         0.63735E+06         0.00000E+00
    0.63735E+06        -0.60829E+08         0.00000E+00
    0.00000E+00         0.00000E+00        -0.36270E+08
 
   -0.35581E+08         0.90537E+06         0.00000E+00
    0.90537E+06        -0.60847E+08         0.00000E+00
    0.00000E+00         0.00000E+00        -0.36282E+08
 
   -0.35654E+08         0.11869E+07         0.00000E+00
    0.11869E+07        -0.60844E+08         0.00000E+00
    0.00000E+00         0.00000E+00        -0.36250E+08
 
   -0.35761E+08         0.14737E+07         0.00000E+00
    0.14737E+07        -0.60819E+08         0.00000E+00
    0.00000E+00         0.00000E+00        -0.36173E+08
 
   -0.35901E+08         0.17571E+07         0.00000E+00
    0.17571E+07        -0.60772E+08         0.00000E+00
    0.00000E+00         0.00000E+00        -0.36051E+08
 
   -0.35571E+08        -0.10533E+06         0.00000E+00
   -0.10533E+06        -0.60015E+08         0.00000E+00
    0.00000E+00         0.00000E+00        -0.34528E+08
 
   -0.35606E+08        -0.26877E+06         0.00000E+00
   -0.26877E+06        -0.60063E+08         0.00000E+00
    0.00000E+00         0.00000E+00        -0.34562E+08
 
   -0.35611E+08        -0.37900E+06         0.00000E+00
   -0.37900E+06        -0.60147E+08         0.00000E+00
    0.00000E+00         0.00000E+00        -0.34668E+08
 
   -0.35587E+08        -0.43176E+06         0.00000E+00
   -0.43176E+06        -0.60249E+08         0.00000E+00
    0.00000E+00         0.00000E+00        -0.34820E+08
 
   -0.35543E+08        -0.42692E+06         0.00000E+00
   -0.42692E+06        -0.60359E+08         0.00000E+00
    0.00000E+00         0.00000E+00        -0.34998E+08
 
   -0.35486E+08        -0.36710E+06         0.00000E+00
   -0.36710E+06        -0.60468E+08         0.00000E+00
    0.00000E+00         0.00000E+00        -0.35185E+08
 
   -0.35424E+08        -0.25606E+06         0.00000E+00
   -0.25606E+06        -0.60571E+08         0.00000E+00
    0.00000E+00         0.00000E+00        -0.35370E+08
 
   -0.35363E+08        -0.97951E+05         0.00000E+00
   -0.97951E+05        -0.60663E+08         0.00000E+00
    0.00000E+00         0.00000E+00        -0.35543E+08
 
   -0.35312E+08         0.10213E+06         0.00000E+00
    0.10213E+06        -0.60742E+08         0.00000E+00
    0.00000E+00         0.00000E+00        -0.35695E+08
 
   -0.35278E+08         0.33844E+06         0.00000E+00
    0.33844E+06        -0.60805E+08         0.00000E+00
    0.00000E+00         0.00000E+00        -0.35819E+08
 
   -0.35270E+08         0.60453E+06         0.00000E+00
    0.60453E+06        -0.60851E+08         0.00000E+00
    0.00000E+00         0.00000E+00        -0.35907E+08
 
   -0.35295E+08         0.89332E+06         0.00000E+00
    0.89332E+06        -0.60878E+08         0.00000E+00
    0.00000E+00         0.00000E+00        -0.35952E+08
 
   -0.35359E+08         0.11973E+07         0.00000E+00
    0.11973E+07        -0.60883E+08         0.00000E+00
    0.00000E+00         0.00000E+00        -0.35948E+08
 
   -0.35464E+08         0.15080E+07         0.00000E+00
    0.15080E+07        -0.60865E+08         0.00000E+00
    0.00000E+00         0.00000E+00        -0.35888E+08
 
   -0.35612E+08         0.18154E+07         0.00000E+00
    0.18154E+07        -0.60822E+08         0.00000E+00
    0.00000E+00         0.00000E+00        -0.35772E+08
 
   -0.35784E+08        -0.13299E+06         0.00000E+00
   -0.13299E+06        -0.60015E+08         0.00000E+00
    0.00000E+00         0.00000E+00        -0.33691E+08
 
   -0.35761E+08        -0.33979E+06         0.00000E+00
   -0.33979E+06        -0.60066E+08         0.00000E+00
    0.00000E+00         0.00000E+00        -0.33780E+08
 
   -0.35702E+08        -0.47477E+06         0.00000E+00
   -0.47477E+06        -0.60150E+08         0.00000E+00
    0.00000E+00         0.00000E+00        -0.33941E+08
 
   -0.35615E+08        -0.53852E+06         0.00000E+00
   -0.53852E+06        -0.60248E+08         0.00000E+00
    0.00000E+00         0.00000E+00        -0.34141E+08
 
   -0.35511E+08        -0.53626E+06         0.00000E+00
   -0.53626E+06        -0.60352E+08         0.00000E+00
    0.00000E+00         0.00000E+00        -0.34362E+08
 
   -0.35398E+08        -0.47312E+06         0.00000E+00
   -0.47312E+06        -0.60456E+08         0.00000E+00
    0.00000E+00         0.00000E+00        -0.34589E+08
 
   -0.35284E+08        -0.35434E+06         0.00000E+00
   -0.35434E+06        -0.60555E+08         0.00000E+00
    0.00000E+00         0.00000E+00        -0.34813E+08
 
   -0.35177E+08        -0.18517E+06         0.00000E+00
   -0.18517E+06        -0.60646E+08         0.00000E+00
    0.00000E+00         0.00000E+00        -0.35023E+08
 
   -0.35085E+08         0.28360E+05         0.00000E+00
    0.28360E+05        -0.60726E+08         0.00000E+00
    0.00000E+00         0.00000E+00        -0.35213E+08
 
   -0.35018E+08         0.28017E+06         0.00000E+00
    0.28017E+06        -0.60793E+08         0.00000E+00
    0.00000E+00         0.00000E+00        -0.35374E+08
 
   -0.34983E+08         0.56382E+06         0.00000E+00
    0.56382E+06        -0.60845E+08         0.00000E+00
    0.00000E+00         0.00000E+00        -0.35499E+08
 
   -0.34988E+08         0.87259E+06         0.00000E+00
    0.87259E+06        -0.60879E+08         0.00000E+00
    0.00000E+00         0.00000E+00        -0.35578E+08
 
   -0.35039E+08         0.11993E+07         0.00000E+00
    0.11993E+07        -0.60894E+08         0.00000E+00
    0.00000E+00         0.00000E+00        -0.35603E+08
 
   -0.35141E+08         0.15354E+07         0.00000E+00
    0.15354E+07        -0.60885E+08         0.00000E+00
    0.00000E+00         0.00000E+00        -0.35566E+08
 
   -0.35298E+08         0.18700E+07         0.00000E+00
    0.18700E+07        -0.60849E+08         0.00000E+00
    0.00000E+00         0.00000E+00        -0.35461E+08
 
   -0.36051E+08        -0.16284E+06         0.00000E+00
   -0.16284E+06        -0.60020E+08         0.00000E+00
    0.00000E+00         0.00000E+00        -0.32840E+08
 
   -0.35948E+08        -0.41294E+06         0.00000E+00
   -0.41294E+06        -0.60072E+08         0.00000E+00
    0.00000E+00         0.00000E+00        -0.32990E+08
 
   -0.35808E+08        -0.56566E+06         0.00000E+00
   -0.56566E+06        -0.60150E+08         0.00000E+00
    0.00000E+00         0.00000E+00        -0.33204E+08
 
   -0.35648E+08        -0.63769E+06         0.00000E+00
   -0.63769E+06        -0.60239E+08         0.00000E+00
    0.00000E+00         0.00000E+00        -0.33447E+08
 
   -0.35477E+08        -0.63781E+06         0.00000E+00
   -0.63781E+06        -0.60334E+08         0.00000E+00
    0.00000E+00         0.00000E+00        -0.33705E+08
 
   -0.35304E+08        -0.57248E+06         0.00000E+00
   -0.57248E+06        -0.60428E+08         0.00000E+00
    0.00000E+00         0.00000E+00        -0.33966E+08
 
   -0.35135E+08        -0.44787E+06         0.00000E+00
   -0.44787E+06        -0.60519E+08         0.00000E+00
    0.00000E+00         0.00000E+00        -0.34222E+08
 
   -0.34980E+08        -0.27021E+06         0.00000E+00
   -0.27021E+06        -0.60604E+08         0.00000E+00
    0.00000E+00         0.00000E+00        -0.34465E+08
 
   -0.34846E+08        -0.46035E+05         0.00000E+00
   -0.46035E+05        -0.60681E+08         0.00000E+00
    0.00000E+00         0.00000E+00        -0.34687E+08
 
   -0.34742E+08         0.21820E+06         0.00000E+00
    0.21820E+06        -0.60749E+08         0.00000E+00
    0.00000E+00         0.00000E+00        -0.34881E+08
 
   -0.34677E+08         0.51653E+06         0.00000E+00
    0.51653E+06        -0.60804E+08         0.00000E+00
    0.00000E+00         0.00000E+00        -0.35040E+08
 
   -0.34659E+08         0.84307E+06         0.00000E+00
    0.84307E+06        -0.60847E+08         0.00000E+00
    0.00000E+00         0.00000E+00        -0.35153E+08
 
   -0.34695E+08         0.11911E+07         0.00000E+00
    0.11911E+07        -0.60871E+08         0.00000E+00
    0.00000E+00         0.00000E+00        -0.35211E+08
 
   -0.34792E+08         0.15523E+07         0.00000E+00
    0.15523E+07        -0.60874E+08         0.00000E+00
    0.00000E+00         0.00000E+00        -0.35203E+08
 
   -0.34955E+08         0.19159E+07         0.00000E+00
    0.19159E+07        -0.60850E+08         0.00000E+00
    0.00000E+00         0.00000E+00        -0.35117E+08
 
   -0.36378E+08        -0.19941E+06         0.00000E+00
   -0.19941E+06        -0.60049E+08         0.00000E+00
    0.00000E+00         0.00000E+00        -0.32031E+08
 
   -0.36156E+08        -0.48145E+06         0.00000E+00
   -0.48145E+06        -0.60073E+08         0.00000E+00
    0.00000E+00         0.00000E+00        -0.32195E+08
 
   -0.35925E+08        -0.64669E+06         0.00000E+00
   -0.64669E+06        -0.60142E+08         0.00000E+00
    0.00000E+00         0.00000E+00        -0.32456E+08
 
   -0.35686E+08        -0.72548E+06         0.00000E+00
   -0.72548E+06        -0.60220E+08         0.00000E+00
    0.00000E+00         0.00000E+00        -0.32737E+08
 
   -0.35444E+08        -0.72776E+06         0.00000E+00
   -0.72776E+06        -0.60302E+08         0.00000E+00
    0.00000E+00         0.00000E+00        -0.33027E+08
 
   -0.35207E+08        -0.66089E+06         0.00000E+00
   -0.66089E+06        -0.60383E+08         0.00000E+00
    0.00000E+00         0.00000E+00        -0.33316E+08
 
   -0.34980E+08        -0.53205E+06         0.00000E+00
   -0.53205E+06        -0.60461E+08         0.00000E+00
    0.00000E+00         0.00000E+00        -0.33597E+08
 
   -0.34774E+08        -0.34848E+06         0.00000E+00
   -0.34848E+06        -0.60536E+08         0.00000E+00
    0.00000E+00         0.00000E+00        -0.33864E+08
 
   -0.34596E+08        -0.11715E+06         0.00000E+00
   -0.11715E+06        -0.60605E+08         0.00000E+00
    0.00000E+00         0.00000E+00        -0.34112E+08
 
   -0.34455E+08         0.15554E+06         0.00000E+00
    0.15554E+06        -0.60669E+08         0.00000E+00
    0.00000E+00         0.00000E+00        -0.34334E+08
 
   -0.34357E+08         0.46430E+06         0.00000E+00
    0.46430E+06        -0.60726E+08         0.00000E+00
    0.00000E+00         0.00000E+00        -0.34523E+08
 
   -0.34312E+08         0.80431E+06         0.00000E+00
    0.80431E+06        -0.60775E+08         0.00000E+00
    0.00000E+00         0.00000E+00        -0.34672E+08
 
   -0.34329E+08         0.11705E+07         0.00000E+00
    0.11705E+07        -0.60811E+08         0.00000E+00
    0.00000E+00         0.00000E+00        -0.34767E+08
 
   -0.34416E+08         0.15556E+07         0.00000E+00
    0.15556E+07        -0.60829E+08         0.00000E+00
    0.00000E+00         0.00000E+00        -0.34794E+08
 
   -0.34581E+08         0.19483E+07         0.00000E+00
    0.19483E+07        -0.60821E+08         0.00000E+00
    0.00000E+00         0.00000E+00        -0.34737E+08
 
   -0.36777E+08        -0.22833E+06         0.00000E+00
   -0.22833E+06        -0.60018E+08         0.00000E+00
    0.00000E+00         0.00000E+00        -0.31389E+08
 
   -0.36366E+08        -0.54756E+06         0.00000E+00
   -0.54756E+06        -0.60066E+08         0.00000E+00
    0.00000E+00         0.00000E+00        -0.31418E+08
 
   -0.36047E+08        -0.71897E+06         0.00000E+00
   -0.71897E+06        -0.60121E+08         0.00000E+00
    0.00000E+00         0.00000E+00        -0.31699E+08
 
   -0.35727E+08        -0.80029E+06         0.00000E+00
   -0.80029E+06        -0.60189E+08         0.00000E+00
    0.00000E+00         0.00000E+00        -0.32012E+08
 
   -0.35411E+08        -0.80271E+06         0.00000E+00
   -0.80271E+06        -0.60255E+08         0.00000E+00
    0.00000E+00         0.00000E+00        -0.32328E+08
 
   -0.35107E+08        -0.73366E+06         0.00000E+00
   -0.73366E+06        -0.60319E+08         0.00000E+00
    0.00000E+00         0.00000E+00        -0.32637E+08
 
   -0.34821E+08        -0.60154E+06         0.00000E+00
   -0.60154E+06        -0.60379E+08         0.00000E+00
    0.00000E+00         0.00000E+00        -0.32935E+08
 
   -0.34564E+08        -0.41475E+06         0.00000E+00
   -0.41475E+06        -0.60437E+08         0.00000E+00
    0.00000E+00         0.00000E+00        -0.33218E+08
 
   -0.34341E+08        -0.18051E+06         0.00000E+00
   -0.18051E+06        -0.60493E+08         0.00000E+00
    0.00000E+00         0.00000E+00        -0.33483E+08
 
   -0.34160E+08         0.95409E+05         0.00000E+00
    0.95409E+05        -0.60550E+08         0.00000E+00
    0.00000E+00         0.00000E+00        -0.33726E+08
 
   -0.34028E+08         0.40864E+06         0.00000E+00
    0.40864E+06        -0.60607E+08         0.00000E+00
    0.00000E+00         0.00000E+00        -0.33943E+08
 
   -0.33952E+08         0.75625E+06         0.00000E+00
    0.75625E+06        -0.60661E+08         0.00000E+00
    0.00000E+00         0.00000E+00        -0.34127E+08
 
   -0.33943E+08         0.11354E+07         0.00000E+00
    0.11354E+07        -0.60709E+08         0.00000E+00
    0.00000E+00         0.00000E+00        -0.34264E+08
 
   -0.34013E+08         0.15409E+07         0.00000E+00
    0.15409E+07        -0.60745E+08         0.00000E+00
    0.00000E+00         0.00000E+00        -0.34334E+08
 
   -0.34176E+08         0.19624E+07         0.00000E+00
    0.19624E+07        -0.60759E+08         0.00000E+00
    0.00000E+00         0.00000E+00        -0.34316E+08
 
   -0.37212E+08        -0.24492E+06         0.00000E+00
   -0.24492E+06        -0.60005E+08         0.00000E+00
    0.00000E+00         0.00000E+00        -0.30787E+08
 
   -0.36613E+08        -0.60050E+06         0.00000E+00
   -0.60050E+06        -0.60047E+08         0.00000E+00
    0.00000E+00         0.00000E+00        -0.30705E+08
 
   -0.36166E+08        -0.78491E+06         0.00000E+00
   -0.78491E+06        -0.60090E+08         0.00000E+00
    0.00000E+00         0.00000E+00        -0.30942E+08
 
   -0.35766E+08        -0.86145E+06         0.00000E+00
   -0.86145E+06        -0.60145E+08         0.00000E+00
    0.00000E+00         0.00000E+00        -0.31278E+08
 
   -0.35375E+08        -0.85910E+06         0.00000E+00
   -0.85910E+06        -0.60193E+08         0.00000E+00
    0.00000E+00         0.00000E+00        -0.31611E+08
 
   -0.35003E+08        -0.78535E+06         0.00000E+00
   -0.78535E+06        -0.60234E+08         0.00000E+00
    0.00000E+00         0.00000E+00        -0.31931E+08
 
   -0.34660E+08        -0.65036E+06         0.00000E+00
   -0.65036E+06        -0.60269E+08         0.00000E+00
    0.00000E+00         0.00000E+00        -0.32234E+08
 
   -0.34352E+08        -0.46346E+06         0.00000E+00
   -0.46346E+06        -0.60305E+08         0.00000E+00
    0.00000E+00         0.00000E+00        -0.32522E+08
 
   -0.34086E+08        -0.23164E+06         0.00000E+00
   -0.23164E+06        -0.60344E+08         0.00000E+00
    0.00000E+00         0.00000E+00        -0.32794E+08
 
   -0.33865E+08         0.40746E+05         0.00000E+00
    0.40746E+05        -0.60390E+08         0.00000E+00
    0.00000E+00         0.00000E+00        -0.33053E+08
 
   -0.33696E+08         0.35132E+06         0.00000E+00
    0.35132E+06        -0.60444E+08         0.00000E+00
    0.00000E+00         0.00000E+00        -0.33294E+08
 
   -0.33585E+08         0.69908E+06         0.00000E+00
    0.69908E+06        -0.60503E+08         0.00000E+00
    0.00000E+00         0.00000E+00        -0.33513E+08
 
   -0.33543E+08         0.10837E+07         0.00000E+00
    0.10837E+07        -0.60564E+08         0.00000E+00
    0.00000E+00         0.00000E+00        -0.33696E+08
 
   -0.33588E+08         0.15037E+07         0.00000E+00
    0.15037E+07        -0.60621E+08         0.00000E+00
    0.00000E+00         0.00000E+00        -0.33820E+08
 
   -0.33739E+08         0.19513E+07         0.00000E+00
    0.19513E+07        -0.60661E+08         0.00000E+00
    0.00000E+00         0.00000E+00        -0.33853E+08
 
   -0.37670E+08        -0.25692E+06         0.00000E+00
   -0.25692E+06        -0.60005E+08         0.00000E+00
    0.00000E+00         0.00000E+00        -0.30178E+08
 
   -0.36895E+08        -0.63559E+06         0.00000E+00
   -0.63559E+06        -0.60027E+08         0.00000E+00
    0.00000E+00         0.00000E+00        -0.30040E+08
 
   -0.36284E+08        -0.83322E+06         0.00000E+00
   -0.83322E+06        -0.60058E+08         0.00000E+00
    0.00000E+00         0.00000E+00        -0.30195E+08
 
   -0.35799E+08        -0.90399E+06         0.00000E+00
   -0.90399E+06        -0.60092E+08         0.00000E+00
    0.00000E+00         0.00000E+00        -0.30542E+08
 
   -0.35332E+08        -0.89138E+06         0.00000E+00
   -0.89138E+06        -0.60114E+08         0.00000E+00
    0.00000E+00         0.00000E+00        -0.30880E+08
 
   -0.34895E+08        -0.80959E+06         0.00000E+00
   -0.80959E+06        -0.60125E+08         0.00000E+00
    0.00000E+00         0.00000E+00        -0.31196E+08
 
   -0.34499E+08        -0.67200E+06         0.00000E+00
   -0.67200E+06        -0.60130E+08         0.00000E+00
    0.00000E+00         0.00000E+00        -0.31492E+08
 
   -0.34145E+08        -0.48896E+06         0.00000E+00
   -0.48896E+06        -0.60137E+08         0.00000E+00
    0.00000E+00         0.00000E+00        -0.31771E+08
 
   -0.33838E+08        -0.26631E+06         0.00000E+00
   -0.26631E+06        -0.60154E+08         0.00000E+00
    0.00000E+00         0.00000E+00        -0.32042E+08
 
   -0.33578E+08        -0.58254E+04         0.00000E+00
   -0.58254E+04        -0.60186E+08         0.00000E+00
    0.00000E+00         0.00000E+00        -0.32308E+08
 
   -0.33370E+08         0.29320E+06         0.00000E+00
    0.29320E+06        -0.60235E+08         0.00000E+00
    0.00000E+00         0.00000E+00        -0.32571E+08
 
   -0.33220E+08         0.63221E+06         0.00000E+00
    0.63221E+06        -0.60300E+08         0.00000E+00
    0.00000E+00         0.00000E+00        -0.32825E+08
 
   -0.33137E+08         0.10134E+07         0.00000E+00
    0.10134E+07        -0.60375E+08         0.00000E+00
    0.00000E+00         0.00000E+00        -0.33058E+08
 
   -0.33143E+08         0.14396E+07         0.00000E+00
    0.14396E+07        -0.60455E+08         0.00000E+00
    0.00000E+00         0.00000E+00        -0.33246E+08
 
   -0.33273E+08         0.19107E+07         0.00000E+00
    0.19107E+07        -0.60528E+08         0.00000E+00
    0.00000E+00         0.00000E+00        -0.33346E+08
 
   -0.38147E+08        -0.26689E+06         0.00000E+00
   -0.26689E+06        -0.60004E+08         0.00000E+00
    0.00000E+00         0.00000E+00        -0.29564E+08
 
   -0.37191E+08        -0.65542E+06         0.00000E+00
   -0.65542E+06        -0.60017E+08         0.00000E+00
    0.00000E+00         0.00000E+00        -0.29381E+08
 
   -0.36402E+08        -0.85659E+06         0.00000E+00
   -0.85659E+06        -0.60029E+08         0.00000E+00
    0.00000E+00         0.00000E+00        -0.29458E+08
 
   -0.35821E+08        -0.91778E+06         0.00000E+00
   -0.91778E+06        -0.60031E+08         0.00000E+00
    0.00000E+00         0.00000E+00        -0.29807E+08
 
   -0.35277E+08        -0.89062E+06         0.00000E+00
   -0.89062E+06        -0.60016E+08         0.00000E+00
    0.00000E+00         0.00000E+00        -0.30135E+08
 
   -0.34782E+08        -0.79876E+06         0.00000E+00
   -0.79876E+06        -0.59988E+08         0.00000E+00
    0.00000E+00         0.00000E+00        -0.30432E+08
 
   -0.34339E+08        -0.66031E+06         0.00000E+00
   -0.66031E+06        -0.59956E+08         0.00000E+00
    0.00000E+00         0.00000E+00        -0.30705E+08
 
   -0.33948E+08        -0.48623E+06         0.00000E+00
   -0.48623E+06        -0.59930E+08         0.00000E+00
    0.00000E+00         0.00000E+00        -0.30963E+08
 
   -0.33605E+08        -0.28058E+06         0.00000E+00
   -0.28058E+06        -0.59921E+08         0.00000E+00
    0.00000E+00         0.00000E+00        -0.31220E+08
 
   -0.33308E+08        -0.41935E+05         0.00000E+00
   -0.41935E+05        -0.59936E+08         0.00000E+00
    0.00000E+00         0.00000E+00        -0.31486E+08
 
   -0.33060E+08         0.23453E+06         0.00000E+00
    0.23453E+06        -0.59980E+08         0.00000E+00
    0.00000E+00         0.00000E+00        -0.31766E+08
 
   -0.32865E+08         0.55457E+06         0.00000E+00
    0.55457E+06        -0.60050E+08         0.00000E+00
    0.00000E+00         0.00000E+00        -0.32056E+08
 
   -0.32735E+08         0.92314E+06         0.00000E+00
    0.92314E+06        -0.60143E+08         0.00000E+00
    0.00000E+00         0.00000E+00        -0.32346E+08
 
   -0.32689E+08         0.13453E+07         0.00000E+00
    0.13453E+07        -0.60249E+08         0.00000E+00
    0.00000E+00         0.00000E+00        -0.32609E+08
 
   -0.32780E+08         0.18239E+07         0.00000E+00
    0.18239E+07        -0.60360E+08         0.00000E+00
    0.00000E+00         0.00000E+00        -0.32791E+08
 
   -0.38637E+08        -0.27535E+06         0.00000E+00
   -0.27535E+06        -0.60004E+08         0.00000E+00
    0.00000E+00         0.00000E+00        -0.28946E+08
 
   -0.37484E+08        -0.66120E+06         0.00000E+00
   -0.66120E+06        -0.60007E+08         0.00000E+00
    0.00000E+00         0.00000E+00        -0.28722E+08
 
   -0.36512E+08        -0.84875E+06         0.00000E+00
   -0.84875E+06        -0.59994E+08         0.00000E+00
    0.00000E+00         0.00000E+00        -0.28729E+08
 
   -0.35826E+08        -0.89128E+06         0.00000E+00
   -0.89128E+06        -0.59954E+08         0.00000E+00
    0.00000E+00         0.00000E+00        -0.29070E+08
 
   -0.35209E+08        -0.84570E+06         0.00000E+00
   -0.84570E+06        -0.59891E+08         0.00000E+00
    0.00000E+00         0.00000E+00        -0.29369E+08
 
   -0.34664E+08        -0.74513E+06         0.00000E+00
   -0.74513E+06        -0.59816E+08         0.00000E+00
    0.00000E+00         0.00000E+00        -0.29630E+08
 
   -0.34186E+08        -0.61066E+06         0.00000E+00
   -0.61066E+06        -0.59741E+08         0.00000E+00
    0.00000E+00         0.00000E+00        -0.29866E+08
 
   -0.33767E+08        -0.45212E+06         0.00000E+00
   -0.45212E+06        -0.59680E+08         0.00000E+00
    0.00000E+00         0.00000E+00        -0.30093E+08
 
   -0.33396E+08        -0.27138E+06         0.00000E+00
   -0.27138E+06        -0.59644E+08         0.00000E+00
    0.00000E+00         0.00000E+00        -0.30327E+08
 
   -0.33067E+08        -0.64741E+05         0.00000E+00
   -0.64741E+05        -0.59639E+08         0.00000E+00
    0.00000E+00         0.00000E+00        -0.30584E+08
 
   -0.32777E+08         0.17631E+06         0.00000E+00
    0.17631E+06        -0.59674E+08         0.00000E+00
    0.00000E+00         0.00000E+00        -0.30873E+08
 
   -0.32533E+08         0.46344E+06         0.00000E+00
    0.46344E+06        -0.59750E+08         0.00000E+00
    0.00000E+00         0.00000E+00        -0.31198E+08
 
   -0.32346E+08         0.80709E+06         0.00000E+00
    0.80709E+06        -0.59864E+08         0.00000E+00
    0.00000E+00         0.00000E+00        -0.31550E+08
 
   -0.32237E+08         0.12153E+07         0.00000E+00
    0.12153E+07        -0.60005E+08         0.00000E+00
    0.00000E+00         0.00000E+00        -0.31902E+08
 
   -0.32263E+08         0.16995E+07         0.00000E+00
    0.16995E+07        -0.60154E+08         0.00000E+00
    0.00000E+00         0.00000E+00        -0.32188E+08
 
   -0.39133E+08        -0.28146E+06         0.00000E+00
   -0.28146E+06        -0.60002E+08         0.00000E+00
    0.00000E+00         0.00000E+00        -0.28325E+08
 
   -0.37754E+08        -0.64791E+06         0.00000E+00
   -0.64791E+06        -0.59992E+08         0.00000E+00
    0.00000E+00         0.00000E+00        -0.28053E+08
 
   -0.36601E+08        -0.79991E+06         0.00000E+00
   -0.79991E+06        -0.59942E+08         0.00000E+00
    0.00000E+00         0.00000E+00        -0.28003E+08
 
   -0.35808E+08        -0.81083E+06         0.00000E+00
   -0.81083E+06        -0.59845E+08         0.00000E+00
    0.00000E+00         0.00000E+00        -0.28315E+08
 
   -0.35127E+08        -0.74608E+06         0.00000E+00
   -0.74608E+06        -0.59721E+08         0.00000E+00
    0.00000E+00         0.00000E+00        -0.28567E+08
 
   -0.34547E+08        -0.64378E+06         0.00000E+00
   -0.64378E+06        -0.59592E+08         0.00000E+00
    0.00000E+00         0.00000E+00        -0.28777E+08
 
   -0.34048E+08        -0.52189E+06         0.00000E+00
   -0.52189E+06        -0.59475E+08         0.00000E+00
    0.00000E+00         0.00000E+00        -0.28967E+08
 
   -0.33611E+08        -0.38649E+06         0.00000E+00
   -0.38649E+06        -0.59381E+08         0.00000E+00
    0.00000E+00         0.00000E+00        -0.29157E+08
 
   -0.33221E+08        -0.23768E+06         0.00000E+00
   -0.23768E+06        -0.59318E+08         0.00000E+00
    0.00000E+00         0.00000E+00        -0.29362E+08
 
   -0.32865E+08        -0.71202E+05         0.00000E+00
   -0.71202E+05        -0.59294E+08         0.00000E+00
    0.00000E+00         0.00000E+00        -0.29600E+08
 
   -0.32537E+08         0.12233E+06         0.00000E+00
    0.12233E+06        -0.59316E+08         0.00000E+00
    0.00000E+00         0.00000E+00        -0.29888E+08
 
   -0.32239E+08         0.35885E+06         0.00000E+00
    0.35885E+06        -0.59393E+08         0.00000E+00
    0.00000E+00         0.00000E+00        -0.30238E+08
 
   -0.31985E+08         0.65977E+06         0.00000E+00
    0.65977E+06        -0.59529E+08         0.00000E+00
    0.00000E+00         0.00000E+00        -0.30653E+08
 
   -0.31793E+08         0.10427E+07         0.00000E+00
    0.10427E+07        -0.59710E+08         0.00000E+00
    0.00000E+00         0.00000E+00        -0.31111E+08
 
   -0.31724E+08         0.15223E+07         0.00000E+00
    0.15223E+07        -0.59914E+08         0.00000E+00
    0.00000E+00         0.00000E+00        -0.31540E+08
 
   -0.39621E+08        -0.28399E+06         0.00000E+00
   -0.28399E+06        -0.60001E+08         0.00000E+00
    0.00000E+00         0.00000E+00        -0.27702E+08
 
   -0.37975E+08        -0.59984E+06         0.00000E+00
   -0.59984E+06        -0.59963E+08         0.00000E+00
    0.00000E+00         0.00000E+00        -0.27371E+08
 
   -0.36649E+08        -0.68837E+06         0.00000E+00
   -0.68837E+06        -0.59846E+08         0.00000E+00
    0.00000E+00         0.00000E+00        -0.27265E+08
 
   -0.35763E+08        -0.66059E+06         0.00000E+00
   -0.66059E+06        -0.59669E+08         0.00000E+00
    0.00000E+00         0.00000E+00        -0.27514E+08
 
   -0.35040E+08        -0.58631E+06         0.00000E+00
   -0.58631E+06        -0.59478E+08         0.00000E+00
    0.00000E+00         0.00000E+00        -0.27701E+08
 
   -0.34442E+08        -0.49597E+06         0.00000E+00
   -0.49597E+06        -0.59300E+08         0.00000E+00
    0.00000E+00         0.00000E+00        -0.27855E+08
 
   -0.33932E+08        -0.39764E+06         0.00000E+00
   -0.39764E+06        -0.59146E+08         0.00000E+00
    0.00000E+00         0.00000E+00        -0.27999E+08
 
   -0.33486E+08        -0.29334E+06         0.00000E+00
   -0.29334E+06        -0.59025E+08         0.00000E+00
    0.00000E+00         0.00000E+00        -0.28150E+08
 
   -0.33084E+08        -0.18214E+06         0.00000E+00
   -0.18214E+06        -0.58941E+08         0.00000E+00
    0.00000E+00         0.00000E+00        -0.28325E+08
 
   -0.32711E+08        -0.60530E+05         0.00000E+00
   -0.60530E+05        -0.58900E+08         0.00000E+00
    0.00000E+00         0.00000E+00        -0.28540E+08
 
   -0.32354E+08         0.78483E+05         0.00000E+00
    0.78483E+05        -0.58909E+08         0.00000E+00
    0.00000E+00         0.00000E+00        -0.28814E+08
 
   -0.32005E+08         0.24905E+06         0.00000E+00
    0.24905E+06        -0.58979E+08         0.00000E+00
    0.00000E+00         0.00000E+00        -0.29171E+08
 
   -0.31669E+08         0.47935E+06         0.00000E+00
    0.47935E+06        -0.59124E+08         0.00000E+00
    0.00000E+00         0.00000E+00        -0.29635E+08
 
   -0.31375E+08         0.81168E+06         0.00000E+00
    0.81168E+06        -0.59357E+08         0.00000E+00
    0.00000E+00         0.00000E+00        -0.30214E+08
 
   -0.31172E+08         0.12699E+07         0.00000E+00
    0.12699E+07        -0.59640E+08         0.00000E+00
    0.00000E+00         0.00000E+00        -0.30842E+08
 
   -0.40072E+08        -0.27661E+06         0.00000E+00
   -0.27661E+06        -0.59992E+08         0.00000E+00
    0.00000E+00         0.00000E+00        -0.27074E+08
 
   -0.38107E+08        -0.47384E+06         0.00000E+00
   -0.47384E+06        -0.59882E+08         0.00000E+00
    0.00000E+00         0.00000E+00        -0.26663E+08
 
   -0.36646E+08        -0.48036E+06         0.00000E+00
   -0.48036E+06        -0.59646E+08         0.00000E+00
    0.00000E+00         0.00000E+00        -0.26470E+08
 
   -0.35703E+08        -0.43223E+06         0.00000E+00
   -0.43223E+06        -0.59377E+08         0.00000E+00
    0.00000E+00         0.00000E+00        -0.26622E+08
 
   -0.34966E+08        -0.37305E+06         0.00000E+00
   -0.37305E+06        -0.59131E+08         0.00000E+00
    0.00000E+00         0.00000E+00        -0.26742E+08
 
   -0.34362E+08        -0.31110E+06         0.00000E+00
   -0.31110E+06        -0.58917E+08         0.00000E+00
    0.00000E+00         0.00000E+00        -0.26845E+08
 
   -0.33848E+08        -0.24702E+06         0.00000E+00
   -0.24702E+06        -0.58739E+08         0.00000E+00
    0.00000E+00         0.00000E+00        -0.26950E+08
 
   -0.33398E+08        -0.18082E+06         0.00000E+00
   -0.18082E+06        -0.58601E+08         0.00000E+00
    0.00000E+00         0.00000E+00        -0.27070E+08
 
   -0.32991E+08        -0.11162E+06         0.00000E+00
   -0.11162E+06        -0.58506E+08         0.00000E+00
    0.00000E+00         0.00000E+00        -0.27219E+08
 
   -0.32608E+08        -0.37290E+05         0.00000E+00
   -0.37290E+05        -0.58456E+08         0.00000E+00
    0.00000E+00         0.00000E+00        -0.27411E+08
 
   -0.32233E+08         0.45932E+05         0.00000E+00
    0.45932E+05        -0.58458E+08         0.00000E+00
    0.00000E+00         0.00000E+00        -0.27667E+08
 
   -0.31849E+08         0.14617E+06         0.00000E+00
    0.14617E+06        -0.58521E+08         0.00000E+00
    0.00000E+00         0.00000E+00        -0.28013E+08
 
   -0.31441E+08         0.28237E+06         0.00000E+00
    0.28237E+06        -0.58663E+08         0.00000E+00
    0.00000E+00         0.00000E+00        -0.28494E+08
 
   -0.31005E+08         0.50515E+06         0.00000E+00
    0.50515E+06        -0.58915E+08         0.00000E+00
    0.00000E+00         0.00000E+00        -0.29170E+08
 
   -0.30616E+08         0.91805E+06         0.00000E+00
    0.91805E+06        -0.59324E+08         0.00000E+00
    0.00000E+00         0.00000E+00        -0.30084E+08
 
   -0.40400E+08        -0.18072E+06         0.00000E+00
   -0.18072E+06        -0.59870E+08         0.00000E+00
    0.00000E+00         0.00000E+00        -0.26406E+08
 
   -0.38122E+08        -0.19379E+06         0.00000E+00
   -0.19379E+06        -0.59553E+08         0.00000E+00
    0.00000E+00         0.00000E+00        -0.25889E+08
 
   -0.36622E+08        -0.17437E+06         0.00000E+00
   -0.17437E+06        -0.59224E+08         0.00000E+00
    0.00000E+00         0.00000E+00        -0.25566E+08
 
   -0.35659E+08        -0.15037E+06         0.00000E+00
   -0.15037E+06        -0.58921E+08         0.00000E+00
    0.00000E+00         0.00000E+00        -0.25595E+08
 
   -0.34924E+08        -0.12788E+06         0.00000E+00
   -0.12788E+06        -0.58651E+08         0.00000E+00
    0.00000E+00         0.00000E+00        -0.25668E+08
 
   -0.34319E+08        -0.10592E+06         0.00000E+00
   -0.10592E+06        -0.58423E+08         0.00000E+00
    0.00000E+00         0.00000E+00        -0.25737E+08
 
   -0.33804E+08        -0.83577E+05         0.00000E+00
   -0.83577E+05        -0.58238E+08         0.00000E+00
    0.00000E+00         0.00000E+00        -0.25814E+08
 
   -0.33353E+08        -0.60785E+05         0.00000E+00
   -0.60785E+05        -0.58098E+08         0.00000E+00
    0.00000E+00         0.00000E+00        -0.25913E+08
 
   -0.32943E+08        -0.37123E+05         0.00000E+00
   -0.37123E+05        -0.58003E+08         0.00000E+00
    0.00000E+00         0.00000E+00        -0.26044E+08
 
   -0.32556E+08        -0.11951E+05         0.00000E+00
   -0.11951E+05        -0.57957E+08         0.00000E+00
    0.00000E+00         0.00000E+00        -0.26222E+08
 
   -0.32173E+08         0.15847E+05         0.00000E+00
    0.15847E+05        -0.57965E+08         0.00000E+00
    0.00000E+00         0.00000E+00        -0.26464E+08
 
   -0.31774E+08         0.48615E+05         0.00000E+00
    0.48615E+05        -0.58033E+08         0.00000E+00
    0.00000E+00         0.00000E+00        -0.26797E+08
 
   -0.31329E+08         0.91690E+05         0.00000E+00
    0.91690E+05        -0.58180E+08         0.00000E+00
    0.00000E+00         0.00000E+00        -0.27271E+08
 
   -0.30786E+08         0.16421E+06         0.00000E+00
    0.16421E+06        -0.58443E+08         0.00000E+00
    0.00000E+00         0.00000E+00        -0.27989E+08
 
   -0.30067E+08         0.35752E+06         0.00000E+00
    0.35752E+06        -0.58911E+08         0.00000E+00
    0.00000E+00         0.00000E+00        -0.29197E+08
 
SCALARS stressS double 
LOOKUP_TABLE default
  -45747602.0515532     
  -45725350.0558664     
  -45684340.6076743     
  -45624839.5023457     
  -45548821.7303450     
  -45460620.6120845     
  -45365441.7300376     
  -45268451.5089195     
  -45173936.7743625     
  -45261788.6763094     
  -45446222.1904692     
  -45612303.5000090     
  -45761953.6478203     
  -45897019.9839110     
  -46019280.9524748     
  -45730912.9865563     
  -45709539.4617098     
  -45669867.2247241     
  -45611942.1549487     
  -45537559.5110589     
  -45451069.5228939     
  -45357564.1490258     
  -45262392.7052477     
  -45169883.4606979     
  -45251921.0124434     
  -45434819.9166513     
  -45599440.0967512     
  -45747675.8068147     
  -45881381.4304633     
  -46002350.0872891     
  -45697450.1542434     
  -45677603.4218526     
  -45640464.9901366     
  -45585784.5336845     
  -45515105.9822949     
  -45432476.5711991     
  -45342668.1384201     
  -45251023.7301065     
  -45162122.6081001     
  -45232143.2878141     
  -45412050.5686356     
  -45573754.8102408     
  -45719139.8693814     
  -45850109.7316266     
  -45968486.6560414     
  -45647036.8651805     
  -45629158.8439713     
  -45595341.8644399     
  -45545424.6392996     
  -45481111.9070901     
  -45405409.0025314     
  -45322076.8205405     
  -45235881.3912384     
  -45151433.8257250     
  -45202504.0272877     
  -45378073.7789436     
  -45535316.2223823     
  -45676371.0091003     
  -45803216.3518621     
  -45917681.2088672     
  -45579523.0467371     
  -45563931.1370576     
  -45534090.7862157     
  -45490454.9447118     
  -45434914.7673603     
  -45369652.1355909     
  -45296739.3086912     
  -45218587.9306140     
  -45139729.0480102     
  -45163787.7900344     
  -45333073.0215976     
  -45484135.3621784     
  -45619416.7000504     
  -45740711.9436604     
  -45849920.8425527     
  -45494961.7107991     
  -45481641.6900481     
  -45456295.4650852     
  -45420257.3187039     
  -45375692.9350436     
  -45324193.2256833     
  -45265776.3285123     
  -45200159.8092941     
  -45128075.1487043     
  -45119396.1940107     
  -45276682.4059772     
  -45420342.8155202     
  -45548266.8087148     
  -45662663.4417440     
  -45765199.7794376     
  -45393339.3942912     
  -45382655.0611343     
  -45362302.2612915     
  -45334963.8173502     
  -45303208.5722660     
  -45267287.6793373     
  -45226271.7707426     
  -45177885.7590291     
  -45119394.1476209     
  -45076362.5586289     
  -45209778.1256021     
  -45343387.0937040     
  -45463194.9563777     
  -45569225.7849542     
  -45663547.4600671     
  -45275094.2941004     
  -45266899.4398428     
  -45252593.5145017     
  -45235545.7603915     
  -45217165.9432828     
  -45197436.4780200     
  -45174622.1816412     
  -45145880.9631668     
  -45106519.2822423     
  -45052628.7388960     
  -45127272.2106199     
  -45254496.0209436     
  -45364661.6999184     
  -45460684.1653619     
  -45545115.3356988     
  -45140144.2688646     
  -45135507.4117342     
  -45128264.9050393     
  -45122059.7361671     
  -45117768.0918865     
  -45113943.9016871     
  -45108495.2609243     
  -45098502.9074254     
  -45079720.6597535     
  -45048110.7320368     
  -45044570.1330106     
  -45154882.4736972     
  -45252949.5791417     
  -45337917.1017855     
  -45410146.1142374     
  -44989814.2403785     
  -44988234.9744026     
  -44989220.8805252     
  -44995189.3334903     
  -45004982.3184642     
  -45016583.3962717     
  -45027155.5665434     
  -45033745.0073773     
  -45033678.0284882     
  -45022857.1452617     
  -45002126.4440240     
  -45043278.2698610     
  -45131058.0741444     
  -45201865.1978194     
  -45259558.9809297     
  -44823669.5043297     
  -44825989.1202429     
  -44836195.0791454     
  -44854547.3209075     
  -44878705.3506825     
  -44905268.1651726     
  -44930723.3549536     
  -44951767.4657105     
  -44965134.3075641     
  -44967527.4727035     
  -44960094.7776118     
  -44955940.0497079     
  -45001805.2789449     
  -45056477.7880821     
  -45095947.9680150     
  -44642094.9613310     
  -44649191.1989988     
  -44669524.4892929     
  -44700775.1421403     
  -44739057.5308736     
  -44779911.6171500     
  -44818974.4996741     
  -44852114.8051595     
  -44875865.3211503     
  -44887926.0954741     
  -44886810.4257387     
  -44878336.3248560     
  -44880102.0932370     
  -44904198.4174100     
  -44933386.1214023     
  -44446233.6383592     
  -44459138.2885622     
  -44490180.2205619     
  -44534401.8797901     
  -44586234.0732736     
  -44640194.0442237     
  -44691166.8501108     
  -44734720.0092789     
  -44767268.6867899     
  -44786218.3154411     
  -44790766.2309710     
  -44782612.9361183     
  -44769516.4501906     
  -44765710.3839391     
  -44786547.8205588     
  -44238960.3115361     
  -44258625.3883212     
  -44300140.9091256     
  -44356370.1236504     
  -44420312.3952690     
  -44485588.8740698     
  -44546672.0036862     
  -44598994.3666030     
  -44639095.7347765     
  -44664760.6540915     
  -44675141.6130489     
  -44671718.8849114     
  -44660193.6300243     
  -44651743.2373650     
  -44652778.8489403     
  -44024215.6297806     
  -44050653.4499338     
  -44101415.3137784     
  -44167694.6777978     
  -44241422.9194478     
  -44315671.8037942     
  -44384734.3995925     
  -44444200.9068305     
  -44491041.6208597     
  -44523537.2686867     
  -44541491.4690224     
  -44546596.5459192     
  -44542884.0223864     
  -44534803.2867524     
  -44525710.7242905     
  -43805523.8695101     
  -43838015.1857845     
  -43896022.5761379     
  -43969612.6210666     
  -44050121.5385276     
  -44130305.8323105     
  -44204684.0544100     
  -44269462.1480086     
  -44322224.3662189     
  -44361828.8169026     
  -44388443.3956192     
  -44403304.9183311     
  -44407909.0462348     
  -44403716.8224432     
  -44391589.9486182     
  -43586478.9428812     
  -43623553.0059661     
  -43686315.7632174     
  -43763886.3340250     
  -43847213.9233679     
  -43929482.9353217     
  -44006040.5666495     
  -44073889.8501954     
  -44131273.7625975     
  -44177503.5207960     
  -44212522.2484383     
  -44236533.0531769     
  -44249494.8206715     
  -44251120.8670673     
  -44241262.2582710     
  -43371153.9322739     
  -43410552.7221236     
  -43474934.1571080     
  -43552109.0569119     
  -43633280.3903095     
  -43713120.9441012     
  -43788190.7589001     
  -43856278.3648199     
  -43916185.2546146     
  -43967384.3399065     
  -44009492.9862067     
  -44041774.7624130     
  -44063199.4701407     
  -44072429.4242719     
  -44068653.3963995     
  -43163509.8878706     
  -43202607.0180737     
  -43264292.3312549     
  -43334854.6089105     
  -43408311.3157173     
  -43480998.1157485     
  -43550461.5934660     
  -43615290.4144353     
  -43674726.9924112     
  -43728293.5209940     
  -43775445.7455193     
  -43815048.2886150     
  -43845327.4408913     
  -43864142.8415266     
  -43869420.4832823     
  -42970319.5219809     
  -43003417.5459123     
  -43053956.9376725     
  -43111563.4370861     
  -43172079.9457692     
  -43232846.4049827     
  -43292284.1839028     
  -43349620.4000931     
  -43404664.1174845     
  -43457346.2346550     
  -43507176.8568659     
  -43553000.5532616     
  -43592608.9180204     
  -43622928.9391112     
  -43640548.6977069     
  -42819780.7375214     
  -42808036.0444968     
  -42841016.7786798     
  -42881182.8607609     
  -42924259.0902413     
  -42968458.3504755     
  -43013001.7850965     
  -43058049.3397741     
  -43104323.0693592     
  -43152399.3526760     
  -43202274.9471266     
  -43253024.7191102     
  -43302225.7626963     
  -43346009.6353025     
  -43379328.2495953     
  -42727872.1854901     
  -42616810.1243285     
  -42622334.6630724     
  -42642673.6469270     
  -42664615.7635194     
  -42687477.5671849     
  -42711861.1734744     
  -42739500.4981116     
  -42772406.9863586     
  -42812172.0693340     
  -42859386.3214779     
  -42913365.8188294     
  -42971999.7840871     
  -43030973.0277823     
  -43083616.0200714     
  -42667891.5530169     
  -42455029.9911089     
  -42399165.5770775     
  -42396412.9434488     
  -42392855.4368973     
  -42389209.2788140     
  -42387988.5639457     
  -42392999.7493262     
  -42408124.9721381     
  -42436104.3963344     
  -42478094.3860424     
  -42533679.8592467     
  -42601088.9988593     
  -42676385.4340226     
  -42751207.8589908     
  -42617700.0115931     
  -42320386.2060384     
  -42178926.1598856     
  -42144166.4886974     
  -42108458.9388600     
  -42072301.2483042     
  -42040165.6580077     
  -42017905.5639932     
  -42011151.4779142     
  -42024102.7605769     
  -42058748.0533188     
  -42114789.4616920     
  -42190132.0161815     
  -42281498.7012819     
  -42382552.3800897     
  -42571710.7921972     
  -42196387.2523094     
  -41962800.8585003     
  -41886174.9752255     
  -41809382.0757713     
  -41734117.0135930     
  -41666549.2774683     
  -41613761.2679782     
  -41582116.8082569     
  -41576897.2916342     
  -41601726.4740811     
  -41657258.6074928     
  -41741028.3102168     
  -41848942.8701605     
  -41977018.4971303     
  -42528767.8671705     
  -42070845.7354141     
  -41745035.1821883     
  -41616643.8265338     
  -41489716.2012573     
  -41369827.0951026     
  -41264488.9901854     
  -41180151.1374184     
  -41122385.9243987     
  -41096536.9172028     
  -41107876.7203834     
  -41160404.5028156     
  -41253372.0631457     
  -41381284.5795944     
  -41534891.6627788     
  -42486647.6304163     
  -41933305.9411069     
  -41515279.2107470     
  -41322385.1265239     
  -41138245.2966370     
  -40972014.1291352     
  -40830178.4834062     
  -40716338.0432442     
  -40633609.6148986     
  -40586213.6205430     
  -40580184.9707427     
  -40623277.9653087     
  -40722209.5050982     
  -40871460.2054294     
  -41059208.1823009     
  -42441192.4386895     
  -41769819.1327594     
  -41253527.3737286     
  -40981952.6335835     
  -40739828.6270252     
  -40532009.5387954     
  -40358955.2299016     
  -40220335.2648659     
  -40116753.8620792     
  -40050196.2161725     
  -40025472.5867069     
  -40051598.0732514     
  -40142781.8922289     
  -40315612.5463541     
  -40551392.0747327     
  -42379608.9454540     
  -41550823.5781023     
  -40920796.3613451     
  -40567345.4589325     
  -40279825.1221086     
  -40041176.0158047     
  -39845634.2431582     
  -39689632.9588279     
  -39571551.8135441     
  -39491590.3056820     
  -39452445.9937259     
  -39461010.8423909     
  -39532487.5077493     
  -39696503.7687806     
  -40007903.8328687     
  -42225408.7997711     
  -41188000.8784758     
  -40470537.2318762     
  -40058414.2174596     
  -39747632.1960985     
  -39492732.3168455     
  -39285573.9275028     
  -39121156.8631426     
  -38996814.3344058     
  -38911683.9390031     
  -38867211.5105727     
  -38868251.7770136     
  -38926539.1096677     
  -39072902.4136109     
  -39391623.3402623     
SCALARS 2waySource double 
LOOKUP_TABLE default
 -7.879481122463448E-005
 -7.840343956127429E-005
 -7.777001876883926E-005
 -7.705255274463645E-005
 -7.637588602422927E-005
 -7.581078197696675E-005
 -7.535464748962826E-005
 -7.496459741397882E-005
 -8.444853327854501E-005
 -9.854421748950549E-005
 -1.008284736278296E-004
 -1.029843116081158E-004
 -1.050470251957441E-004
 -1.070289935548612E-004
 -1.089315390677030E-004
 -7.833956875742771E-005
 -7.808402939272945E-005
 -7.754058576246232E-005
 -7.683898558375610E-005
 -7.612060742310564E-005
 -7.551141865972497E-005
 -7.506232327191605E-005
 -7.473150819482718E-005
 -8.386495834817600E-005
 -9.837801278706206E-005
 -1.006093293945780E-004
 -1.027413766435239E-004
 -1.047945200306869E-004
 -1.067753285021286E-004
 -1.086801717342189E-004
 -7.745076940207532E-005
 -7.751041916304949E-005
 -7.722481371545700E-005
 -7.664602832964966E-005
 -7.589817997975646E-005
 -7.517465545300170E-005
 -7.463381280115567E-005
 -7.433447625875391E-005
 -8.276222252950486E-005
 -9.802878224442145E-005
 -1.001793061558108E-004
 -1.022696513210129E-004
 -1.043138713817788E-004
 -1.062984419139829E-004
 -1.082104535681886E-004
 -7.617657199923465E-005
 -7.665020608209444E-005
 -7.676194176543566E-005
 -7.646084449967850E-005
 -7.579119990801684E-005
 -7.493691118463850E-005
 -7.418568463667547E-005
 -7.374356743785560E-005
 -8.105286864346491E-005
 -9.745659802339453E-005
 -9.947846527261630E-005
 -1.015453562181176E-004
 -1.035989025174801E-004
 -1.055949420958825E-004
 -1.075220215863154E-004
 -7.459786242493963E-005
 -7.547964263213408E-005
 -7.604949026620188E-005
 -7.618283657126658E-005
 -7.580835231731365E-005
 -7.497237144001259E-005
 -7.393430351054417E-005
 -7.316859466041848E-005
 -7.883494743155954E-005
 -9.645693220560070E-005
 -9.844853746303453E-005
 -1.005717197261109E-004
 -1.026397555958870E-004
 -1.046667316878062E-004
 -1.066153556588904E-004
 -7.281778383627099E-005
 -7.401828854346485E-005
 -7.500703090579616E-005
 -7.565100918088854E-005
 -7.580731099380241E-005
 -7.533597007990796E-005
 -7.423172783223194E-005
 -7.286063676272358E-005
 -7.622791219417089E-005
 -9.499246001478660E-005
 -9.721639116178517E-005
 -9.929520528501184E-005
 -1.014617160510167E-004
 -1.035085647315164E-004
 -1.054912020871224E-004
 -7.093474924647566E-005
 -7.233634974903874E-005
 -7.363652761536128E-005
 -7.474971213040094E-005
 -7.554786867297490E-005
 -7.580143314858071E-005
 -7.519720799264370E-005
 -7.360233697203019E-005
 -7.351836682797706E-005
 -9.235901137491163E-005
 -9.529863610346319E-005
 -9.793554516859476E-005
 -1.000290404778942E-004
 -1.021072347544297E-004
 -1.041496301987202E-004
 -6.901993105228296E-005
 -7.052784367012550E-005
 -7.202826968817961E-005
 -7.350001694761154E-005
 -7.487253354459788E-005
 -7.595958762841745E-005
 -7.639129509505060E-005
 -7.555147113669836E-005
 -7.339170038141462E-005
 -8.669835107626107E-005
 -9.440356003278340E-005
 -9.623227615484215E-005
 -9.827598679319093E-005
 -1.004649328473442E-004
 -1.025719674394764E-004
 -6.711451395054867E-005
 -6.867809373180706E-005
 -7.031172396910213E-005
 -7.204026773424450E-005
 -7.382549707187244E-005
 -7.556944616001336E-005
 -7.706560861610998E-005
 -7.782508396638007E-005
 -7.671795353608076E-005
 -8.077501651242784E-005
 -9.301399857298825E-005
 -9.377088881190756E-005
 -9.637671356712256E-005
 -9.846860237306529E-005
 -1.007508461227123E-004
 -6.523855478979482E-005
 -6.685096952358330E-005
 -6.860509806273175E-005
 -7.052662234581347E-005
 -7.258296695016557E-005
 -7.472157329008642E-005
 -7.687582633632127E-005
 -7.891559547533445E-005
 -8.046471251771522E-005
 -8.180386873958697E-005
 -8.882485381605032E-005
 -9.253008681509379E-005
 -9.363387567547988E-005
 -9.621533205716394E-005
 -9.855479214406962E-005
 -6.341101001674409E-005
 -6.509530454359240E-005
 -6.698176375614719E-005
 -6.906557109328859E-005
 -7.130140750613738E-005
 -7.364064121774238E-005
 -7.605949599464648E-005
 -7.858447444331706E-005
 -8.124966502391566E-005
 -8.451982008355829E-005
 -9.002898317279747E-005
 -9.346627640440607E-005
 -9.196050816719713E-005
 -9.331840761620671E-005
 -9.563575831785176E-005
 -6.165652852252564E-005
 -6.344591904475782E-005
 -6.547585048350478E-005
 -6.769962950421968E-005
 -7.004789079438765E-005
 -7.245748299078723E-005
 -7.489621003122944E-005
 -7.738533920750560E-005
 -8.007505116661579E-005
 -8.336514553529657E-005
 -8.876756254467009E-005
 -9.706300810840295E-005
 -1.001131349733712E-004
 -9.712519728176077E-005
 -9.606032144373254E-005
 -6.000720286700421E-005
 -6.192543984187245E-005
 -6.409446237621114E-005
 -6.642274254183634E-005
 -6.881053429932606E-005
 -7.117124393481992E-005
 -7.345933708996918E-005
 -7.570406596148879E-005
 -7.801676213063928E-005
 -8.066063984618196E-005
 -8.423329669234156E-005
 -8.990888920634010E-005
 -9.750563473706161E-005
 -1.032168785997407E-004
 -1.048454726774456E-004
 -5.850359439225427E-005
 -6.055036647629161E-005
 -6.282890166748123E-005
 -6.520225714792125E-005
 -6.753039480288686E-005
 -6.970492700881298E-005
 -7.170005779118076E-005
 -7.357365351963533E-005
 -7.543086920058166E-005
 -7.740971679796826E-005
 -7.978512582532707E-005
 -8.302107249611736E-005
 -8.742457066601055E-005
 -9.195158926554933E-005
 -9.534803676045790E-005
 -5.719781460643668E-005
 -5.933559936539361E-005
 -6.166829254613852E-005
 -6.399614741688698E-005
 -6.611668906656755E-005
 -6.793729205463895E-005
 -6.951754825802378E-005
 -7.096030687884063E-005
 -7.234933222980697E-005
 -7.375787023350322E-005
 -7.529266011920317E-005
 -7.716275236845597E-005
 -7.962488215094463E-005
 -8.269418452003929E-005
 -8.572057883388095E-005
 -5.614818474195449E-005
 -5.830350112212212E-005
 -6.062230477776281E-005
 -6.274972986285030E-005
 -6.442004784662568E-005
 -6.572720524056222E-005
 -6.683553246117336E-005
 -6.785295513754937E-005
 -6.881658280143687E-005
 -6.974572082106167E-005
 -7.069142959265120E-005
 -7.178213492851236E-005
 -7.324621095545540E-005
 -7.522301998051778E-005
 -7.749346757717241E-005
 -5.540998717472047E-005
 -5.752175553271464E-005
 -5.976017533305685E-005
 -6.126798150217505E-005
 -6.224244030630707E-005
 -6.297506721272764E-005
 -6.365295743232722E-005
 -6.429932986944627E-005
 -6.489763717582194E-005
 -6.545094856753403E-005
 -6.600652207821453E-005
 -6.667583703490803E-005
 -6.761496447489748E-005
 -6.893865441090610E-005
 -7.056072577191177E-005
 -5.497106853627075E-005
 -5.753826880162217E-005
 -5.874055546207384E-005
 -5.922652759328932E-005
 -5.942208602165347E-005
 -5.970677179318869E-005
 -6.004966674962655E-005
 -6.037939087701315E-005
 -6.067028695215346E-005
 -6.093835027127131E-005
 -6.124197829882718E-005
 -6.167218504816161E-005
 -6.233017329187717E-005
 -6.328275665345591E-005
 -6.448638880875596E-005
 -5.785359156939179E-005
 -5.742288439470033E-005
 -5.698864963985000E-005
 -5.624609094451103E-005
 -5.603259185888958E-005
 -5.606186095533437E-005
 -5.612499167569761E-005
 -5.616850967581471E-005
 -5.619156775837693E-005
 -5.623312143448711E-005
 -5.635681757340607E-005
 -5.663483001353592E-005
 -5.713040891892944E-005
 -5.787714426572884E-005
 -5.883911340977706E-005
 -6.178780692011950E-005
 -5.652079394676142E-005
 -5.324714722891655E-005
 -5.249494349780317E-005
 -5.232137972751674E-005
 -5.214632647049461E-005
 -5.194551212720757E-005
 -5.171188170335535E-005
 -5.148396668652730E-005
 -5.132277363720562E-005
 -5.129377774408047E-005
 -5.145442182370418E-005
 -5.184442026359484E-005
 -5.247545871322430E-005
 -5.331102369119909E-005
 -5.841060176352481E-005
 -5.291719810807430E-005
 -4.780284375040773E-005
 -4.843685604583862E-005
 -4.831174957098075E-005
 -4.799052054503975E-005
 -4.753395355664218E-005
 -4.702147037567540E-005
 -4.654180214778775E-005
 -4.617709994672744E-005
 -4.599623154333862E-005
 -4.604824078463517E-005
 -4.635797699499438E-005
 -4.692313437568989E-005
 -4.770459393157500E-005
 -6.140950678921306E-005
 -5.401695728601683E-005
 -4.359227273520018E-005
 -4.395401777447031E-005
 -4.403784502356044E-005
 -4.359784552150362E-005
 -4.288462402320589E-005
 -4.208966962568676E-005
 -4.134695429714155E-005
 -4.076374672572242E-005
 -4.041876598234707E-005
 -4.035821975776637E-005
 -4.059786710498894E-005
 -4.112568642294987E-005
 -4.189988725851771E-005
 -6.245076217043251E-005
 -5.707837353704427E-005
 -4.177207137845408E-005
 -3.985770361388591E-005
 -3.973366917265755E-005
 -3.901390050446678E-005
 -3.801048282846627E-005
 -3.691245648061668E-005
 -3.588522886665935E-005
 -3.506162245503238E-005
 -3.453401007905634E-005
 -3.435085977481071E-005
 -3.452215638662291E-005
 -3.502938218715983E-005
 -3.582710114744233E-005
 -6.301330149244222E-005
 -5.881364894284191E-005
 -4.239309914842593E-005
 -3.683022561646234E-005
 -3.565882686918538E-005
 -3.440092515234610E-005
 -3.297411878730259E-005
 -3.150902358836776E-005
 -3.016313003519458E-005
 -2.907393516460216E-005
 -2.834014522997806E-005
 -2.801629298742112E-005
 -2.811340999290990E-005
 -2.860725489717392E-005
 -2.945197306875237E-005
 -6.355787497147443E-005
 -5.899479110114080E-005
 -4.290456318607336E-005
 -3.422913786682274E-005
 -3.201338812165221E-005
 -2.990313377234960E-005
 -2.785104410548705E-005
 -2.592128430654576E-005
 -2.421912404736523E-005
 -2.283955639359301E-005
 -2.186698516072303E-005
 -2.136902721166880E-005
 -2.137281454743634E-005
 -2.185658113475767E-005
 -2.276392020500587E-005
 -6.408037044151901E-005
 -5.859092076072058E-005
 -4.290153994257135E-005
 -3.188814689370662E-005
 -2.858271381338705E-005
 -2.546670480357313E-005
 -2.264579730889979E-005
 -2.019054587661933E-005
 -1.811525980470515E-005
 -1.642810667918981E-005
 -1.517880058286939E-005
 -1.445272178701744E-005
 -1.432064555639140E-005
 -1.478290068623739E-005
 -1.577237138909917E-005
 -6.458552138725934E-005
 -5.804045930039881E-005
 -4.214166696724307E-005
 -2.956064087641830E-005
 -2.498898532613294E-005
 -2.082175969741999E-005
 -1.726799371045377E-005
 -1.433493386999847E-005
 -1.190079772215327E-005
 -9.909275680011472E-006
 -8.366658264301441E-006
 -7.349667655093954E-006
 -7.001506705505562E-006
 -7.405499097602263E-006
 -8.505730681094193E-006
 -6.512637565630555E-005
 -5.725852498479481E-005
 -4.091504685576166E-005
 -2.678310000873106E-005
 -2.073445220881580E-005
 -1.565168246437364E-005
 -1.163599123628219E-005
 -8.321333645583606E-006
 -5.572986519832559E-006
 -3.315108150772596E-006
 -1.514848764346101E-006
 -1.998660129020307E-007
  4.836586280683231E-007
  2.283268164891722E-007
 -1.021926011590879E-006
 -6.561571517151800E-005
 -5.494864397931041E-005
 -3.945850975039412E-005
 -2.267720571877930E-005
 -1.512967695169946E-005
 -9.965726301512043E-006
 -5.659700408998068E-006
 -2.058411204448106E-006
  9.289490993537446E-007
  3.376868663504451E-006
  5.344634233335868E-006
  6.857370260465395E-006
  7.856490920510065E-006
  8.036311629815491E-006
  6.549333342233813E-006
 -6.500371984209754E-005
 -4.999558852538781E-005
 -3.544244693946055E-005
 -1.488150547922455E-005
 -8.917184295492735E-006
 -3.700275244954247E-006
  8.023035968744159E-007
  4.581852873216149E-006
  7.699138666164497E-006
  1.023054340157914E-005
  1.224313005481224E-005
  1.378112562630279E-005
  1.484143453568127E-005
  1.527258560739583E-005
  1.420947797177321E-005
SCALARS poroP double 
LOOKUP_TABLE default
  1.242215601705178E-005
  1.077885591510154E-005
  9.117491359781042E-006
  7.468462644358308E-006
  5.864192151991451E-006
  4.335146771143579E-006
  2.906586886095665E-006
  1.597931270908973E-006
  4.232054211080088E-007
  0.000000000000000E+000
  0.000000000000000E+000
  0.000000000000000E+000
  0.000000000000000E+000
  0.000000000000000E+000
  0.000000000000000E+000
  1.238523178445555E-005
  1.075020891584819E-005
  9.095440425986751E-006
  7.451338036595135E-006
  5.850775449291002E-006
  4.325119222870824E-006
  2.901854605286382E-006
  1.601756525442578E-006
  4.383619488578026E-007
  0.000000000000000E+000
  0.000000000000000E+000
  0.000000000000000E+000
  0.000000000000000E+000
  0.000000000000000E+000
  0.000000000000000E+000
  1.230185894563294E-005
  1.068391861653235E-005
  9.044937715160424E-006
  7.414330255079740E-006
  5.825665200221493E-006
  4.310369432677116E-006
  2.898427039072168E-006
  1.613793580010911E-006
  4.706820822408262E-007
  0.000000000000000E+000
  0.000000000000000E+000
  0.000000000000000E+000
  0.000000000000000E+000
  0.000000000000000E+000
  0.000000000000000E+000
  1.215653150549614E-005
  1.056416752417970E-005
  8.953568683103691E-006
  7.352513742765395E-006
  5.791267702886909E-006
  4.299897326418820E-006
  2.908378587236325E-006
  1.643929664520965E-006
  5.242715125573553E-007
  0.000000000000000E+000
  0.000000000000000E+000
  0.000000000000000E+000
  0.000000000000000E+000
  0.000000000000000E+000
  0.000000000000000E+000
  1.193088932919746E-005
  1.037308368059855E-005
  8.805000871078147E-006
  7.254943113881562E-006
  5.746449432463225E-006
  4.302643723149243E-006
  2.947740931333500E-006
  1.708183850938015E-006
  6.073179808133997E-007
  0.000000000000000E+000
  0.000000000000000E+000
  0.000000000000000E+000
  0.000000000000000E+000
  0.000000000000000E+000
  0.000000000000000E+000
  1.160771072486365E-005
  1.009488818626339E-005
  8.587804340075814E-006
  7.111778682650057E-006
  5.685262964732371E-006
  4.320505171893818E-006
  3.029368191274365E-006
  1.826765782632028E-006
  7.390342323377100E-007
  2.451028609741662E-008
  0.000000000000000E+000
  0.000000000000000E+000
  0.000000000000000E+000
  0.000000000000000E+000
  0.000000000000000E+000
  1.117483715360446E-005
  9.719059117667936E-006
  8.292519481145772E-006
  6.916581164022572E-006
  5.600484483146432E-006
  4.346529801768649E-006
  3.151740201279418E-006
  2.015504689711987E-006
  9.461796489212402E-007
  8.661562340106774E-008
  0.000000000000000E+000
  0.000000000000000E+000
  0.000000000000000E+000
  0.000000000000000E+000
  0.000000000000000E+000
  1.062641938613684E-005
  9.244037003487517E-006
  7.920256108414455E-006
  6.668899120127848E-006
  5.488065903590311E-006
  4.368151197039048E-006
  3.298204299662980E-006
  2.265197973459111E-006
  1.256028205962558E-006
  3.075354165148045E-007
  0.000000000000000E+000
  0.000000000000000E+000
  0.000000000000000E+000
  0.000000000000000E+000
  0.000000000000000E+000
  9.968728188352297E-006
  8.675884085913777E-006
  7.480748816954364E-006
  6.375656475206952E-006
  5.344981966548941E-006
  4.374458077149223E-006
  3.448376860786425E-006
  2.548698444455630E-006
  1.654360560811383E-006
  7.411684480355854E-007
  5.709875378147984E-008
  0.000000000000000E+000
  0.000000000000000E+000
  0.000000000000000E+000
  0.000000000000000E+000
  9.211799445061476E-006
  8.039071236055192E-006
  6.990075578654040E-006
  6.041753680598242E-006
  5.172196729198459E-006
  4.361264732342519E-006
  3.589979313138022E-006
  2.838844708301015E-006
  2.084393275381836E-006
  1.289138822699388E-006
  4.620994390818936E-007
  2.325393390388189E-008
  0.000000000000000E+000
  0.000000000000000E+000
  0.000000000000000E+000
  8.387107856097913E-006
  7.351522597427609E-006
  6.458688965962486E-006
  5.674941879326558E-006
  4.973514957324435E-006
  4.329644369206985E-006
  3.719493861801661E-006
  3.120498637523213E-006
  2.509593222920825E-006
  1.862607021651892E-006
  1.154041621816788E-006
  4.406916225235769E-007
  6.450762272766320E-008
  0.000000000000000E+000
  0.000000000000000E+000
  7.524071142128702E-006
  6.630361379886555E-006
  5.895824405280292E-006
  5.281384651890088E-006
  4.754010851740300E-006
  4.283173609055974E-006
  3.839602224542293E-006
  3.396681107404843E-006
  2.931460727160453E-006
  2.424486425603510E-006
  1.861322522349390E-006
  1.249936311345386E-006
  6.734229295974916E-007
  2.864131390196329E-007
  1.994169895266309E-007
  6.640824006081312E-006
  5.888497299691983E-006
  5.312763630814762E-006
  4.870204781120233E-006
  4.521146365565312E-006
  4.227974167992580E-006
  3.956379567815296E-006
  3.675357095982341E-006
  3.359763856325472E-006
  2.991594827354942E-006
  2.561948336925868E-006
  2.077005598828493E-006
  1.582996531577324E-006
  1.186441302436363E-006
  9.845275950489165E-007
  5.744926086430536E-006
  5.136426774928058E-006
  4.722216542435099E-006
  4.453472806548463E-006
  4.284344760264264E-006
  4.171520890832659E-006
  4.075325403387374E-006
  3.961567997358357E-006
  3.802495237420414E-006
  3.579776058468810E-006
  3.285739257199833E-006
  2.927609394707648E-006
  2.534930868427741E-006
  2.157596591960570E-006
  1.848854750366384E-006
  4.842775862746180E-006
  4.387648933013343E-006
  4.138890037280838E-006
  4.044071175407681E-006
  4.053467084346899E-006
  4.119893732455512E-006
  4.200006354785085E-006
  4.256686299603503E-006
  4.260747522942485E-006
  4.191923391871610E-006
  4.040584008421137E-006
  3.808325030451039E-006
  3.505051010006830E-006
  3.148655679086134E-006
  2.771032399032053E-006
  3.948238402334564E-006
  3.655940954645223E-006
  3.575659455652433E-006
  3.652937617267045E-006
  3.836492132041015E-006
  4.077272767497557E-006
  4.330616647262509E-006
  4.557944942368152E-006
  4.728231961822681E-006
  4.818228221073372E-006
  4.812357794115949E-006
  4.701188778121945E-006
  4.479854282260989E-006
  4.151987729361171E-006
  3.735148706774534E-006
  3.075905467404941E-006
  2.952260724386983E-006
  3.041708820774724E-006
  3.288489736397775E-006
  3.639518447832156E-006
  4.045837722427731E-006
  4.464144911351186E-006
  4.856775157810446E-006
  5.191233637808475E-006
  5.439474267455059E-006
  5.577885570886154E-006
  5.586338946032882E-006
  5.449400730892186E-006
  5.161692479726340E-006
  4.731359061897732E-006
  2.235568573015461E-006
  2.285159447647127E-006
  2.545894721668409E-006
  2.957632150606927E-006
  3.465551136481407E-006
  4.024119308242292E-006
  4.594387102977740E-006
  5.141295649564868E-006
  5.631514034665593E-006
  6.032672224601478E-006
  6.313148513899927E-006
  6.444129802232907E-006
  6.401583613211957E-006
  6.170596708168310E-006
  5.751192483764487E-006
  1.434448417768653E-006
  1.664173261862651E-006
  2.098023420222358E-006
  2.664376518874824E-006
  3.313066950479678E-006
  4.006618300288021E-006
  4.712199216671941E-006
  5.397686376732305E-006
  6.029738063947931E-006
  6.573922261650975E-006
  6.994001806111929E-006
  7.253813808064858E-006
  7.320783871047615E-006
  7.168711975072988E-006
  6.786130690990365E-006
  6.869165956402363E-007
  1.103069811978263E-006
  1.704015369079082E-006
  2.406351949145604E-006
  3.176463332094640E-006
  3.986025895030532E-006
  4.807309943976568E-006
  5.611186907189166E-006
  6.366623869532605E-006
  7.040105686912308E-006
  7.595234286421405E-006
  7.991567619851812E-006
  8.187337033873786E-006
  8.142663244509797E-006
  7.828780917991730E-006
  1.060127157913176E-007
  6.120241427948762E-007
  1.356624687544518E-006
  2.176647616905645E-006
  3.049891991847631E-006
  3.955463597495151E-006
  4.869708834487829E-006
  5.767569220996826E-006
  6.623060906921482E-006
  7.408101620053888E-006
  8.090154437470681E-006
  8.629204933279209E-006
  8.976301771006604E-006
  9.074633461318422E-006
  8.870354806638186E-006
  0.000000000000000E+000
  2.381879981704894E-007
  1.051468406697697E-006
  1.972006819947578E-006
  2.930712165868685E-006
  3.910092808609916E-006
  4.890434873095380E-006
  5.853233256072842E-006
  6.780944430130410E-006
  7.654789628875207E-006
  8.450774576439632E-006
  9.134679986112774E-006
  9.655644423811299E-006
  9.940172465916692E-006
  9.899134887798384E-006
  0.000000000000000E+000
  6.145025030815667E-008
  8.092088194939434E-007
  1.800276510312744E-006
  2.821741566184080E-006
  3.847663439047769E-006
  4.861768158788326E-006
  5.855044502483442E-006
  6.822563491897494E-006
  7.758429031240699E-006
  8.650514204120493E-006
  9.475055874837898E-006
  1.018779002235863E-005
  1.070722711779897E-005
  1.090096636026770E-005
  0.000000000000000E+000
  1.553853201163364E-008
  6.345071803752233E-007
  1.673483051852549E-006
  2.728258202121675E-006
  3.766372683022112E-006
  4.776072459422895E-006
  5.761026807929511E-006
  6.732428174891293E-006
  7.700207397981688E-006
  8.666108801606662E-006
  9.619050069853507E-006
  1.052856584801865E-005
  1.132407154761248E-005
  1.184479730304684E-005
  0.000000000000000E+000
  0.000000000000000E+000
  5.142032341656582E-007
  1.591268097917039E-006
  2.648621885598053E-006
  3.659473056063216E-006
  4.623875415384959E-006
  5.561293944446066E-006
  6.499761179293122E-006
  7.466397725470374E-006
  8.479475007420977E-006
  9.542654228356208E-006
  1.064339231749039E-005
  1.174354935505200E-005
  1.270191995539849E-005
  0.000000000000000E+000
  0.000000000000000E+000
  4.392942341745397E-007
  1.539398054678024E-006
  2.565466397622320E-006
  3.509042425693663E-006
  4.391415196600183E-006
  5.248576381251227E-006
  6.121789302743057E-006
  7.053105286652753E-006
  8.080260319689941E-006
  9.228149354286517E-006
  1.050413676437166E-005
  1.190435921502579E-005
  1.337849653680242E-005
  0.000000000000000E+000
  0.000000000000000E+000
  4.012620288904394E-007
  1.489837051542860E-006
  2.442253100590147E-006
  3.283846054055527E-006
  4.060127157045449E-006
  4.818276889916784E-006
  5.605630783292350E-006
  6.472294796067751E-006
  7.472926563090077E-006
  8.663562231790526E-006
  1.008703355504770E-005
  1.178147062259153E-005
  1.384039347943636E-005
  0.000000000000000E+000
  0.000000000000000E+000
  3.801134267763026E-007
  1.389631903198672E-006
  2.224249050229480E-006
  2.945112788038352E-006
  3.610623495219662E-006
  4.268664653938168E-006
  4.965072487107184E-006
  5.750450016383219E-006
  6.687713021199449E-006
  7.860130860962399E-006
  9.375410066829052E-006
  1.135160703488150E-005
  1.404976549058391E-005
  0.000000000000000E+000
  0.000000000000000E+000
  2.999335765239109E-007
  1.149917081375875E-006
  1.851065421973176E-006
  2.459789764934641E-006
  3.028572798684225E-006
  3.599989158734454E-006
  4.215384132414778E-006
  4.921087711226228E-006
  5.778101433079407E-006
  6.878466073599293E-006
  8.378462904473713E-006
  1.055855168587516E-005
  1.399351571864126E-005
  0.000000000000000E+000
  0.000000000000000E+000
  8.580307164371699E-008
  6.872304100860072E-007
  1.284170551041816E-006
  1.811428568017157E-006
  2.309776670308718E-006
  2.816961704352968E-006
  3.370339630705788E-006
  4.011944803494538E-006
  4.797013449332180E-006
  5.812050784408450E-006
  7.218711453706292E-006
  9.392823446594969E-006
  1.363419014351356E-005
SCALARS elementIsPlast double 
LOOKUP_TABLE default
   1.00000000000000     
   1.00000000000000     
   1.00000000000000     
   1.00000000000000     
   1.00000000000000     
   1.00000000000000     
   1.00000000000000     
   1.00000000000000     
   1.00000000000000     
  0.000000000000000E+000
  0.000000000000000E+000
  0.000000000000000E+000
  0.000000000000000E+000
  0.000000000000000E+000
  0.000000000000000E+000
   1.00000000000000     
   1.00000000000000     
   1.00000000000000     
   1.00000000000000     
   1.00000000000000     
   1.00000000000000     
   1.00000000000000     
   1.00000000000000     
   1.00000000000000     
  0.000000000000000E+000
  0.000000000000000E+000
  0.000000000000000E+000
  0.000000000000000E+000
  0.000000000000000E+000
  0.000000000000000E+000
   1.00000000000000     
   1.00000000000000     
   1.00000000000000     
   1.00000000000000     
   1.00000000000000     
   1.00000000000000     
   1.00000000000000     
   1.00000000000000     
   1.00000000000000     
  0.000000000000000E+000
  0.000000000000000E+000
  0.000000000000000E+000
  0.000000000000000E+000
  0.000000000000000E+000
  0.000000000000000E+000
   1.00000000000000     
   1.00000000000000     
   1.00000000000000     
   1.00000000000000     
   1.00000000000000     
   1.00000000000000     
   1.00000000000000     
   1.00000000000000     
   1.00000000000000     
  0.000000000000000E+000
  0.000000000000000E+000
  0.000000000000000E+000
  0.000000000000000E+000
  0.000000000000000E+000
  0.000000000000000E+000
   1.00000000000000     
   1.00000000000000     
   1.00000000000000     
   1.00000000000000     
   1.00000000000000     
   1.00000000000000     
   1.00000000000000     
   1.00000000000000     
   1.00000000000000     
   1.00000000000000     
  0.000000000000000E+000
  0.000000000000000E+000
  0.000000000000000E+000
  0.000000000000000E+000
  0.000000000000000E+000
   1.00000000000000     
   1.00000000000000     
   1.00000000000000     
   1.00000000000000     
   1.00000000000000     
   1.00000000000000     
   1.00000000000000     
   1.00000000000000     
   1.00000000000000     
   1.00000000000000     
  0.000000000000000E+000
  0.000000000000000E+000
  0.000000000000000E+000
  0.000000000000000E+000
  0.000000000000000E+000
   1.00000000000000     
   1.00000000000000     
   1.00000000000000     
   1.00000000000000     
   1.00000000000000     
   1.00000000000000     
   1.00000000000000     
   1.00000000000000     
   1.00000000000000     
   1.00000000000000     
  0.000000000000000E+000
  0.000000000000000E+000
  0.000000000000000E+000
  0.000000000000000E+000
  0.000000000000000E+000
   1.00000000000000     
   1.00000000000000     
   1.00000000000000     
   1.00000000000000     
   1.00000000000000     
   1.00000000000000     
   1.00000000000000     
   1.00000000000000     
   1.00000000000000     
   1.00000000000000     
  0.000000000000000E+000
  0.000000000000000E+000
  0.000000000000000E+000
  0.000000000000000E+000
  0.000000000000000E+000
   1.00000000000000     
   1.00000000000000     
   1.00000000000000     
   1.00000000000000     
   1.00000000000000     
   1.00000000000000     
   1.00000000000000     
   1.00000000000000     
   1.00000000000000     
   1.00000000000000     
   1.00000000000000     
  0.000000000000000E+000
  0.000000000000000E+000
  0.000000000000000E+000
  0.000000000000000E+000
   1.00000000000000     
   1.00000000000000     
   1.00000000000000     
   1.00000000000000     
   1.00000000000000     
   1.00000000000000     
   1.00000000000000     
   1.00000000000000     
   1.00000000000000     
   1.00000000000000     
   1.00000000000000     
   1.00000000000000     
  0.000000000000000E+000
  0.000000000000000E+000
  0.000000000000000E+000
   1.00000000000000     
   1.00000000000000     
   1.00000000000000     
   1.00000000000000     
   1.00000000000000     
   1.00000000000000     
   1.00000000000000     
   1.00000000000000     
   1.00000000000000     
   1.00000000000000     
   1.00000000000000     
   1.00000000000000     
   1.00000000000000     
  0.000000000000000E+000
  0.000000000000000E+000
   1.00000000000000     
   1.00000000000000     
   1.00000000000000     
   1.00000000000000     
   1.00000000000000     
   1.00000000000000     
   1.00000000000000     
   1.00000000000000     
   1.00000000000000     
   1.00000000000000     
   1.00000000000000     
   1.00000000000000     
   1.00000000000000     
   1.00000000000000     
   1.00000000000000     
   1.00000000000000     
   1.00000000000000     
   1.00000000000000     
   1.00000000000000     
   1.00000000000000     
   1.00000000000000     
   1.00000000000000     
   1.00000000000000     
   1.00000000000000     
   1.00000000000000     
   1.00000000000000     
   1.00000000000000     
   1.00000000000000     
   1.00000000000000     
   1.00000000000000     
   1.00000000000000     
   1.00000000000000     
   1.00000000000000     
   1.00000000000000     
   1.00000000000000     
   1.00000000000000     
   1.00000000000000     
   1.00000000000000     
   1.00000000000000     
   1.00000000000000     
   1.00000000000000     
   1.00000000000000     
   1.00000000000000     
   1.00000000000000     
   1.00000000000000     
   1.00000000000000     
   1.00000000000000     
   1.00000000000000     
   1.00000000000000     
   1.00000000000000     
   1.00000000000000     
   1.00000000000000     
   1.00000000000000     
   1.00000000000000     
   1.00000000000000     
   1.00000000000000     
   1.00000000000000     
   1.00000000000000     
   1.00000000000000     
   1.00000000000000     
   1.00000000000000     
   1.00000000000000     
   1.00000000000000     
   1.00000000000000     
   1.00000000000000     
   1.00000000000000     
   1.00000000000000     
   1.00000000000000     
   1.00000000000000     
   1.00000000000000     
   1.00000000000000     
   1.00000000000000     
   1.00000000000000     
   1.00000000000000     
   1.00000000000000     
   1.00000000000000     
   1.00000000000000     
   1.00000000000000     
   1.00000000000000     
   1.00000000000000     
   1.00000000000000     
   1.00000000000000     
   1.00000000000000     
   1.00000000000000     
   1.00000000000000     
   1.00000000000000     
   1.00000000000000     
   1.00000000000000     
   1.00000000000000     
   1.00000000000000     
   1.00000000000000     
   1.00000000000000     
   1.00000000000000     
   1.00000000000000     
   1.00000000000000     
   1.00000000000000     
   1.00000000000000     
   1.00000000000000     
   1.00000000000000     
   1.00000000000000     
   1.00000000000000     
   1.00000000000000     
   1.00000000000000     
   1.00000000000000     
   1.00000000000000     
   1.00000000000000     
   1.00000000000000     
   1.00000000000000     
   1.00000000000000     
   1.00000000000000     
   1.00000000000000     
   1.00000000000000     
   1.00000000000000     
   1.00000000000000     
   1.00000000000000     
   1.00000000000000     
   1.00000000000000     
   1.00000000000000     
   1.00000000000000     
   1.00000000000000     
   1.00000000000000     
   1.00000000000000     
   1.00000000000000     
   1.00000000000000     
   1.00000000000000     
   1.00000000000000     
   1.00000000000000     
   1.00000000000000     
   1.00000000000000     
   1.00000000000000     
   1.00000000000000     
   1.00000000000000     
   1.00000000000000     
   1.00000000000000     
   1.00000000000000     
   1.00000000000000     
   1.00000000000000     
   1.00000000000000     
   1.00000000000000     
   1.00000000000000     
   1.00000000000000     
   1.00000000000000     
   1.00000000000000     
   1.00000000000000     
   1.00000000000000     
   1.00000000000000     
   1.00000000000000     
   1.00000000000000     
   1.00000000000000     
   1.00000000000000     
   1.00000000000000     
   1.00000000000000     
   1.00000000000000     
   1.00000000000000     
   1.00000000000000     
   1.00000000000000     
   1.00000000000000     
   1.00000000000000     
   1.00000000000000     
   1.00000000000000     
   1.00000000000000     
   1.00000000000000     
   1.00000000000000     
   1.00000000000000     
   1.00000000000000     
  0.000000000000000E+000
   1.00000000000000     
   1.00000000000000     
   1.00000000000000     
   1.00000000000000     
   1.00000000000000     
   1.00000000000000     
   1.00000000000000     
   1.00000000000000     
   1.00000000000000     
   1.00000000000000     
   1.00000000000000     
   1.00000000000000     
   1.00000000000000     
   1.00000000000000     
  0.000000000000000E+000
   1.00000000000000     
   1.00000000000000     
   1.00000000000000     
   1.00000000000000     
   1.00000000000000     
   1.00000000000000     
   1.00000000000000     
   1.00000000000000     
   1.00000000000000     
   1.00000000000000     
   1.00000000000000     
   1.00000000000000     
   1.00000000000000     
   1.00000000000000     
  0.000000000000000E+000
   1.00000000000000     
   1.00000000000000     
   1.00000000000000     
   1.00000000000000     
   1.00000000000000     
   1.00000000000000     
   1.00000000000000     
   1.00000000000000     
   1.00000000000000     
   1.00000000000000     
   1.00000000000000     
   1.00000000000000     
   1.00000000000000     
   1.00000000000000     
  0.000000000000000E+000
  0.000000000000000E+000
   1.00000000000000     
   1.00000000000000     
   1.00000000000000     
   1.00000000000000     
   1.00000000000000     
   1.00000000000000     
   1.00000000000000     
   1.00000000000000     
   1.00000000000000     
   1.00000000000000     
   1.00000000000000     
   1.00000000000000     
   1.00000000000000     
  0.000000000000000E+000
  0.000000000000000E+000
   1.00000000000000     
   1.00000000000000     
   1.00000000000000     
   1.00000000000000     
   1.00000000000000     
   1.00000000000000     
   1.00000000000000     
   1.00000000000000     
   1.00000000000000     
   1.00000000000000     
   1.00000000000000     
   1.00000000000000     
   1.00000000000000     
  0.000000000000000E+000
  0.000000000000000E+000
   1.00000000000000     
   1.00000000000000     
   1.00000000000000     
   1.00000000000000     
   1.00000000000000     
   1.00000000000000     
   1.00000000000000     
   1.00000000000000     
   1.00000000000000     
   1.00000000000000     
   1.00000000000000     
   1.00000000000000     
   1.00000000000000     
  0.000000000000000E+000
  0.000000000000000E+000
   1.00000000000000     
   1.00000000000000     
   1.00000000000000     
   1.00000000000000     
   1.00000000000000     
   1.00000000000000     
   1.00000000000000     
   1.00000000000000     
   1.00000000000000     
   1.00000000000000     
   1.00000000000000     
   1.00000000000000     
   1.00000000000000     
  0.000000000000000E+000
  0.000000000000000E+000
   1.00000000000000     
   1.00000000000000     
   1.00000000000000     
   1.00000000000000     
   1.00000000000000     
   1.00000000000000     
   1.00000000000000     
   1.00000000000000     
   1.00000000000000     
   1.00000000000000     
   1.00000000000000     
   1.00000000000000     
   1.00000000000000     
SCALARS poroL double 
LOOKUP_TABLE default
  0.155920638010685     
  0.155919126193645     
  0.155917700864797     
  0.155916390042254     
  0.155915210535387     
  0.155914159130425     
  0.155913220909624     
  0.155912375658856     
  0.155911612745756     
  0.155910194202243     
  0.155908485136937     
  0.155906963081147     
  0.155905619414238     
  0.155904446033564     
  0.155903435377634     
  0.155920219042419     
  0.155918708239073     
  0.155917278710662     
  0.155915960551954     
  0.155914772606521     
  0.155913712439788     
  0.155912768106712     
  0.155911919187074     
  0.155911153854273     
  0.155909766084535     
  0.155908069732535     
  0.155906559710497     
  0.155905227525760     
  0.155904065003913     
  0.155903064477442     
  0.155919373663405     
  0.155917867247214     
  0.155916432991859     
  0.155915102972524     
  0.155913899106915     
  0.155912821477897     
  0.155911862936553     
  0.155911005985548     
  0.155910236665945     
  0.155908911510253     
  0.155907240032212     
  0.155905754037743     
  0.155904444982087     
  0.155903304283861     
  0.155902324068357     
  0.155918090529104     
  0.155916593279094     
  0.155915160362670     
  0.155913822449453     
  0.155912597633343     
  0.155911493050107     
  0.155910509304624     
  0.155909636220935     
  0.155908861659808     
  0.155907632718369     
  0.155905997526289     
  0.155904548285349     
  0.155903274344572     
  0.155902166539749     
  0.155901216976429     
  0.155916356526295     
  0.155914874856820     
  0.155913452056794     
  0.155912115555502     
  0.155910876209423     
  0.155909741309997     
  0.155908719078222     
  0.155907816482780     
  0.155907025682832     
  0.155905927460768     
  0.155904344812901     
  0.155902946443523     
  0.155901719351225     
  0.155900655813965     
  0.155899747431935     
  0.155914159351336     
  0.155912703882957     
  0.155911305652945     
  0.155909983164860     
  0.155908741036756     
  0.155907581282580     
  0.155906516519374     
  0.155905563338392     
  0.155904744102773     
  0.155903799078457     
  0.155902290029364     
  0.155900952865241     
  0.155899785528138     
  0.155898777099154     
  0.155897921007397     
  0.155911493508887     
  0.155910073776718     
  0.155908716097705     
  0.155907425255718     
  0.155906194371415     
  0.155905026909987     
  0.155903929284796     
  0.155902919235920     
  0.155902026647849     
  0.155901212610240     
  0.155899832951917     
  0.155898578429698     
  0.155897477595763     
  0.155896536134145     
  0.155895744442596     
  0.155908357630232     
  0.155906991511327     
  0.155905689074873     
  0.155904442667142     
  0.155903243760678     
  0.155902086857495     
  0.155900977915857     
  0.155899928477517     
  0.155898962706183     
  0.155898158212096     
  0.155897020270175     
  0.155895821692998     
  0.155894800268677     
  0.155893939131646     
  0.155893225031440     
  0.155904767849610     
  0.155903463746633     
  0.155902235443443     
  0.155901051914841     
  0.155899895372150     
  0.155898767200022     
  0.155897672248859     
  0.155896619190833     
  0.155895623056241     
  0.155894698861657     
  0.155893799153288     
  0.155892682745668     
  0.155891761039539     
  0.155890989243858     
  0.155890370927494     
  0.155900734708953     
  0.155899527586645     
  0.155898382968232     
  0.155897264001797     
  0.155896162479471     
  0.155895078597442     
  0.155894020104551     
  0.155892995321523     
  0.155892006739153     
  0.155891055897592     
  0.155890160012922     
  0.155889205073898     
  0.155888347709718     
  0.155887690668232     
  0.155887186712841     
  0.155896305249459     
  0.155895206271682     
  0.155894148938422     
  0.155893102488344     
  0.155892063083635     
  0.155891037084961     
  0.155890032732032     
  0.155889058197960     
  0.155888121500644     
  0.155887231236191     
  0.155886365083609     
  0.155885494985788     
  0.155884615844603     
  0.155884025554049     
  0.155883665799061     
  0.155891519694901     
  0.155890527550067     
  0.155889554070362     
  0.155888582998575     
  0.155887616175298     
  0.155886662360908     
  0.155885730874352     
  0.155884832109891     
  0.155883975518767     
  0.155883166155120     
  0.155882410591054     
  0.155881685547411     
  0.155880952116838     
  0.155880280428006     
  0.155879917648534     
  0.155886402673642     
  0.155885509771464     
  0.155884617825792     
  0.155883726538070     
  0.155882844003260     
  0.155881979629087     
  0.155881143268188     
  0.155880342950529     
  0.155879586428847     
  0.155878881760292     
  0.155878233797726     
  0.155877645993134     
  0.155877117265076     
  0.155876655145736     
  0.155876245302893     
  0.155880956375165     
  0.155880158832038     
  0.155879354840876     
  0.155878555341573     
  0.155877773023610     
  0.155877018132199     
  0.155876297895497     
  0.155875617737291     
  0.155874981351305     
  0.155874392900332     
  0.155873857680092     
  0.155873379438478     
  0.155872953509971     
  0.155872553886052     
  0.155872192820712     
  0.155875175005564     
  0.155874483437794     
  0.155873782905938     
  0.155873093231848     
  0.155872430909627     
  0.155871805883034     
  0.155871222426629     
  0.155870681212951     
  0.155870180608727     
  0.155869718372270     
  0.155869291888574     
  0.155868896127648     
  0.155868517371175     
  0.155868147398205     
  0.155867800336314     
  0.155869064739855     
  0.155868495481404     
  0.155867919200304     
  0.155867361596763     
  0.155866841213956     
  0.155866367571057     
  0.155865941036006     
  0.155865555370247     
  0.155865201717783     
  0.155864869684627     
  0.155864546979919     
  0.155864219772884     
  0.155863877445411     
  0.155863518892218     
  0.155863162176606     
  0.155862633178717     
  0.155862204911887     
  0.155861775917298     
  0.155861376399237     
  0.155861024573562     
  0.155860725528882     
  0.155860473695251     
  0.155860256865963     
  0.155860058925120     
  0.155859860399656     
  0.155859641770418     
  0.155859385416577     
  0.155859080847410     
  0.155858730251536     
  0.155858348917381     
  0.155855880629078     
  0.155855617159830     
  0.155855364018165     
  0.155855154424914     
  0.155855000988308     
  0.155854899541787     
  0.155854838679593     
  0.155854802012496     
  0.155854767524686     
  0.155854709356618     
  0.155854601642366     
  0.155854424482668     
  0.155854165599210     
  0.155853824875449     
  0.155853413593579     
  0.155848807002532     
  0.155848737822418     
  0.155848698397108     
  0.155848718215628     
  0.155848791030147     
  0.155848906950864     
  0.155849052365087     
  0.155849206912737     
  0.155849344387357     
  0.155849435703230     
  0.155849450891862     
  0.155849365123155     
  0.155849162688841     
  0.155848837711345     
  0.155848398966614     
  0.155841400170655     
  0.155841577299559     
  0.155841812603897     
  0.155842093107613     
  0.155842413313990     
  0.155842764237685     
  0.155843129933463     
  0.155843487356231     
  0.155843807482201     
  0.155844058285478     
  0.155844208597048     
  0.155844228931587     
  0.155844097249620     
  0.155843800683399     
  0.155843340499822     
  0.155833581954811     
  0.155834208305803     
  0.155834745357602     
  0.155835303580398     
  0.155835887446340     
  0.155836488587304     
  0.155837088361136     
  0.155837659923799     
  0.155838171598354     
  0.155838591216730     
  0.155838887208877     
  0.155839028308912     
  0.155838986561521     
  0.155838737928755     
  0.155838270857805     
  0.155825563248670     
  0.155826699736903     
  0.155827540060760     
  0.155828377975279     
  0.155829236287216     
  0.155830101263487     
  0.155830947325279     
  0.155831741603227     
  0.155832450438471     
  0.155833042692266     
  0.155833490361834     
  0.155833765770135     
  0.155833836347448     
  0.155833664549469     
  0.155833215816210     
  0.155817211495080     
  0.155818966070527     
  0.155820234851954     
  0.155821347011753     
  0.155822490015783     
  0.155823629823079     
  0.155824729589042     
  0.155825749812282     
  0.155826654799828     
  0.155827417180998     
  0.155828016191529     
  0.155828432277271     
  0.155828636618478     
  0.155828580571181     
  0.155828199209123     
  0.155808625671084     
  0.155810992864567     
  0.155812809118346     
  0.155814238326631     
  0.155815685123999     
  0.155817108699580     
  0.155818461571341     
  0.155819701179486     
  0.155820794488310     
  0.155821718662168     
  0.155822460276274     
  0.155823011373287     
  0.155823359218862     
  0.155823460841465     
  0.155823207312293     
  0.155799884075116     
  0.155802842287458     
  0.155805275238333     
  0.155807081855004     
  0.155808865183231     
  0.155810578728977     
  0.155812173530154     
  0.155813613445805     
  0.155814876811620     
  0.155815949785864     
  0.155816822904203     
  0.155817495514551     
  0.155817975464640     
  0.155818258327515     
  0.155818236571682     
  0.155791032573373     
  0.155794629899926     
  0.155797704282274     
  0.155799941679980     
  0.155802089308290     
  0.155804087548655     
  0.155805898237529     
  0.155807506838142     
  0.155808911328436     
  0.155810112586757     
  0.155811108043098     
  0.155811892478658     
  0.155812480227017     
  0.155812911682241     
  0.155813210586179     
  0.155782127551457     
  0.155786458883099     
  0.155790204067011     
  0.155792925630724     
  0.155795438788919     
  0.155797689642989     
  0.155799672513900     
  0.155801406466534     
  0.155802914882447     
  0.155804215650101     
  0.155805317403585     
  0.155806217125338     
  0.155806906945767     
  0.155807469094351     
  0.155808090683036     
  0.155773243801576     
  0.155778477552451     
  0.155782946421723     
  0.155786180128794     
  0.155789006219886     
  0.155791440577891     
  0.155793537925062     
  0.155795349005054     
  0.155796915445972     
  0.155798273056686     
  0.155799448241276     
  0.155800455451003     
  0.155801293787552     
  0.155801954921285     
  0.155802845962909     
  0.155764527808257     
  0.155770957792161     
  0.155776194013329     
  0.155779864660360     
  0.155782872094639     
  0.155785398749619     
  0.155787542932246     
  0.155789375447427     
  0.155790950668469     
  0.155792313874309     
  0.155793505754485     
  0.155794565740431     
  0.155795533598623     
  0.155796462593295     
  0.155797507507868     
  0.155756624336591     
  0.155764626652331     
  0.155770267025200     
  0.155774078340370     
  0.155777101884751     
  0.155779620490660     
  0.155781738704607     
  0.155783533166793     
  0.155785062003552     
  0.155786374091745     
  0.155787513728971     
  0.155788530237424     
  0.155789495157264     
  0.155790547383499     
  0.155792339285570     
