# vtk DataFile Version 3.0
vtk output
ASCII
DATASET UNSTRUCTURED_GRID
POINTS       496 double 
  0.00000000E+00  3.00000000E+02  0.00000000E+00
  0.00000000E+00  2.80000000E+02  0.00000000E+00
  0.00000000E+00  2.60000000E+02  0.00000000E+00
  0.00000000E+00  2.40000000E+02  0.00000000E+00
  0.00000000E+00  2.20000000E+02  0.00000000E+00
  0.00000000E+00  2.00000000E+02  0.00000000E+00
  0.00000000E+00  1.80000000E+02  0.00000000E+00
  0.00000000E+00  1.60000000E+02  0.00000000E+00
  0.00000000E+00  1.40000000E+02  0.00000000E+00
  0.00000000E+00  1.20000000E+02  0.00000000E+00
  0.00000000E+00  1.00000000E+02  0.00000000E+00
  0.00000000E+00  8.00000000E+01  0.00000000E+00
  0.00000000E+00  6.00000000E+01  0.00000000E+00
  0.00000000E+00  4.00000000E+01  0.00000000E+00
  0.00000000E+00  2.00000000E+01  0.00000000E+00
  0.00000000E+00  4.99600361E-14  0.00000000E+00
  2.00000000E+01  3.00000000E+02  0.00000000E+00
  2.00000000E+01  2.80000000E+02  0.00000000E+00
  2.00000000E+01  2.60000000E+02  0.00000000E+00
  2.00000000E+01  2.40000000E+02  0.00000000E+00
  2.00000000E+01  2.20000000E+02  0.00000000E+00
  2.00000000E+01  2.00000000E+02  0.00000000E+00
  2.00000000E+01  1.80000000E+02  0.00000000E+00
  2.00000000E+01  1.60000000E+02  0.00000000E+00
  2.00000000E+01  1.40000000E+02  0.00000000E+00
  2.00000000E+01  1.20000000E+02  0.00000000E+00
  2.00000000E+01  1.00000000E+02  0.00000000E+00
  2.00000000E+01  8.00000000E+01  0.00000000E+00
  2.00000000E+01  6.00000000E+01  0.00000000E+00
  2.00000000E+01  4.00000000E+01  0.00000000E+00
  2.00000000E+01  2.00000000E+01  0.00000000E+00
  2.00000000E+01  4.99600361E-14  0.00000000E+00
  4.00000000E+01  3.00000000E+02  0.00000000E+00
  4.00000000E+01  2.80000000E+02  0.00000000E+00
  4.00000000E+01  2.60000000E+02  0.00000000E+00
  4.00000000E+01  2.40000000E+02  0.00000000E+00
  4.00000000E+01  2.20000000E+02  0.00000000E+00
  4.00000000E+01  2.00000000E+02  0.00000000E+00
  4.00000000E+01  1.80000000E+02  0.00000000E+00
  4.00000000E+01  1.60000000E+02  0.00000000E+00
  4.00000000E+01  1.40000000E+02  0.00000000E+00
  4.00000000E+01  1.20000000E+02  0.00000000E+00
  4.00000000E+01  1.00000000E+02  0.00000000E+00
  4.00000000E+01  8.00000000E+01  0.00000000E+00
  4.00000000E+01  6.00000000E+01  0.00000000E+00
  4.00000000E+01  4.00000000E+01  0.00000000E+00
  4.00000000E+01  2.00000000E+01  0.00000000E+00
  4.00000000E+01  4.99600361E-14  0.00000000E+00
  6.00000000E+01  3.00000000E+02  0.00000000E+00
  6.00000000E+01  2.80000000E+02  0.00000000E+00
  6.00000000E+01  2.60000000E+02  0.00000000E+00
  6.00000000E+01  2.40000000E+02  0.00000000E+00
  6.00000000E+01  2.20000000E+02  0.00000000E+00
  6.00000000E+01  2.00000000E+02  0.00000000E+00
  6.00000000E+01  1.80000000E+02  0.00000000E+00
  6.00000000E+01  1.60000000E+02  0.00000000E+00
  6.00000000E+01  1.40000000E+02  0.00000000E+00
  6.00000000E+01  1.20000000E+02  0.00000000E+00
  6.00000000E+01  1.00000000E+02  0.00000000E+00
  6.00000000E+01  8.00000000E+01  0.00000000E+00
  6.00000000E+01  6.00000000E+01  0.00000000E+00
  6.00000000E+01  4.00000000E+01  0.00000000E+00
  6.00000000E+01  2.00000000E+01  0.00000000E+00
  6.00000000E+01  4.99600361E-14  0.00000000E+00
  8.00000000E+01  3.00000000E+02  0.00000000E+00
  8.00000000E+01  2.80000000E+02  0.00000000E+00
  8.00000000E+01  2.60000000E+02  0.00000000E+00
  8.00000000E+01  2.40000000E+02  0.00000000E+00
  8.00000000E+01  2.20000000E+02  0.00000000E+00
  8.00000000E+01  2.00000000E+02  0.00000000E+00
  8.00000000E+01  1.80000000E+02  0.00000000E+00
  8.00000000E+01  1.60000000E+02  0.00000000E+00
  8.00000000E+01  1.40000000E+02  0.00000000E+00
  8.00000000E+01  1.20000000E+02  0.00000000E+00
  8.00000000E+01  1.00000000E+02  0.00000000E+00
  8.00000000E+01  8.00000000E+01  0.00000000E+00
  8.00000000E+01  6.00000000E+01  0.00000000E+00
  8.00000000E+01  4.00000000E+01  0.00000000E+00
  8.00000000E+01  2.00000000E+01  0.00000000E+00
  8.00000000E+01  4.99600361E-14  0.00000000E+00
  1.00000000E+02  3.00000000E+02  0.00000000E+00
  1.00000000E+02  2.80000000E+02  0.00000000E+00
  1.00000000E+02  2.60000000E+02  0.00000000E+00
  1.00000000E+02  2.40000000E+02  0.00000000E+00
  1.00000000E+02  2.20000000E+02  0.00000000E+00
  1.00000000E+02  2.00000000E+02  0.00000000E+00
  1.00000000E+02  1.80000000E+02  0.00000000E+00
  1.00000000E+02  1.60000000E+02  0.00000000E+00
  1.00000000E+02  1.40000000E+02  0.00000000E+00
  1.00000000E+02  1.20000000E+02  0.00000000E+00
  1.00000000E+02  1.00000000E+02  0.00000000E+00
  1.00000000E+02  8.00000000E+01  0.00000000E+00
  1.00000000E+02  6.00000000E+01  0.00000000E+00
  1.00000000E+02  4.00000000E+01  0.00000000E+00
  1.00000000E+02  2.00000000E+01  0.00000000E+00
  1.00000000E+02  4.99600361E-14  0.00000000E+00
  1.20000000E+02  3.00000000E+02  0.00000000E+00
  1.20000000E+02  2.80000000E+02  0.00000000E+00
  1.20000000E+02  2.60000000E+02  0.00000000E+00
  1.20000000E+02  2.40000000E+02  0.00000000E+00
  1.20000000E+02  2.20000000E+02  0.00000000E+00
  1.20000000E+02  2.00000000E+02  0.00000000E+00
  1.20000000E+02  1.80000000E+02  0.00000000E+00
  1.20000000E+02  1.60000000E+02  0.00000000E+00
  1.20000000E+02  1.40000000E+02  0.00000000E+00
  1.20000000E+02  1.20000000E+02  0.00000000E+00
  1.20000000E+02  1.00000000E+02  0.00000000E+00
  1.20000000E+02  8.00000000E+01  0.00000000E+00
  1.20000000E+02  6.00000000E+01  0.00000000E+00
  1.20000000E+02  4.00000000E+01  0.00000000E+00
  1.20000000E+02  2.00000000E+01  0.00000000E+00
  1.20000000E+02  4.99600361E-14  0.00000000E+00
  1.40000000E+02  3.00000000E+02  0.00000000E+00
  1.40000000E+02  2.80000000E+02  0.00000000E+00
  1.40000000E+02  2.60000000E+02  0.00000000E+00
  1.40000000E+02  2.40000000E+02  0.00000000E+00
  1.40000000E+02  2.20000000E+02  0.00000000E+00
  1.40000000E+02  2.00000000E+02  0.00000000E+00
  1.40000000E+02  1.80000000E+02  0.00000000E+00
  1.40000000E+02  1.60000000E+02  0.00000000E+00
  1.40000000E+02  1.40000000E+02  0.00000000E+00
  1.40000000E+02  1.20000000E+02  0.00000000E+00
  1.40000000E+02  1.00000000E+02  0.00000000E+00
  1.40000000E+02  8.00000000E+01  0.00000000E+00
  1.40000000E+02  6.00000000E+01  0.00000000E+00
  1.40000000E+02  4.00000000E+01  0.00000000E+00
  1.40000000E+02  2.00000000E+01  0.00000000E+00
  1.40000000E+02  4.99600361E-14  0.00000000E+00
  1.60000000E+02  3.00000000E+02  0.00000000E+00
  1.60000000E+02  2.80000000E+02  0.00000000E+00
  1.60000000E+02  2.60000000E+02  0.00000000E+00
  1.60000000E+02  2.40000000E+02  0.00000000E+00
  1.60000000E+02  2.20000000E+02  0.00000000E+00
  1.60000000E+02  2.00000000E+02  0.00000000E+00
  1.60000000E+02  1.80000000E+02  0.00000000E+00
  1.60000000E+02  1.60000000E+02  0.00000000E+00
  1.60000000E+02  1.40000000E+02  0.00000000E+00
  1.60000000E+02  1.20000000E+02  0.00000000E+00
  1.60000000E+02  1.00000000E+02  0.00000000E+00
  1.60000000E+02  8.00000000E+01  0.00000000E+00
  1.60000000E+02  6.00000000E+01  0.00000000E+00
  1.60000000E+02  4.00000000E+01  0.00000000E+00
  1.60000000E+02  2.00000000E+01  0.00000000E+00
  1.60000000E+02  4.99600361E-14  0.00000000E+00
  1.80000000E+02  3.00000000E+02  0.00000000E+00
  1.80000000E+02  2.80000000E+02  0.00000000E+00
  1.80000000E+02  2.60000000E+02  0.00000000E+00
  1.80000000E+02  2.40000000E+02  0.00000000E+00
  1.80000000E+02  2.20000000E+02  0.00000000E+00
  1.80000000E+02  2.00000000E+02  0.00000000E+00
  1.80000000E+02  1.80000000E+02  0.00000000E+00
  1.80000000E+02  1.60000000E+02  0.00000000E+00
  1.80000000E+02  1.40000000E+02  0.00000000E+00
  1.80000000E+02  1.20000000E+02  0.00000000E+00
  1.80000000E+02  1.00000000E+02  0.00000000E+00
  1.80000000E+02  8.00000000E+01  0.00000000E+00
  1.80000000E+02  6.00000000E+01  0.00000000E+00
  1.80000000E+02  4.00000000E+01  0.00000000E+00
  1.80000000E+02  2.00000000E+01  0.00000000E+00
  1.80000000E+02  4.99600361E-14  0.00000000E+00
  2.00000000E+02  3.00000000E+02  0.00000000E+00
  2.00000000E+02  2.80000000E+02  0.00000000E+00
  2.00000000E+02  2.60000000E+02  0.00000000E+00
  2.00000000E+02  2.40000000E+02  0.00000000E+00
  2.00000000E+02  2.20000000E+02  0.00000000E+00
  2.00000000E+02  2.00000000E+02  0.00000000E+00
  2.00000000E+02  1.80000000E+02  0.00000000E+00
  2.00000000E+02  1.60000000E+02  0.00000000E+00
  2.00000000E+02  1.40000000E+02  0.00000000E+00
  2.00000000E+02  1.20000000E+02  0.00000000E+00
  2.00000000E+02  1.00000000E+02  0.00000000E+00
  2.00000000E+02  8.00000000E+01  0.00000000E+00
  2.00000000E+02  6.00000000E+01  0.00000000E+00
  2.00000000E+02  4.00000000E+01  0.00000000E+00
  2.00000000E+02  2.00000000E+01  0.00000000E+00
  2.00000000E+02  4.99600361E-14  0.00000000E+00
  2.20000000E+02  3.00000000E+02  0.00000000E+00
  2.20000000E+02  2.80000000E+02  0.00000000E+00
  2.20000000E+02  2.60000000E+02  0.00000000E+00
  2.20000000E+02  2.40000000E+02  0.00000000E+00
  2.20000000E+02  2.20000000E+02  0.00000000E+00
  2.20000000E+02  2.00000000E+02  0.00000000E+00
  2.20000000E+02  1.80000000E+02  0.00000000E+00
  2.20000000E+02  1.60000000E+02  0.00000000E+00
  2.20000000E+02  1.40000000E+02  0.00000000E+00
  2.20000000E+02  1.20000000E+02  0.00000000E+00
  2.20000000E+02  1.00000000E+02  0.00000000E+00
  2.20000000E+02  8.00000000E+01  0.00000000E+00
  2.20000000E+02  6.00000000E+01  0.00000000E+00
  2.20000000E+02  4.00000000E+01  0.00000000E+00
  2.20000000E+02  2.00000000E+01  0.00000000E+00
  2.20000000E+02  4.99600361E-14  0.00000000E+00
  2.40000000E+02  3.00000000E+02  0.00000000E+00
  2.40000000E+02  2.80000000E+02  0.00000000E+00
  2.40000000E+02  2.60000000E+02  0.00000000E+00
  2.40000000E+02  2.40000000E+02  0.00000000E+00
  2.40000000E+02  2.20000000E+02  0.00000000E+00
  2.40000000E+02  2.00000000E+02  0.00000000E+00
  2.40000000E+02  1.80000000E+02  0.00000000E+00
  2.40000000E+02  1.60000000E+02  0.00000000E+00
  2.40000000E+02  1.40000000E+02  0.00000000E+00
  2.40000000E+02  1.20000000E+02  0.00000000E+00
  2.40000000E+02  1.00000000E+02  0.00000000E+00
  2.40000000E+02  8.00000000E+01  0.00000000E+00
  2.40000000E+02  6.00000000E+01  0.00000000E+00
  2.40000000E+02  4.00000000E+01  0.00000000E+00
  2.40000000E+02  2.00000000E+01  0.00000000E+00
  2.40000000E+02  4.99600361E-14  0.00000000E+00
  2.60000000E+02  3.00000000E+02  0.00000000E+00
  2.60000000E+02  2.80000000E+02  0.00000000E+00
  2.60000000E+02  2.60000000E+02  0.00000000E+00
  2.60000000E+02  2.40000000E+02  0.00000000E+00
  2.60000000E+02  2.20000000E+02  0.00000000E+00
  2.60000000E+02  2.00000000E+02  0.00000000E+00
  2.60000000E+02  1.80000000E+02  0.00000000E+00
  2.60000000E+02  1.60000000E+02  0.00000000E+00
  2.60000000E+02  1.40000000E+02  0.00000000E+00
  2.60000000E+02  1.20000000E+02  0.00000000E+00
  2.60000000E+02  1.00000000E+02  0.00000000E+00
  2.60000000E+02  8.00000000E+01  0.00000000E+00
  2.60000000E+02  6.00000000E+01  0.00000000E+00
  2.60000000E+02  4.00000000E+01  0.00000000E+00
  2.60000000E+02  2.00000000E+01  0.00000000E+00
  2.60000000E+02  4.99600361E-14  0.00000000E+00
  2.80000000E+02  3.00000000E+02  0.00000000E+00
  2.80000000E+02  2.80000000E+02  0.00000000E+00
  2.80000000E+02  2.60000000E+02  0.00000000E+00
  2.80000000E+02  2.40000000E+02  0.00000000E+00
  2.80000000E+02  2.20000000E+02  0.00000000E+00
  2.80000000E+02  2.00000000E+02  0.00000000E+00
  2.80000000E+02  1.80000000E+02  0.00000000E+00
  2.80000000E+02  1.60000000E+02  0.00000000E+00
  2.80000000E+02  1.40000000E+02  0.00000000E+00
  2.80000000E+02  1.20000000E+02  0.00000000E+00
  2.80000000E+02  1.00000000E+02  0.00000000E+00
  2.80000000E+02  8.00000000E+01  0.00000000E+00
  2.80000000E+02  6.00000000E+01  0.00000000E+00
  2.80000000E+02  4.00000000E+01  0.00000000E+00
  2.80000000E+02  2.00000000E+01  0.00000000E+00
  2.80000000E+02  4.99600361E-14  0.00000000E+00
  3.00000000E+02  3.00000000E+02  0.00000000E+00
  3.00000000E+02  2.80000000E+02  0.00000000E+00
  3.00000000E+02  2.60000000E+02  0.00000000E+00
  3.00000000E+02  2.40000000E+02  0.00000000E+00
  3.00000000E+02  2.20000000E+02  0.00000000E+00
  3.00000000E+02  2.00000000E+02  0.00000000E+00
  3.00000000E+02  1.80000000E+02  0.00000000E+00
  3.00000000E+02  1.60000000E+02  0.00000000E+00
  3.00000000E+02  1.40000000E+02  0.00000000E+00
  3.00000000E+02  1.20000000E+02  0.00000000E+00
  3.00000000E+02  1.00000000E+02  0.00000000E+00
  3.00000000E+02  8.00000000E+01  0.00000000E+00
  3.00000000E+02  6.00000000E+01  0.00000000E+00
  3.00000000E+02  4.00000000E+01  0.00000000E+00
  3.00000000E+02  2.00000000E+01  0.00000000E+00
  3.00000000E+02  4.99600361E-14  0.00000000E+00
  3.20000000E+02  3.00000000E+02  0.00000000E+00
  3.20000000E+02  2.80000000E+02  0.00000000E+00
  3.20000000E+02  2.60000000E+02  0.00000000E+00
  3.20000000E+02  2.40000000E+02  0.00000000E+00
  3.20000000E+02  2.20000000E+02  0.00000000E+00
  3.20000000E+02  2.00000000E+02  0.00000000E+00
  3.20000000E+02  1.80000000E+02  0.00000000E+00
  3.20000000E+02  1.60000000E+02  0.00000000E+00
  3.20000000E+02  1.40000000E+02  0.00000000E+00
  3.20000000E+02  1.20000000E+02  0.00000000E+00
  3.20000000E+02  1.00000000E+02  0.00000000E+00
  3.20000000E+02  8.00000000E+01  0.00000000E+00
  3.20000000E+02  6.00000000E+01  0.00000000E+00
  3.20000000E+02  4.00000000E+01  0.00000000E+00
  3.20000000E+02  2.00000000E+01  0.00000000E+00
  3.20000000E+02  4.99600361E-14  0.00000000E+00
  3.40000000E+02  3.00000000E+02  0.00000000E+00
  3.40000000E+02  2.80000000E+02  0.00000000E+00
  3.40000000E+02  2.60000000E+02  0.00000000E+00
  3.40000000E+02  2.40000000E+02  0.00000000E+00
  3.40000000E+02  2.20000000E+02  0.00000000E+00
  3.40000000E+02  2.00000000E+02  0.00000000E+00
  3.40000000E+02  1.80000000E+02  0.00000000E+00
  3.40000000E+02  1.60000000E+02  0.00000000E+00
  3.40000000E+02  1.40000000E+02  0.00000000E+00
  3.40000000E+02  1.20000000E+02  0.00000000E+00
  3.40000000E+02  1.00000000E+02  0.00000000E+00
  3.40000000E+02  8.00000000E+01  0.00000000E+00
  3.40000000E+02  6.00000000E+01  0.00000000E+00
  3.40000000E+02  4.00000000E+01  0.00000000E+00
  3.40000000E+02  2.00000000E+01  0.00000000E+00
  3.40000000E+02  4.99600361E-14  0.00000000E+00
  3.60000000E+02  3.00000000E+02  0.00000000E+00
  3.60000000E+02  2.80000000E+02  0.00000000E+00
  3.60000000E+02  2.60000000E+02  0.00000000E+00
  3.60000000E+02  2.40000000E+02  0.00000000E+00
  3.60000000E+02  2.20000000E+02  0.00000000E+00
  3.60000000E+02  2.00000000E+02  0.00000000E+00
  3.60000000E+02  1.80000000E+02  0.00000000E+00
  3.60000000E+02  1.60000000E+02  0.00000000E+00
  3.60000000E+02  1.40000000E+02  0.00000000E+00
  3.60000000E+02  1.20000000E+02  0.00000000E+00
  3.60000000E+02  1.00000000E+02  0.00000000E+00
  3.60000000E+02  8.00000000E+01  0.00000000E+00
  3.60000000E+02  6.00000000E+01  0.00000000E+00
  3.60000000E+02  4.00000000E+01  0.00000000E+00
  3.60000000E+02  2.00000000E+01  0.00000000E+00
  3.60000000E+02  4.99600361E-14  0.00000000E+00
  3.80000000E+02  3.00000000E+02  0.00000000E+00
  3.80000000E+02  2.80000000E+02  0.00000000E+00
  3.80000000E+02  2.60000000E+02  0.00000000E+00
  3.80000000E+02  2.40000000E+02  0.00000000E+00
  3.80000000E+02  2.20000000E+02  0.00000000E+00
  3.80000000E+02  2.00000000E+02  0.00000000E+00
  3.80000000E+02  1.80000000E+02  0.00000000E+00
  3.80000000E+02  1.60000000E+02  0.00000000E+00
  3.80000000E+02  1.40000000E+02  0.00000000E+00
  3.80000000E+02  1.20000000E+02  0.00000000E+00
  3.80000000E+02  1.00000000E+02  0.00000000E+00
  3.80000000E+02  8.00000000E+01  0.00000000E+00
  3.80000000E+02  6.00000000E+01  0.00000000E+00
  3.80000000E+02  4.00000000E+01  0.00000000E+00
  3.80000000E+02  2.00000000E+01  0.00000000E+00
  3.80000000E+02  4.99600361E-14  0.00000000E+00
  4.00000000E+02  3.00000000E+02  0.00000000E+00
  4.00000000E+02  2.80000000E+02  0.00000000E+00
  4.00000000E+02  2.60000000E+02  0.00000000E+00
  4.00000000E+02  2.40000000E+02  0.00000000E+00
  4.00000000E+02  2.20000000E+02  0.00000000E+00
  4.00000000E+02  2.00000000E+02  0.00000000E+00
  4.00000000E+02  1.80000000E+02  0.00000000E+00
  4.00000000E+02  1.60000000E+02  0.00000000E+00
  4.00000000E+02  1.40000000E+02  0.00000000E+00
  4.00000000E+02  1.20000000E+02  0.00000000E+00
  4.00000000E+02  1.00000000E+02  0.00000000E+00
  4.00000000E+02  8.00000000E+01  0.00000000E+00
  4.00000000E+02  6.00000000E+01  0.00000000E+00
  4.00000000E+02  4.00000000E+01  0.00000000E+00
  4.00000000E+02  2.00000000E+01  0.00000000E+00
  4.00000000E+02  4.99600361E-14  0.00000000E+00
  4.20000000E+02  3.00000000E+02  0.00000000E+00
  4.20000000E+02  2.80000000E+02  0.00000000E+00
  4.20000000E+02  2.60000000E+02  0.00000000E+00
  4.20000000E+02  2.40000000E+02  0.00000000E+00
  4.20000000E+02  2.20000000E+02  0.00000000E+00
  4.20000000E+02  2.00000000E+02  0.00000000E+00
  4.20000000E+02  1.80000000E+02  0.00000000E+00
  4.20000000E+02  1.60000000E+02  0.00000000E+00
  4.20000000E+02  1.40000000E+02  0.00000000E+00
  4.20000000E+02  1.20000000E+02  0.00000000E+00
  4.20000000E+02  1.00000000E+02  0.00000000E+00
  4.20000000E+02  8.00000000E+01  0.00000000E+00
  4.20000000E+02  6.00000000E+01  0.00000000E+00
  4.20000000E+02  4.00000000E+01  0.00000000E+00
  4.20000000E+02  2.00000000E+01  0.00000000E+00
  4.20000000E+02  4.99600361E-14  0.00000000E+00
  4.40000000E+02  3.00000000E+02  0.00000000E+00
  4.40000000E+02  2.80000000E+02  0.00000000E+00
  4.40000000E+02  2.60000000E+02  0.00000000E+00
  4.40000000E+02  2.40000000E+02  0.00000000E+00
  4.40000000E+02  2.20000000E+02  0.00000000E+00
  4.40000000E+02  2.00000000E+02  0.00000000E+00
  4.40000000E+02  1.80000000E+02  0.00000000E+00
  4.40000000E+02  1.60000000E+02  0.00000000E+00
  4.40000000E+02  1.40000000E+02  0.00000000E+00
  4.40000000E+02  1.20000000E+02  0.00000000E+00
  4.40000000E+02  1.00000000E+02  0.00000000E+00
  4.40000000E+02  8.00000000E+01  0.00000000E+00
  4.40000000E+02  6.00000000E+01  0.00000000E+00
  4.40000000E+02  4.00000000E+01  0.00000000E+00
  4.40000000E+02  2.00000000E+01  0.00000000E+00
  4.40000000E+02  4.99600361E-14  0.00000000E+00
  4.60000000E+02  3.00000000E+02  0.00000000E+00
  4.60000000E+02  2.80000000E+02  0.00000000E+00
  4.60000000E+02  2.60000000E+02  0.00000000E+00
  4.60000000E+02  2.40000000E+02  0.00000000E+00
  4.60000000E+02  2.20000000E+02  0.00000000E+00
  4.60000000E+02  2.00000000E+02  0.00000000E+00
  4.60000000E+02  1.80000000E+02  0.00000000E+00
  4.60000000E+02  1.60000000E+02  0.00000000E+00
  4.60000000E+02  1.40000000E+02  0.00000000E+00
  4.60000000E+02  1.20000000E+02  0.00000000E+00
  4.60000000E+02  1.00000000E+02  0.00000000E+00
  4.60000000E+02  8.00000000E+01  0.00000000E+00
  4.60000000E+02  6.00000000E+01  0.00000000E+00
  4.60000000E+02  4.00000000E+01  0.00000000E+00
  4.60000000E+02  2.00000000E+01  0.00000000E+00
  4.60000000E+02  4.99600361E-14  0.00000000E+00
  4.80000000E+02  3.00000000E+02  0.00000000E+00
  4.80000000E+02  2.80000000E+02  0.00000000E+00
  4.80000000E+02  2.60000000E+02  0.00000000E+00
  4.80000000E+02  2.40000000E+02  0.00000000E+00
  4.80000000E+02  2.20000000E+02  0.00000000E+00
  4.80000000E+02  2.00000000E+02  0.00000000E+00
  4.80000000E+02  1.80000000E+02  0.00000000E+00
  4.80000000E+02  1.60000000E+02  0.00000000E+00
  4.80000000E+02  1.40000000E+02  0.00000000E+00
  4.80000000E+02  1.20000000E+02  0.00000000E+00
  4.80000000E+02  1.00000000E+02  0.00000000E+00
  4.80000000E+02  8.00000000E+01  0.00000000E+00
  4.80000000E+02  6.00000000E+01  0.00000000E+00
  4.80000000E+02  4.00000000E+01  0.00000000E+00
  4.80000000E+02  2.00000000E+01  0.00000000E+00
  4.80000000E+02  4.99600361E-14  0.00000000E+00
  5.00000000E+02  3.00000000E+02  0.00000000E+00
  5.00000000E+02  2.80000000E+02  0.00000000E+00
  5.00000000E+02  2.60000000E+02  0.00000000E+00
  5.00000000E+02  2.40000000E+02  0.00000000E+00
  5.00000000E+02  2.20000000E+02  0.00000000E+00
  5.00000000E+02  2.00000000E+02  0.00000000E+00
  5.00000000E+02  1.80000000E+02  0.00000000E+00
  5.00000000E+02  1.60000000E+02  0.00000000E+00
  5.00000000E+02  1.40000000E+02  0.00000000E+00
  5.00000000E+02  1.20000000E+02  0.00000000E+00
  5.00000000E+02  1.00000000E+02  0.00000000E+00
  5.00000000E+02  8.00000000E+01  0.00000000E+00
  5.00000000E+02  6.00000000E+01  0.00000000E+00
  5.00000000E+02  4.00000000E+01  0.00000000E+00
  5.00000000E+02  2.00000000E+01  0.00000000E+00
  5.00000000E+02  4.99600361E-14  0.00000000E+00
  5.20000000E+02  3.00000000E+02  0.00000000E+00
  5.20000000E+02  2.80000000E+02  0.00000000E+00
  5.20000000E+02  2.60000000E+02  0.00000000E+00
  5.20000000E+02  2.40000000E+02  0.00000000E+00
  5.20000000E+02  2.20000000E+02  0.00000000E+00
  5.20000000E+02  2.00000000E+02  0.00000000E+00
  5.20000000E+02  1.80000000E+02  0.00000000E+00
  5.20000000E+02  1.60000000E+02  0.00000000E+00
  5.20000000E+02  1.40000000E+02  0.00000000E+00
  5.20000000E+02  1.20000000E+02  0.00000000E+00
  5.20000000E+02  1.00000000E+02  0.00000000E+00
  5.20000000E+02  8.00000000E+01  0.00000000E+00
  5.20000000E+02  6.00000000E+01  0.00000000E+00
  5.20000000E+02  4.00000000E+01  0.00000000E+00
  5.20000000E+02  2.00000000E+01  0.00000000E+00
  5.20000000E+02  4.99600361E-14  0.00000000E+00
  5.40000000E+02  3.00000000E+02  0.00000000E+00
  5.40000000E+02  2.80000000E+02  0.00000000E+00
  5.40000000E+02  2.60000000E+02  0.00000000E+00
  5.40000000E+02  2.40000000E+02  0.00000000E+00
  5.40000000E+02  2.20000000E+02  0.00000000E+00
  5.40000000E+02  2.00000000E+02  0.00000000E+00
  5.40000000E+02  1.80000000E+02  0.00000000E+00
  5.40000000E+02  1.60000000E+02  0.00000000E+00
  5.40000000E+02  1.40000000E+02  0.00000000E+00
  5.40000000E+02  1.20000000E+02  0.00000000E+00
  5.40000000E+02  1.00000000E+02  0.00000000E+00
  5.40000000E+02  8.00000000E+01  0.00000000E+00
  5.40000000E+02  6.00000000E+01  0.00000000E+00
  5.40000000E+02  4.00000000E+01  0.00000000E+00
  5.40000000E+02  2.00000000E+01  0.00000000E+00
  5.40000000E+02  4.99600361E-14  0.00000000E+00
  5.60000000E+02  3.00000000E+02  0.00000000E+00
  5.60000000E+02  2.80000000E+02  0.00000000E+00
  5.60000000E+02  2.60000000E+02  0.00000000E+00
  5.60000000E+02  2.40000000E+02  0.00000000E+00
  5.60000000E+02  2.20000000E+02  0.00000000E+00
  5.60000000E+02  2.00000000E+02  0.00000000E+00
  5.60000000E+02  1.80000000E+02  0.00000000E+00
  5.60000000E+02  1.60000000E+02  0.00000000E+00
  5.60000000E+02  1.40000000E+02  0.00000000E+00
  5.60000000E+02  1.20000000E+02  0.00000000E+00
  5.60000000E+02  1.00000000E+02  0.00000000E+00
  5.60000000E+02  8.00000000E+01  0.00000000E+00
  5.60000000E+02  6.00000000E+01  0.00000000E+00
  5.60000000E+02  4.00000000E+01  0.00000000E+00
  5.60000000E+02  2.00000000E+01  0.00000000E+00
  5.60000000E+02  4.99600361E-14  0.00000000E+00
  5.80000000E+02  3.00000000E+02  0.00000000E+00
  5.80000000E+02  2.80000000E+02  0.00000000E+00
  5.80000000E+02  2.60000000E+02  0.00000000E+00
  5.80000000E+02  2.40000000E+02  0.00000000E+00
  5.80000000E+02  2.20000000E+02  0.00000000E+00
  5.80000000E+02  2.00000000E+02  0.00000000E+00
  5.80000000E+02  1.80000000E+02  0.00000000E+00
  5.80000000E+02  1.60000000E+02  0.00000000E+00
  5.80000000E+02  1.40000000E+02  0.00000000E+00
  5.80000000E+02  1.20000000E+02  0.00000000E+00
  5.80000000E+02  1.00000000E+02  0.00000000E+00
  5.80000000E+02  8.00000000E+01  0.00000000E+00
  5.80000000E+02  6.00000000E+01  0.00000000E+00
  5.80000000E+02  4.00000000E+01  0.00000000E+00
  5.80000000E+02  2.00000000E+01  0.00000000E+00
  5.80000000E+02  4.99600361E-14  0.00000000E+00
  6.00000000E+02  3.00000000E+02  0.00000000E+00
  6.00000000E+02  2.80000000E+02  0.00000000E+00
  6.00000000E+02  2.60000000E+02  0.00000000E+00
  6.00000000E+02  2.40000000E+02  0.00000000E+00
  6.00000000E+02  2.20000000E+02  0.00000000E+00
  6.00000000E+02  2.00000000E+02  0.00000000E+00
  6.00000000E+02  1.80000000E+02  0.00000000E+00
  6.00000000E+02  1.60000000E+02  0.00000000E+00
  6.00000000E+02  1.40000000E+02  0.00000000E+00
  6.00000000E+02  1.20000000E+02  0.00000000E+00
  6.00000000E+02  1.00000000E+02  0.00000000E+00
  6.00000000E+02  8.00000000E+01  0.00000000E+00
  6.00000000E+02  6.00000000E+01  0.00000000E+00
  6.00000000E+02  4.00000000E+01  0.00000000E+00
  6.00000000E+02  2.00000000E+01  0.00000000E+00
  6.00000000E+02  4.99600361E-14  0.00000000E+00
CELLS       450      2250
         4           0           1          17          16
         4           1           2          18          17
         4           2           3          19          18
         4           3           4          20          19
         4           4           5          21          20
         4           5           6          22          21
         4           6           7          23          22
         4           7           8          24          23
         4           8           9          25          24
         4           9          10          26          25
         4          10          11          27          26
         4          11          12          28          27
         4          12          13          29          28
         4          13          14          30          29
         4          14          15          31          30
         4          16          17          33          32
         4          17          18          34          33
         4          18          19          35          34
         4          19          20          36          35
         4          20          21          37          36
         4          21          22          38          37
         4          22          23          39          38
         4          23          24          40          39
         4          24          25          41          40
         4          25          26          42          41
         4          26          27          43          42
         4          27          28          44          43
         4          28          29          45          44
         4          29          30          46          45
         4          30          31          47          46
         4          32          33          49          48
         4          33          34          50          49
         4          34          35          51          50
         4          35          36          52          51
         4          36          37          53          52
         4          37          38          54          53
         4          38          39          55          54
         4          39          40          56          55
         4          40          41          57          56
         4          41          42          58          57
         4          42          43          59          58
         4          43          44          60          59
         4          44          45          61          60
         4          45          46          62          61
         4          46          47          63          62
         4          48          49          65          64
         4          49          50          66          65
         4          50          51          67          66
         4          51          52          68          67
         4          52          53          69          68
         4          53          54          70          69
         4          54          55          71          70
         4          55          56          72          71
         4          56          57          73          72
         4          57          58          74          73
         4          58          59          75          74
         4          59          60          76          75
         4          60          61          77          76
         4          61          62          78          77
         4          62          63          79          78
         4          64          65          81          80
         4          65          66          82          81
         4          66          67          83          82
         4          67          68          84          83
         4          68          69          85          84
         4          69          70          86          85
         4          70          71          87          86
         4          71          72          88          87
         4          72          73          89          88
         4          73          74          90          89
         4          74          75          91          90
         4          75          76          92          91
         4          76          77          93          92
         4          77          78          94          93
         4          78          79          95          94
         4          80          81          97          96
         4          81          82          98          97
         4          82          83          99          98
         4          83          84         100          99
         4          84          85         101         100
         4          85          86         102         101
         4          86          87         103         102
         4          87          88         104         103
         4          88          89         105         104
         4          89          90         106         105
         4          90          91         107         106
         4          91          92         108         107
         4          92          93         109         108
         4          93          94         110         109
         4          94          95         111         110
         4          96          97         113         112
         4          97          98         114         113
         4          98          99         115         114
         4          99         100         116         115
         4         100         101         117         116
         4         101         102         118         117
         4         102         103         119         118
         4         103         104         120         119
         4         104         105         121         120
         4         105         106         122         121
         4         106         107         123         122
         4         107         108         124         123
         4         108         109         125         124
         4         109         110         126         125
         4         110         111         127         126
         4         112         113         129         128
         4         113         114         130         129
         4         114         115         131         130
         4         115         116         132         131
         4         116         117         133         132
         4         117         118         134         133
         4         118         119         135         134
         4         119         120         136         135
         4         120         121         137         136
         4         121         122         138         137
         4         122         123         139         138
         4         123         124         140         139
         4         124         125         141         140
         4         125         126         142         141
         4         126         127         143         142
         4         128         129         145         144
         4         129         130         146         145
         4         130         131         147         146
         4         131         132         148         147
         4         132         133         149         148
         4         133         134         150         149
         4         134         135         151         150
         4         135         136         152         151
         4         136         137         153         152
         4         137         138         154         153
         4         138         139         155         154
         4         139         140         156         155
         4         140         141         157         156
         4         141         142         158         157
         4         142         143         159         158
         4         144         145         161         160
         4         145         146         162         161
         4         146         147         163         162
         4         147         148         164         163
         4         148         149         165         164
         4         149         150         166         165
         4         150         151         167         166
         4         151         152         168         167
         4         152         153         169         168
         4         153         154         170         169
         4         154         155         171         170
         4         155         156         172         171
         4         156         157         173         172
         4         157         158         174         173
         4         158         159         175         174
         4         160         161         177         176
         4         161         162         178         177
         4         162         163         179         178
         4         163         164         180         179
         4         164         165         181         180
         4         165         166         182         181
         4         166         167         183         182
         4         167         168         184         183
         4         168         169         185         184
         4         169         170         186         185
         4         170         171         187         186
         4         171         172         188         187
         4         172         173         189         188
         4         173         174         190         189
         4         174         175         191         190
         4         176         177         193         192
         4         177         178         194         193
         4         178         179         195         194
         4         179         180         196         195
         4         180         181         197         196
         4         181         182         198         197
         4         182         183         199         198
         4         183         184         200         199
         4         184         185         201         200
         4         185         186         202         201
         4         186         187         203         202
         4         187         188         204         203
         4         188         189         205         204
         4         189         190         206         205
         4         190         191         207         206
         4         192         193         209         208
         4         193         194         210         209
         4         194         195         211         210
         4         195         196         212         211
         4         196         197         213         212
         4         197         198         214         213
         4         198         199         215         214
         4         199         200         216         215
         4         200         201         217         216
         4         201         202         218         217
         4         202         203         219         218
         4         203         204         220         219
         4         204         205         221         220
         4         205         206         222         221
         4         206         207         223         222
         4         208         209         225         224
         4         209         210         226         225
         4         210         211         227         226
         4         211         212         228         227
         4         212         213         229         228
         4         213         214         230         229
         4         214         215         231         230
         4         215         216         232         231
         4         216         217         233         232
         4         217         218         234         233
         4         218         219         235         234
         4         219         220         236         235
         4         220         221         237         236
         4         221         222         238         237
         4         222         223         239         238
         4         224         225         241         240
         4         225         226         242         241
         4         226         227         243         242
         4         227         228         244         243
         4         228         229         245         244
         4         229         230         246         245
         4         230         231         247         246
         4         231         232         248         247
         4         232         233         249         248
         4         233         234         250         249
         4         234         235         251         250
         4         235         236         252         251
         4         236         237         253         252
         4         237         238         254         253
         4         238         239         255         254
         4         240         241         257         256
         4         241         242         258         257
         4         242         243         259         258
         4         243         244         260         259
         4         244         245         261         260
         4         245         246         262         261
         4         246         247         263         262
         4         247         248         264         263
         4         248         249         265         264
         4         249         250         266         265
         4         250         251         267         266
         4         251         252         268         267
         4         252         253         269         268
         4         253         254         270         269
         4         254         255         271         270
         4         256         257         273         272
         4         257         258         274         273
         4         258         259         275         274
         4         259         260         276         275
         4         260         261         277         276
         4         261         262         278         277
         4         262         263         279         278
         4         263         264         280         279
         4         264         265         281         280
         4         265         266         282         281
         4         266         267         283         282
         4         267         268         284         283
         4         268         269         285         284
         4         269         270         286         285
         4         270         271         287         286
         4         272         273         289         288
         4         273         274         290         289
         4         274         275         291         290
         4         275         276         292         291
         4         276         277         293         292
         4         277         278         294         293
         4         278         279         295         294
         4         279         280         296         295
         4         280         281         297         296
         4         281         282         298         297
         4         282         283         299         298
         4         283         284         300         299
         4         284         285         301         300
         4         285         286         302         301
         4         286         287         303         302
         4         288         289         305         304
         4         289         290         306         305
         4         290         291         307         306
         4         291         292         308         307
         4         292         293         309         308
         4         293         294         310         309
         4         294         295         311         310
         4         295         296         312         311
         4         296         297         313         312
         4         297         298         314         313
         4         298         299         315         314
         4         299         300         316         315
         4         300         301         317         316
         4         301         302         318         317
         4         302         303         319         318
         4         304         305         321         320
         4         305         306         322         321
         4         306         307         323         322
         4         307         308         324         323
         4         308         309         325         324
         4         309         310         326         325
         4         310         311         327         326
         4         311         312         328         327
         4         312         313         329         328
         4         313         314         330         329
         4         314         315         331         330
         4         315         316         332         331
         4         316         317         333         332
         4         317         318         334         333
         4         318         319         335         334
         4         320         321         337         336
         4         321         322         338         337
         4         322         323         339         338
         4         323         324         340         339
         4         324         325         341         340
         4         325         326         342         341
         4         326         327         343         342
         4         327         328         344         343
         4         328         329         345         344
         4         329         330         346         345
         4         330         331         347         346
         4         331         332         348         347
         4         332         333         349         348
         4         333         334         350         349
         4         334         335         351         350
         4         336         337         353         352
         4         337         338         354         353
         4         338         339         355         354
         4         339         340         356         355
         4         340         341         357         356
         4         341         342         358         357
         4         342         343         359         358
         4         343         344         360         359
         4         344         345         361         360
         4         345         346         362         361
         4         346         347         363         362
         4         347         348         364         363
         4         348         349         365         364
         4         349         350         366         365
         4         350         351         367         366
         4         352         353         369         368
         4         353         354         370         369
         4         354         355         371         370
         4         355         356         372         371
         4         356         357         373         372
         4         357         358         374         373
         4         358         359         375         374
         4         359         360         376         375
         4         360         361         377         376
         4         361         362         378         377
         4         362         363         379         378
         4         363         364         380         379
         4         364         365         381         380
         4         365         366         382         381
         4         366         367         383         382
         4         368         369         385         384
         4         369         370         386         385
         4         370         371         387         386
         4         371         372         388         387
         4         372         373         389         388
         4         373         374         390         389
         4         374         375         391         390
         4         375         376         392         391
         4         376         377         393         392
         4         377         378         394         393
         4         378         379         395         394
         4         379         380         396         395
         4         380         381         397         396
         4         381         382         398         397
         4         382         383         399         398
         4         384         385         401         400
         4         385         386         402         401
         4         386         387         403         402
         4         387         388         404         403
         4         388         389         405         404
         4         389         390         406         405
         4         390         391         407         406
         4         391         392         408         407
         4         392         393         409         408
         4         393         394         410         409
         4         394         395         411         410
         4         395         396         412         411
         4         396         397         413         412
         4         397         398         414         413
         4         398         399         415         414
         4         400         401         417         416
         4         401         402         418         417
         4         402         403         419         418
         4         403         404         420         419
         4         404         405         421         420
         4         405         406         422         421
         4         406         407         423         422
         4         407         408         424         423
         4         408         409         425         424
         4         409         410         426         425
         4         410         411         427         426
         4         411         412         428         427
         4         412         413         429         428
         4         413         414         430         429
         4         414         415         431         430
         4         416         417         433         432
         4         417         418         434         433
         4         418         419         435         434
         4         419         420         436         435
         4         420         421         437         436
         4         421         422         438         437
         4         422         423         439         438
         4         423         424         440         439
         4         424         425         441         440
         4         425         426         442         441
         4         426         427         443         442
         4         427         428         444         443
         4         428         429         445         444
         4         429         430         446         445
         4         430         431         447         446
         4         432         433         449         448
         4         433         434         450         449
         4         434         435         451         450
         4         435         436         452         451
         4         436         437         453         452
         4         437         438         454         453
         4         438         439         455         454
         4         439         440         456         455
         4         440         441         457         456
         4         441         442         458         457
         4         442         443         459         458
         4         443         444         460         459
         4         444         445         461         460
         4         445         446         462         461
         4         446         447         463         462
         4         448         449         465         464
         4         449         450         466         465
         4         450         451         467         466
         4         451         452         468         467
         4         452         453         469         468
         4         453         454         470         469
         4         454         455         471         470
         4         455         456         472         471
         4         456         457         473         472
         4         457         458         474         473
         4         458         459         475         474
         4         459         460         476         475
         4         460         461         477         476
         4         461         462         478         477
         4         462         463         479         478
         4         464         465         481         480
         4         465         466         482         481
         4         466         467         483         482
         4         467         468         484         483
         4         468         469         485         484
         4         469         470         486         485
         4         470         471         487         486
         4         471         472         488         487
         4         472         473         489         488
         4         473         474         490         489
         4         474         475         491         490
         4         475         476         492         491
         4         476         477         493         492
         4         477         478         494         493
         4         478         479         495         494
CELL_TYPES        450
9
9
9
9
9
9
9
9
9
9
9
9
9
9
9
9
9
9
9
9
9
9
9
9
9
9
9
9
9
9
9
9
9
9
9
9
9
9
9
9
9
9
9
9
9
9
9
9
9
9
9
9
9
9
9
9
9
9
9
9
9
9
9
9
9
9
9
9
9
9
9
9
9
9
9
9
9
9
9
9
9
9
9
9
9
9
9
9
9
9
9
9
9
9
9
9
9
9
9
9
9
9
9
9
9
9
9
9
9
9
9
9
9
9
9
9
9
9
9
9
9
9
9
9
9
9
9
9
9
9
9
9
9
9
9
9
9
9
9
9
9
9
9
9
9
9
9
9
9
9
9
9
9
9
9
9
9
9
9
9
9
9
9
9
9
9
9
9
9
9
9
9
9
9
9
9
9
9
9
9
9
9
9
9
9
9
9
9
9
9
9
9
9
9
9
9
9
9
9
9
9
9
9
9
9
9
9
9
9
9
9
9
9
9
9
9
9
9
9
9
9
9
9
9
9
9
9
9
9
9
9
9
9
9
9
9
9
9
9
9
9
9
9
9
9
9
9
9
9
9
9
9
9
9
9
9
9
9
9
9
9
9
9
9
9
9
9
9
9
9
9
9
9
9
9
9
9
9
9
9
9
9
9
9
9
9
9
9
9
9
9
9
9
9
9
9
9
9
9
9
9
9
9
9
9
9
9
9
9
9
9
9
9
9
9
9
9
9
9
9
9
9
9
9
9
9
9
9
9
9
9
9
9
9
9
9
9
9
9
9
9
9
9
9
9
9
9
9
9
9
9
9
9
9
9
9
9
9
9
9
9
9
9
9
9
9
9
9
9
9
9
9
9
9
9
9
9
9
9
9
9
9
9
9
9
9
9
9
9
9
9
9
9
9
9
9
9
9
9
9
9
9
9
9
9
9
9
9
9
9
9
9
9
9
9
9
9
9
9
9
9
9
9
9
9
9
9
9
9
9
9
9
9
9
9
9
9
9
9
9
9
9
9
9
9
9
9
9
9
9
POINT_DATA       496
SCALARS p double 
LOOKUP_TABLE default
   36438830.9197778     
   36435192.9392941     
   36424404.4319821     
   36406611.3741236     
   36381975.4300678     
   36350650.7071594     
   36312764.6900385     
   36268390.1079917     
   36221402.8848279     
   36177297.3837758     
   36138050.7558193     
   36104347.0430812     
   36076873.8160446     
   36056328.3112729     
   36043422.4391125     
   36038885.4600755     
   36402310.6732993     
   36398697.8925328     
   36387974.4012718     
   36370271.6309727     
   36345736.9628120     
   36314513.5294554     
   36276722.8702266     
   36232436.7133476     
   36185539.8770030     
   36141524.7648529     
   36102355.8691032     
   36068716.6629485     
   36041293.8374873     
   36020783.9345390     
   36007898.8080842     
   36003368.3853953     
   36292861.7505671     
   36289316.0281655     
   36278772.9393440     
   36261327.9304333     
   36237089.1467154     
   36206167.4298003     
   36168665.6113171     
   36124650.2847897     
   36078028.3537764     
   36034285.3141144     
   35995350.6942279     
   35961906.3340933     
   35934635.8470604     
   35914233.4544735     
   35901410.8675649     
   35896900.1432897     
   36110815.8559267     
   36107355.5455983     
   36097066.1568626     
   36080007.6487078     
   36056235.6571172     
   36025809.5621874     
   35988797.8603250     
   35945253.0229987     
   35899101.9850210     
   35855814.4042296     
   35817274.0190641     
   35784159.0856075     
   35757146.2054054     
   35736925.2561337     
   35724207.8293874     
   35719730.0170282     
   35856711.5787823     
   35853323.9085959     
   35843299.4111531     
   35826693.8903143     
   35803519.1708088     
   35773771.1398435     
   35737462.7958224     
   35694615.9040910     
   35649151.2868105     
   35606504.0655662     
   35568525.6925014     
   35535881.9750626     
   35509237.2283500     
   35489274.5821765     
   35476706.0521731     
   35472274.4282218     
   35531269.9715530     
   35527916.0871716     
   35518102.0672433     
   35501936.8466770     
   35479428.9258715     
   35450519.5692709     
   35415144.4609582     
   35373260.7626847     
   35328718.5142576     
   35286907.9085101     
   35249670.7081813     
   35217649.3218732     
   35191489.1458708     
   35171864.7997138     
   35159489.9860175     
   35155117.8105170     
   35135362.4206410     
   35131995.3107931     
   35122292.6316525     
   35106476.3708006     
   35084621.1693588     
   35056665.1476358     
   35022467.5313290     
   34981879.0150610     
   34938531.8197098     
   34897753.4737030     
   34861445.4593424     
   34830205.0230560     
   34804651.1290456     
   34785447.9617770     
   34773312.5898875     
   34769012.9920152     
   34669982.8922760     
   34666569.3017402     
   34656876.1522832     
   34641270.0809108     
   34619962.9850064     
   34592986.9230437     
   34560194.6897329     
   34521303.3602950     
   34479493.2837434     
   34439940.8977971     
   34404754.8011852     
   34374460.7485085     
   34349639.7151331     
   34330943.8538292     
   34319094.9001381     
   34314880.8782945     
   34136238.4427917     
   34132771.9797183     
   34123028.4849475     
   34107507.0633811     
   34086590.6935723     
   34060502.3967574     
   34029229.1565406     
   33992451.0799473     
   33952610.3172690     
   33914507.7254077     
   33880664.4655449     
   33851488.1306439     
   33827533.3314432     
   33809437.3138445     
   33797925.2184682     
   33793809.9281570     
   33535363.5654356     
   33531863.5633079     
   33522076.3201751     
   33506592.6710388     
   33485944.5042415     
   33460579.2028825     
   33430761.6150982     
   33396379.9957915     
   33358968.1949287     
   33322674.8400593     
   33290383.4321831     
   33262502.9559471     
   33239562.8791645     
   33222175.0239252     
   33211058.9909280     
   33207056.8071285     
   32868751.4714362     
   32865254.2093022     
   32855495.0758177     
   32840116.8848375     
   32819749.9818283     
   32795008.9591688     
   32766451.5087720     
   32734399.9681634     
   32699749.3993767     
   32665780.4466013     
   32635223.4138249     
   32608846.2639774     
   32587103.1372987     
   32570559.9470745     
   32559921.6939510     
   32556050.0285983     
   32137989.2850137     
   32134541.4332853     
   32124934.9600995     
   32109843.4497489     
   32089955.9655277     
   32065969.6109296     
   32038583.3837477     
   32008512.0932614     
   31976572.1284938     
   31945110.8580941     
   31916600.5513663     
   31891993.3445016     
   31871647.0018588     
   31856142.6689543     
   31846113.3290978     
   31842398.3362033     
   31344885.9030976     
   31341543.5047466     
   31332258.9479032     
   31317735.8772841     
   31298702.3572209     
   31275875.8479191     
   31249962.1402176     
   31221712.9072750     
   31192095.6062560     
   31162874.4569408     
   31136232.7060327     
   31113433.6045140     
   31094800.6719593     
   31080587.7536429     
   31071407.9819315     
   31067879.2932610     
   30491489.2243459     
   30488314.8886912     
   30479566.5276274     
   30465995.2538730     
   30448343.3314019     
   30427275.3832451     
   30403405.3971875     
   30377402.0858235     
   30350100.8943609     
   30322841.8412634     
   30297607.1192057     
   30275950.8537809     
   30258487.4879361     
   30245558.8931716     
   30237485.1124809     
   30234592.1949070     
   29580091.0758214     
   29577137.0992947     
   29569194.9517788     
   29557086.0547661     
   29541465.6333991     
   29522831.6493238     
   29501651.3978181     
   29478485.2332064     
   29454069.9696308     
   29429378.2950919     
   29405780.9559927     
   29384946.3203072     
   29368126.9159359     
   29355881.4332109     
   29348481.6168322     
   29346200.3632497     
   28613215.2106832     
   28610485.5079505     
   28603732.8919474     
   28593743.8832887     
   28580857.8375769     
   28565293.4666041     
   28547373.4518486     
   28527590.1376388     
   28506592.8665702     
   28485187.7319638     
   28464384.3592838     
   28445397.0329563     
   28429548.3942257     
   28417787.0237884     
   28410622.3770295     
   28408362.2023671     
   27593508.0199236     
   27591116.2833241     
   27586079.6621253     
   27578947.1471610     
   27569422.9261091     
   27557424.4785454     
   27543214.5067136     
   27527243.8531783     
   27510085.5943857     
   27492412.4309295     
   27475008.7954940     
   27458807.4040847     
   27444841.8244295     
   27434065.6581024     
   27427220.9307026     
   27424953.3802796     
   26523936.3707131     
   26522462.6696364     
   26519649.1614090     
   26515832.7211267     
   26510058.2367736     
   26501965.3854796     
   26491807.7358248     
   26479978.4806819     
   26466955.8253765     
   26453283.3361086     
   26439572.3949027     
   26426516.9516170     
   26414898.5717720     
   26405568.9388204     
   26399409.9428220     
   26397357.4045941     
   25407994.3784397     
   25407718.6794980     
   25407335.5662098     
   25407051.5907904     
   25405480.4109996     
   25401634.9115588     
   25395829.0417663     
   25388385.7883241     
   25379685.3314064     
   25370142.0675282     
   25360209.8772501     
   25350403.3874014     
   25341338.7360485     
   25333774.6957680     
   25328617.5376807     
   25326874.5586147     
   24248202.4222392     
   24249034.7147757     
   24251421.9384689     
   24255134.7175804     
   24258275.9950049     
   24259194.7022743     
   24258036.7091394     
   24255165.0469219     
   24250882.6537558     
   24245489.2139052     
   24239310.1055996     
   24232737.1021689     
   24226282.1151710     
   24220624.4535818     
   24216615.9712531     
   24215229.8130733     
   23048727.5710838     
   23050421.2392834     
   23055370.5397446     
   23063199.6337856     
   23071436.0364923     
   23077562.9544632     
   23081336.3970210     
   23083166.5259696     
   23083321.2868246     
   23082020.8030228     
   23079501.1854430     
   23076073.2018901     
   23072177.1558059     
   23068420.5049753     
   23065581.1187145     
   23064561.3857417     
   21814193.8857264     
   21816685.0526180     
   21823903.5369207     
   21835450.7126749     
   21848675.0364057     
   21860090.0201868     
   21868899.8671331     
   21875448.7725112     
   21879967.3971634     
   21882626.2342602     
   21883606.5278844     
   21883166.6661422     
   21881694.5615805     
   21879738.8051499     
   21878010.5778962     
   21877343.3471343     
   20549239.2033028     
   20552508.6304113     
   20561834.9591201     
   20576684.2346626     
   20594318.7534881     
   20610670.6063841     
   20624279.3127126     
   20635340.5215337     
   20643997.0250177     
   20650368.2099686     
   20654597.5624847     
   20656908.9436363     
   20657653.0117501     
   20657334.4322131     
   20656613.1670802     
   20656269.7808726     
   19258798.1078320     
   19262788.0211306     
   19274022.4047550     
   19291685.3305855     
   19313015.2021137     
   19333589.9532064     
   19351399.8386731     
   19366461.2345490     
   19378796.5946306     
   19388457.8914021     
   19395551.8558407     
   19400276.0902088     
   19402953.9695976     
   19404057.1814074     
   19404207.6462466     
   19404149.4374391     
   17948078.4978412     
   17952685.4596220     
   17965492.8758727     
   17985382.5262462     
   18009545.6962329     
   18033358.3041862     
   18054446.9904452     
   18072666.0895170     
   18087928.3134011     
   18100219.8015259     
   18109612.3905820     
   18116281.0850232     
   18120524.3888661     
   18122782.4207261     
   18123642.8741973     
   18123823.1022993     
   16622593.2221834     
   16627669.2973069     
   16641577.9027687     
   16662906.5950845     
   16688816.3531146     
   16714615.4195452     
   16737739.4161948     
   16757937.1745763     
   16775052.1695470     
   16789034.3451059     
   16799939.7232626     
   16807927.8181296     
   16813267.5815575     
   16816356.3807879     
   16817738.6326111     
   16818103.8562356     
   15288212.9094852     
   15293565.8951812     
   15307934.7669032     
   15329608.2079302     
   15355830.1832364     
   15382036.0832080     
   15405607.9167215     
   15426254.9640802     
   15443814.1460366     
   15458255.0965752     
   15469653.9497360     
   15478165.4721048     
   15484020.6034036     
   15487552.6045341     
   15489239.6829859     
   15489729.9107460     
   13951260.5305664     
   13956632.7628616     
   13970576.4925778     
   13991056.8920393     
   14015634.0791306     
   14040234.4564584     
   14062262.7815046     
   14081449.7259119     
   14097711.5991484     
   14111110.7878896     
   14121771.4489487     
   14129846.1435053     
   14135517.4859338     
   14139035.6739287     
   14140780.2740142     
   14141332.4409494     
   12618667.3080063     
   12623650.2564134     
   12635852.3225403     
   12653005.9342969     
   12673266.7695768     
   12693603.2873392     
   12711609.8187020     
   12727008.0775460     
   12739944.9454080     
   12750607.4250047     
   12759146.6400526     
   12765691.0212040     
   12770367.9621043     
   12773332.2417550     
   12774856.5102545     
   12775408.1373820     
   11298263.3589003     
   11302072.2590199     
   11310244.2778062     
   11321004.5683165     
   11333501.4799785     
   11346036.5716849     
   11356894.2869235     
   11365821.8186340     
   11373280.6011007     
   11379450.9287362     
   11384424.3190802     
   11388271.8778071     
   11391060.0232637     
   11392860.5373042     
   11393787.7768528     
   11394334.9341926     
   10000000.0000000     
   10000000.0000000     
   10000000.0000000     
   10000000.0000000     
   10000000.0000000     
   10000000.0000000     
   10000000.0000000     
   10000000.0000000     
   10000000.0000000     
   10000000.0000000     
   10000000.0000000     
   10000000.0000000     
   10000000.0000000     
  10000000.00000000     
   10000000.0000000     
   10000000.0000000     
VECTORS u double 
    0.00000E+00        -0.29494E-01         0.00000E+00
    0.00000E+00        -0.27206E-01         0.00000E+00
    0.00000E+00        -0.24969E-01         0.00000E+00
    0.00000E+00        -0.22785E-01         0.00000E+00
    0.00000E+00        -0.20658E-01         0.00000E+00
    0.00000E+00        -0.18588E-01         0.00000E+00
    0.00000E+00        -0.16577E-01         0.00000E+00
    0.00000E+00        -0.14621E-01         0.00000E+00
    0.00000E+00        -0.12716E-01         0.00000E+00
    0.00000E+00        -0.10837E-01         0.00000E+00
    0.00000E+00        -0.89755E-02         0.00000E+00
    0.00000E+00        -0.71339E-02         0.00000E+00
    0.00000E+00        -0.53131E-02         0.00000E+00
    0.00000E+00        -0.35152E-02         0.00000E+00
    0.00000E+00        -0.17430E-02         0.00000E+00
    0.00000E+00         0.00000E+00         0.00000E+00
    0.10167E-02        -0.29534E-01         0.00000E+00
    0.93585E-03        -0.27244E-01         0.00000E+00
    0.85350E-03        -0.25005E-01         0.00000E+00
    0.77046E-03        -0.22819E-01         0.00000E+00
    0.68782E-03        -0.20691E-01         0.00000E+00
    0.60683E-03        -0.18619E-01         0.00000E+00
    0.52888E-03        -0.16605E-01         0.00000E+00
    0.45526E-03        -0.14647E-01         0.00000E+00
    0.38725E-03        -0.12740E-01         0.00000E+00
    0.32456E-03        -0.10858E-01         0.00000E+00
    0.26602E-03        -0.89934E-02         0.00000E+00
    0.21053E-03        -0.71486E-02         0.00000E+00
    0.15709E-03        -0.53243E-02         0.00000E+00
    0.10476E-03        -0.35228E-02         0.00000E+00
    0.52676E-04        -0.17469E-02         0.00000E+00
    0.00000E+00         0.00000E+00         0.00000E+00
    0.20284E-02        -0.29654E-01         0.00000E+00
    0.18664E-02        -0.27357E-01         0.00000E+00
    0.17013E-02        -0.25113E-01         0.00000E+00
    0.15349E-02        -0.22922E-01         0.00000E+00
    0.13695E-02        -0.20788E-01         0.00000E+00
    0.12077E-02        -0.18712E-01         0.00000E+00
    0.10523E-02        -0.16692E-01         0.00000E+00
    0.90576E-03        -0.14727E-01         0.00000E+00
    0.77053E-03        -0.12812E-01         0.00000E+00
    0.64587E-03        -0.10921E-01         0.00000E+00
    0.52944E-03        -0.90472E-02         0.00000E+00
    0.41904E-03        -0.71925E-02         0.00000E+00
    0.31269E-03        -0.53579E-02         0.00000E+00
    0.20854E-03        -0.35456E-02         0.00000E+00
    0.10487E-03        -0.17585E-02         0.00000E+00
    0.00000E+00         0.00000E+00         0.00000E+00
    0.30300E-02        -0.29854E-01         0.00000E+00
    0.27861E-02        -0.27548E-01         0.00000E+00
    0.25376E-02        -0.25294E-01         0.00000E+00
    0.22874E-02        -0.23095E-01         0.00000E+00
    0.20391E-02        -0.20952E-01         0.00000E+00
    0.17969E-02        -0.18867E-01         0.00000E+00
    0.15649E-02        -0.16837E-01         0.00000E+00
    0.13468E-02        -0.14861E-01         0.00000E+00
    0.11459E-02        -0.12932E-01         0.00000E+00
    0.96074E-03        -0.11026E-01         0.00000E+00
    0.78767E-03        -0.91366E-02         0.00000E+00
    0.62350E-03        -0.72654E-02         0.00000E+00
    0.46531E-03        -0.54137E-02         0.00000E+00
    0.31037E-03        -0.35836E-02         0.00000E+00
    0.15609E-03        -0.17778E-02         0.00000E+00
    0.00000E+00         0.00000E+00         0.00000E+00
    0.40155E-02        -0.30135E-01         0.00000E+00
    0.36892E-02        -0.27816E-01         0.00000E+00
    0.33566E-02        -0.25550E-01         0.00000E+00
    0.30219E-02        -0.23338E-01         0.00000E+00
    0.26907E-02        -0.21183E-01         0.00000E+00
    0.23689E-02        -0.19085E-01         0.00000E+00
    0.20617E-02        -0.17040E-01         0.00000E+00
    0.17740E-02        -0.15047E-01         0.00000E+00
    0.15097E-02        -0.13100E-01         0.00000E+00
    0.12661E-02        -0.11172E-01         0.00000E+00
    0.10382E-02        -0.92614E-02         0.00000E+00
    0.82193E-03        -0.73672E-02         0.00000E+00
    0.61347E-03        -0.54916E-02         0.00000E+00
    0.40926E-03        -0.36365E-02         0.00000E+00
    0.20587E-03        -0.18048E-02         0.00000E+00
    0.00000E+00         0.00000E+00         0.00000E+00
    0.49781E-02        -0.30498E-01         0.00000E+00
    0.45690E-02        -0.28164E-01         0.00000E+00
    0.41520E-02        -0.25882E-01         0.00000E+00
    0.37329E-02        -0.23655E-01         0.00000E+00
    0.33192E-02        -0.21483E-01         0.00000E+00
    0.29187E-02        -0.19367E-01         0.00000E+00
    0.25382E-02        -0.17303E-01         0.00000E+00
    0.21833E-02        -0.15287E-01         0.00000E+00
    0.18583E-02        -0.13314E-01         0.00000E+00
    0.15589E-02        -0.11360E-01         0.00000E+00
    0.12786E-02        -0.94210E-02         0.00000E+00
    0.10124E-02        -0.74975E-02         0.00000E+00
    0.75571E-03        -0.55912E-02         0.00000E+00
    0.50423E-03        -0.37042E-02         0.00000E+00
    0.25370E-03        -0.18393E-02         0.00000E+00
    0.00000E+00         0.00000E+00         0.00000E+00
    0.59096E-02        -0.30942E-01         0.00000E+00
    0.54180E-02        -0.28591E-01         0.00000E+00
    0.49171E-02        -0.26292E-01         0.00000E+00
    0.44146E-02        -0.24046E-01         0.00000E+00
    0.39198E-02        -0.21854E-01         0.00000E+00
    0.34423E-02        -0.19714E-01         0.00000E+00
    0.29905E-02        -0.17624E-01         0.00000E+00
    0.25712E-02        -0.15580E-01         0.00000E+00
    0.21886E-02        -0.13575E-01         0.00000E+00
    0.18365E-02        -0.11588E-01         0.00000E+00
    0.15064E-02        -0.96150E-02         0.00000E+00
    0.11929E-02        -0.76557E-02         0.00000E+00
    0.89057E-03        -0.57122E-02         0.00000E+00
    0.59431E-03        -0.37864E-02         0.00000E+00
    0.29910E-03        -0.18812E-02         0.00000E+00
    0.00000E+00         0.00000E+00         0.00000E+00
    0.68005E-02        -0.31467E-01         0.00000E+00
    0.62276E-02        -0.29099E-01         0.00000E+00
    0.56447E-02        -0.26781E-01         0.00000E+00
    0.50613E-02        -0.24514E-01         0.00000E+00
    0.44883E-02        -0.22296E-01         0.00000E+00
    0.39365E-02        -0.20128E-01         0.00000E+00
    0.34160E-02        -0.18005E-01         0.00000E+00
    0.29347E-02        -0.15925E-01         0.00000E+00
    0.24975E-02        -0.13882E-01         0.00000E+00
    0.20960E-02        -0.11857E-01         0.00000E+00
    0.17195E-02        -0.98427E-02         0.00000E+00
    0.13616E-02        -0.78414E-02         0.00000E+00
    0.10166E-02        -0.58541E-02         0.00000E+00
    0.67849E-03        -0.38829E-02         0.00000E+00
    0.34155E-03        -0.19304E-02         0.00000E+00
    0.00000E+00         0.00000E+00         0.00000E+00
    0.76407E-02        -0.32073E-01         0.00000E+00
    0.69884E-02        -0.29687E-01         0.00000E+00
    0.63269E-02        -0.27349E-01         0.00000E+00
    0.56671E-02        -0.25058E-01         0.00000E+00
    0.50208E-02        -0.22812E-01         0.00000E+00
    0.43992E-02        -0.20609E-01         0.00000E+00
    0.38130E-02        -0.18446E-01         0.00000E+00
    0.32717E-02        -0.16322E-01         0.00000E+00
    0.27822E-02        -0.14233E-01         0.00000E+00
    0.23351E-02        -0.12164E-01         0.00000E+00
    0.19154E-02        -0.10103E-01         0.00000E+00
    0.15167E-02        -0.80537E-02         0.00000E+00
    0.11323E-02        -0.60163E-02         0.00000E+00
    0.75571E-03        -0.39932E-02         0.00000E+00
    0.38050E-03        -0.19867E-02         0.00000E+00
    0.00000E+00         0.00000E+00         0.00000E+00
    0.84195E-02        -0.32756E-01         0.00000E+00
    0.76908E-02        -0.30353E-01         0.00000E+00
    0.69555E-02        -0.27995E-01         0.00000E+00
    0.62257E-02        -0.25679E-01         0.00000E+00
    0.55129E-02        -0.23401E-01         0.00000E+00
    0.48280E-02        -0.21159E-01         0.00000E+00
    0.41811E-02        -0.18950E-01         0.00000E+00
    0.35823E-02        -0.16773E-01         0.00000E+00
    0.30409E-02        -0.14629E-01         0.00000E+00
    0.25511E-02        -0.12509E-01         0.00000E+00
    0.20922E-02        -0.10396E-01         0.00000E+00
    0.16563E-02        -0.82918E-02         0.00000E+00
    0.12361E-02        -0.61982E-02         0.00000E+00
    0.82486E-03        -0.41168E-02         0.00000E+00
    0.41534E-03        -0.20498E-02         0.00000E+00
    0.00000E+00         0.00000E+00         0.00000E+00
    0.91267E-02        -0.33515E-01         0.00000E+00
    0.83256E-02        -0.31095E-01         0.00000E+00
    0.75228E-02        -0.28716E-01         0.00000E+00
    0.67306E-02        -0.26373E-01         0.00000E+00
    0.59595E-02        -0.24061E-01         0.00000E+00
    0.52194E-02        -0.21776E-01         0.00000E+00
    0.45194E-02        -0.19516E-01         0.00000E+00
    0.38681E-02        -0.17281E-01         0.00000E+00
    0.32745E-02        -0.15072E-01         0.00000E+00
    0.27415E-02        -0.12890E-01         0.00000E+00
    0.22479E-02        -0.10719E-01         0.00000E+00
    0.17785E-02        -0.85546E-02         0.00000E+00
    0.13265E-02        -0.63989E-02         0.00000E+00
    0.88462E-03        -0.42533E-02         0.00000E+00
    0.44529E-03        -0.21196E-02         0.00000E+00
    0.00000E+00         0.00000E+00         0.00000E+00
    0.97529E-02        -0.34347E-01         0.00000E+00
    0.88846E-02        -0.31909E-01         0.00000E+00
    0.80217E-02        -0.29507E-01         0.00000E+00
    0.71753E-02        -0.27136E-01         0.00000E+00
    0.63549E-02        -0.24787E-01         0.00000E+00
    0.55689E-02        -0.22458E-01         0.00000E+00
    0.48249E-02        -0.20145E-01         0.00000E+00
    0.41293E-02        -0.17847E-01         0.00000E+00
    0.34882E-02        -0.15566E-01         0.00000E+00
    0.29075E-02        -0.13308E-01         0.00000E+00
    0.23800E-02        -0.11071E-01         0.00000E+00
    0.18816E-02        -0.88409E-02         0.00000E+00
    0.14016E-02        -0.66174E-02         0.00000E+00
    0.93344E-03        -0.44019E-02         0.00000E+00
    0.46929E-03        -0.21956E-02         0.00000E+00
    0.00000E+00         0.00000E+00         0.00000E+00
    0.10290E-01        -0.35247E-01         0.00000E+00
    0.93609E-02        -0.32790E-01         0.00000E+00
    0.84455E-02        -0.30365E-01         0.00000E+00
    0.75536E-02        -0.27963E-01         0.00000E+00
    0.66933E-02        -0.25576E-01         0.00000E+00
    0.58713E-02        -0.23200E-01         0.00000E+00
    0.50932E-02        -0.20831E-01         0.00000E+00
    0.43632E-02        -0.18469E-01         0.00000E+00
    0.36847E-02        -0.16115E-01         0.00000E+00
    0.30603E-02        -0.13775E-01         0.00000E+00
    0.24905E-02        -0.11453E-01         0.00000E+00
    0.19634E-02        -0.91493E-02         0.00000E+00
    0.14596E-02        -0.68524E-02         0.00000E+00
    0.96938E-03        -0.45617E-02         0.00000E+00
    0.48556E-03        -0.22777E-02         0.00000E+00
    0.00000E+00         0.00000E+00         0.00000E+00
    0.10732E-01        -0.36211E-01         0.00000E+00
    0.97480E-02        -0.33734E-01         0.00000E+00
    0.87879E-02        -0.31284E-01         0.00000E+00
    0.78597E-02        -0.28849E-01         0.00000E+00
    0.69694E-02        -0.26421E-01         0.00000E+00
    0.61217E-02        -0.23995E-01         0.00000E+00
    0.53200E-02        -0.21568E-01         0.00000E+00
    0.45661E-02        -0.19140E-01         0.00000E+00
    0.38607E-02        -0.16713E-01         0.00000E+00
    0.32040E-02        -0.14291E-01         0.00000E+00
    0.25952E-02        -0.11880E-01         0.00000E+00
    0.20307E-02        -0.94854E-02         0.00000E+00
    0.15001E-02        -0.71044E-02         0.00000E+00
    0.98986E-03        -0.47329E-02         0.00000E+00
    0.49084E-03        -0.23664E-02         0.00000E+00
    0.00000E+00         0.00000E+00         0.00000E+00
    0.11072E-01        -0.37234E-01         0.00000E+00
    0.10040E-01        -0.34735E-01         0.00000E+00
    0.90436E-02        -0.32257E-01         0.00000E+00
    0.80886E-02        -0.29786E-01         0.00000E+00
    0.71788E-02        -0.27315E-01         0.00000E+00
    0.63164E-02        -0.24837E-01         0.00000E+00
    0.55018E-02        -0.22349E-01         0.00000E+00
    0.47343E-02        -0.19853E-01         0.00000E+00
    0.40122E-02        -0.17351E-01         0.00000E+00
    0.33341E-02        -0.14848E-01         0.00000E+00
    0.26980E-02        -0.12348E-01         0.00000E+00
    0.21017E-02        -0.98589E-02         0.00000E+00
    0.15403E-02        -0.73825E-02         0.00000E+00
    0.10062E-02        -0.49177E-02         0.00000E+00
    0.49325E-03        -0.24592E-02         0.00000E+00
    0.00000E+00         0.00000E+00         0.00000E+00
    0.11303E-01        -0.38307E-01         0.00000E+00
    0.10231E-01        -0.35785E-01         0.00000E+00
    0.92078E-02        -0.33276E-01         0.00000E+00
    0.82365E-02        -0.30767E-01         0.00000E+00
    0.73185E-02        -0.28248E-01         0.00000E+00
    0.64524E-02        -0.25715E-01         0.00000E+00
    0.56357E-02        -0.23165E-01         0.00000E+00
    0.48649E-02        -0.20599E-01         0.00000E+00
    0.41366E-02        -0.18021E-01         0.00000E+00
    0.34474E-02        -0.15435E-01         0.00000E+00
    0.27947E-02        -0.12846E-01         0.00000E+00
    0.21764E-02        -0.10260E-01         0.00000E+00
    0.15904E-02        -0.76828E-02         0.00000E+00
    0.10344E-02        -0.51148E-02         0.00000E+00
    0.50540E-03        -0.25545E-02         0.00000E+00
    0.00000E+00         0.00000E+00         0.00000E+00
    0.11419E-01        -0.39424E-01         0.00000E+00
    0.10316E-01        -0.36875E-01         0.00000E+00
    0.92767E-02        -0.34332E-01         0.00000E+00
    0.83010E-02        -0.31780E-01         0.00000E+00
    0.73861E-02        -0.29211E-01         0.00000E+00
    0.65273E-02        -0.26619E-01         0.00000E+00
    0.57190E-02        -0.24005E-01         0.00000E+00
    0.49555E-02        -0.21368E-01         0.00000E+00
    0.42313E-02        -0.18713E-01         0.00000E+00
    0.35417E-02        -0.16042E-01         0.00000E+00
    0.28829E-02        -0.13362E-01         0.00000E+00
    0.22526E-02        -0.10678E-01         0.00000E+00
    0.16499E-02        -0.79967E-02         0.00000E+00
    0.10744E-02        -0.53212E-02         0.00000E+00
    0.52515E-03        -0.26549E-02         0.00000E+00
    0.00000E+00         0.00000E+00         0.00000E+00
    0.11416E-01        -0.40575E-01         0.00000E+00
    0.10291E-01        -0.37997E-01         0.00000E+00
    0.92481E-02        -0.35415E-01         0.00000E+00
    0.82806E-02        -0.32815E-01         0.00000E+00
    0.73801E-02        -0.30191E-01         0.00000E+00
    0.65389E-02        -0.27539E-01         0.00000E+00
    0.57493E-02        -0.24858E-01         0.00000E+00
    0.50034E-02        -0.22150E-01         0.00000E+00
    0.42941E-02        -0.19416E-01         0.00000E+00
    0.36149E-02        -0.16661E-01         0.00000E+00
    0.29605E-02        -0.13888E-01         0.00000E+00
    0.23279E-02        -0.11106E-01         0.00000E+00
    0.17157E-02        -0.83185E-02         0.00000E+00
    0.11235E-02        -0.55343E-02         0.00000E+00
    0.55153E-03        -0.27596E-02         0.00000E+00
    0.00000E+00         0.00000E+00         0.00000E+00
    0.11292E-01        -0.41759E-01         0.00000E+00
    0.10153E-01        -0.39138E-01         0.00000E+00
    0.91209E-02        -0.36510E-01         0.00000E+00
    0.81743E-02        -0.33858E-01         0.00000E+00
    0.72988E-02        -0.31177E-01         0.00000E+00
    0.64851E-02        -0.28463E-01         0.00000E+00
    0.57241E-02        -0.25715E-01         0.00000E+00
    0.50062E-02        -0.22934E-01         0.00000E+00
    0.43223E-02        -0.20122E-01         0.00000E+00
    0.36642E-02        -0.17281E-01         0.00000E+00
    0.30247E-02        -0.14417E-01         0.00000E+00
    0.23990E-02        -0.11536E-01         0.00000E+00
    0.17840E-02        -0.86442E-02         0.00000E+00
    0.11786E-02        -0.57515E-02         0.00000E+00
    0.58328E-03        -0.28670E-02         0.00000E+00
    0.00000E+00         0.00000E+00         0.00000E+00
    0.11051E-01        -0.42967E-01         0.00000E+00
    0.99099E-02        -0.40290E-01         0.00000E+00
    0.88961E-02        -0.37603E-01         0.00000E+00
    0.79803E-02        -0.34897E-01         0.00000E+00
    0.71398E-02        -0.32157E-01         0.00000E+00
    0.63633E-02        -0.29379E-01         0.00000E+00
    0.56406E-02        -0.26564E-01         0.00000E+00
    0.49607E-02        -0.23710E-01         0.00000E+00
    0.43126E-02        -0.20820E-01         0.00000E+00
    0.36858E-02        -0.17896E-01         0.00000E+00
    0.30712E-02        -0.14942E-01         0.00000E+00
    0.24613E-02        -0.11964E-01         0.00000E+00
    0.18508E-02        -0.89699E-02         0.00000E+00
    0.12367E-02        -0.59702E-02         0.00000E+00
    0.61891E-03        -0.29761E-02         0.00000E+00
    0.00000E+00         0.00000E+00         0.00000E+00
    0.10698E-01        -0.44183E-01         0.00000E+00
    0.95675E-02        -0.41440E-01         0.00000E+00
    0.85777E-02        -0.38689E-01         0.00000E+00
    0.76980E-02        -0.35920E-01         0.00000E+00
    0.69013E-02        -0.33119E-01         0.00000E+00
    0.61712E-02        -0.30277E-01         0.00000E+00
    0.54961E-02        -0.27394E-01         0.00000E+00
    0.48636E-02        -0.24468E-01         0.00000E+00
    0.42607E-02        -0.21501E-01         0.00000E+00
    0.36748E-02        -0.18496E-01         0.00000E+00
    0.30945E-02        -0.15455E-01         0.00000E+00
    0.25094E-02        -0.12384E-01         0.00000E+00
    0.19113E-02        -0.92920E-02         0.00000E+00
    0.12945E-02        -0.61881E-02         0.00000E+00
    0.65682E-03        -0.30856E-02         0.00000E+00
    0.00000E+00         0.00000E+00         0.00000E+00
    0.10227E-01        -0.45386E-01         0.00000E+00
    0.91214E-02        -0.42577E-01         0.00000E+00
    0.81653E-02        -0.39757E-01         0.00000E+00
    0.73288E-02        -0.36921E-01         0.00000E+00
    0.65824E-02        -0.34055E-01         0.00000E+00
    0.59068E-02        -0.31146E-01         0.00000E+00
    0.52878E-02        -0.28193E-01         0.00000E+00
    0.47110E-02        -0.25196E-01         0.00000E+00
    0.41616E-02        -0.22155E-01         0.00000E+00
    0.36251E-02        -0.19072E-01         0.00000E+00
    0.30876E-02        -0.15949E-01         0.00000E+00
    0.25363E-02        -0.12792E-01         0.00000E+00
    0.19596E-02        -0.96068E-02         0.00000E+00
    0.13481E-02        -0.64030E-02         0.00000E+00
    0.69527E-03        -0.31945E-02         0.00000E+00
    0.00000E+00         0.00000E+00         0.00000E+00
    0.96328E-02        -0.46562E-01         0.00000E+00
    0.85662E-02        -0.43686E-01         0.00000E+00
    0.76563E-02        -0.40795E-01         0.00000E+00
    0.68717E-02        -0.37888E-01         0.00000E+00
    0.61830E-02        -0.34952E-01         0.00000E+00
    0.55691E-02        -0.31974E-01         0.00000E+00
    0.50133E-02        -0.28951E-01         0.00000E+00
    0.44990E-02        -0.25884E-01         0.00000E+00
    0.40098E-02        -0.22771E-01         0.00000E+00
    0.35295E-02        -0.19616E-01         0.00000E+00
    0.30426E-02        -0.16418E-01         0.00000E+00
    0.25337E-02        -0.13181E-01         0.00000E+00
    0.19884E-02        -0.99101E-02         0.00000E+00
    0.13922E-02        -0.66125E-02         0.00000E+00
    0.73212E-03        -0.33020E-02         0.00000E+00
    0.00000E+00         0.00000E+00         0.00000E+00
    0.89100E-02        -0.47694E-01         0.00000E+00
    0.78980E-02        -0.44749E-01         0.00000E+00
    0.70475E-02        -0.41787E-01         0.00000E+00
    0.63255E-02        -0.38807E-01         0.00000E+00
    0.57027E-02        -0.35800E-01         0.00000E+00
    0.51572E-02        -0.32750E-01         0.00000E+00
    0.46701E-02        -0.29656E-01         0.00000E+00
    0.42232E-02        -0.26520E-01         0.00000E+00
    0.37989E-02        -0.23340E-01         0.00000E+00
    0.33799E-02        -0.20118E-01         0.00000E+00
    0.29498E-02        -0.16853E-01         0.00000E+00
    0.24916E-02        -0.13545E-01         0.00000E+00
    0.19880E-02        -0.10197E-01         0.00000E+00
    0.14197E-02        -0.68138E-02         0.00000E+00
    0.76424E-03        -0.34067E-02         0.00000E+00
    0.00000E+00         0.00000E+00         0.00000E+00
    0.80550E-02        -0.48767E-01         0.00000E+00
    0.71136E-02        -0.45753E-01         0.00000E+00
    0.63368E-02        -0.42718E-01         0.00000E+00
    0.56891E-02        -0.39663E-01         0.00000E+00
    0.51408E-02        -0.36582E-01         0.00000E+00
    0.46699E-02        -0.33460E-01         0.00000E+00
    0.42556E-02        -0.30296E-01         0.00000E+00
    0.38788E-02        -0.27094E-01         0.00000E+00
    0.35217E-02        -0.23852E-01         0.00000E+00
    0.31672E-02        -0.20570E-01         0.00000E+00
    0.27985E-02        -0.17246E-01         0.00000E+00
    0.23982E-02        -0.13878E-01         0.00000E+00
    0.19467E-02        -0.10463E-01         0.00000E+00
    0.14204E-02        -0.70040E-02         0.00000E+00
    0.78646E-03        -0.35081E-02         0.00000E+00
    0.00000E+00         0.00000E+00         0.00000E+00
    0.70647E-02        -0.49763E-01         0.00000E+00
    0.62113E-02        -0.46678E-01         0.00000E+00
    0.55233E-02        -0.43570E-01         0.00000E+00
    0.49622E-02        -0.40440E-01         0.00000E+00
    0.44972E-02        -0.37284E-01         0.00000E+00
    0.41058E-02        -0.34090E-01         0.00000E+00
    0.37665E-02        -0.30859E-01         0.00000E+00
    0.34602E-02        -0.27594E-01         0.00000E+00
    0.31704E-02        -0.24297E-01         0.00000E+00
    0.28813E-02        -0.20963E-01         0.00000E+00
    0.25771E-02        -0.17590E-01         0.00000E+00
    0.22404E-02        -0.14172E-01         0.00000E+00
    0.18508E-02        -0.10703E-01         0.00000E+00
    0.13816E-02        -0.71796E-02         0.00000E+00
    0.79087E-03        -0.36042E-02         0.00000E+00
    0.00000E+00         0.00000E+00         0.00000E+00
    0.59363E-02        -0.50662E-01         0.00000E+00
    0.51904E-02        -0.47508E-01         0.00000E+00
    0.46078E-02        -0.44325E-01         0.00000E+00
    0.41453E-02        -0.41120E-01         0.00000E+00
    0.37714E-02        -0.37890E-01         0.00000E+00
    0.34630E-02        -0.34626E-01         0.00000E+00
    0.31986E-02        -0.31333E-01         0.00000E+00
    0.29612E-02        -0.28013E-01         0.00000E+00
    0.27365E-02        -0.24666E-01         0.00000E+00
    0.25116E-02        -0.21290E-01         0.00000E+00
    0.22729E-02        -0.17878E-01         0.00000E+00
    0.20043E-02        -0.14422E-01         0.00000E+00
    0.16855E-02        -0.10911E-01         0.00000E+00
    0.12880E-02        -0.73377E-02         0.00000E+00
    0.76415E-03        -0.36950E-02         0.00000E+00
    0.00000E+00         0.00000E+00         0.00000E+00
    0.46674E-02        -0.51444E-01         0.00000E+00
    0.40521E-02        -0.48219E-01         0.00000E+00
    0.35927E-02        -0.44962E-01         0.00000E+00
    0.32402E-02        -0.41682E-01         0.00000E+00
    0.29629E-02        -0.38382E-01         0.00000E+00
    0.27380E-02        -0.35055E-01         0.00000E+00
    0.25463E-02        -0.31707E-01         0.00000E+00
    0.23742E-02        -0.28341E-01         0.00000E+00
    0.22113E-02        -0.24954E-01         0.00000E+00
    0.20478E-02        -0.21544E-01         0.00000E+00
    0.18733E-02        -0.18103E-01         0.00000E+00
    0.16750E-02        -0.14621E-01         0.00000E+00
    0.14344E-02        -0.11084E-01         0.00000E+00
    0.11231E-02        -0.74761E-02         0.00000E+00
    0.69125E-03        -0.37810E-02         0.00000E+00
    0.00000E+00         0.00000E+00         0.00000E+00
    0.32554E-02        -0.52082E-01         0.00000E+00
    0.28006E-02        -0.48786E-01         0.00000E+00
    0.24833E-02        -0.45454E-01         0.00000E+00
    0.22483E-02        -0.42104E-01         0.00000E+00
    0.20693E-02        -0.38743E-01         0.00000E+00
    0.19255E-02        -0.35365E-01         0.00000E+00
    0.18020E-02        -0.31976E-01         0.00000E+00
    0.16910E-02        -0.28574E-01         0.00000E+00
    0.15858E-02        -0.25158E-01         0.00000E+00
    0.14802E-02        -0.21723E-01         0.00000E+00
    0.13673E-02        -0.18262E-01         0.00000E+00
    0.12382E-02        -0.14764E-01         0.00000E+00
    0.10798E-02        -0.11215E-01         0.00000E+00
    0.86837E-03        -0.75904E-02         0.00000E+00
    0.55553E-03        -0.38609E-02         0.00000E+00
    0.00000E+00         0.00000E+00         0.00000E+00
    0.16975E-02        -0.52536E-01         0.00000E+00
    0.14454E-02        -0.49170E-01         0.00000E+00
    0.12862E-02        -0.45771E-01         0.00000E+00
    0.11694E-02        -0.42365E-01         0.00000E+00
    0.10844E-02        -0.38959E-01         0.00000E+00
    0.10165E-02        -0.35550E-01         0.00000E+00
    0.95651E-03        -0.32135E-01         0.00000E+00
    0.90252E-03        -0.28712E-01         0.00000E+00
    0.85143E-03        -0.25278E-01         0.00000E+00
    0.80015E-03        -0.21828E-01         0.00000E+00
    0.74531E-03        -0.18355E-01         0.00000E+00
    0.68261E-03        -0.14849E-01         0.00000E+00
    0.60534E-03        -0.11294E-01         0.00000E+00
    0.50067E-03        -0.76692E-02         0.00000E+00
    0.33792E-03        -0.39315E-02         0.00000E+00
    0.00000E+00         0.00000E+00         0.00000E+00
    0.00000E+00        -0.52731E-01         0.00000E+00
    0.00000E+00        -0.49312E-01         0.00000E+00
    0.00000E+00        -0.45882E-01         0.00000E+00
    0.00000E+00        -0.42453E-01         0.00000E+00
    0.00000E+00        -0.39030E-01         0.00000E+00
    0.00000E+00        -0.35611E-01         0.00000E+00
    0.00000E+00        -0.32188E-01         0.00000E+00
    0.00000E+00        -0.28758E-01         0.00000E+00
    0.00000E+00        -0.25318E-01         0.00000E+00
    0.00000E+00        -0.21862E-01         0.00000E+00
    0.00000E+00        -0.18385E-01         0.00000E+00
    0.00000E+00        -0.14876E-01         0.00000E+00
    0.00000E+00        -0.11321E-01         0.00000E+00
    0.00000E+00        -0.76981E-02         0.00000E+00
    0.00000E+00        -0.39653E-02         0.00000E+00
    0.00000E+00         0.00000E+00         0.00000E+00
CELL_DATA        450
VECTORS vDarcy double 
    0.26049E-09        -0.25868E-10         0.00000E+00
    0.26016E-09        -0.76743E-10         0.00000E+00
    0.25960E-09        -0.12663E-09         0.00000E+00
    0.25891E-09        -0.17541E-09         0.00000E+00
    0.25818E-09        -0.22312E-09         0.00000E+00
    0.25747E-09        -0.26995E-09         0.00000E+00
    0.25682E-09        -0.31626E-09         0.00000E+00
    0.25617E-09        -0.33489E-09         0.00000E+00
    0.25552E-09        -0.31432E-09         0.00000E+00
    0.25491E-09        -0.27969E-09         0.00000E+00
    0.25440E-09        -0.24019E-09         0.00000E+00
    0.25398E-09        -0.19579E-09         0.00000E+00
    0.25367E-09        -0.14642E-09         0.00000E+00
    0.25346E-09        -0.91982E-10         0.00000E+00
    0.25336E-09        -0.32338E-10         0.00000E+00
    0.78069E-09        -0.25538E-10         0.00000E+00
    0.77978E-09        -0.75867E-10         0.00000E+00
    0.77820E-09        -0.12538E-09         0.00000E+00
    0.77621E-09        -0.17399E-09         0.00000E+00
    0.77406E-09        -0.22168E-09         0.00000E+00
    0.77194E-09        -0.26858E-09         0.00000E+00
    0.76993E-09        -0.31498E-09         0.00000E+00
    0.76797E-09        -0.33358E-09         0.00000E+00
    0.76600E-09        -0.31303E-09         0.00000E+00
    0.76416E-09        -0.27858E-09         0.00000E+00
    0.76261E-09        -0.23927E-09         0.00000E+00
    0.76135E-09        -0.19507E-09         0.00000E+00
    0.76041E-09        -0.14591E-09         0.00000E+00
    0.75978E-09        -0.91684E-10         0.00000E+00
    0.75947E-09        -0.32244E-10         0.00000E+00
    0.12986E-08        -0.24994E-10         0.00000E+00
    0.12973E-08        -0.74318E-10         0.00000E+00
    0.12950E-08        -0.12308E-09         0.00000E+00
    0.12920E-08        -0.17127E-09         0.00000E+00
    0.12885E-08        -0.21884E-09         0.00000E+00
    0.12850E-08        -0.26580E-09         0.00000E+00
    0.12815E-08        -0.31233E-09         0.00000E+00
    0.12781E-08        -0.33092E-09         0.00000E+00
    0.12748E-08        -0.31043E-09         0.00000E+00
    0.12717E-08        -0.27633E-09         0.00000E+00
    0.12691E-08        -0.23739E-09         0.00000E+00
    0.12670E-08        -0.19360E-09         0.00000E+00
    0.12654E-08        -0.14488E-09         0.00000E+00
    0.12643E-08        -0.91085E-10         0.00000E+00
    0.12638E-08        -0.32056E-10         0.00000E+00
    0.18127E-08        -0.24429E-10         0.00000E+00
    0.18115E-08        -0.72466E-10         0.00000E+00
    0.18089E-08        -0.12009E-09         0.00000E+00
    0.18051E-08        -0.16747E-09         0.00000E+00
    0.18005E-08        -0.21465E-09         0.00000E+00
    0.17955E-08        -0.26153E-09         0.00000E+00
    0.17905E-08        -0.30815E-09         0.00000E+00
    0.17855E-08        -0.32678E-09         0.00000E+00
    0.17807E-08        -0.30651E-09         0.00000E+00
    0.17764E-08        -0.27292E-09         0.00000E+00
    0.17727E-08        -0.23453E-09         0.00000E+00
    0.17696E-08        -0.19137E-09         0.00000E+00
    0.17673E-08        -0.14331E-09         0.00000E+00
    0.17659E-08        -0.90177E-10         0.00000E+00
    0.17651E-08        -0.31773E-10         0.00000E+00
    0.23218E-08        -0.24049E-10         0.00000E+00
    0.23208E-08        -0.70768E-10         0.00000E+00
    0.23185E-08        -0.11690E-09         0.00000E+00
    0.23145E-08        -0.16295E-09         0.00000E+00
    0.23090E-08        -0.20923E-09         0.00000E+00
    0.23027E-08        -0.25569E-09         0.00000E+00
    0.22959E-08        -0.30222E-09         0.00000E+00
    0.22891E-08        -0.32103E-09         0.00000E+00
    0.22828E-08        -0.30123E-09         0.00000E+00
    0.22771E-08        -0.26826E-09         0.00000E+00
    0.22721E-08        -0.23062E-09         0.00000E+00
    0.22681E-08        -0.18832E-09         0.00000E+00
    0.22651E-08        -0.14118E-09         0.00000E+00
    0.22632E-08        -0.88953E-10         0.00000E+00
    0.22623E-08        -0.31396E-10         0.00000E+00
    0.28246E-08        -0.23975E-10         0.00000E+00
    0.28241E-08        -0.69617E-10         0.00000E+00
    0.28224E-08        -0.11408E-09         0.00000E+00
    0.28188E-08        -0.15824E-09         0.00000E+00
    0.28130E-08        -0.20283E-09         0.00000E+00
    0.28054E-08        -0.24815E-09         0.00000E+00
    0.27965E-08        -0.29415E-09         0.00000E+00
    0.27876E-08        -0.31347E-09         0.00000E+00
    0.27795E-08        -0.29456E-09         0.00000E+00
    0.27725E-08        -0.26229E-09         0.00000E+00
    0.27663E-08        -0.22561E-09         0.00000E+00
    0.27613E-08        -0.18442E-09         0.00000E+00
    0.27575E-08        -0.13846E-09         0.00000E+00
    0.27551E-08        -0.87405E-10         0.00000E+00
    0.27540E-08        -0.30924E-10         0.00000E+00
    0.33202E-08        -0.24187E-10         0.00000E+00
    0.33202E-08        -0.69183E-10         0.00000E+00
    0.33194E-08        -0.11208E-09         0.00000E+00
    0.33166E-08        -0.15395E-09         0.00000E+00
    0.33110E-08        -0.19592E-09         0.00000E+00
    0.33025E-08        -0.23892E-09         0.00000E+00
    0.32914E-08        -0.28347E-09         0.00000E+00
    0.32798E-08        -0.30371E-09         0.00000E+00
    0.32698E-08        -0.28649E-09         0.00000E+00
    0.32613E-08        -0.25497E-09         0.00000E+00
    0.32539E-08        -0.21944E-09         0.00000E+00
    0.32478E-08        -0.17964E-09         0.00000E+00
    0.32433E-08        -0.13515E-09         0.00000E+00
    0.32404E-08        -0.85527E-10         0.00000E+00
    0.32391E-08        -0.30359E-10         0.00000E+00
    0.38077E-08        -0.24540E-10         0.00000E+00
    0.38080E-08        -0.69325E-10         0.00000E+00
    0.38078E-08        -0.11102E-09         0.00000E+00
    0.38060E-08        -0.15059E-09         0.00000E+00
    0.38013E-08        -0.18925E-09         0.00000E+00
    0.37927E-08        -0.22848E-09         0.00000E+00
    0.37796E-08        -0.26986E-09         0.00000E+00
    0.37650E-08        -0.29119E-09         0.00000E+00
    0.37527E-08        -0.27693E-09         0.00000E+00
    0.37427E-08        -0.24616E-09         0.00000E+00
    0.37338E-08        -0.21207E-09         0.00000E+00
    0.37266E-08        -0.17393E-09         0.00000E+00
    0.37213E-08        -0.13119E-09         0.00000E+00
    0.37179E-08        -0.83300E-10         0.00000E+00
    0.37163E-08        -0.29700E-10         0.00000E+00
    0.42862E-08        -0.24846E-10         0.00000E+00
    0.42864E-08        -0.69656E-10         0.00000E+00
    0.42863E-08        -0.11058E-09         0.00000E+00
    0.42851E-08        -0.14823E-09         0.00000E+00
    0.42815E-08        -0.18350E-09         0.00000E+00
    0.42737E-08        -0.21786E-09         0.00000E+00
    0.42598E-08        -0.25376E-09         0.00000E+00
    0.42426E-08        -0.27549E-09         0.00000E+00
    0.42274E-08        -0.26529E-09         0.00000E+00
    0.42153E-08        -0.23583E-09         0.00000E+00
    0.42050E-08        -0.20345E-09         0.00000E+00
    0.41967E-08        -0.16721E-09         0.00000E+00
    0.41905E-08        -0.12652E-09         0.00000E+00
    0.41865E-08        -0.80682E-10         0.00000E+00
    0.41846E-08        -0.28943E-10         0.00000E+00
    0.47547E-08        -0.24954E-10         0.00000E+00
    0.47545E-08        -0.69707E-10         0.00000E+00
    0.47539E-08        -0.11006E-09         0.00000E+00
    0.47524E-08        -0.14626E-09         0.00000E+00
    0.47491E-08        -0.17868E-09         0.00000E+00
    0.47423E-08        -0.20816E-09         0.00000E+00
    0.47294E-08        -0.23689E-09         0.00000E+00
    0.47111E-08        -0.25696E-09         0.00000E+00
    0.46929E-08        -0.25054E-09         0.00000E+00
    0.46783E-08        -0.22409E-09         0.00000E+00
    0.46667E-08        -0.19346E-09         0.00000E+00
    0.46569E-08        -0.15932E-09         0.00000E+00
    0.46496E-08        -0.12098E-09         0.00000E+00
    0.46448E-08        -0.77562E-10         0.00000E+00
    0.46426E-08        -0.28073E-10         0.00000E+00
    0.52116E-08        -0.24766E-10         0.00000E+00
    0.52108E-08        -0.69057E-10         0.00000E+00
    0.52091E-08        -0.10865E-09         0.00000E+00
    0.52063E-08        -0.14354E-09         0.00000E+00
    0.52018E-08        -0.17375E-09         0.00000E+00
    0.51948E-08        -0.19948E-09         0.00000E+00
    0.51835E-08        -0.22150E-09         0.00000E+00
    0.51667E-08        -0.23743E-09         0.00000E+00
    0.51480E-08        -0.23329E-09         0.00000E+00
    0.51316E-08        -0.21060E-09         0.00000E+00
    0.51179E-08        -0.18177E-09         0.00000E+00
    0.51065E-08        -0.15006E-09         0.00000E+00
    0.50978E-08        -0.11426E-09         0.00000E+00
    0.50918E-08        -0.73683E-10         0.00000E+00
    0.50891E-08        -0.27047E-10         0.00000E+00
    0.56556E-08        -0.24212E-10         0.00000E+00
    0.56540E-08        -0.67359E-10         0.00000E+00
    0.56507E-08        -0.10559E-09         0.00000E+00
    0.56455E-08        -0.13877E-09         0.00000E+00
    0.56382E-08        -0.16691E-09         0.00000E+00
    0.56287E-08        -0.19003E-09         0.00000E+00
    0.56169E-08        -0.20793E-09         0.00000E+00
    0.56020E-08        -0.21947E-09         0.00000E+00
    0.55856E-08        -0.21634E-09         0.00000E+00
    0.55708E-08        -0.19662E-09         0.00000E+00
    0.55576E-08        -0.16901E-09         0.00000E+00
    0.55450E-08        -0.13896E-09         0.00000E+00
    0.55342E-08        -0.10594E-09         0.00000E+00
    0.55265E-08        -0.68478E-10         0.00000E+00
    0.55228E-08        -0.25823E-10         0.00000E+00
    0.60848E-08        -0.23235E-10         0.00000E+00
    0.60822E-08        -0.64293E-10         0.00000E+00
    0.60767E-08        -0.10016E-09         0.00000E+00
    0.60683E-08        -0.13079E-09         0.00000E+00
    0.60570E-08        -0.15649E-09         0.00000E+00
    0.60434E-08        -0.17748E-09         0.00000E+00
    0.60280E-08        -0.19341E-09         0.00000E+00
    0.60116E-08        -0.20291E-09         0.00000E+00
    0.59962E-08        -0.20135E-09         0.00000E+00
    0.59841E-08        -0.18493E-09         0.00000E+00
    0.59749E-08        -0.15847E-09         0.00000E+00
    0.59666E-08        -0.12867E-09         0.00000E+00
    0.59578E-08        -0.96750E-10         0.00000E+00
    0.59492E-08        -0.61502E-10         0.00000E+00
    0.59429E-08        -0.22890E-10         0.00000E+00
    0.64975E-08        -0.21848E-10         0.00000E+00
    0.64938E-08        -0.59501E-10         0.00000E+00
    0.64856E-08        -0.91548E-10         0.00000E+00
    0.64730E-08        -0.11861E-09         0.00000E+00
    0.64570E-08        -0.14153E-09         0.00000E+00
    0.64386E-08        -0.16059E-09         0.00000E+00
    0.64188E-08        -0.17527E-09         0.00000E+00
    0.63983E-08        -0.18435E-09         0.00000E+00
    0.63788E-08        -0.18518E-09         0.00000E+00
    0.63637E-08        -0.17406E-09         0.00000E+00
    0.63549E-08        -0.15146E-09         0.00000E+00
    0.63496E-08        -0.12220E-09         0.00000E+00
    0.63448E-08        -0.89730E-10         0.00000E+00
    0.63398E-08        -0.55153E-10         0.00000E+00
    0.63352E-08        -0.18442E-10         0.00000E+00
    0.68924E-08        -0.20260E-10         0.00000E+00
    0.68872E-08        -0.52381E-10         0.00000E+00
    0.68753E-08        -0.78769E-10         0.00000E+00
    0.68579E-08        -0.10161E-09         0.00000E+00
    0.68371E-08        -0.12190E-09         0.00000E+00
    0.68145E-08        -0.13937E-09         0.00000E+00
    0.67907E-08        -0.15309E-09         0.00000E+00
    0.67664E-08        -0.16186E-09         0.00000E+00
    0.67424E-08        -0.16430E-09         0.00000E+00
    0.67207E-08        -0.15826E-09         0.00000E+00
    0.67041E-08        -0.14193E-09         0.00000E+00
    0.66940E-08        -0.11643E-09         0.00000E+00
    0.66887E-08        -0.85564E-10         0.00000E+00
    0.66861E-08        -0.51909E-10         0.00000E+00
    0.66851E-08        -0.16186E-10         0.00000E+00
    0.72678E-08        -0.18254E-10         0.00000E+00
    0.72604E-08        -0.42019E-10         0.00000E+00
    0.72440E-08        -0.61024E-10         0.00000E+00
    0.72218E-08        -0.79873E-10         0.00000E+00
    0.71970E-08        -0.98236E-10         0.00000E+00
    0.71710E-08        -0.11451E-09         0.00000E+00
    0.71441E-08        -0.12743E-09         0.00000E+00
    0.71168E-08        -0.13599E-09         0.00000E+00
    0.70897E-08        -0.13927E-09         0.00000E+00
    0.70643E-08        -0.13617E-09         0.00000E+00
    0.70422E-08        -0.12541E-09         0.00000E+00
    0.70255E-08        -0.10625E-09         0.00000E+00
    0.70152E-08        -0.80321E-10         0.00000E+00
    0.70105E-08        -0.49927E-10         0.00000E+00
    0.70093E-08        -0.16136E-10         0.00000E+00
    0.76203E-08        -0.13776E-10         0.00000E+00
    0.76090E-08        -0.27976E-10         0.00000E+00
    0.75892E-08        -0.39020E-10         0.00000E+00
    0.75640E-08        -0.54521E-10         0.00000E+00
    0.75366E-08        -0.71600E-10         0.00000E+00
    0.75082E-08        -0.86839E-10         0.00000E+00
    0.74790E-08        -0.99070E-10         0.00000E+00
    0.74495E-08        -0.10755E-09         0.00000E+00
    0.74204E-08        -0.11170E-09         0.00000E+00
    0.73930E-08        -0.11088E-09         0.00000E+00
    0.73686E-08        -0.10426E-09         0.00000E+00
    0.73489E-08        -0.91171E-10         0.00000E+00
    0.73354E-08        -0.71648E-10         0.00000E+00
    0.73277E-08        -0.46339E-10         0.00000E+00
    0.73244E-08        -0.15395E-10         0.00000E+00
    0.79488E-08        -0.62338E-11         0.00000E+00
    0.79358E-08        -0.11391E-10         0.00000E+00
    0.79145E-08        -0.14611E-10         0.00000E+00
    0.78870E-08        -0.26175E-10         0.00000E+00
    0.78568E-08        -0.42540E-10         0.00000E+00
    0.78262E-08        -0.56883E-10         0.00000E+00
    0.77950E-08        -0.68674E-10         0.00000E+00
    0.77640E-08        -0.77406E-10         0.00000E+00
    0.77338E-08        -0.82725E-10         0.00000E+00
    0.77056E-08        -0.84248E-10         0.00000E+00
    0.76806E-08        -0.81464E-10         0.00000E+00
    0.76599E-08        -0.73699E-10         0.00000E+00
    0.76444E-08        -0.60196E-10         0.00000E+00
    0.76345E-08        -0.40322E-10         0.00000E+00
    0.76298E-08        -0.13524E-10         0.00000E+00
    0.82605E-08         0.19831E-11         0.00000E+00
    0.82467E-08         0.71405E-11         0.00000E+00
    0.82226E-08         0.12217E-10         0.00000E+00
    0.81916E-08         0.55941E-11         0.00000E+00
    0.81578E-08        -0.10428E-10         0.00000E+00
    0.81243E-08        -0.24812E-10         0.00000E+00
    0.80915E-08        -0.36751E-10         0.00000E+00
    0.80595E-08        -0.46257E-10         0.00000E+00
    0.80290E-08        -0.53219E-10         0.00000E+00
    0.80008E-08        -0.57404E-10         0.00000E+00
    0.79759E-08        -0.58360E-10         0.00000E+00
    0.79551E-08        -0.55296E-10         0.00000E+00
    0.79390E-08        -0.47108E-10         0.00000E+00
    0.79280E-08        -0.32656E-10         0.00000E+00
    0.79226E-08        -0.11149E-10         0.00000E+00
    0.85430E-08         0.89985E-11         0.00000E+00
    0.85309E-08         0.26136E-10         0.00000E+00
    0.85072E-08         0.41118E-10         0.00000E+00
    0.84744E-08         0.40533E-10         0.00000E+00
    0.84377E-08         0.25100E-10         0.00000E+00
    0.84017E-08         0.93176E-11         0.00000E+00
    0.83674E-08        -0.37105E-11         0.00000E+00
    0.83349E-08        -0.14705E-10         0.00000E+00
    0.83045E-08        -0.23848E-10         0.00000E+00
    0.82770E-08        -0.30990E-10         0.00000E+00
    0.82527E-08        -0.35630E-10         0.00000E+00
    0.82324E-08        -0.36877E-10         0.00000E+00
    0.82165E-08        -0.33540E-10         0.00000E+00
    0.82055E-08        -0.24396E-10         0.00000E+00
    0.82000E-08        -0.85711E-11         0.00000E+00
    0.87917E-08         0.14906E-10         0.00000E+00
    0.87810E-08         0.43341E-10         0.00000E+00
    0.87598E-08         0.69019E-10         0.00000E+00
    0.87289E-08         0.76445E-10         0.00000E+00
    0.86924E-08         0.62486E-10         0.00000E+00
    0.86557E-08         0.44823E-10         0.00000E+00
    0.86210E-08         0.29848E-10         0.00000E+00
    0.85888E-08         0.16648E-10         0.00000E+00
    0.85592E-08         0.48388E-11         0.00000E+00
    0.85327E-08        -0.54835E-11         0.00000E+00
    0.85096E-08        -0.13778E-10         0.00000E+00
    0.84903E-08        -0.19123E-10         0.00000E+00
    0.84753E-08        -0.20349E-10         0.00000E+00
    0.84649E-08        -0.16271E-10         0.00000E+00
    0.84596E-08        -0.60094E-11         0.00000E+00
    0.90072E-08         0.20516E-10         0.00000E+00
    0.89971E-08         0.58924E-10         0.00000E+00
    0.89781E-08         0.94012E-10         0.00000E+00
    0.89508E-08         0.10991E-09         0.00000E+00
    0.89176E-08         0.98897E-10         0.00000E+00
    0.88831E-08         0.79849E-10         0.00000E+00
    0.88501E-08         0.62723E-10         0.00000E+00
    0.88194E-08         0.46928E-10         0.00000E+00
    0.87915E-08         0.32164E-10         0.00000E+00
    0.87668E-08         0.18556E-10         0.00000E+00
    0.87455E-08         0.66663E-11         0.00000E+00
    0.87279E-08        -0.25932E-11         0.00000E+00
    0.87142E-08        -0.81011E-11         0.00000E+00
    0.87047E-08        -0.87250E-11         0.00000E+00
    0.86999E-08        -0.35997E-11         0.00000E+00
    0.91875E-08         0.25849E-10         0.00000E+00
    0.91784E-08         0.73215E-10         0.00000E+00
    0.91619E-08         0.11578E-09         0.00000E+00
    0.91390E-08         0.13876E-09         0.00000E+00
    0.91110E-08         0.13150E-09         0.00000E+00
    0.90812E-08         0.11189E-09         0.00000E+00
    0.90522E-08         0.93033E-10         0.00000E+00
    0.90250E-08         0.74761E-10         0.00000E+00
    0.90003E-08         0.57100E-10         0.00000E+00
    0.89785E-08         0.40329E-10         0.00000E+00
    0.89598E-08         0.25058E-10         0.00000E+00
    0.89444E-08         0.12188E-10         0.00000E+00
    0.89325E-08         0.27946E-11         0.00000E+00
    0.89243E-08        -0.20330E-11         0.00000E+00
    0.89201E-08        -0.14303E-11         0.00000E+00
    0.93308E-08         0.30607E-10         0.00000E+00
    0.93234E-08         0.85598E-10         0.00000E+00
    0.93103E-08         0.13371E-09         0.00000E+00
    0.92926E-08         0.16199E-09         0.00000E+00
    0.92713E-08         0.15805E-09         0.00000E+00
    0.92483E-08         0.13851E-09         0.00000E+00
    0.92256E-08         0.11851E-09         0.00000E+00
    0.92041E-08         0.98277E-10         0.00000E+00
    0.91845E-08         0.78177E-10         0.00000E+00
    0.91671E-08         0.58712E-10         0.00000E+00
    0.91522E-08         0.40573E-10         0.00000E+00
    0.91397E-08         0.24648E-10         0.00000E+00
    0.91301E-08         0.11970E-10         0.00000E+00
    0.91235E-08         0.36002E-11         0.00000E+00
    0.91201E-08         0.43455E-12         0.00000E+00
    0.94349E-08         0.34468E-10         0.00000E+00
    0.94298E-08         0.95105E-10         0.00000E+00
    0.94213E-08         0.14674E-09         0.00000E+00
    0.94104E-08         0.17827E-09         0.00000E+00
    0.93974E-08         0.17664E-09         0.00000E+00
    0.93834E-08         0.15742E-09         0.00000E+00
    0.93694E-08         0.13679E-09         0.00000E+00
    0.93560E-08         0.11528E-09         0.00000E+00
    0.93436E-08         0.93554E-10         0.00000E+00
    0.93324E-08         0.72277E-10         0.00000E+00
    0.93225E-08         0.52191E-10         0.00000E+00
    0.93140E-08         0.34125E-10         0.00000E+00
    0.93072E-08         0.19040E-10         0.00000E+00
    0.93024E-08         0.79862E-11         0.00000E+00
    0.92999E-08         0.19423E-11         0.00000E+00
    0.94974E-08         0.37118E-10         0.00000E+00
    0.94954E-08         0.10065E-09         0.00000E+00
    0.94931E-08         0.15307E-09         0.00000E+00
    0.94913E-08         0.18558E-09         0.00000E+00
    0.94892E-08         0.18513E-09         0.00000E+00
    0.94865E-08         0.16624E-09         0.00000E+00
    0.94836E-08         0.14541E-09         0.00000E+00
    0.94807E-08         0.12345E-09         0.00000E+00
    0.94778E-08         0.10120E-09         0.00000E+00
    0.94746E-08         0.79413E-10         0.00000E+00
    0.94711E-08         0.58747E-10         0.00000E+00
    0.94676E-08         0.39860E-10         0.00000E+00
    0.94643E-08         0.23574E-10         0.00000E+00
    0.94617E-08         0.10929E-10         0.00000E+00
    0.94602E-08         0.30460E-11         0.00000E+00
    0.95150E-08         0.38166E-10         0.00000E+00
    0.95172E-08         0.10076E-09         0.00000E+00
    0.95237E-08         0.15003E-09         0.00000E+00
    0.95345E-08         0.18081E-09         0.00000E+00
    0.95465E-08         0.18084E-09         0.00000E+00
    0.95581E-08         0.16232E-09         0.00000E+00
    0.95692E-08         0.14180E-09         0.00000E+00
    0.95793E-08         0.12040E-09         0.00000E+00
    0.95879E-08         0.99110E-10         0.00000E+00
    0.95945E-08         0.78533E-10         0.00000E+00
    0.95989E-08         0.59049E-10         0.00000E+00
    0.96012E-08         0.41037E-10         0.00000E+00
    0.96021E-08         0.25100E-10         0.00000E+00
    0.96020E-08         0.12218E-10         0.00000E+00
    0.96017E-08         0.37113E-11         0.00000E+00
    0.94839E-08         0.36843E-10         0.00000E+00
    0.94924E-08         0.93033E-10         0.00000E+00
    0.95113E-08         0.13392E-09         0.00000E+00
    0.95392E-08         0.15957E-09         0.00000E+00
    0.95703E-08         0.15993E-09         0.00000E+00
    0.96002E-08         0.14249E-09         0.00000E+00
    0.96284E-08         0.12310E-09         0.00000E+00
    0.96541E-08         0.10393E-09         0.00000E+00
    0.96759E-08         0.85650E-10         0.00000E+00
    0.96935E-08         0.68346E-10         0.00000E+00
    0.97067E-08         0.52041E-10         0.00000E+00
    0.97159E-08         0.36838E-10         0.00000E+00
    0.97215E-08         0.23077E-10         0.00000E+00
    0.97244E-08         0.11637E-10         0.00000E+00
    0.97253E-08         0.39295E-11         0.00000E+00
    0.93984E-08         0.31276E-10         0.00000E+00
    0.94181E-08         0.72486E-10         0.00000E+00
    0.94561E-08         0.99321E-10         0.00000E+00
    0.95073E-08         0.11657E-09         0.00000E+00
    0.95633E-08         0.11698E-09         0.00000E+00
    0.96170E-08         0.10272E-09         0.00000E+00
    0.96658E-08         0.86575E-10         0.00000E+00
    0.97087E-08         0.72590E-10         0.00000E+00
    0.97445E-08         0.59912E-10         0.00000E+00
    0.97734E-08         0.48095E-10         0.00000E+00
    0.97959E-08         0.36989E-10         0.00000E+00
    0.98124E-08         0.26572E-10         0.00000E+00
    0.98235E-08         0.16960E-10         0.00000E+00
    0.98299E-08         0.87263E-11         0.00000E+00
    0.98322E-08         0.39113E-11         0.00000E+00
    0.92489E-08         0.13548E-10         0.00000E+00
    0.92929E-08         0.29071E-10         0.00000E+00
    0.93613E-08         0.38282E-10         0.00000E+00
    0.94449E-08         0.44465E-10         0.00000E+00
    0.95346E-08         0.44603E-10         0.00000E+00
    0.96183E-08         0.38637E-10         0.00000E+00
    0.96891E-08         0.31770E-10         0.00000E+00
    0.97477E-08         0.26544E-10         0.00000E+00
    0.97965E-08         0.21959E-10         0.00000E+00
    0.98364E-08         0.17700E-10         0.00000E+00
    0.98680E-08         0.13693E-10         0.00000E+00
    0.98918E-08         0.99232E-11         0.00000E+00
    0.99083E-08         0.64083E-11         0.00000E+00
    0.99182E-08         0.33002E-11         0.00000E+00
    0.99238E-08         0.19475E-11         0.00000E+00
POINT_DATA        496
VECTORS vDarcyNodal double 
    0.26058E-09        -0.25957E-10         0.00000E+00
    0.26039E-09        -0.51466E-10         0.00000E+00
    0.25992E-09        -0.10196E-09         0.00000E+00
    0.25927E-09        -0.15136E-09         0.00000E+00
    0.25854E-09        -0.19963E-09         0.00000E+00
    0.25782E-09        -0.24689E-09         0.00000E+00
    0.25713E-09        -0.29344E-09         0.00000E+00
    0.25650E-09        -0.32590E-09         0.00000E+00
    0.25585E-09        -0.32493E-09         0.00000E+00
    0.25519E-09        -0.29731E-09         0.00000E+00
    0.25463E-09        -0.26020E-09         0.00000E+00
    0.25416E-09        -0.21820E-09         0.00000E+00
    0.25380E-09        -0.17126E-09         0.00000E+00
    0.25354E-09        -0.11930E-09         0.00000E+00
    0.25338E-09        -0.62208E-10         0.00000E+00
    0.25333E-09        -0.32361E-10         0.00000E+00
    0.52075E-09        -0.25778E-10         0.00000E+00
    0.52042E-09        -0.51144E-10         0.00000E+00
    0.51953E-09        -0.10141E-09         0.00000E+00
    0.51827E-09        -0.15067E-09         0.00000E+00
    0.51685E-09        -0.19890E-09         0.00000E+00
    0.51540E-09        -0.24619E-09         0.00000E+00
    0.51402E-09        -0.29278E-09         0.00000E+00
    0.51273E-09        -0.32526E-09         0.00000E+00
    0.51141E-09        -0.32428E-09         0.00000E+00
    0.51010E-09        -0.29671E-09         0.00000E+00
    0.50897E-09        -0.25969E-09         0.00000E+00
    0.50803E-09        -0.21779E-09         0.00000E+00
    0.50730E-09        -0.17095E-09         0.00000E+00
    0.50678E-09        -0.11910E-09         0.00000E+00
    0.50647E-09        -0.62111E-10         0.00000E+00
    0.50637E-09        -0.32314E-10         0.00000E+00
    0.10399E-08        -0.25299E-10         0.00000E+00
    0.10394E-08        -0.50261E-10         0.00000E+00
    0.10378E-08        -0.99844E-10         0.00000E+00
    0.10355E-08        -0.14870E-09         0.00000E+00
    0.10327E-08        -0.19677E-09         0.00000E+00
    0.10298E-08        -0.24408E-09         0.00000E+00
    0.10271E-08        -0.29078E-09         0.00000E+00
    0.10244E-08        -0.32331E-09         0.00000E+00
    0.10217E-08        -0.32233E-09         0.00000E+00
    0.10191E-08        -0.29490E-09         0.00000E+00
    0.10168E-08        -0.25815E-09         0.00000E+00
    0.10149E-08        -0.21655E-09         0.00000E+00
    0.10134E-08        -0.17003E-09         0.00000E+00
    0.10124E-08        -0.11849E-09         0.00000E+00
    0.10117E-08        -0.61817E-10         0.00000E+00
    0.10115E-08        -0.32173E-10         0.00000E+00
    0.15559E-08        -0.24689E-10         0.00000E+00
    0.15554E-08        -0.49050E-10         0.00000E+00
    0.15535E-08        -0.97558E-10         0.00000E+00
    0.15504E-08        -0.14565E-09         0.00000E+00
    0.15466E-08        -0.19333E-09         0.00000E+00
    0.15424E-08        -0.24056E-09         0.00000E+00
    0.15381E-08        -0.28735E-09         0.00000E+00
    0.15339E-08        -0.31994E-09         0.00000E+00
    0.15297E-08        -0.31902E-09         0.00000E+00
    0.15258E-08        -0.29186E-09         0.00000E+00
    0.15223E-08        -0.25557E-09         0.00000E+00
    0.15194E-08        -0.21445E-09         0.00000E+00
    0.15172E-08        -0.16846E-09         0.00000E+00
    0.15156E-08        -0.11747E-09         0.00000E+00
    0.15146E-08        -0.61324E-10         0.00000E+00
    0.15143E-08        -0.31938E-10         0.00000E+00
    0.20674E-08        -0.24170E-10         0.00000E+00
    0.20670E-08        -0.47845E-10         0.00000E+00
    0.20653E-08        -0.94995E-10         0.00000E+00
    0.20620E-08        -0.14190E-09         0.00000E+00
    0.20575E-08        -0.18878E-09         0.00000E+00
    0.20520E-08        -0.23562E-09         0.00000E+00
    0.20462E-08        -0.28234E-09         0.00000E+00
    0.20402E-08        -0.31499E-09         0.00000E+00
    0.20344E-08        -0.31427E-09         0.00000E+00
    0.20291E-08        -0.28756E-09         0.00000E+00
    0.20244E-08        -0.25188E-09         0.00000E+00
    0.20204E-08        -0.21145E-09         0.00000E+00
    0.20173E-08        -0.16622E-09         0.00000E+00
    0.20152E-08        -0.11602E-09         0.00000E+00
    0.20139E-08        -0.60626E-10         0.00000E+00
    0.20135E-08        -0.31608E-10         0.00000E+00
    0.25732E-08        -0.23928E-10         0.00000E+00
    0.25731E-08        -0.46972E-10         0.00000E+00
    0.25719E-08        -0.92670E-10         0.00000E+00
    0.25690E-08        -0.13795E-09         0.00000E+00
    0.25642E-08        -0.18340E-09         0.00000E+00
    0.25578E-08        -0.22929E-09         0.00000E+00
    0.25502E-08        -0.27557E-09         0.00000E+00
    0.25421E-08        -0.30826E-09         0.00000E+00
    0.25345E-08        -0.30799E-09         0.00000E+00
    0.25278E-08        -0.28193E-09         0.00000E+00
    0.25217E-08        -0.24701E-09         0.00000E+00
    0.25167E-08        -0.20749E-09         0.00000E+00
    0.25127E-08        -0.16328E-09         0.00000E+00
    0.25100E-08        -0.11411E-09         0.00000E+00
    0.25084E-08        -0.59722E-10         0.00000E+00
    0.25079E-08        -0.31183E-10         0.00000E+00
    0.30723E-08        -0.24021E-10         0.00000E+00
    0.30724E-08        -0.46620E-10         0.00000E+00
    0.30719E-08        -0.91024E-10         0.00000E+00
    0.30699E-08        -0.13437E-09         0.00000E+00
    0.30655E-08        -0.17766E-09         0.00000E+00
    0.30586E-08        -0.22168E-09         0.00000E+00
    0.30493E-08        -0.26673E-09         0.00000E+00
    0.30386E-08        -0.29936E-09         0.00000E+00
    0.30287E-08        -0.30003E-09         0.00000E+00
    0.30206E-08        -0.27492E-09         0.00000E+00
    0.30132E-08        -0.24090E-09         0.00000E+00
    0.30070E-08        -0.20254E-09         0.00000E+00
    0.30021E-08        -0.15961E-09         0.00000E+00
    0.29988E-08        -0.11175E-09         0.00000E+00
    0.29968E-08        -0.58607E-10         0.00000E+00
    0.29962E-08        -0.30664E-10         0.00000E+00
    0.35638E-08        -0.24352E-10         0.00000E+00
    0.35641E-08        -0.46749E-10         0.00000E+00
    0.35641E-08        -0.90236E-10         0.00000E+00
    0.35630E-08        -0.13166E-09         0.00000E+00
    0.35596E-08        -0.17221E-09         0.00000E+00
    0.35528E-08        -0.21316E-09         0.00000E+00
    0.35423E-08        -0.25566E-09         0.00000E+00
    0.35287E-08        -0.28781E-09         0.00000E+00
    0.35161E-08        -0.29016E-09         0.00000E+00
    0.35065E-08        -0.26653E-09         0.00000E+00
    0.34976E-08        -0.23351E-09         0.00000E+00
    0.34901E-08        -0.19654E-09         0.00000E+00
    0.34843E-08        -0.15518E-09         0.00000E+00
    0.34803E-08        -0.10892E-09         0.00000E+00
    0.34781E-08        -0.57278E-10         0.00000E+00
    0.34774E-08        -0.30053E-10         0.00000E+00
    0.40468E-08        -0.24727E-10         0.00000E+00
    0.40471E-08        -0.47115E-10         0.00000E+00
    0.40473E-08        -0.90108E-10         0.00000E+00
    0.40468E-08        -0.12995E-09         0.00000E+00
    0.40443E-08        -0.16764E-09         0.00000E+00
    0.40385E-08        -0.20457E-09         0.00000E+00
    0.40278E-08        -0.24269E-09         0.00000E+00
    0.40117E-08        -0.27324E-09         0.00000E+00
    0.39959E-08        -0.27795E-09         0.00000E+00
    0.39842E-08        -0.25656E-09         0.00000E+00
    0.39738E-08        -0.22472E-09         0.00000E+00
    0.39651E-08        -0.18946E-09         0.00000E+00
    0.39583E-08        -0.14994E-09         0.00000E+00
    0.39535E-08        -0.10557E-09         0.00000E+00
    0.39509E-08        -0.55722E-10         0.00000E+00
    0.39501E-08        -0.29347E-10         0.00000E+00
    0.45204E-08        -0.24965E-10         0.00000E+00
    0.45205E-08        -0.47387E-10         0.00000E+00
    0.45204E-08        -0.90124E-10         0.00000E+00
    0.45198E-08        -0.12885E-09         0.00000E+00
    0.45177E-08        -0.16409E-09         0.00000E+00
    0.45128E-08        -0.19679E-09         0.00000E+00
    0.45031E-08        -0.22893E-09         0.00000E+00
    0.44861E-08        -0.25601E-09         0.00000E+00
    0.44675E-08        -0.26282E-09         0.00000E+00
    0.44527E-08        -0.24456E-09         0.00000E+00
    0.44409E-08        -0.21456E-09         0.00000E+00
    0.44308E-08        -0.18121E-09         0.00000E+00
    0.44228E-08        -0.14379E-09         0.00000E+00
    0.44172E-08        -0.10163E-09         0.00000E+00
    0.44140E-08        -0.53904E-10         0.00000E+00
    0.44131E-08        -0.28539E-10         0.00000E+00
    0.49833E-08        -0.24944E-10         0.00000E+00
    0.49830E-08        -0.47274E-10         0.00000E+00
    0.49823E-08        -0.89641E-10         0.00000E+00
    0.49808E-08        -0.12747E-09         0.00000E+00
    0.49779E-08        -0.16085E-09         0.00000E+00
    0.49729E-08        -0.19005E-09         0.00000E+00
    0.49642E-08        -0.21612E-09         0.00000E+00
    0.49487E-08        -0.23784E-09         0.00000E+00
    0.49291E-08        -0.24467E-09         0.00000E+00
    0.49118E-08        -0.23007E-09         0.00000E+00
    0.48982E-08        -0.20300E-09         0.00000E+00
    0.48864E-08        -0.17157E-09         0.00000E+00
    0.48771E-08        -0.13650E-09         0.00000E+00
    0.48703E-08        -0.96910E-10         0.00000E+00
    0.48664E-08        -0.51731E-10         0.00000E+00
    0.48653E-08        -0.27607E-10         0.00000E+00
    0.54339E-08        -0.24589E-10         0.00000E+00
    0.54333E-08        -0.46549E-10         0.00000E+00
    0.54315E-08        -0.88067E-10         0.00000E+00
    0.54283E-08        -0.12472E-09         0.00000E+00
    0.54235E-08        -0.15644E-09         0.00000E+00
    0.54165E-08        -0.18317E-09         0.00000E+00
    0.54070E-08        -0.20486E-09         0.00000E+00
    0.53933E-08        -0.22110E-09         0.00000E+00
    0.53753E-08        -0.22605E-09         0.00000E+00
    0.53583E-08        -0.21382E-09         0.00000E+00
    0.53442E-08        -0.18937E-09         0.00000E+00
    0.53313E-08        -0.16027E-09         0.00000E+00
    0.53202E-08        -0.12781E-09         0.00000E+00
    0.53118E-08        -0.91029E-10         0.00000E+00
    0.53065E-08        -0.48999E-10         0.00000E+00
    0.53053E-08        -0.26488E-10         0.00000E+00
    0.58707E-08        -0.23835E-10         0.00000E+00
    0.58696E-08        -0.45021E-10         0.00000E+00
    0.58665E-08        -0.84885E-10         0.00000E+00
    0.58609E-08        -0.11964E-09         0.00000E+00
    0.58529E-08        -0.14924E-09         0.00000E+00
    0.58424E-08        -0.17377E-09         0.00000E+00
    0.58297E-08        -0.19310E-09         0.00000E+00
    0.58151E-08        -0.20630E-09         0.00000E+00
    0.57985E-08        -0.20976E-09         0.00000E+00
    0.57834E-08        -0.19915E-09         0.00000E+00
    0.57716E-08        -0.17625E-09         0.00000E+00
    0.57610E-08        -0.14770E-09         0.00000E+00
    0.57506E-08        -0.11709E-09         0.00000E+00
    0.57414E-08        -0.83390E-10         0.00000E+00
    0.57343E-08        -0.45302E-10         0.00000E+00
    0.57314E-08        -0.25158E-10         0.00000E+00
    0.62919E-08        -0.22634E-10         0.00000E+00
    0.62904E-08        -0.42506E-10         0.00000E+00
    0.62855E-08        -0.79572E-10         0.00000E+00
    0.62768E-08        -0.11131E-09         0.00000E+00
    0.62645E-08        -0.13804E-09         0.00000E+00
    0.62495E-08        -0.16020E-09         0.00000E+00
    0.62325E-08        -0.17779E-09         0.00000E+00
    0.62143E-08        -0.19002E-09         0.00000E+00
    0.61956E-08        -0.19449E-09         0.00000E+00
    0.61794E-08        -0.18713E-09         0.00000E+00
    0.61685E-08        -0.16715E-09         0.00000E+00
    0.61614E-08        -0.13945E-09         0.00000E+00
    0.61548E-08        -0.10833E-09         0.00000E+00
    0.61477E-08        -0.74863E-10         0.00000E+00
    0.61413E-08        -0.39091E-10         0.00000E+00
    0.61369E-08        -0.20623E-10         0.00000E+00
    0.66957E-08        -0.21061E-10         0.00000E+00
    0.66941E-08        -0.38843E-10         0.00000E+00
    0.66869E-08        -0.71477E-10         0.00000E+00
    0.66740E-08        -0.98847E-10         0.00000E+00
    0.66569E-08        -0.12211E-09         0.00000E+00
    0.66372E-08        -0.14192E-09         0.00000E+00
    0.66159E-08        -0.15808E-09         0.00000E+00
    0.65937E-08        -0.16960E-09         0.00000E+00
    0.65711E-08        -0.17504E-09         0.00000E+00
    0.65502E-08        -0.17212E-09         0.00000E+00
    0.65343E-08        -0.15837E-09         0.00000E+00
    0.65247E-08        -0.13421E-09         0.00000E+00
    0.65189E-08        -0.10360E-09         0.00000E+00
    0.65146E-08        -0.70021E-10         0.00000E+00
    0.65113E-08        -0.34505E-10         0.00000E+00
    0.65090E-08        -0.16262E-10         0.00000E+00
    0.70811E-08        -0.19460E-10         0.00000E+00
    0.70790E-08        -0.33799E-10         0.00000E+00
    0.70686E-08        -0.59674E-10         0.00000E+00
    0.70508E-08        -0.81534E-10         0.00000E+00
    0.70289E-08        -0.10141E-09         0.00000E+00
    0.70052E-08        -0.11935E-09         0.00000E+00
    0.69803E-08        -0.13438E-09         0.00000E+00
    0.69546E-08        -0.14535E-09         0.00000E+00
    0.69286E-08        -0.15113E-09         0.00000E+00
    0.69035E-08        -0.15044E-09         0.00000E+00
    0.68814E-08        -0.14182E-09         0.00000E+00
    0.68648E-08        -0.12416E-09         0.00000E+00
    0.68546E-08        -0.98402E-10         0.00000E+00
    0.68493E-08        -0.67452E-10         0.00000E+00
    0.68473E-08        -0.33590E-10         0.00000E+00
    0.68472E-08        -0.16110E-10         0.00000E+00
    0.74463E-08        -0.17049E-10         0.00000E+00
    0.74418E-08        -0.26475E-10         0.00000E+00
    0.74276E-08        -0.43371E-10         0.00000E+00
    0.74056E-08        -0.59364E-10         0.00000E+00
    0.73802E-08        -0.76705E-10         0.00000E+00
    0.73535E-08        -0.93404E-10         0.00000E+00
    0.73257E-08        -0.10756E-09         0.00000E+00
    0.72973E-08        -0.11807E-09         0.00000E+00
    0.72689E-08        -0.12413E-09         0.00000E+00
    0.72413E-08        -0.12501E-09         0.00000E+00
    0.72160E-08        -0.11976E-09         0.00000E+00
    0.71948E-08        -0.10751E-09         0.00000E+00
    0.71796E-08        -0.88173E-10         0.00000E+00
    0.71709E-08        -0.62795E-10         0.00000E+00
    0.71673E-08        -0.32473E-10         0.00000E+00
    0.71665E-08        -0.16161E-10         0.00000E+00
    0.77883E-08        -0.10503E-10         0.00000E+00
    0.77807E-08        -0.15278E-10         0.00000E+00
    0.77641E-08        -0.23626E-10         0.00000E+00
    0.77397E-08        -0.34178E-10         0.00000E+00
    0.77113E-08        -0.49417E-10         0.00000E+00
    0.76822E-08        -0.65036E-10         0.00000E+00
    0.76522E-08        -0.78350E-10         0.00000E+00
    0.76218E-08        -0.88559E-10         0.00000E+00
    0.75916E-08        -0.95128E-10         0.00000E+00
    0.75626E-08        -0.97580E-10         0.00000E+00
    0.75360E-08        -0.95381E-10         0.00000E+00
    0.75132E-08        -0.87924E-10         0.00000E+00
    0.74957E-08        -0.74647E-10         0.00000E+00
    0.74842E-08        -0.55192E-10         0.00000E+00
    0.74781E-08        -0.29261E-10         0.00000E+00
    0.74762E-08        -0.14628E-10         0.00000E+00
    0.81088E-08        -0.19647E-11         0.00000E+00
    0.81005E-08        -0.23474E-11         0.00000E+00
    0.80820E-08        -0.23769E-11         0.00000E+00
    0.80552E-08        -0.66102E-11         0.00000E+00
    0.80234E-08        -0.19300E-10         0.00000E+00
    0.79913E-08        -0.34389E-10         0.00000E+00
    0.79592E-08        -0.47208E-10         0.00000E+00
    0.79273E-08        -0.57522E-10         0.00000E+00
    0.78962E-08        -0.65005E-10         0.00000E+00
    0.78667E-08        -0.69394E-10         0.00000E+00
    0.78398E-08        -0.70331E-10         0.00000E+00
    0.78167E-08        -0.67240E-10         0.00000E+00
    0.77983E-08        -0.59250E-10         0.00000E+00
    0.77851E-08        -0.45327E-10         0.00000E+00
    0.77774E-08        -0.24586E-10         0.00000E+00
    0.77750E-08        -0.12421E-10         0.00000E+00
    0.84053E-08         0.59304E-11         0.00000E+00
    0.83983E-08         0.11470E-10         0.00000E+00
    0.83793E-08         0.21732E-10         0.00000E+00
    0.83505E-08         0.24419E-10         0.00000E+00
    0.83155E-08         0.14465E-10         0.00000E+00
    0.82800E-08        -0.85253E-12         0.00000E+00
    0.82459E-08        -0.14357E-10         0.00000E+00
    0.82129E-08        -0.25488E-10         0.00000E+00
    0.81814E-08        -0.34473E-10         0.00000E+00
    0.81521E-08        -0.41231E-10         0.00000E+00
    0.81257E-08        -0.45433E-10         0.00000E+00
    0.81030E-08        -0.46416E-10         0.00000E+00
    0.80845E-08        -0.43155E-10         0.00000E+00
    0.80709E-08        -0.34438E-10         0.00000E+00
    0.80626E-08        -0.19220E-10         0.00000E+00
    0.80600E-08        -0.98770E-11         0.00000E+00
    0.86703E-08         0.12066E-10         0.00000E+00
    0.86645E-08         0.23664E-10         0.00000E+00
    0.86474E-08         0.45520E-10         0.00000E+00
    0.86196E-08         0.57230E-10         0.00000E+00
    0.85837E-08         0.51166E-10         0.00000E+00
    0.85464E-08         0.35268E-10         0.00000E+00
    0.85109E-08         0.19962E-10         0.00000E+00
    0.84775E-08         0.70709E-11         0.00000E+00
    0.84462E-08        -0.40816E-11         0.00000E+00
    0.84175E-08        -0.13609E-10         0.00000E+00
    0.83921E-08        -0.21188E-10         0.00000E+00
    0.83702E-08        -0.26092E-10         0.00000E+00
    0.83525E-08        -0.27262E-10         0.00000E+00
    0.83393E-08        -0.23498E-10         0.00000E+00
    0.83311E-08        -0.13748E-10         0.00000E+00
    0.83285E-08        -0.72654E-11         0.00000E+00
    0.89023E-08         0.17745E-10         0.00000E+00
    0.88967E-08         0.34583E-10         0.00000E+00
    0.88813E-08         0.66839E-10         0.00000E+00
    0.88565E-08         0.88232E-10         0.00000E+00
    0.88232E-08         0.87762E-10         0.00000E+00
    0.87868E-08         0.72039E-10         0.00000E+00
    0.87519E-08         0.54707E-10         0.00000E+00
    0.87192E-08         0.39423E-10         0.00000E+00
    0.86890E-08         0.25566E-10         0.00000E+00
    0.86617E-08         0.12963E-10         0.00000E+00
    0.86378E-08         0.19251E-11         0.00000E+00
    0.86174E-08        -0.68107E-11         0.00000E+00
    0.86008E-08        -0.12210E-10         0.00000E+00
    0.85886E-08        -0.13123E-10         0.00000E+00
    0.85810E-08        -0.85329E-11         0.00000E+00
    0.85785E-08        -0.47535E-11         0.00000E+00
    0.91000E-08         0.23285E-10         0.00000E+00
    0.90948E-08         0.44856E-10         0.00000E+00
    0.90808E-08         0.86096E-10         0.00000E+00
    0.90592E-08         0.11569E-09         0.00000E+00
    0.90306E-08         0.12104E-09         0.00000E+00
    0.89981E-08         0.10670E-09         0.00000E+00
    0.89662E-08         0.87863E-10         0.00000E+00
    0.89360E-08         0.70227E-10         0.00000E+00
    0.89083E-08         0.53524E-10         0.00000E+00
    0.88835E-08         0.37756E-10         0.00000E+00
    0.88618E-08         0.23296E-10         0.00000E+00
    0.88435E-08         0.10883E-10         0.00000E+00
    0.88288E-08         0.15155E-11         0.00000E+00
    0.88179E-08        -0.37037E-11         0.00000E+00
    0.88111E-08        -0.37921E-11         0.00000E+00
    0.88089E-08        -0.24461E-11         0.00000E+00
    0.92615E-08         0.28412E-10         0.00000E+00
    0.92569E-08         0.54208E-10         0.00000E+00
    0.92449E-08         0.10290E-09         0.00000E+00
    0.92273E-08         0.13885E-09         0.00000E+00
    0.92043E-08         0.14922E-09         0.00000E+00
    0.91780E-08         0.13669E-09         0.00000E+00
    0.91515E-08         0.11706E-09         0.00000E+00
    0.91262E-08         0.97566E-10         0.00000E+00
    0.91029E-08         0.78336E-10         0.00000E+00
    0.90820E-08         0.59671E-10         0.00000E+00
    0.90637E-08         0.42089E-10         0.00000E+00
    0.90483E-08         0.26362E-10         0.00000E+00
    0.90359E-08         0.13466E-10         0.00000E+00
    0.90267E-08         0.44649E-11         0.00000E+00
    0.90210E-08         0.32857E-12         0.00000E+00
    0.90192E-08        -0.41461E-12         0.00000E+00
    0.93848E-08         0.32801E-10         0.00000E+00
    0.93811E-08         0.61997E-10         0.00000E+00
    0.93721E-08         0.11641E-09         0.00000E+00
    0.93595E-08         0.15685E-09         0.00000E+00
    0.93435E-08         0.17082E-09         0.00000E+00
    0.93252E-08         0.15988E-09         0.00000E+00
    0.93065E-08         0.13996E-09         0.00000E+00
    0.92885E-08         0.11922E-09         0.00000E+00
    0.92717E-08         0.98116E-10         0.00000E+00
    0.92565E-08         0.77216E-10         0.00000E+00
    0.92431E-08         0.57195E-10         0.00000E+00
    0.92316E-08         0.38858E-10         0.00000E+00
    0.92222E-08         0.23152E-10         0.00000E+00
    0.92151E-08         0.11105E-10         0.00000E+00
    0.92107E-08         0.37060E-11         0.00000E+00
    0.92092E-08         0.12836E-11         0.00000E+00
    0.94675E-08         0.36135E-10         0.00000E+00
    0.94651E-08         0.67577E-10         0.00000E+00
    0.94601E-08         0.12543E-09         0.00000E+00
    0.94543E-08         0.16816E-09         0.00000E+00
    0.94474E-08         0.18409E-09         0.00000E+00
    0.94392E-08         0.17418E-09         0.00000E+00
    0.94307E-08         0.15424E-09         0.00000E+00
    0.94223E-08         0.13285E-09         0.00000E+00
    0.94144E-08         0.11072E-09         0.00000E+00
    0.94070E-08         0.88614E-10         0.00000E+00
    0.94000E-08         0.67273E-10         0.00000E+00
    0.93936E-08         0.47457E-10         0.00000E+00
    0.93880E-08         0.30012E-10         0.00000E+00
    0.93835E-08         0.15920E-10         0.00000E+00
    0.93806E-08         0.62224E-11         0.00000E+00
    0.93795E-08         0.26010E-11         0.00000E+00
    0.95067E-08         0.38100E-10         0.00000E+00
    0.95060E-08         0.70190E-10         0.00000E+00
    0.95066E-08         0.12828E-09         0.00000E+00
    0.95102E-08         0.17048E-09         0.00000E+00
    0.95155E-08         0.18662E-09         0.00000E+00
    0.95202E-08         0.17720E-09         0.00000E+00
    0.95244E-08         0.15741E-09         0.00000E+00
    0.95283E-08         0.13601E-09         0.00000E+00
    0.95317E-08         0.11392E-09         0.00000E+00
    0.95340E-08         0.91995E-10         0.00000E+00
    0.95351E-08         0.70887E-10         0.00000E+00
    0.95349E-08         0.51150E-10         0.00000E+00
    0.95339E-08         0.33422E-10         0.00000E+00
    0.95324E-08         0.18582E-10         0.00000E+00
    0.95312E-08         0.77522E-11         0.00000E+00
    0.95306E-08         0.34909E-11         0.00000E+00
    0.94988E-08         0.38231E-10         0.00000E+00
    0.95005E-08         0.68735E-10         0.00000E+00
    0.95091E-08         0.12251E-09         0.00000E+00
    0.95259E-08         0.16036E-09         0.00000E+00
    0.95477E-08         0.17503E-09         0.00000E+00
    0.95691E-08         0.16597E-09         0.00000E+00
    0.95893E-08         0.14671E-09         0.00000E+00
    0.96083E-08         0.12618E-09         0.00000E+00
    0.96251E-08         0.10559E-09         0.00000E+00
    0.96388E-08         0.85649E-10         0.00000E+00
    0.96492E-08         0.66696E-10         0.00000E+00
    0.96564E-08         0.48936E-10         0.00000E+00
    0.96607E-08         0.32715E-10         0.00000E+00
    0.96628E-08         0.18736E-10         0.00000E+00
    0.96635E-08         0.81767E-11         0.00000E+00
    0.96634E-08         0.39316E-11         0.00000E+00
    0.94384E-08         0.35455E-10         0.00000E+00
    0.94444E-08         0.61143E-10         0.00000E+00
    0.94660E-08         0.10445E-09         0.00000E+00
    0.95014E-08         0.13314E-09         0.00000E+00
    0.95450E-08         0.14448E-09         0.00000E+00
    0.95885E-08         0.13646E-09         0.00000E+00
    0.96287E-08         0.11889E-09         0.00000E+00
    0.96656E-08         0.10085E-09         0.00000E+00
    0.96972E-08         0.83998E-10         0.00000E+00
    0.97232E-08         0.68347E-10         0.00000E+00
    0.97437E-08         0.53691E-10         0.00000E+00
    0.97589E-08         0.39943E-10         0.00000E+00
    0.97694E-08         0.27200E-10         0.00000E+00
    0.97756E-08         0.15978E-10         0.00000E+00
    0.97787E-08         0.73897E-11         0.00000E+00
    0.97788E-08         0.39274E-11         0.00000E+00
    0.93148E-08         0.27097E-10         0.00000E+00
    0.93332E-08         0.42621E-10         0.00000E+00
    0.93777E-08         0.67357E-10         0.00000E+00
    0.94397E-08         0.82752E-10         0.00000E+00
    0.95124E-08         0.89073E-10         0.00000E+00
    0.95853E-08         0.83245E-10         0.00000E+00
    0.96499E-08         0.70410E-10         0.00000E+00
    0.97050E-08         0.58316E-10         0.00000E+00
    0.97514E-08         0.48506E-10         0.00000E+00
    0.97896E-08         0.39661E-10         0.00000E+00
    0.98202E-08         0.31395E-10         0.00000E+00
    0.98437E-08         0.23618E-10         0.00000E+00
    0.98606E-08         0.16332E-10         0.00000E+00
    0.98713E-08         0.97090E-11         0.00000E+00
    0.98769E-08         0.52480E-11         0.00000E+00
    0.98790E-08         0.38952E-11         0.00000E+00
    0.92354E-08         0.00000E+00         0.00000E+00
    0.92632E-08         0.00000E+00         0.00000E+00
    0.93225E-08        -0.24851E-22         0.00000E+00
    0.94000E-08         0.21379E-26         0.00000E+00
    0.94897E-08         0.28995E-22         0.00000E+00
    0.95794E-08         0.00000E+00         0.00000E+00
    0.96571E-08         0.00000E+00         0.00000E+00
    0.97210E-08        -0.24857E-22         0.00000E+00
    0.97744E-08        -0.29000E-22         0.00000E+00
    0.98186E-08         0.29002E-22         0.00000E+00
    0.98542E-08         0.33145E-22         0.00000E+00
    0.98818E-08        -0.33146E-22         0.00000E+00
    0.99018E-08        -0.41429E-23         0.00000E+00
    0.99148E-08         0.33147E-22         0.00000E+00
    0.99217E-08         0.82869E-23         0.00000E+00
    0.99257E-08         0.00000E+00         0.00000E+00
CELL_DATA        450
TENSORS stressef double 
   -0.28171E+06         0.54905E+04         0.00000E+00
    0.54905E+04        -0.23574E+08         0.00000E+00
    0.00000E+00         0.00000E+00        -0.61558E+07
 
   -0.29270E+06         0.15497E+05         0.00000E+00
    0.15497E+05        -0.23560E+08         0.00000E+00
    0.00000E+00         0.00000E+00        -0.61071E+07
 
   -0.31119E+06         0.24319E+05         0.00000E+00
    0.24319E+05        -0.23535E+08         0.00000E+00
    0.00000E+00         0.00000E+00        -0.60215E+07
 
   -0.34585E+06         0.31604E+05         0.00000E+00
    0.31604E+05        -0.23500E+08         0.00000E+00
    0.00000E+00         0.00000E+00        -0.58886E+07
 
   -0.40571E+06         0.36985E+05         0.00000E+00
    0.36985E+05        -0.23459E+08         0.00000E+00
    0.00000E+00         0.00000E+00        -0.57004E+07
 
   -0.49661E+06         0.40300E+05         0.00000E+00
    0.40300E+05        -0.23417E+08         0.00000E+00
    0.00000E+00         0.00000E+00        -0.54585E+07
 
   -0.62046E+06         0.41855E+05         0.00000E+00
    0.41855E+05        -0.23377E+08         0.00000E+00
    0.00000E+00         0.00000E+00        -0.51725E+07
 
   -0.80120E+06         0.42019E+05         0.00000E+00
    0.42019E+05        -0.23340E+08         0.00000E+00
    0.00000E+00         0.00000E+00        -0.48803E+07
 
   -0.14880E+07         0.42970E+05         0.00000E+00
    0.42970E+05        -0.23302E+08         0.00000E+00
    0.00000E+00         0.00000E+00        -0.49580E+07
 
   -0.22146E+07         0.47623E+05         0.00000E+00
    0.47623E+05        -0.23254E+08         0.00000E+00
    0.00000E+00         0.00000E+00        -0.50937E+07
 
   -0.28928E+07         0.55829E+05         0.00000E+00
    0.55829E+05        -0.23187E+08         0.00000E+00
    0.00000E+00         0.00000E+00        -0.52160E+07
 
   -0.35336E+07         0.67257E+05         0.00000E+00
    0.67257E+05        -0.23095E+08         0.00000E+00
    0.00000E+00         0.00000E+00        -0.53258E+07
 
   -0.41470E+07         0.81678E+05         0.00000E+00
    0.81678E+05        -0.22971E+08         0.00000E+00
    0.00000E+00         0.00000E+00        -0.54236E+07
 
   -0.47424E+07         0.98939E+05         0.00000E+00
    0.98939E+05        -0.22807E+08         0.00000E+00
    0.00000E+00         0.00000E+00        -0.55099E+07
 
   -0.53287E+07         0.11894E+06         0.00000E+00
    0.11894E+06        -0.22599E+08         0.00000E+00
    0.00000E+00         0.00000E+00        -0.55854E+07
 
   -0.33387E+06         0.16301E+05         0.00000E+00
    0.16301E+05        -0.23647E+08         0.00000E+00
    0.00000E+00         0.00000E+00        -0.61939E+07
 
   -0.34664E+06         0.46199E+05         0.00000E+00
    0.46199E+05        -0.23634E+08         0.00000E+00
    0.00000E+00         0.00000E+00        -0.61430E+07
 
   -0.36766E+06         0.72546E+05         0.00000E+00
    0.72546E+05        -0.23609E+08         0.00000E+00
    0.00000E+00         0.00000E+00        -0.60544E+07
 
   -0.40552E+06         0.94167E+05         0.00000E+00
    0.94167E+05        -0.23575E+08         0.00000E+00
    0.00000E+00         0.00000E+00        -0.59181E+07
 
   -0.46928E+06         0.10995E+06         0.00000E+00
    0.10995E+06        -0.23536E+08         0.00000E+00
    0.00000E+00         0.00000E+00        -0.57268E+07
 
   -0.56387E+06         0.11950E+06         0.00000E+00
    0.11950E+06        -0.23496E+08         0.00000E+00
    0.00000E+00         0.00000E+00        -0.54838E+07
 
   -0.69076E+06         0.12385E+06         0.00000E+00
    0.12385E+06        -0.23459E+08         0.00000E+00
    0.00000E+00         0.00000E+00        -0.51994E+07
 
   -0.87373E+06         0.12423E+06         0.00000E+00
    0.12423E+06        -0.23425E+08         0.00000E+00
    0.00000E+00         0.00000E+00        -0.49111E+07
 
   -0.15540E+07         0.12737E+06         0.00000E+00
    0.12737E+06        -0.23390E+08         0.00000E+00
    0.00000E+00         0.00000E+00        -0.49889E+07
 
   -0.22730E+07         0.14157E+06         0.00000E+00
    0.14157E+06        -0.23345E+08         0.00000E+00
    0.00000E+00         0.00000E+00        -0.51235E+07
 
   -0.29443E+07         0.16633E+06         0.00000E+00
    0.16633E+06        -0.23280E+08         0.00000E+00
    0.00000E+00         0.00000E+00        -0.52450E+07
 
   -0.35789E+07         0.20068E+06         0.00000E+00
    0.20068E+06        -0.23190E+08         0.00000E+00
    0.00000E+00         0.00000E+00        -0.53539E+07
 
   -0.41864E+07         0.24395E+06         0.00000E+00
    0.24395E+06        -0.23068E+08         0.00000E+00
    0.00000E+00         0.00000E+00        -0.54509E+07
 
   -0.47762E+07         0.29571E+06         0.00000E+00
    0.29571E+06        -0.22907E+08         0.00000E+00
    0.00000E+00         0.00000E+00        -0.55366E+07
 
   -0.53570E+07         0.35567E+06         0.00000E+00
    0.35567E+06        -0.22700E+08         0.00000E+00
    0.00000E+00         0.00000E+00        -0.56114E+07
 
   -0.43838E+06         0.26588E+05         0.00000E+00
    0.26588E+05        -0.23793E+08         0.00000E+00
    0.00000E+00         0.00000E+00        -0.62691E+07
 
   -0.45459E+06         0.75886E+05         0.00000E+00
    0.75886E+05        -0.23781E+08         0.00000E+00
    0.00000E+00         0.00000E+00        -0.62145E+07
 
   -0.48077E+06         0.11942E+06         0.00000E+00
    0.11942E+06        -0.23757E+08         0.00000E+00
    0.00000E+00         0.00000E+00        -0.61205E+07
 
   -0.52534E+06         0.15465E+06         0.00000E+00
    0.15465E+06        -0.23725E+08         0.00000E+00
    0.00000E+00         0.00000E+00        -0.59775E+07
 
   -0.59706E+06         0.17974E+06         0.00000E+00
    0.17974E+06        -0.23690E+08         0.00000E+00
    0.00000E+00         0.00000E+00        -0.57801E+07
 
   -0.69897E+06         0.19457E+06         0.00000E+00
    0.19457E+06        -0.23654E+08         0.00000E+00
    0.00000E+00         0.00000E+00        -0.55352E+07
 
   -0.83175E+06         0.20083E+06         0.00000E+00
    0.20083E+06        -0.23623E+08         0.00000E+00
    0.00000E+00         0.00000E+00        -0.52539E+07
 
   -0.10183E+07         0.20111E+06         0.00000E+00
    0.20111E+06        -0.23596E+08         0.00000E+00
    0.00000E+00         0.00000E+00        -0.49729E+07
 
   -0.16853E+07         0.20724E+06         0.00000E+00
    0.20724E+06        -0.23567E+08         0.00000E+00
    0.00000E+00         0.00000E+00        -0.50504E+07
 
   -0.23892E+07         0.23169E+06         0.00000E+00
    0.23169E+06        -0.23526E+08         0.00000E+00
    0.00000E+00         0.00000E+00        -0.51831E+07
 
   -0.30471E+07         0.27344E+06         0.00000E+00
    0.27344E+06        -0.23466E+08         0.00000E+00
    0.00000E+00         0.00000E+00        -0.53027E+07
 
   -0.36692E+07         0.33088E+06         0.00000E+00
    0.33088E+06        -0.23380E+08         0.00000E+00
    0.00000E+00         0.00000E+00        -0.54099E+07
 
   -0.42650E+07         0.40299E+06         0.00000E+00
    0.40299E+06        -0.23262E+08         0.00000E+00
    0.00000E+00         0.00000E+00        -0.55054E+07
 
   -0.48436E+07         0.48916E+06         0.00000E+00
    0.48916E+06        -0.23105E+08         0.00000E+00
    0.00000E+00         0.00000E+00        -0.55897E+07
 
   -0.54136E+07         0.58897E+06         0.00000E+00
    0.58897E+06        -0.22903E+08         0.00000E+00
    0.00000E+00         0.00000E+00        -0.56633E+07
 
   -0.59579E+06         0.35941E+05         0.00000E+00
    0.35941E+05        -0.24011E+08         0.00000E+00
    0.00000E+00         0.00000E+00        -0.63798E+07
 
   -0.61676E+06         0.10360E+06         0.00000E+00
    0.10360E+06        -0.24001E+08         0.00000E+00
    0.00000E+00         0.00000E+00        -0.63210E+07
 
   -0.65083E+06         0.16347E+06         0.00000E+00
    0.16347E+06        -0.23980E+08         0.00000E+00
    0.00000E+00         0.00000E+00        -0.62199E+07
 
   -0.70656E+06         0.21121E+06         0.00000E+00
    0.21121E+06        -0.23953E+08         0.00000E+00
    0.00000E+00         0.00000E+00        -0.60668E+07
 
   -0.78992E+06         0.24405E+06         0.00000E+00
    0.24405E+06        -0.23923E+08         0.00000E+00
    0.00000E+00         0.00000E+00        -0.58619E+07
 
   -0.90286E+06         0.26279E+06         0.00000E+00
    0.26279E+06        -0.23894E+08         0.00000E+00
    0.00000E+00         0.00000E+00        -0.56144E+07
 
   -0.10441E+07         0.26988E+06         0.00000E+00
    0.26988E+06        -0.23871E+08         0.00000E+00
    0.00000E+00         0.00000E+00        -0.53378E+07
 
   -0.12341E+07         0.26967E+06         0.00000E+00
    0.26967E+06        -0.23852E+08         0.00000E+00
    0.00000E+00         0.00000E+00        -0.50661E+07
 
   -0.18806E+07         0.27985E+06         0.00000E+00
    0.27985E+06        -0.23832E+08         0.00000E+00
    0.00000E+00         0.00000E+00        -0.51424E+07
 
   -0.25622E+07         0.31574E+06         0.00000E+00
    0.31574E+06        -0.23798E+08         0.00000E+00
    0.00000E+00         0.00000E+00        -0.52721E+07
 
   -0.32003E+07         0.37510E+06         0.00000E+00
    0.37510E+06        -0.23745E+08         0.00000E+00
    0.00000E+00         0.00000E+00        -0.53890E+07
 
   -0.38041E+07         0.45579E+06         0.00000E+00
    0.45579E+06        -0.23665E+08         0.00000E+00
    0.00000E+00         0.00000E+00        -0.54938E+07
 
   -0.43826E+07         0.55669E+06         0.00000E+00
    0.55669E+06        -0.23553E+08         0.00000E+00
    0.00000E+00         0.00000E+00        -0.55870E+07
 
   -0.49445E+07         0.67710E+06         0.00000E+00
    0.67710E+06        -0.23402E+08         0.00000E+00
    0.00000E+00         0.00000E+00        -0.56693E+07
 
   -0.54983E+07         0.81654E+06         0.00000E+00
    0.81654E+06        -0.23206E+08         0.00000E+00
    0.00000E+00         0.00000E+00        -0.57409E+07
 
   -0.80716E+06         0.43926E+05         0.00000E+00
    0.43926E+05        -0.24300E+08         0.00000E+00
    0.00000E+00         0.00000E+00        -0.65233E+07
 
   -0.83377E+06         0.12803E+06         0.00000E+00
    0.12803E+06        -0.24293E+08         0.00000E+00
    0.00000E+00         0.00000E+00        -0.64607E+07
 
   -0.87874E+06         0.20255E+06         0.00000E+00
    0.20255E+06        -0.24278E+08         0.00000E+00
    0.00000E+00         0.00000E+00        -0.63514E+07
 
   -0.94998E+06         0.26114E+06         0.00000E+00
    0.26114E+06        -0.24258E+08         0.00000E+00
    0.00000E+00         0.00000E+00        -0.61869E+07
 
   -0.10494E+07         0.30040E+06         0.00000E+00
    0.30040E+06        -0.24236E+08         0.00000E+00
    0.00000E+00         0.00000E+00        -0.59734E+07
 
   -0.11765E+07         0.32151E+06         0.00000E+00
    0.32151E+06        -0.24217E+08         0.00000E+00
    0.00000E+00         0.00000E+00        -0.57236E+07
 
   -0.13280E+07         0.32850E+06         0.00000E+00
    0.32850E+06        -0.24203E+08         0.00000E+00
    0.00000E+00         0.00000E+00        -0.54536E+07
 
   -0.15204E+07         0.32767E+06         0.00000E+00
    0.32767E+06        -0.24195E+08         0.00000E+00
    0.00000E+00         0.00000E+00        -0.51923E+07
 
   -0.21375E+07         0.34297E+06         0.00000E+00
    0.34297E+06        -0.24185E+08         0.00000E+00
    0.00000E+00         0.00000E+00        -0.52645E+07
 
   -0.27906E+07         0.39193E+06         0.00000E+00
    0.39193E+06        -0.24160E+08         0.00000E+00
    0.00000E+00         0.00000E+00        -0.53901E+07
 
   -0.34033E+07         0.46938E+06         0.00000E+00
    0.46938E+06        -0.24114E+08         0.00000E+00
    0.00000E+00         0.00000E+00        -0.55035E+07
 
   -0.39833E+07         0.57343E+06         0.00000E+00
    0.57343E+06        -0.24042E+08         0.00000E+00
    0.00000E+00         0.00000E+00        -0.56051E+07
 
   -0.45389E+07         0.70296E+06         0.00000E+00
    0.70296E+06        -0.23938E+08         0.00000E+00
    0.00000E+00         0.00000E+00        -0.56954E+07
 
   -0.50787E+07         0.85732E+06         0.00000E+00
    0.85732E+06        -0.23796E+08         0.00000E+00
    0.00000E+00         0.00000E+00        -0.57749E+07
 
   -0.56108E+07         0.10361E+07         0.00000E+00
    0.10361E+07        -0.23609E+08         0.00000E+00
    0.00000E+00         0.00000E+00        -0.58440E+07
 
   -0.10743E+07         0.50239E+05         0.00000E+00
    0.50239E+05        -0.24661E+08         0.00000E+00
    0.00000E+00         0.00000E+00        -0.66953E+07
 
   -0.11070E+07         0.14758E+06         0.00000E+00
    0.14758E+06        -0.24657E+08         0.00000E+00
    0.00000E+00         0.00000E+00        -0.66300E+07
 
   -0.11662E+07         0.23377E+06         0.00000E+00
    0.23377E+06        -0.24650E+08         0.00000E+00
    0.00000E+00         0.00000E+00        -0.65119E+07
 
   -0.12563E+07         0.30091E+06         0.00000E+00
    0.30091E+06        -0.24641E+08         0.00000E+00
    0.00000E+00         0.00000E+00        -0.63377E+07
 
   -0.13765E+07         0.34548E+06         0.00000E+00
    0.34548E+06        -0.24632E+08         0.00000E+00
    0.00000E+00         0.00000E+00        -0.61167E+07
 
   -0.15206E+07         0.36866E+06         0.00000E+00
    0.36866E+06        -0.24625E+08         0.00000E+00
    0.00000E+00         0.00000E+00        -0.58666E+07
 
   -0.16832E+07         0.37511E+06         0.00000E+00
    0.37511E+06        -0.24622E+08         0.00000E+00
    0.00000E+00         0.00000E+00        -0.56043E+07
 
   -0.18776E+07         0.37346E+06         0.00000E+00
    0.37346E+06        -0.24624E+08         0.00000E+00
    0.00000E+00         0.00000E+00        -0.53555E+07
 
   -0.24523E+07         0.39532E+06         0.00000E+00
    0.39532E+06        -0.24625E+08         0.00000E+00
    0.00000E+00         0.00000E+00        -0.54155E+07
 
   -0.30729E+07         0.45844E+06         0.00000E+00
    0.45844E+06        -0.24611E+08         0.00000E+00
    0.00000E+00         0.00000E+00        -0.55367E+07
 
   -0.36550E+07         0.55452E+06         0.00000E+00
    0.55452E+06        -0.24575E+08         0.00000E+00
    0.00000E+00         0.00000E+00        -0.56459E+07
 
   -0.42060E+07         0.68195E+06         0.00000E+00
    0.68195E+06        -0.24512E+08         0.00000E+00
    0.00000E+00         0.00000E+00        -0.57436E+07
 
   -0.47336E+07         0.83980E+06         0.00000E+00
    0.83980E+06        -0.24417E+08         0.00000E+00
    0.00000E+00         0.00000E+00        -0.58302E+07
 
   -0.52458E+07         0.10276E+07         0.00000E+00
    0.10276E+07        -0.24285E+08         0.00000E+00
    0.00000E+00         0.00000E+00        -0.59062E+07
 
   -0.57508E+07         0.12453E+07         0.00000E+00
    0.12453E+07        -0.24110E+08         0.00000E+00
    0.00000E+00         0.00000E+00        -0.59721E+07
 
   -0.13998E+07         0.54660E+05         0.00000E+00
    0.54660E+05        -0.25092E+08         0.00000E+00
    0.00000E+00         0.00000E+00        -0.68909E+07
 
   -0.14397E+07         0.16086E+06         0.00000E+00
    0.16086E+06        -0.25093E+08         0.00000E+00
    0.00000E+00         0.00000E+00        -0.68225E+07
 
   -0.15149E+07         0.25377E+06         0.00000E+00
    0.25377E+06        -0.25095E+08         0.00000E+00
    0.00000E+00         0.00000E+00        -0.66966E+07
 
   -0.16276E+07         0.32590E+06         0.00000E+00
    0.32590E+06        -0.25101E+08         0.00000E+00
    0.00000E+00         0.00000E+00        -0.65152E+07
 
   -0.17705E+07         0.37494E+06         0.00000E+00
    0.37494E+06        -0.25109E+08         0.00000E+00
    0.00000E+00         0.00000E+00        -0.62933E+07
 
   -0.19336E+07         0.40186E+06         0.00000E+00
    0.40186E+06        -0.25119E+08         0.00000E+00
    0.00000E+00         0.00000E+00        -0.60484E+07
 
   -0.21096E+07         0.40967E+06         0.00000E+00
    0.40967E+06        -0.25129E+08         0.00000E+00
    0.00000E+00         0.00000E+00        -0.57952E+07
 
   -0.23030E+07         0.40658E+06         0.00000E+00
    0.40658E+06        -0.25140E+08         0.00000E+00
    0.00000E+00         0.00000E+00        -0.55555E+07
 
   -0.28239E+07         0.43540E+06         0.00000E+00
    0.43540E+06        -0.25153E+08         0.00000E+00
    0.00000E+00         0.00000E+00        -0.55954E+07
 
   -0.34075E+07         0.51385E+06         0.00000E+00
    0.51385E+06        -0.25150E+08         0.00000E+00
    0.00000E+00         0.00000E+00        -0.57114E+07
 
   -0.39546E+07         0.62902E+06         0.00000E+00
    0.62902E+06        -0.25124E+08         0.00000E+00
    0.00000E+00         0.00000E+00        -0.58157E+07
 
   -0.44718E+07         0.77964E+06         0.00000E+00
    0.77964E+06        -0.25072E+08         0.00000E+00
    0.00000E+00         0.00000E+00        -0.59087E+07
 
   -0.49663E+07         0.96528E+06         0.00000E+00
    0.96528E+06        -0.24988E+08         0.00000E+00
    0.00000E+00         0.00000E+00        -0.59910E+07
 
   -0.54456E+07         0.11859E+07         0.00000E+00
    0.11859E+07        -0.24869E+08         0.00000E+00
    0.00000E+00         0.00000E+00        -0.60629E+07
 
   -0.59180E+07         0.14417E+07         0.00000E+00
    0.14417E+07        -0.24707E+08         0.00000E+00
    0.00000E+00         0.00000E+00        -0.61250E+07
 
   -0.17869E+07         0.57028E+05         0.00000E+00
    0.57028E+05        -0.25592E+08         0.00000E+00
    0.00000E+00         0.00000E+00        -0.71043E+07
 
   -0.18357E+07         0.16640E+06         0.00000E+00
    0.16640E+06        -0.25598E+08         0.00000E+00
    0.00000E+00         0.00000E+00        -0.70313E+07
 
   -0.19301E+07         0.25953E+06         0.00000E+00
    0.25953E+06        -0.25613E+08         0.00000E+00
    0.00000E+00         0.00000E+00        -0.68974E+07
 
   -0.20652E+07         0.33167E+06         0.00000E+00
    0.33167E+06        -0.25636E+08         0.00000E+00
    0.00000E+00         0.00000E+00        -0.67150E+07
 
   -0.22293E+07         0.38384E+06         0.00000E+00
    0.38384E+06        -0.25666E+08         0.00000E+00
    0.00000E+00         0.00000E+00        -0.65028E+07
 
   -0.24122E+07         0.41682E+06         0.00000E+00
    0.41682E+06        -0.25697E+08         0.00000E+00
    0.00000E+00         0.00000E+00        -0.62722E+07
 
   -0.26045E+07         0.43034E+06         0.00000E+00
    0.43034E+06        -0.25724E+08         0.00000E+00
    0.00000E+00         0.00000E+00        -0.60323E+07
 
   -0.27965E+07         0.42857E+06         0.00000E+00
    0.42857E+06        -0.25748E+08         0.00000E+00
    0.00000E+00         0.00000E+00        -0.57971E+07
 
   -0.32503E+07         0.46313E+06         0.00000E+00
    0.46313E+06        -0.25768E+08         0.00000E+00
    0.00000E+00         0.00000E+00        -0.58036E+07
 
   -0.37927E+07         0.55750E+06         0.00000E+00
    0.55750E+06        -0.25775E+08         0.00000E+00
    0.00000E+00         0.00000E+00        -0.59135E+07
 
   -0.43011E+07         0.69152E+06         0.00000E+00
    0.69152E+06        -0.25761E+08         0.00000E+00
    0.00000E+00         0.00000E+00        -0.60124E+07
 
   -0.47801E+07         0.86508E+06         0.00000E+00
    0.86508E+06        -0.25720E+08         0.00000E+00
    0.00000E+00         0.00000E+00        -0.61001E+07
 
   -0.52368E+07         0.10777E+07         0.00000E+00
    0.10777E+07        -0.25650E+08         0.00000E+00
    0.00000E+00         0.00000E+00        -0.61773E+07
 
   -0.56781E+07         0.13299E+07         0.00000E+00
    0.13299E+07        -0.25544E+08         0.00000E+00
    0.00000E+00         0.00000E+00        -0.62445E+07
 
   -0.61121E+07         0.16228E+07         0.00000E+00
    0.16228E+07        -0.25398E+08         0.00000E+00
    0.00000E+00         0.00000E+00        -0.63020E+07
 
   -0.22391E+07         0.56870E+05         0.00000E+00
    0.56870E+05        -0.26161E+08         0.00000E+00
    0.00000E+00         0.00000E+00        -0.73297E+07
 
   -0.23011E+07         0.16269E+06         0.00000E+00
    0.16269E+06        -0.26174E+08         0.00000E+00
    0.00000E+00         0.00000E+00        -0.72484E+07
 
   -0.24168E+07         0.24870E+06         0.00000E+00
    0.24870E+06        -0.26202E+08         0.00000E+00
    0.00000E+00         0.00000E+00        -0.71067E+07
 
   -0.25710E+07         0.31592E+06         0.00000E+00
    0.31592E+06        -0.26244E+08         0.00000E+00
    0.00000E+00         0.00000E+00        -0.69319E+07
 
   -0.27519E+07         0.36818E+06         0.00000E+00
    0.36818E+06        -0.26296E+08         0.00000E+00
    0.00000E+00         0.00000E+00        -0.67400E+07
 
   -0.29508E+07         0.40778E+06         0.00000E+00
    0.40778E+06        -0.26352E+08         0.00000E+00
    0.00000E+00         0.00000E+00        -0.65362E+07
 
   -0.31595E+07         0.43392E+06         0.00000E+00
    0.43392E+06        -0.26404E+08         0.00000E+00
    0.00000E+00         0.00000E+00        -0.63210E+07
 
   -0.33645E+07         0.44191E+06         0.00000E+00
    0.44191E+06        -0.26442E+08         0.00000E+00
    0.00000E+00         0.00000E+00        -0.60992E+07
 
   -0.37244E+07         0.47794E+06         0.00000E+00
    0.47794E+06        -0.26468E+08         0.00000E+00
    0.00000E+00         0.00000E+00        -0.60385E+07
 
   -0.42283E+07         0.58775E+06         0.00000E+00
    0.58775E+06        -0.26487E+08         0.00000E+00
    0.00000E+00         0.00000E+00        -0.61430E+07
 
   -0.46931E+07         0.74128E+06         0.00000E+00
    0.74128E+06        -0.26484E+08         0.00000E+00
    0.00000E+00         0.00000E+00        -0.62354E+07
 
   -0.51306E+07         0.93739E+06         0.00000E+00
    0.93739E+06        -0.26455E+08         0.00000E+00
    0.00000E+00         0.00000E+00        -0.63172E+07
 
   -0.55455E+07         0.11755E+07         0.00000E+00
    0.11755E+07        -0.26398E+08         0.00000E+00
    0.00000E+00         0.00000E+00        -0.63888E+07
 
   -0.59435E+07         0.14575E+07         0.00000E+00
    0.14575E+07        -0.26309E+08         0.00000E+00
    0.00000E+00         0.00000E+00        -0.64504E+07
 
   -0.63329E+07         0.17860E+07         0.00000E+00
    0.17860E+07        -0.26181E+08         0.00000E+00
    0.00000E+00         0.00000E+00        -0.65027E+07
 
   -0.27612E+07         0.53334E+05         0.00000E+00
    0.53334E+05        -0.26797E+08         0.00000E+00
    0.00000E+00         0.00000E+00        -0.75615E+07
 
   -0.28430E+07         0.14768E+06         0.00000E+00
    0.14768E+06        -0.26818E+08         0.00000E+00
    0.00000E+00         0.00000E+00        -0.74639E+07
 
   -0.29790E+07         0.22072E+06         0.00000E+00
    0.22072E+06        -0.26860E+08         0.00000E+00
    0.00000E+00         0.00000E+00        -0.73192E+07
 
   -0.31481E+07         0.27847E+06         0.00000E+00
    0.27847E+06        -0.26921E+08         0.00000E+00
    0.00000E+00         0.00000E+00        -0.71603E+07
 
   -0.33392E+07         0.32681E+06         0.00000E+00
    0.32681E+06        -0.26996E+08         0.00000E+00
    0.00000E+00         0.00000E+00        -0.69982E+07
 
   -0.35460E+07         0.37013E+06         0.00000E+00
    0.37013E+06        -0.27077E+08         0.00000E+00
    0.00000E+00         0.00000E+00        -0.68328E+07
 
   -0.37645E+07         0.41019E+06         0.00000E+00
    0.41019E+06        -0.27157E+08         0.00000E+00
    0.00000E+00         0.00000E+00        -0.66580E+07
 
   -0.39887E+07         0.44219E+06         0.00000E+00
    0.44219E+06        -0.27222E+08         0.00000E+00
    0.00000E+00         0.00000E+00        -0.64639E+07
 
   -0.42603E+07         0.48447E+06         0.00000E+00
    0.48447E+06        -0.27257E+08         0.00000E+00
    0.00000E+00         0.00000E+00        -0.63229E+07
 
   -0.47118E+07         0.60431E+06         0.00000E+00
    0.60431E+06        -0.27283E+08         0.00000E+00
    0.00000E+00         0.00000E+00        -0.63989E+07
 
   -0.51294E+07         0.77875E+06         0.00000E+00
    0.77875E+06        -0.27291E+08         0.00000E+00
    0.00000E+00         0.00000E+00        -0.64841E+07
 
   -0.55232E+07         0.99602E+06         0.00000E+00
    0.99602E+06        -0.27275E+08         0.00000E+00
    0.00000E+00         0.00000E+00        -0.65596E+07
 
   -0.58930E+07         0.12577E+07         0.00000E+00
    0.12577E+07        -0.27231E+08         0.00000E+00
    0.00000E+00         0.00000E+00        -0.66249E+07
 
   -0.62431E+07         0.15665E+07         0.00000E+00
    0.15665E+07        -0.27159E+08         0.00000E+00
    0.00000E+00         0.00000E+00        -0.66804E+07
 
   -0.65806E+07         0.19278E+07         0.00000E+00
    0.19278E+07        -0.27052E+08         0.00000E+00
    0.00000E+00         0.00000E+00        -0.67266E+07
 
   -0.33601E+07         0.45065E+05         0.00000E+00
    0.45065E+05        -0.27499E+08         0.00000E+00
    0.00000E+00         0.00000E+00        -0.77891E+07
 
   -0.34665E+07         0.12026E+06         0.00000E+00
    0.12026E+06        -0.27529E+08         0.00000E+00
    0.00000E+00         0.00000E+00        -0.76723E+07
 
   -0.36197E+07         0.17569E+06         0.00000E+00
    0.17569E+06        -0.27586E+08         0.00000E+00
    0.00000E+00         0.00000E+00        -0.75324E+07
 
   -0.37985E+07         0.22036E+06         0.00000E+00
    0.22036E+06        -0.27665E+08         0.00000E+00
    0.00000E+00         0.00000E+00        -0.73970E+07
 
   -0.39931E+07         0.26128E+06         0.00000E+00
    0.26128E+06        -0.27760E+08         0.00000E+00
    0.00000E+00         0.00000E+00        -0.72715E+07
 
   -0.41990E+07         0.30426E+06         0.00000E+00
    0.30426E+06        -0.27864E+08         0.00000E+00
    0.00000E+00         0.00000E+00        -0.71519E+07
 
   -0.44149E+07         0.35369E+06         0.00000E+00
    0.35369E+06        -0.27968E+08         0.00000E+00
    0.00000E+00         0.00000E+00        -0.70279E+07
 
   -0.46425E+07         0.41164E+06         0.00000E+00
    0.41164E+06        -0.28063E+08         0.00000E+00
    0.00000E+00         0.00000E+00        -0.68820E+07
 
   -0.48786E+07         0.48443E+06         0.00000E+00
    0.48443E+06        -0.28134E+08         0.00000E+00
    0.00000E+00         0.00000E+00        -0.67104E+07
 
   -0.52273E+07         0.61078E+06         0.00000E+00
    0.61078E+06        -0.28167E+08         0.00000E+00
    0.00000E+00         0.00000E+00        -0.66806E+07
 
   -0.56116E+07         0.80274E+06         0.00000E+00
    0.80274E+06        -0.28181E+08         0.00000E+00
    0.00000E+00         0.00000E+00        -0.67584E+07
 
   -0.59577E+07         0.10414E+07         0.00000E+00
    0.10414E+07        -0.28175E+08         0.00000E+00
    0.00000E+00         0.00000E+00        -0.68266E+07
 
   -0.62812E+07         0.13236E+07         0.00000E+00
    0.13236E+07        -0.28146E+08         0.00000E+00
    0.00000E+00         0.00000E+00        -0.68854E+07
 
   -0.65791E+07         0.16548E+07         0.00000E+00
    0.16548E+07        -0.28092E+08         0.00000E+00
    0.00000E+00         0.00000E+00        -0.69341E+07
 
   -0.68562E+07         0.20439E+07         0.00000E+00
    0.20439E+07        -0.28010E+08         0.00000E+00
    0.00000E+00         0.00000E+00        -0.69732E+07
 
   -0.40441E+07         0.31093E+05         0.00000E+00
    0.31093E+05        -0.28265E+08         0.00000E+00
    0.00000E+00         0.00000E+00        -0.80041E+07
 
   -0.41750E+07         0.80201E+05         0.00000E+00
    0.80201E+05        -0.28304E+08         0.00000E+00
    0.00000E+00         0.00000E+00        -0.78720E+07
 
   -0.43407E+07         0.11408E+06         0.00000E+00
    0.11408E+06        -0.28374E+08         0.00000E+00
    0.00000E+00         0.00000E+00        -0.77458E+07
 
   -0.45233E+07         0.14277E+06         0.00000E+00
    0.14277E+06        -0.28470E+08         0.00000E+00
    0.00000E+00         0.00000E+00        -0.76413E+07
 
   -0.47147E+07         0.17426E+06         0.00000E+00
    0.17426E+06        -0.28584E+08         0.00000E+00
    0.00000E+00         0.00000E+00        -0.75577E+07
 
   -0.49111E+07         0.21522E+06         0.00000E+00
    0.21522E+06        -0.28706E+08         0.00000E+00
    0.00000E+00         0.00000E+00        -0.74870E+07
 
   -0.51122E+07         0.27164E+06         0.00000E+00
    0.27164E+06        -0.28829E+08         0.00000E+00
    0.00000E+00         0.00000E+00        -0.74162E+07
 
   -0.53205E+07         0.34894E+06         0.00000E+00
    0.34894E+06        -0.28942E+08         0.00000E+00
    0.00000E+00         0.00000E+00        -0.73283E+07
 
   -0.55458E+07         0.45072E+06         0.00000E+00
    0.45072E+06        -0.29037E+08         0.00000E+00
    0.00000E+00         0.00000E+00        -0.72047E+07
 
   -0.58006E+07         0.60039E+06         0.00000E+00
    0.60039E+06        -0.29117E+08         0.00000E+00
    0.00000E+00         0.00000E+00        -0.70730E+07
 
   -0.61229E+07         0.81614E+06         0.00000E+00
    0.81614E+06        -0.29156E+08         0.00000E+00
    0.00000E+00         0.00000E+00        -0.70596E+07
 
   -0.64369E+07         0.10734E+07         0.00000E+00
    0.10734E+07        -0.29155E+08         0.00000E+00
    0.00000E+00         0.00000E+00        -0.71184E+07
 
   -0.67120E+07         0.13736E+07         0.00000E+00
    0.13736E+07        -0.29138E+08         0.00000E+00
    0.00000E+00         0.00000E+00        -0.71700E+07
 
   -0.69573E+07         0.17209E+07         0.00000E+00
    0.17209E+07        -0.29102E+08         0.00000E+00
    0.00000E+00         0.00000E+00        -0.72118E+07
 
   -0.71634E+07         0.21273E+07         0.00000E+00
    0.21273E+07        -0.29050E+08         0.00000E+00
    0.00000E+00         0.00000E+00        -0.72427E+07
 
   -0.48214E+07         0.11421E+05         0.00000E+00
    0.11421E+05        -0.29092E+08         0.00000E+00
    0.00000E+00         0.00000E+00        -0.81995E+07
 
   -0.49713E+07         0.28054E+05         0.00000E+00
    0.28054E+05        -0.29139E+08         0.00000E+00
    0.00000E+00         0.00000E+00        -0.80638E+07
 
   -0.51430E+07         0.36410E+05         0.00000E+00
    0.36410E+05        -0.29222E+08         0.00000E+00
    0.00000E+00         0.00000E+00        -0.79608E+07
 
   -0.53221E+07         0.47062E+05         0.00000E+00
    0.47062E+05        -0.29334E+08         0.00000E+00
    0.00000E+00         0.00000E+00        -0.78943E+07
 
   -0.55020E+07         0.68782E+05         0.00000E+00
    0.68782E+05        -0.29463E+08         0.00000E+00
    0.00000E+00         0.00000E+00        -0.78573E+07
 
   -0.56800E+07         0.10896E+06         0.00000E+00
    0.10896E+06        -0.29600E+08         0.00000E+00
    0.00000E+00         0.00000E+00        -0.78373E+07
 
   -0.58567E+07         0.17334E+06         0.00000E+00
    0.17334E+06        -0.29734E+08         0.00000E+00
    0.00000E+00         0.00000E+00        -0.78187E+07
 
   -0.60365E+07         0.26576E+06         0.00000E+00
    0.26576E+06        -0.29858E+08         0.00000E+00
    0.00000E+00         0.00000E+00        -0.77855E+07
 
   -0.62259E+07         0.39079E+06         0.00000E+00
    0.39079E+06        -0.29962E+08         0.00000E+00
    0.00000E+00         0.00000E+00        -0.77208E+07
 
   -0.64381E+07         0.55749E+06         0.00000E+00
    0.55749E+06        -0.30048E+08         0.00000E+00
    0.00000E+00         0.00000E+00        -0.76169E+07
 
   -0.66743E+07         0.79007E+06         0.00000E+00
    0.79007E+06        -0.30130E+08         0.00000E+00
    0.00000E+00         0.00000E+00        -0.75026E+07
 
   -0.69480E+07         0.10835E+07         0.00000E+00
    0.10835E+07        -0.30190E+08         0.00000E+00
    0.00000E+00         0.00000E+00        -0.74714E+07
 
   -0.71823E+07         0.14070E+07         0.00000E+00
    0.14070E+07        -0.30203E+08         0.00000E+00
    0.00000E+00         0.00000E+00        -0.74794E+07
 
   -0.73896E+07         0.17622E+07         0.00000E+00
    0.17622E+07        -0.30186E+08         0.00000E+00
    0.00000E+00         0.00000E+00        -0.75152E+07
 
   -0.75124E+07         0.21638E+07         0.00000E+00
    0.21638E+07        -0.30178E+08         0.00000E+00
    0.00000E+00         0.00000E+00        -0.75381E+07
 
   -0.56985E+07        -0.12928E+05         0.00000E+00
   -0.12928E+05        -0.29977E+08         0.00000E+00
    0.00000E+00         0.00000E+00        -0.83756E+07
 
   -0.58583E+07        -0.35437E+05         0.00000E+00
   -0.35437E+05        -0.30031E+08         0.00000E+00
    0.00000E+00         0.00000E+00        -0.82509E+07
 
   -0.60271E+07        -0.56443E+05         0.00000E+00
   -0.56443E+05        -0.30127E+08         0.00000E+00
    0.00000E+00         0.00000E+00        -0.81806E+07
 
   -0.61932E+07        -0.64977E+05         0.00000E+00
   -0.64977E+05        -0.30252E+08         0.00000E+00
    0.00000E+00         0.00000E+00        -0.81593E+07
 
   -0.63514E+07        -0.51685E+05         0.00000E+00
   -0.51685E+05        -0.30393E+08         0.00000E+00
    0.00000E+00         0.00000E+00        -0.81731E+07
 
   -0.65009E+07        -0.95634E+04         0.00000E+00
   -0.95634E+04        -0.30539E+08         0.00000E+00
    0.00000E+00         0.00000E+00        -0.82045E+07
 
   -0.66450E+07         0.65294E+05         0.00000E+00
    0.65294E+05        -0.30679E+08         0.00000E+00
    0.00000E+00         0.00000E+00        -0.82361E+07
 
   -0.67887E+07         0.17509E+06         0.00000E+00
    0.17509E+06        -0.30805E+08         0.00000E+00
    0.00000E+00         0.00000E+00        -0.82518E+07
 
   -0.69386E+07         0.32171E+06         0.00000E+00
    0.32171E+06        -0.30912E+08         0.00000E+00
    0.00000E+00         0.00000E+00        -0.82385E+07
 
   -0.71010E+07         0.51002E+06         0.00000E+00
    0.51002E+06        -0.30994E+08         0.00000E+00
    0.00000E+00         0.00000E+00        -0.81870E+07
 
   -0.72843E+07         0.74833E+06         0.00000E+00
    0.74833E+06        -0.31057E+08         0.00000E+00
    0.00000E+00         0.00000E+00        -0.81042E+07
 
   -0.74899E+07         0.10456E+07         0.00000E+00
    0.10456E+07        -0.31116E+08         0.00000E+00
    0.00000E+00         0.00000E+00        -0.80199E+07
 
   -0.76929E+07         0.13940E+07         0.00000E+00
    0.13940E+07        -0.31169E+08         0.00000E+00
    0.00000E+00         0.00000E+00        -0.79643E+07
 
   -0.78643E+07         0.17683E+07         0.00000E+00
    0.17683E+07        -0.31204E+08         0.00000E+00
    0.00000E+00         0.00000E+00        -0.79548E+07
 
   -0.79877E+07         0.21426E+07         0.00000E+00
    0.21426E+07        -0.31221E+08         0.00000E+00
    0.00000E+00         0.00000E+00        -0.79994E+07
 
   -0.66809E+07        -0.41079E+05         0.00000E+00
   -0.41079E+05        -0.30918E+08         0.00000E+00
    0.00000E+00         0.00000E+00        -0.85373E+07
 
   -0.68387E+07        -0.10911E+06         0.00000E+00
   -0.10911E+06        -0.30978E+08         0.00000E+00
    0.00000E+00         0.00000E+00        -0.84373E+07
 
   -0.69928E+07        -0.16296E+06         0.00000E+00
   -0.16296E+06        -0.31084E+08         0.00000E+00
    0.00000E+00         0.00000E+00        -0.84101E+07
 
   -0.71331E+07        -0.19062E+06         0.00000E+00
   -0.19062E+06        -0.31219E+08         0.00000E+00
    0.00000E+00         0.00000E+00        -0.84410E+07
 
   -0.72572E+07        -0.18286E+06         0.00000E+00
   -0.18286E+06        -0.31368E+08         0.00000E+00
    0.00000E+00         0.00000E+00        -0.85082E+07
 
   -0.73680E+07        -0.13549E+06         0.00000E+00
   -0.13549E+06        -0.31516E+08         0.00000E+00
    0.00000E+00         0.00000E+00        -0.85901E+07
 
   -0.74714E+07        -0.47374E+05         0.00000E+00
   -0.47374E+05        -0.31657E+08         0.00000E+00
    0.00000E+00         0.00000E+00        -0.86690E+07
 
   -0.75733E+07         0.81692E+05         0.00000E+00
    0.81692E+05        -0.31783E+08         0.00000E+00
    0.00000E+00         0.00000E+00        -0.87306E+07
 
   -0.76796E+07         0.25205E+06         0.00000E+00
    0.25205E+06        -0.31888E+08         0.00000E+00
    0.00000E+00         0.00000E+00        -0.87636E+07
 
   -0.77963E+07         0.46436E+06         0.00000E+00
    0.46436E+06        -0.31968E+08         0.00000E+00
    0.00000E+00         0.00000E+00        -0.87613E+07
 
   -0.79293E+07         0.72068E+06         0.00000E+00
    0.72068E+06        -0.32023E+08         0.00000E+00
    0.00000E+00         0.00000E+00        -0.87237E+07
 
   -0.80805E+07         0.10255E+07         0.00000E+00
    0.10255E+07        -0.32059E+08         0.00000E+00
    0.00000E+00         0.00000E+00        -0.86647E+07
 
   -0.82435E+07         0.13750E+07         0.00000E+00
    0.13750E+07        -0.32085E+08         0.00000E+00
    0.00000E+00         0.00000E+00        -0.86136E+07
 
   -0.84042E+07         0.17472E+07         0.00000E+00
    0.17472E+07        -0.32110E+08         0.00000E+00
    0.00000E+00         0.00000E+00        -0.85964E+07
 
   -0.85588E+07         0.21063E+07         0.00000E+00
    0.21063E+07        -0.32141E+08         0.00000E+00
    0.00000E+00         0.00000E+00        -0.86172E+07
 
   -0.77726E+07        -0.71978E+05         0.00000E+00
   -0.71978E+05        -0.31914E+08         0.00000E+00
    0.00000E+00         0.00000E+00        -0.86902E+07
 
   -0.79147E+07        -0.19226E+06         0.00000E+00
   -0.19226E+06        -0.31978E+08         0.00000E+00
    0.00000E+00         0.00000E+00        -0.86284E+07
 
   -0.80385E+07        -0.28147E+06         0.00000E+00
   -0.28147E+06        -0.32093E+08         0.00000E+00
    0.00000E+00         0.00000E+00        -0.86565E+07
 
   -0.81365E+07        -0.32520E+06         0.00000E+00
   -0.32520E+06        -0.32233E+08         0.00000E+00
    0.00000E+00         0.00000E+00        -0.87448E+07
 
   -0.82131E+07        -0.31910E+06         0.00000E+00
   -0.31910E+06        -0.32381E+08         0.00000E+00
    0.00000E+00         0.00000E+00        -0.88641E+07
 
   -0.82759E+07        -0.26401E+06         0.00000E+00
   -0.26401E+06        -0.32528E+08         0.00000E+00
    0.00000E+00         0.00000E+00        -0.89935E+07
 
   -0.83315E+07        -0.16137E+06         0.00000E+00
   -0.16137E+06        -0.32665E+08         0.00000E+00
    0.00000E+00         0.00000E+00        -0.91171E+07
 
   -0.83863E+07        -0.12454E+05         0.00000E+00
   -0.12454E+05        -0.32788E+08         0.00000E+00
    0.00000E+00         0.00000E+00        -0.92229E+07
 
   -0.84461E+07         0.18145E+06         0.00000E+00
    0.18145E+06        -0.32890E+08         0.00000E+00
    0.00000E+00         0.00000E+00        -0.93014E+07
 
   -0.85169E+07         0.41881E+06         0.00000E+00
    0.41881E+06        -0.32968E+08         0.00000E+00
    0.00000E+00         0.00000E+00        -0.93463E+07
 
   -0.86043E+07         0.69810E+06         0.00000E+00
    0.69810E+06        -0.33021E+08         0.00000E+00
    0.00000E+00         0.00000E+00        -0.93565E+07
 
   -0.87131E+07         0.10166E+07         0.00000E+00
    0.10166E+07        -0.33054E+08         0.00000E+00
    0.00000E+00         0.00000E+00        -0.93390E+07
 
   -0.88462E+07         0.13665E+07         0.00000E+00
    0.13665E+07        -0.33075E+08         0.00000E+00
    0.00000E+00         0.00000E+00        -0.93096E+07
 
   -0.90020E+07         0.17312E+07         0.00000E+00
    0.17312E+07        -0.33093E+08         0.00000E+00
    0.00000E+00         0.00000E+00        -0.92832E+07
 
   -0.91691E+07         0.20923E+07         0.00000E+00
    0.20923E+07        -0.33104E+08         0.00000E+00
    0.00000E+00         0.00000E+00        -0.92628E+07
 
   -0.89769E+07        -0.10419E+06         0.00000E+00
   -0.10419E+06        -0.32960E+08         0.00000E+00
    0.00000E+00         0.00000E+00        -0.88427E+07
 
   -0.90884E+07        -0.28679E+06         0.00000E+00
   -0.28679E+06        -0.33033E+08         0.00000E+00
    0.00000E+00         0.00000E+00        -0.88348E+07
 
   -0.91580E+07        -0.40782E+06         0.00000E+00
   -0.40782E+06        -0.33151E+08         0.00000E+00
    0.00000E+00         0.00000E+00        -0.89286E+07
 
   -0.91955E+07        -0.46130E+06         0.00000E+00
   -0.46130E+06        -0.33286E+08         0.00000E+00
    0.00000E+00         0.00000E+00        -0.90731E+07
 
   -0.92139E+07        -0.45438E+06         0.00000E+00
   -0.45438E+06        -0.33428E+08         0.00000E+00
    0.00000E+00         0.00000E+00        -0.92399E+07
 
   -0.92209E+07        -0.39123E+06         0.00000E+00
   -0.39123E+06        -0.33567E+08         0.00000E+00
    0.00000E+00         0.00000E+00        -0.94126E+07
 
   -0.92229E+07        -0.27467E+06         0.00000E+00
   -0.27467E+06        -0.33699E+08         0.00000E+00
    0.00000E+00         0.00000E+00        -0.95785E+07
 
   -0.92258E+07        -0.10709E+06         0.00000E+00
   -0.10709E+06        -0.33817E+08         0.00000E+00
    0.00000E+00         0.00000E+00        -0.97275E+07
 
   -0.92362E+07         0.10885E+06         0.00000E+00
    0.10885E+06        -0.33916E+08         0.00000E+00
    0.00000E+00         0.00000E+00        -0.98512E+07
 
   -0.92609E+07         0.36966E+06         0.00000E+00
    0.36966E+06        -0.33995E+08         0.00000E+00
    0.00000E+00         0.00000E+00        -0.99436E+07
 
   -0.93071E+07         0.67032E+06         0.00000E+00
    0.67032E+06        -0.34051E+08         0.00000E+00
    0.00000E+00         0.00000E+00        -0.10002E+08
 
   -0.93827E+07         0.10037E+07         0.00000E+00
    0.10037E+07        -0.34089E+08         0.00000E+00
    0.00000E+00         0.00000E+00        -0.10027E+08
 
   -0.94943E+07         0.13605E+07         0.00000E+00
    0.13605E+07        -0.34111E+08         0.00000E+00
    0.00000E+00         0.00000E+00        -0.10022E+08
 
   -0.96425E+07         0.17302E+07         0.00000E+00
    0.17302E+07        -0.34121E+08         0.00000E+00
    0.00000E+00         0.00000E+00        -0.99921E+07
 
   -0.98187E+07         0.20993E+07         0.00000E+00
    0.20993E+07        -0.34117E+08         0.00000E+00
    0.00000E+00         0.00000E+00        -0.99422E+07
 
   -0.10302E+08        -0.14739E+06         0.00000E+00
   -0.14739E+06        -0.34085E+08         0.00000E+00
    0.00000E+00         0.00000E+00        -0.90363E+07
 
   -0.10354E+08        -0.38611E+06         0.00000E+00
   -0.38611E+06        -0.34147E+08         0.00000E+00
    0.00000E+00         0.00000E+00        -0.90786E+07
 
   -0.10340E+08        -0.53116E+06         0.00000E+00
   -0.53116E+06        -0.34247E+08         0.00000E+00
    0.00000E+00         0.00000E+00        -0.92275E+07
 
   -0.10304E+08        -0.59162E+06         0.00000E+00
   -0.59162E+06        -0.34372E+08         0.00000E+00
    0.00000E+00         0.00000E+00        -0.94228E+07
 
   -0.10257E+08        -0.58412E+06         0.00000E+00
   -0.58412E+06        -0.34502E+08         0.00000E+00
    0.00000E+00         0.00000E+00        -0.96319E+07
 
   -0.10202E+08        -0.51445E+06         0.00000E+00
   -0.51445E+06        -0.34632E+08         0.00000E+00
    0.00000E+00         0.00000E+00        -0.98443E+07
 
   -0.10144E+08        -0.38599E+06         0.00000E+00
   -0.38599E+06        -0.34755E+08         0.00000E+00
    0.00000E+00         0.00000E+00        -0.10050E+08
 
   -0.10091E+08        -0.20217E+06         0.00000E+00
   -0.20217E+06        -0.34867E+08         0.00000E+00
    0.00000E+00         0.00000E+00        -0.10241E+08
 
   -0.10050E+08         0.32951E+05         0.00000E+00
    0.32951E+05        -0.34964E+08         0.00000E+00
    0.00000E+00         0.00000E+00        -0.10409E+08
 
   -0.10029E+08         0.31380E+06         0.00000E+00
    0.31380E+06        -0.35044E+08         0.00000E+00
    0.00000E+00         0.00000E+00        -0.10547E+08
 
   -0.10037E+08         0.63323E+06         0.00000E+00
    0.63323E+06        -0.35105E+08         0.00000E+00
    0.00000E+00         0.00000E+00        -0.10651E+08
 
   -0.10083E+08         0.98297E+06         0.00000E+00
    0.98297E+06        -0.35149E+08         0.00000E+00
    0.00000E+00         0.00000E+00        -0.10716E+08
 
   -0.10176E+08         0.13544E+07         0.00000E+00
    0.13544E+07        -0.35175E+08         0.00000E+00
    0.00000E+00         0.00000E+00        -0.10737E+08
 
   -0.10316E+08         0.17380E+07         0.00000E+00
    0.17380E+07        -0.35182E+08         0.00000E+00
    0.00000E+00         0.00000E+00        -0.10713E+08
 
   -0.10501E+08         0.21212E+07         0.00000E+00
    0.21212E+07        -0.35169E+08         0.00000E+00
    0.00000E+00         0.00000E+00        -0.10647E+08
 
   -0.11756E+08        -0.19382E+06         0.00000E+00
   -0.19382E+06        -0.35223E+08         0.00000E+00
    0.00000E+00         0.00000E+00        -0.93958E+07
 
   -0.11701E+08        -0.48387E+06         0.00000E+00
   -0.48387E+06        -0.35287E+08         0.00000E+00
    0.00000E+00         0.00000E+00        -0.94236E+07
 
   -0.11570E+08        -0.64914E+06         0.00000E+00
   -0.64914E+06        -0.35370E+08         0.00000E+00
    0.00000E+00         0.00000E+00        -0.95527E+07
 
   -0.11459E+08        -0.71355E+06         0.00000E+00
   -0.71355E+06        -0.35481E+08         0.00000E+00
    0.00000E+00         0.00000E+00        -0.97879E+07
 
   -0.11340E+08        -0.70626E+06         0.00000E+00
   -0.70626E+06        -0.35599E+08         0.00000E+00
    0.00000E+00         0.00000E+00        -0.10036E+08
 
   -0.11217E+08        -0.63192E+06         0.00000E+00
   -0.63192E+06        -0.35717E+08         0.00000E+00
    0.00000E+00         0.00000E+00        -0.10286E+08
 
   -0.11096E+08        -0.49404E+06         0.00000E+00
   -0.49404E+06        -0.35830E+08         0.00000E+00
    0.00000E+00         0.00000E+00        -0.10529E+08
 
   -0.10984E+08        -0.29694E+06         0.00000E+00
   -0.29694E+06        -0.35935E+08         0.00000E+00
    0.00000E+00         0.00000E+00        -0.10759E+08
 
   -0.10889E+08        -0.46348E+05         0.00000E+00
   -0.46348E+05        -0.36029E+08         0.00000E+00
    0.00000E+00         0.00000E+00        -0.10968E+08
 
   -0.10821E+08         0.25080E+06         0.00000E+00
    0.25080E+06        -0.36109E+08         0.00000E+00
    0.00000E+00         0.00000E+00        -0.11148E+08
 
   -0.10791E+08         0.58693E+06         0.00000E+00
    0.58693E+06        -0.36174E+08         0.00000E+00
    0.00000E+00         0.00000E+00        -0.11294E+08
 
   -0.10809E+08         0.95404E+06         0.00000E+00
    0.95404E+06        -0.36224E+08         0.00000E+00
    0.00000E+00         0.00000E+00        -0.11396E+08
 
   -0.10882E+08         0.13440E+07         0.00000E+00
    0.13440E+07        -0.36255E+08         0.00000E+00
    0.00000E+00         0.00000E+00        -0.11446E+08
 
   -0.11015E+08         0.17474E+07         0.00000E+00
    0.17474E+07        -0.36265E+08         0.00000E+00
    0.00000E+00         0.00000E+00        -0.11438E+08
 
   -0.11207E+08         0.21512E+07         0.00000E+00
    0.21512E+07        -0.36250E+08         0.00000E+00
    0.00000E+00         0.00000E+00        -0.11368E+08
 
   -0.13324E+08        -0.23173E+06         0.00000E+00
   -0.23173E+06        -0.36359E+08         0.00000E+00
    0.00000E+00         0.00000E+00        -0.99365E+07
 
   -0.13131E+08        -0.56684E+06         0.00000E+00
   -0.56684E+06        -0.36418E+08         0.00000E+00
    0.00000E+00         0.00000E+00        -0.99099E+07
 
   -0.12851E+08        -0.76138E+06         0.00000E+00
   -0.76138E+06        -0.36515E+08         0.00000E+00
    0.00000E+00         0.00000E+00        -0.99337E+07
 
   -0.12655E+08        -0.83070E+06         0.00000E+00
   -0.83070E+06        -0.36609E+08         0.00000E+00
    0.00000E+00         0.00000E+00        -0.10170E+08
 
   -0.12462E+08        -0.82091E+06         0.00000E+00
   -0.82091E+06        -0.36716E+08         0.00000E+00
    0.00000E+00         0.00000E+00        -0.10452E+08
 
   -0.12267E+08        -0.74235E+06         0.00000E+00
   -0.74235E+06        -0.36821E+08         0.00000E+00
    0.00000E+00         0.00000E+00        -0.10735E+08
 
   -0.12078E+08        -0.59677E+06         0.00000E+00
   -0.59677E+06        -0.36922E+08         0.00000E+00
    0.00000E+00         0.00000E+00        -0.11012E+08
 
   -0.11903E+08        -0.38933E+06         0.00000E+00
   -0.38933E+06        -0.37017E+08         0.00000E+00
    0.00000E+00         0.00000E+00        -0.11275E+08
 
   -0.11753E+08        -0.12703E+06         0.00000E+00
   -0.12703E+06        -0.37103E+08         0.00000E+00
    0.00000E+00         0.00000E+00        -0.11519E+08
 
   -0.11639E+08         0.18282E+06         0.00000E+00
    0.18282E+06        -0.37181E+08         0.00000E+00
    0.00000E+00         0.00000E+00        -0.11736E+08
 
   -0.11570E+08         0.53289E+06         0.00000E+00
    0.53289E+06        -0.37248E+08         0.00000E+00
    0.00000E+00         0.00000E+00        -0.11919E+08
 
   -0.11557E+08         0.91635E+06         0.00000E+00
    0.91635E+06        -0.37302E+08         0.00000E+00
    0.00000E+00         0.00000E+00        -0.12057E+08
 
   -0.11608E+08         0.13258E+07         0.00000E+00
    0.13258E+07        -0.37341E+08         0.00000E+00
    0.00000E+00         0.00000E+00        -0.12140E+08
 
   -0.11731E+08         0.17518E+07         0.00000E+00
    0.17518E+07        -0.37358E+08         0.00000E+00
    0.00000E+00         0.00000E+00        -0.12157E+08
 
   -0.11928E+08         0.21814E+07         0.00000E+00
    0.21814E+07        -0.37348E+08         0.00000E+00
    0.00000E+00         0.00000E+00        -0.12097E+08
 
   -0.14982E+08        -0.25341E+06         0.00000E+00
   -0.25341E+06        -0.37577E+08         0.00000E+00
    0.00000E+00         0.00000E+00        -0.10512E+08
 
   -0.14634E+08        -0.63259E+06         0.00000E+00
   -0.63259E+06        -0.37609E+08         0.00000E+00
    0.00000E+00         0.00000E+00        -0.10449E+08
 
   -0.14202E+08        -0.85917E+06         0.00000E+00
   -0.85917E+06        -0.37684E+08         0.00000E+00
    0.00000E+00         0.00000E+00        -0.10396E+08
 
   -0.13881E+08        -0.94185E+06         0.00000E+00
   -0.94185E+06        -0.37761E+08         0.00000E+00
    0.00000E+00         0.00000E+00        -0.10581E+08
 
   -0.13617E+08        -0.92775E+06         0.00000E+00
   -0.92775E+06        -0.37853E+08         0.00000E+00
    0.00000E+00         0.00000E+00        -0.10885E+08
 
   -0.13348E+08        -0.84336E+06         0.00000E+00
   -0.84336E+06        -0.37942E+08         0.00000E+00
    0.00000E+00         0.00000E+00        -0.11194E+08
 
   -0.13089E+08        -0.69066E+06         0.00000E+00
   -0.69066E+06        -0.38026E+08         0.00000E+00
    0.00000E+00         0.00000E+00        -0.11495E+08
 
   -0.12851E+08        -0.47550E+06         0.00000E+00
   -0.47550E+06        -0.38106E+08         0.00000E+00
    0.00000E+00         0.00000E+00        -0.11784E+08
 
   -0.12645E+08        -0.20514E+06         0.00000E+00
   -0.20514E+06        -0.38181E+08         0.00000E+00
    0.00000E+00         0.00000E+00        -0.12054E+08
 
   -0.12482E+08         0.11314E+06         0.00000E+00
    0.11314E+06        -0.38252E+08         0.00000E+00
    0.00000E+00         0.00000E+00        -0.12301E+08
 
   -0.12372E+08         0.47315E+06         0.00000E+00
    0.47315E+06        -0.38318E+08         0.00000E+00
    0.00000E+00         0.00000E+00        -0.12516E+08
 
   -0.12325E+08         0.86942E+06         0.00000E+00
    0.86942E+06        -0.38377E+08         0.00000E+00
    0.00000E+00         0.00000E+00        -0.12691E+08
 
   -0.12351E+08         0.12963E+07         0.00000E+00
    0.12963E+07        -0.38424E+08         0.00000E+00
    0.00000E+00         0.00000E+00        -0.12812E+08
 
   -0.12460E+08         0.17454E+07         0.00000E+00
    0.17454E+07        -0.38453E+08         0.00000E+00
    0.00000E+00         0.00000E+00        -0.12862E+08
 
   -0.12659E+08         0.22039E+07         0.00000E+00
    0.22039E+07        -0.38456E+08         0.00000E+00
    0.00000E+00         0.00000E+00        -0.12825E+08
 
   -0.16712E+08        -0.27116E+06         0.00000E+00
   -0.27116E+06        -0.38824E+08         0.00000E+00
    0.00000E+00         0.00000E+00        -0.11107E+08
 
   -0.16197E+08        -0.68214E+06         0.00000E+00
   -0.68214E+06        -0.38849E+08         0.00000E+00
    0.00000E+00         0.00000E+00        -0.11009E+08
 
   -0.15615E+08        -0.93438E+06         0.00000E+00
   -0.93438E+06        -0.38894E+08         0.00000E+00
    0.00000E+00         0.00000E+00        -0.10906E+08
 
   -0.15148E+08        -0.10324E+07         0.00000E+00
   -0.10324E+07        -0.38950E+08         0.00000E+00
    0.00000E+00         0.00000E+00        -0.11025E+08
 
   -0.14802E+08        -0.10196E+07         0.00000E+00
   -0.10196E+07        -0.39014E+08         0.00000E+00
    0.00000E+00         0.00000E+00        -0.11341E+08
 
   -0.14457E+08        -0.92930E+06         0.00000E+00
   -0.92930E+06        -0.39078E+08         0.00000E+00
    0.00000E+00         0.00000E+00        -0.11662E+08
 
   -0.14127E+08        -0.77013E+06         0.00000E+00
   -0.77013E+06        -0.39139E+08         0.00000E+00
    0.00000E+00         0.00000E+00        -0.11976E+08
 
   -0.13826E+08        -0.54982E+06         0.00000E+00
   -0.54982E+06        -0.39197E+08         0.00000E+00
    0.00000E+00         0.00000E+00        -0.12279E+08
 
   -0.13565E+08        -0.27574E+06         0.00000E+00
   -0.27574E+06        -0.39256E+08         0.00000E+00
    0.00000E+00         0.00000E+00        -0.12565E+08
 
   -0.13354E+08         0.45745E+05         0.00000E+00
    0.45745E+05        -0.39315E+08         0.00000E+00
    0.00000E+00         0.00000E+00        -0.12833E+08
 
   -0.13200E+08         0.40981E+06         0.00000E+00
    0.40981E+06        -0.39377E+08         0.00000E+00
    0.00000E+00         0.00000E+00        -0.13076E+08
 
   -0.13115E+08         0.81310E+06         0.00000E+00
    0.81310E+06        -0.39439E+08         0.00000E+00
    0.00000E+00         0.00000E+00        -0.13287E+08
 
   -0.13109E+08         0.12525E+07         0.00000E+00
    0.12525E+07        -0.39497E+08         0.00000E+00
    0.00000E+00         0.00000E+00        -0.13450E+08
 
   -0.13197E+08         0.17224E+07         0.00000E+00
    0.17224E+07        -0.39542E+08         0.00000E+00
    0.00000E+00         0.00000E+00        -0.13546E+08
 
   -0.13393E+08         0.22109E+07         0.00000E+00
    0.22109E+07        -0.39564E+08         0.00000E+00
    0.00000E+00         0.00000E+00        -0.13546E+08
 
   -0.18502E+08        -0.28619E+06         0.00000E+00
   -0.28619E+06        -0.40100E+08         0.00000E+00
    0.00000E+00         0.00000E+00        -0.11721E+08
 
   -0.17812E+08        -0.72026E+06         0.00000E+00
   -0.72026E+06        -0.40117E+08         0.00000E+00
    0.00000E+00         0.00000E+00        -0.11586E+08
 
   -0.17074E+08        -0.98643E+06         0.00000E+00
   -0.98643E+06        -0.40142E+08         0.00000E+00
    0.00000E+00         0.00000E+00        -0.11443E+08
 
   -0.16451E+08        -0.10964E+07         0.00000E+00
   -0.10964E+07        -0.40170E+08         0.00000E+00
    0.00000E+00         0.00000E+00        -0.11498E+08
 
   -0.16014E+08        -0.10853E+07         0.00000E+00
   -0.10853E+07        -0.40199E+08         0.00000E+00
    0.00000E+00         0.00000E+00        -0.11819E+08
 
   -0.15590E+08        -0.99069E+06         0.00000E+00
   -0.99069E+06        -0.40229E+08         0.00000E+00
    0.00000E+00         0.00000E+00        -0.12139E+08
 
   -0.15191E+08        -0.82702E+06         0.00000E+00
   -0.82702E+06        -0.40257E+08         0.00000E+00
    0.00000E+00         0.00000E+00        -0.12451E+08
 
   -0.14830E+08        -0.60527E+06         0.00000E+00
   -0.60527E+06        -0.40286E+08         0.00000E+00
    0.00000E+00         0.00000E+00        -0.12753E+08
 
   -0.14516E+08        -0.33317E+06         0.00000E+00
   -0.33317E+06        -0.40321E+08         0.00000E+00
    0.00000E+00         0.00000E+00        -0.13044E+08
 
   -0.14256E+08        -0.15534E+05         0.00000E+00
   -0.15534E+05        -0.40365E+08         0.00000E+00
    0.00000E+00         0.00000E+00        -0.13324E+08
 
   -0.14058E+08         0.34504E+06         0.00000E+00
    0.34504E+06        -0.40420E+08         0.00000E+00
    0.00000E+00         0.00000E+00        -0.13590E+08
 
   -0.13930E+08         0.74755E+06         0.00000E+00
    0.74755E+06        -0.40484E+08         0.00000E+00
    0.00000E+00         0.00000E+00        -0.13836E+08
 
   -0.13885E+08         0.11920E+07         0.00000E+00
    0.11920E+07        -0.40553E+08         0.00000E+00
    0.00000E+00         0.00000E+00        -0.14047E+08
 
   -0.13942E+08         0.16769E+07         0.00000E+00
    0.16769E+07        -0.40619E+08         0.00000E+00
    0.00000E+00         0.00000E+00        -0.14199E+08
 
   -0.14126E+08         0.21936E+07         0.00000E+00
    0.21936E+07        -0.40667E+08         0.00000E+00
    0.00000E+00         0.00000E+00        -0.14252E+08
 
   -0.20339E+08        -0.29861E+06         0.00000E+00
   -0.29861E+06        -0.41400E+08         0.00000E+00
    0.00000E+00         0.00000E+00        -0.12348E+08
 
   -0.19462E+08        -0.74763E+06         0.00000E+00
   -0.74763E+06        -0.41408E+08         0.00000E+00
    0.00000E+00         0.00000E+00        -0.12174E+08
 
   -0.18562E+08        -0.10171E+07         0.00000E+00
   -0.10171E+07        -0.41414E+08         0.00000E+00
    0.00000E+00         0.00000E+00        -0.11995E+08
 
   -0.17785E+08        -0.11291E+07         0.00000E+00
   -0.11291E+07        -0.41412E+08         0.00000E+00
    0.00000E+00         0.00000E+00        -0.11995E+08
 
   -0.17249E+08        -0.11161E+07         0.00000E+00
   -0.11161E+07        -0.41401E+08         0.00000E+00
    0.00000E+00         0.00000E+00        -0.12311E+08
 
   -0.16745E+08        -0.10170E+07         0.00000E+00
   -0.10170E+07        -0.41387E+08         0.00000E+00
    0.00000E+00         0.00000E+00        -0.12619E+08
 
   -0.16281E+08        -0.85161E+06         0.00000E+00
   -0.85161E+06        -0.41373E+08         0.00000E+00
    0.00000E+00         0.00000E+00        -0.12914E+08
 
   -0.15865E+08        -0.63381E+06         0.00000E+00
   -0.63381E+06        -0.41365E+08         0.00000E+00
    0.00000E+00         0.00000E+00        -0.13199E+08
 
   -0.15502E+08        -0.37149E+06         0.00000E+00
   -0.37149E+06        -0.41370E+08         0.00000E+00
    0.00000E+00         0.00000E+00        -0.13481E+08
 
   -0.15196E+08        -0.67068E+05         0.00000E+00
   -0.67068E+05        -0.41395E+08         0.00000E+00
    0.00000E+00         0.00000E+00        -0.13764E+08
 
   -0.14952E+08         0.28028E+06         0.00000E+00
    0.28028E+06        -0.41442E+08         0.00000E+00
    0.00000E+00         0.00000E+00        -0.14050E+08
 
   -0.14778E+08         0.67248E+06         0.00000E+00
    0.67248E+06        -0.41508E+08         0.00000E+00
    0.00000E+00         0.00000E+00        -0.14331E+08
 
   -0.14685E+08         0.11123E+07         0.00000E+00
    0.11123E+07        -0.41590E+08         0.00000E+00
    0.00000E+00         0.00000E+00        -0.14594E+08
 
   -0.14697E+08         0.16033E+07         0.00000E+00
    0.16033E+07        -0.41679E+08         0.00000E+00
    0.00000E+00         0.00000E+00        -0.14813E+08
 
   -0.14855E+08         0.21447E+07         0.00000E+00
    0.21447E+07        -0.41762E+08         0.00000E+00
    0.00000E+00         0.00000E+00        -0.14938E+08
 
   -0.22212E+08        -0.30847E+06         0.00000E+00
   -0.30847E+06        -0.42716E+08         0.00000E+00
    0.00000E+00         0.00000E+00        -0.12986E+08
 
   -0.21135E+08        -0.76314E+06         0.00000E+00
   -0.76314E+06        -0.42717E+08         0.00000E+00
    0.00000E+00         0.00000E+00        -0.12770E+08
 
   -0.20062E+08        -0.10242E+07         0.00000E+00
   -0.10242E+07        -0.42701E+08         0.00000E+00
    0.00000E+00         0.00000E+00        -0.12553E+08
 
   -0.19138E+08        -0.11257E+07         0.00000E+00
   -0.11257E+07        -0.42664E+08         0.00000E+00
    0.00000E+00         0.00000E+00        -0.12511E+08
 
   -0.18498E+08        -0.11044E+07         0.00000E+00
   -0.11044E+07        -0.42607E+08         0.00000E+00
    0.00000E+00         0.00000E+00        -0.12808E+08
 
   -0.17918E+08        -0.99895E+06         0.00000E+00
   -0.99895E+06        -0.42543E+08         0.00000E+00
    0.00000E+00         0.00000E+00        -0.13090E+08
 
   -0.17396E+08        -0.83482E+06         0.00000E+00
   -0.83482E+06        -0.42479E+08         0.00000E+00
    0.00000E+00         0.00000E+00        -0.13353E+08
 
   -0.16934E+08        -0.62780E+06         0.00000E+00
   -0.62780E+06        -0.42427E+08         0.00000E+00
    0.00000E+00         0.00000E+00        -0.13608E+08
 
   -0.16529E+08        -0.38482E+06         0.00000E+00
   -0.38482E+06        -0.42397E+08         0.00000E+00
    0.00000E+00         0.00000E+00        -0.13869E+08
 
   -0.16180E+08        -0.10528E+06         0.00000E+00
   -0.10528E+06        -0.42399E+08         0.00000E+00
    0.00000E+00         0.00000E+00        -0.14146E+08
 
   -0.15889E+08         0.21626E+06         0.00000E+00
    0.21626E+06        -0.42436E+08         0.00000E+00
    0.00000E+00         0.00000E+00        -0.14444E+08
 
   -0.15664E+08         0.58663E+06         0.00000E+00
    0.58663E+06        -0.42506E+08         0.00000E+00
    0.00000E+00         0.00000E+00        -0.14761E+08
 
   -0.15516E+08         0.10116E+07         0.00000E+00
    0.10116E+07        -0.42605E+08         0.00000E+00
    0.00000E+00         0.00000E+00        -0.15082E+08
 
   -0.15467E+08         0.14973E+07         0.00000E+00
    0.14973E+07        -0.42720E+08         0.00000E+00
    0.00000E+00         0.00000E+00        -0.15382E+08
 
   -0.15580E+08         0.20494E+07         0.00000E+00
    0.20494E+07        -0.42843E+08         0.00000E+00
    0.00000E+00         0.00000E+00        -0.15595E+08
 
   -0.24109E+08        -0.31611E+06         0.00000E+00
   -0.31611E+06        -0.44045E+08         0.00000E+00
    0.00000E+00         0.00000E+00        -0.13631E+08
 
   -0.22809E+08        -0.76444E+06         0.00000E+00
   -0.76444E+06        -0.44036E+08         0.00000E+00
    0.00000E+00         0.00000E+00        -0.13369E+08
 
   -0.21555E+08        -0.10013E+07         0.00000E+00
   -0.10013E+07        -0.43994E+08         0.00000E+00
    0.00000E+00         0.00000E+00        -0.13110E+08
 
   -0.20491E+08        -0.10783E+07         0.00000E+00
   -0.10783E+07        -0.43912E+08         0.00000E+00
    0.00000E+00         0.00000E+00        -0.13030E+08
 
   -0.19752E+08        -0.10406E+07         0.00000E+00
   -0.10406E+07        -0.43800E+08         0.00000E+00
    0.00000E+00         0.00000E+00        -0.13296E+08
 
   -0.19105E+08        -0.92826E+06         0.00000E+00
   -0.92826E+06        -0.43677E+08         0.00000E+00
    0.00000E+00         0.00000E+00        -0.13537E+08
 
   -0.18539E+08        -0.77034E+06         0.00000E+00
   -0.77034E+06        -0.43560E+08         0.00000E+00
    0.00000E+00         0.00000E+00        -0.13755E+08
 
   -0.18043E+08        -0.58217E+06         0.00000E+00
   -0.58217E+06        -0.43462E+08         0.00000E+00
    0.00000E+00         0.00000E+00        -0.13969E+08
 
   -0.17605E+08        -0.36852E+06         0.00000E+00
   -0.36852E+06        -0.43396E+08         0.00000E+00
    0.00000E+00         0.00000E+00        -0.14199E+08
 
   -0.17219E+08        -0.12615E+06         0.00000E+00
   -0.12615E+06        -0.43372E+08         0.00000E+00
    0.00000E+00         0.00000E+00        -0.14459E+08
 
   -0.16881E+08         0.15454E+06         0.00000E+00
    0.15454E+06        -0.43395E+08         0.00000E+00
    0.00000E+00         0.00000E+00        -0.14763E+08
 
   -0.16599E+08         0.48717E+06         0.00000E+00
    0.48717E+06        -0.43470E+08         0.00000E+00
    0.00000E+00         0.00000E+00        -0.15113E+08
 
   -0.16386E+08         0.88397E+06         0.00000E+00
    0.88397E+06        -0.43591E+08         0.00000E+00
    0.00000E+00         0.00000E+00        -0.15500E+08
 
   -0.16265E+08         0.13533E+07         0.00000E+00
    0.13533E+07        -0.43743E+08         0.00000E+00
    0.00000E+00         0.00000E+00        -0.15895E+08
 
   -0.16304E+08         0.19066E+07         0.00000E+00
    0.19066E+07        -0.43909E+08         0.00000E+00
    0.00000E+00         0.00000E+00        -0.16222E+08
 
   -0.26014E+08        -0.32230E+06         0.00000E+00
   -0.32230E+06        -0.45381E+08         0.00000E+00
    0.00000E+00         0.00000E+00        -0.14279E+08
 
   -0.24462E+08        -0.74512E+06         0.00000E+00
   -0.74512E+06        -0.45358E+08         0.00000E+00
    0.00000E+00         0.00000E+00        -0.13964E+08
 
   -0.23020E+08        -0.93443E+06         0.00000E+00
   -0.93443E+06        -0.45274E+08         0.00000E+00
    0.00000E+00         0.00000E+00        -0.13659E+08
 
   -0.21829E+08        -0.97314E+06         0.00000E+00
   -0.97314E+06        -0.45132E+08         0.00000E+00
    0.00000E+00         0.00000E+00        -0.13538E+08
 
   -0.21004E+08        -0.91433E+06         0.00000E+00
   -0.91433E+06        -0.44952E+08         0.00000E+00
    0.00000E+00         0.00000E+00        -0.13752E+08
 
   -0.20308E+08        -0.79952E+06         0.00000E+00
   -0.79952E+06        -0.44767E+08         0.00000E+00
    0.00000E+00         0.00000E+00        -0.13939E+08
 
   -0.19713E+08        -0.65643E+06         0.00000E+00
   -0.65643E+06        -0.44597E+08         0.00000E+00
    0.00000E+00         0.00000E+00        -0.14104E+08
 
   -0.19197E+08        -0.49648E+06         0.00000E+00
   -0.49648E+06        -0.44458E+08         0.00000E+00
    0.00000E+00         0.00000E+00        -0.14272E+08
 
   -0.18738E+08        -0.32109E+06         0.00000E+00
   -0.32109E+06        -0.44359E+08         0.00000E+00
    0.00000E+00         0.00000E+00        -0.14465E+08
 
   -0.18322E+08        -0.12579E+06         0.00000E+00
   -0.12579E+06        -0.44309E+08         0.00000E+00
    0.00000E+00         0.00000E+00        -0.14701E+08
 
   -0.17941E+08         0.99833E+05         0.00000E+00
    0.99833E+05        -0.44316E+08         0.00000E+00
    0.00000E+00         0.00000E+00        -0.14998E+08
 
   -0.17598E+08         0.37400E+06         0.00000E+00
    0.37400E+06        -0.44389E+08         0.00000E+00
    0.00000E+00         0.00000E+00        -0.15372E+08
 
   -0.17309E+08         0.72153E+06         0.00000E+00
    0.72153E+06        -0.44533E+08         0.00000E+00
    0.00000E+00         0.00000E+00        -0.15825E+08
 
   -0.17096E+08         0.11619E+07         0.00000E+00
    0.11619E+07        -0.44732E+08         0.00000E+00
    0.00000E+00         0.00000E+00        -0.16334E+08
 
   -0.17025E+08         0.17110E+07         0.00000E+00
    0.17110E+07        -0.44955E+08         0.00000E+00
    0.00000E+00         0.00000E+00        -0.16817E+08
 
   -0.27910E+08        -0.32734E+06         0.00000E+00
   -0.32734E+06        -0.46715E+08         0.00000E+00
    0.00000E+00         0.00000E+00        -0.14925E+08
 
   -0.26053E+08        -0.68899E+06         0.00000E+00
   -0.68899E+06        -0.46666E+08         0.00000E+00
    0.00000E+00         0.00000E+00        -0.14544E+08
 
   -0.24432E+08        -0.79674E+06         0.00000E+00
   -0.79674E+06        -0.46512E+08         0.00000E+00
    0.00000E+00         0.00000E+00        -0.14189E+08
 
   -0.23142E+08        -0.79127E+06         0.00000E+00
   -0.79127E+06        -0.46281E+08         0.00000E+00
    0.00000E+00         0.00000E+00        -0.14005E+08
 
   -0.22253E+08        -0.71830E+06         0.00000E+00
   -0.71830E+06        -0.46026E+08         0.00000E+00
    0.00000E+00         0.00000E+00        -0.14145E+08
 
   -0.21531E+08        -0.61293E+06         0.00000E+00
   -0.61293E+06        -0.45782E+08         0.00000E+00
    0.00000E+00         0.00000E+00        -0.14268E+08
 
   -0.20926E+08        -0.49795E+06         0.00000E+00
   -0.49795E+06        -0.45569E+08         0.00000E+00
    0.00000E+00         0.00000E+00        -0.14381E+08
 
   -0.20400E+08        -0.37621E+06         0.00000E+00
   -0.37621E+06        -0.45398E+08         0.00000E+00
    0.00000E+00         0.00000E+00        -0.14507E+08
 
   -0.19930E+08        -0.24587E+06         0.00000E+00
   -0.24587E+06        -0.45275E+08         0.00000E+00
    0.00000E+00         0.00000E+00        -0.14665E+08
 
   -0.19496E+08        -0.10335E+06         0.00000E+00
   -0.10335E+06        -0.45205E+08         0.00000E+00
    0.00000E+00         0.00000E+00        -0.14873E+08
 
   -0.19084E+08         0.58841E+05         0.00000E+00
    0.58841E+05        -0.45196E+08         0.00000E+00
    0.00000E+00         0.00000E+00        -0.15151E+08
 
   -0.18684E+08         0.25666E+06         0.00000E+00
    0.25666E+06        -0.45261E+08         0.00000E+00
    0.00000E+00         0.00000E+00        -0.15528E+08
 
   -0.18302E+08         0.52234E+06         0.00000E+00
    0.52234E+06        -0.45414E+08         0.00000E+00
    0.00000E+00         0.00000E+00        -0.16031E+08
 
   -0.17973E+08         0.90591E+06         0.00000E+00
    0.90591E+06        -0.45670E+08         0.00000E+00
    0.00000E+00         0.00000E+00        -0.16670E+08
 
   -0.17747E+08         0.14344E+07         0.00000E+00
    0.14344E+07        -0.45982E+08         0.00000E+00
    0.00000E+00         0.00000E+00        -0.17374E+08
 
   -0.29759E+08        -0.32109E+06         0.00000E+00
   -0.32109E+06        -0.48030E+08         0.00000E+00
    0.00000E+00         0.00000E+00        -0.15558E+08
 
   -0.27528E+08        -0.54960E+06         0.00000E+00
   -0.54960E+06        -0.47898E+08         0.00000E+00
    0.00000E+00         0.00000E+00        -0.15085E+08
 
   -0.25775E+08        -0.55288E+06         0.00000E+00
   -0.55288E+06        -0.47619E+08         0.00000E+00
    0.00000E+00         0.00000E+00        -0.14679E+08
 
   -0.24436E+08        -0.51897E+06         0.00000E+00
   -0.51897E+06        -0.47304E+08         0.00000E+00
    0.00000E+00         0.00000E+00        -0.14400E+08
 
   -0.23510E+08        -0.45394E+06         0.00000E+00
   -0.45394E+06        -0.46971E+08         0.00000E+00
    0.00000E+00         0.00000E+00        -0.14431E+08
 
   -0.22788E+08        -0.37992E+06         0.00000E+00
   -0.37992E+06        -0.46688E+08         0.00000E+00
    0.00000E+00         0.00000E+00        -0.14499E+08
 
   -0.22185E+08        -0.30782E+06         0.00000E+00
   -0.30782E+06        -0.46453E+08         0.00000E+00
    0.00000E+00         0.00000E+00        -0.14572E+08
 
   -0.21658E+08        -0.23204E+06         0.00000E+00
   -0.23204E+06        -0.46267E+08         0.00000E+00
    0.00000E+00         0.00000E+00        -0.14667E+08
 
   -0.21185E+08        -0.15141E+06         0.00000E+00
   -0.15141E+06        -0.46133E+08         0.00000E+00
    0.00000E+00         0.00000E+00        -0.14797E+08
 
   -0.20743E+08        -0.64357E+05         0.00000E+00
   -0.64357E+05        -0.46055E+08         0.00000E+00
    0.00000E+00         0.00000E+00        -0.14980E+08
 
   -0.20313E+08         0.32875E+05         0.00000E+00
    0.32875E+05        -0.46038E+08         0.00000E+00
    0.00000E+00         0.00000E+00        -0.15236E+08
 
   -0.19875E+08         0.14918E+06         0.00000E+00
    0.14918E+06        -0.46094E+08         0.00000E+00
    0.00000E+00         0.00000E+00        -0.15597E+08
 
   -0.19412E+08         0.30653E+06         0.00000E+00
    0.30653E+06        -0.46243E+08         0.00000E+00
    0.00000E+00         0.00000E+00        -0.16112E+08
 
   -0.18919E+08         0.56392E+06         0.00000E+00
    0.56392E+06        -0.46520E+08         0.00000E+00
    0.00000E+00         0.00000E+00        -0.16854E+08
 
   -0.18481E+08         0.10420E+07         0.00000E+00
    0.10420E+07        -0.46978E+08         0.00000E+00
    0.00000E+00         0.00000E+00        -0.17879E+08
 
   -0.31451E+08        -0.20738E+06         0.00000E+00
   -0.20738E+06        -0.49201E+08         0.00000E+00
    0.00000E+00         0.00000E+00        -0.16133E+08
 
   -0.28853E+08        -0.22822E+06         0.00000E+00
   -0.22822E+06        -0.48829E+08         0.00000E+00
    0.00000E+00         0.00000E+00        -0.15536E+08
 
   -0.27070E+08        -0.20049E+06         0.00000E+00
   -0.20049E+06        -0.48423E+08         0.00000E+00
    0.00000E+00         0.00000E+00        -0.15098E+08
 
   -0.25748E+08        -0.18001E+06         0.00000E+00
   -0.18001E+06        -0.48053E+08         0.00000E+00
    0.00000E+00         0.00000E+00        -0.14760E+08
 
   -0.24787E+08        -0.15387E+06         0.00000E+00
   -0.15387E+06        -0.47742E+08         0.00000E+00
    0.00000E+00         0.00000E+00        -0.14581E+08
 
   -0.24092E+08        -0.12769E+06         0.00000E+00
   -0.12769E+06        -0.47461E+08         0.00000E+00
    0.00000E+00         0.00000E+00        -0.14617E+08
 
   -0.23495E+08        -0.10391E+06         0.00000E+00
   -0.10391E+06        -0.47229E+08         0.00000E+00
    0.00000E+00         0.00000E+00        -0.14670E+08
 
   -0.22973E+08        -0.78158E+05         0.00000E+00
   -0.78158E+05        -0.47047E+08         0.00000E+00
    0.00000E+00         0.00000E+00        -0.14747E+08
 
   -0.22502E+08        -0.50696E+05         0.00000E+00
   -0.50696E+05        -0.46918E+08         0.00000E+00
    0.00000E+00         0.00000E+00        -0.14861E+08
 
   -0.22059E+08        -0.21198E+05         0.00000E+00
   -0.21198E+05        -0.46848E+08         0.00000E+00
    0.00000E+00         0.00000E+00        -0.15029E+08
 
   -0.21625E+08         0.11347E+05         0.00000E+00
    0.11347E+05        -0.46840E+08         0.00000E+00
    0.00000E+00         0.00000E+00        -0.15270E+08
 
   -0.21173E+08         0.49425E+05         0.00000E+00
    0.49425E+05        -0.46904E+08         0.00000E+00
    0.00000E+00         0.00000E+00        -0.15614E+08
 
   -0.20668E+08         0.99440E+05         0.00000E+00
    0.99440E+05        -0.47059E+08         0.00000E+00
    0.00000E+00         0.00000E+00        -0.16118E+08
 
   -0.20053E+08         0.18356E+06         0.00000E+00
    0.18356E+06        -0.47349E+08         0.00000E+00
    0.00000E+00         0.00000E+00        -0.16902E+08
 
   -0.19240E+08         0.40668E+06         0.00000E+00
    0.40668E+06        -0.47880E+08         0.00000E+00
    0.00000E+00         0.00000E+00        -0.18252E+08
 
TENSORS stresstot double 
   -0.36700E+08         0.54905E+04         0.00000E+00
    0.54905E+04        -0.59993E+08         0.00000E+00
    0.00000E+00         0.00000E+00        -0.42575E+08
 
   -0.36704E+08         0.15497E+05         0.00000E+00
    0.15497E+05        -0.59972E+08         0.00000E+00
    0.00000E+00         0.00000E+00        -0.42519E+08
 
   -0.36709E+08         0.24319E+05         0.00000E+00
    0.24319E+05        -0.59932E+08         0.00000E+00
    0.00000E+00         0.00000E+00        -0.42419E+08
 
   -0.36722E+08         0.31604E+05         0.00000E+00
    0.31604E+05        -0.59876E+08         0.00000E+00
    0.00000E+00         0.00000E+00        -0.42265E+08
 
   -0.36754E+08         0.36985E+05         0.00000E+00
    0.36985E+05        -0.59807E+08         0.00000E+00
    0.00000E+00         0.00000E+00        -0.42049E+08
 
   -0.36810E+08         0.40300E+05         0.00000E+00
    0.40300E+05        -0.59731E+08         0.00000E+00
    0.00000E+00         0.00000E+00        -0.41772E+08
 
   -0.36893E+08         0.41855E+05         0.00000E+00
    0.41855E+05        -0.59649E+08         0.00000E+00
    0.00000E+00         0.00000E+00        -0.41445E+08
 
   -0.37028E+08         0.42019E+05         0.00000E+00
    0.42019E+05        -0.59567E+08         0.00000E+00
    0.00000E+00         0.00000E+00        -0.41107E+08
 
   -0.37669E+08         0.42970E+05         0.00000E+00
    0.42970E+05        -0.59484E+08         0.00000E+00
    0.00000E+00         0.00000E+00        -0.41139E+08
 
   -0.38354E+08         0.47623E+05         0.00000E+00
    0.47623E+05        -0.59394E+08         0.00000E+00
    0.00000E+00         0.00000E+00        -0.41233E+08
 
   -0.38996E+08         0.55829E+05         0.00000E+00
    0.55829E+05        -0.59291E+08         0.00000E+00
    0.00000E+00         0.00000E+00        -0.41319E+08
 
   -0.39606E+08         0.67257E+05         0.00000E+00
    0.67257E+05        -0.59168E+08         0.00000E+00
    0.00000E+00         0.00000E+00        -0.41399E+08
 
   -0.40196E+08         0.81678E+05         0.00000E+00
    0.81678E+05        -0.59020E+08         0.00000E+00
    0.00000E+00         0.00000E+00        -0.41472E+08
 
   -0.40775E+08         0.98939E+05         0.00000E+00
    0.98939E+05        -0.58839E+08         0.00000E+00
    0.00000E+00         0.00000E+00        -0.41542E+08
 
   -0.41352E+08         0.11894E+06         0.00000E+00
    0.11894E+06        -0.58622E+08         0.00000E+00
    0.00000E+00         0.00000E+00        -0.41609E+08
 
   -0.36680E+08         0.16301E+05         0.00000E+00
    0.16301E+05        -0.59993E+08         0.00000E+00
    0.00000E+00         0.00000E+00        -0.42540E+08
 
   -0.36685E+08         0.46199E+05         0.00000E+00
    0.46199E+05        -0.59972E+08         0.00000E+00
    0.00000E+00         0.00000E+00        -0.42482E+08
 
   -0.36692E+08         0.72546E+05         0.00000E+00
    0.72546E+05        -0.59933E+08         0.00000E+00
    0.00000E+00         0.00000E+00        -0.42379E+08
 
   -0.36709E+08         0.94167E+05         0.00000E+00
    0.94167E+05        -0.59878E+08         0.00000E+00
    0.00000E+00         0.00000E+00        -0.42222E+08
 
   -0.36745E+08         0.10995E+06         0.00000E+00
    0.10995E+06        -0.59812E+08         0.00000E+00
    0.00000E+00         0.00000E+00        -0.42003E+08
 
   -0.36805E+08         0.11950E+06         0.00000E+00
    0.11950E+06        -0.59737E+08         0.00000E+00
    0.00000E+00         0.00000E+00        -0.41725E+08
 
   -0.36891E+08         0.12385E+06         0.00000E+00
    0.12385E+06        -0.59659E+08         0.00000E+00
    0.00000E+00         0.00000E+00        -0.41400E+08
 
   -0.37029E+08         0.12423E+06         0.00000E+00
    0.12423E+06        -0.59581E+08         0.00000E+00
    0.00000E+00         0.00000E+00        -0.41066E+08
 
   -0.37664E+08         0.12737E+06         0.00000E+00
    0.12737E+06        -0.59500E+08         0.00000E+00
    0.00000E+00         0.00000E+00        -0.41099E+08
 
   -0.38341E+08         0.14157E+06         0.00000E+00
    0.14157E+06        -0.59413E+08         0.00000E+00
    0.00000E+00         0.00000E+00        -0.41192E+08
 
   -0.38976E+08         0.16633E+06         0.00000E+00
    0.16633E+06        -0.59312E+08         0.00000E+00
    0.00000E+00         0.00000E+00        -0.41277E+08
 
   -0.39581E+08         0.20068E+06         0.00000E+00
    0.20068E+06        -0.59192E+08         0.00000E+00
    0.00000E+00         0.00000E+00        -0.41356E+08
 
   -0.40164E+08         0.24395E+06         0.00000E+00
    0.24395E+06        -0.59046E+08         0.00000E+00
    0.00000E+00         0.00000E+00        -0.41429E+08
 
   -0.40737E+08         0.29571E+06         0.00000E+00
    0.29571E+06        -0.58868E+08         0.00000E+00
    0.00000E+00         0.00000E+00        -0.41498E+08
 
   -0.41309E+08         0.35567E+06         0.00000E+00
    0.35567E+06        -0.58653E+08         0.00000E+00
    0.00000E+00         0.00000E+00        -0.41564E+08
 
   -0.36638E+08         0.26588E+05         0.00000E+00
    0.26588E+05        -0.59993E+08         0.00000E+00
    0.00000E+00         0.00000E+00        -0.42469E+08
 
   -0.36648E+08         0.75886E+05         0.00000E+00
    0.75886E+05        -0.59974E+08         0.00000E+00
    0.00000E+00         0.00000E+00        -0.42408E+08
 
   -0.36660E+08         0.11942E+06         0.00000E+00
    0.11942E+06        -0.59936E+08         0.00000E+00
    0.00000E+00         0.00000E+00        -0.42300E+08
 
   -0.36684E+08         0.15465E+06         0.00000E+00
    0.15465E+06        -0.59884E+08         0.00000E+00
    0.00000E+00         0.00000E+00        -0.42136E+08
 
   -0.36728E+08         0.17974E+06         0.00000E+00
    0.17974E+06        -0.59821E+08         0.00000E+00
    0.00000E+00         0.00000E+00        -0.41911E+08
 
   -0.36796E+08         0.19457E+06         0.00000E+00
    0.19457E+06        -0.59752E+08         0.00000E+00
    0.00000E+00         0.00000E+00        -0.41633E+08
 
   -0.36889E+08         0.20083E+06         0.00000E+00
    0.20083E+06        -0.59680E+08         0.00000E+00
    0.00000E+00         0.00000E+00        -0.41311E+08
 
   -0.37030E+08         0.20111E+06         0.00000E+00
    0.20111E+06        -0.59608E+08         0.00000E+00
    0.00000E+00         0.00000E+00        -0.40985E+08
 
   -0.37652E+08         0.20724E+06         0.00000E+00
    0.20724E+06        -0.59534E+08         0.00000E+00
    0.00000E+00         0.00000E+00        -0.41017E+08
 
   -0.38315E+08         0.23169E+06         0.00000E+00
    0.23169E+06        -0.59452E+08         0.00000E+00
    0.00000E+00         0.00000E+00        -0.41109E+08
 
   -0.38937E+08         0.27344E+06         0.00000E+00
    0.27344E+06        -0.59356E+08         0.00000E+00
    0.00000E+00         0.00000E+00        -0.41192E+08
 
   -0.39529E+08         0.33088E+06         0.00000E+00
    0.33088E+06        -0.59240E+08         0.00000E+00
    0.00000E+00         0.00000E+00        -0.41269E+08
 
   -0.40101E+08         0.40299E+06         0.00000E+00
    0.40299E+06        -0.59098E+08         0.00000E+00
    0.00000E+00         0.00000E+00        -0.41341E+08
 
   -0.40663E+08         0.48916E+06         0.00000E+00
    0.48916E+06        -0.58924E+08         0.00000E+00
    0.00000E+00         0.00000E+00        -0.41409E+08
 
   -0.41224E+08         0.58897E+06         0.00000E+00
    0.58897E+06        -0.58714E+08         0.00000E+00
    0.00000E+00         0.00000E+00        -0.41474E+08
 
   -0.36578E+08         0.35941E+05         0.00000E+00
    0.35941E+05        -0.59993E+08         0.00000E+00
    0.00000E+00         0.00000E+00        -0.42362E+08
 
   -0.36592E+08         0.10360E+06         0.00000E+00
    0.10360E+06        -0.59976E+08         0.00000E+00
    0.00000E+00         0.00000E+00        -0.42296E+08
 
   -0.36613E+08         0.16347E+06         0.00000E+00
    0.16347E+06        -0.59942E+08         0.00000E+00
    0.00000E+00         0.00000E+00        -0.42182E+08
 
   -0.36648E+08         0.21121E+06         0.00000E+00
    0.21121E+06        -0.59894E+08         0.00000E+00
    0.00000E+00         0.00000E+00        -0.42008E+08
 
   -0.36705E+08         0.24405E+06         0.00000E+00
    0.24405E+06        -0.59837E+08         0.00000E+00
    0.00000E+00         0.00000E+00        -0.41777E+08
 
   -0.36784E+08         0.26279E+06         0.00000E+00
    0.26279E+06        -0.59776E+08         0.00000E+00
    0.00000E+00         0.00000E+00        -0.41496E+08
 
   -0.36886E+08         0.26988E+06         0.00000E+00
    0.26988E+06        -0.59712E+08         0.00000E+00
    0.00000E+00         0.00000E+00        -0.41179E+08
 
   -0.37031E+08         0.26967E+06         0.00000E+00
    0.26967E+06        -0.59649E+08         0.00000E+00
    0.00000E+00         0.00000E+00        -0.40863E+08
 
   -0.37633E+08         0.27985E+06         0.00000E+00
    0.27985E+06        -0.59584E+08         0.00000E+00
    0.00000E+00         0.00000E+00        -0.40895E+08
 
   -0.38274E+08         0.31574E+06         0.00000E+00
    0.31574E+06        -0.59510E+08         0.00000E+00
    0.00000E+00         0.00000E+00        -0.40984E+08
 
   -0.38877E+08         0.37510E+06         0.00000E+00
    0.37510E+06        -0.59421E+08         0.00000E+00
    0.00000E+00         0.00000E+00        -0.41065E+08
 
   -0.39451E+08         0.45579E+06         0.00000E+00
    0.45579E+06        -0.59311E+08         0.00000E+00
    0.00000E+00         0.00000E+00        -0.41140E+08
 
   -0.40006E+08         0.55669E+06         0.00000E+00
    0.55669E+06        -0.59176E+08         0.00000E+00
    0.00000E+00         0.00000E+00        -0.41210E+08
 
   -0.40551E+08         0.67710E+06         0.00000E+00
    0.67710E+06        -0.59009E+08         0.00000E+00
    0.00000E+00         0.00000E+00        -0.41276E+08
 
   -0.41097E+08         0.81654E+06         0.00000E+00
    0.81654E+06        -0.58805E+08         0.00000E+00
    0.00000E+00         0.00000E+00        -0.41339E+08
 
   -0.36499E+08         0.43926E+05         0.00000E+00
    0.43926E+05        -0.59993E+08         0.00000E+00
    0.00000E+00         0.00000E+00        -0.42216E+08
 
   -0.36519E+08         0.12803E+06         0.00000E+00
    0.12803E+06        -0.59979E+08         0.00000E+00
    0.00000E+00         0.00000E+00        -0.42146E+08
 
   -0.36551E+08         0.20255E+06         0.00000E+00
    0.20255E+06        -0.59950E+08         0.00000E+00
    0.00000E+00         0.00000E+00        -0.42024E+08
 
   -0.36603E+08         0.26114E+06         0.00000E+00
    0.26114E+06        -0.59911E+08         0.00000E+00
    0.00000E+00         0.00000E+00        -0.41840E+08
 
   -0.36676E+08         0.30040E+06         0.00000E+00
    0.30040E+06        -0.59863E+08         0.00000E+00
    0.00000E+00         0.00000E+00        -0.41600E+08
 
   -0.36771E+08         0.32151E+06         0.00000E+00
    0.32151E+06        -0.59811E+08         0.00000E+00
    0.00000E+00         0.00000E+00        -0.41318E+08
 
   -0.36883E+08         0.32850E+06         0.00000E+00
    0.32850E+06        -0.59759E+08         0.00000E+00
    0.00000E+00         0.00000E+00        -0.41009E+08
 
   -0.37032E+08         0.32767E+06         0.00000E+00
    0.32767E+06        -0.59707E+08         0.00000E+00
    0.00000E+00         0.00000E+00        -0.40704E+08
 
   -0.37605E+08         0.34297E+06         0.00000E+00
    0.34297E+06        -0.59653E+08         0.00000E+00
    0.00000E+00         0.00000E+00        -0.40732E+08
 
   -0.38218E+08         0.39193E+06         0.00000E+00
    0.39193E+06        -0.59588E+08         0.00000E+00
    0.00000E+00         0.00000E+00        -0.40818E+08
 
   -0.38796E+08         0.46938E+06         0.00000E+00
    0.46938E+06        -0.59507E+08         0.00000E+00
    0.00000E+00         0.00000E+00        -0.40896E+08
 
   -0.39347E+08         0.57343E+06         0.00000E+00
    0.57343E+06        -0.59406E+08         0.00000E+00
    0.00000E+00         0.00000E+00        -0.40969E+08
 
   -0.39879E+08         0.70296E+06         0.00000E+00
    0.70296E+06        -0.59278E+08         0.00000E+00
    0.00000E+00         0.00000E+00        -0.41036E+08
 
   -0.40403E+08         0.85732E+06         0.00000E+00
    0.85732E+06        -0.59120E+08         0.00000E+00
    0.00000E+00         0.00000E+00        -0.41099E+08
 
   -0.40927E+08         0.10361E+07         0.00000E+00
    0.10361E+07        -0.58925E+08         0.00000E+00
    0.00000E+00         0.00000E+00        -0.41160E+08
 
   -0.36406E+08         0.50239E+05         0.00000E+00
    0.50239E+05        -0.59993E+08         0.00000E+00
    0.00000E+00         0.00000E+00        -0.42027E+08
 
   -0.36432E+08         0.14758E+06         0.00000E+00
    0.14758E+06        -0.59982E+08         0.00000E+00
    0.00000E+00         0.00000E+00        -0.41955E+08
 
   -0.36478E+08         0.23377E+06         0.00000E+00
    0.23377E+06        -0.59962E+08         0.00000E+00
    0.00000E+00         0.00000E+00        -0.41824E+08
 
   -0.36549E+08         0.30091E+06         0.00000E+00
    0.30091E+06        -0.59934E+08         0.00000E+00
    0.00000E+00         0.00000E+00        -0.41631E+08
 
   -0.36644E+08         0.34548E+06         0.00000E+00
    0.34548E+06        -0.59900E+08         0.00000E+00
    0.00000E+00         0.00000E+00        -0.41384E+08
 
   -0.36757E+08         0.36866E+06         0.00000E+00
    0.36866E+06        -0.59861E+08         0.00000E+00
    0.00000E+00         0.00000E+00        -0.41103E+08
 
   -0.36881E+08         0.37511E+06         0.00000E+00
    0.37511E+06        -0.59820E+08         0.00000E+00
    0.00000E+00         0.00000E+00        -0.40803E+08
 
   -0.37033E+08         0.37346E+06         0.00000E+00
    0.37346E+06        -0.59779E+08         0.00000E+00
    0.00000E+00         0.00000E+00        -0.40511E+08
 
   -0.37565E+08         0.39532E+06         0.00000E+00
    0.39532E+06        -0.59738E+08         0.00000E+00
    0.00000E+00         0.00000E+00        -0.40528E+08
 
   -0.38147E+08         0.45844E+06         0.00000E+00
    0.45844E+06        -0.59685E+08         0.00000E+00
    0.00000E+00         0.00000E+00        -0.40611E+08
 
   -0.38695E+08         0.55452E+06         0.00000E+00
    0.55452E+06        -0.59614E+08         0.00000E+00
    0.00000E+00         0.00000E+00        -0.40686E+08
 
   -0.39217E+08         0.68195E+06         0.00000E+00
    0.68195E+06        -0.59523E+08         0.00000E+00
    0.00000E+00         0.00000E+00        -0.40755E+08
 
   -0.39722E+08         0.83980E+06         0.00000E+00
    0.83980E+06        -0.59406E+08         0.00000E+00
    0.00000E+00         0.00000E+00        -0.40819E+08
 
   -0.40218E+08         0.10276E+07         0.00000E+00
    0.10276E+07        -0.59258E+08         0.00000E+00
    0.00000E+00         0.00000E+00        -0.40879E+08
 
   -0.40715E+08         0.12453E+07         0.00000E+00
    0.12453E+07        -0.59074E+08         0.00000E+00
    0.00000E+00         0.00000E+00        -0.40936E+08
 
   -0.36301E+08         0.54660E+05         0.00000E+00
    0.54660E+05        -0.59993E+08         0.00000E+00
    0.00000E+00         0.00000E+00        -0.41792E+08
 
   -0.36334E+08         0.16086E+06         0.00000E+00
    0.16086E+06        -0.59987E+08         0.00000E+00
    0.00000E+00         0.00000E+00        -0.41717E+08
 
   -0.36397E+08         0.25377E+06         0.00000E+00
    0.25377E+06        -0.59977E+08         0.00000E+00
    0.00000E+00         0.00000E+00        -0.41578E+08
 
   -0.36491E+08         0.32590E+06         0.00000E+00
    0.32590E+06        -0.59964E+08         0.00000E+00
    0.00000E+00         0.00000E+00        -0.41378E+08
 
   -0.36609E+08         0.37494E+06         0.00000E+00
    0.37494E+06        -0.59948E+08         0.00000E+00
    0.00000E+00         0.00000E+00        -0.41132E+08
 
   -0.36742E+08         0.40186E+06         0.00000E+00
    0.40186E+06        -0.59927E+08         0.00000E+00
    0.00000E+00         0.00000E+00        -0.40856E+08
 
   -0.36881E+08         0.40967E+06         0.00000E+00
    0.40967E+06        -0.59901E+08         0.00000E+00
    0.00000E+00         0.00000E+00        -0.40567E+08
 
   -0.37033E+08         0.40658E+06         0.00000E+00
    0.40658E+06        -0.59870E+08         0.00000E+00
    0.00000E+00         0.00000E+00        -0.40286E+08
 
   -0.37513E+08         0.43540E+06         0.00000E+00
    0.43540E+06        -0.59842E+08         0.00000E+00
    0.00000E+00         0.00000E+00        -0.40284E+08
 
   -0.38058E+08         0.51385E+06         0.00000E+00
    0.51385E+06        -0.59801E+08         0.00000E+00
    0.00000E+00         0.00000E+00        -0.40362E+08
 
   -0.38572E+08         0.62902E+06         0.00000E+00
    0.62902E+06        -0.59741E+08         0.00000E+00
    0.00000E+00         0.00000E+00        -0.40433E+08
 
   -0.39062E+08         0.77964E+06         0.00000E+00
    0.77964E+06        -0.59661E+08         0.00000E+00
    0.00000E+00         0.00000E+00        -0.40498E+08
 
   -0.39534E+08         0.96528E+06         0.00000E+00
    0.96528E+06        -0.59556E+08         0.00000E+00
    0.00000E+00         0.00000E+00        -0.40559E+08
 
   -0.39998E+08         0.11859E+07         0.00000E+00
    0.11859E+07        -0.59421E+08         0.00000E+00
    0.00000E+00         0.00000E+00        -0.40615E+08
 
   -0.40462E+08         0.14417E+07         0.00000E+00
    0.14417E+07        -0.59251E+08         0.00000E+00
    0.00000E+00         0.00000E+00        -0.40669E+08
 
   -0.36188E+08         0.57028E+05         0.00000E+00
    0.57028E+05        -0.59994E+08         0.00000E+00
    0.00000E+00         0.00000E+00        -0.41506E+08
 
   -0.36231E+08         0.16640E+06         0.00000E+00
    0.16640E+06        -0.59993E+08         0.00000E+00
    0.00000E+00         0.00000E+00        -0.41426E+08
 
   -0.36312E+08         0.25953E+06         0.00000E+00
    0.25953E+06        -0.59995E+08         0.00000E+00
    0.00000E+00         0.00000E+00        -0.41280E+08
 
   -0.36429E+08         0.33167E+06         0.00000E+00
    0.33167E+06        -0.60000E+08         0.00000E+00
    0.00000E+00         0.00000E+00        -0.41079E+08
 
   -0.36569E+08         0.38384E+06         0.00000E+00
    0.38384E+06        -0.60006E+08         0.00000E+00
    0.00000E+00         0.00000E+00        -0.40843E+08
 
   -0.36723E+08         0.41682E+06         0.00000E+00
    0.41682E+06        -0.60007E+08         0.00000E+00
    0.00000E+00         0.00000E+00        -0.40583E+08
 
   -0.36880E+08         0.43034E+06         0.00000E+00
    0.43034E+06        -0.60000E+08         0.00000E+00
    0.00000E+00         0.00000E+00        -0.40308E+08
 
   -0.37033E+08         0.42857E+06         0.00000E+00
    0.42857E+06        -0.59985E+08         0.00000E+00
    0.00000E+00         0.00000E+00        -0.40034E+08
 
   -0.37447E+08         0.46313E+06         0.00000E+00
    0.46313E+06        -0.59964E+08         0.00000E+00
    0.00000E+00         0.00000E+00        -0.40000E+08
 
   -0.37953E+08         0.55750E+06         0.00000E+00
    0.55750E+06        -0.59935E+08         0.00000E+00
    0.00000E+00         0.00000E+00        -0.40074E+08
 
   -0.38429E+08         0.69152E+06         0.00000E+00
    0.69152E+06        -0.59889E+08         0.00000E+00
    0.00000E+00         0.00000E+00        -0.40140E+08
 
   -0.38881E+08         0.86508E+06         0.00000E+00
    0.86508E+06        -0.59821E+08         0.00000E+00
    0.00000E+00         0.00000E+00        -0.40201E+08
 
   -0.39316E+08         0.10777E+07         0.00000E+00
    0.10777E+07        -0.59729E+08         0.00000E+00
    0.00000E+00         0.00000E+00        -0.40257E+08
 
   -0.39742E+08         0.13299E+07         0.00000E+00
    0.13299E+07        -0.59609E+08         0.00000E+00
    0.00000E+00         0.00000E+00        -0.40309E+08
 
   -0.40169E+08         0.16228E+07         0.00000E+00
    0.16228E+07        -0.59454E+08         0.00000E+00
    0.00000E+00         0.00000E+00        -0.40358E+08
 
   -0.36073E+08         0.56870E+05         0.00000E+00
    0.56870E+05        -0.59995E+08         0.00000E+00
    0.00000E+00         0.00000E+00        -0.41164E+08
 
   -0.36129E+08         0.16269E+06         0.00000E+00
    0.16269E+06        -0.60001E+08         0.00000E+00
    0.00000E+00         0.00000E+00        -0.41076E+08
 
   -0.36232E+08         0.24870E+06         0.00000E+00
    0.24870E+06        -0.60017E+08         0.00000E+00
    0.00000E+00         0.00000E+00        -0.40921E+08
 
   -0.36368E+08         0.31592E+06         0.00000E+00
    0.31592E+06        -0.60041E+08         0.00000E+00
    0.00000E+00         0.00000E+00        -0.40729E+08
 
   -0.36525E+08         0.36818E+06         0.00000E+00
    0.36818E+06        -0.60070E+08         0.00000E+00
    0.00000E+00         0.00000E+00        -0.40513E+08
 
   -0.36696E+08         0.40778E+06         0.00000E+00
    0.40778E+06        -0.60098E+08         0.00000E+00
    0.00000E+00         0.00000E+00        -0.40281E+08
 
   -0.36872E+08         0.43392E+06         0.00000E+00
    0.43392E+06        -0.60116E+08         0.00000E+00
    0.00000E+00         0.00000E+00        -0.40033E+08
 
   -0.37040E+08         0.44191E+06         0.00000E+00
    0.44191E+06        -0.60117E+08         0.00000E+00
    0.00000E+00         0.00000E+00        -0.39774E+08
 
   -0.37362E+08         0.47794E+06         0.00000E+00
    0.47794E+06        -0.60105E+08         0.00000E+00
    0.00000E+00         0.00000E+00        -0.39676E+08
 
   -0.37830E+08         0.58775E+06         0.00000E+00
    0.58775E+06        -0.60089E+08         0.00000E+00
    0.00000E+00         0.00000E+00        -0.39745E+08
 
   -0.38264E+08         0.74128E+06         0.00000E+00
    0.74128E+06        -0.60055E+08         0.00000E+00
    0.00000E+00         0.00000E+00        -0.39807E+08
 
   -0.38676E+08         0.93739E+06         0.00000E+00
    0.93739E+06        -0.60001E+08         0.00000E+00
    0.00000E+00         0.00000E+00        -0.39862E+08
 
   -0.39070E+08         0.11755E+07         0.00000E+00
    0.11755E+07        -0.59923E+08         0.00000E+00
    0.00000E+00         0.00000E+00        -0.39913E+08
 
   -0.39454E+08         0.14575E+07         0.00000E+00
    0.14575E+07        -0.59819E+08         0.00000E+00
    0.00000E+00         0.00000E+00        -0.39961E+08
 
   -0.39835E+08         0.17860E+07         0.00000E+00
    0.17860E+07        -0.59683E+08         0.00000E+00
    0.00000E+00         0.00000E+00        -0.40005E+08
 
   -0.35962E+08         0.53334E+05         0.00000E+00
    0.53334E+05        -0.59998E+08         0.00000E+00
    0.00000E+00         0.00000E+00        -0.40762E+08
 
   -0.36037E+08         0.14768E+06         0.00000E+00
    0.14768E+06        -0.60012E+08         0.00000E+00
    0.00000E+00         0.00000E+00        -0.40658E+08
 
   -0.36160E+08         0.22072E+06         0.00000E+00
    0.22072E+06        -0.60041E+08         0.00000E+00
    0.00000E+00         0.00000E+00        -0.40500E+08
 
   -0.36311E+08         0.27847E+06         0.00000E+00
    0.27847E+06        -0.60084E+08         0.00000E+00
    0.00000E+00         0.00000E+00        -0.40323E+08
 
   -0.36479E+08         0.32681E+06         0.00000E+00
    0.32681E+06        -0.60136E+08         0.00000E+00
    0.00000E+00         0.00000E+00        -0.40138E+08
 
   -0.36659E+08         0.37013E+06         0.00000E+00
    0.37013E+06        -0.60190E+08         0.00000E+00
    0.00000E+00         0.00000E+00        -0.39946E+08
 
   -0.36847E+08         0.41019E+06         0.00000E+00
    0.41019E+06        -0.60239E+08         0.00000E+00
    0.00000E+00         0.00000E+00        -0.39740E+08
 
   -0.37036E+08         0.44219E+06         0.00000E+00
    0.44219E+06        -0.60270E+08         0.00000E+00
    0.00000E+00         0.00000E+00        -0.39511E+08
 
   -0.37272E+08         0.48447E+06         0.00000E+00
    0.48447E+06        -0.60269E+08         0.00000E+00
    0.00000E+00         0.00000E+00        -0.39335E+08
 
   -0.37690E+08         0.60431E+06         0.00000E+00
    0.60431E+06        -0.60261E+08         0.00000E+00
    0.00000E+00         0.00000E+00        -0.39377E+08
 
   -0.38079E+08         0.77875E+06         0.00000E+00
    0.77875E+06        -0.60241E+08         0.00000E+00
    0.00000E+00         0.00000E+00        -0.39433E+08
 
   -0.38448E+08         0.99602E+06         0.00000E+00
    0.99602E+06        -0.60199E+08         0.00000E+00
    0.00000E+00         0.00000E+00        -0.39484E+08
 
   -0.38798E+08         0.12577E+07         0.00000E+00
    0.12577E+07        -0.60136E+08         0.00000E+00
    0.00000E+00         0.00000E+00        -0.39530E+08
 
   -0.39134E+08         0.15665E+07         0.00000E+00
    0.15665E+07        -0.60050E+08         0.00000E+00
    0.00000E+00         0.00000E+00        -0.39571E+08
 
   -0.39464E+08         0.19278E+07         0.00000E+00
    0.19278E+07        -0.59936E+08         0.00000E+00
    0.00000E+00         0.00000E+00        -0.39610E+08
 
   -0.35862E+08         0.45065E+05         0.00000E+00
    0.45065E+05        -0.60001E+08         0.00000E+00
    0.00000E+00         0.00000E+00        -0.40291E+08
 
   -0.35962E+08         0.12026E+06         0.00000E+00
    0.12026E+06        -0.60024E+08         0.00000E+00
    0.00000E+00         0.00000E+00        -0.40167E+08
 
   -0.36102E+08         0.17569E+06         0.00000E+00
    0.17569E+06        -0.60068E+08         0.00000E+00
    0.00000E+00         0.00000E+00        -0.40015E+08
 
   -0.36263E+08         0.22036E+06         0.00000E+00
    0.22036E+06        -0.60130E+08         0.00000E+00
    0.00000E+00         0.00000E+00        -0.39862E+08
 
   -0.36436E+08         0.26128E+06         0.00000E+00
    0.26128E+06        -0.60202E+08         0.00000E+00
    0.00000E+00         0.00000E+00        -0.39714E+08
 
   -0.36615E+08         0.30426E+06         0.00000E+00
    0.30426E+06        -0.60280E+08         0.00000E+00
    0.00000E+00         0.00000E+00        -0.39568E+08
 
   -0.36802E+08         0.35369E+06         0.00000E+00
    0.35369E+06        -0.60355E+08         0.00000E+00
    0.00000E+00         0.00000E+00        -0.39415E+08
 
   -0.36997E+08         0.41164E+06         0.00000E+00
    0.41164E+06        -0.60418E+08         0.00000E+00
    0.00000E+00         0.00000E+00        -0.39237E+08
 
   -0.37200E+08         0.48443E+06         0.00000E+00
    0.48443E+06        -0.60456E+08         0.00000E+00
    0.00000E+00         0.00000E+00        -0.39032E+08
 
   -0.37518E+08         0.61078E+06         0.00000E+00
    0.61078E+06        -0.60458E+08         0.00000E+00
    0.00000E+00         0.00000E+00        -0.38971E+08
 
   -0.37875E+08         0.80274E+06         0.00000E+00
    0.80274E+06        -0.60444E+08         0.00000E+00
    0.00000E+00         0.00000E+00        -0.39022E+08
 
   -0.38198E+08         0.10414E+07         0.00000E+00
    0.10414E+07        -0.60415E+08         0.00000E+00
    0.00000E+00         0.00000E+00        -0.39067E+08
 
   -0.38503E+08         0.13236E+07         0.00000E+00
    0.13236E+07        -0.60367E+08         0.00000E+00
    0.00000E+00         0.00000E+00        -0.39107E+08
 
   -0.38787E+08         0.16548E+07         0.00000E+00
    0.16548E+07        -0.60300E+08         0.00000E+00
    0.00000E+00         0.00000E+00        -0.39142E+08
 
   -0.39057E+08         0.20439E+07         0.00000E+00
    0.20439E+07        -0.60211E+08         0.00000E+00
    0.00000E+00         0.00000E+00        -0.39174E+08
 
   -0.35784E+08         0.31093E+05         0.00000E+00
    0.31093E+05        -0.60005E+08         0.00000E+00
    0.00000E+00         0.00000E+00        -0.39744E+08
 
   -0.35908E+08         0.80201E+05         0.00000E+00
    0.80201E+05        -0.60037E+08         0.00000E+00
    0.00000E+00         0.00000E+00        -0.39605E+08
 
   -0.36062E+08         0.11408E+06         0.00000E+00
    0.11408E+06        -0.60096E+08         0.00000E+00
    0.00000E+00         0.00000E+00        -0.39467E+08
 
   -0.36227E+08         0.14277E+06         0.00000E+00
    0.14277E+06        -0.60174E+08         0.00000E+00
    0.00000E+00         0.00000E+00        -0.39345E+08
 
   -0.36397E+08         0.17426E+06         0.00000E+00
    0.17426E+06        -0.60266E+08         0.00000E+00
    0.00000E+00         0.00000E+00        -0.39240E+08
 
   -0.36569E+08         0.21522E+06         0.00000E+00
    0.21522E+06        -0.60364E+08         0.00000E+00
    0.00000E+00         0.00000E+00        -0.39145E+08
 
   -0.36742E+08         0.27164E+06         0.00000E+00
    0.27164E+06        -0.60459E+08         0.00000E+00
    0.00000E+00         0.00000E+00        -0.39046E+08
 
   -0.36920E+08         0.34894E+06         0.00000E+00
    0.34894E+06        -0.60542E+08         0.00000E+00
    0.00000E+00         0.00000E+00        -0.38928E+08
 
   -0.37115E+08         0.45072E+06         0.00000E+00
    0.45072E+06        -0.60607E+08         0.00000E+00
    0.00000E+00         0.00000E+00        -0.38774E+08
 
   -0.37341E+08         0.60039E+06         0.00000E+00
    0.60039E+06        -0.60657E+08         0.00000E+00
    0.00000E+00         0.00000E+00        -0.38613E+08
 
   -0.37638E+08         0.81614E+06         0.00000E+00
    0.81614E+06        -0.60670E+08         0.00000E+00
    0.00000E+00         0.00000E+00        -0.38574E+08
 
   -0.37930E+08         0.10734E+07         0.00000E+00
    0.10734E+07        -0.60648E+08         0.00000E+00
    0.00000E+00         0.00000E+00        -0.38611E+08
 
   -0.38188E+08         0.13736E+07         0.00000E+00
    0.13736E+07        -0.60614E+08         0.00000E+00
    0.00000E+00         0.00000E+00        -0.38646E+08
 
   -0.38421E+08         0.17209E+07         0.00000E+00
    0.17209E+07        -0.60565E+08         0.00000E+00
    0.00000E+00         0.00000E+00        -0.38675E+08
 
   -0.38620E+08         0.21273E+07         0.00000E+00
    0.21273E+07        -0.60507E+08         0.00000E+00
    0.00000E+00         0.00000E+00        -0.38700E+08
 
   -0.35738E+08         0.11421E+05         0.00000E+00
    0.11421E+05        -0.60008E+08         0.00000E+00
    0.00000E+00         0.00000E+00        -0.39116E+08
 
   -0.35882E+08         0.28054E+05         0.00000E+00
    0.28054E+05        -0.60049E+08         0.00000E+00
    0.00000E+00         0.00000E+00        -0.38974E+08
 
   -0.36042E+08         0.36410E+05         0.00000E+00
    0.36410E+05        -0.60121E+08         0.00000E+00
    0.00000E+00         0.00000E+00        -0.38860E+08
 
   -0.36205E+08         0.47062E+05         0.00000E+00
    0.47062E+05        -0.60217E+08         0.00000E+00
    0.00000E+00         0.00000E+00        -0.38777E+08
 
   -0.36365E+08         0.68782E+05         0.00000E+00
    0.68782E+05        -0.60326E+08         0.00000E+00
    0.00000E+00         0.00000E+00        -0.38720E+08
 
   -0.36519E+08         0.10896E+06         0.00000E+00
    0.10896E+06        -0.60439E+08         0.00000E+00
    0.00000E+00         0.00000E+00        -0.38676E+08
 
   -0.36670E+08         0.17334E+06         0.00000E+00
    0.17334E+06        -0.60547E+08         0.00000E+00
    0.00000E+00         0.00000E+00        -0.38632E+08
 
   -0.36822E+08         0.26576E+06         0.00000E+00
    0.26576E+06        -0.60643E+08         0.00000E+00
    0.00000E+00         0.00000E+00        -0.38571E+08
 
   -0.36983E+08         0.39079E+06         0.00000E+00
    0.39079E+06        -0.60719E+08         0.00000E+00
    0.00000E+00         0.00000E+00        -0.38478E+08
 
   -0.37168E+08         0.55749E+06         0.00000E+00
    0.55749E+06        -0.60778E+08         0.00000E+00
    0.00000E+00         0.00000E+00        -0.38347E+08
 
   -0.37380E+08         0.79007E+06         0.00000E+00
    0.79007E+06        -0.60836E+08         0.00000E+00
    0.00000E+00         0.00000E+00        -0.38208E+08
 
   -0.37634E+08         0.10835E+07         0.00000E+00
    0.10835E+07        -0.60876E+08         0.00000E+00
    0.00000E+00         0.00000E+00        -0.38157E+08
 
   -0.37852E+08         0.14070E+07         0.00000E+00
    0.14070E+07        -0.60873E+08         0.00000E+00
    0.00000E+00         0.00000E+00        -0.38149E+08
 
   -0.38048E+08         0.17622E+07         0.00000E+00
    0.17622E+07        -0.60845E+08         0.00000E+00
    0.00000E+00         0.00000E+00        -0.38174E+08
 
   -0.38165E+08         0.21638E+07         0.00000E+00
    0.21638E+07        -0.60831E+08         0.00000E+00
    0.00000E+00         0.00000E+00        -0.38191E+08
 
   -0.35733E+08        -0.12928E+05         0.00000E+00
   -0.12928E+05        -0.60011E+08         0.00000E+00
    0.00000E+00         0.00000E+00        -0.38410E+08
 
   -0.35887E+08        -0.35437E+05         0.00000E+00
   -0.35437E+05        -0.60059E+08         0.00000E+00
    0.00000E+00         0.00000E+00        -0.38279E+08
 
   -0.36045E+08        -0.56443E+05         0.00000E+00
   -0.56443E+05        -0.60145E+08         0.00000E+00
    0.00000E+00         0.00000E+00        -0.38199E+08
 
   -0.36196E+08        -0.64977E+05         0.00000E+00
   -0.64977E+05        -0.60255E+08         0.00000E+00
    0.00000E+00         0.00000E+00        -0.38163E+08
 
   -0.36336E+08        -0.51685E+05         0.00000E+00
   -0.51685E+05        -0.60378E+08         0.00000E+00
    0.00000E+00         0.00000E+00        -0.38158E+08
 
   -0.36465E+08        -0.95634E+04         0.00000E+00
   -0.95634E+04        -0.60502E+08         0.00000E+00
    0.00000E+00         0.00000E+00        -0.38168E+08
 
   -0.36585E+08         0.65294E+05         0.00000E+00
    0.65294E+05        -0.60619E+08         0.00000E+00
    0.00000E+00         0.00000E+00        -0.38176E+08
 
   -0.36704E+08         0.17509E+06         0.00000E+00
    0.17509E+06        -0.60720E+08         0.00000E+00
    0.00000E+00         0.00000E+00        -0.38167E+08
 
   -0.36828E+08         0.32171E+06         0.00000E+00
    0.32171E+06        -0.60801E+08         0.00000E+00
    0.00000E+00         0.00000E+00        -0.38128E+08
 
   -0.36965E+08         0.51002E+06         0.00000E+00
    0.51002E+06        -0.60858E+08         0.00000E+00
    0.00000E+00         0.00000E+00        -0.38051E+08
 
   -0.37125E+08         0.74833E+06         0.00000E+00
    0.74833E+06        -0.60898E+08         0.00000E+00
    0.00000E+00         0.00000E+00        -0.37945E+08
 
   -0.37312E+08         0.10456E+07         0.00000E+00
    0.10456E+07        -0.60938E+08         0.00000E+00
    0.00000E+00         0.00000E+00        -0.37842E+08
 
   -0.37500E+08         0.13940E+07         0.00000E+00
    0.13940E+07        -0.60976E+08         0.00000E+00
    0.00000E+00         0.00000E+00        -0.37771E+08
 
   -0.37661E+08         0.17683E+07         0.00000E+00
    0.17683E+07        -0.61001E+08         0.00000E+00
    0.00000E+00         0.00000E+00        -0.37752E+08
 
   -0.37779E+08         0.21426E+07         0.00000E+00
    0.21426E+07        -0.61013E+08         0.00000E+00
    0.00000E+00         0.00000E+00        -0.37791E+08
 
   -0.35776E+08        -0.41079E+05         0.00000E+00
   -0.41079E+05        -0.60014E+08         0.00000E+00
    0.00000E+00         0.00000E+00        -0.37632E+08
 
   -0.35929E+08        -0.10911E+06         0.00000E+00
   -0.10911E+06        -0.60069E+08         0.00000E+00
    0.00000E+00         0.00000E+00        -0.37527E+08
 
   -0.36074E+08        -0.16296E+06         0.00000E+00
   -0.16296E+06        -0.60165E+08         0.00000E+00
    0.00000E+00         0.00000E+00        -0.37491E+08
 
   -0.36201E+08        -0.19062E+06         0.00000E+00
   -0.19062E+06        -0.60288E+08         0.00000E+00
    0.00000E+00         0.00000E+00        -0.37509E+08
 
   -0.36310E+08        -0.18286E+06         0.00000E+00
   -0.18286E+06        -0.60420E+08         0.00000E+00
    0.00000E+00         0.00000E+00        -0.37561E+08
 
   -0.36402E+08        -0.13549E+06         0.00000E+00
   -0.13549E+06        -0.60551E+08         0.00000E+00
    0.00000E+00         0.00000E+00        -0.37624E+08
 
   -0.36485E+08        -0.47374E+05         0.00000E+00
   -0.47374E+05        -0.60671E+08         0.00000E+00
    0.00000E+00         0.00000E+00        -0.37683E+08
 
   -0.36565E+08         0.81692E+05         0.00000E+00
    0.81692E+05        -0.60775E+08         0.00000E+00
    0.00000E+00         0.00000E+00        -0.37722E+08
 
   -0.36648E+08         0.25205E+06         0.00000E+00
    0.25205E+06        -0.60856E+08         0.00000E+00
    0.00000E+00         0.00000E+00        -0.37732E+08
 
   -0.36742E+08         0.46436E+06         0.00000E+00
    0.46436E+06        -0.60914E+08         0.00000E+00
    0.00000E+00         0.00000E+00        -0.37707E+08
 
   -0.36854E+08         0.72068E+06         0.00000E+00
    0.72068E+06        -0.60948E+08         0.00000E+00
    0.00000E+00         0.00000E+00        -0.37649E+08
 
   -0.36988E+08         0.10255E+07         0.00000E+00
    0.10255E+07        -0.60966E+08         0.00000E+00
    0.00000E+00         0.00000E+00        -0.37572E+08
 
   -0.37136E+08         0.13750E+07         0.00000E+00
    0.13750E+07        -0.60978E+08         0.00000E+00
    0.00000E+00         0.00000E+00        -0.37506E+08
 
   -0.37287E+08         0.17472E+07         0.00000E+00
    0.17472E+07        -0.60993E+08         0.00000E+00
    0.00000E+00         0.00000E+00        -0.37480E+08
 
   -0.37437E+08         0.21063E+07         0.00000E+00
    0.21063E+07        -0.61020E+08         0.00000E+00
    0.00000E+00         0.00000E+00        -0.37496E+08
 
   -0.35875E+08        -0.71978E+05         0.00000E+00
   -0.71978E+05        -0.60016E+08         0.00000E+00
    0.00000E+00         0.00000E+00        -0.36792E+08
 
   -0.36013E+08        -0.19226E+06         0.00000E+00
   -0.19226E+06        -0.60076E+08         0.00000E+00
    0.00000E+00         0.00000E+00        -0.36726E+08
 
   -0.36129E+08        -0.28147E+06         0.00000E+00
   -0.28147E+06        -0.60184E+08         0.00000E+00
    0.00000E+00         0.00000E+00        -0.36747E+08
 
   -0.36217E+08        -0.32520E+06         0.00000E+00
   -0.32520E+06        -0.60314E+08         0.00000E+00
    0.00000E+00         0.00000E+00        -0.36826E+08
 
   -0.36281E+08        -0.31910E+06         0.00000E+00
   -0.31910E+06        -0.60449E+08         0.00000E+00
    0.00000E+00         0.00000E+00        -0.36932E+08
 
   -0.36329E+08        -0.26401E+06         0.00000E+00
   -0.26401E+06        -0.60581E+08         0.00000E+00
    0.00000E+00         0.00000E+00        -0.37047E+08
 
   -0.36368E+08        -0.16137E+06         0.00000E+00
   -0.16137E+06        -0.60702E+08         0.00000E+00
    0.00000E+00         0.00000E+00        -0.37153E+08
 
   -0.36404E+08        -0.12454E+05         0.00000E+00
   -0.12454E+05        -0.60806E+08         0.00000E+00
    0.00000E+00         0.00000E+00        -0.37241E+08
 
   -0.36445E+08         0.18145E+06         0.00000E+00
    0.18145E+06        -0.60888E+08         0.00000E+00
    0.00000E+00         0.00000E+00        -0.37300E+08
 
   -0.36496E+08         0.41881E+06         0.00000E+00
    0.41881E+06        -0.60947E+08         0.00000E+00
    0.00000E+00         0.00000E+00        -0.37326E+08
 
   -0.36565E+08         0.69810E+06         0.00000E+00
    0.69810E+06        -0.60982E+08         0.00000E+00
    0.00000E+00         0.00000E+00        -0.37317E+08
 
   -0.36658E+08         0.10166E+07         0.00000E+00
    0.10166E+07        -0.60999E+08         0.00000E+00
    0.00000E+00         0.00000E+00        -0.37284E+08
 
   -0.36778E+08         0.13665E+07         0.00000E+00
    0.13665E+07        -0.61006E+08         0.00000E+00
    0.00000E+00         0.00000E+00        -0.37241E+08
 
   -0.36924E+08         0.17312E+07         0.00000E+00
    0.17312E+07        -0.61015E+08         0.00000E+00
    0.00000E+00         0.00000E+00        -0.37206E+08
 
   -0.37087E+08         0.20923E+07         0.00000E+00
    0.20923E+07        -0.61022E+08         0.00000E+00
    0.00000E+00         0.00000E+00        -0.37181E+08
 
   -0.36035E+08        -0.10419E+06         0.00000E+00
   -0.10419E+06        -0.60018E+08         0.00000E+00
    0.00000E+00         0.00000E+00        -0.35900E+08
 
   -0.36143E+08        -0.28679E+06         0.00000E+00
   -0.28679E+06        -0.60087E+08         0.00000E+00
    0.00000E+00         0.00000E+00        -0.35890E+08
 
   -0.36208E+08        -0.40782E+06         0.00000E+00
   -0.40782E+06        -0.60201E+08         0.00000E+00
    0.00000E+00         0.00000E+00        -0.35979E+08
 
   -0.36239E+08        -0.46130E+06         0.00000E+00
   -0.46130E+06        -0.60330E+08         0.00000E+00
    0.00000E+00         0.00000E+00        -0.36117E+08
 
   -0.36249E+08        -0.45438E+06         0.00000E+00
   -0.45438E+06        -0.60462E+08         0.00000E+00
    0.00000E+00         0.00000E+00        -0.36275E+08
 
   -0.36245E+08        -0.39123E+06         0.00000E+00
   -0.39123E+06        -0.60591E+08         0.00000E+00
    0.00000E+00         0.00000E+00        -0.36436E+08
 
   -0.36233E+08        -0.27467E+06         0.00000E+00
   -0.27467E+06        -0.60710E+08         0.00000E+00
    0.00000E+00         0.00000E+00        -0.36589E+08
 
   -0.36222E+08        -0.10709E+06         0.00000E+00
   -0.10709E+06        -0.60813E+08         0.00000E+00
    0.00000E+00         0.00000E+00        -0.36724E+08
 
   -0.36217E+08         0.10885E+06         0.00000E+00
    0.10885E+06        -0.60897E+08         0.00000E+00
    0.00000E+00         0.00000E+00        -0.36832E+08
 
   -0.36226E+08         0.36966E+06         0.00000E+00
    0.36966E+06        -0.60960E+08         0.00000E+00
    0.00000E+00         0.00000E+00        -0.36909E+08
 
   -0.36257E+08         0.67032E+06         0.00000E+00
    0.67032E+06        -0.61001E+08         0.00000E+00
    0.00000E+00         0.00000E+00        -0.36952E+08
 
   -0.36319E+08         0.10037E+07         0.00000E+00
    0.10037E+07        -0.61025E+08         0.00000E+00
    0.00000E+00         0.00000E+00        -0.36963E+08
 
   -0.36419E+08         0.13605E+07         0.00000E+00
    0.13605E+07        -0.61036E+08         0.00000E+00
    0.00000E+00         0.00000E+00        -0.36947E+08
 
   -0.36559E+08         0.17302E+07         0.00000E+00
    0.17302E+07        -0.61038E+08         0.00000E+00
    0.00000E+00         0.00000E+00        -0.36909E+08
 
   -0.36731E+08         0.20993E+07         0.00000E+00
    0.20993E+07        -0.61029E+08         0.00000E+00
    0.00000E+00         0.00000E+00        -0.36854E+08
 
   -0.36267E+08        -0.14739E+06         0.00000E+00
   -0.14739E+06        -0.60050E+08         0.00000E+00
    0.00000E+00         0.00000E+00        -0.35002E+08
 
   -0.36318E+08        -0.38611E+06         0.00000E+00
   -0.38611E+06        -0.60111E+08         0.00000E+00
    0.00000E+00         0.00000E+00        -0.35043E+08
 
   -0.36302E+08        -0.53116E+06         0.00000E+00
   -0.53116E+06        -0.60209E+08         0.00000E+00
    0.00000E+00         0.00000E+00        -0.35190E+08
 
   -0.36264E+08        -0.59162E+06         0.00000E+00
   -0.59162E+06        -0.60331E+08         0.00000E+00
    0.00000E+00         0.00000E+00        -0.35382E+08
 
   -0.36211E+08        -0.58412E+06         0.00000E+00
   -0.58412E+06        -0.60457E+08         0.00000E+00
    0.00000E+00         0.00000E+00        -0.35587E+08
 
   -0.36149E+08        -0.51445E+06         0.00000E+00
   -0.51445E+06        -0.60579E+08         0.00000E+00
    0.00000E+00         0.00000E+00        -0.35792E+08
 
   -0.36083E+08        -0.38599E+06         0.00000E+00
   -0.38599E+06        -0.60694E+08         0.00000E+00
    0.00000E+00         0.00000E+00        -0.35989E+08
 
   -0.36020E+08        -0.20217E+06         0.00000E+00
   -0.20217E+06        -0.60796E+08         0.00000E+00
    0.00000E+00         0.00000E+00        -0.36170E+08
 
   -0.35968E+08         0.32951E+05         0.00000E+00
    0.32951E+05        -0.60882E+08         0.00000E+00
    0.00000E+00         0.00000E+00        -0.36326E+08
 
   -0.35934E+08         0.31380E+06         0.00000E+00
    0.31380E+06        -0.60950E+08         0.00000E+00
    0.00000E+00         0.00000E+00        -0.36453E+08
 
   -0.35931E+08         0.63323E+06         0.00000E+00
    0.63323E+06        -0.61000E+08         0.00000E+00
    0.00000E+00         0.00000E+00        -0.36546E+08
 
   -0.35967E+08         0.98297E+06         0.00000E+00
    0.98297E+06        -0.61033E+08         0.00000E+00
    0.00000E+00         0.00000E+00        -0.36599E+08
 
   -0.36050E+08         0.13544E+07         0.00000E+00
    0.13544E+07        -0.61049E+08         0.00000E+00
    0.00000E+00         0.00000E+00        -0.36611E+08
 
   -0.36183E+08         0.17380E+07         0.00000E+00
    0.17380E+07        -0.61049E+08         0.00000E+00
    0.00000E+00         0.00000E+00        -0.36580E+08
 
   -0.36364E+08         0.21212E+07         0.00000E+00
    0.21212E+07        -0.61032E+08         0.00000E+00
    0.00000E+00         0.00000E+00        -0.36510E+08
 
   -0.36584E+08        -0.19382E+06         0.00000E+00
   -0.19382E+06        -0.60051E+08         0.00000E+00
    0.00000E+00         0.00000E+00        -0.34224E+08
 
   -0.36530E+08        -0.48387E+06         0.00000E+00
   -0.48387E+06        -0.60116E+08         0.00000E+00
    0.00000E+00         0.00000E+00        -0.34253E+08
 
   -0.36401E+08        -0.64914E+06         0.00000E+00
   -0.64914E+06        -0.60200E+08         0.00000E+00
    0.00000E+00         0.00000E+00        -0.34383E+08
 
   -0.36291E+08        -0.71355E+06         0.00000E+00
   -0.71355E+06        -0.60312E+08         0.00000E+00
    0.00000E+00         0.00000E+00        -0.34619E+08
 
   -0.36171E+08        -0.70626E+06         0.00000E+00
   -0.70626E+06        -0.60430E+08         0.00000E+00
    0.00000E+00         0.00000E+00        -0.34867E+08
 
   -0.36046E+08        -0.63192E+06         0.00000E+00
   -0.63192E+06        -0.60546E+08         0.00000E+00
    0.00000E+00         0.00000E+00        -0.35114E+08
 
   -0.35921E+08        -0.49404E+06         0.00000E+00
   -0.49404E+06        -0.60655E+08         0.00000E+00
    0.00000E+00         0.00000E+00        -0.35354E+08
 
   -0.35802E+08        -0.29694E+06         0.00000E+00
   -0.29694E+06        -0.60754E+08         0.00000E+00
    0.00000E+00         0.00000E+00        -0.35578E+08
 
   -0.35700E+08        -0.46348E+05         0.00000E+00
   -0.46348E+05        -0.60840E+08         0.00000E+00
    0.00000E+00         0.00000E+00        -0.35779E+08
 
   -0.35625E+08         0.25080E+06         0.00000E+00
    0.25080E+06        -0.60912E+08         0.00000E+00
    0.00000E+00         0.00000E+00        -0.35952E+08
 
   -0.35587E+08         0.58693E+06         0.00000E+00
    0.58693E+06        -0.60970E+08         0.00000E+00
    0.00000E+00         0.00000E+00        -0.36090E+08
 
   -0.35597E+08         0.95404E+06         0.00000E+00
    0.95404E+06        -0.61012E+08         0.00000E+00
    0.00000E+00         0.00000E+00        -0.36183E+08
 
   -0.35663E+08         0.13440E+07         0.00000E+00
    0.13440E+07        -0.61036E+08         0.00000E+00
    0.00000E+00         0.00000E+00        -0.36226E+08
 
   -0.35790E+08         0.17474E+07         0.00000E+00
    0.17474E+07        -0.61040E+08         0.00000E+00
    0.00000E+00         0.00000E+00        -0.36212E+08
 
   -0.35978E+08         0.21512E+07         0.00000E+00
    0.21512E+07        -0.61022E+08         0.00000E+00
    0.00000E+00         0.00000E+00        -0.36140E+08
 
   -0.36973E+08        -0.23173E+06         0.00000E+00
   -0.23173E+06        -0.60008E+08         0.00000E+00
    0.00000E+00         0.00000E+00        -0.33586E+08
 
   -0.36783E+08        -0.56684E+06         0.00000E+00
   -0.56684E+06        -0.60070E+08         0.00000E+00
    0.00000E+00         0.00000E+00        -0.33561E+08
 
   -0.36507E+08        -0.76138E+06         0.00000E+00
   -0.76138E+06        -0.60171E+08         0.00000E+00
    0.00000E+00         0.00000E+00        -0.33590E+08
 
   -0.36317E+08        -0.83070E+06         0.00000E+00
   -0.83070E+06        -0.60271E+08         0.00000E+00
    0.00000E+00         0.00000E+00        -0.33832E+08
 
   -0.36129E+08        -0.82091E+06         0.00000E+00
   -0.82091E+06        -0.60382E+08         0.00000E+00
    0.00000E+00         0.00000E+00        -0.34119E+08
 
   -0.35936E+08        -0.74235E+06         0.00000E+00
   -0.74235E+06        -0.60490E+08         0.00000E+00
    0.00000E+00         0.00000E+00        -0.34404E+08
 
   -0.35748E+08        -0.59677E+06         0.00000E+00
   -0.59677E+06        -0.60591E+08         0.00000E+00
    0.00000E+00         0.00000E+00        -0.34681E+08
 
   -0.35572E+08        -0.38933E+06         0.00000E+00
   -0.38933E+06        -0.60685E+08         0.00000E+00
    0.00000E+00         0.00000E+00        -0.34944E+08
 
   -0.35419E+08        -0.12703E+06         0.00000E+00
   -0.12703E+06        -0.60768E+08         0.00000E+00
    0.00000E+00         0.00000E+00        -0.35185E+08
 
   -0.35300E+08         0.18282E+06         0.00000E+00
    0.18282E+06        -0.60842E+08         0.00000E+00
    0.00000E+00         0.00000E+00        -0.35398E+08
 
   -0.35227E+08         0.53289E+06         0.00000E+00
    0.53289E+06        -0.60905E+08         0.00000E+00
    0.00000E+00         0.00000E+00        -0.35576E+08
 
   -0.35209E+08         0.91635E+06         0.00000E+00
    0.91635E+06        -0.60954E+08         0.00000E+00
    0.00000E+00         0.00000E+00        -0.35709E+08
 
   -0.35255E+08         0.13258E+07         0.00000E+00
    0.13258E+07        -0.60988E+08         0.00000E+00
    0.00000E+00         0.00000E+00        -0.35787E+08
 
   -0.35374E+08         0.17518E+07         0.00000E+00
    0.17518E+07        -0.61001E+08         0.00000E+00
    0.00000E+00         0.00000E+00        -0.35799E+08
 
   -0.35569E+08         0.21814E+07         0.00000E+00
    0.21814E+07        -0.60989E+08         0.00000E+00
    0.00000E+00         0.00000E+00        -0.35738E+08
 
   -0.37414E+08        -0.25341E+06         0.00000E+00
   -0.25341E+06        -0.60009E+08         0.00000E+00
    0.00000E+00         0.00000E+00        -0.32944E+08
 
   -0.37070E+08        -0.63259E+06         0.00000E+00
   -0.63259E+06        -0.60046E+08         0.00000E+00
    0.00000E+00         0.00000E+00        -0.32885E+08
 
   -0.36646E+08        -0.85917E+06         0.00000E+00
   -0.85917E+06        -0.60128E+08         0.00000E+00
    0.00000E+00         0.00000E+00        -0.32840E+08
 
   -0.36336E+08        -0.94185E+06         0.00000E+00
   -0.94185E+06        -0.60216E+08         0.00000E+00
    0.00000E+00         0.00000E+00        -0.33036E+08
 
   -0.36082E+08        -0.92775E+06         0.00000E+00
   -0.92775E+06        -0.60317E+08         0.00000E+00
    0.00000E+00         0.00000E+00        -0.33350E+08
 
   -0.35820E+08        -0.84336E+06         0.00000E+00
   -0.84336E+06        -0.60414E+08         0.00000E+00
    0.00000E+00         0.00000E+00        -0.33666E+08
 
   -0.35566E+08        -0.69066E+06         0.00000E+00
   -0.69066E+06        -0.60503E+08         0.00000E+00
    0.00000E+00         0.00000E+00        -0.33973E+08
 
   -0.35331E+08        -0.47550E+06         0.00000E+00
   -0.47550E+06        -0.60586E+08         0.00000E+00
    0.00000E+00         0.00000E+00        -0.34265E+08
 
   -0.35127E+08        -0.20514E+06         0.00000E+00
   -0.20514E+06        -0.60663E+08         0.00000E+00
    0.00000E+00         0.00000E+00        -0.34536E+08
 
   -0.34964E+08         0.11314E+06         0.00000E+00
    0.11314E+06        -0.60734E+08         0.00000E+00
    0.00000E+00         0.00000E+00        -0.34783E+08
 
   -0.34853E+08         0.47315E+06         0.00000E+00
    0.47315E+06        -0.60798E+08         0.00000E+00
    0.00000E+00         0.00000E+00        -0.34997E+08
 
   -0.34803E+08         0.86942E+06         0.00000E+00
    0.86942E+06        -0.60855E+08         0.00000E+00
    0.00000E+00         0.00000E+00        -0.35169E+08
 
   -0.34826E+08         0.12963E+07         0.00000E+00
    0.12963E+07        -0.60899E+08         0.00000E+00
    0.00000E+00         0.00000E+00        -0.35287E+08
 
   -0.34933E+08         0.17454E+07         0.00000E+00
    0.17454E+07        -0.60926E+08         0.00000E+00
    0.00000E+00         0.00000E+00        -0.35335E+08
 
   -0.35131E+08         0.22039E+07         0.00000E+00
    0.22039E+07        -0.60927E+08         0.00000E+00
    0.00000E+00         0.00000E+00        -0.35297E+08
 
   -0.37896E+08        -0.27116E+06         0.00000E+00
   -0.27116E+06        -0.60007E+08         0.00000E+00
    0.00000E+00         0.00000E+00        -0.32290E+08
 
   -0.37386E+08        -0.68214E+06         0.00000E+00
   -0.68214E+06        -0.60038E+08         0.00000E+00
    0.00000E+00         0.00000E+00        -0.32198E+08
 
   -0.36814E+08        -0.93438E+06         0.00000E+00
   -0.93438E+06        -0.60094E+08         0.00000E+00
    0.00000E+00         0.00000E+00        -0.32106E+08
 
   -0.36361E+08        -0.10324E+07         0.00000E+00
   -0.10324E+07        -0.60164E+08         0.00000E+00
    0.00000E+00         0.00000E+00        -0.32239E+08
 
   -0.36030E+08        -0.10196E+07         0.00000E+00
   -0.10196E+07        -0.60243E+08         0.00000E+00
    0.00000E+00         0.00000E+00        -0.32570E+08
 
   -0.35698E+08        -0.92930E+06         0.00000E+00
   -0.92930E+06        -0.60319E+08         0.00000E+00
    0.00000E+00         0.00000E+00        -0.32903E+08
 
   -0.35378E+08        -0.77013E+06         0.00000E+00
   -0.77013E+06        -0.60390E+08         0.00000E+00
    0.00000E+00         0.00000E+00        -0.33227E+08
 
   -0.35085E+08        -0.54982E+06         0.00000E+00
   -0.54982E+06        -0.60456E+08         0.00000E+00
    0.00000E+00         0.00000E+00        -0.33537E+08
 
   -0.34830E+08        -0.27574E+06         0.00000E+00
   -0.27574E+06        -0.60520E+08         0.00000E+00
    0.00000E+00         0.00000E+00        -0.33829E+08
 
   -0.34621E+08         0.45745E+05         0.00000E+00
    0.45745E+05        -0.60583E+08         0.00000E+00
    0.00000E+00         0.00000E+00        -0.34101E+08
 
   -0.34470E+08         0.40981E+06         0.00000E+00
    0.40981E+06        -0.60647E+08         0.00000E+00
    0.00000E+00         0.00000E+00        -0.34346E+08
 
   -0.34385E+08         0.81310E+06         0.00000E+00
    0.81310E+06        -0.60709E+08         0.00000E+00
    0.00000E+00         0.00000E+00        -0.34557E+08
 
   -0.34378E+08         0.12525E+07         0.00000E+00
    0.12525E+07        -0.60766E+08         0.00000E+00
    0.00000E+00         0.00000E+00        -0.34719E+08
 
   -0.34465E+08         0.17224E+07         0.00000E+00
    0.17224E+07        -0.60810E+08         0.00000E+00
    0.00000E+00         0.00000E+00        -0.34813E+08
 
   -0.34660E+08         0.22109E+07         0.00000E+00
    0.22109E+07        -0.60831E+08         0.00000E+00
    0.00000E+00         0.00000E+00        -0.34813E+08
 
   -0.38408E+08        -0.28619E+06         0.00000E+00
   -0.28619E+06        -0.60006E+08         0.00000E+00
    0.00000E+00         0.00000E+00        -0.31626E+08
 
   -0.37724E+08        -0.72026E+06         0.00000E+00
   -0.72026E+06        -0.60030E+08         0.00000E+00
    0.00000E+00         0.00000E+00        -0.31499E+08
 
   -0.37000E+08        -0.98643E+06         0.00000E+00
   -0.98643E+06        -0.60068E+08         0.00000E+00
    0.00000E+00         0.00000E+00        -0.31369E+08
 
   -0.36395E+08        -0.10964E+07         0.00000E+00
   -0.10964E+07        -0.60114E+08         0.00000E+00
    0.00000E+00         0.00000E+00        -0.31442E+08
 
   -0.35977E+08        -0.10853E+07         0.00000E+00
   -0.10853E+07        -0.60162E+08         0.00000E+00
    0.00000E+00         0.00000E+00        -0.31781E+08
 
   -0.35570E+08        -0.99069E+06         0.00000E+00
   -0.99069E+06        -0.60209E+08         0.00000E+00
    0.00000E+00         0.00000E+00        -0.32119E+08
 
   -0.35186E+08        -0.82702E+06         0.00000E+00
   -0.82702E+06        -0.60251E+08         0.00000E+00
    0.00000E+00         0.00000E+00        -0.32446E+08
 
   -0.34836E+08        -0.60527E+06         0.00000E+00
   -0.60527E+06        -0.60292E+08         0.00000E+00
    0.00000E+00         0.00000E+00        -0.32759E+08
 
   -0.34531E+08        -0.33317E+06         0.00000E+00
   -0.33317E+06        -0.60336E+08         0.00000E+00
    0.00000E+00         0.00000E+00        -0.33059E+08
 
   -0.34279E+08        -0.15534E+05         0.00000E+00
   -0.15534E+05        -0.60387E+08         0.00000E+00
    0.00000E+00         0.00000E+00        -0.33346E+08
 
   -0.34085E+08         0.34504E+06         0.00000E+00
    0.34504E+06        -0.60447E+08         0.00000E+00
    0.00000E+00         0.00000E+00        -0.33617E+08
 
   -0.33960E+08         0.74755E+06         0.00000E+00
    0.74755E+06        -0.60514E+08         0.00000E+00
    0.00000E+00         0.00000E+00        -0.33866E+08
 
   -0.33915E+08         0.11920E+07         0.00000E+00
    0.11920E+07        -0.60584E+08         0.00000E+00
    0.00000E+00         0.00000E+00        -0.34078E+08
 
   -0.33973E+08         0.16769E+07         0.00000E+00
    0.16769E+07        -0.60650E+08         0.00000E+00
    0.00000E+00         0.00000E+00        -0.34229E+08
 
   -0.34156E+08         0.21936E+07         0.00000E+00
    0.21936E+07        -0.60698E+08         0.00000E+00
    0.00000E+00         0.00000E+00        -0.34282E+08
 
   -0.38945E+08        -0.29861E+06         0.00000E+00
   -0.29861E+06        -0.60005E+08         0.00000E+00
    0.00000E+00         0.00000E+00        -0.30953E+08
 
   -0.38076E+08        -0.74763E+06         0.00000E+00
   -0.74763E+06        -0.60022E+08         0.00000E+00
    0.00000E+00         0.00000E+00        -0.30788E+08
 
   -0.37192E+08        -0.10171E+07         0.00000E+00
   -0.10171E+07        -0.60043E+08         0.00000E+00
    0.00000E+00         0.00000E+00        -0.30624E+08
 
   -0.36435E+08        -0.11291E+07         0.00000E+00
   -0.11291E+07        -0.60062E+08         0.00000E+00
    0.00000E+00         0.00000E+00        -0.30645E+08
 
   -0.35921E+08        -0.11161E+07         0.00000E+00
   -0.11161E+07        -0.60074E+08         0.00000E+00
    0.00000E+00         0.00000E+00        -0.30983E+08
 
   -0.35438E+08        -0.10170E+07         0.00000E+00
   -0.10170E+07        -0.60080E+08         0.00000E+00
    0.00000E+00         0.00000E+00        -0.31312E+08
 
   -0.34992E+08        -0.85161E+06         0.00000E+00
   -0.85161E+06        -0.60084E+08         0.00000E+00
    0.00000E+00         0.00000E+00        -0.31625E+08
 
   -0.34591E+08        -0.63381E+06         0.00000E+00
   -0.63381E+06        -0.60091E+08         0.00000E+00
    0.00000E+00         0.00000E+00        -0.31926E+08
 
   -0.34241E+08        -0.37149E+06         0.00000E+00
   -0.37149E+06        -0.60109E+08         0.00000E+00
    0.00000E+00         0.00000E+00        -0.32220E+08
 
   -0.33944E+08        -0.67068E+05         0.00000E+00
   -0.67068E+05        -0.60143E+08         0.00000E+00
    0.00000E+00         0.00000E+00        -0.32513E+08
 
   -0.33707E+08         0.28028E+06         0.00000E+00
    0.28028E+06        -0.60197E+08         0.00000E+00
    0.00000E+00         0.00000E+00        -0.32805E+08
 
   -0.33538E+08         0.67248E+06         0.00000E+00
    0.67248E+06        -0.60269E+08         0.00000E+00
    0.00000E+00         0.00000E+00        -0.33091E+08
 
   -0.33447E+08         0.11123E+07         0.00000E+00
    0.11123E+07        -0.60353E+08         0.00000E+00
    0.00000E+00         0.00000E+00        -0.33357E+08
 
   -0.33461E+08         0.16033E+07         0.00000E+00
    0.16033E+07        -0.60443E+08         0.00000E+00
    0.00000E+00         0.00000E+00        -0.33577E+08
 
   -0.33619E+08         0.21447E+07         0.00000E+00
    0.21447E+07        -0.60526E+08         0.00000E+00
    0.00000E+00         0.00000E+00        -0.33702E+08
 
   -0.39500E+08        -0.30847E+06         0.00000E+00
   -0.30847E+06        -0.60004E+08         0.00000E+00
    0.00000E+00         0.00000E+00        -0.30274E+08
 
   -0.38431E+08        -0.76314E+06         0.00000E+00
   -0.76314E+06        -0.60014E+08         0.00000E+00
    0.00000E+00         0.00000E+00        -0.30067E+08
 
   -0.37376E+08        -0.10242E+07         0.00000E+00
   -0.10242E+07        -0.60015E+08         0.00000E+00
    0.00000E+00         0.00000E+00        -0.29866E+08
 
   -0.36474E+08        -0.11257E+07         0.00000E+00
   -0.11257E+07        -0.60001E+08         0.00000E+00
    0.00000E+00         0.00000E+00        -0.29848E+08
 
   -0.35859E+08        -0.11044E+07         0.00000E+00
   -0.11044E+07        -0.59969E+08         0.00000E+00
    0.00000E+00         0.00000E+00        -0.30169E+08
 
   -0.35303E+08        -0.99895E+06         0.00000E+00
   -0.99895E+06        -0.59928E+08         0.00000E+00
    0.00000E+00         0.00000E+00        -0.30475E+08
 
   -0.34802E+08        -0.83482E+06         0.00000E+00
   -0.83482E+06        -0.59884E+08         0.00000E+00
    0.00000E+00         0.00000E+00        -0.30758E+08
 
   -0.34358E+08        -0.62780E+06         0.00000E+00
   -0.62780E+06        -0.59850E+08         0.00000E+00
    0.00000E+00         0.00000E+00        -0.31031E+08
 
   -0.33967E+08        -0.38482E+06         0.00000E+00
   -0.38482E+06        -0.59835E+08         0.00000E+00
    0.00000E+00         0.00000E+00        -0.31307E+08
 
   -0.33629E+08        -0.10528E+06         0.00000E+00
   -0.10528E+06        -0.59848E+08         0.00000E+00
    0.00000E+00         0.00000E+00        -0.31595E+08
 
   -0.33348E+08         0.21626E+06         0.00000E+00
    0.21626E+06        -0.59894E+08         0.00000E+00
    0.00000E+00         0.00000E+00        -0.31903E+08
 
   -0.33128E+08         0.58663E+06         0.00000E+00
    0.58663E+06        -0.59971E+08         0.00000E+00
    0.00000E+00         0.00000E+00        -0.32225E+08
 
   -0.32984E+08         0.10116E+07         0.00000E+00
    0.10116E+07        -0.60073E+08         0.00000E+00
    0.00000E+00         0.00000E+00        -0.32551E+08
 
   -0.32937E+08         0.14973E+07         0.00000E+00
    0.14973E+07        -0.60190E+08         0.00000E+00
    0.00000E+00         0.00000E+00        -0.32852E+08
 
   -0.33051E+08         0.20494E+07         0.00000E+00
    0.20494E+07        -0.60314E+08         0.00000E+00
    0.00000E+00         0.00000E+00        -0.33066E+08
 
   -0.40067E+08        -0.31611E+06         0.00000E+00
   -0.31611E+06        -0.60003E+08         0.00000E+00
    0.00000E+00         0.00000E+00        -0.29589E+08
 
   -0.38777E+08        -0.76444E+06         0.00000E+00
   -0.76444E+06        -0.60004E+08         0.00000E+00
    0.00000E+00         0.00000E+00        -0.29337E+08
 
   -0.37541E+08        -0.10013E+07         0.00000E+00
   -0.10013E+07        -0.59979E+08         0.00000E+00
    0.00000E+00         0.00000E+00        -0.29095E+08
 
   -0.36500E+08        -0.10783E+07         0.00000E+00
   -0.10783E+07        -0.59921E+08         0.00000E+00
    0.00000E+00         0.00000E+00        -0.29040E+08
 
   -0.35787E+08        -0.10406E+07         0.00000E+00
   -0.10406E+07        -0.59835E+08         0.00000E+00
    0.00000E+00         0.00000E+00        -0.29331E+08
 
   -0.35165E+08        -0.92826E+06         0.00000E+00
   -0.92826E+06        -0.59737E+08         0.00000E+00
    0.00000E+00         0.00000E+00        -0.29597E+08
 
   -0.34621E+08        -0.77034E+06         0.00000E+00
   -0.77034E+06        -0.59641E+08         0.00000E+00
    0.00000E+00         0.00000E+00        -0.29837E+08
 
   -0.34144E+08        -0.58217E+06         0.00000E+00
   -0.58217E+06        -0.59563E+08         0.00000E+00
    0.00000E+00         0.00000E+00        -0.30070E+08
 
   -0.33722E+08        -0.36852E+06         0.00000E+00
   -0.36852E+06        -0.59513E+08         0.00000E+00
    0.00000E+00         0.00000E+00        -0.30315E+08
 
   -0.33348E+08        -0.12615E+06         0.00000E+00
   -0.12615E+06        -0.59501E+08         0.00000E+00
    0.00000E+00         0.00000E+00        -0.30588E+08
 
   -0.33020E+08         0.15454E+06         0.00000E+00
    0.15454E+06        -0.59534E+08         0.00000E+00
    0.00000E+00         0.00000E+00        -0.30902E+08
 
   -0.32745E+08         0.48717E+06         0.00000E+00
    0.48717E+06        -0.59616E+08         0.00000E+00
    0.00000E+00         0.00000E+00        -0.31259E+08
 
   -0.32537E+08         0.88397E+06         0.00000E+00
    0.88397E+06        -0.59741E+08         0.00000E+00
    0.00000E+00         0.00000E+00        -0.31650E+08
 
   -0.32418E+08         0.13533E+07         0.00000E+00
    0.13533E+07        -0.59896E+08         0.00000E+00
    0.00000E+00         0.00000E+00        -0.32048E+08
 
   -0.32458E+08         0.19066E+07         0.00000E+00
    0.19066E+07        -0.60063E+08         0.00000E+00
    0.00000E+00         0.00000E+00        -0.32375E+08
 
   -0.40636E+08        -0.32230E+06         0.00000E+00
   -0.32230E+06        -0.60003E+08         0.00000E+00
    0.00000E+00         0.00000E+00        -0.28901E+08
 
   -0.39094E+08        -0.74512E+06         0.00000E+00
   -0.74512E+06        -0.59990E+08         0.00000E+00
    0.00000E+00         0.00000E+00        -0.28596E+08
 
   -0.37670E+08        -0.93443E+06         0.00000E+00
   -0.93443E+06        -0.59924E+08         0.00000E+00
    0.00000E+00         0.00000E+00        -0.28309E+08
 
   -0.36503E+08        -0.97314E+06         0.00000E+00
   -0.97314E+06        -0.59805E+08         0.00000E+00
    0.00000E+00         0.00000E+00        -0.28211E+08
 
   -0.35702E+08        -0.91433E+06         0.00000E+00
   -0.91433E+06        -0.59651E+08         0.00000E+00
    0.00000E+00         0.00000E+00        -0.28451E+08
 
   -0.35031E+08        -0.79952E+06         0.00000E+00
   -0.79952E+06        -0.59490E+08         0.00000E+00
    0.00000E+00         0.00000E+00        -0.28661E+08
 
   -0.34457E+08        -0.65643E+06         0.00000E+00
   -0.65643E+06        -0.59341E+08         0.00000E+00
    0.00000E+00         0.00000E+00        -0.28848E+08
 
   -0.33959E+08        -0.49648E+06         0.00000E+00
   -0.49648E+06        -0.59220E+08         0.00000E+00
    0.00000E+00         0.00000E+00        -0.29035E+08
 
   -0.33515E+08        -0.32109E+06         0.00000E+00
   -0.32109E+06        -0.59137E+08         0.00000E+00
    0.00000E+00         0.00000E+00        -0.29243E+08
 
   -0.33112E+08        -0.12579E+06         0.00000E+00
   -0.12579E+06        -0.59099E+08         0.00000E+00
    0.00000E+00         0.00000E+00        -0.29491E+08
 
   -0.32741E+08         0.99833E+05         0.00000E+00
    0.99833E+05        -0.59116E+08         0.00000E+00
    0.00000E+00         0.00000E+00        -0.29798E+08
 
   -0.32405E+08         0.37400E+06         0.00000E+00
    0.37400E+06        -0.59196E+08         0.00000E+00
    0.00000E+00         0.00000E+00        -0.30179E+08
 
   -0.32120E+08         0.72153E+06         0.00000E+00
    0.72153E+06        -0.59345E+08         0.00000E+00
    0.00000E+00         0.00000E+00        -0.30637E+08
 
   -0.31910E+08         0.11619E+07         0.00000E+00
    0.11619E+07        -0.59546E+08         0.00000E+00
    0.00000E+00         0.00000E+00        -0.31148E+08
 
   -0.31840E+08         0.17110E+07         0.00000E+00
    0.17110E+07        -0.59770E+08         0.00000E+00
    0.00000E+00         0.00000E+00        -0.31632E+08
 
   -0.41197E+08        -0.32734E+06         0.00000E+00
   -0.32734E+06        -0.60002E+08         0.00000E+00
    0.00000E+00         0.00000E+00        -0.28212E+08
 
   -0.39350E+08        -0.68899E+06         0.00000E+00
   -0.68899E+06        -0.59963E+08         0.00000E+00
    0.00000E+00         0.00000E+00        -0.27841E+08
 
   -0.37745E+08        -0.79674E+06         0.00000E+00
   -0.79674E+06        -0.59824E+08         0.00000E+00
    0.00000E+00         0.00000E+00        -0.27501E+08
 
   -0.36476E+08        -0.79127E+06         0.00000E+00
   -0.79127E+06        -0.59615E+08         0.00000E+00
    0.00000E+00         0.00000E+00        -0.27339E+08
 
   -0.35609E+08        -0.71830E+06         0.00000E+00
   -0.71830E+06        -0.59382E+08         0.00000E+00
    0.00000E+00         0.00000E+00        -0.27501E+08
 
   -0.34908E+08        -0.61293E+06         0.00000E+00
   -0.61293E+06        -0.59159E+08         0.00000E+00
    0.00000E+00         0.00000E+00        -0.27645E+08
 
   -0.34321E+08        -0.49795E+06         0.00000E+00
   -0.49795E+06        -0.58964E+08         0.00000E+00
    0.00000E+00         0.00000E+00        -0.27777E+08
 
   -0.33812E+08        -0.37621E+06         0.00000E+00
   -0.37621E+06        -0.58810E+08         0.00000E+00
    0.00000E+00         0.00000E+00        -0.27919E+08
 
   -0.33355E+08        -0.24587E+06         0.00000E+00
   -0.24587E+06        -0.58700E+08         0.00000E+00
    0.00000E+00         0.00000E+00        -0.28090E+08
 
   -0.32932E+08        -0.10335E+06         0.00000E+00
   -0.10335E+06        -0.58641E+08         0.00000E+00
    0.00000E+00         0.00000E+00        -0.28308E+08
 
   -0.32528E+08         0.58841E+05         0.00000E+00
    0.58841E+05        -0.58640E+08         0.00000E+00
    0.00000E+00         0.00000E+00        -0.28595E+08
 
   -0.32134E+08         0.25666E+06         0.00000E+00
    0.25666E+06        -0.58711E+08         0.00000E+00
    0.00000E+00         0.00000E+00        -0.28978E+08
 
   -0.31756E+08         0.52234E+06         0.00000E+00
    0.52234E+06        -0.58869E+08         0.00000E+00
    0.00000E+00         0.00000E+00        -0.29485E+08
 
   -0.31430E+08         0.90591E+06         0.00000E+00
    0.90591E+06        -0.59127E+08         0.00000E+00
    0.00000E+00         0.00000E+00        -0.30127E+08
 
   -0.31205E+08         0.14344E+07         0.00000E+00
    0.14344E+07        -0.59440E+08         0.00000E+00
    0.00000E+00         0.00000E+00        -0.30832E+08
 
   -0.41720E+08        -0.32109E+06         0.00000E+00
   -0.32109E+06        -0.59990E+08         0.00000E+00
    0.00000E+00         0.00000E+00        -0.27518E+08
 
   -0.39496E+08        -0.54960E+06         0.00000E+00
   -0.54960E+06        -0.59865E+08         0.00000E+00
    0.00000E+00         0.00000E+00        -0.27053E+08
 
   -0.37755E+08        -0.55288E+06         0.00000E+00
   -0.55288E+06        -0.59599E+08         0.00000E+00
    0.00000E+00         0.00000E+00        -0.26659E+08
 
   -0.36431E+08        -0.51897E+06         0.00000E+00
   -0.51897E+06        -0.59299E+08         0.00000E+00
    0.00000E+00         0.00000E+00        -0.26395E+08
 
   -0.35521E+08        -0.45394E+06         0.00000E+00
   -0.45394E+06        -0.58982E+08         0.00000E+00
    0.00000E+00         0.00000E+00        -0.26442E+08
 
   -0.34815E+08        -0.37992E+06         0.00000E+00
   -0.37992E+06        -0.58715E+08         0.00000E+00
    0.00000E+00         0.00000E+00        -0.26526E+08
 
   -0.34225E+08        -0.30782E+06         0.00000E+00
   -0.30782E+06        -0.58493E+08         0.00000E+00
    0.00000E+00         0.00000E+00        -0.26612E+08
 
   -0.33710E+08        -0.23204E+06         0.00000E+00
   -0.23204E+06        -0.58319E+08         0.00000E+00
    0.00000E+00         0.00000E+00        -0.26718E+08
 
   -0.33246E+08        -0.15141E+06         0.00000E+00
   -0.15141E+06        -0.58194E+08         0.00000E+00
    0.00000E+00         0.00000E+00        -0.26858E+08
 
   -0.32811E+08        -0.64357E+05         0.00000E+00
   -0.64357E+05        -0.58123E+08         0.00000E+00
    0.00000E+00         0.00000E+00        -0.27048E+08
 
   -0.32387E+08         0.32875E+05         0.00000E+00
    0.32875E+05        -0.58112E+08         0.00000E+00
    0.00000E+00         0.00000E+00        -0.27311E+08
 
   -0.31954E+08         0.14918E+06         0.00000E+00
    0.14918E+06        -0.58173E+08         0.00000E+00
    0.00000E+00         0.00000E+00        -0.27676E+08
 
   -0.31494E+08         0.30653E+06         0.00000E+00
    0.30653E+06        -0.58325E+08         0.00000E+00
    0.00000E+00         0.00000E+00        -0.28194E+08
 
   -0.31002E+08         0.56392E+06         0.00000E+00
    0.56392E+06        -0.58604E+08         0.00000E+00
    0.00000E+00         0.00000E+00        -0.28938E+08
 
   -0.30565E+08         0.10420E+07         0.00000E+00
    0.10420E+07        -0.59063E+08         0.00000E+00
    0.00000E+00         0.00000E+00        -0.29963E+08
 
   -0.42101E+08        -0.20738E+06         0.00000E+00
   -0.20738E+06        -0.59851E+08         0.00000E+00
    0.00000E+00         0.00000E+00        -0.26783E+08
 
   -0.39506E+08        -0.22822E+06         0.00000E+00
   -0.22822E+06        -0.59482E+08         0.00000E+00
    0.00000E+00         0.00000E+00        -0.26189E+08
 
   -0.37727E+08        -0.20049E+06         0.00000E+00
   -0.20049E+06        -0.59080E+08         0.00000E+00
    0.00000E+00         0.00000E+00        -0.25756E+08
 
   -0.36411E+08        -0.18001E+06         0.00000E+00
   -0.18001E+06        -0.58716E+08         0.00000E+00
    0.00000E+00         0.00000E+00        -0.25424E+08
 
   -0.35456E+08        -0.15387E+06         0.00000E+00
   -0.15387E+06        -0.58412E+08         0.00000E+00
    0.00000E+00         0.00000E+00        -0.25251E+08
 
   -0.34768E+08        -0.12769E+06         0.00000E+00
   -0.12769E+06        -0.58137E+08         0.00000E+00
    0.00000E+00         0.00000E+00        -0.25293E+08
 
   -0.34176E+08        -0.10391E+06         0.00000E+00
   -0.10391E+06        -0.57910E+08         0.00000E+00
    0.00000E+00         0.00000E+00        -0.25351E+08
 
   -0.33657E+08        -0.78158E+05         0.00000E+00
   -0.78158E+05        -0.57732E+08         0.00000E+00
    0.00000E+00         0.00000E+00        -0.25432E+08
 
   -0.33190E+08        -0.50696E+05         0.00000E+00
   -0.50696E+05        -0.57607E+08         0.00000E+00
    0.00000E+00         0.00000E+00        -0.25550E+08
 
   -0.32750E+08        -0.21198E+05         0.00000E+00
   -0.21198E+05        -0.57539E+08         0.00000E+00
    0.00000E+00         0.00000E+00        -0.25720E+08
 
   -0.32318E+08         0.11347E+05         0.00000E+00
    0.11347E+05        -0.57533E+08         0.00000E+00
    0.00000E+00         0.00000E+00        -0.25963E+08
 
   -0.31868E+08         0.49425E+05         0.00000E+00
    0.49425E+05        -0.57599E+08         0.00000E+00
    0.00000E+00         0.00000E+00        -0.26309E+08
 
   -0.31364E+08         0.99440E+05         0.00000E+00
    0.99440E+05        -0.57755E+08         0.00000E+00
    0.00000E+00         0.00000E+00        -0.26814E+08
 
   -0.30750E+08         0.18356E+06         0.00000E+00
    0.18356E+06        -0.58046E+08         0.00000E+00
    0.00000E+00         0.00000E+00        -0.27598E+08
 
   -0.29937E+08         0.40668E+06         0.00000E+00
    0.40668E+06        -0.58577E+08         0.00000E+00
    0.00000E+00         0.00000E+00        -0.28949E+08
 
SCALARS stressS double 
LOOKUP_TABLE default
  -46422718.5972014     
  -46398272.4488553     
  -46353057.4729746     
  -46287541.3911700     
  -46203332.5994064     
  -46104349.3176133     
  -45995831.4412893     
  -45900902.9881542     
  -46097515.7566193     
  -46327180.1200336     
  -46535428.0272604     
  -46724360.9830736     
  -46895940.6696523     
  -47052005.9743262     
  -47194288.1705344     
  -46404136.9568983     
  -46379836.5834594     
  -46334845.2474908     
  -46269737.4093192     
  -46186476.1005598     
  -46089339.9295278     
  -45983502.7135959     
  -45891889.2573465     
  -46087580.8188857     
  -46315418.7035084     
  -46521983.9485916     
  -46709364.9892370     
  -46879506.9495952     
  -47034233.3763747     
  -47175266.2418873     
  -46366882.7607752     
  -46343022.3268688     
  -46298757.1675020     
  -46234750.3153650     
  -46153650.2922233     
  -46060213.6357069     
  -45959621.5388313     
  -45874069.4189237     
  -46067624.7631002     
  -46291815.7923400     
  -46495028.4086356     
  -46679326.7203091     
  -46846611.5413271     
  -46998669.2450181     
  -47137206.0920791     
  -46310860.9693529     
  -46288003.2648392     
  -46245411.1173967     
  -46183691.8540150     
  -46106333.5885913     
  -46018599.5737976     
  -45925681.5243374     
  -45847857.3149715     
  -46037485.2537369     
  -46256182.4900664     
  -46454418.5149434     
  -46634166.4583792     
  -46797206.6454252     
  -46945282.2017786     
  -47080079.8354228     
  -46235924.1296755     
  -46214848.3660916     
  -46175222.5324384     
  -46117801.4227172     
  -46046473.9568056     
  -45966565.7335910     
  -45883463.1455129     
  -45814170.3605733     
  -45996740.9097526     
  -46208129.5240593     
  -46399989.5833158     
  -46573788.3952693     
  -46731242.3146955     
  -46874040.6682246     
  -47003856.5203652     
  -46141845.3872555     
  -46123198.9449908     
  -46088198.8464858     
  -46038021.0157642     
  -45976119.1665225     
  -45906854.2452067     
  -45834752.5339418     
  -45774555.4123405     
  -45943996.1152983     
  -46147428.4122580     
  -46331567.3069610     
  -46498119.4083176     
  -46648690.8314502     
  -46784929.8765287     
  -46908512.9031674     
  -46028480.7102051     
  -46012733.4935744     
  -45983948.3145387     
  -45944316.4538986     
  -45896296.2437773     
  -45841637.3103372     
  -45782774.7669344     
  -45729810.5929709     
  -45879818.2941714     
  -46073793.0913337     
  -46249055.8105645     
  -46407152.3549955     
  -46549574.5372165     
  -46677973.1519562     
  -46794046.4124648     
  -45895831.0178063     
  -45883213.8484594     
  -45862214.9454861     
  -45836033.9913761     
  -45805989.0461224     
  -45771060.3098103     
  -45729569.0098635     
  -45683761.7957670     
  -45803802.9646009     
  -45987052.3154171     
  -46152546.2682855     
  -46300961.3568121     
  -46433994.1486607     
  -46553267.6596963     
  -46660491.2395507     
  -45743977.0222258     
  -45735153.9737102     
  -45723212.9566274     
  -45712345.9863514     
  -45702868.7466326     
  -45691719.2312736     
  -45673602.3742853     
  -45643518.4590727     
  -45714158.9815294     
  -45887996.5722926     
  -46042127.7278510     
  -46179676.0971440     
  -46302207.5373876     
  -46411031.9552313     
  -46507958.9992105     
  -45573692.2753224     
  -45568679.4514538     
  -45567233.0089191     
  -45573035.0624935     
  -45584710.5838423     
  -45598496.3994890     
  -45608349.6468684     
  -45605624.8246406     
  -45625211.5006064     
  -45776401.0595093     
  -45917491.2445562     
  -46043748.3186451     
  -46154623.9376745     
  -46251764.9778796     
  -46336715.6506229     
  -45384500.0820808     
  -45384341.6924282     
  -45395221.2610010     
  -45418282.5637643     
  -45450773.7181495     
  -45488034.5398749     
  -45524034.8929325     
  -45550558.2727629     
  -45562829.6160920     
  -45649003.5366039     
  -45780055.0501045     
  -45893150.7394443     
  -45992226.0042312     
  -46076438.2202735     
  -46147465.1185809     
  -45177549.2785064     
  -45183592.0345083     
  -45208133.4576690     
  -45248959.2441665     
  -45301299.0069139     
  -45359112.0821459     
  -45415617.9365189     
  -45463303.1318159     
  -45498464.3778579     
  -45536959.3311530     
  -45627360.0347677     
  -45729810.1338646     
  -45815739.9777484     
  -45887183.5862902     
  -45942399.6238404     
  -44954021.4788808     
  -44968337.0951711     
  -45007581.5537426     
  -45066105.2630390     
  -45136712.6967071     
  -45211540.2391459     
  -45282986.5412529     
  -45345207.1073523     
  -45393126.5207626     
  -45430875.3026713     
  -45474753.2358369     
  -45555564.2683043     
  -45624808.8282103     
  -45689170.4517628     
  -45729133.0236968     
  -44717815.6749893     
  -44741914.5071552     
  -44796046.0589238     
  -44871231.0184739     
  -44957431.9567656     
  -45045127.3319591     
  -45126829.8841899     
  -45196939.3777458     
  -45252095.4978670     
  -45291205.4072213     
  -45322897.9347572     
  -45363949.2517482     
  -45415614.9636758     
  -45471212.5716922     
  -45527831.8216964     
  -44474036.7002024     
  -44508303.5047184     
  -44576645.7690233     
  -44666106.7877172     
  -44763558.7973861     
  -44859158.8626807     
  -44946343.8415795     
  -45020640.4899071     
  -45079059.9933437     
  -45121202.4711188     
  -45150390.4813405     
  -45174949.0524586     
  -45206931.7261605     
  -45253321.5782613     
  -45317474.8334795     
  -44227550.9603181     
  -44271677.4530672     
  -44353350.4054570     
  -44452192.9247530     
  -44554402.8461396     
  -44652379.5145919     
  -44741034.4764767     
  -44816820.6946695     
  -44877620.7008781     
  -44923005.4817367     
  -44954983.6580166     
  -44979993.8514209     
  -45008374.2089259     
  -45048458.2223127     
  -45096535.2420434     
  -43984278.7922177     
  -44040096.6203189     
  -44129211.0026047     
  -44228549.9681167     
  -44328594.6047978     
  -44423926.0396027     
  -44510704.8644578     
  -44586120.6513273     
  -44648612.2400172     
  -44698134.3890755     
  -44736786.7908487     
  -44769092.4509766     
  -44800787.9911489     
  -44835147.3060566     
  -44871546.8994339     
  -43773106.7636383     
  -43824103.5857195     
  -43900432.2649407     
  -43992519.3472622     
  -44084882.5394167     
  -44173628.3243301     
  -44255625.1260042     
  -44328713.8327824     
  -44391926.0635460     
  -44445800.3559639     
  -44492048.4752352     
  -44532862.4395120     
  -44569917.0397346     
  -44604158.3337987     
  -44635475.2236883     
  -43619897.3985865     
  -43632736.8011744     
  -43661165.0119417     
  -43740779.3576838     
  -43822859.4214940     
  -43902014.5213178     
  -43976367.6022522     
  -44044589.9875063     
  -44106576.3654264     
  -44163171.3554748     
  -44215479.5469348     
  -44263946.8250072     
  -44308212.8236924     
  -44347329.4221032     
  -44380103.7496140     
  -43522079.7285217     
  -43471291.1567446     
  -43422735.1758337     
  -43473207.4491090     
  -43543247.4615818     
  -43610221.0464183     
  -43673503.4241651     
  -43733304.9701793     
  -43790630.5780584     
  -43846713.0964983     
  -43902337.5953857     
  -43957262.7201830     
  -44010009.0034358     
  -44058086.9165297     
  -44098402.8696719     
  -43456015.5325610     
  -43333848.8674652     
  -43204808.1125958     
  -43195847.6590809     
  -43249660.4683195     
  -43299902.8630331     
  -43347425.0025330     
  -43394068.5174836     
  -43442112.6390815     
  -43493509.1375002     
  -43549221.8183949     
  -43608989.0617267     
  -43670880.2715866     
  -43731207.1058510     
  -43784753.2658014     
  -43397796.7144114     
  -43207226.7092543     
  -43004485.3517392     
  -42921410.6656327     
  -42947544.1729344     
  -42973404.0099407     
  -42998587.7056605     
  -43026134.4470111     
  -43059575.6512798     
  -43101721.9590124     
  -43154112.5626675     
  -43216708.5644781     
  -43287697.1660369     
  -43362790.7378486     
  -43434846.4758774     
  -43346863.6814573     
  -43084246.7503239     
  -42812433.8530207     
  -42650118.3844493     
  -42640401.2497807     
  -42632554.6795779     
  -42627477.7250859     
  -42629063.3968824     
  -42642148.4068362     
  -42670604.3850890     
  -42716424.7011180     
  -42779722.9598055     
  -42859051.9849783     
  -42950456.5521856     
  -43045298.6339789     
  -43301158.4085428     
  -42962008.9812766     
  -42619522.2504285     
  -42380657.2964264     
  -42325973.3934719     
  -42276717.6311297     
  -42233705.2282113     
  -42202658.8754794     
  -42189772.4167115     
  -42200124.9976139     
  -42236460.5152822     
  -42298902.8697219     
  -42385574.5357957     
  -42493475.6868667     
  -42615460.2786471     
  -43259265.9132264     
  -42837328.4375827     
  -42418984.8419122     
  -42107562.0157017     
  -41999130.7099285     
  -41901675.5704491     
  -41814938.5742092     
  -41746394.7457133     
  -41703105.8902575     
  -41691115.3621636     
  -41714687.0901385     
  -41774849.0819231     
  -41869077.6422406     
  -41993028.1636415     
  -42143810.1452135     
  -43219629.6904493     
  -42705844.0414014     
  -42204991.9156247     
  -41820449.6215301     
  -41651131.6771079     
  -41499846.2298986     
  -41366578.2029814     
  -41258919.6729363     
  -41183338.3372038     
  -41145716.9010835     
  -41151944.1004554     
  -41206666.6296794     
  -41309339.6827785     
  -41453848.7995665     
  -41631950.5653496     
  -43180336.6090514     
  -42560149.2530490     
  -41967577.6688037     
  -41505884.4890446     
  -41267766.3138409     
  -41060532.8880142     
  -40882052.5668100     
  -40737921.9637795     
  -40631660.7067097     
  -40567408.9395688     
  -40551628.6910746     
  -40593296.9843919     
  -40700614.5000918     
  -40868295.2556102     
  -41080744.3747145     
  -43137226.7768862     
  -42384351.5108463     
  -41690007.0554203     
  -41142899.8512440     
  -40830381.7450397     
  -40570769.1359785     
  -40354108.8536476     
  -40180205.7653115     
  -40048416.2837474     
  -39960396.0150932     
  -39921247.7183277     
  -39941169.1486935     
  -40036860.2695645     
  -40227966.8077566     
  -40492605.8488171     
  -43076173.8085296     
  -42138049.7544736     
  -41337506.7177693     
  -40708780.6193589     
  -40315294.3766490     
  -40018513.9769187     
  -39776706.5976138     
  -39582219.5389626     
  -39432522.4506785     
  -39327531.8326515     
  -39270039.6288864     
  -39267626.0333527     
  -39337620.0726530     
  -39514744.9461420     
  -39863723.2696090     
  -42911582.2321821     
  -41725605.0278258     
  -40854641.6911141     
  -40183820.1133189     
  -39706403.7218857     
  -39399173.7189115     
  -39145243.2228566     
  -38940310.5464697     
  -38782048.8102710     
  -38669650.0921465     
  -38604529.7201141     
  -38591775.2030215     
  -38644382.2253997     
  -38797965.4829930     
  -39154318.7242587     
SCALARS 2waySource double 
LOOKUP_TABLE default
 -7.371343596578731E-005
 -7.353848254910237E-005
 -7.319995799968226E-005
 -7.255377967919978E-005
 -7.149830564968632E-005
 -7.001864749066902E-005
 -6.817551975420668E-005
 -9.651685597115116E-005
 -1.125780438111306E-004
 -1.147404337016847E-004
 -1.168790849240946E-004
 -1.189701115862154E-004
 -1.209938195345023E-004
 -1.229343096847281E-004
 -1.247785040950172E-004
 -7.317276739588597E-005
 -7.295803160106703E-005
 -7.259257754089007E-005
 -7.195811006187204E-005
 -7.095817594296610E-005
 -6.957846802053912E-005
 -6.786617053883959E-005
 -9.631974199350220E-005
 -1.123097392454979E-004
 -1.144871257647444E-004
 -1.166378953568185E-004
 -1.187379495755040E-004
 -1.207676305480015E-004
 -1.227123832455816E-004
 -1.245603806023294E-004
 -7.236156569844225E-005
 -7.202041290778846E-005
 -7.154448842411782E-005
 -7.088309487557550E-005
 -6.995926628480490E-005
 -6.875101023095029E-005
 -6.728621619435969E-005
 -9.606905775378813E-005
 -1.118134194255332E-004
 -1.140164291956514E-004
 -1.161902768452254E-004
 -1.183044860014241E-004
 -1.203425546511008E-004
 -1.222949850289496E-004
 -1.241515760801251E-004
 -7.133150496710844E-005
 -7.077529156578941E-005
 -7.007686150535647E-005
 -6.930907171247405E-005
 -6.846964529248944E-005
 -6.750803448661770E-005
 -6.640981121775486E-005
 -9.562785546136384E-005
 -1.110782237645977E-004
 -1.133370759720958E-004
 -1.155436773007290E-004
 -1.176673000590478E-004
 -1.197133972151917E-004
 -1.216759324266426E-004
 -1.235465136190849E-004
 -7.013407522574432E-005
 -6.932787348229674E-005
 -6.830586872377616E-005
 -6.729579172865314E-005
 -6.647105375381495E-005
 -6.583231723109812E-005
 -6.522772359743497E-005
 -9.469118582577951E-005
 -1.101237924374792E-004
 -1.124944363942919E-004
 -1.146943743900022E-004
 -1.168185791432295E-004
 -1.188689314302805E-004
 -1.208438058070415E-004
 -1.227351223926555E-004
 -6.879681053198330E-005
 -6.780417851092520E-005
 -6.645461353549073E-005
 -6.506557793571503E-005
 -6.404964805515448E-005
 -6.365613211403555E-005
 -6.373214185251828E-005
 -9.280985579588130E-005
 -1.092182317216166E-004
 -1.114532359837162E-004
 -1.136313640290707E-004
 -1.157395114239011E-004
 -1.177897144820721E-004
 -1.197807571706272E-004
 -1.217017801182561E-004
 -6.730460332131465E-005
 -6.626702036676477E-005
 -6.475267532434696E-005
 -6.300215031848490E-005
 -6.155647714211879E-005
 -6.102842404643147E-005
 -6.163217580187181E-005
 -8.971990323786006E-005
 -1.080341339440861E-004
 -1.102051036294071E-004
 -1.123241700571173E-004
 -1.143961938474829E-004
 -1.164478518925700E-004
 -1.184622476793738E-004
 -1.204246355641270E-004
 -6.560799712818784E-005
 -6.466226388659653E-005
 -6.326160139575003E-005
 -6.147405136685320E-005
 -5.962722510677745E-005
 -5.848124498713175E-005
 -5.894734048940690E-005
 -8.422707266020707E-005
 -1.066290593899365E-004
 -1.087364842371091E-004
 -1.106948992261762E-004
 -1.127470552168761E-004
 -1.148097452793831E-004
 -1.168557551889983E-004
 -1.188756792073955E-004
 -6.365088412401069E-005
 -6.286704241218412E-005
 -6.183113550946468E-005
 -6.051235680459189E-005
 -5.885709017583937E-005
 -5.705988476507201E-005
 -5.630801522002742E-005
 -7.570251666892043E-005
 -1.053471701522064E-004
 -1.067166769902529E-004
 -1.086899534413639E-004
 -1.107620474067795E-004
 -1.128273277860018E-004
 -1.149228834192892E-004
 -1.170180360385920E-004
 -6.139114168841993E-005
 -6.079108561415378E-005
 -6.025948697438465E-005
 -5.977357902881670E-005
 -5.910132141149693E-005
 -5.781433123613975E-005
 -5.557831256283971E-005
 -6.559807689616013E-005
 -9.881396861189016E-005
 -1.041626360844954E-004
 -1.063993317312437E-004
 -1.083445187215802E-004
 -1.104639532836513E-004
 -1.126040400576334E-004
 -1.148034045883440E-004
 -5.881031590630475E-005
 -5.842793382886893E-005
 -5.845496314597955E-005
 -5.891174976231293E-005
 -5.960154721522485E-005
 -5.997281536198659E-005
 -5.887312887110838E-005
 -5.947931636009429E-005
 -8.369938337014687E-005
 -1.018360662963679E-004
 -1.033547427650597E-004
 -1.055774467003906E-004
 -1.076004183487225E-004
 -1.098409435451735E-004
 -1.121354780325478E-004
 -5.592339333552474E-005
 -5.581391354865059E-005
 -5.643916864270385E-005
 -5.785167845521383E-005
 -5.984138861994208E-005
 -6.182266418954159E-005
 -6.284595446660071E-005
 -6.253692723127894E-005
 -7.019382706697645E-005
 -8.909239060324911E-005
 -9.989826117471373E-005
 -1.019786558296254E-004
 -1.043566335288543E-004
 -1.065289435468612E-004
 -1.087057018683687E-004
 -5.277607398347927E-005
 -5.296756022656787E-005
 -5.430228871049577E-005
 -5.676643819265616E-005
 -5.980034557489317E-005
 -6.263478592354208E-005
 -6.475803493540951E-005
 -6.600113898302883E-005
 -6.889632382937210E-005
 -7.803124894711298E-005
 -8.854949261817726E-005
 -9.529361987844607E-005
 -1.008619391031399E-004
 -1.022042347166756E-004
 -1.035161363567043E-004
 -4.942049720383377E-005
 -4.991521631286040E-005
 -5.231758486213260E-005
 -5.596616892883518E-005
 -5.948806523173944E-005
 -6.228681160382057E-005
 -6.443902543094596E-005
 -6.610518233665346E-005
 -6.814744319018392E-005
 -7.324879892514518E-005
 -8.228761389326975E-005
 -9.033545096166206E-005
 -9.313410685253366E-005
 -9.560669261233023E-005
 -9.573256707604180E-005
 -4.595367250220994E-005
 -4.708804654790199E-005
 -5.123875554118615E-005
 -5.547941379357176E-005
 -5.847197060835239E-005
 -6.061711423075823E-005
 -6.238543397075365E-005
 -6.393596626553039E-005
 -6.548525771842741E-005
 -6.808243248743314E-005
 -7.323741695709562E-005
 -8.077117029938518E-005
 -8.728869741914486E-005
 -9.231982624462650E-005
 -9.670623889649471E-005
 -4.315006267493741E-005
 -4.696844788873366E-005
 -5.149661503748483E-005
 -5.429863974406125E-005
 -5.604645754117001E-005
 -5.758551341312252E-005
 -5.905932864397665E-005
 -6.037689149399936E-005
 -6.161724623672254E-005
 -6.320328505122561E-005
 -6.588695597560547E-005
 -7.038240309011747E-005
 -7.637368500649580E-005
 -8.288518650850995E-005
 -8.949896665119803E-005
 -4.863512651504802E-005
 -5.328788672153181E-005
 -5.107494876194140E-005
 -5.064652513363471E-005
 -5.195572323811064E-005
 -5.346123518541491E-005
 -5.479062516366349E-005
 -5.593840682653524E-005
 -5.694458486502891E-005
 -5.801107524390208E-005
 -5.964772969234772E-005
 -6.263999390683801E-005
 -6.747875342599021E-005
 -7.375776218922773E-005
 -8.047318545830987E-005
 -5.545557135511906E-005
 -5.750685119025081E-005
 -4.979135171438231E-005
 -4.449916722875872E-005
 -4.675975870930638E-005
 -4.846998744292142E-005
 -4.983051961147184E-005
 -5.089570695504161E-005
 -5.175916078977493E-005
 -5.263037840428219E-005
 -5.392382399633292E-005
 -5.622437890812780E-005
 -5.999481273448612E-005
 -6.518069861264925E-005
 -7.131917462076128E-005
 -6.564325436248029E-005
 -6.375957837628863E-005
 -5.276525220644303E-005
 -3.965194106069900E-005
 -4.083318005010874E-005
 -4.291250823785406E-005
 -4.439238967552605E-005
 -4.544895243423107E-005
 -4.627603982931116E-005
 -4.712769499279641E-005
 -4.833350433949890E-005
 -5.026269367806631E-005
 -5.323096063480124E-005
 -5.738461095697509E-005
 -6.261077270970485E-005
 -6.891951607305606E-005
 -6.790374366524632E-005
 -6.004400607295244E-005
 -3.816787960782386E-005
 -3.543073591627524E-005
 -3.733415143193057E-005
 -3.876569550514001E-005
 -3.978075125091007E-005
 -4.059916369075409E-005
 -4.146520033990840E-005
 -4.262654699122304E-005
 -4.431793207152913E-005
 -4.676399575828725E-005
 -5.014464738316370E-005
 -5.449521882872131E-005
 -6.963007100603204E-005
 -6.890182313024866E-005
 -6.592383721856783E-005
 -3.952622928987451E-005
 -3.143660735318748E-005
 -3.238748738819907E-005
 -3.331658062649602E-005
 -3.408730682578031E-005
 -3.478644851401742E-005
 -3.558733197898257E-005
 -3.666457738341307E-005
 -3.817951258643955E-005
 -4.029313168047902E-005
 -4.315347542490931E-005
 -4.682558427039700E-005
 -7.049644701195546E-005
 -6.908606878961159E-005
 -6.712615333047151E-005
 -4.133689464162504E-005
 -2.867003753382849E-005
 -2.828915277667266E-005
 -2.834455041851599E-005
 -2.855141250774358E-005
 -2.889968738328936E-005
 -2.947209669170054E-005
 -3.037707854693256E-005
 -3.172206556854653E-005
 -3.361317677185318E-005
 -3.614711796153972E-005
 -3.937012773378940E-005
 -7.138737537853223E-005
 -6.908785258214017E-005
 -6.665398287151864E-005
 -4.307655748127485E-005
 -2.605019781278558E-005
 -2.479438225346104E-005
 -2.385528691402176E-005
 -2.324658907763223E-005
 -2.298540930128583E-005
 -2.312164005775992E-005
 -2.372662908446043E-005
 -2.486685174624047E-005
 -2.659200047415151E-005
 -2.893977033496193E-005
 -3.191945386024409E-005
 -7.227892842672080E-005
 -6.900536160811439E-005
 -6.564645766738460E-005
 -4.344040091032424E-005
 -2.352407569882376E-005
 -2.144983877527601E-005
 -1.959222876609345E-005
 -1.807571895616822E-005
 -1.701890929694327E-005
 -1.652538792522861E-005
 -1.669168811598164E-005
 -1.756963232105426E-005
 -1.915430095114517E-005
 -2.141591585112734E-005
 -2.432548078081463E-005
 -7.314292129599275E-005
 -6.884562184946170E-005
 -6.451239875521070E-005
 -4.260854369690691E-005
 -2.092300906343915E-005
 -1.798457754865395E-005
 -1.525096761874604E-005
 -1.281941157745193E-005
 -1.087873373009417E-005
 -9.640312512831256E-006
 -9.263974012407549E-006
 -9.813339104537116E-006
 -1.125735604601944E-005
 -1.350919725589982E-005
 -1.648362076861832E-005
 -7.403263385104787E-005
 -6.858855159401608E-005
 -6.316613575287006E-005
 -4.111936569360757E-005
 -1.807728723739887E-005
 -1.423320205509030E-005
 -1.059029363869543E-005
 -7.202295708184397E-006
 -4.381412746783745E-006
 -2.419549903340899E-006
 -1.466853513804517E-006
 -1.605786615563479E-006
 -2.866219199957948E-006
 -5.164612738650734E-006
 -8.352011235550028E-006
 -7.504555325509871E-005
 -6.804948459307109E-005
 -6.141887147045243E-005
 -3.961036121824724E-005
 -1.491769763324637E-005
 -1.005681377186135E-005
 -5.304573087397487E-006
 -9.013947997887168E-007
  2.628446761819248E-006
  5.132262676062341E-006
  6.630022583517651E-006
  7.007256509436354E-006
  6.050916341788974E-006
  3.691202133827509E-006
  1.028810449344860E-007
 -7.622302681141316E-005
 -6.673672112114609E-005
 -5.836430003391107E-005
 -3.924244202229361E-005
 -1.172604338945985E-005
 -5.058203509363822E-006
  1.206889803695640E-006
  6.358722583256970E-006
  1.013767093777596E-005
  1.298010347067861E-005
  1.494754765857833E-005
  1.589342966256408E-005
  1.546598796413015E-005
  1.314215267449342E-005
  8.907212419228465E-006
 -7.733606308027271E-005
 -6.414890644179734E-005
 -5.267785684495360E-005
 -3.901461163667084E-005
 -1.084352276514209E-005
  2.296832730343090E-006
  9.712194561721619E-006
  1.430849392770249E-005
  1.806184464022398E-005
  2.114087126670269E-005
  2.346583601846914E-005
  2.487928890089726E-005
  2.506148213729782E-005
  2.326139799555374E-005
  1.805247188585776E-005
 -7.689589136233995E-005
 -5.933784234894476E-005
 -4.574162933711955E-005
 -3.312785033442398E-005
 -1.435990801320977E-005
  1.292198050277268E-005
  1.855286501321607E-005
  2.260654246907085E-005
  2.643732306676366E-005
  2.970749987748392E-005
  3.224380118515179E-005
  3.389776266231766E-005
  3.441476943032777E-005
  3.313814448891559E-005
  2.782387723190510E-005
SCALARS poroP double 
LOOKUP_TABLE default
  1.130329960648315E-005
  9.648178016360441E-006
  7.972044058678698E-006
  6.297974149386587E-006
  4.651390483985773E-006
  3.059166298657043E-006
  1.548667533528953E-006
  2.040613563172736E-007
  0.000000000000000E+000
  0.000000000000000E+000
  0.000000000000000E+000
  0.000000000000000E+000
  0.000000000000000E+000
  0.000000000000000E+000
  0.000000000000000E+000
  1.126503113687454E-005
  9.603374789537241E-006
  7.922323887748960E-006
  6.246774460292388E-006
  4.603877986049842E-006
  3.021282969779597E-006
  1.526016790495358E-006
  2.003455272153917E-007
  0.000000000000000E+000
  0.000000000000000E+000
  0.000000000000000E+000
  0.000000000000000E+000
  0.000000000000000E+000
  0.000000000000000E+000
  0.000000000000000E+000
  1.118405176238597E-005
  9.512325380029919E-006
  7.823528243378104E-006
  6.146243170177828E-006
  4.511984097732708E-006
  2.949322511193825E-006
  1.483917431060584E-006
  1.939719664279629E-007
  0.000000000000000E+000
  0.000000000000000E+000
  0.000000000000000E+000
  0.000000000000000E+000
  0.000000000000000E+000
  0.000000000000000E+000
  0.000000000000000E+000
  1.104964097687312E-005
  9.369521761607714E-006
  7.675573316405548E-006
  6.001603963331859E-006
  4.383360259548169E-006
  2.851127050780992E-006
  1.429151494354687E-006
  1.870821161493669E-007
  0.000000000000000E+000
  0.000000000000000E+000
  0.000000000000000E+000
  0.000000000000000E+000
  0.000000000000000E+000
  0.000000000000000E+000
  0.000000000000000E+000
  1.084457712149879E-005
  9.164858209568802E-006
  7.477916560782215E-006
  5.820787290465080E-006
  4.230362636796433E-006
  2.739354908307420E-006
  1.372344497037997E-006
  1.853389308949163E-007
  0.000000000000000E+000
  0.000000000000000E+000
  0.000000000000000E+000
  0.000000000000000E+000
  0.000000000000000E+000
  0.000000000000000E+000
  0.000000000000000E+000
  1.054764933043289E-005
  8.885103413706537E-006
  7.228215006546806E-006
  5.611720731566097E-006
  4.068778047498417E-006
  2.631555431141244E-006
  1.327238073752066E-006
  2.045033220986390E-007
  0.000000000000000E+000
  0.000000000000000E+000
  0.000000000000000E+000
  0.000000000000000E+000
  0.000000000000000E+000
  0.000000000000000E+000
  0.000000000000000E+000
  1.013784573621354E-005
  8.515631932082197E-006
  6.920531197296952E-006
  5.379896087471668E-006
  3.915265485125263E-006
  2.550443927886497E-006
  1.311476600133133E-006
  2.422042717072030E-007
  0.000000000000000E+000
  0.000000000000000E+000
  0.000000000000000E+000
  0.000000000000000E+000
  0.000000000000000E+000
  0.000000000000000E+000
  0.000000000000000E+000
  9.601422993226325E-006
  8.045513651008629E-006
  6.548148073339115E-006
  5.124254796648863E-006
  3.778246096427900E-006
  2.514507088173009E-006
  1.348348820033886E-006
  3.123816384211651E-007
  0.000000000000000E+000
  0.000000000000000E+000
  0.000000000000000E+000
  0.000000000000000E+000
  0.000000000000000E+000
  0.000000000000000E+000
  0.000000000000000E+000
  8.935766494355589E-006
  7.473349716453077E-006
  6.108379942812719E-006
  4.838197386205708E-006
  3.648880348526164E-006
  2.526468891405374E-006
  1.463709888083862E-006
  4.779724008733777E-007
  0.000000000000000E+000
  0.000000000000000E+000
  0.000000000000000E+000
  0.000000000000000E+000
  0.000000000000000E+000
  0.000000000000000E+000
  0.000000000000000E+000
  8.150956580271555E-006
  6.812453854785814E-006
  5.606156249844251E-006
  4.512377487761883E-006
  3.507714165287649E-006
  2.565809437003745E-006
  1.656847620975578E-006
  7.518322000863570E-007
  6.440255643802545E-008
  0.000000000000000E+000
  0.000000000000000E+000
  0.000000000000000E+000
  0.000000000000000E+000
  0.000000000000000E+000
  0.000000000000000E+000
  7.277070376937250E-006
  6.081721372295605E-006
  5.047664638865360E-006
  4.143140199121305E-006
  3.338261391944749E-006
  2.599023616731954E-006
  1.883006585978781E-006
  1.133677882403096E-006
  3.504001401011493E-007
  5.577394568545383E-009
  0.000000000000000E+000
  0.000000000000000E+000
  0.000000000000000E+000
  0.000000000000000E+000
  0.000000000000000E+000
  6.340291240108010E-006
  5.298497096935600E-006
  4.442750970708423E-006
  3.734427009468476E-006
  3.136110804949019E-006
  2.606174261406360E-006
  2.096759142568559E-006
  1.554734332028668E-006
  9.214401202920498E-007
  2.809318853559332E-007
  1.191683181375504E-008
  0.000000000000000E+000
  0.000000000000000E+000
  0.000000000000000E+000
  0.000000000000000E+000
  5.364315245023028E-006
  4.478762165854237E-006
  3.805349405661879E-006
  3.298116273190630E-006
  2.910067869033925E-006
  2.590537931382223E-006
  2.287322026141689E-006
  1.949248245829964E-006
  1.526852859468564E-006
  9.930415830015736E-007
  4.333201042611893E-007
  1.319015783940819E-007
  7.000511264088805E-009
  0.000000000000000E+000
  0.000000000000000E+000
  4.360389957479868E-006
  3.638204473500962E-006
  3.154001815025105E-006
  2.852919415030169E-006
  2.677215774210310E-006
  2.566083684434774E-006
  2.461825657815131E-006
  2.315025066913331E-006
  2.085874048905768E-006
  1.750110559097594E-006
  1.325543015676419E-006
  8.969706335506834E-007
  5.711069977766248E-007
  4.174923932931856E-007
  4.662072750447316E-007
  3.338871662550928E-006
  2.795239482903990E-006
  2.510987077667930E-006
  2.421682619336982E-006
  2.455857640736889E-006
  2.544423611131781E-006
  2.629579074264266E-006
  2.665748332224051E-006
  2.619175794316330E-006
  2.470293633795494E-006
  2.219904352758958E-006
  1.910561278246220E-006
  1.630951464952705E-006
  1.462957410161170E-006
  1.414837187216295E-006
  2.318642881094111E-006
  1.968714162845450E-006
  1.900770664587921E-006
  2.025928024063117E-006
  2.258179672294640E-006
  2.531110608556053E-006
  2.794358750474626E-006
  3.008237239072740E-006
  3.142526339511589E-006
  3.177211261850336E-006
  3.107721715846668E-006
  2.954095130517881E-006
  2.760264620225808E-006
  2.569901025760015E-006
  2.403060172812113E-006
  1.323662093551664E-006
  1.184291842057437E-006
  1.349213765176098E-006
  1.677474472597141E-006
  2.085930073258531E-006
  2.524935973811929E-006
  2.954697079899274E-006
  3.341126205790075E-006
  3.655190356087351E-006
  3.874549099114621E-006
  3.986351061588898E-006
  3.987911887400711E-006
  3.885660229843306E-006
  3.696045462557249E-006
  3.446576634657107E-006
  4.394955601057759E-007
  4.926710560040980E-007
  8.622461148400824E-007
  1.369209795036686E-006
  1.931867604857779E-006
  2.520669103406849E-006
  3.105939097410087E-006
  3.657543748931806E-006
  4.146364423684547E-006
  4.545799003184740E-006
  4.831456816973631E-006
  4.981246688469726E-006
  4.979199641569560E-006
  4.823856629169603E-006
  4.532423328955373E-006
  0.000000000000000E+000
  6.919921630492834E-008
  4.419088133350434E-007
  1.086883900977956E-006
  1.787297137993539E-006
  2.512887471153100E-006
  3.241715155242772E-006
  3.946356156654378E-006
  4.597491888380876E-006
  5.164526771048754E-006
  5.614169088771124E-006
  5.911366778396785E-006
  6.025348750243108E-006
  5.937152594763540E-006
  5.646143057302141E-006
  0.000000000000000E+000
  0.000000000000000E+000
  1.574974135366707E-007
  8.361914573446950E-007
  1.652671694286420E-006
  2.499724884850935E-006
  3.355534816738912E-006
  4.194058295374933E-006
  4.987176344808959E-006
  5.703343486519047E-006
  6.306270899676392E-006
  6.754603472190533E-006
  7.005313498596658E-006
  7.019997109659385E-006
  6.774886545357977E-006
  0.000000000000000E+000
  0.000000000000000E+000
  4.712492726735374E-008
  6.471707243355690E-007
  1.542214199549380E-006
  2.485427395021448E-006
  3.442506292010674E-006
  4.387180417789206E-006
  5.294296413535378E-006
  6.136148407328245E-006
  6.879417066642574E-006
  7.482434594705772E-006
  7.893496485003875E-006
  8.053420440913622E-006
  7.907213650501932E-006
  0.000000000000000E+000
  0.000000000000000E+000
  1.094031086391247E-008
  5.139725695321163E-007
  1.469383263658431E-006
  2.475833778649059E-006
  3.498810923255368E-006
  4.513335369524810E-006
  5.499887859753214E-006
  6.438646718869511E-006
  7.304495391735390E-006
  8.061623786809757E-006
  8.656464382289116E-006
  9.011216156582033E-006
  9.029782358929009E-006
  0.000000000000000E+000
  0.000000000000000E+000
  0.000000000000000E+000
  4.230500901367169E-007
  1.428885702434414E-006
  2.469479570728147E-006
  3.518588523977851E-006
  4.560545690856472E-006
  5.586573009527043E-006
  6.588780351995655E-006
  7.553916020271877E-006
  8.457509091640901E-006
  9.253777433594870E-006
  9.857004760812191E-006
  1.012485414715869E-005
  0.000000000000000E+000
  0.000000000000000E+000
  0.000000000000000E+000
  3.699445759016933E-007
  1.407612804847292E-006
  2.454519883916524E-006
  3.490469171184070E-006
  4.515510172301043E-006
  5.538135334315675E-006
  6.567196763918731E-006
  7.604133122178015E-006
  8.637894525215668E-006
  9.638730544541322E-006
  1.053553773985351E-005
  1.115916826848228E-005
  0.000000000000000E+000
  0.000000000000000E+000
  0.000000000000000E+000
  3.509390643235964E-007
  1.391063050085133E-006
  2.412740044314903E-006
  3.397007388172776E-006
  4.363399634551180E-006
  5.341076691377382E-006
  6.358917068834611E-006
  7.436667873585719E-006
  8.578801233941490E-006
  9.774742962401523E-006
  1.099311736290706E-005
  1.209594313714306E-005
  0.000000000000000E+000
  0.000000000000000E+000
  0.000000000000000E+000
  3.412867658247329E-007
  1.358833011923383E-006
  2.318871795599076E-006
  3.215824195825978E-006
  4.089912218990683E-006
  4.988289282134687E-006
  5.957973863556127E-006
  7.040316725190298E-006
  8.262769412213266E-006
  9.635376698572178E-006
  1.116508764817743E-005
  1.283830803752778E-005
  0.000000000000000E+000
  0.000000000000000E+000
  0.000000000000000E+000
  3.248070413056584E-007
  1.276601326167898E-006
  2.137564733454884E-006
  2.920775753723210E-006
  3.683762747350538E-006
  4.482911100392931E-006
  5.374411967679517E-006
  6.418483911848430E-006
  7.676779236968165E-006
  9.196971022228280E-006
  1.102392284932521E-005
  1.331986411375186E-005
  0.000000000000000E+000
  0.000000000000000E+000
  0.000000000000000E+000
  2.647681050548984E-007
  1.091271395199013E-006
  1.824819071603107E-006
  2.485920178151534E-006
  3.139098455236701E-006
  3.837142934526996E-006
  4.635274793353451E-006
  5.602415609278573E-006
  6.830585254025505E-006
  8.437935591932597E-006
  1.055316126872833E-005
  1.351818939400309E-005
  0.000000000000000E+000
  0.000000000000000E+000
  0.000000000000000E+000
  1.127225862394395E-007
  7.317563719847382E-007
  1.338085104954242E-006
  1.895258489158919E-006
  2.457206196707133E-006
  3.067315396103321E-006
  3.775880506469326E-006
  4.649739417125974E-006
  5.790252745794598E-006
  7.369359856929333E-006
  9.695834806281546E-006
  1.343530938707200E-005
  3.991557844373531E-009
  0.000000000000000E+000
  0.000000000000000E+000
  0.000000000000000E+000
  1.613836234779985E-007
  6.653772052075565E-007
  1.152093723501168E-006
  1.646956521399503E-006
  2.189545842041298E-006
  2.826192405335242E-006
  3.617682376921533E-006
  4.658714491772291E-006
  6.127484880970381E-006
  8.438920377981053E-006
  1.303407458987285E-005
SCALARS elementIsPlast double 
LOOKUP_TABLE default
   1.00000000000000     
   1.00000000000000     
   1.00000000000000     
   1.00000000000000     
   1.00000000000000     
   1.00000000000000     
   1.00000000000000     
   1.00000000000000     
  0.000000000000000E+000
  0.000000000000000E+000
  0.000000000000000E+000
  0.000000000000000E+000
  0.000000000000000E+000
  0.000000000000000E+000
  0.000000000000000E+000
   1.00000000000000     
   1.00000000000000     
   1.00000000000000     
   1.00000000000000     
   1.00000000000000     
   1.00000000000000     
   1.00000000000000     
   1.00000000000000     
  0.000000000000000E+000
  0.000000000000000E+000
  0.000000000000000E+000
  0.000000000000000E+000
  0.000000000000000E+000
  0.000000000000000E+000
  0.000000000000000E+000
   1.00000000000000     
   1.00000000000000     
   1.00000000000000     
   1.00000000000000     
   1.00000000000000     
   1.00000000000000     
   1.00000000000000     
   1.00000000000000     
  0.000000000000000E+000
  0.000000000000000E+000
  0.000000000000000E+000
  0.000000000000000E+000
  0.000000000000000E+000
  0.000000000000000E+000
  0.000000000000000E+000
   1.00000000000000     
   1.00000000000000     
   1.00000000000000     
   1.00000000000000     
   1.00000000000000     
   1.00000000000000     
   1.00000000000000     
   1.00000000000000     
  0.000000000000000E+000
  0.000000000000000E+000
  0.000000000000000E+000
  0.000000000000000E+000
  0.000000000000000E+000
  0.000000000000000E+000
  0.000000000000000E+000
   1.00000000000000     
   1.00000000000000     
   1.00000000000000     
   1.00000000000000     
   1.00000000000000     
   1.00000000000000     
   1.00000000000000     
   1.00000000000000     
  0.000000000000000E+000
  0.000000000000000E+000
  0.000000000000000E+000
  0.000000000000000E+000
  0.000000000000000E+000
  0.000000000000000E+000
  0.000000000000000E+000
   1.00000000000000     
   1.00000000000000     
   1.00000000000000     
   1.00000000000000     
   1.00000000000000     
   1.00000000000000     
   1.00000000000000     
   1.00000000000000     
  0.000000000000000E+000
  0.000000000000000E+000
  0.000000000000000E+000
  0.000000000000000E+000
  0.000000000000000E+000
  0.000000000000000E+000
  0.000000000000000E+000
   1.00000000000000     
   1.00000000000000     
   1.00000000000000     
   1.00000000000000     
   1.00000000000000     
   1.00000000000000     
   1.00000000000000     
   1.00000000000000     
  0.000000000000000E+000
  0.000000000000000E+000
  0.000000000000000E+000
  0.000000000000000E+000
  0.000000000000000E+000
  0.000000000000000E+000
  0.000000000000000E+000
   1.00000000000000     
   1.00000000000000     
   1.00000000000000     
   1.00000000000000     
   1.00000000000000     
   1.00000000000000     
   1.00000000000000     
   1.00000000000000     
  0.000000000000000E+000
  0.000000000000000E+000
  0.000000000000000E+000
  0.000000000000000E+000
  0.000000000000000E+000
  0.000000000000000E+000
  0.000000000000000E+000
   1.00000000000000     
   1.00000000000000     
   1.00000000000000     
   1.00000000000000     
   1.00000000000000     
   1.00000000000000     
   1.00000000000000     
   1.00000000000000     
  0.000000000000000E+000
  0.000000000000000E+000
  0.000000000000000E+000
  0.000000000000000E+000
  0.000000000000000E+000
  0.000000000000000E+000
  0.000000000000000E+000
   1.00000000000000     
   1.00000000000000     
   1.00000000000000     
   1.00000000000000     
   1.00000000000000     
   1.00000000000000     
   1.00000000000000     
   1.00000000000000     
   1.00000000000000     
  0.000000000000000E+000
  0.000000000000000E+000
  0.000000000000000E+000
  0.000000000000000E+000
  0.000000000000000E+000
  0.000000000000000E+000
   1.00000000000000     
   1.00000000000000     
   1.00000000000000     
   1.00000000000000     
   1.00000000000000     
   1.00000000000000     
   1.00000000000000     
   1.00000000000000     
   1.00000000000000     
   1.00000000000000     
  0.000000000000000E+000
  0.000000000000000E+000
  0.000000000000000E+000
  0.000000000000000E+000
  0.000000000000000E+000
   1.00000000000000     
   1.00000000000000     
   1.00000000000000     
   1.00000000000000     
   1.00000000000000     
   1.00000000000000     
   1.00000000000000     
   1.00000000000000     
   1.00000000000000     
   1.00000000000000     
   1.00000000000000     
  0.000000000000000E+000
  0.000000000000000E+000
  0.000000000000000E+000
  0.000000000000000E+000
   1.00000000000000     
   1.00000000000000     
   1.00000000000000     
   1.00000000000000     
   1.00000000000000     
   1.00000000000000     
   1.00000000000000     
   1.00000000000000     
   1.00000000000000     
   1.00000000000000     
   1.00000000000000     
   1.00000000000000     
   1.00000000000000     
  0.000000000000000E+000
  0.000000000000000E+000
   1.00000000000000     
   1.00000000000000     
   1.00000000000000     
   1.00000000000000     
   1.00000000000000     
   1.00000000000000     
   1.00000000000000     
   1.00000000000000     
   1.00000000000000     
   1.00000000000000     
   1.00000000000000     
   1.00000000000000     
   1.00000000000000     
   1.00000000000000     
   1.00000000000000     
   1.00000000000000     
   1.00000000000000     
   1.00000000000000     
   1.00000000000000     
   1.00000000000000     
   1.00000000000000     
   1.00000000000000     
   1.00000000000000     
   1.00000000000000     
   1.00000000000000     
   1.00000000000000     
   1.00000000000000     
   1.00000000000000     
   1.00000000000000     
   1.00000000000000     
   1.00000000000000     
   1.00000000000000     
   1.00000000000000     
   1.00000000000000     
   1.00000000000000     
   1.00000000000000     
   1.00000000000000     
   1.00000000000000     
   1.00000000000000     
   1.00000000000000     
   1.00000000000000     
   1.00000000000000     
   1.00000000000000     
   1.00000000000000     
   1.00000000000000     
   1.00000000000000     
   1.00000000000000     
   1.00000000000000     
   1.00000000000000     
   1.00000000000000     
   1.00000000000000     
   1.00000000000000     
   1.00000000000000     
   1.00000000000000     
   1.00000000000000     
   1.00000000000000     
   1.00000000000000     
   1.00000000000000     
   1.00000000000000     
   1.00000000000000     
   1.00000000000000     
   1.00000000000000     
   1.00000000000000     
   1.00000000000000     
   1.00000000000000     
   1.00000000000000     
   1.00000000000000     
   1.00000000000000     
   1.00000000000000     
   1.00000000000000     
   1.00000000000000     
   1.00000000000000     
   1.00000000000000     
   1.00000000000000     
   1.00000000000000     
  0.000000000000000E+000
   1.00000000000000     
   1.00000000000000     
   1.00000000000000     
   1.00000000000000     
   1.00000000000000     
   1.00000000000000     
   1.00000000000000     
   1.00000000000000     
   1.00000000000000     
   1.00000000000000     
   1.00000000000000     
   1.00000000000000     
   1.00000000000000     
   1.00000000000000     
  0.000000000000000E+000
  0.000000000000000E+000
   1.00000000000000     
   1.00000000000000     
   1.00000000000000     
   1.00000000000000     
   1.00000000000000     
   1.00000000000000     
   1.00000000000000     
   1.00000000000000     
   1.00000000000000     
   1.00000000000000     
   1.00000000000000     
   1.00000000000000     
   1.00000000000000     
  0.000000000000000E+000
  0.000000000000000E+000
   1.00000000000000     
   1.00000000000000     
   1.00000000000000     
   1.00000000000000     
   1.00000000000000     
   1.00000000000000     
   1.00000000000000     
   1.00000000000000     
   1.00000000000000     
   1.00000000000000     
   1.00000000000000     
   1.00000000000000     
   1.00000000000000     
  0.000000000000000E+000
  0.000000000000000E+000
   1.00000000000000     
   1.00000000000000     
   1.00000000000000     
   1.00000000000000     
   1.00000000000000     
   1.00000000000000     
   1.00000000000000     
   1.00000000000000     
   1.00000000000000     
   1.00000000000000     
   1.00000000000000     
   1.00000000000000     
   1.00000000000000     
  0.000000000000000E+000
  0.000000000000000E+000
  0.000000000000000E+000
   1.00000000000000     
   1.00000000000000     
   1.00000000000000     
   1.00000000000000     
   1.00000000000000     
   1.00000000000000     
   1.00000000000000     
   1.00000000000000     
   1.00000000000000     
   1.00000000000000     
   1.00000000000000     
   1.00000000000000     
  0.000000000000000E+000
  0.000000000000000E+000
  0.000000000000000E+000
   1.00000000000000     
   1.00000000000000     
   1.00000000000000     
   1.00000000000000     
   1.00000000000000     
   1.00000000000000     
   1.00000000000000     
   1.00000000000000     
   1.00000000000000     
   1.00000000000000     
   1.00000000000000     
   1.00000000000000     
  0.000000000000000E+000
  0.000000000000000E+000
  0.000000000000000E+000
   1.00000000000000     
   1.00000000000000     
   1.00000000000000     
   1.00000000000000     
   1.00000000000000     
   1.00000000000000     
   1.00000000000000     
   1.00000000000000     
   1.00000000000000     
   1.00000000000000     
   1.00000000000000     
   1.00000000000000     
  0.000000000000000E+000
  0.000000000000000E+000
  0.000000000000000E+000
   1.00000000000000     
   1.00000000000000     
   1.00000000000000     
   1.00000000000000     
   1.00000000000000     
   1.00000000000000     
   1.00000000000000     
   1.00000000000000     
   1.00000000000000     
   1.00000000000000     
   1.00000000000000     
   1.00000000000000     
  0.000000000000000E+000
  0.000000000000000E+000
  0.000000000000000E+000
   1.00000000000000     
   1.00000000000000     
   1.00000000000000     
   1.00000000000000     
   1.00000000000000     
   1.00000000000000     
   1.00000000000000     
   1.00000000000000     
   1.00000000000000     
   1.00000000000000     
   1.00000000000000     
   1.00000000000000     
  0.000000000000000E+000
  0.000000000000000E+000
  0.000000000000000E+000
   1.00000000000000     
   1.00000000000000     
   1.00000000000000     
   1.00000000000000     
   1.00000000000000     
   1.00000000000000     
   1.00000000000000     
   1.00000000000000     
   1.00000000000000     
   1.00000000000000     
   1.00000000000000     
   1.00000000000000     
  0.000000000000000E+000
  0.000000000000000E+000
  0.000000000000000E+000
   1.00000000000000     
   1.00000000000000     
   1.00000000000000     
   1.00000000000000     
   1.00000000000000     
   1.00000000000000     
   1.00000000000000     
   1.00000000000000     
   1.00000000000000     
   1.00000000000000     
   1.00000000000000     
   1.00000000000000     
  0.000000000000000E+000
  0.000000000000000E+000
  0.000000000000000E+000
  0.000000000000000E+000
   1.00000000000000     
   1.00000000000000     
   1.00000000000000     
   1.00000000000000     
   1.00000000000000     
   1.00000000000000     
   1.00000000000000     
   1.00000000000000     
   1.00000000000000     
   1.00000000000000     
   1.00000000000000     
SCALARS poroL double 
LOOKUP_TABLE default
  0.155934349757368     
  0.155932827370073     
  0.155931389413186     
  0.155930056493060     
  0.155928842825545     
  0.155927746194234     
  0.155926754414873     
  0.155925788979877     
  0.155923722503623     
  0.155921635592872     
  0.155919753381196     
  0.155918064975822     
  0.155916560610040     
  0.155915231556915     
  0.155914070043097     
  0.155933893182131     
  0.155932363788112     
  0.155930920335257     
  0.155929584228371     
  0.155928368498499     
  0.155927268801667     
  0.155926273064147     
  0.155925302457449     
  0.155923248182758     
  0.155921176618901     
  0.155919308449550     
  0.155917632870624     
  0.155916140229375     
  0.155914821910691     
  0.155913670217763     
  0.155932977932795     
  0.155931436212616     
  0.155929981501331     
  0.155928637895327     
  0.155927417177611     
  0.155926311987744     
  0.155925308687862     
  0.155924330041141     
  0.155922301405778     
  0.155920260502427     
  0.155918420339420     
  0.155916770270367     
  0.155915300951150     
  0.155914004039284     
  0.155912871970171     
  0.155931597262153     
  0.155930040737075     
  0.155928570616850     
  0.155927216390407     
  0.155925987208674     
  0.155924873132941     
  0.155923858773583     
  0.155922873030076     
  0.155920885828321     
  0.155918891131194     
  0.155917092628293     
  0.155915480305117     
  0.155914045685943     
  0.155912780740217     
  0.155911678074971     
  0.155929739817559     
  0.155928171104382     
  0.155926687805187     
  0.155925321504873     
  0.155924079099134     
  0.155922952114584     
  0.155921923558615     
  0.155920933540903     
  0.155919008304108     
  0.155917075173613     
  0.155915330325701     
  0.155913767507866     
  0.155912378647110     
  0.155911156101437     
  0.155910092619607     
  0.155927392192102     
  0.155925822623254     
  0.155924335931411     
  0.155922958603904     
  0.155921697159098     
  0.155920549593370     
  0.155919507510447     
  0.155918520211904     
  0.155916684475490     
  0.155914819353655     
  0.155913139810163     
  0.155911637532666     
  0.155910305172520     
  0.155909135376599     
  0.155908120926473     
  0.155924541667053     
  0.155922990246205     
  0.155921518842692     
  0.155920139636069     
  0.155918855748658     
  0.155917676915179     
  0.155916609064155     
  0.155915630598708     
  0.155913916242881     
  0.155912132158205     
  0.155910528159211     
  0.155909096821530     
  0.155907831508675     
  0.155906724820573     
  0.155905769453289     
  0.155921182650965     
  0.155919673187737     
  0.155918240113457     
  0.155916876552599     
  0.155915578413046     
  0.155914358106947     
  0.155913242391603     
  0.155912256248673     
  0.155910714116088     
  0.155909022420439     
  0.155907502275140     
  0.155906152454805     
  0.155904964572345     
  0.155903931405091     
  0.155903045665321     
  0.155917321015460     
  0.155915875512127     
  0.155914505212083     
  0.155913179064669     
  0.155911883768446     
  0.155910630690903     
  0.155909452964408     
  0.155908413233462     
  0.155907100240676     
  0.155905492777258     
  0.155904070246294     
  0.155902812274824     
  0.155901711304613     
  0.155900762439858     
  0.155899957721054     
  0.155912971079096     
  0.155911620091091     
  0.155910327981089     
  0.155909051346318     
  0.155907781637844     
  0.155906525070375     
  0.155905300298583     
  0.155904149905776     
  0.155903038108092     
  0.155901554726720     
  0.155900244213630     
  0.155899082734542     
  0.155898078663917     
  0.155897224337970     
  0.155896513894073     
  0.155908178101282     
  0.155906933373120     
  0.155905719790267     
  0.155904501863328     
  0.155903275933786     
  0.155902048783815     
  0.155900828790013     
  0.155899627909610     
  0.155898496350848     
  0.155897249233401     
  0.155896023929564     
  0.155894974974596     
  0.155894070286035     
  0.155893321124535     
  0.155892720428680     
  0.155902972527802     
  0.155901834863843     
  0.155900697057518     
  0.155899542889842     
  0.155898377087255     
  0.155897209910135     
  0.155896051179870     
  0.155894911811655     
  0.155893772970002     
  0.155892613588131     
  0.155891451955423     
  0.155890485834783     
  0.155889692727280     
  0.155889049071901     
  0.155888573462394     
  0.155897383829871     
  0.155896340945797     
  0.155895276946313     
  0.155894194954288     
  0.155893108810432     
  0.155892033533724     
  0.155890980661191     
  0.155889950177216     
  0.155888941096544     
  0.155887908531800     
  0.155886826034220     
  0.155885748085319     
  0.155884968922615     
  0.155884381457566     
  0.155884028524015     
  0.155891409946858     
  0.155890458503394     
  0.155889476422108     
  0.155888483623645     
  0.155887504500717     
  0.155886555803876     
  0.155885641872922     
  0.155884761757129     
  0.155883908968297     
  0.155883078546295     
  0.155882234568997     
  0.155881342575578     
  0.155880504943297     
  0.155879845486180     
  0.155879418961123     
  0.155885040375687     
  0.155884193963391     
  0.155883313246127     
  0.155882438463885     
  0.155881602421866     
  0.155880814643832     
  0.155880071357640     
  0.155879366087270     
  0.155878694154429     
  0.155878047065668     
  0.155877410186551     
  0.155876772527535     
  0.155876137906970     
  0.155875538892291     
  0.155874960543390     
  0.155878276568228     
  0.155877554684419     
  0.155876802889824     
  0.155876091697438     
  0.155875441616834     
  0.155874846087234     
  0.155874296828065     
  0.155873785601995     
  0.155873303672148     
  0.155872840617782     
  0.155872383996638     
  0.155871912978304     
  0.155871400160899     
  0.155870831176219     
  0.155870258863869     
  0.155871119639353     
  0.155870528371256     
  0.155869971645845     
  0.155869485284393     
  0.155869056108165     
  0.155868676297413     
  0.155868338206923     
  0.155868033013029     
  0.155867748052331     
  0.155867466355640     
  0.155867164732567     
  0.155866812325249     
  0.155866378396823     
  0.155865860807474     
  0.155865298026751     
  0.155863458120644     
  0.155863109501313     
  0.155862877899922     
  0.155862654489739     
  0.155862469576811     
  0.155862322060983     
  0.155862208824756     
  0.155862119370854     
  0.155862035522705     
  0.155861930426411     
  0.155861770896644     
  0.155861522992628     
  0.155861163647302     
  0.155860690660052     
  0.155860129266692     
  0.155855448770386     
  0.155855424129398     
  0.155855588608362     
  0.155855630778677     
  0.155855697197780     
  0.155855794882239     
  0.155855918534727     
  0.155856053584754     
  0.155856174210744     
  0.155856246191853     
  0.155856230981175     
  0.155856094009165     
  0.155855812211646     
  0.155855380065998     
  0.155854813302446     
  0.155847130898141     
  0.155847540545779     
  0.155848107855349     
  0.155848442377200     
  0.155848755517544     
  0.155849105968303     
  0.155849478017475     
  0.155849846588358     
  0.155850177929509     
  0.155850433091413     
  0.155850572177080     
  0.155850558870192     
  0.155850365829298     
  0.155849979409384     
  0.155849406380411     
  0.155838280703112     
  0.155839251894036     
  0.155840352301798     
  0.155841099806846     
  0.155841655910689     
  0.155842270576985     
  0.155842902413124     
  0.155843513391788     
  0.155844062537115     
  0.155844508683409     
  0.155844812994582     
  0.155844938502553     
  0.155844852169449     
  0.155844528271563     
  0.155843958143201     
  0.155829118153682     
  0.155830626971812     
  0.155832280040381     
  0.155833532215021     
  0.155834399340427     
  0.155835303379484     
  0.155836209614099     
  0.155837071442924     
  0.155837843457593     
  0.155838485398062     
  0.155838961859718     
  0.155839239679412     
  0.155839282680049     
  0.155839050704678     
  0.155838508341916     
  0.155819684383148     
  0.155821758013489     
  0.155823950945225     
  0.155825760030827     
  0.155826986557849     
  0.155828218943018     
  0.155829417761615     
  0.155830538126053     
  0.155831534700113     
  0.155832370622620     
  0.155833018599958     
  0.155833455394045     
  0.155833649528693     
  0.155833550055180     
  0.155833086480100     
  0.155810034070100     
  0.155812705678531     
  0.155815458642569     
  0.155817825712979     
  0.155819456873539     
  0.155821042836349     
  0.155822548456172     
  0.155823929388500     
  0.155825146429438     
  0.155826169777435     
  0.155826980824200     
  0.155827569479246     
  0.155827923384040     
  0.155827998590384     
  0.155827686056625     
  0.155800219159277     
  0.155803534830356     
  0.155806883501024     
  0.155809805560426     
  0.155811871472537     
  0.155813823235907     
  0.155815633613876     
  0.155817263408796     
  0.155818686867208     
  0.155819886503245     
  0.155820850153751     
  0.155821576117668     
  0.155822075935660     
  0.155822355439774     
  0.155822303765992     
  0.155790295235697     
  0.155794321868647     
  0.155798311653481     
  0.155801793907637     
  0.155804314162494     
  0.155806627744711     
  0.155808718183157     
  0.155810565642531     
  0.155812166755452     
  0.155813523388307     
  0.155814632452420     
  0.155815487221252     
  0.155816104296774     
  0.155816541033999     
  0.155816851788463     
  0.155780323703196     
  0.155785169447895     
  0.155789863203239     
  0.155793918252053     
  0.155796897119685     
  0.155799537583360     
  0.155801858016371     
  0.155803871344632     
  0.155805606466490     
  0.155807088172592     
  0.155808327949777     
  0.155809319782636     
  0.155810050179421     
  0.155810607436721     
  0.155811277757979     
  0.155770387122597     
  0.155776248664983     
  0.155781712429653     
  0.155786344314778     
  0.155789747447573     
  0.155792641422533     
  0.155795112641311     
  0.155797226197084     
  0.155799040430670     
  0.155800598836796     
  0.155801932154802     
  0.155803055096827     
  0.155803958728449     
  0.155804622656401     
  0.155805560408562     
  0.155760649919131     
  0.155767922346342     
  0.155774173231215     
  0.155779238984653     
  0.155783011045991     
  0.155786019023676     
  0.155788538542357     
  0.155790682547133     
  0.155792515765584     
  0.155794090307395     
  0.155795452384307     
  0.155796645804190     
  0.155797710014614     
  0.155798687868040     
  0.155799749721464     
  0.155751838619806     
  0.155760980570049     
  0.155767716696311     
  0.155772921587683     
  0.155776803543554     
  0.155779715831019     
  0.155782193907597     
  0.155784296687740     
  0.155786082884859     
  0.155787605567173     
  0.155788914946447     
  0.155790066851201     
  0.155791139776533     
  0.155792275048036     
  0.155794131858848     
