# vtk DataFile Version 3.0
vtk output
ASCII
DATASET UNSTRUCTURED_GRID
POINTS       496 double 
  0.00000000E+00  3.00000000E+02  0.00000000E+00
  0.00000000E+00  2.80000000E+02  0.00000000E+00
  0.00000000E+00  2.60000000E+02  0.00000000E+00
  0.00000000E+00  2.40000000E+02  0.00000000E+00
  0.00000000E+00  2.20000000E+02  0.00000000E+00
  0.00000000E+00  2.00000000E+02  0.00000000E+00
  0.00000000E+00  1.80000000E+02  0.00000000E+00
  0.00000000E+00  1.60000000E+02  0.00000000E+00
  0.00000000E+00  1.40000000E+02  0.00000000E+00
  0.00000000E+00  1.20000000E+02  0.00000000E+00
  0.00000000E+00  1.00000000E+02  0.00000000E+00
  0.00000000E+00  8.00000000E+01  0.00000000E+00
  0.00000000E+00  6.00000000E+01  0.00000000E+00
  0.00000000E+00  4.00000000E+01  0.00000000E+00
  0.00000000E+00  2.00000000E+01  0.00000000E+00
  0.00000000E+00  4.99600361E-14  0.00000000E+00
  2.00000000E+01  3.00000000E+02  0.00000000E+00
  2.00000000E+01  2.80000000E+02  0.00000000E+00
  2.00000000E+01  2.60000000E+02  0.00000000E+00
  2.00000000E+01  2.40000000E+02  0.00000000E+00
  2.00000000E+01  2.20000000E+02  0.00000000E+00
  2.00000000E+01  2.00000000E+02  0.00000000E+00
  2.00000000E+01  1.80000000E+02  0.00000000E+00
  2.00000000E+01  1.60000000E+02  0.00000000E+00
  2.00000000E+01  1.40000000E+02  0.00000000E+00
  2.00000000E+01  1.20000000E+02  0.00000000E+00
  2.00000000E+01  1.00000000E+02  0.00000000E+00
  2.00000000E+01  8.00000000E+01  0.00000000E+00
  2.00000000E+01  6.00000000E+01  0.00000000E+00
  2.00000000E+01  4.00000000E+01  0.00000000E+00
  2.00000000E+01  2.00000000E+01  0.00000000E+00
  2.00000000E+01  4.99600361E-14  0.00000000E+00
  4.00000000E+01  3.00000000E+02  0.00000000E+00
  4.00000000E+01  2.80000000E+02  0.00000000E+00
  4.00000000E+01  2.60000000E+02  0.00000000E+00
  4.00000000E+01  2.40000000E+02  0.00000000E+00
  4.00000000E+01  2.20000000E+02  0.00000000E+00
  4.00000000E+01  2.00000000E+02  0.00000000E+00
  4.00000000E+01  1.80000000E+02  0.00000000E+00
  4.00000000E+01  1.60000000E+02  0.00000000E+00
  4.00000000E+01  1.40000000E+02  0.00000000E+00
  4.00000000E+01  1.20000000E+02  0.00000000E+00
  4.00000000E+01  1.00000000E+02  0.00000000E+00
  4.00000000E+01  8.00000000E+01  0.00000000E+00
  4.00000000E+01  6.00000000E+01  0.00000000E+00
  4.00000000E+01  4.00000000E+01  0.00000000E+00
  4.00000000E+01  2.00000000E+01  0.00000000E+00
  4.00000000E+01  4.99600361E-14  0.00000000E+00
  6.00000000E+01  3.00000000E+02  0.00000000E+00
  6.00000000E+01  2.80000000E+02  0.00000000E+00
  6.00000000E+01  2.60000000E+02  0.00000000E+00
  6.00000000E+01  2.40000000E+02  0.00000000E+00
  6.00000000E+01  2.20000000E+02  0.00000000E+00
  6.00000000E+01  2.00000000E+02  0.00000000E+00
  6.00000000E+01  1.80000000E+02  0.00000000E+00
  6.00000000E+01  1.60000000E+02  0.00000000E+00
  6.00000000E+01  1.40000000E+02  0.00000000E+00
  6.00000000E+01  1.20000000E+02  0.00000000E+00
  6.00000000E+01  1.00000000E+02  0.00000000E+00
  6.00000000E+01  8.00000000E+01  0.00000000E+00
  6.00000000E+01  6.00000000E+01  0.00000000E+00
  6.00000000E+01  4.00000000E+01  0.00000000E+00
  6.00000000E+01  2.00000000E+01  0.00000000E+00
  6.00000000E+01  4.99600361E-14  0.00000000E+00
  8.00000000E+01  3.00000000E+02  0.00000000E+00
  8.00000000E+01  2.80000000E+02  0.00000000E+00
  8.00000000E+01  2.60000000E+02  0.00000000E+00
  8.00000000E+01  2.40000000E+02  0.00000000E+00
  8.00000000E+01  2.20000000E+02  0.00000000E+00
  8.00000000E+01  2.00000000E+02  0.00000000E+00
  8.00000000E+01  1.80000000E+02  0.00000000E+00
  8.00000000E+01  1.60000000E+02  0.00000000E+00
  8.00000000E+01  1.40000000E+02  0.00000000E+00
  8.00000000E+01  1.20000000E+02  0.00000000E+00
  8.00000000E+01  1.00000000E+02  0.00000000E+00
  8.00000000E+01  8.00000000E+01  0.00000000E+00
  8.00000000E+01  6.00000000E+01  0.00000000E+00
  8.00000000E+01  4.00000000E+01  0.00000000E+00
  8.00000000E+01  2.00000000E+01  0.00000000E+00
  8.00000000E+01  4.99600361E-14  0.00000000E+00
  1.00000000E+02  3.00000000E+02  0.00000000E+00
  1.00000000E+02  2.80000000E+02  0.00000000E+00
  1.00000000E+02  2.60000000E+02  0.00000000E+00
  1.00000000E+02  2.40000000E+02  0.00000000E+00
  1.00000000E+02  2.20000000E+02  0.00000000E+00
  1.00000000E+02  2.00000000E+02  0.00000000E+00
  1.00000000E+02  1.80000000E+02  0.00000000E+00
  1.00000000E+02  1.60000000E+02  0.00000000E+00
  1.00000000E+02  1.40000000E+02  0.00000000E+00
  1.00000000E+02  1.20000000E+02  0.00000000E+00
  1.00000000E+02  1.00000000E+02  0.00000000E+00
  1.00000000E+02  8.00000000E+01  0.00000000E+00
  1.00000000E+02  6.00000000E+01  0.00000000E+00
  1.00000000E+02  4.00000000E+01  0.00000000E+00
  1.00000000E+02  2.00000000E+01  0.00000000E+00
  1.00000000E+02  4.99600361E-14  0.00000000E+00
  1.20000000E+02  3.00000000E+02  0.00000000E+00
  1.20000000E+02  2.80000000E+02  0.00000000E+00
  1.20000000E+02  2.60000000E+02  0.00000000E+00
  1.20000000E+02  2.40000000E+02  0.00000000E+00
  1.20000000E+02  2.20000000E+02  0.00000000E+00
  1.20000000E+02  2.00000000E+02  0.00000000E+00
  1.20000000E+02  1.80000000E+02  0.00000000E+00
  1.20000000E+02  1.60000000E+02  0.00000000E+00
  1.20000000E+02  1.40000000E+02  0.00000000E+00
  1.20000000E+02  1.20000000E+02  0.00000000E+00
  1.20000000E+02  1.00000000E+02  0.00000000E+00
  1.20000000E+02  8.00000000E+01  0.00000000E+00
  1.20000000E+02  6.00000000E+01  0.00000000E+00
  1.20000000E+02  4.00000000E+01  0.00000000E+00
  1.20000000E+02  2.00000000E+01  0.00000000E+00
  1.20000000E+02  4.99600361E-14  0.00000000E+00
  1.40000000E+02  3.00000000E+02  0.00000000E+00
  1.40000000E+02  2.80000000E+02  0.00000000E+00
  1.40000000E+02  2.60000000E+02  0.00000000E+00
  1.40000000E+02  2.40000000E+02  0.00000000E+00
  1.40000000E+02  2.20000000E+02  0.00000000E+00
  1.40000000E+02  2.00000000E+02  0.00000000E+00
  1.40000000E+02  1.80000000E+02  0.00000000E+00
  1.40000000E+02  1.60000000E+02  0.00000000E+00
  1.40000000E+02  1.40000000E+02  0.00000000E+00
  1.40000000E+02  1.20000000E+02  0.00000000E+00
  1.40000000E+02  1.00000000E+02  0.00000000E+00
  1.40000000E+02  8.00000000E+01  0.00000000E+00
  1.40000000E+02  6.00000000E+01  0.00000000E+00
  1.40000000E+02  4.00000000E+01  0.00000000E+00
  1.40000000E+02  2.00000000E+01  0.00000000E+00
  1.40000000E+02  4.99600361E-14  0.00000000E+00
  1.60000000E+02  3.00000000E+02  0.00000000E+00
  1.60000000E+02  2.80000000E+02  0.00000000E+00
  1.60000000E+02  2.60000000E+02  0.00000000E+00
  1.60000000E+02  2.40000000E+02  0.00000000E+00
  1.60000000E+02  2.20000000E+02  0.00000000E+00
  1.60000000E+02  2.00000000E+02  0.00000000E+00
  1.60000000E+02  1.80000000E+02  0.00000000E+00
  1.60000000E+02  1.60000000E+02  0.00000000E+00
  1.60000000E+02  1.40000000E+02  0.00000000E+00
  1.60000000E+02  1.20000000E+02  0.00000000E+00
  1.60000000E+02  1.00000000E+02  0.00000000E+00
  1.60000000E+02  8.00000000E+01  0.00000000E+00
  1.60000000E+02  6.00000000E+01  0.00000000E+00
  1.60000000E+02  4.00000000E+01  0.00000000E+00
  1.60000000E+02  2.00000000E+01  0.00000000E+00
  1.60000000E+02  4.99600361E-14  0.00000000E+00
  1.80000000E+02  3.00000000E+02  0.00000000E+00
  1.80000000E+02  2.80000000E+02  0.00000000E+00
  1.80000000E+02  2.60000000E+02  0.00000000E+00
  1.80000000E+02  2.40000000E+02  0.00000000E+00
  1.80000000E+02  2.20000000E+02  0.00000000E+00
  1.80000000E+02  2.00000000E+02  0.00000000E+00
  1.80000000E+02  1.80000000E+02  0.00000000E+00
  1.80000000E+02  1.60000000E+02  0.00000000E+00
  1.80000000E+02  1.40000000E+02  0.00000000E+00
  1.80000000E+02  1.20000000E+02  0.00000000E+00
  1.80000000E+02  1.00000000E+02  0.00000000E+00
  1.80000000E+02  8.00000000E+01  0.00000000E+00
  1.80000000E+02  6.00000000E+01  0.00000000E+00
  1.80000000E+02  4.00000000E+01  0.00000000E+00
  1.80000000E+02  2.00000000E+01  0.00000000E+00
  1.80000000E+02  4.99600361E-14  0.00000000E+00
  2.00000000E+02  3.00000000E+02  0.00000000E+00
  2.00000000E+02  2.80000000E+02  0.00000000E+00
  2.00000000E+02  2.60000000E+02  0.00000000E+00
  2.00000000E+02  2.40000000E+02  0.00000000E+00
  2.00000000E+02  2.20000000E+02  0.00000000E+00
  2.00000000E+02  2.00000000E+02  0.00000000E+00
  2.00000000E+02  1.80000000E+02  0.00000000E+00
  2.00000000E+02  1.60000000E+02  0.00000000E+00
  2.00000000E+02  1.40000000E+02  0.00000000E+00
  2.00000000E+02  1.20000000E+02  0.00000000E+00
  2.00000000E+02  1.00000000E+02  0.00000000E+00
  2.00000000E+02  8.00000000E+01  0.00000000E+00
  2.00000000E+02  6.00000000E+01  0.00000000E+00
  2.00000000E+02  4.00000000E+01  0.00000000E+00
  2.00000000E+02  2.00000000E+01  0.00000000E+00
  2.00000000E+02  4.99600361E-14  0.00000000E+00
  2.20000000E+02  3.00000000E+02  0.00000000E+00
  2.20000000E+02  2.80000000E+02  0.00000000E+00
  2.20000000E+02  2.60000000E+02  0.00000000E+00
  2.20000000E+02  2.40000000E+02  0.00000000E+00
  2.20000000E+02  2.20000000E+02  0.00000000E+00
  2.20000000E+02  2.00000000E+02  0.00000000E+00
  2.20000000E+02  1.80000000E+02  0.00000000E+00
  2.20000000E+02  1.60000000E+02  0.00000000E+00
  2.20000000E+02  1.40000000E+02  0.00000000E+00
  2.20000000E+02  1.20000000E+02  0.00000000E+00
  2.20000000E+02  1.00000000E+02  0.00000000E+00
  2.20000000E+02  8.00000000E+01  0.00000000E+00
  2.20000000E+02  6.00000000E+01  0.00000000E+00
  2.20000000E+02  4.00000000E+01  0.00000000E+00
  2.20000000E+02  2.00000000E+01  0.00000000E+00
  2.20000000E+02  4.99600361E-14  0.00000000E+00
  2.40000000E+02  3.00000000E+02  0.00000000E+00
  2.40000000E+02  2.80000000E+02  0.00000000E+00
  2.40000000E+02  2.60000000E+02  0.00000000E+00
  2.40000000E+02  2.40000000E+02  0.00000000E+00
  2.40000000E+02  2.20000000E+02  0.00000000E+00
  2.40000000E+02  2.00000000E+02  0.00000000E+00
  2.40000000E+02  1.80000000E+02  0.00000000E+00
  2.40000000E+02  1.60000000E+02  0.00000000E+00
  2.40000000E+02  1.40000000E+02  0.00000000E+00
  2.40000000E+02  1.20000000E+02  0.00000000E+00
  2.40000000E+02  1.00000000E+02  0.00000000E+00
  2.40000000E+02  8.00000000E+01  0.00000000E+00
  2.40000000E+02  6.00000000E+01  0.00000000E+00
  2.40000000E+02  4.00000000E+01  0.00000000E+00
  2.40000000E+02  2.00000000E+01  0.00000000E+00
  2.40000000E+02  4.99600361E-14  0.00000000E+00
  2.60000000E+02  3.00000000E+02  0.00000000E+00
  2.60000000E+02  2.80000000E+02  0.00000000E+00
  2.60000000E+02  2.60000000E+02  0.00000000E+00
  2.60000000E+02  2.40000000E+02  0.00000000E+00
  2.60000000E+02  2.20000000E+02  0.00000000E+00
  2.60000000E+02  2.00000000E+02  0.00000000E+00
  2.60000000E+02  1.80000000E+02  0.00000000E+00
  2.60000000E+02  1.60000000E+02  0.00000000E+00
  2.60000000E+02  1.40000000E+02  0.00000000E+00
  2.60000000E+02  1.20000000E+02  0.00000000E+00
  2.60000000E+02  1.00000000E+02  0.00000000E+00
  2.60000000E+02  8.00000000E+01  0.00000000E+00
  2.60000000E+02  6.00000000E+01  0.00000000E+00
  2.60000000E+02  4.00000000E+01  0.00000000E+00
  2.60000000E+02  2.00000000E+01  0.00000000E+00
  2.60000000E+02  4.99600361E-14  0.00000000E+00
  2.80000000E+02  3.00000000E+02  0.00000000E+00
  2.80000000E+02  2.80000000E+02  0.00000000E+00
  2.80000000E+02  2.60000000E+02  0.00000000E+00
  2.80000000E+02  2.40000000E+02  0.00000000E+00
  2.80000000E+02  2.20000000E+02  0.00000000E+00
  2.80000000E+02  2.00000000E+02  0.00000000E+00
  2.80000000E+02  1.80000000E+02  0.00000000E+00
  2.80000000E+02  1.60000000E+02  0.00000000E+00
  2.80000000E+02  1.40000000E+02  0.00000000E+00
  2.80000000E+02  1.20000000E+02  0.00000000E+00
  2.80000000E+02  1.00000000E+02  0.00000000E+00
  2.80000000E+02  8.00000000E+01  0.00000000E+00
  2.80000000E+02  6.00000000E+01  0.00000000E+00
  2.80000000E+02  4.00000000E+01  0.00000000E+00
  2.80000000E+02  2.00000000E+01  0.00000000E+00
  2.80000000E+02  4.99600361E-14  0.00000000E+00
  3.00000000E+02  3.00000000E+02  0.00000000E+00
  3.00000000E+02  2.80000000E+02  0.00000000E+00
  3.00000000E+02  2.60000000E+02  0.00000000E+00
  3.00000000E+02  2.40000000E+02  0.00000000E+00
  3.00000000E+02  2.20000000E+02  0.00000000E+00
  3.00000000E+02  2.00000000E+02  0.00000000E+00
  3.00000000E+02  1.80000000E+02  0.00000000E+00
  3.00000000E+02  1.60000000E+02  0.00000000E+00
  3.00000000E+02  1.40000000E+02  0.00000000E+00
  3.00000000E+02  1.20000000E+02  0.00000000E+00
  3.00000000E+02  1.00000000E+02  0.00000000E+00
  3.00000000E+02  8.00000000E+01  0.00000000E+00
  3.00000000E+02  6.00000000E+01  0.00000000E+00
  3.00000000E+02  4.00000000E+01  0.00000000E+00
  3.00000000E+02  2.00000000E+01  0.00000000E+00
  3.00000000E+02  4.99600361E-14  0.00000000E+00
  3.20000000E+02  3.00000000E+02  0.00000000E+00
  3.20000000E+02  2.80000000E+02  0.00000000E+00
  3.20000000E+02  2.60000000E+02  0.00000000E+00
  3.20000000E+02  2.40000000E+02  0.00000000E+00
  3.20000000E+02  2.20000000E+02  0.00000000E+00
  3.20000000E+02  2.00000000E+02  0.00000000E+00
  3.20000000E+02  1.80000000E+02  0.00000000E+00
  3.20000000E+02  1.60000000E+02  0.00000000E+00
  3.20000000E+02  1.40000000E+02  0.00000000E+00
  3.20000000E+02  1.20000000E+02  0.00000000E+00
  3.20000000E+02  1.00000000E+02  0.00000000E+00
  3.20000000E+02  8.00000000E+01  0.00000000E+00
  3.20000000E+02  6.00000000E+01  0.00000000E+00
  3.20000000E+02  4.00000000E+01  0.00000000E+00
  3.20000000E+02  2.00000000E+01  0.00000000E+00
  3.20000000E+02  4.99600361E-14  0.00000000E+00
  3.40000000E+02  3.00000000E+02  0.00000000E+00
  3.40000000E+02  2.80000000E+02  0.00000000E+00
  3.40000000E+02  2.60000000E+02  0.00000000E+00
  3.40000000E+02  2.40000000E+02  0.00000000E+00
  3.40000000E+02  2.20000000E+02  0.00000000E+00
  3.40000000E+02  2.00000000E+02  0.00000000E+00
  3.40000000E+02  1.80000000E+02  0.00000000E+00
  3.40000000E+02  1.60000000E+02  0.00000000E+00
  3.40000000E+02  1.40000000E+02  0.00000000E+00
  3.40000000E+02  1.20000000E+02  0.00000000E+00
  3.40000000E+02  1.00000000E+02  0.00000000E+00
  3.40000000E+02  8.00000000E+01  0.00000000E+00
  3.40000000E+02  6.00000000E+01  0.00000000E+00
  3.40000000E+02  4.00000000E+01  0.00000000E+00
  3.40000000E+02  2.00000000E+01  0.00000000E+00
  3.40000000E+02  4.99600361E-14  0.00000000E+00
  3.60000000E+02  3.00000000E+02  0.00000000E+00
  3.60000000E+02  2.80000000E+02  0.00000000E+00
  3.60000000E+02  2.60000000E+02  0.00000000E+00
  3.60000000E+02  2.40000000E+02  0.00000000E+00
  3.60000000E+02  2.20000000E+02  0.00000000E+00
  3.60000000E+02  2.00000000E+02  0.00000000E+00
  3.60000000E+02  1.80000000E+02  0.00000000E+00
  3.60000000E+02  1.60000000E+02  0.00000000E+00
  3.60000000E+02  1.40000000E+02  0.00000000E+00
  3.60000000E+02  1.20000000E+02  0.00000000E+00
  3.60000000E+02  1.00000000E+02  0.00000000E+00
  3.60000000E+02  8.00000000E+01  0.00000000E+00
  3.60000000E+02  6.00000000E+01  0.00000000E+00
  3.60000000E+02  4.00000000E+01  0.00000000E+00
  3.60000000E+02  2.00000000E+01  0.00000000E+00
  3.60000000E+02  4.99600361E-14  0.00000000E+00
  3.80000000E+02  3.00000000E+02  0.00000000E+00
  3.80000000E+02  2.80000000E+02  0.00000000E+00
  3.80000000E+02  2.60000000E+02  0.00000000E+00
  3.80000000E+02  2.40000000E+02  0.00000000E+00
  3.80000000E+02  2.20000000E+02  0.00000000E+00
  3.80000000E+02  2.00000000E+02  0.00000000E+00
  3.80000000E+02  1.80000000E+02  0.00000000E+00
  3.80000000E+02  1.60000000E+02  0.00000000E+00
  3.80000000E+02  1.40000000E+02  0.00000000E+00
  3.80000000E+02  1.20000000E+02  0.00000000E+00
  3.80000000E+02  1.00000000E+02  0.00000000E+00
  3.80000000E+02  8.00000000E+01  0.00000000E+00
  3.80000000E+02  6.00000000E+01  0.00000000E+00
  3.80000000E+02  4.00000000E+01  0.00000000E+00
  3.80000000E+02  2.00000000E+01  0.00000000E+00
  3.80000000E+02  4.99600361E-14  0.00000000E+00
  4.00000000E+02  3.00000000E+02  0.00000000E+00
  4.00000000E+02  2.80000000E+02  0.00000000E+00
  4.00000000E+02  2.60000000E+02  0.00000000E+00
  4.00000000E+02  2.40000000E+02  0.00000000E+00
  4.00000000E+02  2.20000000E+02  0.00000000E+00
  4.00000000E+02  2.00000000E+02  0.00000000E+00
  4.00000000E+02  1.80000000E+02  0.00000000E+00
  4.00000000E+02  1.60000000E+02  0.00000000E+00
  4.00000000E+02  1.40000000E+02  0.00000000E+00
  4.00000000E+02  1.20000000E+02  0.00000000E+00
  4.00000000E+02  1.00000000E+02  0.00000000E+00
  4.00000000E+02  8.00000000E+01  0.00000000E+00
  4.00000000E+02  6.00000000E+01  0.00000000E+00
  4.00000000E+02  4.00000000E+01  0.00000000E+00
  4.00000000E+02  2.00000000E+01  0.00000000E+00
  4.00000000E+02  4.99600361E-14  0.00000000E+00
  4.20000000E+02  3.00000000E+02  0.00000000E+00
  4.20000000E+02  2.80000000E+02  0.00000000E+00
  4.20000000E+02  2.60000000E+02  0.00000000E+00
  4.20000000E+02  2.40000000E+02  0.00000000E+00
  4.20000000E+02  2.20000000E+02  0.00000000E+00
  4.20000000E+02  2.00000000E+02  0.00000000E+00
  4.20000000E+02  1.80000000E+02  0.00000000E+00
  4.20000000E+02  1.60000000E+02  0.00000000E+00
  4.20000000E+02  1.40000000E+02  0.00000000E+00
  4.20000000E+02  1.20000000E+02  0.00000000E+00
  4.20000000E+02  1.00000000E+02  0.00000000E+00
  4.20000000E+02  8.00000000E+01  0.00000000E+00
  4.20000000E+02  6.00000000E+01  0.00000000E+00
  4.20000000E+02  4.00000000E+01  0.00000000E+00
  4.20000000E+02  2.00000000E+01  0.00000000E+00
  4.20000000E+02  4.99600361E-14  0.00000000E+00
  4.40000000E+02  3.00000000E+02  0.00000000E+00
  4.40000000E+02  2.80000000E+02  0.00000000E+00
  4.40000000E+02  2.60000000E+02  0.00000000E+00
  4.40000000E+02  2.40000000E+02  0.00000000E+00
  4.40000000E+02  2.20000000E+02  0.00000000E+00
  4.40000000E+02  2.00000000E+02  0.00000000E+00
  4.40000000E+02  1.80000000E+02  0.00000000E+00
  4.40000000E+02  1.60000000E+02  0.00000000E+00
  4.40000000E+02  1.40000000E+02  0.00000000E+00
  4.40000000E+02  1.20000000E+02  0.00000000E+00
  4.40000000E+02  1.00000000E+02  0.00000000E+00
  4.40000000E+02  8.00000000E+01  0.00000000E+00
  4.40000000E+02  6.00000000E+01  0.00000000E+00
  4.40000000E+02  4.00000000E+01  0.00000000E+00
  4.40000000E+02  2.00000000E+01  0.00000000E+00
  4.40000000E+02  4.99600361E-14  0.00000000E+00
  4.60000000E+02  3.00000000E+02  0.00000000E+00
  4.60000000E+02  2.80000000E+02  0.00000000E+00
  4.60000000E+02  2.60000000E+02  0.00000000E+00
  4.60000000E+02  2.40000000E+02  0.00000000E+00
  4.60000000E+02  2.20000000E+02  0.00000000E+00
  4.60000000E+02  2.00000000E+02  0.00000000E+00
  4.60000000E+02  1.80000000E+02  0.00000000E+00
  4.60000000E+02  1.60000000E+02  0.00000000E+00
  4.60000000E+02  1.40000000E+02  0.00000000E+00
  4.60000000E+02  1.20000000E+02  0.00000000E+00
  4.60000000E+02  1.00000000E+02  0.00000000E+00
  4.60000000E+02  8.00000000E+01  0.00000000E+00
  4.60000000E+02  6.00000000E+01  0.00000000E+00
  4.60000000E+02  4.00000000E+01  0.00000000E+00
  4.60000000E+02  2.00000000E+01  0.00000000E+00
  4.60000000E+02  4.99600361E-14  0.00000000E+00
  4.80000000E+02  3.00000000E+02  0.00000000E+00
  4.80000000E+02  2.80000000E+02  0.00000000E+00
  4.80000000E+02  2.60000000E+02  0.00000000E+00
  4.80000000E+02  2.40000000E+02  0.00000000E+00
  4.80000000E+02  2.20000000E+02  0.00000000E+00
  4.80000000E+02  2.00000000E+02  0.00000000E+00
  4.80000000E+02  1.80000000E+02  0.00000000E+00
  4.80000000E+02  1.60000000E+02  0.00000000E+00
  4.80000000E+02  1.40000000E+02  0.00000000E+00
  4.80000000E+02  1.20000000E+02  0.00000000E+00
  4.80000000E+02  1.00000000E+02  0.00000000E+00
  4.80000000E+02  8.00000000E+01  0.00000000E+00
  4.80000000E+02  6.00000000E+01  0.00000000E+00
  4.80000000E+02  4.00000000E+01  0.00000000E+00
  4.80000000E+02  2.00000000E+01  0.00000000E+00
  4.80000000E+02  4.99600361E-14  0.00000000E+00
  5.00000000E+02  3.00000000E+02  0.00000000E+00
  5.00000000E+02  2.80000000E+02  0.00000000E+00
  5.00000000E+02  2.60000000E+02  0.00000000E+00
  5.00000000E+02  2.40000000E+02  0.00000000E+00
  5.00000000E+02  2.20000000E+02  0.00000000E+00
  5.00000000E+02  2.00000000E+02  0.00000000E+00
  5.00000000E+02  1.80000000E+02  0.00000000E+00
  5.00000000E+02  1.60000000E+02  0.00000000E+00
  5.00000000E+02  1.40000000E+02  0.00000000E+00
  5.00000000E+02  1.20000000E+02  0.00000000E+00
  5.00000000E+02  1.00000000E+02  0.00000000E+00
  5.00000000E+02  8.00000000E+01  0.00000000E+00
  5.00000000E+02  6.00000000E+01  0.00000000E+00
  5.00000000E+02  4.00000000E+01  0.00000000E+00
  5.00000000E+02  2.00000000E+01  0.00000000E+00
  5.00000000E+02  4.99600361E-14  0.00000000E+00
  5.20000000E+02  3.00000000E+02  0.00000000E+00
  5.20000000E+02  2.80000000E+02  0.00000000E+00
  5.20000000E+02  2.60000000E+02  0.00000000E+00
  5.20000000E+02  2.40000000E+02  0.00000000E+00
  5.20000000E+02  2.20000000E+02  0.00000000E+00
  5.20000000E+02  2.00000000E+02  0.00000000E+00
  5.20000000E+02  1.80000000E+02  0.00000000E+00
  5.20000000E+02  1.60000000E+02  0.00000000E+00
  5.20000000E+02  1.40000000E+02  0.00000000E+00
  5.20000000E+02  1.20000000E+02  0.00000000E+00
  5.20000000E+02  1.00000000E+02  0.00000000E+00
  5.20000000E+02  8.00000000E+01  0.00000000E+00
  5.20000000E+02  6.00000000E+01  0.00000000E+00
  5.20000000E+02  4.00000000E+01  0.00000000E+00
  5.20000000E+02  2.00000000E+01  0.00000000E+00
  5.20000000E+02  4.99600361E-14  0.00000000E+00
  5.40000000E+02  3.00000000E+02  0.00000000E+00
  5.40000000E+02  2.80000000E+02  0.00000000E+00
  5.40000000E+02  2.60000000E+02  0.00000000E+00
  5.40000000E+02  2.40000000E+02  0.00000000E+00
  5.40000000E+02  2.20000000E+02  0.00000000E+00
  5.40000000E+02  2.00000000E+02  0.00000000E+00
  5.40000000E+02  1.80000000E+02  0.00000000E+00
  5.40000000E+02  1.60000000E+02  0.00000000E+00
  5.40000000E+02  1.40000000E+02  0.00000000E+00
  5.40000000E+02  1.20000000E+02  0.00000000E+00
  5.40000000E+02  1.00000000E+02  0.00000000E+00
  5.40000000E+02  8.00000000E+01  0.00000000E+00
  5.40000000E+02  6.00000000E+01  0.00000000E+00
  5.40000000E+02  4.00000000E+01  0.00000000E+00
  5.40000000E+02  2.00000000E+01  0.00000000E+00
  5.40000000E+02  4.99600361E-14  0.00000000E+00
  5.60000000E+02  3.00000000E+02  0.00000000E+00
  5.60000000E+02  2.80000000E+02  0.00000000E+00
  5.60000000E+02  2.60000000E+02  0.00000000E+00
  5.60000000E+02  2.40000000E+02  0.00000000E+00
  5.60000000E+02  2.20000000E+02  0.00000000E+00
  5.60000000E+02  2.00000000E+02  0.00000000E+00
  5.60000000E+02  1.80000000E+02  0.00000000E+00
  5.60000000E+02  1.60000000E+02  0.00000000E+00
  5.60000000E+02  1.40000000E+02  0.00000000E+00
  5.60000000E+02  1.20000000E+02  0.00000000E+00
  5.60000000E+02  1.00000000E+02  0.00000000E+00
  5.60000000E+02  8.00000000E+01  0.00000000E+00
  5.60000000E+02  6.00000000E+01  0.00000000E+00
  5.60000000E+02  4.00000000E+01  0.00000000E+00
  5.60000000E+02  2.00000000E+01  0.00000000E+00
  5.60000000E+02  4.99600361E-14  0.00000000E+00
  5.80000000E+02  3.00000000E+02  0.00000000E+00
  5.80000000E+02  2.80000000E+02  0.00000000E+00
  5.80000000E+02  2.60000000E+02  0.00000000E+00
  5.80000000E+02  2.40000000E+02  0.00000000E+00
  5.80000000E+02  2.20000000E+02  0.00000000E+00
  5.80000000E+02  2.00000000E+02  0.00000000E+00
  5.80000000E+02  1.80000000E+02  0.00000000E+00
  5.80000000E+02  1.60000000E+02  0.00000000E+00
  5.80000000E+02  1.40000000E+02  0.00000000E+00
  5.80000000E+02  1.20000000E+02  0.00000000E+00
  5.80000000E+02  1.00000000E+02  0.00000000E+00
  5.80000000E+02  8.00000000E+01  0.00000000E+00
  5.80000000E+02  6.00000000E+01  0.00000000E+00
  5.80000000E+02  4.00000000E+01  0.00000000E+00
  5.80000000E+02  2.00000000E+01  0.00000000E+00
  5.80000000E+02  4.99600361E-14  0.00000000E+00
  6.00000000E+02  3.00000000E+02  0.00000000E+00
  6.00000000E+02  2.80000000E+02  0.00000000E+00
  6.00000000E+02  2.60000000E+02  0.00000000E+00
  6.00000000E+02  2.40000000E+02  0.00000000E+00
  6.00000000E+02  2.20000000E+02  0.00000000E+00
  6.00000000E+02  2.00000000E+02  0.00000000E+00
  6.00000000E+02  1.80000000E+02  0.00000000E+00
  6.00000000E+02  1.60000000E+02  0.00000000E+00
  6.00000000E+02  1.40000000E+02  0.00000000E+00
  6.00000000E+02  1.20000000E+02  0.00000000E+00
  6.00000000E+02  1.00000000E+02  0.00000000E+00
  6.00000000E+02  8.00000000E+01  0.00000000E+00
  6.00000000E+02  6.00000000E+01  0.00000000E+00
  6.00000000E+02  4.00000000E+01  0.00000000E+00
  6.00000000E+02  2.00000000E+01  0.00000000E+00
  6.00000000E+02  4.99600361E-14  0.00000000E+00
CELLS       450      2250
         4           0           1          17          16
         4           1           2          18          17
         4           2           3          19          18
         4           3           4          20          19
         4           4           5          21          20
         4           5           6          22          21
         4           6           7          23          22
         4           7           8          24          23
         4           8           9          25          24
         4           9          10          26          25
         4          10          11          27          26
         4          11          12          28          27
         4          12          13          29          28
         4          13          14          30          29
         4          14          15          31          30
         4          16          17          33          32
         4          17          18          34          33
         4          18          19          35          34
         4          19          20          36          35
         4          20          21          37          36
         4          21          22          38          37
         4          22          23          39          38
         4          23          24          40          39
         4          24          25          41          40
         4          25          26          42          41
         4          26          27          43          42
         4          27          28          44          43
         4          28          29          45          44
         4          29          30          46          45
         4          30          31          47          46
         4          32          33          49          48
         4          33          34          50          49
         4          34          35          51          50
         4          35          36          52          51
         4          36          37          53          52
         4          37          38          54          53
         4          38          39          55          54
         4          39          40          56          55
         4          40          41          57          56
         4          41          42          58          57
         4          42          43          59          58
         4          43          44          60          59
         4          44          45          61          60
         4          45          46          62          61
         4          46          47          63          62
         4          48          49          65          64
         4          49          50          66          65
         4          50          51          67          66
         4          51          52          68          67
         4          52          53          69          68
         4          53          54          70          69
         4          54          55          71          70
         4          55          56          72          71
         4          56          57          73          72
         4          57          58          74          73
         4          58          59          75          74
         4          59          60          76          75
         4          60          61          77          76
         4          61          62          78          77
         4          62          63          79          78
         4          64          65          81          80
         4          65          66          82          81
         4          66          67          83          82
         4          67          68          84          83
         4          68          69          85          84
         4          69          70          86          85
         4          70          71          87          86
         4          71          72          88          87
         4          72          73          89          88
         4          73          74          90          89
         4          74          75          91          90
         4          75          76          92          91
         4          76          77          93          92
         4          77          78          94          93
         4          78          79          95          94
         4          80          81          97          96
         4          81          82          98          97
         4          82          83          99          98
         4          83          84         100          99
         4          84          85         101         100
         4          85          86         102         101
         4          86          87         103         102
         4          87          88         104         103
         4          88          89         105         104
         4          89          90         106         105
         4          90          91         107         106
         4          91          92         108         107
         4          92          93         109         108
         4          93          94         110         109
         4          94          95         111         110
         4          96          97         113         112
         4          97          98         114         113
         4          98          99         115         114
         4          99         100         116         115
         4         100         101         117         116
         4         101         102         118         117
         4         102         103         119         118
         4         103         104         120         119
         4         104         105         121         120
         4         105         106         122         121
         4         106         107         123         122
         4         107         108         124         123
         4         108         109         125         124
         4         109         110         126         125
         4         110         111         127         126
         4         112         113         129         128
         4         113         114         130         129
         4         114         115         131         130
         4         115         116         132         131
         4         116         117         133         132
         4         117         118         134         133
         4         118         119         135         134
         4         119         120         136         135
         4         120         121         137         136
         4         121         122         138         137
         4         122         123         139         138
         4         123         124         140         139
         4         124         125         141         140
         4         125         126         142         141
         4         126         127         143         142
         4         128         129         145         144
         4         129         130         146         145
         4         130         131         147         146
         4         131         132         148         147
         4         132         133         149         148
         4         133         134         150         149
         4         134         135         151         150
         4         135         136         152         151
         4         136         137         153         152
         4         137         138         154         153
         4         138         139         155         154
         4         139         140         156         155
         4         140         141         157         156
         4         141         142         158         157
         4         142         143         159         158
         4         144         145         161         160
         4         145         146         162         161
         4         146         147         163         162
         4         147         148         164         163
         4         148         149         165         164
         4         149         150         166         165
         4         150         151         167         166
         4         151         152         168         167
         4         152         153         169         168
         4         153         154         170         169
         4         154         155         171         170
         4         155         156         172         171
         4         156         157         173         172
         4         157         158         174         173
         4         158         159         175         174
         4         160         161         177         176
         4         161         162         178         177
         4         162         163         179         178
         4         163         164         180         179
         4         164         165         181         180
         4         165         166         182         181
         4         166         167         183         182
         4         167         168         184         183
         4         168         169         185         184
         4         169         170         186         185
         4         170         171         187         186
         4         171         172         188         187
         4         172         173         189         188
         4         173         174         190         189
         4         174         175         191         190
         4         176         177         193         192
         4         177         178         194         193
         4         178         179         195         194
         4         179         180         196         195
         4         180         181         197         196
         4         181         182         198         197
         4         182         183         199         198
         4         183         184         200         199
         4         184         185         201         200
         4         185         186         202         201
         4         186         187         203         202
         4         187         188         204         203
         4         188         189         205         204
         4         189         190         206         205
         4         190         191         207         206
         4         192         193         209         208
         4         193         194         210         209
         4         194         195         211         210
         4         195         196         212         211
         4         196         197         213         212
         4         197         198         214         213
         4         198         199         215         214
         4         199         200         216         215
         4         200         201         217         216
         4         201         202         218         217
         4         202         203         219         218
         4         203         204         220         219
         4         204         205         221         220
         4         205         206         222         221
         4         206         207         223         222
         4         208         209         225         224
         4         209         210         226         225
         4         210         211         227         226
         4         211         212         228         227
         4         212         213         229         228
         4         213         214         230         229
         4         214         215         231         230
         4         215         216         232         231
         4         216         217         233         232
         4         217         218         234         233
         4         218         219         235         234
         4         219         220         236         235
         4         220         221         237         236
         4         221         222         238         237
         4         222         223         239         238
         4         224         225         241         240
         4         225         226         242         241
         4         226         227         243         242
         4         227         228         244         243
         4         228         229         245         244
         4         229         230         246         245
         4         230         231         247         246
         4         231         232         248         247
         4         232         233         249         248
         4         233         234         250         249
         4         234         235         251         250
         4         235         236         252         251
         4         236         237         253         252
         4         237         238         254         253
         4         238         239         255         254
         4         240         241         257         256
         4         241         242         258         257
         4         242         243         259         258
         4         243         244         260         259
         4         244         245         261         260
         4         245         246         262         261
         4         246         247         263         262
         4         247         248         264         263
         4         248         249         265         264
         4         249         250         266         265
         4         250         251         267         266
         4         251         252         268         267
         4         252         253         269         268
         4         253         254         270         269
         4         254         255         271         270
         4         256         257         273         272
         4         257         258         274         273
         4         258         259         275         274
         4         259         260         276         275
         4         260         261         277         276
         4         261         262         278         277
         4         262         263         279         278
         4         263         264         280         279
         4         264         265         281         280
         4         265         266         282         281
         4         266         267         283         282
         4         267         268         284         283
         4         268         269         285         284
         4         269         270         286         285
         4         270         271         287         286
         4         272         273         289         288
         4         273         274         290         289
         4         274         275         291         290
         4         275         276         292         291
         4         276         277         293         292
         4         277         278         294         293
         4         278         279         295         294
         4         279         280         296         295
         4         280         281         297         296
         4         281         282         298         297
         4         282         283         299         298
         4         283         284         300         299
         4         284         285         301         300
         4         285         286         302         301
         4         286         287         303         302
         4         288         289         305         304
         4         289         290         306         305
         4         290         291         307         306
         4         291         292         308         307
         4         292         293         309         308
         4         293         294         310         309
         4         294         295         311         310
         4         295         296         312         311
         4         296         297         313         312
         4         297         298         314         313
         4         298         299         315         314
         4         299         300         316         315
         4         300         301         317         316
         4         301         302         318         317
         4         302         303         319         318
         4         304         305         321         320
         4         305         306         322         321
         4         306         307         323         322
         4         307         308         324         323
         4         308         309         325         324
         4         309         310         326         325
         4         310         311         327         326
         4         311         312         328         327
         4         312         313         329         328
         4         313         314         330         329
         4         314         315         331         330
         4         315         316         332         331
         4         316         317         333         332
         4         317         318         334         333
         4         318         319         335         334
         4         320         321         337         336
         4         321         322         338         337
         4         322         323         339         338
         4         323         324         340         339
         4         324         325         341         340
         4         325         326         342         341
         4         326         327         343         342
         4         327         328         344         343
         4         328         329         345         344
         4         329         330         346         345
         4         330         331         347         346
         4         331         332         348         347
         4         332         333         349         348
         4         333         334         350         349
         4         334         335         351         350
         4         336         337         353         352
         4         337         338         354         353
         4         338         339         355         354
         4         339         340         356         355
         4         340         341         357         356
         4         341         342         358         357
         4         342         343         359         358
         4         343         344         360         359
         4         344         345         361         360
         4         345         346         362         361
         4         346         347         363         362
         4         347         348         364         363
         4         348         349         365         364
         4         349         350         366         365
         4         350         351         367         366
         4         352         353         369         368
         4         353         354         370         369
         4         354         355         371         370
         4         355         356         372         371
         4         356         357         373         372
         4         357         358         374         373
         4         358         359         375         374
         4         359         360         376         375
         4         360         361         377         376
         4         361         362         378         377
         4         362         363         379         378
         4         363         364         380         379
         4         364         365         381         380
         4         365         366         382         381
         4         366         367         383         382
         4         368         369         385         384
         4         369         370         386         385
         4         370         371         387         386
         4         371         372         388         387
         4         372         373         389         388
         4         373         374         390         389
         4         374         375         391         390
         4         375         376         392         391
         4         376         377         393         392
         4         377         378         394         393
         4         378         379         395         394
         4         379         380         396         395
         4         380         381         397         396
         4         381         382         398         397
         4         382         383         399         398
         4         384         385         401         400
         4         385         386         402         401
         4         386         387         403         402
         4         387         388         404         403
         4         388         389         405         404
         4         389         390         406         405
         4         390         391         407         406
         4         391         392         408         407
         4         392         393         409         408
         4         393         394         410         409
         4         394         395         411         410
         4         395         396         412         411
         4         396         397         413         412
         4         397         398         414         413
         4         398         399         415         414
         4         400         401         417         416
         4         401         402         418         417
         4         402         403         419         418
         4         403         404         420         419
         4         404         405         421         420
         4         405         406         422         421
         4         406         407         423         422
         4         407         408         424         423
         4         408         409         425         424
         4         409         410         426         425
         4         410         411         427         426
         4         411         412         428         427
         4         412         413         429         428
         4         413         414         430         429
         4         414         415         431         430
         4         416         417         433         432
         4         417         418         434         433
         4         418         419         435         434
         4         419         420         436         435
         4         420         421         437         436
         4         421         422         438         437
         4         422         423         439         438
         4         423         424         440         439
         4         424         425         441         440
         4         425         426         442         441
         4         426         427         443         442
         4         427         428         444         443
         4         428         429         445         444
         4         429         430         446         445
         4         430         431         447         446
         4         432         433         449         448
         4         433         434         450         449
         4         434         435         451         450
         4         435         436         452         451
         4         436         437         453         452
         4         437         438         454         453
         4         438         439         455         454
         4         439         440         456         455
         4         440         441         457         456
         4         441         442         458         457
         4         442         443         459         458
         4         443         444         460         459
         4         444         445         461         460
         4         445         446         462         461
         4         446         447         463         462
         4         448         449         465         464
         4         449         450         466         465
         4         450         451         467         466
         4         451         452         468         467
         4         452         453         469         468
         4         453         454         470         469
         4         454         455         471         470
         4         455         456         472         471
         4         456         457         473         472
         4         457         458         474         473
         4         458         459         475         474
         4         459         460         476         475
         4         460         461         477         476
         4         461         462         478         477
         4         462         463         479         478
         4         464         465         481         480
         4         465         466         482         481
         4         466         467         483         482
         4         467         468         484         483
         4         468         469         485         484
         4         469         470         486         485
         4         470         471         487         486
         4         471         472         488         487
         4         472         473         489         488
         4         473         474         490         489
         4         474         475         491         490
         4         475         476         492         491
         4         476         477         493         492
         4         477         478         494         493
         4         478         479         495         494
CELL_TYPES        450
9
9
9
9
9
9
9
9
9
9
9
9
9
9
9
9
9
9
9
9
9
9
9
9
9
9
9
9
9
9
9
9
9
9
9
9
9
9
9
9
9
9
9
9
9
9
9
9
9
9
9
9
9
9
9
9
9
9
9
9
9
9
9
9
9
9
9
9
9
9
9
9
9
9
9
9
9
9
9
9
9
9
9
9
9
9
9
9
9
9
9
9
9
9
9
9
9
9
9
9
9
9
9
9
9
9
9
9
9
9
9
9
9
9
9
9
9
9
9
9
9
9
9
9
9
9
9
9
9
9
9
9
9
9
9
9
9
9
9
9
9
9
9
9
9
9
9
9
9
9
9
9
9
9
9
9
9
9
9
9
9
9
9
9
9
9
9
9
9
9
9
9
9
9
9
9
9
9
9
9
9
9
9
9
9
9
9
9
9
9
9
9
9
9
9
9
9
9
9
9
9
9
9
9
9
9
9
9
9
9
9
9
9
9
9
9
9
9
9
9
9
9
9
9
9
9
9
9
9
9
9
9
9
9
9
9
9
9
9
9
9
9
9
9
9
9
9
9
9
9
9
9
9
9
9
9
9
9
9
9
9
9
9
9
9
9
9
9
9
9
9
9
9
9
9
9
9
9
9
9
9
9
9
9
9
9
9
9
9
9
9
9
9
9
9
9
9
9
9
9
9
9
9
9
9
9
9
9
9
9
9
9
9
9
9
9
9
9
9
9
9
9
9
9
9
9
9
9
9
9
9
9
9
9
9
9
9
9
9
9
9
9
9
9
9
9
9
9
9
9
9
9
9
9
9
9
9
9
9
9
9
9
9
9
9
9
9
9
9
9
9
9
9
9
9
9
9
9
9
9
9
9
9
9
9
9
9
9
9
9
9
9
9
9
9
9
9
9
9
9
9
9
9
9
9
9
9
9
9
9
9
9
9
9
9
9
9
9
9
9
9
9
9
9
9
9
9
9
9
9
9
9
9
9
9
9
9
9
9
9
9
9
9
9
9
9
9
9
9
9
POINT_DATA       496
SCALARS p double 
LOOKUP_TABLE default
   10000005.8907918     
   10000005.8902786     
   10000005.8889299     
   10000005.8869305     
   10000005.8844539     
   10000005.8816611     
   10000005.8787005     
   10000005.8757068     
   10000005.8728008     
   10000005.8700882     
   10000005.8676592     
   10000005.8655877     
   10000005.8639308     
   10000005.8627276     
   10000005.8619993     
   10000005.8617478     
   10000005.8824573     
   10000005.8819451     
   10000005.8805990     
   10000005.8786036     
   10000005.8761318     
   10000005.8733444     
   10000005.8703896     
   10000005.8674018     
   10000005.8645015     
   10000005.8617941     
   10000005.8593698     
   10000005.8573024     
   10000005.8556486     
   10000005.8544478     
   10000005.8537209     
   10000005.8534699     
   10000005.8574793     
   10000005.8569702     
   10000005.8556321     
   10000005.8536485     
   10000005.8511913     
   10000005.8484205     
   10000005.8454831     
   10000005.8425129     
   10000005.8396297     
   10000005.8369383     
   10000005.8345283     
   10000005.8324730     
   10000005.8308290     
   10000005.8296352     
   10000005.8289125     
   10000005.8286630     
   10000005.8159346     
   10000005.8154307     
   10000005.8141062     
   10000005.8121425     
   10000005.8097101     
   10000005.8069671     
   10000005.8040591     
   10000005.8011188     
   10000005.7982644     
   10000005.7956001     
   10000005.7932142     
   10000005.7911796     
   10000005.7895520     
   10000005.7883701     
   10000005.7876545     
   10000005.7874075     
   10000005.7579509     
   10000005.7574544     
   10000005.7561492     
   10000005.7542141     
   10000005.7518170     
   10000005.7491138     
   10000005.7462479     
   10000005.7433501     
   10000005.7405371     
   10000005.7379113     
   10000005.7355600     
   10000005.7335548     
   10000005.7319507     
   10000005.7307859     
   10000005.7300806     
   10000005.7298372     
   10000005.6837064     
   10000005.6832196     
   10000005.6819400     
   10000005.6800427     
   10000005.6776922     
   10000005.6750414     
   10000005.6722312     
   10000005.6693896     
   10000005.6666311     
   10000005.6640562     
   10000005.6617506     
   10000005.6597843     
   10000005.6582113     
   10000005.6570689     
   10000005.6563773     
   10000005.6561386     
   10000005.5934295     
   10000005.5929550     
   10000005.5917076     
   10000005.5898579     
   10000005.5875663     
   10000005.5849818     
   10000005.5822417     
   10000005.5794710     
   10000005.5767813     
   10000005.5742707     
   10000005.5720226     
   10000005.5701053     
   10000005.5685716     
   10000005.5674578     
   10000005.5667833     
   10000005.5665507     
   10000005.4873980     
   10000005.4869386     
   10000005.4857307     
   10000005.4839394     
   10000005.4817199     
   10000005.4792166     
   10000005.4765625     
   10000005.4738786     
   10000005.4712733     
   10000005.4688413     
   10000005.4666638     
   10000005.4648067     
   10000005.4633211     
   10000005.4622422     
   10000005.4615889     
   10000005.4613636     
   10000005.3659386     
   10000005.3654973     
   10000005.3643368     
   10000005.3626158     
   10000005.3604830     
   10000005.3580773     
   10000005.3555264     
   10000005.3529468     
   10000005.3504426     
   10000005.3481051     
   10000005.3460121     
   10000005.3442272     
   10000005.3427994     
   10000005.3417625     
   10000005.3411346     
   10000005.3409180     
   10000005.2294256     
   10000005.2290059     
   10000005.2279017     
   10000005.2262638     
   10000005.2242337     
   10000005.2219434     
   10000005.2195146     
   10000005.2170582     
   10000005.2146735     
   10000005.2124475     
   10000005.2104544     
   10000005.2087547     
   10000005.2073952     
   10000005.2064079     
   10000005.2058101     
   10000005.2056038     
   10000005.0782807     
   10000005.0778861     
   10000005.0768479     
   10000005.0753073     
   10000005.0733973     
   10000005.0712419     
   10000005.0689557     
   10000005.0666432     
   10000005.0643979     
   10000005.0623019     
   10000005.0604251     
   10000005.0588248     
   10000005.0575448     
   10000005.0566154     
   10000005.0560526     
   10000005.0558584     
   10000004.9129711     
   10000004.9126058     
   10000004.9116440     
   10000004.9102162     
   10000004.9084452     
   10000004.9064459     
   10000004.9043246     
   10000004.9021781     
   10000004.9000936     
   10000004.8981475     
   10000004.8964048     
   10000004.8949188     
   10000004.8937304     
   10000004.8928676     
   10000004.8923452     
   10000004.8921648     
   10000004.7340091     
   10000004.7336773     
   10000004.7328034     
   10000004.7315050     
   10000004.7298935     
   10000004.7280730     
   10000004.7261403     
   10000004.7241838     
   10000004.7222829     
   10000004.7205076     
   10000004.7189177     
   10000004.7175620     
   10000004.7164779     
   10000004.7156910     
   10000004.7152145     
   10000004.7150498     
   10000004.5419502     
   10000004.5416568     
   10000004.5408828     
   10000004.5397317     
   10000004.5383013     
   10000004.5366839     
   10000004.5349650     
   10000004.5332234     
   10000004.5315301     
   10000004.5299478     
   10000004.5285302     
   10000004.5273213     
   10000004.5263546     
   10000004.5256530     
   10000004.5252284     
   10000004.5250812     
   10000004.3373926     
   10000004.3371425     
   10000004.3364812     
   10000004.3354959     
   10000004.3342695     
   10000004.3328802     
   10000004.3314014     
   10000004.3299007     
   10000004.3284398     
   10000004.3270732     
   10000004.3258479     
   10000004.3248025     
   10000004.3239665     
   10000004.3233600     
   10000004.3229928     
   10000004.3228651     
   10000004.1209753     
   10000004.1207735     
   10000004.1202381     
   10000004.1194377     
   10000004.1184385     
   10000004.1173030     
   10000004.1160909     
   10000004.1148576     
   10000004.1136540     
   10000004.1125258     
   10000004.1115128     
   10000004.1106475     
   10000004.1099552     
   10000004.1094530     
   10000004.1091490     
   10000004.1090425     
   10000003.8933773     
   10000003.8932289     
   10000003.8928322     
   10000003.8922357     
   10000003.8914865     
   10000003.8906304     
   10000003.8897113     
   10000003.8887713     
   10000003.8878495     
   10000003.8869819     
   10000003.8862001     
   10000003.8855307     
   10000003.8849944     
   10000003.8846050     
   10000003.8843692     
   10000003.8842856     
   10000003.6553159     
   10000003.6552256     
   10000003.6549799     
   10000003.6546052     
   10000003.6541280     
   10000003.6535752     
   10000003.6529741     
   10000003.6523517     
   10000003.6517346     
   10000003.6511480     
   10000003.6506149     
   10000003.6501555     
   10000003.6497856     
   10000003.6495164     
   10000003.6493531     
   10000003.6492939     
   10000003.4075459     
   10000003.4075179     
   10000003.4074340     
   10000003.4072968     
   10000003.4071107     
   10000003.4068827     
   10000003.4066216     
   10000003.4063384     
   10000003.4060459     
   10000003.4057578     
   10000003.4054879     
   10000003.4052496     
   10000003.4050545     
   10000003.4049109     
   10000003.4048230     
   10000003.4047892     
   10000003.1508582     
   10000003.1508957     
   10000003.1509821     
   10000003.1510947     
   10000003.1512148     
   10000003.1513281     
   10000003.1514242     
   10000003.1514970     
   10000003.1515443     
   10000003.1515675     
   10000003.1515710     
   10000003.1515612     
   10000003.1515455     
   10000003.1515302     
   10000003.1515190     
   10000003.1515111     
   10000002.8860787     
   10000002.8861839     
   10000002.8864455     
   10000002.8868151     
   10000002.8872501     
   10000002.8877144     
   10000002.8881777     
   10000002.8886159     
   10000002.8890111     
   10000002.8893519     
   10000002.8896327     
   10000002.8898533     
   10000002.8900171     
   10000002.8901292     
   10000002.8901938     
   10000002.8902115     
   10000002.6140677     
   10000002.6142409     
   10000002.6146782     
   10000002.6153050     
   10000002.6160550     
   10000002.6168701     
   10000002.6176999     
   10000002.6185024     
   10000002.6192436     
   10000002.6198990     
   10000002.6204529     
   10000002.6208986     
   10000002.6212364     
   10000002.6214707     
   10000002.6216075     
   10000002.6216497     
   10000002.3357191     
   10000002.3359587     
   10000002.3365663     
   10000002.3374414     
   10000002.3384946     
   10000002.3396467     
   10000002.3408281     
   10000002.3419791     
   10000002.3430507     
   10000002.3440051     
   10000002.3448173     
   10000002.3454742     
   10000002.3459734     
   10000002.3463199     
   10000002.3465221     
   10000002.3465869     
   10000002.0519602     
   10000002.0522619     
   10000002.0530272     
   10000002.0541304     
   10000002.0554601     
   10000002.0569175     
   10000002.0584160     
   10000002.0598803     
   10000002.0612478     
   10000002.0624697     
   10000002.0635119     
   10000002.0643556     
   10000002.0649959     
   10000002.0654389     
   10000002.0656966     
   10000002.0657809     
   10000001.7637516     
   10000001.7641084     
   10000001.7650099     
   10000001.7663064     
   10000001.7678666     
   10000001.7695751     
   10000001.7713310     
   10000001.7730478     
   10000001.7746532     
   10000001.7760901     
   10000001.7773177     
   10000001.7783115     
   10000001.7790639     
   10000001.7795819     
   10000001.7798817     
   10000001.7799815     
   10000001.4720889     
   10000001.4724901     
   10000001.4734950     
   10000001.4749318     
   10000001.4766522     
   10000001.4785284     
   10000001.4804510     
   10000001.4823281     
   10000001.4840839     
   10000001.4856583     
   10000001.4870062     
   10000001.4880987     
   10000001.4889245     
   10000001.4894897     
   10000001.4898145     
   10000001.4899248     
   10000001.1780050     
   10000001.1784348     
   10000001.1794955     
   10000001.1809953     
   10000001.1827741     
   10000001.1846988     
   10000001.1866601     
   10000001.1885692     
   10000001.1903545     
   10000001.1919586     
   10000001.1933371     
   10000001.1944587     
   10000001.1953072     
   10000001.1958852     
   10000001.1962147     
   10000001.1963296     
   10000000.8825752     
   10000000.8830111     
   10000000.8840577     
   10000000.8855088     
   10000000.8872025     
   10000000.8890132     
   10000000.8908436     
   10000000.8926178     
   10000000.8942756     
   10000000.8957689     
   10000000.8970590     
   10000000.8981161     
   10000000.8989206     
   10000000.8994688     
   10000000.8997788     
   10000000.8998921     
   10000000.5869284     
   10000000.5873352     
   10000000.5882614     
   10000000.5894998     
   10000000.5909111     
   10000000.5923963     
   10000000.5938830     
   10000000.5953167     
   10000000.5966549     
   10000000.5978633     
   10000000.5989139     
   10000000.5997835     
   10000000.6004536     
   10000000.6009144     
   10000000.6011769     
   10000000.6012817     
   10000000.2922683     
   10000000.2925886     
   10000000.2932096     
   10000000.2939956     
   10000000.2948638     
   10000000.2957610     
   10000000.2966498     
   10000000.2975021     
   10000000.2982965     
   10000000.2990155     
   10000000.2996445     
   10000000.3001709     
   10000000.3005840     
   10000000.3008749     
   10000000.3010416     
   10000000.3011404     
   10000000.0000000     
   10000000.0000000     
   10000000.0000000     
   10000000.0000000     
   10000000.0000000     
   10000000.0000000     
   10000000.0000000     
   10000000.0000000     
   10000000.0000000     
   10000000.0000000     
   10000000.0000000     
   10000000.0000000     
   10000000.0000000     
  10000000.00000000     
   10000000.0000000     
   10000000.0000000     
VECTORS u double 
    0.00000E+00        -0.64174E-01         0.00000E+00
    0.00000E+00        -0.59892E-01         0.00000E+00
    0.00000E+00        -0.55609E-01         0.00000E+00
    0.00000E+00        -0.51326E-01         0.00000E+00
    0.00000E+00        -0.47044E-01         0.00000E+00
    0.00000E+00        -0.42761E-01         0.00000E+00
    0.00000E+00        -0.38479E-01         0.00000E+00
    0.00000E+00        -0.34198E-01         0.00000E+00
    0.00000E+00        -0.29918E-01         0.00000E+00
    0.00000E+00        -0.25638E-01         0.00000E+00
    0.00000E+00        -0.21361E-01         0.00000E+00
    0.00000E+00        -0.17084E-01         0.00000E+00
    0.00000E+00        -0.12810E-01         0.00000E+00
    0.00000E+00        -0.85378E-02         0.00000E+00
    0.00000E+00        -0.42677E-02         0.00000E+00
    0.00000E+00         0.00000E+00         0.00000E+00
    0.17142E-04        -0.64174E-01         0.00000E+00
    0.17899E-04        -0.59892E-01         0.00000E+00
    0.18404E-04        -0.55609E-01         0.00000E+00
    0.18653E-04        -0.51326E-01         0.00000E+00
    0.18642E-04        -0.47043E-01         0.00000E+00
    0.18366E-04        -0.42761E-01         0.00000E+00
    0.17818E-04        -0.38479E-01         0.00000E+00
    0.16991E-04        -0.34198E-01         0.00000E+00
    0.15878E-04        -0.29917E-01         0.00000E+00
    0.14477E-04        -0.25638E-01         0.00000E+00
    0.12784E-04        -0.21361E-01         0.00000E+00
    0.10797E-04        -0.17084E-01         0.00000E+00
    0.85200E-05        -0.12810E-01         0.00000E+00
    0.59558E-05        -0.85378E-02         0.00000E+00
    0.31123E-05        -0.42677E-02         0.00000E+00
    0.00000E+00         0.00000E+00         0.00000E+00
    0.34192E-04        -0.64173E-01         0.00000E+00
    0.35706E-04        -0.59890E-01         0.00000E+00
    0.36715E-04        -0.55608E-01         0.00000E+00
    0.37214E-04        -0.51325E-01         0.00000E+00
    0.37195E-04        -0.47042E-01         0.00000E+00
    0.36645E-04        -0.42760E-01         0.00000E+00
    0.35553E-04        -0.38478E-01         0.00000E+00
    0.33904E-04        -0.34197E-01         0.00000E+00
    0.31686E-04        -0.29917E-01         0.00000E+00
    0.28891E-04        -0.25638E-01         0.00000E+00
    0.25513E-04        -0.21360E-01         0.00000E+00
    0.21550E-04        -0.17084E-01         0.00000E+00
    0.17005E-04        -0.12810E-01         0.00000E+00
    0.11888E-04        -0.85377E-02         0.00000E+00
    0.62125E-05        -0.42676E-02         0.00000E+00
    0.00000E+00         0.00000E+00         0.00000E+00
    0.51058E-04        -0.64170E-01         0.00000E+00
    0.53326E-04        -0.59888E-01         0.00000E+00
    0.54839E-04        -0.55606E-01         0.00000E+00
    0.55590E-04        -0.51323E-01         0.00000E+00
    0.55566E-04        -0.47041E-01         0.00000E+00
    0.54750E-04        -0.42759E-01         0.00000E+00
    0.53122E-04        -0.38477E-01         0.00000E+00
    0.50661E-04        -0.34196E-01         0.00000E+00
    0.47351E-04        -0.29916E-01         0.00000E+00
    0.43178E-04        -0.25637E-01         0.00000E+00
    0.38132E-04        -0.21360E-01         0.00000E+00
    0.32212E-04        -0.17084E-01         0.00000E+00
    0.25421E-04        -0.12810E-01         0.00000E+00
    0.17773E-04        -0.85375E-02         0.00000E+00
    0.92885E-05        -0.42676E-02         0.00000E+00
    0.00000E+00         0.00000E+00         0.00000E+00
    0.67644E-04        -0.64167E-01         0.00000E+00
    0.70663E-04        -0.59885E-01         0.00000E+00
    0.72680E-04        -0.55603E-01         0.00000E+00
    0.73686E-04        -0.51321E-01         0.00000E+00
    0.73664E-04        -0.47039E-01         0.00000E+00
    0.72590E-04        -0.42757E-01         0.00000E+00
    0.70439E-04        -0.38475E-01         0.00000E+00
    0.67184E-04        -0.34195E-01         0.00000E+00
    0.62802E-04        -0.29915E-01         0.00000E+00
    0.57273E-04        -0.25636E-01         0.00000E+00
    0.50587E-04        -0.21359E-01         0.00000E+00
    0.42738E-04        -0.17083E-01         0.00000E+00
    0.33732E-04        -0.12809E-01         0.00000E+00
    0.23586E-04        -0.85373E-02         0.00000E+00
    0.12328E-04        -0.42675E-02         0.00000E+00
    0.00000E+00         0.00000E+00         0.00000E+00
    0.83852E-04        -0.64163E-01         0.00000E+00
    0.87617E-04        -0.59882E-01         0.00000E+00
    0.90137E-04        -0.55600E-01         0.00000E+00
    0.91403E-04        -0.51318E-01         0.00000E+00
    0.91391E-04        -0.47036E-01         0.00000E+00
    0.90072E-04        -0.42754E-01         0.00000E+00
    0.87417E-04        -0.38473E-01         0.00000E+00
    0.83390E-04        -0.34193E-01         0.00000E+00
    0.77963E-04        -0.29913E-01         0.00000E+00
    0.71111E-04        -0.25635E-01         0.00000E+00
    0.62820E-04        -0.21358E-01         0.00000E+00
    0.53082E-04        -0.17083E-01         0.00000E+00
    0.41904E-04        -0.12809E-01         0.00000E+00
    0.29305E-04        -0.85370E-02         0.00000E+00
    0.15320E-04        -0.42674E-02         0.00000E+00
    0.00000E+00         0.00000E+00         0.00000E+00
    0.99579E-04        -0.64158E-01         0.00000E+00
    0.10408E-03        -0.59877E-01         0.00000E+00
    0.10711E-03        -0.55596E-01         0.00000E+00
    0.10864E-03        -0.51314E-01         0.00000E+00
    0.10865E-03        -0.47033E-01         0.00000E+00
    0.10710E-03        -0.42751E-01         0.00000E+00
    0.10396E-03        -0.38471E-01         0.00000E+00
    0.99196E-04        -0.34191E-01         0.00000E+00
    0.92759E-04        -0.29911E-01         0.00000E+00
    0.84626E-04        -0.25634E-01         0.00000E+00
    0.74775E-04        -0.21357E-01         0.00000E+00
    0.63198E-04        -0.17082E-01         0.00000E+00
    0.49900E-04        -0.12808E-01         0.00000E+00
    0.34904E-04        -0.85367E-02         0.00000E+00
    0.18250E-04        -0.42673E-02         0.00000E+00
    0.00000E+00         0.00000E+00         0.00000E+00
    0.11471E-03        -0.64153E-01         0.00000E+00
    0.11995E-03        -0.59872E-01         0.00000E+00
    0.12347E-03        -0.55591E-01         0.00000E+00
    0.12528E-03        -0.51310E-01         0.00000E+00
    0.12532E-03        -0.47029E-01         0.00000E+00
    0.12357E-03        -0.42748E-01         0.00000E+00
    0.11999E-03        -0.38468E-01         0.00000E+00
    0.11451E-03        -0.34188E-01         0.00000E+00
    0.10711E-03        -0.29909E-01         0.00000E+00
    0.97747E-04        -0.25632E-01         0.00000E+00
    0.86392E-04        -0.21356E-01         0.00000E+00
    0.73036E-04        -0.17081E-01         0.00000E+00
    0.57684E-04        -0.12808E-01         0.00000E+00
    0.40359E-04        -0.85364E-02         0.00000E+00
    0.21108E-04        -0.42671E-02         0.00000E+00
    0.00000E+00         0.00000E+00         0.00000E+00
    0.12914E-03        -0.64146E-01         0.00000E+00
    0.13509E-03        -0.59866E-01         0.00000E+00
    0.13912E-03        -0.55585E-01         0.00000E+00
    0.14121E-03        -0.51305E-01         0.00000E+00
    0.14131E-03        -0.47024E-01         0.00000E+00
    0.13939E-03        -0.42744E-01         0.00000E+00
    0.13538E-03        -0.38464E-01         0.00000E+00
    0.12925E-03        -0.34185E-01         0.00000E+00
    0.12094E-03        -0.29907E-01         0.00000E+00
    0.11040E-03        -0.25630E-01         0.00000E+00
    0.97612E-04        -0.21354E-01         0.00000E+00
    0.82550E-04        -0.17080E-01         0.00000E+00
    0.65219E-04        -0.12807E-01         0.00000E+00
    0.45646E-04        -0.85361E-02         0.00000E+00
    0.23880E-04        -0.42670E-02         0.00000E+00
    0.00000E+00         0.00000E+00         0.00000E+00
    0.14274E-03        -0.64139E-01         0.00000E+00
    0.14939E-03        -0.59859E-01         0.00000E+00
    0.15392E-03        -0.55579E-01         0.00000E+00
    0.15630E-03        -0.51299E-01         0.00000E+00
    0.15649E-03        -0.47019E-01         0.00000E+00
    0.15442E-03        -0.42740E-01         0.00000E+00
    0.15005E-03        -0.38461E-01         0.00000E+00
    0.14331E-03        -0.34182E-01         0.00000E+00
    0.13415E-03        -0.29905E-01         0.00000E+00
    0.12252E-03        -0.25628E-01         0.00000E+00
    0.10837E-03        -0.21353E-01         0.00000E+00
    0.91686E-04        -0.17079E-01         0.00000E+00
    0.72467E-04        -0.12807E-01         0.00000E+00
    0.50737E-04        -0.85358E-02         0.00000E+00
    0.26553E-04        -0.42669E-02         0.00000E+00
    0.00000E+00         0.00000E+00         0.00000E+00
    0.15536E-03        -0.64131E-01         0.00000E+00
    0.16270E-03        -0.59852E-01         0.00000E+00
    0.16774E-03        -0.55573E-01         0.00000E+00
    0.17043E-03        -0.51293E-01         0.00000E+00
    0.17072E-03        -0.47014E-01         0.00000E+00
    0.16856E-03        -0.42735E-01         0.00000E+00
    0.16388E-03        -0.38457E-01         0.00000E+00
    0.15660E-03        -0.34179E-01         0.00000E+00
    0.14667E-03        -0.29902E-01         0.00000E+00
    0.13402E-03        -0.25626E-01         0.00000E+00
    0.11860E-03        -0.21351E-01         0.00000E+00
    0.10039E-03        -0.17078E-01         0.00000E+00
    0.79385E-04        -0.12806E-01         0.00000E+00
    0.55605E-04        -0.85355E-02         0.00000E+00
    0.29112E-04        -0.42668E-02         0.00000E+00
    0.00000E+00         0.00000E+00         0.00000E+00
    0.16686E-03        -0.64122E-01         0.00000E+00
    0.17488E-03        -0.59844E-01         0.00000E+00
    0.18042E-03        -0.55565E-01         0.00000E+00
    0.18344E-03        -0.51287E-01         0.00000E+00
    0.18388E-03        -0.47008E-01         0.00000E+00
    0.18168E-03        -0.42730E-01         0.00000E+00
    0.17675E-03        -0.38453E-01         0.00000E+00
    0.16901E-03        -0.34176E-01         0.00000E+00
    0.15839E-03        -0.29899E-01         0.00000E+00
    0.14482E-03        -0.25624E-01         0.00000E+00
    0.12824E-03        -0.21350E-01         0.00000E+00
    0.10861E-03        -0.17077E-01         0.00000E+00
    0.85931E-04        -0.12805E-01         0.00000E+00
    0.60221E-04        -0.85353E-02         0.00000E+00
    0.31543E-04        -0.42668E-02         0.00000E+00
    0.00000E+00         0.00000E+00         0.00000E+00
    0.17709E-03        -0.64112E-01         0.00000E+00
    0.18575E-03        -0.59835E-01         0.00000E+00
    0.19181E-03        -0.55558E-01         0.00000E+00
    0.19519E-03        -0.51280E-01         0.00000E+00
    0.19582E-03        -0.47002E-01         0.00000E+00
    0.19363E-03        -0.42725E-01         0.00000E+00
    0.18853E-03        -0.38448E-01         0.00000E+00
    0.18042E-03        -0.34172E-01         0.00000E+00
    0.16921E-03        -0.29897E-01         0.00000E+00
    0.15483E-03        -0.25622E-01         0.00000E+00
    0.13720E-03        -0.21349E-01         0.00000E+00
    0.11628E-03        -0.17076E-01         0.00000E+00
    0.92057E-04        -0.12805E-01         0.00000E+00
    0.64552E-04        -0.85351E-02         0.00000E+00
    0.33830E-04        -0.42668E-02         0.00000E+00
    0.00000E+00         0.00000E+00         0.00000E+00
    0.18587E-03        -0.64102E-01         0.00000E+00
    0.19516E-03        -0.59826E-01         0.00000E+00
    0.20173E-03        -0.55549E-01         0.00000E+00
    0.20550E-03        -0.51273E-01         0.00000E+00
    0.20638E-03        -0.46996E-01         0.00000E+00
    0.20428E-03        -0.42720E-01         0.00000E+00
    0.19910E-03        -0.38444E-01         0.00000E+00
    0.19071E-03        -0.34169E-01         0.00000E+00
    0.17903E-03        -0.29894E-01         0.00000E+00
    0.16395E-03        -0.25620E-01         0.00000E+00
    0.14540E-03        -0.21347E-01         0.00000E+00
    0.12333E-03        -0.17075E-01         0.00000E+00
    0.97710E-04        -0.12805E-01         0.00000E+00
    0.68562E-04        -0.85351E-02         0.00000E+00
    0.35953E-04        -0.42668E-02         0.00000E+00
    0.00000E+00         0.00000E+00         0.00000E+00
    0.19302E-03        -0.64091E-01         0.00000E+00
    0.20292E-03        -0.59816E-01         0.00000E+00
    0.21001E-03        -0.55541E-01         0.00000E+00
    0.21421E-03        -0.51265E-01         0.00000E+00
    0.21540E-03        -0.46990E-01         0.00000E+00
    0.21347E-03        -0.42714E-01         0.00000E+00
    0.20830E-03        -0.38440E-01         0.00000E+00
    0.19975E-03        -0.34165E-01         0.00000E+00
    0.18772E-03        -0.29892E-01         0.00000E+00
    0.17208E-03        -0.25619E-01         0.00000E+00
    0.15276E-03        -0.21346E-01         0.00000E+00
    0.12969E-03        -0.17075E-01         0.00000E+00
    0.10283E-03        -0.12805E-01         0.00000E+00
    0.72213E-04        -0.85352E-02         0.00000E+00
    0.37895E-04        -0.42670E-02         0.00000E+00
    0.00000E+00         0.00000E+00         0.00000E+00
    0.19837E-03        -0.64080E-01         0.00000E+00
    0.20883E-03        -0.59806E-01         0.00000E+00
    0.21646E-03        -0.55532E-01         0.00000E+00
    0.22113E-03        -0.51257E-01         0.00000E+00
    0.22270E-03        -0.46983E-01         0.00000E+00
    0.22104E-03        -0.42709E-01         0.00000E+00
    0.21598E-03        -0.38435E-01         0.00000E+00
    0.20740E-03        -0.34162E-01         0.00000E+00
    0.19515E-03        -0.29889E-01         0.00000E+00
    0.17910E-03        -0.25617E-01         0.00000E+00
    0.15917E-03        -0.21345E-01         0.00000E+00
    0.13526E-03        -0.17075E-01         0.00000E+00
    0.10736E-03        -0.12805E-01         0.00000E+00
    0.75458E-04        -0.85354E-02         0.00000E+00
    0.39631E-04        -0.42672E-02         0.00000E+00
    0.00000E+00         0.00000E+00         0.00000E+00
    0.20174E-03        -0.64068E-01         0.00000E+00
    0.21273E-03        -0.59795E-01         0.00000E+00
    0.22091E-03        -0.55522E-01         0.00000E+00
    0.22609E-03        -0.51249E-01         0.00000E+00
    0.22811E-03        -0.46976E-01         0.00000E+00
    0.22680E-03        -0.42704E-01         0.00000E+00
    0.22198E-03        -0.38431E-01         0.00000E+00
    0.21348E-03        -0.34159E-01         0.00000E+00
    0.20116E-03        -0.29887E-01         0.00000E+00
    0.18487E-03        -0.25616E-01         0.00000E+00
    0.16449E-03        -0.21345E-01         0.00000E+00
    0.13995E-03        -0.17075E-01         0.00000E+00
    0.11120E-03        -0.12805E-01         0.00000E+00
    0.78247E-04        -0.85359E-02         0.00000E+00
    0.41140E-04        -0.42676E-02         0.00000E+00
    0.00000E+00         0.00000E+00         0.00000E+00
    0.20294E-03        -0.64055E-01         0.00000E+00
    0.21443E-03        -0.59784E-01         0.00000E+00
    0.22315E-03        -0.55513E-01         0.00000E+00
    0.22889E-03        -0.51241E-01         0.00000E+00
    0.23143E-03        -0.46970E-01         0.00000E+00
    0.23056E-03        -0.42698E-01         0.00000E+00
    0.22609E-03        -0.38427E-01         0.00000E+00
    0.21783E-03        -0.34156E-01         0.00000E+00
    0.20559E-03        -0.29885E-01         0.00000E+00
    0.18922E-03        -0.25615E-01         0.00000E+00
    0.16861E-03        -0.21345E-01         0.00000E+00
    0.14365E-03        -0.17075E-01         0.00000E+00
    0.11429E-03        -0.12806E-01         0.00000E+00
    0.80526E-04        -0.85366E-02         0.00000E+00
    0.42395E-04        -0.42681E-02         0.00000E+00
    0.00000E+00         0.00000E+00         0.00000E+00
    0.20183E-03        -0.64042E-01         0.00000E+00
    0.21377E-03        -0.59773E-01         0.00000E+00
    0.22302E-03        -0.55503E-01         0.00000E+00
    0.22934E-03        -0.51233E-01         0.00000E+00
    0.23246E-03        -0.46963E-01         0.00000E+00
    0.23213E-03        -0.42693E-01         0.00000E+00
    0.22812E-03        -0.38423E-01         0.00000E+00
    0.22021E-03        -0.34153E-01         0.00000E+00
    0.20822E-03        -0.29884E-01         0.00000E+00
    0.19197E-03        -0.25614E-01         0.00000E+00
    0.17133E-03        -0.21345E-01         0.00000E+00
    0.14621E-03        -0.17076E-01         0.00000E+00
    0.11652E-03        -0.12807E-01         0.00000E+00
    0.82231E-04        -0.85376E-02         0.00000E+00
    0.43367E-04        -0.42687E-02         0.00000E+00
    0.00000E+00         0.00000E+00         0.00000E+00
    0.19829E-03        -0.64029E-01         0.00000E+00
    0.21060E-03        -0.59761E-01         0.00000E+00
    0.22037E-03        -0.55493E-01         0.00000E+00
    0.22727E-03        -0.51225E-01         0.00000E+00
    0.23101E-03        -0.46956E-01         0.00000E+00
    0.23128E-03        -0.42688E-01         0.00000E+00
    0.22782E-03        -0.38420E-01         0.00000E+00
    0.22041E-03        -0.34151E-01         0.00000E+00
    0.20882E-03        -0.29883E-01         0.00000E+00
    0.19290E-03        -0.25614E-01         0.00000E+00
    0.17249E-03        -0.21346E-01         0.00000E+00
    0.14748E-03        -0.17077E-01         0.00000E+00
    0.11777E-03        -0.12808E-01         0.00000E+00
    0.83292E-04        -0.85389E-02         0.00000E+00
    0.44026E-04        -0.42695E-02         0.00000E+00
    0.00000E+00         0.00000E+00         0.00000E+00
    0.19221E-03        -0.64015E-01         0.00000E+00
    0.20481E-03        -0.59749E-01         0.00000E+00
    0.21504E-03        -0.55483E-01         0.00000E+00
    0.22252E-03        -0.51216E-01         0.00000E+00
    0.22688E-03        -0.46950E-01         0.00000E+00
    0.22779E-03        -0.42683E-01         0.00000E+00
    0.22496E-03        -0.38416E-01         0.00000E+00
    0.21814E-03        -0.34150E-01         0.00000E+00
    0.20713E-03        -0.29882E-01         0.00000E+00
    0.19175E-03        -0.25615E-01         0.00000E+00
    0.17185E-03        -0.21347E-01         0.00000E+00
    0.14728E-03        -0.17079E-01         0.00000E+00
    0.11791E-03        -0.12810E-01         0.00000E+00
    0.83628E-04        -0.85405E-02         0.00000E+00
    0.44336E-04        -0.42705E-02         0.00000E+00
    0.00000E+00         0.00000E+00         0.00000E+00
    0.18356E-03        -0.64002E-01         0.00000E+00
    0.19634E-03        -0.59737E-01         0.00000E+00
    0.20694E-03        -0.55473E-01         0.00000E+00
    0.21492E-03        -0.51208E-01         0.00000E+00
    0.21986E-03        -0.46944E-01         0.00000E+00
    0.22140E-03        -0.42679E-01         0.00000E+00
    0.21924E-03        -0.38414E-01         0.00000E+00
    0.21312E-03        -0.34148E-01         0.00000E+00
    0.20284E-03        -0.29882E-01         0.00000E+00
    0.18825E-03        -0.25616E-01         0.00000E+00
    0.16916E-03        -0.21349E-01         0.00000E+00
    0.14541E-03        -0.17081E-01         0.00000E+00
    0.11680E-03        -0.12812E-01         0.00000E+00
    0.83142E-04        -0.85424E-02         0.00000E+00
    0.44254E-04        -0.42716E-02         0.00000E+00
    0.00000E+00         0.00000E+00         0.00000E+00
    0.17234E-03        -0.63988E-01         0.00000E+00
    0.18515E-03        -0.59725E-01         0.00000E+00
    0.19599E-03        -0.55463E-01         0.00000E+00
    0.20436E-03        -0.51200E-01         0.00000E+00
    0.20978E-03        -0.46937E-01         0.00000E+00
    0.21189E-03        -0.42674E-01         0.00000E+00
    0.21037E-03        -0.38411E-01         0.00000E+00
    0.20501E-03        -0.34147E-01         0.00000E+00
    0.19563E-03        -0.29883E-01         0.00000E+00
    0.18207E-03        -0.25618E-01         0.00000E+00
    0.16415E-03        -0.21351E-01         0.00000E+00
    0.14162E-03        -0.17084E-01         0.00000E+00
    0.11425E-03        -0.12815E-01         0.00000E+00
    0.81713E-04        -0.85446E-02         0.00000E+00
    0.43723E-04        -0.42729E-02         0.00000E+00
    0.00000E+00         0.00000E+00         0.00000E+00
    0.15858E-03        -0.63974E-01         0.00000E+00
    0.17124E-03        -0.59714E-01         0.00000E+00
    0.18215E-03        -0.55453E-01         0.00000E+00
    0.19071E-03        -0.51192E-01         0.00000E+00
    0.19645E-03        -0.46931E-01         0.00000E+00
    0.19898E-03        -0.42670E-01         0.00000E+00
    0.19805E-03        -0.38409E-01         0.00000E+00
    0.19348E-03        -0.34147E-01         0.00000E+00
    0.18515E-03        -0.29884E-01         0.00000E+00
    0.17289E-03        -0.25620E-01         0.00000E+00
    0.15649E-03        -0.21354E-01         0.00000E+00
    0.13565E-03        -0.17087E-01         0.00000E+00
    0.11003E-03        -0.12818E-01         0.00000E+00
    0.79185E-04        -0.85470E-02         0.00000E+00
    0.42664E-04        -0.42743E-02         0.00000E+00
    0.00000E+00         0.00000E+00         0.00000E+00
    0.14236E-03        -0.63961E-01         0.00000E+00
    0.15465E-03        -0.59702E-01         0.00000E+00
    0.16537E-03        -0.55443E-01         0.00000E+00
    0.17389E-03        -0.51185E-01         0.00000E+00
    0.17969E-03        -0.46926E-01         0.00000E+00
    0.18245E-03        -0.42667E-01         0.00000E+00
    0.18199E-03        -0.38407E-01         0.00000E+00
    0.17824E-03        -0.34147E-01         0.00000E+00
    0.17108E-03        -0.29886E-01         0.00000E+00
    0.16036E-03        -0.25622E-01         0.00000E+00
    0.14584E-03        -0.21357E-01         0.00000E+00
    0.12716E-03        -0.17090E-01         0.00000E+00
    0.10386E-03        -0.12821E-01         0.00000E+00
    0.75350E-04        -0.85496E-02         0.00000E+00
    0.40969E-04        -0.42759E-02         0.00000E+00
    0.00000E+00         0.00000E+00         0.00000E+00
    0.12380E-03        -0.63949E-01         0.00000E+00
    0.13544E-03        -0.59691E-01         0.00000E+00
    0.14566E-03        -0.55434E-01         0.00000E+00
    0.15377E-03        -0.51178E-01         0.00000E+00
    0.15931E-03        -0.46921E-01         0.00000E+00
    0.16206E-03        -0.42664E-01         0.00000E+00
    0.16197E-03        -0.38406E-01         0.00000E+00
    0.15901E-03        -0.34148E-01         0.00000E+00
    0.15312E-03        -0.29887E-01         0.00000E+00
    0.14416E-03        -0.25625E-01         0.00000E+00
    0.13184E-03        -0.21361E-01         0.00000E+00
    0.11577E-03        -0.17094E-01         0.00000E+00
    0.95383E-04        -0.12824E-01         0.00000E+00
    0.69925E-04        -0.85523E-02         0.00000E+00
    0.38482E-04        -0.42775E-02         0.00000E+00
    0.00000E+00         0.00000E+00         0.00000E+00
    0.10303E-03        -0.63937E-01         0.00000E+00
    0.11364E-03        -0.59681E-01         0.00000E+00
    0.12295E-03        -0.55426E-01         0.00000E+00
    0.13024E-03        -0.51171E-01         0.00000E+00
    0.13516E-03        -0.46917E-01         0.00000E+00
    0.13767E-03        -0.42662E-01         0.00000E+00
    0.13782E-03        -0.38406E-01         0.00000E+00
    0.13563E-03        -0.34148E-01         0.00000E+00
    0.13106E-03        -0.29889E-01         0.00000E+00
    0.12397E-03        -0.25627E-01         0.00000E+00
    0.11410E-03        -0.21364E-01         0.00000E+00
    0.10103E-03        -0.17097E-01         0.00000E+00
    0.84137E-04        -0.12828E-01         0.00000E+00
    0.62521E-04        -0.85551E-02         0.00000E+00
    0.34974E-04        -0.42792E-02         0.00000E+00
    0.00000E+00         0.00000E+00         0.00000E+00
    0.80198E-04        -0.63927E-01         0.00000E+00
    0.89292E-04        -0.59673E-01         0.00000E+00
    0.97149E-04        -0.55419E-01         0.00000E+00
    0.10313E-03        -0.51166E-01         0.00000E+00
    0.10712E-03        -0.46914E-01         0.00000E+00
    0.10922E-03        -0.42660E-01         0.00000E+00
    0.10951E-03        -0.38405E-01         0.00000E+00
    0.10803E-03        -0.34149E-01         0.00000E+00
    0.10475E-03        -0.29890E-01         0.00000E+00
    0.99565E-04        -0.25629E-01         0.00000E+00
    0.92254E-04        -0.21366E-01         0.00000E+00
    0.82452E-04        -0.17100E-01         0.00000E+00
    0.69558E-04        -0.12831E-01         0.00000E+00
    0.52605E-04        -0.85577E-02         0.00000E+00
    0.30111E-04        -0.42808E-02         0.00000E+00
    0.00000E+00         0.00000E+00         0.00000E+00
    0.55420E-04        -0.63919E-01         0.00000E+00
    0.62323E-04        -0.59666E-01         0.00000E+00
    0.68092E-04        -0.55414E-01         0.00000E+00
    0.72352E-04        -0.51163E-01         0.00000E+00
    0.75190E-04        -0.46911E-01         0.00000E+00
    0.76736E-04        -0.42659E-01         0.00000E+00
    0.77063E-04        -0.38405E-01         0.00000E+00
    0.76199E-04        -0.34149E-01         0.00000E+00
    0.74130E-04        -0.29891E-01         0.00000E+00
    0.70787E-04        -0.25631E-01         0.00000E+00
    0.66026E-04        -0.21368E-01         0.00000E+00
    0.59585E-04        -0.17102E-01         0.00000E+00
    0.51002E-04        -0.12833E-01         0.00000E+00
    0.39459E-04        -0.85600E-02         0.00000E+00
    0.23375E-04        -0.42825E-02         0.00000E+00
    0.00000E+00         0.00000E+00         0.00000E+00
    0.28710E-04        -0.63913E-01         0.00000E+00
    0.32541E-04        -0.59662E-01         0.00000E+00
    0.35692E-04        -0.55411E-01         0.00000E+00
    0.37949E-04        -0.51161E-01         0.00000E+00
    0.39462E-04        -0.46910E-01         0.00000E+00
    0.40311E-04        -0.42658E-01         0.00000E+00
    0.40541E-04        -0.38404E-01         0.00000E+00
    0.40170E-04        -0.34149E-01         0.00000E+00
    0.39195E-04        -0.29891E-01         0.00000E+00
    0.37585E-04        -0.25632E-01         0.00000E+00
    0.35272E-04        -0.21369E-01         0.00000E+00
    0.32126E-04        -0.17104E-01         0.00000E+00
    0.27906E-04        -0.12835E-01         0.00000E+00
    0.22144E-04        -0.85618E-02         0.00000E+00
    0.13886E-04        -0.42840E-02         0.00000E+00
    0.00000E+00         0.00000E+00         0.00000E+00
    0.00000E+00        -0.63912E-01         0.00000E+00
    0.00000E+00        -0.59661E-01         0.00000E+00
    0.00000E+00        -0.55411E-01         0.00000E+00
    0.00000E+00        -0.51160E-01         0.00000E+00
    0.00000E+00        -0.46909E-01         0.00000E+00
    0.00000E+00        -0.42658E-01         0.00000E+00
    0.00000E+00        -0.38404E-01         0.00000E+00
    0.00000E+00        -0.34149E-01         0.00000E+00
    0.00000E+00        -0.29892E-01         0.00000E+00
    0.00000E+00        -0.25632E-01         0.00000E+00
    0.00000E+00        -0.21369E-01         0.00000E+00
    0.00000E+00        -0.17104E-01         0.00000E+00
    0.00000E+00        -0.12835E-01         0.00000E+00
    0.00000E+00        -0.85626E-02         0.00000E+00
    0.00000E+00        -0.42849E-02         0.00000E+00
    0.00000E+00         0.00000E+00         0.00000E+00
CELL_DATA        450
VECTORS vDarcy double 
    0.47456E-14        -0.29192E-15         0.00000E+00
    0.47445E-14        -0.76725E-15         0.00000E+00
    0.47426E-14        -0.11374E-14         0.00000E+00
    0.47401E-14        -0.14089E-14         0.00000E+00
    0.47372E-14        -0.15887E-14         0.00000E+00
    0.47340E-14        -0.16842E-14         0.00000E+00
    0.47307E-14        -0.17030E-14         0.00000E+00
    0.47274E-14        -0.16531E-14         0.00000E+00
    0.47243E-14        -0.15431E-14         0.00000E+00
    0.47215E-14        -0.13818E-14         0.00000E+00
    0.47190E-14        -0.11784E-14         0.00000E+00
    0.47169E-14        -0.94260E-15         0.00000E+00
    0.47153E-14        -0.68444E-15         0.00000E+00
    0.47143E-14        -0.41433E-15         0.00000E+00
    0.47137E-14        -0.14308E-15         0.00000E+00
    0.14222E-13        -0.29076E-15         0.00000E+00
    0.14219E-13        -0.76421E-15         0.00000E+00
    0.14213E-13        -0.11329E-14         0.00000E+00
    0.14206E-13        -0.14033E-14         0.00000E+00
    0.14197E-13        -0.15825E-14         0.00000E+00
    0.14187E-13        -0.16776E-14         0.00000E+00
    0.14177E-13        -0.16963E-14         0.00000E+00
    0.14167E-13        -0.16466E-14         0.00000E+00
    0.14158E-13        -0.15371E-14         0.00000E+00
    0.14149E-13        -0.13764E-14         0.00000E+00
    0.14142E-13        -0.11738E-14         0.00000E+00
    0.14136E-13        -0.93891E-15         0.00000E+00
    0.14131E-13        -0.68177E-15         0.00000E+00
    0.14128E-13        -0.41273E-15         0.00000E+00
    0.14126E-13        -0.14251E-15         0.00000E+00
    0.23655E-13        -0.28842E-15         0.00000E+00
    0.23650E-13        -0.75808E-15         0.00000E+00
    0.23640E-13        -0.11238E-14         0.00000E+00
    0.23627E-13        -0.13921E-14         0.00000E+00
    0.23612E-13        -0.15699E-14         0.00000E+00
    0.23596E-13        -0.16642E-14         0.00000E+00
    0.23579E-13        -0.16828E-14         0.00000E+00
    0.23562E-13        -0.16335E-14         0.00000E+00
    0.23547E-13        -0.15248E-14         0.00000E+00
    0.23532E-13        -0.13654E-14         0.00000E+00
    0.23519E-13        -0.11644E-14         0.00000E+00
    0.23509E-13        -0.93147E-15         0.00000E+00
    0.23501E-13        -0.67639E-15         0.00000E+00
    0.23495E-13        -0.40948E-15         0.00000E+00
    0.23492E-13        -0.14137E-15         0.00000E+00
    0.33015E-13        -0.28485E-15         0.00000E+00
    0.33007E-13        -0.74872E-15         0.00000E+00
    0.32994E-13        -0.11100E-14         0.00000E+00
    0.32976E-13        -0.13750E-14         0.00000E+00
    0.32954E-13        -0.15506E-14         0.00000E+00
    0.32931E-13        -0.16438E-14         0.00000E+00
    0.32907E-13        -0.16622E-14         0.00000E+00
    0.32883E-13        -0.16135E-14         0.00000E+00
    0.32860E-13        -0.15062E-14         0.00000E+00
    0.32839E-13        -0.13487E-14         0.00000E+00
    0.32821E-13        -0.11502E-14         0.00000E+00
    0.32806E-13        -0.92009E-15         0.00000E+00
    0.32794E-13        -0.66815E-15         0.00000E+00
    0.32787E-13        -0.40451E-15         0.00000E+00
    0.32783E-13        -0.13963E-15         0.00000E+00
    0.42274E-13        -0.27997E-15         0.00000E+00
    0.42263E-13        -0.73594E-15         0.00000E+00
    0.42245E-13        -0.10911E-14         0.00000E+00
    0.42221E-13        -0.13517E-14         0.00000E+00
    0.42193E-13        -0.15243E-14         0.00000E+00
    0.42162E-13        -0.16160E-14         0.00000E+00
    0.42131E-13        -0.16341E-14         0.00000E+00
    0.42099E-13        -0.15863E-14         0.00000E+00
    0.42069E-13        -0.14807E-14         0.00000E+00
    0.42042E-13        -0.13259E-14         0.00000E+00
    0.42018E-13        -0.11307E-14         0.00000E+00
    0.41998E-13        -0.90454E-15         0.00000E+00
    0.41982E-13        -0.65689E-15         0.00000E+00
    0.41972E-13        -0.39771E-15         0.00000E+00
    0.41967E-13        -0.13725E-15         0.00000E+00
    0.51402E-13        -0.27370E-15         0.00000E+00
    0.51389E-13        -0.71951E-15         0.00000E+00
    0.51367E-13        -0.10668E-14         0.00000E+00
    0.51336E-13        -0.13217E-14         0.00000E+00
    0.51301E-13        -0.14905E-14         0.00000E+00
    0.51262E-13        -0.15802E-14         0.00000E+00
    0.51222E-13        -0.15979E-14         0.00000E+00
    0.51182E-13        -0.15511E-14         0.00000E+00
    0.51144E-13        -0.14479E-14         0.00000E+00
    0.51109E-13        -0.12965E-14         0.00000E+00
    0.51079E-13        -0.11057E-14         0.00000E+00
    0.51054E-13        -0.88451E-15         0.00000E+00
    0.51034E-13        -0.64236E-15         0.00000E+00
    0.51021E-13        -0.38894E-15         0.00000E+00
    0.51015E-13        -0.13419E-15         0.00000E+00
    0.60372E-13        -0.26590E-15         0.00000E+00
    0.60357E-13        -0.69908E-15         0.00000E+00
    0.60329E-13        -0.10366E-14         0.00000E+00
    0.60292E-13        -0.12844E-14         0.00000E+00
    0.60248E-13        -0.14485E-14         0.00000E+00
    0.60200E-13        -0.15358E-14         0.00000E+00
    0.60151E-13        -0.15530E-14         0.00000E+00
    0.60102E-13        -0.15076E-14         0.00000E+00
    0.60056E-13        -0.14072E-14         0.00000E+00
    0.60014E-13        -0.12600E-14         0.00000E+00
    0.59976E-13        -0.10746E-14         0.00000E+00
    0.59945E-13        -0.85962E-15         0.00000E+00
    0.59922E-13        -0.62430E-15         0.00000E+00
    0.59906E-13        -0.37802E-15         0.00000E+00
    0.59898E-13        -0.13040E-15         0.00000E+00
    0.69156E-13        -0.25644E-15         0.00000E+00
    0.69138E-13        -0.67431E-15         0.00000E+00
    0.69104E-13        -0.99999E-15         0.00000E+00
    0.69059E-13        -0.12391E-14         0.00000E+00
    0.69007E-13        -0.13977E-14         0.00000E+00
    0.68950E-13        -0.14819E-14         0.00000E+00
    0.68891E-13        -0.14986E-14         0.00000E+00
    0.68832E-13        -0.14548E-14         0.00000E+00
    0.68777E-13        -0.13579E-14         0.00000E+00
    0.68726E-13        -0.12159E-14         0.00000E+00
    0.68681E-13        -0.10369E-14         0.00000E+00
    0.68644E-13        -0.82946E-15         0.00000E+00
    0.68616E-13        -0.60240E-15         0.00000E+00
    0.68596E-13        -0.36477E-15         0.00000E+00
    0.68587E-13        -0.12581E-15         0.00000E+00
    0.77727E-13        -0.24516E-15         0.00000E+00
    0.77705E-13        -0.64476E-15         0.00000E+00
    0.77665E-13        -0.95633E-15         0.00000E+00
    0.77612E-13        -0.11852E-14         0.00000E+00
    0.77550E-13        -0.13370E-14         0.00000E+00
    0.77483E-13        -0.14178E-14         0.00000E+00
    0.77413E-13        -0.14338E-14         0.00000E+00
    0.77344E-13        -0.13919E-14         0.00000E+00
    0.77278E-13        -0.12993E-14         0.00000E+00
    0.77218E-13        -0.11634E-14         0.00000E+00
    0.77165E-13        -0.99207E-15         0.00000E+00
    0.77121E-13        -0.79357E-15         0.00000E+00
    0.77088E-13        -0.57632E-15         0.00000E+00
    0.77065E-13        -0.34898E-15         0.00000E+00
    0.77053E-13        -0.12037E-15         0.00000E+00
    0.86058E-13        -0.23186E-15         0.00000E+00
    0.86032E-13        -0.60996E-15         0.00000E+00
    0.85985E-13        -0.90495E-15         0.00000E+00
    0.85923E-13        -0.11218E-14         0.00000E+00
    0.85851E-13        -0.12657E-14         0.00000E+00
    0.85772E-13        -0.13424E-14         0.00000E+00
    0.85690E-13        -0.13578E-14         0.00000E+00
    0.85610E-13        -0.13182E-14         0.00000E+00
    0.85533E-13        -0.12305E-14         0.00000E+00
    0.85463E-13        -0.11018E-14         0.00000E+00
    0.85401E-13        -0.93953E-15         0.00000E+00
    0.85350E-13        -0.75149E-15         0.00000E+00
    0.85311E-13        -0.54572E-15         0.00000E+00
    0.85285E-13        -0.33044E-15         0.00000E+00
    0.85271E-13        -0.11401E-15         0.00000E+00
    0.94122E-13        -0.21636E-15         0.00000E+00
    0.94092E-13        -0.56943E-15         0.00000E+00
    0.94038E-13        -0.84514E-15         0.00000E+00
    0.93967E-13        -0.10480E-14         0.00000E+00
    0.93883E-13        -0.11829E-14         0.00000E+00
    0.93791E-13        -0.12549E-14         0.00000E+00
    0.93697E-13        -0.12695E-14         0.00000E+00
    0.93604E-13        -0.12327E-14         0.00000E+00
    0.93515E-13        -0.11508E-14         0.00000E+00
    0.93435E-13        -0.10305E-14         0.00000E+00
    0.93364E-13        -0.87869E-15         0.00000E+00
    0.93305E-13        -0.70276E-15         0.00000E+00
    0.93260E-13        -0.51028E-15         0.00000E+00
    0.93230E-13        -0.30897E-15         0.00000E+00
    0.93214E-13        -0.10666E-15         0.00000E+00
    0.10189E-12        -0.19846E-15         0.00000E+00
    0.10186E-12        -0.52266E-15         0.00000E+00
    0.10180E-12        -0.77618E-15         0.00000E+00
    0.10172E-12        -0.96303E-15         0.00000E+00
    0.10162E-12        -0.10875E-14         0.00000E+00
    0.10152E-12        -0.11542E-14         0.00000E+00
    0.10141E-12        -0.11682E-14         0.00000E+00
    0.10130E-12        -0.11347E-14         0.00000E+00
    0.10120E-12        -0.10595E-14         0.00000E+00
    0.10111E-12        -0.94883E-15         0.00000E+00
    0.10103E-12        -0.80905E-15         0.00000E+00
    0.10096E-12        -0.64700E-15         0.00000E+00
    0.10091E-12        -0.46971E-15         0.00000E+00
    0.10087E-12        -0.28437E-15         0.00000E+00
    0.10086E-12        -0.98281E-16         0.00000E+00
    0.10935E-12        -0.17798E-15         0.00000E+00
    0.10931E-12        -0.46919E-15         0.00000E+00
    0.10924E-12        -0.69740E-15         0.00000E+00
    0.10915E-12        -0.86604E-15         0.00000E+00
    0.10904E-12        -0.97880E-15         0.00000E+00
    0.10892E-12        -0.10396E-14         0.00000E+00
    0.10880E-12        -0.10529E-14         0.00000E+00
    0.10868E-12        -0.10233E-14         0.00000E+00
    0.10856E-12        -0.95592E-15         0.00000E+00
    0.10846E-12        -0.85626E-15         0.00000E+00
    0.10837E-12        -0.73018E-15         0.00000E+00
    0.10829E-12        -0.58388E-15         0.00000E+00
    0.10824E-12        -0.42379E-15         0.00000E+00
    0.10820E-12        -0.25654E-15         0.00000E+00
    0.10818E-12        -0.88829E-16         0.00000E+00
    0.11647E-12        -0.15475E-15         0.00000E+00
    0.11642E-12        -0.40863E-15         0.00000E+00
    0.11634E-12        -0.60826E-15         0.00000E+00
    0.11624E-12        -0.75641E-15         0.00000E+00
    0.11611E-12        -0.85605E-15         0.00000E+00
    0.11598E-12        -0.91042E-15         0.00000E+00
    0.11584E-12        -0.92311E-15         0.00000E+00
    0.11571E-12        -0.89804E-15         0.00000E+00
    0.11558E-12        -0.83957E-15         0.00000E+00
    0.11547E-12        -0.75245E-15         0.00000E+00
    0.11536E-12        -0.64183E-15         0.00000E+00
    0.11528E-12        -0.51323E-15         0.00000E+00
    0.11522E-12        -0.37244E-15         0.00000E+00
    0.11517E-12        -0.22543E-15         0.00000E+00
    0.11515E-12        -0.78294E-16         0.00000E+00
    0.12322E-12        -0.12868E-15         0.00000E+00
    0.12317E-12        -0.34072E-15         0.00000E+00
    0.12308E-12        -0.50838E-15         0.00000E+00
    0.12296E-12        -0.63368E-15         0.00000E+00
    0.12283E-12        -0.71881E-15         0.00000E+00
    0.12268E-12        -0.76615E-15         0.00000E+00
    0.12253E-12        -0.77839E-15         0.00000E+00
    0.12238E-12        -0.75861E-15         0.00000E+00
    0.12224E-12        -0.71027E-15         0.00000E+00
    0.12211E-12        -0.63728E-15         0.00000E+00
    0.12200E-12        -0.54399E-15         0.00000E+00
    0.12190E-12        -0.43510E-15         0.00000E+00
    0.12183E-12        -0.31570E-15         0.00000E+00
    0.12178E-12        -0.19108E-15         0.00000E+00
    0.12176E-12        -0.66698E-16         0.00000E+00
    0.12958E-12        -0.99728E-16         0.00000E+00
    0.12953E-12        -0.26539E-15         0.00000E+00
    0.12943E-12        -0.39768E-15         0.00000E+00
    0.12930E-12        -0.49780E-15         0.00000E+00
    0.12915E-12        -0.56702E-15         0.00000E+00
    0.12899E-12        -0.60678E-15         0.00000E+00
    0.12882E-12        -0.61879E-15         0.00000E+00
    0.12866E-12        -0.60511E-15         0.00000E+00
    0.12850E-12        -0.56821E-15         0.00000E+00
    0.12836E-12        -0.51102E-15         0.00000E+00
    0.12824E-12        -0.43693E-15         0.00000E+00
    0.12814E-12        -0.34980E-15         0.00000E+00
    0.12806E-12        -0.25386E-15         0.00000E+00
    0.12801E-12        -0.15368E-15         0.00000E+00
    0.12799E-12        -0.54103E-16         0.00000E+00
    0.13554E-12        -0.67992E-16         0.00000E+00
    0.13548E-12        -0.18288E-15         0.00000E+00
    0.13537E-12        -0.27651E-15         0.00000E+00
    0.13523E-12        -0.34916E-15         0.00000E+00
    0.13507E-12        -0.40113E-15         0.00000E+00
    0.13489E-12        -0.43281E-15         0.00000E+00
    0.13471E-12        -0.44483E-15         0.00000E+00
    0.13454E-12        -0.43813E-15         0.00000E+00
    0.13437E-12        -0.41403E-15         0.00000E+00
    0.13422E-12        -0.37435E-15         0.00000E+00
    0.13409E-12        -0.32140E-15         0.00000E+00
    0.13398E-12        -0.25801E-15         0.00000E+00
    0.13390E-12        -0.18750E-15         0.00000E+00
    0.13384E-12        -0.11363E-15         0.00000E+00
    0.13382E-12        -0.40633E-16         0.00000E+00
    0.14107E-12        -0.33710E-16         0.00000E+00
    0.14100E-12        -0.93814E-16         0.00000E+00
    0.14089E-12        -0.14576E-15         0.00000E+00
    0.14074E-12        -0.18885E-15         0.00000E+00
    0.14056E-12        -0.22231E-15         0.00000E+00
    0.14037E-12        -0.24548E-15         0.00000E+00
    0.14018E-12        -0.25780E-15         0.00000E+00
    0.13999E-12        -0.25897E-15         0.00000E+00
    0.13981E-12        -0.24906E-15         0.00000E+00
    0.13965E-12        -0.22861E-15         0.00000E+00
    0.13952E-12        -0.19865E-15         0.00000E+00
    0.13940E-12        -0.16086E-15         0.00000E+00
    0.13932E-12        -0.11751E-15         0.00000E+00
    0.13926E-12        -0.71522E-16         0.00000E+00
    0.13923E-12        -0.26475E-16         0.00000E+00
    0.14614E-12         0.27050E-17         0.00000E+00
    0.14608E-12         0.72387E-18         0.00000E+00
    0.14596E-12        -0.70255E-17         0.00000E+00
    0.14580E-12        -0.18769E-16         0.00000E+00
    0.14561E-12        -0.32684E-16         0.00000E+00
    0.14542E-12        -0.46976E-16         0.00000E+00
    0.14521E-12        -0.59880E-16         0.00000E+00
    0.14501E-12        -0.69814E-16         0.00000E+00
    0.14483E-12        -0.75444E-16         0.00000E+00
    0.14466E-12        -0.75842E-16         0.00000E+00
    0.14452E-12        -0.70608E-16         0.00000E+00
    0.14440E-12        -0.60041E-16         0.00000E+00
    0.14432E-12        -0.45236E-16         0.00000E+00
    0.14426E-12        -0.28197E-16         0.00000E+00
    0.14423E-12        -0.11897E-16         0.00000E+00
    0.15075E-12         0.40641E-16         0.00000E+00
    0.15068E-12         0.99082E-16         0.00000E+00
    0.15056E-12         0.13726E-15         0.00000E+00
    0.15040E-12         0.15808E-15         0.00000E+00
    0.15021E-12         0.16444E-15         0.00000E+00
    0.15000E-12         0.15927E-15         0.00000E+00
    0.14979E-12         0.14547E-15         0.00000E+00
    0.14959E-12         0.12598E-15         0.00000E+00
    0.14940E-12         0.10362E-15         0.00000E+00
    0.14923E-12         0.80950E-16         0.00000E+00
    0.14909E-12         0.60037E-16         0.00000E+00
    0.14897E-12         0.42158E-16         0.00000E+00
    0.14888E-12         0.27555E-16         0.00000E+00
    0.14882E-12         0.15219E-16         0.00000E+00
    0.14880E-12         0.27481E-17         0.00000E+00
    0.15487E-12         0.79262E-16         0.00000E+00
    0.15480E-12         0.19899E-15         0.00000E+00
    0.15468E-12         0.28366E-15         0.00000E+00
    0.15451E-12         0.33740E-15         0.00000E+00
    0.15432E-12         0.36425E-15         0.00000E+00
    0.15412E-12         0.36817E-15         0.00000E+00
    0.15391E-12         0.35320E-15         0.00000E+00
    0.15371E-12         0.32356E-15         0.00000E+00
    0.15352E-12         0.28360E-15         0.00000E+00
    0.15335E-12         0.23767E-15         0.00000E+00
    0.15321E-12         0.18971E-15         0.00000E+00
    0.15310E-12         0.14279E-15         0.00000E+00
    0.15301E-12         0.98640E-16         0.00000E+00
    0.15296E-12         0.57333E-16         0.00000E+00
    0.15293E-12         0.17030E-16         0.00000E+00
    0.15848E-12         0.11751E-15         0.00000E+00
    0.15841E-12         0.29749E-15         0.00000E+00
    0.15829E-12         0.42761E-15         0.00000E+00
    0.15813E-12         0.51339E-15         0.00000E+00
    0.15795E-12         0.56006E-15         0.00000E+00
    0.15776E-12         0.57262E-15         0.00000E+00
    0.15756E-12         0.55617E-15         0.00000E+00
    0.15736E-12         0.51611E-15         0.00000E+00
    0.15718E-12         0.45832E-15         0.00000E+00
    0.15702E-12         0.38895E-15         0.00000E+00
    0.15689E-12         0.31393E-15         0.00000E+00
    0.15679E-12         0.23827E-15         0.00000E+00
    0.15671E-12         0.16538E-15         0.00000E+00
    0.15666E-12         0.96522E-16         0.00000E+00
    0.15663E-12         0.30445E-16         0.00000E+00
    0.16156E-12         0.15411E-15         0.00000E+00
    0.16150E-12         0.39087E-15         0.00000E+00
    0.16139E-12         0.56325E-15         0.00000E+00
    0.16124E-12         0.67843E-15         0.00000E+00
    0.16108E-12         0.74296E-15         0.00000E+00
    0.16090E-12         0.76297E-15         0.00000E+00
    0.16072E-12         0.74460E-15         0.00000E+00
    0.16055E-12         0.69442E-15         0.00000E+00
    0.16039E-12         0.61962E-15         0.00000E+00
    0.16025E-12         0.52797E-15         0.00000E+00
    0.16013E-12         0.42723E-15         0.00000E+00
    0.16003E-12         0.32441E-15         0.00000E+00
    0.15997E-12         0.22478E-15         0.00000E+00
    0.15992E-12         0.13097E-15         0.00000E+00
    0.15990E-12         0.42435E-16         0.00000E+00
    0.16409E-12         0.18750E-15         0.00000E+00
    0.16404E-12         0.47453E-15         0.00000E+00
    0.16395E-12         0.68322E-15         0.00000E+00
    0.16383E-12         0.82276E-15         0.00000E+00
    0.16369E-12         0.90137E-15         0.00000E+00
    0.16354E-12         0.92654E-15         0.00000E+00
    0.16340E-12         0.90567E-15         0.00000E+00
    0.16326E-12         0.84641E-15         0.00000E+00
    0.16313E-12         0.75700E-15         0.00000E+00
    0.16302E-12         0.64622E-15         0.00000E+00
    0.16292E-12         0.52314E-15         0.00000E+00
    0.16285E-12         0.39652E-15         0.00000E+00
    0.16279E-12         0.27359E-15         0.00000E+00
    0.16276E-12         0.15874E-15         0.00000E+00
    0.16274E-12         0.52415E-16         0.00000E+00
    0.16606E-12         0.21579E-15         0.00000E+00
    0.16602E-12         0.54276E-15         0.00000E+00
    0.16595E-12         0.77820E-15         0.00000E+00
    0.16587E-12         0.93401E-15         0.00000E+00
    0.16577E-12         0.10206E-14         0.00000E+00
    0.16568E-12         0.10473E-14         0.00000E+00
    0.16559E-12         0.10232E-14         0.00000E+00
    0.16550E-12         0.95697E-15         0.00000E+00
    0.16541E-12         0.85736E-15         0.00000E+00
    0.16534E-12         0.73324E-15         0.00000E+00
    0.16528E-12         0.59398E-15         0.00000E+00
    0.16523E-12         0.44932E-15         0.00000E+00
    0.16520E-12         0.30839E-15         0.00000E+00
    0.16518E-12         0.17784E-15         0.00000E+00
    0.16517E-12         0.59812E-16         0.00000E+00
    0.16745E-12         0.23657E-15         0.00000E+00
    0.16742E-12         0.58808E-15         0.00000E+00
    0.16739E-12         0.83608E-15         0.00000E+00
    0.16735E-12         0.99624E-15         0.00000E+00
    0.16732E-12         0.10821E-14         0.00000E+00
    0.16730E-12         0.11058E-14         0.00000E+00
    0.16728E-12         0.10780E-14         0.00000E+00
    0.16726E-12         0.10082E-14         0.00000E+00
    0.16724E-12         0.90494E-15         0.00000E+00
    0.16723E-12         0.77622E-15         0.00000E+00
    0.16721E-12         0.63035E-15         0.00000E+00
    0.16720E-12         0.47667E-15         0.00000E+00
    0.16719E-12         0.32550E-15         0.00000E+00
    0.16718E-12         0.18629E-15         0.00000E+00
    0.16718E-12         0.64112E-16         0.00000E+00
    0.16822E-12         0.24646E-15         0.00000E+00
    0.16822E-12         0.59995E-15         0.00000E+00
    0.16824E-12         0.84015E-15         0.00000E+00
    0.16828E-12         0.98862E-15         0.00000E+00
    0.16833E-12         0.10635E-14         0.00000E+00
    0.16840E-12         0.10795E-14         0.00000E+00
    0.16848E-12         0.10487E-14         0.00000E+00
    0.16855E-12         0.98027E-15         0.00000E+00
    0.16862E-12         0.88185E-15         0.00000E+00
    0.16868E-12         0.75978E-15         0.00000E+00
    0.16872E-12         0.62026E-15         0.00000E+00
    0.16875E-12         0.47062E-15         0.00000E+00
    0.16877E-12         0.32065E-15         0.00000E+00
    0.16879E-12         0.18206E-15         0.00000E+00
    0.16879E-12         0.64974E-16         0.00000E+00
    0.16835E-12         0.23991E-15         0.00000E+00
    0.16840E-12         0.56169E-15         0.00000E+00
    0.16849E-12         0.76571E-15         0.00000E+00
    0.16863E-12         0.88400E-15         0.00000E+00
    0.16880E-12         0.93835E-15         0.00000E+00
    0.16899E-12         0.94441E-15         0.00000E+00
    0.16919E-12         0.91330E-15         0.00000E+00
    0.16938E-12         0.85297E-15         0.00000E+00
    0.16955E-12         0.76919E-15         0.00000E+00
    0.16970E-12         0.66642E-15         0.00000E+00
    0.16982E-12         0.54851E-15         0.00000E+00
    0.16991E-12         0.41983E-15         0.00000E+00
    0.16997E-12         0.28728E-15         0.00000E+00
    0.17001E-12         0.16299E-15         0.00000E+00
    0.17003E-12         0.62097E-16         0.00000E+00
    0.16781E-12         0.20703E-15         0.00000E+00
    0.16792E-12         0.44052E-15         0.00000E+00
    0.16813E-12         0.57632E-15         0.00000E+00
    0.16842E-12         0.64900E-15         0.00000E+00
    0.16874E-12         0.67827E-15         0.00000E+00
    0.16908E-12         0.67630E-15         0.00000E+00
    0.16941E-12         0.65086E-15         0.00000E+00
    0.16973E-12         0.60714E-15         0.00000E+00
    0.17003E-12         0.54874E-15         0.00000E+00
    0.17029E-12         0.47819E-15         0.00000E+00
    0.17050E-12         0.39745E-15         0.00000E+00
    0.17067E-12         0.30837E-15         0.00000E+00
    0.17080E-12         0.21403E-15         0.00000E+00
    0.17087E-12         0.12219E-15         0.00000E+00
    0.17090E-12         0.57956E-16         0.00000E+00
    0.16651E-12         0.91207E-16         0.00000E+00
    0.16678E-12         0.17681E-15         0.00000E+00
    0.16718E-12         0.22375E-15         0.00000E+00
    0.16765E-12         0.24719E-15         0.00000E+00
    0.16815E-12         0.25544E-15         0.00000E+00
    0.16866E-12         0.25303E-15         0.00000E+00
    0.16916E-12         0.24268E-15         0.00000E+00
    0.16963E-12         0.22616E-15         0.00000E+00
    0.17006E-12         0.20469E-15         0.00000E+00
    0.17044E-12         0.17907E-15         0.00000E+00
    0.17077E-12         0.14989E-15         0.00000E+00
    0.17104E-12         0.11759E-15         0.00000E+00
    0.17124E-12         0.82825E-16         0.00000E+00
    0.17137E-12         0.47456E-16         0.00000E+00
    0.17144E-12         0.28119E-16         0.00000E+00
POINT_DATA        496
VECTORS vDarcyNodal double 
    0.47458E-14        -0.29220E-15         0.00000E+00
    0.47453E-14        -0.53010E-15         0.00000E+00
    0.47438E-14        -0.95324E-15         0.00000E+00
    0.47415E-14        -0.12744E-14         0.00000E+00
    0.47388E-14        -0.15003E-14         0.00000E+00
    0.47357E-14        -0.16381E-14         0.00000E+00
    0.47324E-14        -0.16952E-14         0.00000E+00
    0.47291E-14        -0.16797E-14         0.00000E+00
    0.47258E-14        -0.15997E-14         0.00000E+00
    0.47228E-14        -0.14639E-14         0.00000E+00
    0.47201E-14        -0.12813E-14         0.00000E+00
    0.47178E-14        -0.10615E-14         0.00000E+00
    0.47160E-14        -0.81431E-15         0.00000E+00
    0.47147E-14        -0.54992E-15         0.00000E+00
    0.47139E-14        -0.27898E-15         0.00000E+00
    0.47136E-14        -0.14322E-15         0.00000E+00
    0.94844E-14        -0.29163E-15         0.00000E+00
    0.94832E-14        -0.52906E-15         0.00000E+00
    0.94802E-14        -0.95137E-15         0.00000E+00
    0.94757E-14        -0.12719E-14         0.00000E+00
    0.94702E-14        -0.14973E-14         0.00000E+00
    0.94639E-14        -0.16349E-14         0.00000E+00
    0.94573E-14        -0.16919E-14         0.00000E+00
    0.94507E-14        -0.16764E-14         0.00000E+00
    0.94442E-14        -0.15966E-14         0.00000E+00
    0.94381E-14        -0.14610E-14         0.00000E+00
    0.94327E-14        -0.12788E-14         0.00000E+00
    0.94281E-14        -0.10595E-14         0.00000E+00
    0.94244E-14        -0.81273E-15         0.00000E+00
    0.94217E-14        -0.54885E-15         0.00000E+00
    0.94201E-14        -0.27843E-15         0.00000E+00
    0.94196E-14        -0.14294E-15         0.00000E+00
    0.18940E-13        -0.28989E-15         0.00000E+00
    0.18937E-13        -0.52591E-15         0.00000E+00
    0.18931E-13        -0.94572E-15         0.00000E+00
    0.18922E-13        -0.12643E-14         0.00000E+00
    0.18911E-13        -0.14885E-14         0.00000E+00
    0.18898E-13        -0.16252E-14         0.00000E+00
    0.18885E-13        -0.16819E-14         0.00000E+00
    0.18871E-13        -0.16665E-14         0.00000E+00
    0.18858E-13        -0.15871E-14         0.00000E+00
    0.18846E-13        -0.14524E-14         0.00000E+00
    0.18835E-13        -0.12713E-14         0.00000E+00
    0.18826E-13        -0.10532E-14         0.00000E+00
    0.18818E-13        -0.80796E-15         0.00000E+00
    0.18813E-13        -0.54565E-15         0.00000E+00
    0.18810E-13        -0.27681E-15         0.00000E+00
    0.18809E-13        -0.14209E-15         0.00000E+00
    0.28337E-13        -0.28695E-15         0.00000E+00
    0.28333E-13        -0.52059E-15         0.00000E+00
    0.28324E-13        -0.93617E-15         0.00000E+00
    0.28310E-13        -0.12516E-14         0.00000E+00
    0.28293E-13        -0.14735E-14         0.00000E+00
    0.28274E-13        -0.16089E-14         0.00000E+00
    0.28253E-13        -0.16651E-14         0.00000E+00
    0.28233E-13        -0.16498E-14         0.00000E+00
    0.28213E-13        -0.15712E-14         0.00000E+00
    0.28194E-13        -0.14378E-14         0.00000E+00
    0.28177E-13        -0.12586E-14         0.00000E+00
    0.28163E-13        -0.10427E-14         0.00000E+00
    0.28152E-13        -0.79989E-15         0.00000E+00
    0.28143E-13        -0.54022E-15         0.00000E+00
    0.28138E-13        -0.27404E-15         0.00000E+00
    0.28137E-13        -0.14065E-15         0.00000E+00
    0.37647E-13        -0.28274E-15         0.00000E+00
    0.37642E-13        -0.51298E-15         0.00000E+00
    0.37629E-13        -0.92253E-15         0.00000E+00
    0.37610E-13        -0.12334E-14         0.00000E+00
    0.37587E-13        -0.14521E-14         0.00000E+00
    0.37561E-13        -0.15856E-14         0.00000E+00
    0.37533E-13        -0.16410E-14         0.00000E+00
    0.37505E-13        -0.16259E-14         0.00000E+00
    0.37477E-13        -0.15485E-14         0.00000E+00
    0.37452E-13        -0.14170E-14         0.00000E+00
    0.37429E-13        -0.12403E-14         0.00000E+00
    0.37410E-13        -0.10276E-14         0.00000E+00
    0.37394E-13        -0.78835E-15         0.00000E+00
    0.37383E-13        -0.53244E-15         0.00000E+00
    0.37376E-13        -0.27009E-15         0.00000E+00
    0.37374E-13        -0.13861E-15         0.00000E+00
    0.46841E-13        -0.27720E-15         0.00000E+00
    0.46835E-13        -0.50294E-15         0.00000E+00
    0.46818E-13        -0.90451E-15         0.00000E+00
    0.46794E-13        -0.12094E-14         0.00000E+00
    0.46764E-13        -0.14239E-14         0.00000E+00
    0.46730E-13        -0.15548E-14         0.00000E+00
    0.46694E-13        -0.16091E-14         0.00000E+00
    0.46658E-13        -0.15944E-14         0.00000E+00
    0.46623E-13        -0.15185E-14         0.00000E+00
    0.46590E-13        -0.13895E-14         0.00000E+00
    0.46561E-13        -0.12163E-14         0.00000E+00
    0.46536E-13        -0.10077E-14         0.00000E+00
    0.46516E-13        -0.77308E-15         0.00000E+00
    0.46501E-13        -0.52215E-15         0.00000E+00
    0.46492E-13        -0.26487E-15         0.00000E+00
    0.46489E-13        -0.13590E-15         0.00000E+00
    0.55891E-13        -0.27019E-15         0.00000E+00
    0.55883E-13        -0.49026E-15         0.00000E+00
    0.55863E-13        -0.88178E-15         0.00000E+00
    0.55833E-13        -0.11791E-14         0.00000E+00
    0.55795E-13        -0.13883E-14         0.00000E+00
    0.55753E-13        -0.15160E-14         0.00000E+00
    0.55709E-13        -0.15690E-14         0.00000E+00
    0.55664E-13        -0.15546E-14         0.00000E+00
    0.55620E-13        -0.14806E-14         0.00000E+00
    0.55580E-13        -0.13549E-14         0.00000E+00
    0.55543E-13        -0.11859E-14         0.00000E+00
    0.55512E-13        -0.98252E-15         0.00000E+00
    0.55487E-13        -0.75379E-15         0.00000E+00
    0.55469E-13        -0.50914E-15         0.00000E+00
    0.55458E-13        -0.25826E-15         0.00000E+00
    0.55454E-13        -0.13249E-15         0.00000E+00
    0.64769E-13        -0.26161E-15         0.00000E+00
    0.64759E-13        -0.47472E-15         0.00000E+00
    0.64735E-13        -0.85391E-15         0.00000E+00
    0.64698E-13        -0.11419E-14         0.00000E+00
    0.64653E-13        -0.13446E-14         0.00000E+00
    0.64602E-13        -0.14684E-14         0.00000E+00
    0.64548E-13        -0.15198E-14         0.00000E+00
    0.64494E-13        -0.15059E-14         0.00000E+00
    0.64441E-13        -0.14342E-14         0.00000E+00
    0.64392E-13        -0.13124E-14         0.00000E+00
    0.64347E-13        -0.11487E-14         0.00000E+00
    0.64310E-13        -0.95168E-15         0.00000E+00
    0.64280E-13        -0.73014E-15         0.00000E+00
    0.64258E-13        -0.49318E-15         0.00000E+00
    0.64244E-13        -0.25016E-15         0.00000E+00
    0.64240E-13        -0.12831E-15         0.00000E+00
    0.73447E-13        -0.25127E-15         0.00000E+00
    0.73436E-13        -0.45603E-15         0.00000E+00
    0.73406E-13        -0.82039E-15         0.00000E+00
    0.73363E-13        -0.10972E-14         0.00000E+00
    0.73309E-13        -0.12922E-14         0.00000E+00
    0.73248E-13        -0.14112E-14         0.00000E+00
    0.73184E-13        -0.14607E-14         0.00000E+00
    0.73119E-13        -0.14474E-14         0.00000E+00
    0.73057E-13        -0.13785E-14         0.00000E+00
    0.72998E-13        -0.12614E-14         0.00000E+00
    0.72945E-13        -0.11041E-14         0.00000E+00
    0.72901E-13        -0.91467E-15         0.00000E+00
    0.72865E-13        -0.70173E-15         0.00000E+00
    0.72839E-13        -0.47399E-15         0.00000E+00
    0.72823E-13        -0.24043E-15         0.00000E+00
    0.72817E-13        -0.12332E-15         0.00000E+00
    0.81899E-13        -0.23904E-15         0.00000E+00
    0.81886E-13        -0.43388E-15         0.00000E+00
    0.81851E-13        -0.78070E-15         0.00000E+00
    0.81800E-13        -0.10443E-14         0.00000E+00
    0.81736E-13        -0.12301E-14         0.00000E+00
    0.81665E-13        -0.13436E-14         0.00000E+00
    0.81590E-13        -0.13909E-14         0.00000E+00
    0.81514E-13        -0.13783E-14         0.00000E+00
    0.81440E-13        -0.13127E-14         0.00000E+00
    0.81371E-13        -0.12012E-14         0.00000E+00
    0.81309E-13        -0.10514E-14         0.00000E+00
    0.81257E-13        -0.87097E-15         0.00000E+00
    0.81215E-13        -0.66817E-15         0.00000E+00
    0.81184E-13        -0.45131E-15         0.00000E+00
    0.81166E-13        -0.22893E-15         0.00000E+00
    0.81159E-13        -0.11743E-15         0.00000E+00
    0.90098E-13        -0.22468E-15         0.00000E+00
    0.90082E-13        -0.40794E-15         0.00000E+00
    0.90042E-13        -0.73422E-15         0.00000E+00
    0.89982E-13        -0.98242E-15         0.00000E+00
    0.89908E-13        -0.11575E-14         0.00000E+00
    0.89825E-13        -0.12645E-14         0.00000E+00
    0.89738E-13        -0.13093E-14         0.00000E+00
    0.89650E-13        -0.12977E-14         0.00000E+00
    0.89564E-13        -0.12360E-14         0.00000E+00
    0.89484E-13        -0.11311E-14         0.00000E+00
    0.89413E-13        -0.98996E-15         0.00000E+00
    0.89352E-13        -0.82005E-15         0.00000E+00
    0.89304E-13        -0.62905E-15         0.00000E+00
    0.89268E-13        -0.42486E-15         0.00000E+00
    0.89247E-13        -0.21553E-15         0.00000E+00
    0.89239E-13        -0.11059E-15         0.00000E+00
    0.98017E-13        -0.20804E-15         0.00000E+00
    0.98000E-13        -0.37785E-15         0.00000E+00
    0.97953E-13        -0.68035E-15         0.00000E+00
    0.97884E-13        -0.91073E-15         0.00000E+00
    0.97799E-13        -0.10734E-14         0.00000E+00
    0.97704E-13        -0.11732E-14         0.00000E+00
    0.97603E-13        -0.12151E-14         0.00000E+00
    0.97502E-13        -0.12046E-14         0.00000E+00
    0.97404E-13        -0.11476E-14         0.00000E+00
    0.97312E-13        -0.10503E-14         0.00000E+00
    0.97231E-13        -0.91923E-15         0.00000E+00
    0.97161E-13        -0.76141E-15         0.00000E+00
    0.97105E-13        -0.58400E-15         0.00000E+00
    0.97065E-13        -0.39439E-15         0.00000E+00
    0.97040E-13        -0.20010E-15         0.00000E+00
    0.97032E-13        -0.10273E-15         0.00000E+00
    0.10563E-12        -0.18889E-15         0.00000E+00
    0.10561E-12        -0.34327E-15         0.00000E+00
    0.10556E-12        -0.61849E-15         0.00000E+00
    0.10548E-12        -0.82848E-15         0.00000E+00
    0.10538E-12        -0.97711E-15         0.00000E+00
    0.10527E-12        -0.10686E-14         0.00000E+00
    0.10516E-12        -0.11073E-14         0.00000E+00
    0.10505E-12        -0.10983E-14         0.00000E+00
    0.10493E-12        -0.10466E-14         0.00000E+00
    0.10483E-12        -0.95810E-15         0.00000E+00
    0.10474E-12        -0.83864E-15         0.00000E+00
    0.10466E-12        -0.69464E-15         0.00000E+00
    0.10460E-12        -0.53271E-15         0.00000E+00
    0.10455E-12        -0.35969E-15         0.00000E+00
    0.10452E-12        -0.18255E-15         0.00000E+00
    0.10451E-12        -0.93826E-16         0.00000E+00
    0.11292E-12        -0.16707E-15         0.00000E+00
    0.11290E-12        -0.30390E-15         0.00000E+00
    0.11284E-12        -0.54811E-15         0.00000E+00
    0.11275E-12        -0.73497E-15         0.00000E+00
    0.11264E-12        -0.86773E-15         0.00000E+00
    0.11252E-12        -0.94989E-15         0.00000E+00
    0.11239E-12        -0.98524E-15         0.00000E+00
    0.11226E-12        -0.97795E-15         0.00000E+00
    0.11213E-12        -0.93259E-15         0.00000E+00
    0.11201E-12        -0.85409E-15         0.00000E+00
    0.11191E-12        -0.74780E-15         0.00000E+00
    0.11182E-12        -0.61942E-15         0.00000E+00
    0.11175E-12        -0.47496E-15         0.00000E+00
    0.11170E-12        -0.32064E-15         0.00000E+00
    0.11167E-12        -0.16282E-15         0.00000E+00
    0.11166E-12        -0.83831E-16         0.00000E+00
    0.11986E-12        -0.14243E-15         0.00000E+00
    0.11983E-12        -0.25948E-15         0.00000E+00
    0.11976E-12        -0.46878E-15         0.00000E+00
    0.11966E-12        -0.62969E-15         0.00000E+00
    0.11954E-12        -0.74472E-15         0.00000E+00
    0.11940E-12        -0.81659E-15         0.00000E+00
    0.11926E-12        -0.84829E-15         0.00000E+00
    0.11911E-12        -0.84319E-15         0.00000E+00
    0.11897E-12        -0.80502E-15         0.00000E+00
    0.11884E-12        -0.73793E-15         0.00000E+00
    0.11873E-12        -0.64649E-15         0.00000E+00
    0.11863E-12        -0.53565E-15         0.00000E+00
    0.11855E-12        -0.41071E-15         0.00000E+00
    0.11850E-12        -0.27722E-15         0.00000E+00
    0.11846E-12        -0.14090E-15         0.00000E+00
    0.11845E-12        -0.72759E-16         0.00000E+00
    0.12642E-12        -0.11492E-15         0.00000E+00
    0.12639E-12        -0.20991E-15         0.00000E+00
    0.12631E-12        -0.38031E-15         0.00000E+00
    0.12620E-12        -0.51237E-15         0.00000E+00
    0.12606E-12        -0.60777E-15         0.00000E+00
    0.12591E-12        -0.66837E-15         0.00000E+00
    0.12575E-12        -0.69625E-15         0.00000E+00
    0.12559E-12        -0.69381E-15         0.00000E+00
    0.12544E-12        -0.66386E-15         0.00000E+00
    0.12530E-12        -0.60963E-15         0.00000E+00
    0.12517E-12        -0.53479E-15         0.00000E+00
    0.12506E-12        -0.44344E-15         0.00000E+00
    0.12498E-12        -0.34009E-15         0.00000E+00
    0.12492E-12        -0.22955E-15         0.00000E+00
    0.12488E-12        -0.11687E-15         0.00000E+00
    0.12487E-12        -0.60637E-16         0.00000E+00
    0.13258E-12        -0.84538E-16         0.00000E+00
    0.13255E-12        -0.15521E-15         0.00000E+00
    0.13246E-12        -0.28276E-15         0.00000E+00
    0.13234E-12        -0.38311E-15         0.00000E+00
    0.13219E-12        -0.45704E-15         0.00000E+00
    0.13203E-12        -0.50542E-15         0.00000E+00
    0.13185E-12        -0.52931E-15         0.00000E+00
    0.13168E-12        -0.53008E-15         0.00000E+00
    0.13151E-12        -0.50945E-15         0.00000E+00
    0.13136E-12        -0.46960E-15         0.00000E+00
    0.13122E-12        -0.41317E-15         0.00000E+00
    0.13111E-12        -0.34329E-15         0.00000E+00
    0.13101E-12        -0.26357E-15         0.00000E+00
    0.13095E-12        -0.17799E-15         0.00000E+00
    0.13091E-12        -0.90916E-16         0.00000E+00
    0.13089E-12        -0.47569E-16         0.00000E+00
    0.13832E-12        -0.51446E-16         0.00000E+00
    0.13829E-12        -0.95665E-16         0.00000E+00
    0.13820E-12        -0.17663E-15         0.00000E+00
    0.13807E-12        -0.24256E-15         0.00000E+00
    0.13791E-12        -0.29325E-15         0.00000E+00
    0.13773E-12        -0.32852E-15         0.00000E+00
    0.13754E-12        -0.34833E-15         0.00000E+00
    0.13735E-12        -0.35288E-15         0.00000E+00
    0.13717E-12        -0.34271E-15         0.00000E+00
    0.13701E-12        -0.31879E-15         0.00000E+00
    0.13686E-12        -0.28259E-15         0.00000E+00
    0.13674E-12        -0.23612E-15         0.00000E+00
    0.13664E-12        -0.18193E-15         0.00000E+00
    0.13657E-12        -0.12314E-15         0.00000E+00
    0.13653E-12        -0.63351E-16         0.00000E+00
    0.13652E-12        -0.33698E-16         0.00000E+00
    0.14362E-12        -0.15973E-16         0.00000E+00
    0.14359E-12        -0.31858E-16         0.00000E+00
    0.14349E-12        -0.62943E-16         0.00000E+00
    0.14335E-12        -0.92046E-16         0.00000E+00
    0.14318E-12        -0.11791E-15         0.00000E+00
    0.14299E-12        -0.13928E-15         0.00000E+00
    0.14280E-12        -0.15495E-15         0.00000E+00
    0.14260E-12        -0.16388E-15         0.00000E+00
    0.14241E-12        -0.16532E-15         0.00000E+00
    0.14224E-12        -0.15888E-15         0.00000E+00
    0.14208E-12        -0.14467E-15         0.00000E+00
    0.14195E-12        -0.12340E-15         0.00000E+00
    0.14185E-12        -0.96438E-16         0.00000E+00
    0.14178E-12        -0.65897E-16         0.00000E+00
    0.14174E-12        -0.34646E-16         0.00000E+00
    0.14172E-12        -0.19251E-16         0.00000E+00
    0.14847E-12         0.21383E-16         0.00000E+00
    0.14843E-12         0.35287E-16         0.00000E+00
    0.14833E-12         0.56642E-16         0.00000E+00
    0.14819E-12         0.66252E-16         0.00000E+00
    0.14801E-12         0.66457E-16         0.00000E+00
    0.14781E-12         0.59617E-16         0.00000E+00
    0.14761E-12         0.48093E-16         0.00000E+00
    0.14740E-12         0.34190E-16         0.00000E+00
    0.14720E-12         0.20062E-16         0.00000E+00
    0.14703E-12         0.75921E-17         0.00000E+00
    0.14687E-12        -0.17809E-17         0.00000E+00
    0.14674E-12        -0.72527E-17         0.00000E+00
    0.14664E-12        -0.88393E-17         0.00000E+00
    0.14656E-12        -0.75370E-17         0.00000E+00
    0.14652E-12        -0.54486E-17         0.00000E+00
    0.14650E-12        -0.45426E-17         0.00000E+00
    0.15283E-12         0.59897E-16         0.00000E+00
    0.15279E-12         0.10444E-15         0.00000E+00
    0.15269E-12         0.17970E-15         0.00000E+00
    0.15254E-12         0.22909E-15         0.00000E+00
    0.15236E-12         0.25606E-15         0.00000E+00
    0.15216E-12         0.26409E-15         0.00000E+00
    0.15196E-12         0.25665E-15         0.00000E+00
    0.15175E-12         0.23727E-15         0.00000E+00
    0.15155E-12         0.20954E-15         0.00000E+00
    0.15137E-12         0.17698E-15         0.00000E+00
    0.15121E-12         0.14277E-15         0.00000E+00
    0.15108E-12         0.10945E-15         0.00000E+00
    0.15098E-12         0.78552E-16         0.00000E+00
    0.15091E-12         0.50310E-16         0.00000E+00
    0.15087E-12         0.23415E-16         0.00000E+00
    0.15086E-12         0.10039E-16         0.00000E+00
    0.15669E-12         0.98627E-16         0.00000E+00
    0.15665E-12         0.17382E-15         0.00000E+00
    0.15655E-12         0.30295E-15         0.00000E+00
    0.15641E-12         0.39198E-15         0.00000E+00
    0.15624E-12         0.44559E-15         0.00000E+00
    0.15604E-12         0.46833E-15         0.00000E+00
    0.15583E-12         0.46473E-15         0.00000E+00
    0.15563E-12         0.43950E-15         0.00000E+00
    0.15544E-12         0.39762E-15         0.00000E+00
    0.15526E-12         0.34429E-15         0.00000E+00
    0.15511E-12         0.28462E-15         0.00000E+00
    0.15499E-12         0.22306E-15         0.00000E+00
    0.15489E-12         0.16288E-15         0.00000E+00
    0.15483E-12         0.10566E-15         0.00000E+00
    0.15479E-12         0.50949E-16         0.00000E+00
    0.15477E-12         0.24021E-16         0.00000E+00
    0.16004E-12         0.13640E-15         0.00000E+00
    0.16000E-12         0.24119E-15         0.00000E+00
    0.15991E-12         0.42215E-15         0.00000E+00
    0.15977E-12         0.54902E-15         0.00000E+00
    0.15961E-12         0.62786E-15         0.00000E+00
    0.15942E-12         0.66435E-15         0.00000E+00
    0.15923E-12         0.66406E-15         0.00000E+00
    0.15904E-12         0.63278E-15         0.00000E+00
    0.15887E-12         0.57681E-15         0.00000E+00
    0.15870E-12         0.50298E-15         0.00000E+00
    0.15857E-12         0.41826E-15         0.00000E+00
    0.15845E-12         0.32914E-15         0.00000E+00
    0.15837E-12         0.24077E-15         0.00000E+00
    0.15831E-12         0.15623E-15         0.00000E+00
    0.15827E-12         0.76018E-16         0.00000E+00
    0.15826E-12         0.36869E-16         0.00000E+00
    0.16284E-12         0.17181E-15         0.00000E+00
    0.16281E-12         0.30379E-15         0.00000E+00
    0.16273E-12         0.53197E-15         0.00000E+00
    0.16261E-12         0.69265E-15         0.00000E+00
    0.16246E-12         0.79352E-15         0.00000E+00
    0.16230E-12         0.84157E-15         0.00000E+00
    0.16214E-12         0.84351E-15         0.00000E+00
    0.16198E-12         0.80624E-15         0.00000E+00
    0.16183E-12         0.73723E-15         0.00000E+00
    0.16169E-12         0.64461E-15         0.00000E+00
    0.16157E-12         0.53693E-15         0.00000E+00
    0.16148E-12         0.42250E-15         0.00000E+00
    0.16140E-12         0.30842E-15         0.00000E+00
    0.16135E-12         0.19951E-15         0.00000E+00
    0.16133E-12         0.97385E-16         0.00000E+00
    0.16132E-12         0.48002E-16         0.00000E+00
    0.16509E-12         0.20318E-15         0.00000E+00
    0.16507E-12         0.35824E-15         0.00000E+00
    0.16500E-12         0.62578E-15         0.00000E+00
    0.16490E-12         0.81333E-15         0.00000E+00
    0.16479E-12         0.93061E-15         0.00000E+00
    0.16467E-12         0.98634E-15         0.00000E+00
    0.16455E-12         0.98870E-15         0.00000E+00
    0.16443E-12         0.94584E-15         0.00000E+00
    0.16432E-12         0.86619E-15         0.00000E+00
    0.16422E-12         0.75861E-15         0.00000E+00
    0.16414E-12         0.63243E-15         0.00000E+00
    0.16406E-12         0.49716E-15         0.00000E+00
    0.16401E-12         0.36169E-15         0.00000E+00
    0.16398E-12         0.23282E-15         0.00000E+00
    0.16396E-12         0.11377E-15         0.00000E+00
    0.16395E-12         0.56829E-16         0.00000E+00
    0.16677E-12         0.22840E-15         0.00000E+00
    0.16675E-12         0.40031E-15         0.00000E+00
    0.16670E-12         0.69518E-15         0.00000E+00
    0.16664E-12         0.89889E-15         0.00000E+00
    0.16658E-12         0.10240E-14         0.00000E+00
    0.16652E-12         0.10815E-14         0.00000E+00
    0.16646E-12         0.10818E-14         0.00000E+00
    0.16640E-12         0.10343E-14         0.00000E+00
    0.16635E-12         0.94814E-15         0.00000E+00
    0.16631E-12         0.83199E-15         0.00000E+00
    0.16626E-12         0.69480E-15         0.00000E+00
    0.16623E-12         0.54614E-15         0.00000E+00
    0.16620E-12         0.39602E-15         0.00000E+00
    0.16618E-12         0.25341E-15         0.00000E+00
    0.16617E-12         0.12389E-15         0.00000E+00
    0.16617E-12         0.62796E-16         0.00000E+00
    0.16784E-12         0.24473E-15         0.00000E+00
    0.16783E-12         0.42434E-15         0.00000E+00
    0.16782E-12         0.72898E-15         0.00000E+00
    0.16781E-12         0.93343E-15         0.00000E+00
    0.16782E-12         0.10544E-14         0.00000E+00
    0.16784E-12         0.11064E-14         0.00000E+00
    0.16786E-12         0.11019E-14         0.00000E+00
    0.16789E-12         0.10518E-14         0.00000E+00
    0.16792E-12         0.96499E-15         0.00000E+00
    0.16794E-12         0.84918E-15         0.00000E+00
    0.16796E-12         0.71177E-15         0.00000E+00
    0.16797E-12         0.56088E-15         0.00000E+00
    0.16798E-12         0.40615E-15         0.00000E+00
    0.16798E-12         0.25838E-15         0.00000E+00
    0.16799E-12         0.12652E-15         0.00000E+00
    0.16799E-12         0.65429E-16         0.00000E+00
    0.16828E-12         0.24819E-15         0.00000E+00
    0.16829E-12         0.42207E-15         0.00000E+00
    0.16833E-12         0.71112E-15         0.00000E+00
    0.16840E-12         0.89533E-15         0.00000E+00
    0.16851E-12         0.99771E-15         0.00000E+00
    0.16863E-12         0.10367E-14         0.00000E+00
    0.16877E-12         0.10262E-14         0.00000E+00
    0.16890E-12         0.97710E-15         0.00000E+00
    0.16903E-12         0.89713E-15         0.00000E+00
    0.16914E-12         0.79246E-15         0.00000E+00
    0.16923E-12         0.66826E-15         0.00000E+00
    0.16931E-12         0.53000E-15         0.00000E+00
    0.16936E-12         0.38513E-15         0.00000E+00
    0.16939E-12         0.24433E-15         0.00000E+00
    0.16941E-12         0.12052E-15         0.00000E+00
    0.16941E-12         0.64520E-16         0.00000E+00
    0.16806E-12         0.23164E-15         0.00000E+00
    0.16810E-12         0.37953E-15         0.00000E+00
    0.16822E-12         0.61628E-15         0.00000E+00
    0.16841E-12         0.75438E-15         0.00000E+00
    0.16864E-12         0.82464E-15         0.00000E+00
    0.16890E-12         0.84610E-15         0.00000E+00
    0.16917E-12         0.83146E-15         0.00000E+00
    0.16943E-12         0.78917E-15         0.00000E+00
    0.16968E-12         0.72503E-15         0.00000E+00
    0.16990E-12         0.64316E-15         0.00000E+00
    0.17009E-12         0.54667E-15         0.00000E+00
    0.17024E-12         0.43833E-15         0.00000E+00
    0.17035E-12         0.32198E-15         0.00000E+00
    0.17042E-12         0.20593E-15         0.00000E+00
    0.17046E-12         0.10457E-15         0.00000E+00
    0.17047E-12         0.59674E-16         0.00000E+00
    0.16710E-12         0.18241E-15         0.00000E+00
    0.16722E-12         0.26802E-15         0.00000E+00
    0.16748E-12         0.40057E-15         0.00000E+00
    0.16783E-12         0.47094E-15         0.00000E+00
    0.16823E-12         0.50263E-15         0.00000E+00
    0.16866E-12         0.50847E-15         0.00000E+00
    0.16908E-12         0.49570E-15         0.00000E+00
    0.16949E-12         0.46884E-15         0.00000E+00
    0.16987E-12         0.43085E-15         0.00000E+00
    0.17021E-12         0.38376E-15         0.00000E+00
    0.17051E-12         0.32897E-15         0.00000E+00
    0.17076E-12         0.26749E-15         0.00000E+00
    0.17095E-12         0.20042E-15         0.00000E+00
    0.17108E-12         0.13028E-15         0.00000E+00
    0.17116E-12         0.75575E-16         0.00000E+00
    0.17119E-12         0.56238E-16         0.00000E+00
    0.16642E-12         0.00000E+00         0.00000E+00
    0.16660E-12         0.00000E+00         0.00000E+00
    0.16696E-12         0.00000E+00         0.00000E+00
    0.16740E-12         0.00000E+00         0.00000E+00
    0.16790E-12         0.33144E-21         0.00000E+00
    0.16841E-12         0.00000E+00         0.00000E+00
    0.16891E-12         0.00000E+00         0.00000E+00
    0.16940E-12         0.00000E+00         0.00000E+00
    0.16985E-12         0.00000E+00         0.00000E+00
    0.17026E-12         0.00000E+00         0.00000E+00
    0.17062E-12         0.33144E-21         0.00000E+00
    0.17092E-12        -0.33144E-21         0.00000E+00
    0.17115E-12        -0.33144E-21         0.00000E+00
    0.17132E-12         0.33144E-21         0.00000E+00
    0.17142E-12         0.66288E-21         0.00000E+00
    0.17147E-12         0.00000E+00         0.00000E+00
CELL_DATA        450
TENSORS stressef double 
   -0.20273E+08         0.15138E+03         0.00000E+00
    0.15138E+03        -0.50000E+08         0.00000E+00
    0.00000E+00         0.00000E+00        -0.19963E+08
 
   -0.20247E+08         0.43446E+03         0.00000E+00
    0.43446E+03        -0.49999E+08         0.00000E+00
    0.00000E+00         0.00000E+00        -0.19989E+08
 
   -0.20222E+08         0.69329E+03         0.00000E+00
    0.69329E+03        -0.49998E+08         0.00000E+00
    0.00000E+00         0.00000E+00        -0.20011E+08
 
   -0.20200E+08         0.92909E+03         0.00000E+00
    0.92909E+03        -0.49996E+08         0.00000E+00
    0.00000E+00         0.00000E+00        -0.20031E+08
 
   -0.20179E+08         0.11431E+04         0.00000E+00
    0.11431E+04        -0.49994E+08         0.00000E+00
    0.00000E+00         0.00000E+00        -0.20049E+08
 
   -0.20161E+08         0.13366E+04         0.00000E+00
    0.13366E+04        -0.49992E+08         0.00000E+00
    0.00000E+00         0.00000E+00        -0.20064E+08
 
   -0.20145E+08         0.15110E+04         0.00000E+00
    0.15110E+04        -0.49989E+08         0.00000E+00
    0.00000E+00         0.00000E+00        -0.20076E+08
 
   -0.20131E+08         0.16673E+04         0.00000E+00
    0.16673E+04        -0.49986E+08         0.00000E+00
    0.00000E+00         0.00000E+00        -0.20086E+08
 
   -0.20118E+08         0.18068E+04         0.00000E+00
    0.18068E+04        -0.49982E+08         0.00000E+00
    0.00000E+00         0.00000E+00        -0.20094E+08
 
   -0.20108E+08         0.19308E+04         0.00000E+00
    0.19308E+04        -0.49979E+08         0.00000E+00
    0.00000E+00         0.00000E+00        -0.20099E+08
 
   -0.20100E+08         0.20409E+04         0.00000E+00
    0.20409E+04        -0.49975E+08         0.00000E+00
    0.00000E+00         0.00000E+00        -0.20102E+08
 
   -0.20094E+08         0.21386E+04         0.00000E+00
    0.21386E+04        -0.49970E+08         0.00000E+00
    0.00000E+00         0.00000E+00        -0.20102E+08
 
   -0.20090E+08         0.22257E+04         0.00000E+00
    0.22257E+04        -0.49966E+08         0.00000E+00
    0.00000E+00         0.00000E+00        -0.20101E+08
 
   -0.20088E+08         0.23043E+04         0.00000E+00
    0.23043E+04        -0.49962E+08         0.00000E+00
    0.00000E+00         0.00000E+00        -0.20097E+08
 
   -0.20087E+08         0.23764E+04         0.00000E+00
    0.23764E+04        -0.49957E+08         0.00000E+00
    0.00000E+00         0.00000E+00        -0.20091E+08
 
   -0.20273E+08         0.45802E+03         0.00000E+00
    0.45802E+03        -0.50000E+08         0.00000E+00
    0.00000E+00         0.00000E+00        -0.19964E+08
 
   -0.20246E+08         0.13135E+04         0.00000E+00
    0.13135E+04        -0.49999E+08         0.00000E+00
    0.00000E+00         0.00000E+00        -0.19989E+08
 
   -0.20222E+08         0.20943E+04         0.00000E+00
    0.20943E+04        -0.49998E+08         0.00000E+00
    0.00000E+00         0.00000E+00        -0.20012E+08
 
   -0.20199E+08         0.28044E+04         0.00000E+00
    0.28044E+04        -0.49996E+08         0.00000E+00
    0.00000E+00         0.00000E+00        -0.20032E+08
 
   -0.20179E+08         0.34476E+04         0.00000E+00
    0.34476E+04        -0.49994E+08         0.00000E+00
    0.00000E+00         0.00000E+00        -0.20049E+08
 
   -0.20161E+08         0.40278E+04         0.00000E+00
    0.40278E+04        -0.49992E+08         0.00000E+00
    0.00000E+00         0.00000E+00        -0.20064E+08
 
   -0.20144E+08         0.45496E+04         0.00000E+00
    0.45496E+04        -0.49989E+08         0.00000E+00
    0.00000E+00         0.00000E+00        -0.20076E+08
 
   -0.20130E+08         0.50162E+04         0.00000E+00
    0.50162E+04        -0.49986E+08         0.00000E+00
    0.00000E+00         0.00000E+00        -0.20086E+08
 
   -0.20118E+08         0.54316E+04         0.00000E+00
    0.54316E+04        -0.49982E+08         0.00000E+00
    0.00000E+00         0.00000E+00        -0.20094E+08
 
   -0.20108E+08         0.58000E+04         0.00000E+00
    0.58000E+04        -0.49978E+08         0.00000E+00
    0.00000E+00         0.00000E+00        -0.20099E+08
 
   -0.20100E+08         0.61261E+04         0.00000E+00
    0.61261E+04        -0.49974E+08         0.00000E+00
    0.00000E+00         0.00000E+00        -0.20102E+08
 
   -0.20094E+08         0.64149E+04         0.00000E+00
    0.64149E+04        -0.49970E+08         0.00000E+00
    0.00000E+00         0.00000E+00        -0.20102E+08
 
   -0.20090E+08         0.66719E+04         0.00000E+00
    0.66719E+04        -0.49966E+08         0.00000E+00
    0.00000E+00         0.00000E+00        -0.20101E+08
 
   -0.20087E+08         0.69030E+04         0.00000E+00
    0.69030E+04        -0.49961E+08         0.00000E+00
    0.00000E+00         0.00000E+00        -0.20097E+08
 
   -0.20087E+08         0.71151E+04         0.00000E+00
    0.71151E+04        -0.49957E+08         0.00000E+00
    0.00000E+00         0.00000E+00        -0.20091E+08
 
   -0.20271E+08         0.77625E+03         0.00000E+00
    0.77625E+03        -0.50000E+08         0.00000E+00
    0.00000E+00         0.00000E+00        -0.19965E+08
 
   -0.20245E+08         0.22225E+04         0.00000E+00
    0.22225E+04        -0.49999E+08         0.00000E+00
    0.00000E+00         0.00000E+00        -0.19990E+08
 
   -0.20221E+08         0.35384E+04         0.00000E+00
    0.35384E+04        -0.49998E+08         0.00000E+00
    0.00000E+00         0.00000E+00        -0.20013E+08
 
   -0.20198E+08         0.47308E+04         0.00000E+00
    0.47308E+04        -0.49996E+08         0.00000E+00
    0.00000E+00         0.00000E+00        -0.20032E+08
 
   -0.20178E+08         0.58067E+04         0.00000E+00
    0.58067E+04        -0.49994E+08         0.00000E+00
    0.00000E+00         0.00000E+00        -0.20049E+08
 
   -0.20160E+08         0.67730E+04         0.00000E+00
    0.67730E+04        -0.49991E+08         0.00000E+00
    0.00000E+00         0.00000E+00        -0.20064E+08
 
   -0.20144E+08         0.76379E+04         0.00000E+00
    0.76379E+04        -0.49988E+08         0.00000E+00
    0.00000E+00         0.00000E+00        -0.20076E+08
 
   -0.20130E+08         0.84078E+04         0.00000E+00
    0.84078E+04        -0.49985E+08         0.00000E+00
    0.00000E+00         0.00000E+00        -0.20086E+08
 
   -0.20118E+08         0.90897E+04         0.00000E+00
    0.90897E+04        -0.49982E+08         0.00000E+00
    0.00000E+00         0.00000E+00        -0.20093E+08
 
   -0.20108E+08         0.96914E+04         0.00000E+00
    0.96914E+04        -0.49978E+08         0.00000E+00
    0.00000E+00         0.00000E+00        -0.20098E+08
 
   -0.20100E+08         0.10221E+05         0.00000E+00
    0.10221E+05        -0.49974E+08         0.00000E+00
    0.00000E+00         0.00000E+00        -0.20101E+08
 
   -0.20093E+08         0.10688E+05         0.00000E+00
    0.10688E+05        -0.49970E+08         0.00000E+00
    0.00000E+00         0.00000E+00        -0.20102E+08
 
   -0.20089E+08         0.11101E+05         0.00000E+00
    0.11101E+05        -0.49965E+08         0.00000E+00
    0.00000E+00         0.00000E+00        -0.20100E+08
 
   -0.20087E+08         0.11472E+05         0.00000E+00
    0.11472E+05        -0.49961E+08         0.00000E+00
    0.00000E+00         0.00000E+00        -0.20097E+08
 
   -0.20087E+08         0.11811E+05         0.00000E+00
    0.11811E+05        -0.49956E+08         0.00000E+00
    0.00000E+00         0.00000E+00        -0.20091E+08
 
   -0.20270E+08         0.11136E+04         0.00000E+00
    0.11136E+04        -0.50000E+08         0.00000E+00
    0.00000E+00         0.00000E+00        -0.19967E+08
 
   -0.20243E+08         0.31811E+04         0.00000E+00
    0.31811E+04        -0.49999E+08         0.00000E+00
    0.00000E+00         0.00000E+00        -0.19992E+08
 
   -0.20219E+08         0.50536E+04         0.00000E+00
    0.50536E+04        -0.49998E+08         0.00000E+00
    0.00000E+00         0.00000E+00        -0.20014E+08
 
   -0.20197E+08         0.67414E+04         0.00000E+00
    0.67414E+04        -0.49996E+08         0.00000E+00
    0.00000E+00         0.00000E+00        -0.20033E+08
 
   -0.20177E+08         0.82554E+04         0.00000E+00
    0.82554E+04        -0.49994E+08         0.00000E+00
    0.00000E+00         0.00000E+00        -0.20050E+08
 
   -0.20159E+08         0.96066E+04         0.00000E+00
    0.96066E+04        -0.49991E+08         0.00000E+00
    0.00000E+00         0.00000E+00        -0.20065E+08
 
   -0.20143E+08         0.10807E+05         0.00000E+00
    0.10807E+05        -0.49988E+08         0.00000E+00
    0.00000E+00         0.00000E+00        -0.20077E+08
 
   -0.20129E+08         0.11869E+05         0.00000E+00
    0.11869E+05        -0.49984E+08         0.00000E+00
    0.00000E+00         0.00000E+00        -0.20086E+08
 
   -0.20117E+08         0.12802E+05         0.00000E+00
    0.12802E+05        -0.49981E+08         0.00000E+00
    0.00000E+00         0.00000E+00        -0.20093E+08
 
   -0.20107E+08         0.13618E+05         0.00000E+00
    0.13618E+05        -0.49977E+08         0.00000E+00
    0.00000E+00         0.00000E+00        -0.20098E+08
 
   -0.20099E+08         0.14331E+05         0.00000E+00
    0.14331E+05        -0.49973E+08         0.00000E+00
    0.00000E+00         0.00000E+00        -0.20101E+08
 
   -0.20093E+08         0.14954E+05         0.00000E+00
    0.14954E+05        -0.49969E+08         0.00000E+00
    0.00000E+00         0.00000E+00        -0.20101E+08
 
   -0.20089E+08         0.15501E+05         0.00000E+00
    0.15501E+05        -0.49964E+08         0.00000E+00
    0.00000E+00         0.00000E+00        -0.20100E+08
 
   -0.20087E+08         0.15988E+05         0.00000E+00
    0.15988E+05        -0.49960E+08         0.00000E+00
    0.00000E+00         0.00000E+00        -0.20096E+08
 
   -0.20087E+08         0.16432E+05         0.00000E+00
    0.16432E+05        -0.49956E+08         0.00000E+00
    0.00000E+00         0.00000E+00        -0.20090E+08
 
   -0.20267E+08         0.14774E+04         0.00000E+00
    0.14774E+04        -0.50000E+08         0.00000E+00
    0.00000E+00         0.00000E+00        -0.19969E+08
 
   -0.20241E+08         0.42080E+04         0.00000E+00
    0.42080E+04        -0.49999E+08         0.00000E+00
    0.00000E+00         0.00000E+00        -0.19994E+08
 
   -0.20217E+08         0.66663E+04         0.00000E+00
    0.66663E+04        -0.49998E+08         0.00000E+00
    0.00000E+00         0.00000E+00        -0.20016E+08
 
   -0.20195E+08         0.88673E+04         0.00000E+00
    0.88673E+04        -0.49996E+08         0.00000E+00
    0.00000E+00         0.00000E+00        -0.20035E+08
 
   -0.20175E+08         0.10827E+05         0.00000E+00
    0.10827E+05        -0.49993E+08         0.00000E+00
    0.00000E+00         0.00000E+00        -0.20051E+08
 
   -0.20157E+08         0.12561E+05         0.00000E+00
    0.12561E+05        -0.49990E+08         0.00000E+00
    0.00000E+00         0.00000E+00        -0.20065E+08
 
   -0.20142E+08         0.14087E+05         0.00000E+00
    0.14087E+05        -0.49987E+08         0.00000E+00
    0.00000E+00         0.00000E+00        -0.20077E+08
 
   -0.20128E+08         0.15423E+05         0.00000E+00
    0.15423E+05        -0.49984E+08         0.00000E+00
    0.00000E+00         0.00000E+00        -0.20086E+08
 
   -0.20116E+08         0.16585E+05         0.00000E+00
    0.16585E+05        -0.49980E+08         0.00000E+00
    0.00000E+00         0.00000E+00        -0.20093E+08
 
   -0.20106E+08         0.17591E+05         0.00000E+00
    0.17591E+05        -0.49976E+08         0.00000E+00
    0.00000E+00         0.00000E+00        -0.20098E+08
 
   -0.20098E+08         0.18458E+05         0.00000E+00
    0.18458E+05        -0.49972E+08         0.00000E+00
    0.00000E+00         0.00000E+00        -0.20100E+08
 
   -0.20092E+08         0.19207E+05         0.00000E+00
    0.19207E+05        -0.49968E+08         0.00000E+00
    0.00000E+00         0.00000E+00        -0.20101E+08
 
   -0.20088E+08         0.19856E+05         0.00000E+00
    0.19856E+05        -0.49964E+08         0.00000E+00
    0.00000E+00         0.00000E+00        -0.20099E+08
 
   -0.20086E+08         0.20428E+05         0.00000E+00
    0.20428E+05        -0.49959E+08         0.00000E+00
    0.00000E+00         0.00000E+00        -0.20095E+08
 
   -0.20086E+08         0.20946E+05         0.00000E+00
    0.20946E+05        -0.49955E+08         0.00000E+00
    0.00000E+00         0.00000E+00        -0.20090E+08
 
   -0.20264E+08         0.18744E+04         0.00000E+00
    0.18744E+04        -0.50000E+08         0.00000E+00
    0.00000E+00         0.00000E+00        -0.19973E+08
 
   -0.20238E+08         0.53205E+04         0.00000E+00
    0.53205E+04        -0.49999E+08         0.00000E+00
    0.00000E+00         0.00000E+00        -0.19997E+08
 
   -0.20215E+08         0.84012E+04         0.00000E+00
    0.84012E+04        -0.49997E+08         0.00000E+00
    0.00000E+00         0.00000E+00        -0.20018E+08
 
   -0.20193E+08         0.11137E+05         0.00000E+00
    0.11137E+05        -0.49995E+08         0.00000E+00
    0.00000E+00         0.00000E+00        -0.20037E+08
 
   -0.20173E+08         0.13551E+05         0.00000E+00
    0.13551E+05        -0.49993E+08         0.00000E+00
    0.00000E+00         0.00000E+00        -0.20053E+08
 
   -0.20156E+08         0.15665E+05         0.00000E+00
    0.15665E+05        -0.49990E+08         0.00000E+00
    0.00000E+00         0.00000E+00        -0.20066E+08
 
   -0.20140E+08         0.17503E+05         0.00000E+00
    0.17503E+05        -0.49986E+08         0.00000E+00
    0.00000E+00         0.00000E+00        -0.20077E+08
 
   -0.20126E+08         0.19093E+05         0.00000E+00
    0.19093E+05        -0.49983E+08         0.00000E+00
    0.00000E+00         0.00000E+00        -0.20086E+08
 
   -0.20115E+08         0.20455E+05         0.00000E+00
    0.20455E+05        -0.49979E+08         0.00000E+00
    0.00000E+00         0.00000E+00        -0.20093E+08
 
   -0.20105E+08         0.21616E+05         0.00000E+00
    0.21616E+05        -0.49975E+08         0.00000E+00
    0.00000E+00         0.00000E+00        -0.20097E+08
 
   -0.20097E+08         0.22601E+05         0.00000E+00
    0.22601E+05        -0.49971E+08         0.00000E+00
    0.00000E+00         0.00000E+00        -0.20100E+08
 
   -0.20092E+08         0.23436E+05         0.00000E+00
    0.23436E+05        -0.49967E+08         0.00000E+00
    0.00000E+00         0.00000E+00        -0.20100E+08
 
   -0.20088E+08         0.24147E+05         0.00000E+00
    0.24147E+05        -0.49962E+08         0.00000E+00
    0.00000E+00         0.00000E+00        -0.20098E+08
 
   -0.20086E+08         0.24763E+05         0.00000E+00
    0.24763E+05        -0.49958E+08         0.00000E+00
    0.00000E+00         0.00000E+00        -0.20095E+08
 
   -0.20086E+08         0.25316E+05         0.00000E+00
    0.25316E+05        -0.49954E+08         0.00000E+00
    0.00000E+00         0.00000E+00        -0.20089E+08
 
   -0.20260E+08         0.23106E+04         0.00000E+00
    0.23106E+04        -0.50000E+08         0.00000E+00
    0.00000E+00         0.00000E+00        -0.19977E+08
 
   -0.20235E+08         0.65341E+04         0.00000E+00
    0.65341E+04        -0.49999E+08         0.00000E+00
    0.00000E+00         0.00000E+00        -0.20000E+08
 
   -0.20211E+08         0.10280E+05         0.00000E+00
    0.10280E+05        -0.49997E+08         0.00000E+00
    0.00000E+00         0.00000E+00        -0.20021E+08
 
   -0.20190E+08         0.13576E+05         0.00000E+00
    0.13576E+05        -0.49995E+08         0.00000E+00
    0.00000E+00         0.00000E+00        -0.20039E+08
 
   -0.20171E+08         0.16453E+05         0.00000E+00
    0.16453E+05        -0.49992E+08         0.00000E+00
    0.00000E+00         0.00000E+00        -0.20054E+08
 
   -0.20153E+08         0.18943E+05         0.00000E+00
    0.18943E+05        -0.49989E+08         0.00000E+00
    0.00000E+00         0.00000E+00        -0.20067E+08
 
   -0.20138E+08         0.21077E+05         0.00000E+00
    0.21077E+05        -0.49985E+08         0.00000E+00
    0.00000E+00         0.00000E+00        -0.20078E+08
 
   -0.20125E+08         0.22893E+05         0.00000E+00
    0.22893E+05        -0.49982E+08         0.00000E+00
    0.00000E+00         0.00000E+00        -0.20086E+08
 
   -0.20113E+08         0.24422E+05         0.00000E+00
    0.24422E+05        -0.49978E+08         0.00000E+00
    0.00000E+00         0.00000E+00        -0.20093E+08
 
   -0.20104E+08         0.25697E+05         0.00000E+00
    0.25697E+05        -0.49974E+08         0.00000E+00
    0.00000E+00         0.00000E+00        -0.20097E+08
 
   -0.20096E+08         0.26754E+05         0.00000E+00
    0.26754E+05        -0.49970E+08         0.00000E+00
    0.00000E+00         0.00000E+00        -0.20099E+08
 
   -0.20091E+08         0.27626E+05         0.00000E+00
    0.27626E+05        -0.49965E+08         0.00000E+00
    0.00000E+00         0.00000E+00        -0.20099E+08
 
   -0.20087E+08         0.28349E+05         0.00000E+00
    0.28349E+05        -0.49961E+08         0.00000E+00
    0.00000E+00         0.00000E+00        -0.20097E+08
 
   -0.20085E+08         0.28960E+05         0.00000E+00
    0.28960E+05        -0.49957E+08         0.00000E+00
    0.00000E+00         0.00000E+00        -0.20094E+08
 
   -0.20085E+08         0.29497E+05         0.00000E+00
    0.29497E+05        -0.49953E+08         0.00000E+00
    0.00000E+00         0.00000E+00        -0.20089E+08
 
   -0.20255E+08         0.27912E+04         0.00000E+00
    0.27912E+04        -0.50000E+08         0.00000E+00
    0.00000E+00         0.00000E+00        -0.19981E+08
 
   -0.20230E+08         0.78618E+04         0.00000E+00
    0.78618E+04        -0.49999E+08         0.00000E+00
    0.00000E+00         0.00000E+00        -0.20004E+08
 
   -0.20207E+08         0.12321E+05         0.00000E+00
    0.12321E+05        -0.49997E+08         0.00000E+00
    0.00000E+00         0.00000E+00        -0.20024E+08
 
   -0.20187E+08         0.16206E+05         0.00000E+00
    0.16206E+05        -0.49994E+08         0.00000E+00
    0.00000E+00         0.00000E+00        -0.20042E+08
 
   -0.20168E+08         0.19556E+05         0.00000E+00
    0.19556E+05        -0.49991E+08         0.00000E+00
    0.00000E+00         0.00000E+00        -0.20056E+08
 
   -0.20151E+08         0.22415E+05         0.00000E+00
    0.22415E+05        -0.49988E+08         0.00000E+00
    0.00000E+00         0.00000E+00        -0.20069E+08
 
   -0.20136E+08         0.24825E+05         0.00000E+00
    0.24825E+05        -0.49984E+08         0.00000E+00
    0.00000E+00         0.00000E+00        -0.20079E+08
 
   -0.20123E+08         0.26836E+05         0.00000E+00
    0.26836E+05        -0.49980E+08         0.00000E+00
    0.00000E+00         0.00000E+00        -0.20087E+08
 
   -0.20112E+08         0.28490E+05         0.00000E+00
    0.28490E+05        -0.49976E+08         0.00000E+00
    0.00000E+00         0.00000E+00        -0.20092E+08
 
   -0.20103E+08         0.29832E+05         0.00000E+00
    0.29832E+05        -0.49972E+08         0.00000E+00
    0.00000E+00         0.00000E+00        -0.20096E+08
 
   -0.20095E+08         0.30907E+05         0.00000E+00
    0.30907E+05        -0.49968E+08         0.00000E+00
    0.00000E+00         0.00000E+00        -0.20098E+08
 
   -0.20090E+08         0.31760E+05         0.00000E+00
    0.31760E+05        -0.49964E+08         0.00000E+00
    0.00000E+00         0.00000E+00        -0.20098E+08
 
   -0.20086E+08         0.32434E+05         0.00000E+00
    0.32434E+05        -0.49960E+08         0.00000E+00
    0.00000E+00         0.00000E+00        -0.20096E+08
 
   -0.20085E+08         0.32978E+05         0.00000E+00
    0.32978E+05        -0.49956E+08         0.00000E+00
    0.00000E+00         0.00000E+00        -0.20093E+08
 
   -0.20085E+08         0.33442E+05         0.00000E+00
    0.33442E+05        -0.49952E+08         0.00000E+00
    0.00000E+00         0.00000E+00        -0.20088E+08
 
   -0.20249E+08         0.33200E+04         0.00000E+00
    0.33200E+04        -0.50000E+08         0.00000E+00
    0.00000E+00         0.00000E+00        -0.19987E+08
 
   -0.20225E+08         0.93131E+04         0.00000E+00
    0.93131E+04        -0.49999E+08         0.00000E+00
    0.00000E+00         0.00000E+00        -0.20009E+08
 
   -0.20203E+08         0.14537E+05         0.00000E+00
    0.14537E+05        -0.49997E+08         0.00000E+00
    0.00000E+00         0.00000E+00        -0.20029E+08
 
   -0.20183E+08         0.19040E+05         0.00000E+00
    0.19040E+05        -0.49994E+08         0.00000E+00
    0.00000E+00         0.00000E+00        -0.20045E+08
 
   -0.20165E+08         0.22873E+05         0.00000E+00
    0.22873E+05        -0.49991E+08         0.00000E+00
    0.00000E+00         0.00000E+00        -0.20059E+08
 
   -0.20148E+08         0.26093E+05         0.00000E+00
    0.26093E+05        -0.49987E+08         0.00000E+00
    0.00000E+00         0.00000E+00        -0.20070E+08
 
   -0.20134E+08         0.28758E+05         0.00000E+00
    0.28758E+05        -0.49983E+08         0.00000E+00
    0.00000E+00         0.00000E+00        -0.20080E+08
 
   -0.20121E+08         0.30927E+05         0.00000E+00
    0.30927E+05        -0.49979E+08         0.00000E+00
    0.00000E+00         0.00000E+00        -0.20087E+08
 
   -0.20110E+08         0.32660E+05         0.00000E+00
    0.32660E+05        -0.49975E+08         0.00000E+00
    0.00000E+00         0.00000E+00        -0.20092E+08
 
   -0.20102E+08         0.34013E+05         0.00000E+00
    0.34013E+05        -0.49971E+08         0.00000E+00
    0.00000E+00         0.00000E+00        -0.20095E+08
 
   -0.20094E+08         0.35044E+05         0.00000E+00
    0.35044E+05        -0.49967E+08         0.00000E+00
    0.00000E+00         0.00000E+00        -0.20097E+08
 
   -0.20089E+08         0.35809E+05         0.00000E+00
    0.35809E+05        -0.49963E+08         0.00000E+00
    0.00000E+00         0.00000E+00        -0.20097E+08
 
   -0.20086E+08         0.36365E+05         0.00000E+00
    0.36365E+05        -0.49959E+08         0.00000E+00
    0.00000E+00         0.00000E+00        -0.20095E+08
 
   -0.20084E+08         0.36772E+05         0.00000E+00
    0.36772E+05        -0.49955E+08         0.00000E+00
    0.00000E+00         0.00000E+00        -0.20092E+08
 
   -0.20084E+08         0.37094E+05         0.00000E+00
    0.37094E+05        -0.49951E+08         0.00000E+00
    0.00000E+00         0.00000E+00        -0.20087E+08
 
   -0.20242E+08         0.38993E+04         0.00000E+00
    0.38993E+04        -0.50000E+08         0.00000E+00
    0.00000E+00         0.00000E+00        -0.19994E+08
 
   -0.20219E+08         0.10893E+05         0.00000E+00
    0.10893E+05        -0.49998E+08         0.00000E+00
    0.00000E+00         0.00000E+00        -0.20015E+08
 
   -0.20198E+08         0.16935E+05         0.00000E+00
    0.16935E+05        -0.49996E+08         0.00000E+00
    0.00000E+00         0.00000E+00        -0.20033E+08
 
   -0.20178E+08         0.22086E+05         0.00000E+00
    0.22086E+05        -0.49993E+08         0.00000E+00
    0.00000E+00         0.00000E+00        -0.20049E+08
 
   -0.20161E+08         0.26412E+05         0.00000E+00
    0.26412E+05        -0.49990E+08         0.00000E+00
    0.00000E+00         0.00000E+00        -0.20062E+08
 
   -0.20145E+08         0.29985E+05         0.00000E+00
    0.29985E+05        -0.49986E+08         0.00000E+00
    0.00000E+00         0.00000E+00        -0.20072E+08
 
   -0.20131E+08         0.32877E+05         0.00000E+00
    0.32877E+05        -0.49982E+08         0.00000E+00
    0.00000E+00         0.00000E+00        -0.20081E+08
 
   -0.20119E+08         0.35164E+05         0.00000E+00
    0.35164E+05        -0.49978E+08         0.00000E+00
    0.00000E+00         0.00000E+00        -0.20087E+08
 
   -0.20109E+08         0.36923E+05         0.00000E+00
    0.36923E+05        -0.49974E+08         0.00000E+00
    0.00000E+00         0.00000E+00        -0.20092E+08
 
   -0.20100E+08         0.38224E+05         0.00000E+00
    0.38224E+05        -0.49969E+08         0.00000E+00
    0.00000E+00         0.00000E+00        -0.20095E+08
 
   -0.20094E+08         0.39140E+05         0.00000E+00
    0.39140E+05        -0.49965E+08         0.00000E+00
    0.00000E+00         0.00000E+00        -0.20096E+08
 
   -0.20089E+08         0.39741E+05         0.00000E+00
    0.39741E+05        -0.49961E+08         0.00000E+00
    0.00000E+00         0.00000E+00        -0.20096E+08
 
   -0.20085E+08         0.40099E+05         0.00000E+00
    0.40099E+05        -0.49958E+08         0.00000E+00
    0.00000E+00         0.00000E+00        -0.20094E+08
 
   -0.20084E+08         0.40288E+05         0.00000E+00
    0.40288E+05        -0.49954E+08         0.00000E+00
    0.00000E+00         0.00000E+00        -0.20091E+08
 
   -0.20084E+08         0.40387E+05         0.00000E+00
    0.40387E+05        -0.49951E+08         0.00000E+00
    0.00000E+00         0.00000E+00        -0.20087E+08
 
   -0.20234E+08         0.45286E+04         0.00000E+00
    0.45286E+04        -0.50000E+08         0.00000E+00
    0.00000E+00         0.00000E+00        -0.20002E+08
 
   -0.20212E+08         0.12601E+05         0.00000E+00
    0.12601E+05        -0.49998E+08         0.00000E+00
    0.00000E+00         0.00000E+00        -0.20022E+08
 
   -0.20192E+08         0.19515E+05         0.00000E+00
    0.19515E+05        -0.49996E+08         0.00000E+00
    0.00000E+00         0.00000E+00        -0.20039E+08
 
   -0.20173E+08         0.25344E+05         0.00000E+00
    0.25344E+05        -0.49993E+08         0.00000E+00
    0.00000E+00         0.00000E+00        -0.20053E+08
 
   -0.20157E+08         0.30172E+05         0.00000E+00
    0.30172E+05        -0.49989E+08         0.00000E+00
    0.00000E+00         0.00000E+00        -0.20065E+08
 
   -0.20142E+08         0.34086E+05         0.00000E+00
    0.34086E+05        -0.49985E+08         0.00000E+00
    0.00000E+00         0.00000E+00        -0.20075E+08
 
   -0.20129E+08         0.37178E+05         0.00000E+00
    0.37178E+05        -0.49981E+08         0.00000E+00
    0.00000E+00         0.00000E+00        -0.20082E+08
 
   -0.20117E+08         0.39539E+05         0.00000E+00
    0.39539E+05        -0.49977E+08         0.00000E+00
    0.00000E+00         0.00000E+00        -0.20088E+08
 
   -0.20107E+08         0.41265E+05         0.00000E+00
    0.41265E+05        -0.49972E+08         0.00000E+00
    0.00000E+00         0.00000E+00        -0.20092E+08
 
   -0.20099E+08         0.42444E+05         0.00000E+00
    0.42444E+05        -0.49968E+08         0.00000E+00
    0.00000E+00         0.00000E+00        -0.20094E+08
 
   -0.20093E+08         0.43164E+05         0.00000E+00
    0.43164E+05        -0.49964E+08         0.00000E+00
    0.00000E+00         0.00000E+00        -0.20095E+08
 
   -0.20088E+08         0.43514E+05         0.00000E+00
    0.43514E+05        -0.49960E+08         0.00000E+00
    0.00000E+00         0.00000E+00        -0.20095E+08
 
   -0.20085E+08         0.43582E+05         0.00000E+00
    0.43582E+05        -0.49957E+08         0.00000E+00
    0.00000E+00         0.00000E+00        -0.20093E+08
 
   -0.20084E+08         0.43460E+05         0.00000E+00
    0.43460E+05        -0.49953E+08         0.00000E+00
    0.00000E+00         0.00000E+00        -0.20090E+08
 
   -0.20084E+08         0.43247E+05         0.00000E+00
    0.43247E+05        -0.49951E+08         0.00000E+00
    0.00000E+00         0.00000E+00        -0.20087E+08
 
   -0.20225E+08         0.52054E+04         0.00000E+00
    0.52054E+04        -0.49999E+08         0.00000E+00
    0.00000E+00         0.00000E+00        -0.20011E+08
 
   -0.20204E+08         0.14431E+05         0.00000E+00
    0.14431E+05        -0.49998E+08         0.00000E+00
    0.00000E+00         0.00000E+00        -0.20030E+08
 
   -0.20185E+08         0.22267E+05         0.00000E+00
    0.22267E+05        -0.49996E+08         0.00000E+00
    0.00000E+00         0.00000E+00        -0.20045E+08
 
   -0.20168E+08         0.28804E+05         0.00000E+00
    0.28804E+05        -0.49993E+08         0.00000E+00
    0.00000E+00         0.00000E+00        -0.20058E+08
 
   -0.20152E+08         0.34141E+05         0.00000E+00
    0.34141E+05        -0.49989E+08         0.00000E+00
    0.00000E+00         0.00000E+00        -0.20069E+08
 
   -0.20138E+08         0.38385E+05         0.00000E+00
    0.38385E+05        -0.49985E+08         0.00000E+00
    0.00000E+00         0.00000E+00        -0.20077E+08
 
   -0.20126E+08         0.41645E+05         0.00000E+00
    0.41645E+05        -0.49980E+08         0.00000E+00
    0.00000E+00         0.00000E+00        -0.20084E+08
 
   -0.20115E+08         0.44034E+05         0.00000E+00
    0.44034E+05        -0.49976E+08         0.00000E+00
    0.00000E+00         0.00000E+00        -0.20088E+08
 
   -0.20106E+08         0.45662E+05         0.00000E+00
    0.45662E+05        -0.49971E+08         0.00000E+00
    0.00000E+00         0.00000E+00        -0.20091E+08
 
   -0.20099E+08         0.46640E+05         0.00000E+00
    0.46640E+05        -0.49967E+08         0.00000E+00
    0.00000E+00         0.00000E+00        -0.20093E+08
 
   -0.20093E+08         0.47076E+05         0.00000E+00
    0.47076E+05        -0.49963E+08         0.00000E+00
    0.00000E+00         0.00000E+00        -0.20094E+08
 
   -0.20088E+08         0.47076E+05         0.00000E+00
    0.47076E+05        -0.49959E+08         0.00000E+00
    0.00000E+00         0.00000E+00        -0.20093E+08
 
   -0.20086E+08         0.46752E+05         0.00000E+00
    0.46752E+05        -0.49956E+08         0.00000E+00
    0.00000E+00         0.00000E+00        -0.20092E+08
 
   -0.20084E+08         0.46217E+05         0.00000E+00
    0.46217E+05        -0.49953E+08         0.00000E+00
    0.00000E+00         0.00000E+00        -0.20090E+08
 
   -0.20084E+08         0.45591E+05         0.00000E+00
    0.45591E+05        -0.49951E+08         0.00000E+00
    0.00000E+00         0.00000E+00        -0.20087E+08
 
   -0.20214E+08         0.59235E+04         0.00000E+00
    0.59235E+04        -0.49999E+08         0.00000E+00
    0.00000E+00         0.00000E+00        -0.20021E+08
 
   -0.20195E+08         0.16367E+05         0.00000E+00
    0.16367E+05        -0.49998E+08         0.00000E+00
    0.00000E+00         0.00000E+00        -0.20038E+08
 
   -0.20177E+08         0.25173E+05         0.00000E+00
    0.25173E+05        -0.49996E+08         0.00000E+00
    0.00000E+00         0.00000E+00        -0.20053E+08
 
   -0.20161E+08         0.32444E+05         0.00000E+00
    0.32444E+05        -0.49992E+08         0.00000E+00
    0.00000E+00         0.00000E+00        -0.20064E+08
 
   -0.20147E+08         0.38298E+05         0.00000E+00
    0.38298E+05        -0.49988E+08         0.00000E+00
    0.00000E+00         0.00000E+00        -0.20073E+08
 
   -0.20134E+08         0.42859E+05         0.00000E+00
    0.42859E+05        -0.49984E+08         0.00000E+00
    0.00000E+00         0.00000E+00        -0.20080E+08
 
   -0.20123E+08         0.46256E+05         0.00000E+00
    0.46256E+05        -0.49979E+08         0.00000E+00
    0.00000E+00         0.00000E+00        -0.20085E+08
 
   -0.20113E+08         0.48619E+05         0.00000E+00
    0.48619E+05        -0.49975E+08         0.00000E+00
    0.00000E+00         0.00000E+00        -0.20089E+08
 
   -0.20105E+08         0.50080E+05         0.00000E+00
    0.50080E+05        -0.49970E+08         0.00000E+00
    0.00000E+00         0.00000E+00        -0.20091E+08
 
   -0.20098E+08         0.50772E+05         0.00000E+00
    0.50772E+05        -0.49966E+08         0.00000E+00
    0.00000E+00         0.00000E+00        -0.20093E+08
 
   -0.20093E+08         0.50822E+05         0.00000E+00
    0.50822E+05        -0.49962E+08         0.00000E+00
    0.00000E+00         0.00000E+00        -0.20093E+08
 
   -0.20089E+08         0.50365E+05         0.00000E+00
    0.50365E+05        -0.49959E+08         0.00000E+00
    0.00000E+00         0.00000E+00        -0.20092E+08
 
   -0.20086E+08         0.49536E+05         0.00000E+00
    0.49536E+05        -0.49956E+08         0.00000E+00
    0.00000E+00         0.00000E+00        -0.20091E+08
 
   -0.20085E+08         0.48475E+05         0.00000E+00
    0.48475E+05        -0.49954E+08         0.00000E+00
    0.00000E+00         0.00000E+00        -0.20089E+08
 
   -0.20085E+08         0.47325E+05         0.00000E+00
    0.47325E+05        -0.49952E+08         0.00000E+00
    0.00000E+00         0.00000E+00        -0.20087E+08
 
   -0.20202E+08         0.66738E+04         0.00000E+00
    0.66738E+04        -0.49999E+08         0.00000E+00
    0.00000E+00         0.00000E+00        -0.20033E+08
 
   -0.20185E+08         0.18387E+05         0.00000E+00
    0.18387E+05        -0.49998E+08         0.00000E+00
    0.00000E+00         0.00000E+00        -0.20048E+08
 
   -0.20169E+08         0.28200E+05         0.00000E+00
    0.28200E+05        -0.49995E+08         0.00000E+00
    0.00000E+00         0.00000E+00        -0.20061E+08
 
   -0.20155E+08         0.36231E+05         0.00000E+00
    0.36231E+05        -0.49992E+08         0.00000E+00
    0.00000E+00         0.00000E+00        -0.20070E+08
 
   -0.20142E+08         0.42609E+05         0.00000E+00
    0.42609E+05        -0.49988E+08         0.00000E+00
    0.00000E+00         0.00000E+00        -0.20078E+08
 
   -0.20130E+08         0.47474E+05         0.00000E+00
    0.47474E+05        -0.49983E+08         0.00000E+00
    0.00000E+00         0.00000E+00        -0.20083E+08
 
   -0.20120E+08         0.50972E+05         0.00000E+00
    0.50972E+05        -0.49979E+08         0.00000E+00
    0.00000E+00         0.00000E+00        -0.20087E+08
 
   -0.20111E+08         0.53254E+05         0.00000E+00
    0.53254E+05        -0.49974E+08         0.00000E+00
    0.00000E+00         0.00000E+00        -0.20090E+08
 
   -0.20104E+08         0.54472E+05         0.00000E+00
    0.54472E+05        -0.49969E+08         0.00000E+00
    0.00000E+00         0.00000E+00        -0.20091E+08
 
   -0.20098E+08         0.54781E+05         0.00000E+00
    0.54781E+05        -0.49965E+08         0.00000E+00
    0.00000E+00         0.00000E+00        -0.20092E+08
 
   -0.20093E+08         0.54339E+05         0.00000E+00
    0.54339E+05        -0.49962E+08         0.00000E+00
    0.00000E+00         0.00000E+00        -0.20092E+08
 
   -0.20090E+08         0.53306E+05         0.00000E+00
    0.53306E+05        -0.49959E+08         0.00000E+00
    0.00000E+00         0.00000E+00        -0.20091E+08
 
   -0.20087E+08         0.51850E+05         0.00000E+00
    0.51850E+05        -0.49956E+08         0.00000E+00
    0.00000E+00         0.00000E+00        -0.20091E+08
 
   -0.20086E+08         0.50140E+05         0.00000E+00
    0.50140E+05        -0.49955E+08         0.00000E+00
    0.00000E+00         0.00000E+00        -0.20089E+08
 
   -0.20087E+08         0.48351E+05         0.00000E+00
    0.48351E+05        -0.49954E+08         0.00000E+00
    0.00000E+00         0.00000E+00        -0.20088E+08
 
   -0.20189E+08         0.74434E+04         0.00000E+00
    0.74434E+04        -0.49999E+08         0.00000E+00
    0.00000E+00         0.00000E+00        -0.20046E+08
 
   -0.20173E+08         0.20460E+05         0.00000E+00
    0.20460E+05        -0.49998E+08         0.00000E+00
    0.00000E+00         0.00000E+00        -0.20060E+08
 
   -0.20160E+08         0.31309E+05         0.00000E+00
    0.31309E+05        -0.49995E+08         0.00000E+00
    0.00000E+00         0.00000E+00        -0.20070E+08
 
   -0.20147E+08         0.40118E+05         0.00000E+00
    0.40118E+05        -0.49992E+08         0.00000E+00
    0.00000E+00         0.00000E+00        -0.20078E+08
 
   -0.20136E+08         0.47025E+05         0.00000E+00
    0.47025E+05        -0.49988E+08         0.00000E+00
    0.00000E+00         0.00000E+00        -0.20083E+08
 
   -0.20126E+08         0.52181E+05         0.00000E+00
    0.52181E+05        -0.49983E+08         0.00000E+00
    0.00000E+00         0.00000E+00        -0.20087E+08
 
   -0.20117E+08         0.55745E+05         0.00000E+00
    0.55745E+05        -0.49978E+08         0.00000E+00
    0.00000E+00         0.00000E+00        -0.20090E+08
 
   -0.20110E+08         0.57884E+05         0.00000E+00
    0.57884E+05        -0.49974E+08         0.00000E+00
    0.00000E+00         0.00000E+00        -0.20091E+08
 
   -0.20103E+08         0.58775E+05         0.00000E+00
    0.58775E+05        -0.49969E+08         0.00000E+00
    0.00000E+00         0.00000E+00        -0.20092E+08
 
   -0.20098E+08         0.58598E+05         0.00000E+00
    0.58598E+05        -0.49965E+08         0.00000E+00
    0.00000E+00         0.00000E+00        -0.20092E+08
 
   -0.20094E+08         0.57543E+05         0.00000E+00
    0.57543E+05        -0.49962E+08         0.00000E+00
    0.00000E+00         0.00000E+00        -0.20091E+08
 
   -0.20091E+08         0.55809E+05         0.00000E+00
    0.55809E+05        -0.49959E+08         0.00000E+00
    0.00000E+00         0.00000E+00        -0.20091E+08
 
   -0.20089E+08         0.53597E+05         0.00000E+00
    0.53597E+05        -0.49957E+08         0.00000E+00
    0.00000E+00         0.00000E+00        -0.20090E+08
 
   -0.20089E+08         0.51116E+05         0.00000E+00
    0.51116E+05        -0.49956E+08         0.00000E+00
    0.00000E+00         0.00000E+00        -0.20090E+08
 
   -0.20089E+08         0.48566E+05         0.00000E+00
    0.48566E+05        -0.49956E+08         0.00000E+00
    0.00000E+00         0.00000E+00        -0.20089E+08
 
   -0.20174E+08         0.82168E+04         0.00000E+00
    0.82168E+04        -0.49999E+08         0.00000E+00
    0.00000E+00         0.00000E+00        -0.20061E+08
 
   -0.20161E+08         0.22546E+05         0.00000E+00
    0.22546E+05        -0.49998E+08         0.00000E+00
    0.00000E+00         0.00000E+00        -0.20072E+08
 
   -0.20149E+08         0.34447E+05         0.00000E+00
    0.34447E+05        -0.49995E+08         0.00000E+00
    0.00000E+00         0.00000E+00        -0.20080E+08
 
   -0.20139E+08         0.44047E+05         0.00000E+00
    0.44047E+05        -0.49992E+08         0.00000E+00
    0.00000E+00         0.00000E+00        -0.20086E+08
 
   -0.20130E+08         0.51485E+05         0.00000E+00
    0.51485E+05        -0.49988E+08         0.00000E+00
    0.00000E+00         0.00000E+00        -0.20090E+08
 
   -0.20122E+08         0.56915E+05         0.00000E+00
    0.56915E+05        -0.49983E+08         0.00000E+00
    0.00000E+00         0.00000E+00        -0.20092E+08
 
   -0.20114E+08         0.60504E+05         0.00000E+00
    0.60504E+05        -0.49978E+08         0.00000E+00
    0.00000E+00         0.00000E+00        -0.20093E+08
 
   -0.20108E+08         0.62435E+05         0.00000E+00
    0.62435E+05        -0.49974E+08         0.00000E+00
    0.00000E+00         0.00000E+00        -0.20093E+08
 
   -0.20103E+08         0.62905E+05         0.00000E+00
    0.62905E+05        -0.49970E+08         0.00000E+00
    0.00000E+00         0.00000E+00        -0.20092E+08
 
   -0.20099E+08         0.62129E+05         0.00000E+00
    0.62129E+05        -0.49966E+08         0.00000E+00
    0.00000E+00         0.00000E+00        -0.20092E+08
 
   -0.20096E+08         0.60336E+05         0.00000E+00
    0.60336E+05        -0.49963E+08         0.00000E+00
    0.00000E+00         0.00000E+00        -0.20091E+08
 
   -0.20094E+08         0.57770E+05         0.00000E+00
    0.57770E+05        -0.49961E+08         0.00000E+00
    0.00000E+00         0.00000E+00        -0.20090E+08
 
   -0.20092E+08         0.54675E+05         0.00000E+00
    0.54675E+05        -0.49960E+08         0.00000E+00
    0.00000E+00         0.00000E+00        -0.20090E+08
 
   -0.20092E+08         0.51299E+05         0.00000E+00
    0.51299E+05        -0.49959E+08         0.00000E+00
    0.00000E+00         0.00000E+00        -0.20091E+08
 
   -0.20092E+08         0.47873E+05         0.00000E+00
    0.47873E+05        -0.49960E+08         0.00000E+00
    0.00000E+00         0.00000E+00        -0.20091E+08
 
   -0.20157E+08         0.89768E+04         0.00000E+00
    0.89768E+04        -0.50000E+08         0.00000E+00
    0.00000E+00         0.00000E+00        -0.20077E+08
 
   -0.20147E+08         0.24602E+05         0.00000E+00
    0.24602E+05        -0.49998E+08         0.00000E+00
    0.00000E+00         0.00000E+00        -0.20086E+08
 
   -0.20138E+08         0.37551E+05         0.00000E+00
    0.37551E+05        -0.49996E+08         0.00000E+00
    0.00000E+00         0.00000E+00        -0.20092E+08
 
   -0.20130E+08         0.47943E+05         0.00000E+00
    0.47943E+05        -0.49992E+08         0.00000E+00
    0.00000E+00         0.00000E+00        -0.20095E+08
 
   -0.20123E+08         0.55908E+05         0.00000E+00
    0.55908E+05        -0.49988E+08         0.00000E+00
    0.00000E+00         0.00000E+00        -0.20097E+08
 
   -0.20117E+08         0.61591E+05         0.00000E+00
    0.61591E+05        -0.49983E+08         0.00000E+00
    0.00000E+00         0.00000E+00        -0.20097E+08
 
   -0.20112E+08         0.65160E+05         0.00000E+00
    0.65160E+05        -0.49979E+08         0.00000E+00
    0.00000E+00         0.00000E+00        -0.20096E+08
 
   -0.20107E+08         0.66807E+05         0.00000E+00
    0.66807E+05        -0.49974E+08         0.00000E+00
    0.00000E+00         0.00000E+00        -0.20095E+08
 
   -0.20104E+08         0.66756E+05         0.00000E+00
    0.66756E+05        -0.49970E+08         0.00000E+00
    0.00000E+00         0.00000E+00        -0.20093E+08
 
   -0.20101E+08         0.65261E+05         0.00000E+00
    0.65261E+05        -0.49967E+08         0.00000E+00
    0.00000E+00         0.00000E+00        -0.20092E+08
 
   -0.20099E+08         0.62600E+05         0.00000E+00
    0.62600E+05        -0.49965E+08         0.00000E+00
    0.00000E+00         0.00000E+00        -0.20091E+08
 
   -0.20097E+08         0.59073E+05         0.00000E+00
    0.59073E+05        -0.49963E+08         0.00000E+00
    0.00000E+00         0.00000E+00        -0.20090E+08
 
   -0.20096E+08         0.54978E+05         0.00000E+00
    0.54978E+05        -0.49963E+08         0.00000E+00
    0.00000E+00         0.00000E+00        -0.20091E+08
 
   -0.20095E+08         0.50598E+05         0.00000E+00
    0.50598E+05        -0.49964E+08         0.00000E+00
    0.00000E+00         0.00000E+00        -0.20092E+08
 
   -0.20096E+08         0.46192E+05         0.00000E+00
    0.46192E+05        -0.49965E+08         0.00000E+00
    0.00000E+00         0.00000E+00        -0.20094E+08
 
   -0.20140E+08         0.97059E+04         0.00000E+00
    0.97059E+04        -0.50000E+08         0.00000E+00
    0.00000E+00         0.00000E+00        -0.20095E+08
 
   -0.20132E+08         0.26582E+05         0.00000E+00
    0.26582E+05        -0.49998E+08         0.00000E+00
    0.00000E+00         0.00000E+00        -0.20101E+08
 
   -0.20126E+08         0.40553E+05         0.00000E+00
    0.40553E+05        -0.49996E+08         0.00000E+00
    0.00000E+00         0.00000E+00        -0.20104E+08
 
   -0.20121E+08         0.51720E+05         0.00000E+00
    0.51720E+05        -0.49992E+08         0.00000E+00
    0.00000E+00         0.00000E+00        -0.20105E+08
 
   -0.20116E+08         0.60192E+05         0.00000E+00
    0.60192E+05        -0.49988E+08         0.00000E+00
    0.00000E+00         0.00000E+00        -0.20104E+08
 
   -0.20112E+08         0.66096E+05         0.00000E+00
    0.66096E+05        -0.49984E+08         0.00000E+00
    0.00000E+00         0.00000E+00        -0.20103E+08
 
   -0.20109E+08         0.69589E+05         0.00000E+00
    0.69589E+05        -0.49980E+08         0.00000E+00
    0.00000E+00         0.00000E+00        -0.20100E+08
 
   -0.20107E+08         0.70869E+05         0.00000E+00
    0.70869E+05        -0.49976E+08         0.00000E+00
    0.00000E+00         0.00000E+00        -0.20097E+08
 
   -0.20105E+08         0.70188E+05         0.00000E+00
    0.70188E+05        -0.49972E+08         0.00000E+00
    0.00000E+00         0.00000E+00        -0.20094E+08
 
   -0.20103E+08         0.67851E+05         0.00000E+00
    0.67851E+05        -0.49970E+08         0.00000E+00
    0.00000E+00         0.00000E+00        -0.20092E+08
 
   -0.20102E+08         0.64201E+05         0.00000E+00
    0.64201E+05        -0.49968E+08         0.00000E+00
    0.00000E+00         0.00000E+00        -0.20091E+08
 
   -0.20101E+08         0.59599E+05         0.00000E+00
    0.59599E+05        -0.49967E+08         0.00000E+00
    0.00000E+00         0.00000E+00        -0.20091E+08
 
   -0.20101E+08         0.54402E+05         0.00000E+00
    0.54402E+05        -0.49968E+08         0.00000E+00
    0.00000E+00         0.00000E+00        -0.20092E+08
 
   -0.20100E+08         0.48936E+05         0.00000E+00
    0.48936E+05        -0.49969E+08         0.00000E+00
    0.00000E+00         0.00000E+00        -0.20095E+08
 
   -0.20100E+08         0.43469E+05         0.00000E+00
    0.43469E+05        -0.49972E+08         0.00000E+00
    0.00000E+00         0.00000E+00        -0.20098E+08
 
   -0.20121E+08         0.10389E+05         0.00000E+00
    0.10389E+05        -0.50000E+08         0.00000E+00
    0.00000E+00         0.00000E+00        -0.20114E+08
 
   -0.20116E+08         0.28442E+05         0.00000E+00
    0.28442E+05        -0.49998E+08         0.00000E+00
    0.00000E+00         0.00000E+00        -0.20117E+08
 
   -0.20113E+08         0.43380E+05         0.00000E+00
    0.43380E+05        -0.49996E+08         0.00000E+00
    0.00000E+00         0.00000E+00        -0.20117E+08
 
   -0.20110E+08         0.55277E+05         0.00000E+00
    0.55277E+05        -0.49993E+08         0.00000E+00
    0.00000E+00         0.00000E+00        -0.20116E+08
 
   -0.20109E+08         0.64213E+05         0.00000E+00
    0.64213E+05        -0.49989E+08         0.00000E+00
    0.00000E+00         0.00000E+00        -0.20113E+08
 
   -0.20108E+08         0.70284E+05         0.00000E+00
    0.70284E+05        -0.49985E+08         0.00000E+00
    0.00000E+00         0.00000E+00        -0.20109E+08
 
   -0.20107E+08         0.73627E+05         0.00000E+00
    0.73627E+05        -0.49982E+08         0.00000E+00
    0.00000E+00         0.00000E+00        -0.20104E+08
 
   -0.20107E+08         0.74446E+05         0.00000E+00
    0.74446E+05        -0.49978E+08         0.00000E+00
    0.00000E+00         0.00000E+00        -0.20100E+08
 
   -0.20107E+08         0.73026E+05         0.00000E+00
    0.73026E+05        -0.49975E+08         0.00000E+00
    0.00000E+00         0.00000E+00        -0.20096E+08
 
   -0.20107E+08         0.69735E+05         0.00000E+00
    0.69735E+05        -0.49973E+08         0.00000E+00
    0.00000E+00         0.00000E+00        -0.20094E+08
 
   -0.20107E+08         0.64991E+05         0.00000E+00
    0.64991E+05        -0.49972E+08         0.00000E+00
    0.00000E+00         0.00000E+00        -0.20092E+08
 
   -0.20107E+08         0.59233E+05         0.00000E+00
    0.59233E+05        -0.49973E+08         0.00000E+00
    0.00000E+00         0.00000E+00        -0.20093E+08
 
   -0.20107E+08         0.52873E+05         0.00000E+00
    0.52873E+05        -0.49974E+08         0.00000E+00
    0.00000E+00         0.00000E+00        -0.20095E+08
 
   -0.20106E+08         0.46268E+05         0.00000E+00
    0.46268E+05        -0.49977E+08         0.00000E+00
    0.00000E+00         0.00000E+00        -0.20098E+08
 
   -0.20106E+08         0.39692E+05         0.00000E+00
    0.39692E+05        -0.49980E+08         0.00000E+00
    0.00000E+00         0.00000E+00        -0.20103E+08
 
   -0.20100E+08         0.11016E+05         0.00000E+00
    0.11016E+05        -0.50000E+08         0.00000E+00
    0.00000E+00         0.00000E+00        -0.20134E+08
 
   -0.20099E+08         0.30140E+05         0.00000E+00
    0.30140E+05        -0.49999E+08         0.00000E+00
    0.00000E+00         0.00000E+00        -0.20134E+08
 
   -0.20099E+08         0.45955E+05         0.00000E+00
    0.45955E+05        -0.49996E+08         0.00000E+00
    0.00000E+00         0.00000E+00        -0.20132E+08
 
   -0.20100E+08         0.58499E+05         0.00000E+00
    0.58499E+05        -0.49994E+08         0.00000E+00
    0.00000E+00         0.00000E+00        -0.20128E+08
 
   -0.20101E+08         0.67813E+05         0.00000E+00
    0.67813E+05        -0.49991E+08         0.00000E+00
    0.00000E+00         0.00000E+00        -0.20122E+08
 
   -0.20103E+08         0.73961E+05         0.00000E+00
    0.73961E+05        -0.49987E+08         0.00000E+00
    0.00000E+00         0.00000E+00        -0.20116E+08
 
   -0.20105E+08         0.77056E+05         0.00000E+00
    0.77056E+05        -0.49984E+08         0.00000E+00
    0.00000E+00         0.00000E+00        -0.20110E+08
 
   -0.20107E+08         0.77309E+05         0.00000E+00
    0.77309E+05        -0.49981E+08         0.00000E+00
    0.00000E+00         0.00000E+00        -0.20104E+08
 
   -0.20110E+08         0.75051E+05         0.00000E+00
    0.75051E+05        -0.49979E+08         0.00000E+00
    0.00000E+00         0.00000E+00        -0.20099E+08
 
   -0.20111E+08         0.70722E+05         0.00000E+00
    0.70722E+05        -0.49978E+08         0.00000E+00
    0.00000E+00         0.00000E+00        -0.20096E+08
 
   -0.20113E+08         0.64828E+05         0.00000E+00
    0.64828E+05        -0.49978E+08         0.00000E+00
    0.00000E+00         0.00000E+00        -0.20095E+08
 
   -0.20114E+08         0.57882E+05         0.00000E+00
    0.57882E+05        -0.49980E+08         0.00000E+00
    0.00000E+00         0.00000E+00        -0.20095E+08
 
   -0.20114E+08         0.50347E+05         0.00000E+00
    0.50347E+05        -0.49982E+08         0.00000E+00
    0.00000E+00         0.00000E+00        -0.20098E+08
 
   -0.20114E+08         0.42599E+05         0.00000E+00
    0.42599E+05        -0.49986E+08         0.00000E+00
    0.00000E+00         0.00000E+00        -0.20103E+08
 
   -0.20113E+08         0.34904E+05         0.00000E+00
    0.34904E+05        -0.49991E+08         0.00000E+00
    0.00000E+00         0.00000E+00        -0.20110E+08
 
   -0.20079E+08         0.11582E+05         0.00000E+00
    0.11582E+05        -0.50000E+08         0.00000E+00
    0.00000E+00         0.00000E+00        -0.20156E+08
 
   -0.20081E+08         0.31646E+05         0.00000E+00
    0.31646E+05        -0.49999E+08         0.00000E+00
    0.00000E+00         0.00000E+00        -0.20152E+08
 
   -0.20085E+08         0.48202E+05         0.00000E+00
    0.48202E+05        -0.49997E+08         0.00000E+00
    0.00000E+00         0.00000E+00        -0.20147E+08
 
   -0.20089E+08         0.61252E+05         0.00000E+00
    0.61252E+05        -0.49995E+08         0.00000E+00
    0.00000E+00         0.00000E+00        -0.20140E+08
 
   -0.20093E+08         0.70799E+05         0.00000E+00
    0.70799E+05        -0.49992E+08         0.00000E+00
    0.00000E+00         0.00000E+00        -0.20132E+08
 
   -0.20098E+08         0.76873E+05         0.00000E+00
    0.76873E+05        -0.49990E+08         0.00000E+00
    0.00000E+00         0.00000E+00        -0.20124E+08
 
   -0.20104E+08         0.79582E+05         0.00000E+00
    0.79582E+05        -0.49987E+08         0.00000E+00
    0.00000E+00         0.00000E+00        -0.20116E+08
 
   -0.20109E+08         0.79163E+05         0.00000E+00
    0.79163E+05        -0.49986E+08         0.00000E+00
    0.00000E+00         0.00000E+00        -0.20108E+08
 
   -0.20113E+08         0.76003E+05         0.00000E+00
    0.76003E+05        -0.49985E+08         0.00000E+00
    0.00000E+00         0.00000E+00        -0.20103E+08
 
   -0.20117E+08         0.70618E+05         0.00000E+00
    0.70618E+05        -0.49985E+08         0.00000E+00
    0.00000E+00         0.00000E+00        -0.20099E+08
 
   -0.20120E+08         0.63593E+05         0.00000E+00
    0.63593E+05        -0.49987E+08         0.00000E+00
    0.00000E+00         0.00000E+00        -0.20098E+08
 
   -0.20121E+08         0.55502E+05         0.00000E+00
    0.55502E+05        -0.49989E+08         0.00000E+00
    0.00000E+00         0.00000E+00        -0.20100E+08
 
   -0.20122E+08         0.46842E+05         0.00000E+00
    0.46842E+05        -0.49992E+08         0.00000E+00
    0.00000E+00         0.00000E+00        -0.20103E+08
 
   -0.20122E+08         0.37994E+05         0.00000E+00
    0.37994E+05        -0.49997E+08         0.00000E+00
    0.00000E+00         0.00000E+00        -0.20109E+08
 
   -0.20122E+08         0.29210E+05         0.00000E+00
    0.29210E+05        -0.50002E+08         0.00000E+00
    0.00000E+00         0.00000E+00        -0.20117E+08
 
   -0.20057E+08         0.12081E+05         0.00000E+00
    0.12081E+05        -0.50000E+08         0.00000E+00
    0.00000E+00         0.00000E+00        -0.20179E+08
 
   -0.20063E+08         0.32934E+05         0.00000E+00
    0.32934E+05        -0.49999E+08         0.00000E+00
    0.00000E+00         0.00000E+00        -0.20172E+08
 
   -0.20070E+08         0.50046E+05         0.00000E+00
    0.50046E+05        -0.49997E+08         0.00000E+00
    0.00000E+00         0.00000E+00        -0.20163E+08
 
   -0.20077E+08         0.63385E+05         0.00000E+00
    0.63385E+05        -0.49996E+08         0.00000E+00
    0.00000E+00         0.00000E+00        -0.20153E+08
 
   -0.20085E+08         0.72925E+05         0.00000E+00
    0.72925E+05        -0.49994E+08         0.00000E+00
    0.00000E+00         0.00000E+00        -0.20143E+08
 
   -0.20094E+08         0.78691E+05         0.00000E+00
    0.78691E+05        -0.49993E+08         0.00000E+00
    0.00000E+00         0.00000E+00        -0.20132E+08
 
   -0.20103E+08         0.80829E+05         0.00000E+00
    0.80829E+05        -0.49992E+08         0.00000E+00
    0.00000E+00         0.00000E+00        -0.20122E+08
 
   -0.20111E+08         0.79643E+05         0.00000E+00
    0.79643E+05        -0.49992E+08         0.00000E+00
    0.00000E+00         0.00000E+00        -0.20114E+08
 
   -0.20118E+08         0.75591E+05         0.00000E+00
    0.75591E+05        -0.49993E+08         0.00000E+00
    0.00000E+00         0.00000E+00        -0.20108E+08
 
   -0.20124E+08         0.69242E+05         0.00000E+00
    0.69242E+05        -0.49994E+08         0.00000E+00
    0.00000E+00         0.00000E+00        -0.20104E+08
 
   -0.20128E+08         0.61218E+05         0.00000E+00
    0.61218E+05        -0.49997E+08         0.00000E+00
    0.00000E+00         0.00000E+00        -0.20104E+08
 
   -0.20130E+08         0.52114E+05         0.00000E+00
    0.52114E+05        -0.50000E+08         0.00000E+00
    0.00000E+00         0.00000E+00        -0.20106E+08
 
   -0.20131E+08         0.42444E+05         0.00000E+00
    0.42444E+05        -0.50005E+08         0.00000E+00
    0.00000E+00         0.00000E+00        -0.20110E+08
 
   -0.20131E+08         0.32588E+05         0.00000E+00
    0.32588E+05        -0.50010E+08         0.00000E+00
    0.00000E+00         0.00000E+00        -0.20117E+08
 
   -0.20131E+08         0.22781E+05         0.00000E+00
    0.22781E+05        -0.50016E+08         0.00000E+00
    0.00000E+00         0.00000E+00        -0.20126E+08
 
   -0.20034E+08         0.12512E+05         0.00000E+00
    0.12512E+05        -0.50000E+08         0.00000E+00
    0.00000E+00         0.00000E+00        -0.20202E+08
 
   -0.20043E+08         0.33967E+05         0.00000E+00
    0.33967E+05        -0.49999E+08         0.00000E+00
    0.00000E+00         0.00000E+00        -0.20191E+08
 
   -0.20054E+08         0.51396E+05         0.00000E+00
    0.51396E+05        -0.49998E+08         0.00000E+00
    0.00000E+00         0.00000E+00        -0.20179E+08
 
   -0.20066E+08         0.64713E+05         0.00000E+00
    0.64713E+05        -0.49997E+08         0.00000E+00
    0.00000E+00         0.00000E+00        -0.20166E+08
 
   -0.20078E+08         0.73879E+05         0.00000E+00
    0.73879E+05        -0.49997E+08         0.00000E+00
    0.00000E+00         0.00000E+00        -0.20153E+08
 
   -0.20091E+08         0.78997E+05         0.00000E+00
    0.78997E+05        -0.49997E+08         0.00000E+00
    0.00000E+00         0.00000E+00        -0.20141E+08
 
   -0.20103E+08         0.80333E+05         0.00000E+00
    0.80333E+05        -0.49998E+08         0.00000E+00
    0.00000E+00         0.00000E+00        -0.20130E+08
 
   -0.20114E+08         0.78332E+05         0.00000E+00
    0.78332E+05        -0.50000E+08         0.00000E+00
    0.00000E+00         0.00000E+00        -0.20122E+08
 
   -0.20124E+08         0.73522E+05         0.00000E+00
    0.73522E+05        -0.50003E+08         0.00000E+00
    0.00000E+00         0.00000E+00        -0.20115E+08
 
   -0.20131E+08         0.66460E+05         0.00000E+00
    0.66460E+05        -0.50006E+08         0.00000E+00
    0.00000E+00         0.00000E+00        -0.20112E+08
 
   -0.20137E+08         0.57708E+05         0.00000E+00
    0.57708E+05        -0.50010E+08         0.00000E+00
    0.00000E+00         0.00000E+00        -0.20111E+08
 
   -0.20140E+08         0.47827E+05         0.00000E+00
    0.47827E+05        -0.50014E+08         0.00000E+00
    0.00000E+00         0.00000E+00        -0.20114E+08
 
   -0.20142E+08         0.37324E+05         0.00000E+00
    0.37324E+05        -0.50019E+08         0.00000E+00
    0.00000E+00         0.00000E+00        -0.20119E+08
 
   -0.20142E+08         0.26589E+05         0.00000E+00
    0.26589E+05        -0.50025E+08         0.00000E+00
    0.00000E+00         0.00000E+00        -0.20126E+08
 
   -0.20141E+08         0.15855E+05         0.00000E+00
    0.15855E+05        -0.50031E+08         0.00000E+00
    0.00000E+00         0.00000E+00        -0.20136E+08
 
   -0.20010E+08         0.12874E+05         0.00000E+00
    0.12874E+05        -0.50000E+08         0.00000E+00
    0.00000E+00         0.00000E+00        -0.20226E+08
 
   -0.20024E+08         0.34703E+05         0.00000E+00
    0.34703E+05        -0.49999E+08         0.00000E+00
    0.00000E+00         0.00000E+00        -0.20211E+08
 
   -0.20039E+08         0.52110E+05         0.00000E+00
    0.52110E+05        -0.49999E+08         0.00000E+00
    0.00000E+00         0.00000E+00        -0.20196E+08
 
   -0.20055E+08         0.64956E+05         0.00000E+00
    0.64956E+05        -0.49999E+08         0.00000E+00
    0.00000E+00         0.00000E+00        -0.20180E+08
 
   -0.20071E+08         0.73252E+05         0.00000E+00
    0.73252E+05        -0.50000E+08         0.00000E+00
    0.00000E+00         0.00000E+00        -0.20165E+08
 
   -0.20088E+08         0.77279E+05         0.00000E+00
    0.77279E+05        -0.50002E+08         0.00000E+00
    0.00000E+00         0.00000E+00        -0.20151E+08
 
   -0.20104E+08         0.77592E+05         0.00000E+00
    0.77592E+05        -0.50006E+08         0.00000E+00
    0.00000E+00         0.00000E+00        -0.20140E+08
 
   -0.20118E+08         0.74828E+05         0.00000E+00
    0.74828E+05        -0.50010E+08         0.00000E+00
    0.00000E+00         0.00000E+00        -0.20131E+08
 
   -0.20130E+08         0.69549E+05         0.00000E+00
    0.69549E+05        -0.50015E+08         0.00000E+00
    0.00000E+00         0.00000E+00        -0.20125E+08
 
   -0.20140E+08         0.62192E+05         0.00000E+00
    0.62192E+05        -0.50020E+08         0.00000E+00
    0.00000E+00         0.00000E+00        -0.20122E+08
 
   -0.20146E+08         0.53142E+05         0.00000E+00
    0.53142E+05        -0.50025E+08         0.00000E+00
    0.00000E+00         0.00000E+00        -0.20122E+08
 
   -0.20151E+08         0.42830E+05         0.00000E+00
    0.42830E+05        -0.50030E+08         0.00000E+00
    0.00000E+00         0.00000E+00        -0.20125E+08
 
   -0.20152E+08         0.31733E+05         0.00000E+00
    0.31733E+05        -0.50036E+08         0.00000E+00
    0.00000E+00         0.00000E+00        -0.20130E+08
 
   -0.20153E+08         0.20277E+05         0.00000E+00
    0.20277E+05        -0.50042E+08         0.00000E+00
    0.00000E+00         0.00000E+00        -0.20137E+08
 
   -0.20152E+08         0.87292E+04         0.00000E+00
    0.87292E+04        -0.50048E+08         0.00000E+00
    0.00000E+00         0.00000E+00        -0.20147E+08
 
   -0.19986E+08         0.13163E+05         0.00000E+00
    0.13163E+05        -0.50000E+08         0.00000E+00
    0.00000E+00         0.00000E+00        -0.20251E+08
 
   -0.20004E+08         0.35064E+05         0.00000E+00
    0.35064E+05        -0.50000E+08         0.00000E+00
    0.00000E+00         0.00000E+00        -0.20232E+08
 
   -0.20024E+08         0.51955E+05         0.00000E+00
    0.51955E+05        -0.50000E+08         0.00000E+00
    0.00000E+00         0.00000E+00        -0.20212E+08
 
   -0.20045E+08         0.63679E+05         0.00000E+00
    0.63679E+05        -0.50001E+08         0.00000E+00
    0.00000E+00         0.00000E+00        -0.20193E+08
 
   -0.20066E+08         0.70456E+05         0.00000E+00
    0.70456E+05        -0.50005E+08         0.00000E+00
    0.00000E+00         0.00000E+00        -0.20176E+08
 
   -0.20086E+08         0.72983E+05         0.00000E+00
    0.72983E+05        -0.50010E+08         0.00000E+00
    0.00000E+00         0.00000E+00        -0.20162E+08
 
   -0.20105E+08         0.72182E+05         0.00000E+00
    0.72182E+05        -0.50016E+08         0.00000E+00
    0.00000E+00         0.00000E+00        -0.20152E+08
 
   -0.20122E+08         0.68859E+05         0.00000E+00
    0.68859E+05        -0.50023E+08         0.00000E+00
    0.00000E+00         0.00000E+00        -0.20144E+08
 
   -0.20136E+08         0.63522E+05         0.00000E+00
    0.63522E+05        -0.50030E+08         0.00000E+00
    0.00000E+00         0.00000E+00        -0.20139E+08
 
   -0.20148E+08         0.56410E+05         0.00000E+00
    0.56410E+05        -0.50037E+08         0.00000E+00
    0.00000E+00         0.00000E+00        -0.20137E+08
 
   -0.20156E+08         0.47634E+05         0.00000E+00
    0.47634E+05        -0.50043E+08         0.00000E+00
    0.00000E+00         0.00000E+00        -0.20136E+08
 
   -0.20161E+08         0.37370E+05         0.00000E+00
    0.37370E+05        -0.50049E+08         0.00000E+00
    0.00000E+00         0.00000E+00        -0.20138E+08
 
   -0.20164E+08         0.25998E+05         0.00000E+00
    0.25998E+05        -0.50055E+08         0.00000E+00
    0.00000E+00         0.00000E+00        -0.20143E+08
 
   -0.20165E+08         0.14008E+05         0.00000E+00
    0.14008E+05        -0.50060E+08         0.00000E+00
    0.00000E+00         0.00000E+00        -0.20150E+08
 
   -0.20164E+08         0.17709E+04         0.00000E+00
    0.17709E+04        -0.50067E+08         0.00000E+00
    0.00000E+00         0.00000E+00        -0.20159E+08
 
   -0.19962E+08         0.13370E+05         0.00000E+00
    0.13370E+05        -0.50000E+08         0.00000E+00
    0.00000E+00         0.00000E+00        -0.20276E+08
 
   -0.19985E+08         0.34890E+05         0.00000E+00
    0.34890E+05        -0.50000E+08         0.00000E+00
    0.00000E+00         0.00000E+00        -0.20252E+08
 
   -0.20010E+08         0.50489E+05         0.00000E+00
    0.50489E+05        -0.50001E+08         0.00000E+00
    0.00000E+00         0.00000E+00        -0.20228E+08
 
   -0.20036E+08         0.60170E+05         0.00000E+00
    0.60170E+05        -0.50005E+08         0.00000E+00
    0.00000E+00         0.00000E+00        -0.20206E+08
 
   -0.20062E+08         0.64763E+05         0.00000E+00
    0.64763E+05        -0.50012E+08         0.00000E+00
    0.00000E+00         0.00000E+00        -0.20189E+08
 
   -0.20086E+08         0.65613E+05         0.00000E+00
    0.65613E+05        -0.50020E+08         0.00000E+00
    0.00000E+00         0.00000E+00        -0.20176E+08
 
   -0.20108E+08         0.63912E+05         0.00000E+00
    0.63912E+05        -0.50029E+08         0.00000E+00
    0.00000E+00         0.00000E+00        -0.20166E+08
 
   -0.20126E+08         0.60402E+05         0.00000E+00
    0.60402E+05        -0.50039E+08         0.00000E+00
    0.00000E+00         0.00000E+00        -0.20160E+08
 
   -0.20142E+08         0.55442E+05         0.00000E+00
    0.55442E+05        -0.50048E+08         0.00000E+00
    0.00000E+00         0.00000E+00        -0.20157E+08
 
   -0.20155E+08         0.49101E+05         0.00000E+00
    0.49101E+05        -0.50057E+08         0.00000E+00
    0.00000E+00         0.00000E+00        -0.20155E+08
 
   -0.20165E+08         0.41237E+05         0.00000E+00
    0.41237E+05        -0.50064E+08         0.00000E+00
    0.00000E+00         0.00000E+00        -0.20155E+08
 
   -0.20172E+08         0.31676E+05         0.00000E+00
    0.31676E+05        -0.50070E+08         0.00000E+00
    0.00000E+00         0.00000E+00        -0.20156E+08
 
   -0.20176E+08         0.20503E+05         0.00000E+00
    0.20503E+05        -0.50076E+08         0.00000E+00
    0.00000E+00         0.00000E+00        -0.20159E+08
 
   -0.20177E+08         0.82264E+04         0.00000E+00
    0.82264E+04        -0.50081E+08         0.00000E+00
    0.00000E+00         0.00000E+00        -0.20165E+08
 
   -0.20177E+08        -0.45730E+04         0.00000E+00
   -0.45730E+04        -0.50087E+08         0.00000E+00
    0.00000E+00         0.00000E+00        -0.20173E+08
 
   -0.19937E+08         0.13464E+05         0.00000E+00
    0.13464E+05        -0.50000E+08         0.00000E+00
    0.00000E+00         0.00000E+00        -0.20301E+08
 
   -0.19967E+08         0.33808E+05         0.00000E+00
    0.33808E+05        -0.50001E+08         0.00000E+00
    0.00000E+00         0.00000E+00        -0.20271E+08
 
   -0.19999E+08         0.46834E+05         0.00000E+00
    0.46834E+05        -0.50004E+08         0.00000E+00
    0.00000E+00         0.00000E+00        -0.20243E+08
 
   -0.20031E+08         0.53389E+05         0.00000E+00
    0.53389E+05        -0.50012E+08         0.00000E+00
    0.00000E+00         0.00000E+00        -0.20221E+08
 
   -0.20060E+08         0.55519E+05         0.00000E+00
    0.55519E+05        -0.50022E+08         0.00000E+00
    0.00000E+00         0.00000E+00        -0.20204E+08
 
   -0.20087E+08         0.55027E+05         0.00000E+00
    0.55027E+05        -0.50033E+08         0.00000E+00
    0.00000E+00         0.00000E+00        -0.20193E+08
 
   -0.20110E+08         0.52925E+05         0.00000E+00
    0.52925E+05        -0.50045E+08         0.00000E+00
    0.00000E+00         0.00000E+00        -0.20185E+08
 
   -0.20130E+08         0.49686E+05         0.00000E+00
    0.49686E+05        -0.50057E+08         0.00000E+00
    0.00000E+00         0.00000E+00        -0.20181E+08
 
   -0.20147E+08         0.45486E+05         0.00000E+00
    0.45486E+05        -0.50069E+08         0.00000E+00
    0.00000E+00         0.00000E+00        -0.20178E+08
 
   -0.20162E+08         0.40291E+05         0.00000E+00
    0.40291E+05        -0.50079E+08         0.00000E+00
    0.00000E+00         0.00000E+00        -0.20177E+08
 
   -0.20173E+08         0.33875E+05         0.00000E+00
    0.33875E+05        -0.50087E+08         0.00000E+00
    0.00000E+00         0.00000E+00        -0.20177E+08
 
   -0.20182E+08         0.25803E+05         0.00000E+00
    0.25803E+05        -0.50094E+08         0.00000E+00
    0.00000E+00         0.00000E+00        -0.20178E+08
 
   -0.20187E+08         0.15624E+05         0.00000E+00
    0.15624E+05        -0.50099E+08         0.00000E+00
    0.00000E+00         0.00000E+00        -0.20179E+08
 
   -0.20189E+08         0.34929E+04         0.00000E+00
    0.34929E+04        -0.50104E+08         0.00000E+00
    0.00000E+00         0.00000E+00        -0.20182E+08
 
   -0.20190E+08        -0.97317E+04         0.00000E+00
   -0.97317E+04        -0.50108E+08         0.00000E+00
    0.00000E+00         0.00000E+00        -0.20187E+08
 
   -0.19914E+08         0.13327E+05         0.00000E+00
    0.13327E+05        -0.50000E+08         0.00000E+00
    0.00000E+00         0.00000E+00        -0.20325E+08
 
   -0.19952E+08         0.30828E+05         0.00000E+00
    0.30828E+05        -0.50003E+08         0.00000E+00
    0.00000E+00         0.00000E+00        -0.20289E+08
 
   -0.19991E+08         0.39392E+05         0.00000E+00
    0.39392E+05        -0.50010E+08         0.00000E+00
    0.00000E+00         0.00000E+00        -0.20259E+08
 
   -0.20028E+08         0.42347E+05         0.00000E+00
    0.42347E+05        -0.50022E+08         0.00000E+00
    0.00000E+00         0.00000E+00        -0.20237E+08
 
   -0.20060E+08         0.42651E+05         0.00000E+00
    0.42651E+05        -0.50036E+08         0.00000E+00
    0.00000E+00         0.00000E+00        -0.20223E+08
 
   -0.20089E+08         0.41582E+05         0.00000E+00
    0.41582E+05        -0.50050E+08         0.00000E+00
    0.00000E+00         0.00000E+00        -0.20214E+08
 
   -0.20113E+08         0.39660E+05         0.00000E+00
    0.39660E+05        -0.50065E+08         0.00000E+00
    0.00000E+00         0.00000E+00        -0.20208E+08
 
   -0.20134E+08         0.37093E+05         0.00000E+00
    0.37093E+05        -0.50079E+08         0.00000E+00
    0.00000E+00         0.00000E+00        -0.20205E+08
 
   -0.20151E+08         0.33931E+05         0.00000E+00
    0.33931E+05        -0.50091E+08         0.00000E+00
    0.00000E+00         0.00000E+00        -0.20204E+08
 
   -0.20167E+08         0.30109E+05         0.00000E+00
    0.30109E+05        -0.50103E+08         0.00000E+00
    0.00000E+00         0.00000E+00        -0.20204E+08
 
   -0.20179E+08         0.25427E+05         0.00000E+00
    0.25427E+05        -0.50113E+08         0.00000E+00
    0.00000E+00         0.00000E+00        -0.20204E+08
 
   -0.20190E+08         0.19469E+05         0.00000E+00
    0.19469E+05        -0.50120E+08         0.00000E+00
    0.00000E+00         0.00000E+00        -0.20204E+08
 
   -0.20197E+08         0.11466E+05         0.00000E+00
    0.11466E+05        -0.50126E+08         0.00000E+00
    0.00000E+00         0.00000E+00        -0.20203E+08
 
   -0.20202E+08         0.50895E+03         0.00000E+00
    0.50895E+03        -0.50129E+08         0.00000E+00
    0.00000E+00         0.00000E+00        -0.20203E+08
 
   -0.20204E+08        -0.12873E+05         0.00000E+00
   -0.12873E+05        -0.50130E+08         0.00000E+00
    0.00000E+00         0.00000E+00        -0.20203E+08
 
   -0.19893E+08         0.12291E+05         0.00000E+00
    0.12291E+05        -0.50001E+08         0.00000E+00
    0.00000E+00         0.00000E+00        -0.20347E+08
 
   -0.19942E+08         0.23396E+05         0.00000E+00
    0.23396E+05        -0.50008E+08         0.00000E+00
    0.00000E+00         0.00000E+00        -0.20307E+08
 
   -0.19988E+08         0.26521E+05         0.00000E+00
    0.26521E+05        -0.50022E+08         0.00000E+00
    0.00000E+00         0.00000E+00        -0.20278E+08
 
   -0.20027E+08         0.27211E+05         0.00000E+00
    0.27211E+05        -0.50038E+08         0.00000E+00
    0.00000E+00         0.00000E+00        -0.20259E+08
 
   -0.20061E+08         0.26875E+05         0.00000E+00
    0.26875E+05        -0.50054E+08         0.00000E+00
    0.00000E+00         0.00000E+00        -0.20247E+08
 
   -0.20090E+08         0.25961E+05         0.00000E+00
    0.25961E+05        -0.50071E+08         0.00000E+00
    0.00000E+00         0.00000E+00        -0.20239E+08
 
   -0.20115E+08         0.24654E+05         0.00000E+00
    0.24654E+05        -0.50087E+08         0.00000E+00
    0.00000E+00         0.00000E+00        -0.20236E+08
 
   -0.20136E+08         0.23025E+05         0.00000E+00
    0.23025E+05        -0.50102E+08         0.00000E+00
    0.00000E+00         0.00000E+00        -0.20234E+08
 
   -0.20154E+08         0.21077E+05         0.00000E+00
    0.21077E+05        -0.50116E+08         0.00000E+00
    0.00000E+00         0.00000E+00        -0.20234E+08
 
   -0.20170E+08         0.18753E+05         0.00000E+00
    0.18753E+05        -0.50129E+08         0.00000E+00
    0.00000E+00         0.00000E+00        -0.20235E+08
 
   -0.20184E+08         0.15916E+05         0.00000E+00
    0.15916E+05        -0.50140E+08         0.00000E+00
    0.00000E+00         0.00000E+00        -0.20236E+08
 
   -0.20195E+08         0.12307E+05         0.00000E+00
    0.12307E+05        -0.50148E+08         0.00000E+00
    0.00000E+00         0.00000E+00        -0.20235E+08
 
   -0.20205E+08         0.73684E+04         0.00000E+00
    0.73684E+04        -0.50154E+08         0.00000E+00
    0.00000E+00         0.00000E+00        -0.20233E+08
 
   -0.20213E+08        -0.21122E+03         0.00000E+00
   -0.21122E+03        -0.50156E+08         0.00000E+00
    0.00000E+00         0.00000E+00        -0.20228E+08
 
   -0.20217E+08        -0.12655E+05         0.00000E+00
   -0.12655E+05        -0.50155E+08         0.00000E+00
    0.00000E+00         0.00000E+00        -0.20222E+08
 
   -0.19879E+08         0.63058E+04         0.00000E+00
    0.63058E+04        -0.50009E+08         0.00000E+00
    0.00000E+00         0.00000E+00        -0.20372E+08
 
   -0.19939E+08         0.84890E+04         0.00000E+00
    0.84890E+04        -0.50022E+08         0.00000E+00
    0.00000E+00         0.00000E+00        -0.20329E+08
 
   -0.19987E+08         0.92482E+04         0.00000E+00
    0.92482E+04        -0.50040E+08         0.00000E+00
    0.00000E+00         0.00000E+00        -0.20303E+08
 
   -0.20027E+08         0.93764E+04         0.00000E+00
    0.93764E+04        -0.50058E+08         0.00000E+00
    0.00000E+00         0.00000E+00        -0.20286E+08
 
   -0.20062E+08         0.91959E+04         0.00000E+00
    0.91959E+04        -0.50077E+08         0.00000E+00
    0.00000E+00         0.00000E+00        -0.20276E+08
 
   -0.20091E+08         0.88505E+04         0.00000E+00
    0.88505E+04        -0.50095E+08         0.00000E+00
    0.00000E+00         0.00000E+00        -0.20270E+08
 
   -0.20116E+08         0.83911E+04         0.00000E+00
    0.83911E+04        -0.50112E+08         0.00000E+00
    0.00000E+00         0.00000E+00        -0.20267E+08
 
   -0.20137E+08         0.78353E+04         0.00000E+00
    0.78353E+04        -0.50128E+08         0.00000E+00
    0.00000E+00         0.00000E+00        -0.20267E+08
 
   -0.20156E+08         0.71801E+04         0.00000E+00
    0.71801E+04        -0.50143E+08         0.00000E+00
    0.00000E+00         0.00000E+00        -0.20268E+08
 
   -0.20172E+08         0.64027E+04         0.00000E+00
    0.64027E+04        -0.50157E+08         0.00000E+00
    0.00000E+00         0.00000E+00        -0.20270E+08
 
   -0.20186E+08         0.54542E+04         0.00000E+00
    0.54542E+04        -0.50168E+08         0.00000E+00
    0.00000E+00         0.00000E+00        -0.20271E+08
 
   -0.20198E+08         0.42414E+04         0.00000E+00
    0.42414E+04        -0.50178E+08         0.00000E+00
    0.00000E+00         0.00000E+00        -0.20272E+08
 
   -0.20209E+08         0.25887E+04         0.00000E+00
    0.25887E+04        -0.50185E+08         0.00000E+00
    0.00000E+00         0.00000E+00        -0.20270E+08
 
   -0.20220E+08         0.85343E+01         0.00000E+00
    0.85343E+01        -0.50188E+08         0.00000E+00
    0.00000E+00         0.00000E+00        -0.20263E+08
 
   -0.20228E+08        -0.56934E+04         0.00000E+00
   -0.56934E+04        -0.50181E+08         0.00000E+00
    0.00000E+00         0.00000E+00        -0.20246E+08
 
TENSORS stresstot double 
   -0.30273E+08         0.15138E+03         0.00000E+00
    0.15138E+03        -0.60000E+08         0.00000E+00
    0.00000E+00         0.00000E+00        -0.29964E+08
 
   -0.30247E+08         0.43446E+03         0.00000E+00
    0.43446E+03        -0.59999E+08         0.00000E+00
    0.00000E+00         0.00000E+00        -0.29989E+08
 
   -0.30222E+08         0.69329E+03         0.00000E+00
    0.69329E+03        -0.59998E+08         0.00000E+00
    0.00000E+00         0.00000E+00        -0.30011E+08
 
   -0.30200E+08         0.92909E+03         0.00000E+00
    0.92909E+03        -0.59996E+08         0.00000E+00
    0.00000E+00         0.00000E+00        -0.30031E+08
 
   -0.30179E+08         0.11431E+04         0.00000E+00
    0.11431E+04        -0.59994E+08         0.00000E+00
    0.00000E+00         0.00000E+00        -0.30049E+08
 
   -0.30161E+08         0.13366E+04         0.00000E+00
    0.13366E+04        -0.59992E+08         0.00000E+00
    0.00000E+00         0.00000E+00        -0.30064E+08
 
   -0.30145E+08         0.15110E+04         0.00000E+00
    0.15110E+04        -0.59989E+08         0.00000E+00
    0.00000E+00         0.00000E+00        -0.30076E+08
 
   -0.30131E+08         0.16673E+04         0.00000E+00
    0.16673E+04        -0.59986E+08         0.00000E+00
    0.00000E+00         0.00000E+00        -0.30086E+08
 
   -0.30118E+08         0.18068E+04         0.00000E+00
    0.18068E+04        -0.59982E+08         0.00000E+00
    0.00000E+00         0.00000E+00        -0.30094E+08
 
   -0.30108E+08         0.19308E+04         0.00000E+00
    0.19308E+04        -0.59979E+08         0.00000E+00
    0.00000E+00         0.00000E+00        -0.30099E+08
 
   -0.30100E+08         0.20409E+04         0.00000E+00
    0.20409E+04        -0.59975E+08         0.00000E+00
    0.00000E+00         0.00000E+00        -0.30102E+08
 
   -0.30094E+08         0.21386E+04         0.00000E+00
    0.21386E+04        -0.59970E+08         0.00000E+00
    0.00000E+00         0.00000E+00        -0.30102E+08
 
   -0.30090E+08         0.22257E+04         0.00000E+00
    0.22257E+04        -0.59966E+08         0.00000E+00
    0.00000E+00         0.00000E+00        -0.30101E+08
 
   -0.30088E+08         0.23043E+04         0.00000E+00
    0.23043E+04        -0.59962E+08         0.00000E+00
    0.00000E+00         0.00000E+00        -0.30097E+08
 
   -0.30087E+08         0.23764E+04         0.00000E+00
    0.23764E+04        -0.59957E+08         0.00000E+00
    0.00000E+00         0.00000E+00        -0.30091E+08
 
   -0.30273E+08         0.45802E+03         0.00000E+00
    0.45802E+03        -0.60000E+08         0.00000E+00
    0.00000E+00         0.00000E+00        -0.29964E+08
 
   -0.30246E+08         0.13135E+04         0.00000E+00
    0.13135E+04        -0.59999E+08         0.00000E+00
    0.00000E+00         0.00000E+00        -0.29989E+08
 
   -0.30222E+08         0.20943E+04         0.00000E+00
    0.20943E+04        -0.59998E+08         0.00000E+00
    0.00000E+00         0.00000E+00        -0.30012E+08
 
   -0.30199E+08         0.28044E+04         0.00000E+00
    0.28044E+04        -0.59996E+08         0.00000E+00
    0.00000E+00         0.00000E+00        -0.30032E+08
 
   -0.30179E+08         0.34476E+04         0.00000E+00
    0.34476E+04        -0.59994E+08         0.00000E+00
    0.00000E+00         0.00000E+00        -0.30049E+08
 
   -0.30161E+08         0.40278E+04         0.00000E+00
    0.40278E+04        -0.59992E+08         0.00000E+00
    0.00000E+00         0.00000E+00        -0.30064E+08
 
   -0.30144E+08         0.45496E+04         0.00000E+00
    0.45496E+04        -0.59989E+08         0.00000E+00
    0.00000E+00         0.00000E+00        -0.30076E+08
 
   -0.30130E+08         0.50162E+04         0.00000E+00
    0.50162E+04        -0.59986E+08         0.00000E+00
    0.00000E+00         0.00000E+00        -0.30086E+08
 
   -0.30118E+08         0.54316E+04         0.00000E+00
    0.54316E+04        -0.59982E+08         0.00000E+00
    0.00000E+00         0.00000E+00        -0.30094E+08
 
   -0.30108E+08         0.58000E+04         0.00000E+00
    0.58000E+04        -0.59978E+08         0.00000E+00
    0.00000E+00         0.00000E+00        -0.30099E+08
 
   -0.30100E+08         0.61261E+04         0.00000E+00
    0.61261E+04        -0.59974E+08         0.00000E+00
    0.00000E+00         0.00000E+00        -0.30102E+08
 
   -0.30094E+08         0.64149E+04         0.00000E+00
    0.64149E+04        -0.59970E+08         0.00000E+00
    0.00000E+00         0.00000E+00        -0.30102E+08
 
   -0.30090E+08         0.66719E+04         0.00000E+00
    0.66719E+04        -0.59966E+08         0.00000E+00
    0.00000E+00         0.00000E+00        -0.30101E+08
 
   -0.30087E+08         0.69030E+04         0.00000E+00
    0.69030E+04        -0.59961E+08         0.00000E+00
    0.00000E+00         0.00000E+00        -0.30097E+08
 
   -0.30087E+08         0.71151E+04         0.00000E+00
    0.71151E+04        -0.59957E+08         0.00000E+00
    0.00000E+00         0.00000E+00        -0.30091E+08
 
   -0.30271E+08         0.77625E+03         0.00000E+00
    0.77625E+03        -0.60000E+08         0.00000E+00
    0.00000E+00         0.00000E+00        -0.29965E+08
 
   -0.30245E+08         0.22225E+04         0.00000E+00
    0.22225E+04        -0.59999E+08         0.00000E+00
    0.00000E+00         0.00000E+00        -0.29990E+08
 
   -0.30221E+08         0.35384E+04         0.00000E+00
    0.35384E+04        -0.59998E+08         0.00000E+00
    0.00000E+00         0.00000E+00        -0.30013E+08
 
   -0.30198E+08         0.47308E+04         0.00000E+00
    0.47308E+04        -0.59996E+08         0.00000E+00
    0.00000E+00         0.00000E+00        -0.30032E+08
 
   -0.30178E+08         0.58067E+04         0.00000E+00
    0.58067E+04        -0.59994E+08         0.00000E+00
    0.00000E+00         0.00000E+00        -0.30050E+08
 
   -0.30160E+08         0.67730E+04         0.00000E+00
    0.67730E+04        -0.59991E+08         0.00000E+00
    0.00000E+00         0.00000E+00        -0.30064E+08
 
   -0.30144E+08         0.76379E+04         0.00000E+00
    0.76379E+04        -0.59988E+08         0.00000E+00
    0.00000E+00         0.00000E+00        -0.30076E+08
 
   -0.30130E+08         0.84078E+04         0.00000E+00
    0.84078E+04        -0.59985E+08         0.00000E+00
    0.00000E+00         0.00000E+00        -0.30086E+08
 
   -0.30118E+08         0.90897E+04         0.00000E+00
    0.90897E+04        -0.59982E+08         0.00000E+00
    0.00000E+00         0.00000E+00        -0.30093E+08
 
   -0.30108E+08         0.96914E+04         0.00000E+00
    0.96914E+04        -0.59978E+08         0.00000E+00
    0.00000E+00         0.00000E+00        -0.30098E+08
 
   -0.30100E+08         0.10221E+05         0.00000E+00
    0.10221E+05        -0.59974E+08         0.00000E+00
    0.00000E+00         0.00000E+00        -0.30101E+08
 
   -0.30093E+08         0.10688E+05         0.00000E+00
    0.10688E+05        -0.59970E+08         0.00000E+00
    0.00000E+00         0.00000E+00        -0.30102E+08
 
   -0.30089E+08         0.11101E+05         0.00000E+00
    0.11101E+05        -0.59965E+08         0.00000E+00
    0.00000E+00         0.00000E+00        -0.30100E+08
 
   -0.30087E+08         0.11472E+05         0.00000E+00
    0.11472E+05        -0.59961E+08         0.00000E+00
    0.00000E+00         0.00000E+00        -0.30097E+08
 
   -0.30087E+08         0.11811E+05         0.00000E+00
    0.11811E+05        -0.59956E+08         0.00000E+00
    0.00000E+00         0.00000E+00        -0.30091E+08
 
   -0.30270E+08         0.11136E+04         0.00000E+00
    0.11136E+04        -0.60000E+08         0.00000E+00
    0.00000E+00         0.00000E+00        -0.29967E+08
 
   -0.30243E+08         0.31811E+04         0.00000E+00
    0.31811E+04        -0.59999E+08         0.00000E+00
    0.00000E+00         0.00000E+00        -0.29992E+08
 
   -0.30219E+08         0.50536E+04         0.00000E+00
    0.50536E+04        -0.59998E+08         0.00000E+00
    0.00000E+00         0.00000E+00        -0.30014E+08
 
   -0.30197E+08         0.67414E+04         0.00000E+00
    0.67414E+04        -0.59996E+08         0.00000E+00
    0.00000E+00         0.00000E+00        -0.30033E+08
 
   -0.30177E+08         0.82554E+04         0.00000E+00
    0.82554E+04        -0.59994E+08         0.00000E+00
    0.00000E+00         0.00000E+00        -0.30050E+08
 
   -0.30159E+08         0.96066E+04         0.00000E+00
    0.96066E+04        -0.59991E+08         0.00000E+00
    0.00000E+00         0.00000E+00        -0.30065E+08
 
   -0.30143E+08         0.10807E+05         0.00000E+00
    0.10807E+05        -0.59988E+08         0.00000E+00
    0.00000E+00         0.00000E+00        -0.30077E+08
 
   -0.30129E+08         0.11869E+05         0.00000E+00
    0.11869E+05        -0.59984E+08         0.00000E+00
    0.00000E+00         0.00000E+00        -0.30086E+08
 
   -0.30117E+08         0.12802E+05         0.00000E+00
    0.12802E+05        -0.59981E+08         0.00000E+00
    0.00000E+00         0.00000E+00        -0.30093E+08
 
   -0.30107E+08         0.13618E+05         0.00000E+00
    0.13618E+05        -0.59977E+08         0.00000E+00
    0.00000E+00         0.00000E+00        -0.30098E+08
 
   -0.30099E+08         0.14331E+05         0.00000E+00
    0.14331E+05        -0.59973E+08         0.00000E+00
    0.00000E+00         0.00000E+00        -0.30101E+08
 
   -0.30093E+08         0.14954E+05         0.00000E+00
    0.14954E+05        -0.59969E+08         0.00000E+00
    0.00000E+00         0.00000E+00        -0.30101E+08
 
   -0.30089E+08         0.15501E+05         0.00000E+00
    0.15501E+05        -0.59965E+08         0.00000E+00
    0.00000E+00         0.00000E+00        -0.30100E+08
 
   -0.30087E+08         0.15988E+05         0.00000E+00
    0.15988E+05        -0.59960E+08         0.00000E+00
    0.00000E+00         0.00000E+00        -0.30096E+08
 
   -0.30087E+08         0.16432E+05         0.00000E+00
    0.16432E+05        -0.59956E+08         0.00000E+00
    0.00000E+00         0.00000E+00        -0.30090E+08
 
   -0.30267E+08         0.14774E+04         0.00000E+00
    0.14774E+04        -0.60000E+08         0.00000E+00
    0.00000E+00         0.00000E+00        -0.29969E+08
 
   -0.30241E+08         0.42080E+04         0.00000E+00
    0.42080E+04        -0.59999E+08         0.00000E+00
    0.00000E+00         0.00000E+00        -0.29994E+08
 
   -0.30217E+08         0.66663E+04         0.00000E+00
    0.66663E+04        -0.59998E+08         0.00000E+00
    0.00000E+00         0.00000E+00        -0.30016E+08
 
   -0.30195E+08         0.88673E+04         0.00000E+00
    0.88673E+04        -0.59996E+08         0.00000E+00
    0.00000E+00         0.00000E+00        -0.30035E+08
 
   -0.30175E+08         0.10827E+05         0.00000E+00
    0.10827E+05        -0.59993E+08         0.00000E+00
    0.00000E+00         0.00000E+00        -0.30051E+08
 
   -0.30157E+08         0.12561E+05         0.00000E+00
    0.12561E+05        -0.59990E+08         0.00000E+00
    0.00000E+00         0.00000E+00        -0.30065E+08
 
   -0.30142E+08         0.14087E+05         0.00000E+00
    0.14087E+05        -0.59987E+08         0.00000E+00
    0.00000E+00         0.00000E+00        -0.30077E+08
 
   -0.30128E+08         0.15423E+05         0.00000E+00
    0.15423E+05        -0.59984E+08         0.00000E+00
    0.00000E+00         0.00000E+00        -0.30086E+08
 
   -0.30116E+08         0.16585E+05         0.00000E+00
    0.16585E+05        -0.59980E+08         0.00000E+00
    0.00000E+00         0.00000E+00        -0.30093E+08
 
   -0.30106E+08         0.17591E+05         0.00000E+00
    0.17591E+05        -0.59976E+08         0.00000E+00
    0.00000E+00         0.00000E+00        -0.30098E+08
 
   -0.30098E+08         0.18458E+05         0.00000E+00
    0.18458E+05        -0.59972E+08         0.00000E+00
    0.00000E+00         0.00000E+00        -0.30100E+08
 
   -0.30092E+08         0.19207E+05         0.00000E+00
    0.19207E+05        -0.59968E+08         0.00000E+00
    0.00000E+00         0.00000E+00        -0.30101E+08
 
   -0.30088E+08         0.19856E+05         0.00000E+00
    0.19856E+05        -0.59964E+08         0.00000E+00
    0.00000E+00         0.00000E+00        -0.30099E+08
 
   -0.30086E+08         0.20428E+05         0.00000E+00
    0.20428E+05        -0.59959E+08         0.00000E+00
    0.00000E+00         0.00000E+00        -0.30095E+08
 
   -0.30086E+08         0.20946E+05         0.00000E+00
    0.20946E+05        -0.59955E+08         0.00000E+00
    0.00000E+00         0.00000E+00        -0.30090E+08
 
   -0.30264E+08         0.18744E+04         0.00000E+00
    0.18744E+04        -0.60000E+08         0.00000E+00
    0.00000E+00         0.00000E+00        -0.29973E+08
 
   -0.30238E+08         0.53205E+04         0.00000E+00
    0.53205E+04        -0.59999E+08         0.00000E+00
    0.00000E+00         0.00000E+00        -0.29997E+08
 
   -0.30215E+08         0.84012E+04         0.00000E+00
    0.84012E+04        -0.59997E+08         0.00000E+00
    0.00000E+00         0.00000E+00        -0.30018E+08
 
   -0.30193E+08         0.11137E+05         0.00000E+00
    0.11137E+05        -0.59995E+08         0.00000E+00
    0.00000E+00         0.00000E+00        -0.30037E+08
 
   -0.30173E+08         0.13551E+05         0.00000E+00
    0.13551E+05        -0.59993E+08         0.00000E+00
    0.00000E+00         0.00000E+00        -0.30053E+08
 
   -0.30156E+08         0.15665E+05         0.00000E+00
    0.15665E+05        -0.59990E+08         0.00000E+00
    0.00000E+00         0.00000E+00        -0.30066E+08
 
   -0.30140E+08         0.17503E+05         0.00000E+00
    0.17503E+05        -0.59986E+08         0.00000E+00
    0.00000E+00         0.00000E+00        -0.30077E+08
 
   -0.30126E+08         0.19093E+05         0.00000E+00
    0.19093E+05        -0.59983E+08         0.00000E+00
    0.00000E+00         0.00000E+00        -0.30086E+08
 
   -0.30115E+08         0.20455E+05         0.00000E+00
    0.20455E+05        -0.59979E+08         0.00000E+00
    0.00000E+00         0.00000E+00        -0.30093E+08
 
   -0.30105E+08         0.21616E+05         0.00000E+00
    0.21616E+05        -0.59975E+08         0.00000E+00
    0.00000E+00         0.00000E+00        -0.30097E+08
 
   -0.30097E+08         0.22601E+05         0.00000E+00
    0.22601E+05        -0.59971E+08         0.00000E+00
    0.00000E+00         0.00000E+00        -0.30100E+08
 
   -0.30092E+08         0.23436E+05         0.00000E+00
    0.23436E+05        -0.59967E+08         0.00000E+00
    0.00000E+00         0.00000E+00        -0.30100E+08
 
   -0.30088E+08         0.24147E+05         0.00000E+00
    0.24147E+05        -0.59962E+08         0.00000E+00
    0.00000E+00         0.00000E+00        -0.30098E+08
 
   -0.30086E+08         0.24763E+05         0.00000E+00
    0.24763E+05        -0.59958E+08         0.00000E+00
    0.00000E+00         0.00000E+00        -0.30095E+08
 
   -0.30086E+08         0.25316E+05         0.00000E+00
    0.25316E+05        -0.59954E+08         0.00000E+00
    0.00000E+00         0.00000E+00        -0.30089E+08
 
   -0.30260E+08         0.23106E+04         0.00000E+00
    0.23106E+04        -0.60000E+08         0.00000E+00
    0.00000E+00         0.00000E+00        -0.29977E+08
 
   -0.30235E+08         0.65341E+04         0.00000E+00
    0.65341E+04        -0.59999E+08         0.00000E+00
    0.00000E+00         0.00000E+00        -0.30000E+08
 
   -0.30211E+08         0.10280E+05         0.00000E+00
    0.10280E+05        -0.59997E+08         0.00000E+00
    0.00000E+00         0.00000E+00        -0.30021E+08
 
   -0.30190E+08         0.13576E+05         0.00000E+00
    0.13576E+05        -0.59995E+08         0.00000E+00
    0.00000E+00         0.00000E+00        -0.30039E+08
 
   -0.30171E+08         0.16453E+05         0.00000E+00
    0.16453E+05        -0.59992E+08         0.00000E+00
    0.00000E+00         0.00000E+00        -0.30054E+08
 
   -0.30153E+08         0.18943E+05         0.00000E+00
    0.18943E+05        -0.59989E+08         0.00000E+00
    0.00000E+00         0.00000E+00        -0.30067E+08
 
   -0.30138E+08         0.21077E+05         0.00000E+00
    0.21077E+05        -0.59985E+08         0.00000E+00
    0.00000E+00         0.00000E+00        -0.30078E+08
 
   -0.30125E+08         0.22893E+05         0.00000E+00
    0.22893E+05        -0.59982E+08         0.00000E+00
    0.00000E+00         0.00000E+00        -0.30086E+08
 
   -0.30113E+08         0.24422E+05         0.00000E+00
    0.24422E+05        -0.59978E+08         0.00000E+00
    0.00000E+00         0.00000E+00        -0.30093E+08
 
   -0.30104E+08         0.25697E+05         0.00000E+00
    0.25697E+05        -0.59974E+08         0.00000E+00
    0.00000E+00         0.00000E+00        -0.30097E+08
 
   -0.30096E+08         0.26754E+05         0.00000E+00
    0.26754E+05        -0.59970E+08         0.00000E+00
    0.00000E+00         0.00000E+00        -0.30099E+08
 
   -0.30091E+08         0.27626E+05         0.00000E+00
    0.27626E+05        -0.59965E+08         0.00000E+00
    0.00000E+00         0.00000E+00        -0.30099E+08
 
   -0.30087E+08         0.28349E+05         0.00000E+00
    0.28349E+05        -0.59961E+08         0.00000E+00
    0.00000E+00         0.00000E+00        -0.30097E+08
 
   -0.30085E+08         0.28960E+05         0.00000E+00
    0.28960E+05        -0.59957E+08         0.00000E+00
    0.00000E+00         0.00000E+00        -0.30094E+08
 
   -0.30085E+08         0.29497E+05         0.00000E+00
    0.29497E+05        -0.59953E+08         0.00000E+00
    0.00000E+00         0.00000E+00        -0.30089E+08
 
   -0.30255E+08         0.27912E+04         0.00000E+00
    0.27912E+04        -0.60000E+08         0.00000E+00
    0.00000E+00         0.00000E+00        -0.29981E+08
 
   -0.30230E+08         0.78618E+04         0.00000E+00
    0.78618E+04        -0.59999E+08         0.00000E+00
    0.00000E+00         0.00000E+00        -0.30004E+08
 
   -0.30207E+08         0.12321E+05         0.00000E+00
    0.12321E+05        -0.59997E+08         0.00000E+00
    0.00000E+00         0.00000E+00        -0.30024E+08
 
   -0.30187E+08         0.16206E+05         0.00000E+00
    0.16206E+05        -0.59994E+08         0.00000E+00
    0.00000E+00         0.00000E+00        -0.30042E+08
 
   -0.30168E+08         0.19556E+05         0.00000E+00
    0.19556E+05        -0.59991E+08         0.00000E+00
    0.00000E+00         0.00000E+00        -0.30056E+08
 
   -0.30151E+08         0.22415E+05         0.00000E+00
    0.22415E+05        -0.59988E+08         0.00000E+00
    0.00000E+00         0.00000E+00        -0.30069E+08
 
   -0.30136E+08         0.24825E+05         0.00000E+00
    0.24825E+05        -0.59984E+08         0.00000E+00
    0.00000E+00         0.00000E+00        -0.30079E+08
 
   -0.30123E+08         0.26836E+05         0.00000E+00
    0.26836E+05        -0.59980E+08         0.00000E+00
    0.00000E+00         0.00000E+00        -0.30087E+08
 
   -0.30112E+08         0.28490E+05         0.00000E+00
    0.28490E+05        -0.59976E+08         0.00000E+00
    0.00000E+00         0.00000E+00        -0.30092E+08
 
   -0.30103E+08         0.29832E+05         0.00000E+00
    0.29832E+05        -0.59972E+08         0.00000E+00
    0.00000E+00         0.00000E+00        -0.30096E+08
 
   -0.30095E+08         0.30907E+05         0.00000E+00
    0.30907E+05        -0.59968E+08         0.00000E+00
    0.00000E+00         0.00000E+00        -0.30098E+08
 
   -0.30090E+08         0.31760E+05         0.00000E+00
    0.31760E+05        -0.59964E+08         0.00000E+00
    0.00000E+00         0.00000E+00        -0.30098E+08
 
   -0.30086E+08         0.32434E+05         0.00000E+00
    0.32434E+05        -0.59960E+08         0.00000E+00
    0.00000E+00         0.00000E+00        -0.30096E+08
 
   -0.30085E+08         0.32978E+05         0.00000E+00
    0.32978E+05        -0.59956E+08         0.00000E+00
    0.00000E+00         0.00000E+00        -0.30093E+08
 
   -0.30085E+08         0.33442E+05         0.00000E+00
    0.33442E+05        -0.59952E+08         0.00000E+00
    0.00000E+00         0.00000E+00        -0.30088E+08
 
   -0.30249E+08         0.33200E+04         0.00000E+00
    0.33200E+04        -0.60000E+08         0.00000E+00
    0.00000E+00         0.00000E+00        -0.29987E+08
 
   -0.30225E+08         0.93131E+04         0.00000E+00
    0.93131E+04        -0.59999E+08         0.00000E+00
    0.00000E+00         0.00000E+00        -0.30009E+08
 
   -0.30203E+08         0.14537E+05         0.00000E+00
    0.14537E+05        -0.59997E+08         0.00000E+00
    0.00000E+00         0.00000E+00        -0.30029E+08
 
   -0.30183E+08         0.19040E+05         0.00000E+00
    0.19040E+05        -0.59994E+08         0.00000E+00
    0.00000E+00         0.00000E+00        -0.30045E+08
 
   -0.30165E+08         0.22873E+05         0.00000E+00
    0.22873E+05        -0.59991E+08         0.00000E+00
    0.00000E+00         0.00000E+00        -0.30059E+08
 
   -0.30148E+08         0.26093E+05         0.00000E+00
    0.26093E+05        -0.59987E+08         0.00000E+00
    0.00000E+00         0.00000E+00        -0.30070E+08
 
   -0.30134E+08         0.28758E+05         0.00000E+00
    0.28758E+05        -0.59983E+08         0.00000E+00
    0.00000E+00         0.00000E+00        -0.30080E+08
 
   -0.30121E+08         0.30927E+05         0.00000E+00
    0.30927E+05        -0.59979E+08         0.00000E+00
    0.00000E+00         0.00000E+00        -0.30087E+08
 
   -0.30110E+08         0.32660E+05         0.00000E+00
    0.32660E+05        -0.59975E+08         0.00000E+00
    0.00000E+00         0.00000E+00        -0.30092E+08
 
   -0.30102E+08         0.34013E+05         0.00000E+00
    0.34013E+05        -0.59971E+08         0.00000E+00
    0.00000E+00         0.00000E+00        -0.30095E+08
 
   -0.30094E+08         0.35044E+05         0.00000E+00
    0.35044E+05        -0.59967E+08         0.00000E+00
    0.00000E+00         0.00000E+00        -0.30097E+08
 
   -0.30089E+08         0.35809E+05         0.00000E+00
    0.35809E+05        -0.59963E+08         0.00000E+00
    0.00000E+00         0.00000E+00        -0.30097E+08
 
   -0.30086E+08         0.36365E+05         0.00000E+00
    0.36365E+05        -0.59959E+08         0.00000E+00
    0.00000E+00         0.00000E+00        -0.30095E+08
 
   -0.30084E+08         0.36772E+05         0.00000E+00
    0.36772E+05        -0.59955E+08         0.00000E+00
    0.00000E+00         0.00000E+00        -0.30092E+08
 
   -0.30084E+08         0.37094E+05         0.00000E+00
    0.37094E+05        -0.59951E+08         0.00000E+00
    0.00000E+00         0.00000E+00        -0.30087E+08
 
   -0.30242E+08         0.38993E+04         0.00000E+00
    0.38993E+04        -0.60000E+08         0.00000E+00
    0.00000E+00         0.00000E+00        -0.29994E+08
 
   -0.30219E+08         0.10893E+05         0.00000E+00
    0.10893E+05        -0.59998E+08         0.00000E+00
    0.00000E+00         0.00000E+00        -0.30015E+08
 
   -0.30198E+08         0.16935E+05         0.00000E+00
    0.16935E+05        -0.59996E+08         0.00000E+00
    0.00000E+00         0.00000E+00        -0.30033E+08
 
   -0.30178E+08         0.22086E+05         0.00000E+00
    0.22086E+05        -0.59993E+08         0.00000E+00
    0.00000E+00         0.00000E+00        -0.30049E+08
 
   -0.30161E+08         0.26412E+05         0.00000E+00
    0.26412E+05        -0.59990E+08         0.00000E+00
    0.00000E+00         0.00000E+00        -0.30062E+08
 
   -0.30145E+08         0.29985E+05         0.00000E+00
    0.29985E+05        -0.59986E+08         0.00000E+00
    0.00000E+00         0.00000E+00        -0.30072E+08
 
   -0.30131E+08         0.32877E+05         0.00000E+00
    0.32877E+05        -0.59982E+08         0.00000E+00
    0.00000E+00         0.00000E+00        -0.30081E+08
 
   -0.30119E+08         0.35164E+05         0.00000E+00
    0.35164E+05        -0.59978E+08         0.00000E+00
    0.00000E+00         0.00000E+00        -0.30087E+08
 
   -0.30109E+08         0.36923E+05         0.00000E+00
    0.36923E+05        -0.59974E+08         0.00000E+00
    0.00000E+00         0.00000E+00        -0.30092E+08
 
   -0.30100E+08         0.38224E+05         0.00000E+00
    0.38224E+05        -0.59969E+08         0.00000E+00
    0.00000E+00         0.00000E+00        -0.30095E+08
 
   -0.30094E+08         0.39140E+05         0.00000E+00
    0.39140E+05        -0.59965E+08         0.00000E+00
    0.00000E+00         0.00000E+00        -0.30096E+08
 
   -0.30089E+08         0.39741E+05         0.00000E+00
    0.39741E+05        -0.59961E+08         0.00000E+00
    0.00000E+00         0.00000E+00        -0.30096E+08
 
   -0.30085E+08         0.40099E+05         0.00000E+00
    0.40099E+05        -0.59958E+08         0.00000E+00
    0.00000E+00         0.00000E+00        -0.30094E+08
 
   -0.30084E+08         0.40288E+05         0.00000E+00
    0.40288E+05        -0.59954E+08         0.00000E+00
    0.00000E+00         0.00000E+00        -0.30091E+08
 
   -0.30084E+08         0.40387E+05         0.00000E+00
    0.40387E+05        -0.59951E+08         0.00000E+00
    0.00000E+00         0.00000E+00        -0.30087E+08
 
   -0.30234E+08         0.45286E+04         0.00000E+00
    0.45286E+04        -0.60000E+08         0.00000E+00
    0.00000E+00         0.00000E+00        -0.30002E+08
 
   -0.30212E+08         0.12601E+05         0.00000E+00
    0.12601E+05        -0.59998E+08         0.00000E+00
    0.00000E+00         0.00000E+00        -0.30022E+08
 
   -0.30192E+08         0.19515E+05         0.00000E+00
    0.19515E+05        -0.59996E+08         0.00000E+00
    0.00000E+00         0.00000E+00        -0.30039E+08
 
   -0.30173E+08         0.25344E+05         0.00000E+00
    0.25344E+05        -0.59993E+08         0.00000E+00
    0.00000E+00         0.00000E+00        -0.30053E+08
 
   -0.30157E+08         0.30172E+05         0.00000E+00
    0.30172E+05        -0.59989E+08         0.00000E+00
    0.00000E+00         0.00000E+00        -0.30065E+08
 
   -0.30142E+08         0.34086E+05         0.00000E+00
    0.34086E+05        -0.59985E+08         0.00000E+00
    0.00000E+00         0.00000E+00        -0.30075E+08
 
   -0.30129E+08         0.37178E+05         0.00000E+00
    0.37178E+05        -0.59981E+08         0.00000E+00
    0.00000E+00         0.00000E+00        -0.30082E+08
 
   -0.30117E+08         0.39539E+05         0.00000E+00
    0.39539E+05        -0.59977E+08         0.00000E+00
    0.00000E+00         0.00000E+00        -0.30088E+08
 
   -0.30107E+08         0.41265E+05         0.00000E+00
    0.41265E+05        -0.59972E+08         0.00000E+00
    0.00000E+00         0.00000E+00        -0.30092E+08
 
   -0.30099E+08         0.42444E+05         0.00000E+00
    0.42444E+05        -0.59968E+08         0.00000E+00
    0.00000E+00         0.00000E+00        -0.30094E+08
 
   -0.30093E+08         0.43164E+05         0.00000E+00
    0.43164E+05        -0.59964E+08         0.00000E+00
    0.00000E+00         0.00000E+00        -0.30095E+08
 
   -0.30088E+08         0.43514E+05         0.00000E+00
    0.43514E+05        -0.59960E+08         0.00000E+00
    0.00000E+00         0.00000E+00        -0.30095E+08
 
   -0.30085E+08         0.43582E+05         0.00000E+00
    0.43582E+05        -0.59957E+08         0.00000E+00
    0.00000E+00         0.00000E+00        -0.30093E+08
 
   -0.30084E+08         0.43460E+05         0.00000E+00
    0.43460E+05        -0.59953E+08         0.00000E+00
    0.00000E+00         0.00000E+00        -0.30090E+08
 
   -0.30084E+08         0.43247E+05         0.00000E+00
    0.43247E+05        -0.59951E+08         0.00000E+00
    0.00000E+00         0.00000E+00        -0.30087E+08
 
   -0.30225E+08         0.52054E+04         0.00000E+00
    0.52054E+04        -0.59999E+08         0.00000E+00
    0.00000E+00         0.00000E+00        -0.30011E+08
 
   -0.30204E+08         0.14431E+05         0.00000E+00
    0.14431E+05        -0.59998E+08         0.00000E+00
    0.00000E+00         0.00000E+00        -0.30030E+08
 
   -0.30185E+08         0.22267E+05         0.00000E+00
    0.22267E+05        -0.59996E+08         0.00000E+00
    0.00000E+00         0.00000E+00        -0.30045E+08
 
   -0.30168E+08         0.28804E+05         0.00000E+00
    0.28804E+05        -0.59993E+08         0.00000E+00
    0.00000E+00         0.00000E+00        -0.30058E+08
 
   -0.30152E+08         0.34141E+05         0.00000E+00
    0.34141E+05        -0.59989E+08         0.00000E+00
    0.00000E+00         0.00000E+00        -0.30069E+08
 
   -0.30138E+08         0.38385E+05         0.00000E+00
    0.38385E+05        -0.59985E+08         0.00000E+00
    0.00000E+00         0.00000E+00        -0.30077E+08
 
   -0.30126E+08         0.41645E+05         0.00000E+00
    0.41645E+05        -0.59980E+08         0.00000E+00
    0.00000E+00         0.00000E+00        -0.30084E+08
 
   -0.30115E+08         0.44034E+05         0.00000E+00
    0.44034E+05        -0.59976E+08         0.00000E+00
    0.00000E+00         0.00000E+00        -0.30088E+08
 
   -0.30106E+08         0.45662E+05         0.00000E+00
    0.45662E+05        -0.59971E+08         0.00000E+00
    0.00000E+00         0.00000E+00        -0.30091E+08
 
   -0.30099E+08         0.46640E+05         0.00000E+00
    0.46640E+05        -0.59967E+08         0.00000E+00
    0.00000E+00         0.00000E+00        -0.30093E+08
 
   -0.30093E+08         0.47076E+05         0.00000E+00
    0.47076E+05        -0.59963E+08         0.00000E+00
    0.00000E+00         0.00000E+00        -0.30094E+08
 
   -0.30088E+08         0.47076E+05         0.00000E+00
    0.47076E+05        -0.59959E+08         0.00000E+00
    0.00000E+00         0.00000E+00        -0.30093E+08
 
   -0.30086E+08         0.46752E+05         0.00000E+00
    0.46752E+05        -0.59956E+08         0.00000E+00
    0.00000E+00         0.00000E+00        -0.30092E+08
 
   -0.30084E+08         0.46217E+05         0.00000E+00
    0.46217E+05        -0.59953E+08         0.00000E+00
    0.00000E+00         0.00000E+00        -0.30090E+08
 
   -0.30084E+08         0.45591E+05         0.00000E+00
    0.45591E+05        -0.59951E+08         0.00000E+00
    0.00000E+00         0.00000E+00        -0.30087E+08
 
   -0.30214E+08         0.59235E+04         0.00000E+00
    0.59235E+04        -0.59999E+08         0.00000E+00
    0.00000E+00         0.00000E+00        -0.30021E+08
 
   -0.30195E+08         0.16367E+05         0.00000E+00
    0.16367E+05        -0.59998E+08         0.00000E+00
    0.00000E+00         0.00000E+00        -0.30038E+08
 
   -0.30177E+08         0.25173E+05         0.00000E+00
    0.25173E+05        -0.59996E+08         0.00000E+00
    0.00000E+00         0.00000E+00        -0.30053E+08
 
   -0.30161E+08         0.32444E+05         0.00000E+00
    0.32444E+05        -0.59992E+08         0.00000E+00
    0.00000E+00         0.00000E+00        -0.30064E+08
 
   -0.30147E+08         0.38298E+05         0.00000E+00
    0.38298E+05        -0.59988E+08         0.00000E+00
    0.00000E+00         0.00000E+00        -0.30073E+08
 
   -0.30134E+08         0.42859E+05         0.00000E+00
    0.42859E+05        -0.59984E+08         0.00000E+00
    0.00000E+00         0.00000E+00        -0.30080E+08
 
   -0.30123E+08         0.46256E+05         0.00000E+00
    0.46256E+05        -0.59979E+08         0.00000E+00
    0.00000E+00         0.00000E+00        -0.30085E+08
 
   -0.30113E+08         0.48619E+05         0.00000E+00
    0.48619E+05        -0.59975E+08         0.00000E+00
    0.00000E+00         0.00000E+00        -0.30089E+08
 
   -0.30105E+08         0.50080E+05         0.00000E+00
    0.50080E+05        -0.59970E+08         0.00000E+00
    0.00000E+00         0.00000E+00        -0.30091E+08
 
   -0.30098E+08         0.50772E+05         0.00000E+00
    0.50772E+05        -0.59966E+08         0.00000E+00
    0.00000E+00         0.00000E+00        -0.30093E+08
 
   -0.30093E+08         0.50822E+05         0.00000E+00
    0.50822E+05        -0.59962E+08         0.00000E+00
    0.00000E+00         0.00000E+00        -0.30093E+08
 
   -0.30089E+08         0.50365E+05         0.00000E+00
    0.50365E+05        -0.59959E+08         0.00000E+00
    0.00000E+00         0.00000E+00        -0.30092E+08
 
   -0.30086E+08         0.49536E+05         0.00000E+00
    0.49536E+05        -0.59956E+08         0.00000E+00
    0.00000E+00         0.00000E+00        -0.30091E+08
 
   -0.30085E+08         0.48475E+05         0.00000E+00
    0.48475E+05        -0.59954E+08         0.00000E+00
    0.00000E+00         0.00000E+00        -0.30089E+08
 
   -0.30085E+08         0.47325E+05         0.00000E+00
    0.47325E+05        -0.59952E+08         0.00000E+00
    0.00000E+00         0.00000E+00        -0.30087E+08
 
   -0.30202E+08         0.66738E+04         0.00000E+00
    0.66738E+04        -0.59999E+08         0.00000E+00
    0.00000E+00         0.00000E+00        -0.30033E+08
 
   -0.30185E+08         0.18387E+05         0.00000E+00
    0.18387E+05        -0.59998E+08         0.00000E+00
    0.00000E+00         0.00000E+00        -0.30048E+08
 
   -0.30169E+08         0.28200E+05         0.00000E+00
    0.28200E+05        -0.59995E+08         0.00000E+00
    0.00000E+00         0.00000E+00        -0.30061E+08
 
   -0.30155E+08         0.36231E+05         0.00000E+00
    0.36231E+05        -0.59992E+08         0.00000E+00
    0.00000E+00         0.00000E+00        -0.30070E+08
 
   -0.30142E+08         0.42609E+05         0.00000E+00
    0.42609E+05        -0.59988E+08         0.00000E+00
    0.00000E+00         0.00000E+00        -0.30078E+08
 
   -0.30130E+08         0.47474E+05         0.00000E+00
    0.47474E+05        -0.59983E+08         0.00000E+00
    0.00000E+00         0.00000E+00        -0.30083E+08
 
   -0.30120E+08         0.50972E+05         0.00000E+00
    0.50972E+05        -0.59979E+08         0.00000E+00
    0.00000E+00         0.00000E+00        -0.30087E+08
 
   -0.30111E+08         0.53254E+05         0.00000E+00
    0.53254E+05        -0.59974E+08         0.00000E+00
    0.00000E+00         0.00000E+00        -0.30090E+08
 
   -0.30104E+08         0.54472E+05         0.00000E+00
    0.54472E+05        -0.59969E+08         0.00000E+00
    0.00000E+00         0.00000E+00        -0.30091E+08
 
   -0.30098E+08         0.54781E+05         0.00000E+00
    0.54781E+05        -0.59965E+08         0.00000E+00
    0.00000E+00         0.00000E+00        -0.30092E+08
 
   -0.30093E+08         0.54339E+05         0.00000E+00
    0.54339E+05        -0.59962E+08         0.00000E+00
    0.00000E+00         0.00000E+00        -0.30092E+08
 
   -0.30090E+08         0.53306E+05         0.00000E+00
    0.53306E+05        -0.59959E+08         0.00000E+00
    0.00000E+00         0.00000E+00        -0.30091E+08
 
   -0.30087E+08         0.51850E+05         0.00000E+00
    0.51850E+05        -0.59956E+08         0.00000E+00
    0.00000E+00         0.00000E+00        -0.30091E+08
 
   -0.30086E+08         0.50140E+05         0.00000E+00
    0.50140E+05        -0.59955E+08         0.00000E+00
    0.00000E+00         0.00000E+00        -0.30089E+08
 
   -0.30087E+08         0.48351E+05         0.00000E+00
    0.48351E+05        -0.59954E+08         0.00000E+00
    0.00000E+00         0.00000E+00        -0.30088E+08
 
   -0.30189E+08         0.74434E+04         0.00000E+00
    0.74434E+04        -0.59999E+08         0.00000E+00
    0.00000E+00         0.00000E+00        -0.30046E+08
 
   -0.30173E+08         0.20460E+05         0.00000E+00
    0.20460E+05        -0.59998E+08         0.00000E+00
    0.00000E+00         0.00000E+00        -0.30060E+08
 
   -0.30160E+08         0.31309E+05         0.00000E+00
    0.31309E+05        -0.59995E+08         0.00000E+00
    0.00000E+00         0.00000E+00        -0.30070E+08
 
   -0.30147E+08         0.40118E+05         0.00000E+00
    0.40118E+05        -0.59992E+08         0.00000E+00
    0.00000E+00         0.00000E+00        -0.30078E+08
 
   -0.30136E+08         0.47025E+05         0.00000E+00
    0.47025E+05        -0.59988E+08         0.00000E+00
    0.00000E+00         0.00000E+00        -0.30083E+08
 
   -0.30126E+08         0.52181E+05         0.00000E+00
    0.52181E+05        -0.59983E+08         0.00000E+00
    0.00000E+00         0.00000E+00        -0.30087E+08
 
   -0.30117E+08         0.55745E+05         0.00000E+00
    0.55745E+05        -0.59978E+08         0.00000E+00
    0.00000E+00         0.00000E+00        -0.30090E+08
 
   -0.30110E+08         0.57884E+05         0.00000E+00
    0.57884E+05        -0.59974E+08         0.00000E+00
    0.00000E+00         0.00000E+00        -0.30091E+08
 
   -0.30103E+08         0.58775E+05         0.00000E+00
    0.58775E+05        -0.59969E+08         0.00000E+00
    0.00000E+00         0.00000E+00        -0.30092E+08
 
   -0.30098E+08         0.58598E+05         0.00000E+00
    0.58598E+05        -0.59965E+08         0.00000E+00
    0.00000E+00         0.00000E+00        -0.30092E+08
 
   -0.30094E+08         0.57543E+05         0.00000E+00
    0.57543E+05        -0.59962E+08         0.00000E+00
    0.00000E+00         0.00000E+00        -0.30091E+08
 
   -0.30091E+08         0.55809E+05         0.00000E+00
    0.55809E+05        -0.59959E+08         0.00000E+00
    0.00000E+00         0.00000E+00        -0.30091E+08
 
   -0.30089E+08         0.53597E+05         0.00000E+00
    0.53597E+05        -0.59957E+08         0.00000E+00
    0.00000E+00         0.00000E+00        -0.30090E+08
 
   -0.30089E+08         0.51116E+05         0.00000E+00
    0.51116E+05        -0.59956E+08         0.00000E+00
    0.00000E+00         0.00000E+00        -0.30090E+08
 
   -0.30089E+08         0.48566E+05         0.00000E+00
    0.48566E+05        -0.59956E+08         0.00000E+00
    0.00000E+00         0.00000E+00        -0.30089E+08
 
   -0.30174E+08         0.82168E+04         0.00000E+00
    0.82168E+04        -0.59999E+08         0.00000E+00
    0.00000E+00         0.00000E+00        -0.30061E+08
 
   -0.30161E+08         0.22546E+05         0.00000E+00
    0.22546E+05        -0.59998E+08         0.00000E+00
    0.00000E+00         0.00000E+00        -0.30072E+08
 
   -0.30149E+08         0.34447E+05         0.00000E+00
    0.34447E+05        -0.59995E+08         0.00000E+00
    0.00000E+00         0.00000E+00        -0.30080E+08
 
   -0.30139E+08         0.44047E+05         0.00000E+00
    0.44047E+05        -0.59992E+08         0.00000E+00
    0.00000E+00         0.00000E+00        -0.30086E+08
 
   -0.30130E+08         0.51485E+05         0.00000E+00
    0.51485E+05        -0.59988E+08         0.00000E+00
    0.00000E+00         0.00000E+00        -0.30090E+08
 
   -0.30122E+08         0.56915E+05         0.00000E+00
    0.56915E+05        -0.59983E+08         0.00000E+00
    0.00000E+00         0.00000E+00        -0.30092E+08
 
   -0.30114E+08         0.60504E+05         0.00000E+00
    0.60504E+05        -0.59978E+08         0.00000E+00
    0.00000E+00         0.00000E+00        -0.30093E+08
 
   -0.30108E+08         0.62435E+05         0.00000E+00
    0.62435E+05        -0.59974E+08         0.00000E+00
    0.00000E+00         0.00000E+00        -0.30093E+08
 
   -0.30103E+08         0.62905E+05         0.00000E+00
    0.62905E+05        -0.59970E+08         0.00000E+00
    0.00000E+00         0.00000E+00        -0.30092E+08
 
   -0.30099E+08         0.62129E+05         0.00000E+00
    0.62129E+05        -0.59966E+08         0.00000E+00
    0.00000E+00         0.00000E+00        -0.30092E+08
 
   -0.30096E+08         0.60336E+05         0.00000E+00
    0.60336E+05        -0.59963E+08         0.00000E+00
    0.00000E+00         0.00000E+00        -0.30091E+08
 
   -0.30094E+08         0.57770E+05         0.00000E+00
    0.57770E+05        -0.59961E+08         0.00000E+00
    0.00000E+00         0.00000E+00        -0.30090E+08
 
   -0.30092E+08         0.54675E+05         0.00000E+00
    0.54675E+05        -0.59960E+08         0.00000E+00
    0.00000E+00         0.00000E+00        -0.30090E+08
 
   -0.30092E+08         0.51299E+05         0.00000E+00
    0.51299E+05        -0.59959E+08         0.00000E+00
    0.00000E+00         0.00000E+00        -0.30091E+08
 
   -0.30092E+08         0.47873E+05         0.00000E+00
    0.47873E+05        -0.59960E+08         0.00000E+00
    0.00000E+00         0.00000E+00        -0.30091E+08
 
   -0.30157E+08         0.89768E+04         0.00000E+00
    0.89768E+04        -0.60000E+08         0.00000E+00
    0.00000E+00         0.00000E+00        -0.30077E+08
 
   -0.30147E+08         0.24602E+05         0.00000E+00
    0.24602E+05        -0.59998E+08         0.00000E+00
    0.00000E+00         0.00000E+00        -0.30086E+08
 
   -0.30138E+08         0.37551E+05         0.00000E+00
    0.37551E+05        -0.59996E+08         0.00000E+00
    0.00000E+00         0.00000E+00        -0.30092E+08
 
   -0.30130E+08         0.47943E+05         0.00000E+00
    0.47943E+05        -0.59992E+08         0.00000E+00
    0.00000E+00         0.00000E+00        -0.30095E+08
 
   -0.30123E+08         0.55908E+05         0.00000E+00
    0.55908E+05        -0.59988E+08         0.00000E+00
    0.00000E+00         0.00000E+00        -0.30097E+08
 
   -0.30117E+08         0.61591E+05         0.00000E+00
    0.61591E+05        -0.59983E+08         0.00000E+00
    0.00000E+00         0.00000E+00        -0.30097E+08
 
   -0.30112E+08         0.65160E+05         0.00000E+00
    0.65160E+05        -0.59979E+08         0.00000E+00
    0.00000E+00         0.00000E+00        -0.30096E+08
 
   -0.30107E+08         0.66807E+05         0.00000E+00
    0.66807E+05        -0.59974E+08         0.00000E+00
    0.00000E+00         0.00000E+00        -0.30095E+08
 
   -0.30104E+08         0.66756E+05         0.00000E+00
    0.66756E+05        -0.59970E+08         0.00000E+00
    0.00000E+00         0.00000E+00        -0.30093E+08
 
   -0.30101E+08         0.65261E+05         0.00000E+00
    0.65261E+05        -0.59967E+08         0.00000E+00
    0.00000E+00         0.00000E+00        -0.30092E+08
 
   -0.30099E+08         0.62600E+05         0.00000E+00
    0.62600E+05        -0.59965E+08         0.00000E+00
    0.00000E+00         0.00000E+00        -0.30091E+08
 
   -0.30097E+08         0.59073E+05         0.00000E+00
    0.59073E+05        -0.59963E+08         0.00000E+00
    0.00000E+00         0.00000E+00        -0.30090E+08
 
   -0.30096E+08         0.54978E+05         0.00000E+00
    0.54978E+05        -0.59963E+08         0.00000E+00
    0.00000E+00         0.00000E+00        -0.30091E+08
 
   -0.30095E+08         0.50598E+05         0.00000E+00
    0.50598E+05        -0.59964E+08         0.00000E+00
    0.00000E+00         0.00000E+00        -0.30092E+08
 
   -0.30096E+08         0.46192E+05         0.00000E+00
    0.46192E+05        -0.59965E+08         0.00000E+00
    0.00000E+00         0.00000E+00        -0.30094E+08
 
   -0.30140E+08         0.97059E+04         0.00000E+00
    0.97059E+04        -0.60000E+08         0.00000E+00
    0.00000E+00         0.00000E+00        -0.30095E+08
 
   -0.30132E+08         0.26582E+05         0.00000E+00
    0.26582E+05        -0.59998E+08         0.00000E+00
    0.00000E+00         0.00000E+00        -0.30101E+08
 
   -0.30126E+08         0.40553E+05         0.00000E+00
    0.40553E+05        -0.59996E+08         0.00000E+00
    0.00000E+00         0.00000E+00        -0.30104E+08
 
   -0.30121E+08         0.51720E+05         0.00000E+00
    0.51720E+05        -0.59992E+08         0.00000E+00
    0.00000E+00         0.00000E+00        -0.30105E+08
 
   -0.30116E+08         0.60192E+05         0.00000E+00
    0.60192E+05        -0.59988E+08         0.00000E+00
    0.00000E+00         0.00000E+00        -0.30104E+08
 
   -0.30112E+08         0.66096E+05         0.00000E+00
    0.66096E+05        -0.59984E+08         0.00000E+00
    0.00000E+00         0.00000E+00        -0.30103E+08
 
   -0.30109E+08         0.69589E+05         0.00000E+00
    0.69589E+05        -0.59980E+08         0.00000E+00
    0.00000E+00         0.00000E+00        -0.30100E+08
 
   -0.30107E+08         0.70869E+05         0.00000E+00
    0.70869E+05        -0.59976E+08         0.00000E+00
    0.00000E+00         0.00000E+00        -0.30097E+08
 
   -0.30105E+08         0.70188E+05         0.00000E+00
    0.70188E+05        -0.59972E+08         0.00000E+00
    0.00000E+00         0.00000E+00        -0.30094E+08
 
   -0.30103E+08         0.67851E+05         0.00000E+00
    0.67851E+05        -0.59970E+08         0.00000E+00
    0.00000E+00         0.00000E+00        -0.30092E+08
 
   -0.30102E+08         0.64201E+05         0.00000E+00
    0.64201E+05        -0.59968E+08         0.00000E+00
    0.00000E+00         0.00000E+00        -0.30091E+08
 
   -0.30101E+08         0.59599E+05         0.00000E+00
    0.59599E+05        -0.59967E+08         0.00000E+00
    0.00000E+00         0.00000E+00        -0.30091E+08
 
   -0.30101E+08         0.54402E+05         0.00000E+00
    0.54402E+05        -0.59968E+08         0.00000E+00
    0.00000E+00         0.00000E+00        -0.30092E+08
 
   -0.30100E+08         0.48936E+05         0.00000E+00
    0.48936E+05        -0.59969E+08         0.00000E+00
    0.00000E+00         0.00000E+00        -0.30095E+08
 
   -0.30100E+08         0.43469E+05         0.00000E+00
    0.43469E+05        -0.59972E+08         0.00000E+00
    0.00000E+00         0.00000E+00        -0.30098E+08
 
   -0.30121E+08         0.10389E+05         0.00000E+00
    0.10389E+05        -0.60000E+08         0.00000E+00
    0.00000E+00         0.00000E+00        -0.30114E+08
 
   -0.30116E+08         0.28442E+05         0.00000E+00
    0.28442E+05        -0.59998E+08         0.00000E+00
    0.00000E+00         0.00000E+00        -0.30117E+08
 
   -0.30113E+08         0.43380E+05         0.00000E+00
    0.43380E+05        -0.59996E+08         0.00000E+00
    0.00000E+00         0.00000E+00        -0.30117E+08
 
   -0.30110E+08         0.55277E+05         0.00000E+00
    0.55277E+05        -0.59993E+08         0.00000E+00
    0.00000E+00         0.00000E+00        -0.30116E+08
 
   -0.30109E+08         0.64213E+05         0.00000E+00
    0.64213E+05        -0.59989E+08         0.00000E+00
    0.00000E+00         0.00000E+00        -0.30113E+08
 
   -0.30108E+08         0.70284E+05         0.00000E+00
    0.70284E+05        -0.59985E+08         0.00000E+00
    0.00000E+00         0.00000E+00        -0.30109E+08
 
   -0.30107E+08         0.73627E+05         0.00000E+00
    0.73627E+05        -0.59982E+08         0.00000E+00
    0.00000E+00         0.00000E+00        -0.30104E+08
 
   -0.30107E+08         0.74446E+05         0.00000E+00
    0.74446E+05        -0.59978E+08         0.00000E+00
    0.00000E+00         0.00000E+00        -0.30100E+08
 
   -0.30107E+08         0.73026E+05         0.00000E+00
    0.73026E+05        -0.59975E+08         0.00000E+00
    0.00000E+00         0.00000E+00        -0.30096E+08
 
   -0.30107E+08         0.69735E+05         0.00000E+00
    0.69735E+05        -0.59973E+08         0.00000E+00
    0.00000E+00         0.00000E+00        -0.30094E+08
 
   -0.30107E+08         0.64991E+05         0.00000E+00
    0.64991E+05        -0.59972E+08         0.00000E+00
    0.00000E+00         0.00000E+00        -0.30092E+08
 
   -0.30107E+08         0.59233E+05         0.00000E+00
    0.59233E+05        -0.59973E+08         0.00000E+00
    0.00000E+00         0.00000E+00        -0.30093E+08
 
   -0.30107E+08         0.52873E+05         0.00000E+00
    0.52873E+05        -0.59974E+08         0.00000E+00
    0.00000E+00         0.00000E+00        -0.30095E+08
 
   -0.30106E+08         0.46268E+05         0.00000E+00
    0.46268E+05        -0.59977E+08         0.00000E+00
    0.00000E+00         0.00000E+00        -0.30098E+08
 
   -0.30106E+08         0.39692E+05         0.00000E+00
    0.39692E+05        -0.59980E+08         0.00000E+00
    0.00000E+00         0.00000E+00        -0.30103E+08
 
   -0.30100E+08         0.11016E+05         0.00000E+00
    0.11016E+05        -0.60000E+08         0.00000E+00
    0.00000E+00         0.00000E+00        -0.30134E+08
 
   -0.30099E+08         0.30140E+05         0.00000E+00
    0.30140E+05        -0.59999E+08         0.00000E+00
    0.00000E+00         0.00000E+00        -0.30134E+08
 
   -0.30099E+08         0.45955E+05         0.00000E+00
    0.45955E+05        -0.59996E+08         0.00000E+00
    0.00000E+00         0.00000E+00        -0.30132E+08
 
   -0.30100E+08         0.58499E+05         0.00000E+00
    0.58499E+05        -0.59994E+08         0.00000E+00
    0.00000E+00         0.00000E+00        -0.30128E+08
 
   -0.30101E+08         0.67813E+05         0.00000E+00
    0.67813E+05        -0.59991E+08         0.00000E+00
    0.00000E+00         0.00000E+00        -0.30122E+08
 
   -0.30103E+08         0.73961E+05         0.00000E+00
    0.73961E+05        -0.59987E+08         0.00000E+00
    0.00000E+00         0.00000E+00        -0.30116E+08
 
   -0.30105E+08         0.77056E+05         0.00000E+00
    0.77056E+05        -0.59984E+08         0.00000E+00
    0.00000E+00         0.00000E+00        -0.30110E+08
 
   -0.30107E+08         0.77309E+05         0.00000E+00
    0.77309E+05        -0.59981E+08         0.00000E+00
    0.00000E+00         0.00000E+00        -0.30104E+08
 
   -0.30110E+08         0.75051E+05         0.00000E+00
    0.75051E+05        -0.59979E+08         0.00000E+00
    0.00000E+00         0.00000E+00        -0.30099E+08
 
   -0.30111E+08         0.70722E+05         0.00000E+00
    0.70722E+05        -0.59978E+08         0.00000E+00
    0.00000E+00         0.00000E+00        -0.30096E+08
 
   -0.30113E+08         0.64828E+05         0.00000E+00
    0.64828E+05        -0.59978E+08         0.00000E+00
    0.00000E+00         0.00000E+00        -0.30095E+08
 
   -0.30114E+08         0.57882E+05         0.00000E+00
    0.57882E+05        -0.59980E+08         0.00000E+00
    0.00000E+00         0.00000E+00        -0.30095E+08
 
   -0.30114E+08         0.50347E+05         0.00000E+00
    0.50347E+05        -0.59982E+08         0.00000E+00
    0.00000E+00         0.00000E+00        -0.30098E+08
 
   -0.30114E+08         0.42599E+05         0.00000E+00
    0.42599E+05        -0.59986E+08         0.00000E+00
    0.00000E+00         0.00000E+00        -0.30103E+08
 
   -0.30113E+08         0.34904E+05         0.00000E+00
    0.34904E+05        -0.59991E+08         0.00000E+00
    0.00000E+00         0.00000E+00        -0.30110E+08
 
   -0.30079E+08         0.11582E+05         0.00000E+00
    0.11582E+05        -0.60000E+08         0.00000E+00
    0.00000E+00         0.00000E+00        -0.30156E+08
 
   -0.30081E+08         0.31646E+05         0.00000E+00
    0.31646E+05        -0.59999E+08         0.00000E+00
    0.00000E+00         0.00000E+00        -0.30152E+08
 
   -0.30085E+08         0.48202E+05         0.00000E+00
    0.48202E+05        -0.59997E+08         0.00000E+00
    0.00000E+00         0.00000E+00        -0.30147E+08
 
   -0.30089E+08         0.61252E+05         0.00000E+00
    0.61252E+05        -0.59995E+08         0.00000E+00
    0.00000E+00         0.00000E+00        -0.30140E+08
 
   -0.30093E+08         0.70799E+05         0.00000E+00
    0.70799E+05        -0.59992E+08         0.00000E+00
    0.00000E+00         0.00000E+00        -0.30132E+08
 
   -0.30098E+08         0.76873E+05         0.00000E+00
    0.76873E+05        -0.59990E+08         0.00000E+00
    0.00000E+00         0.00000E+00        -0.30124E+08
 
   -0.30104E+08         0.79582E+05         0.00000E+00
    0.79582E+05        -0.59987E+08         0.00000E+00
    0.00000E+00         0.00000E+00        -0.30116E+08
 
   -0.30109E+08         0.79163E+05         0.00000E+00
    0.79163E+05        -0.59986E+08         0.00000E+00
    0.00000E+00         0.00000E+00        -0.30108E+08
 
   -0.30113E+08         0.76003E+05         0.00000E+00
    0.76003E+05        -0.59985E+08         0.00000E+00
    0.00000E+00         0.00000E+00        -0.30103E+08
 
   -0.30117E+08         0.70618E+05         0.00000E+00
    0.70618E+05        -0.59985E+08         0.00000E+00
    0.00000E+00         0.00000E+00        -0.30099E+08
 
   -0.30120E+08         0.63593E+05         0.00000E+00
    0.63593E+05        -0.59987E+08         0.00000E+00
    0.00000E+00         0.00000E+00        -0.30098E+08
 
   -0.30121E+08         0.55502E+05         0.00000E+00
    0.55502E+05        -0.59989E+08         0.00000E+00
    0.00000E+00         0.00000E+00        -0.30100E+08
 
   -0.30122E+08         0.46842E+05         0.00000E+00
    0.46842E+05        -0.59992E+08         0.00000E+00
    0.00000E+00         0.00000E+00        -0.30103E+08
 
   -0.30122E+08         0.37994E+05         0.00000E+00
    0.37994E+05        -0.59997E+08         0.00000E+00
    0.00000E+00         0.00000E+00        -0.30109E+08
 
   -0.30122E+08         0.29210E+05         0.00000E+00
    0.29210E+05        -0.60002E+08         0.00000E+00
    0.00000E+00         0.00000E+00        -0.30117E+08
 
   -0.30057E+08         0.12081E+05         0.00000E+00
    0.12081E+05        -0.60000E+08         0.00000E+00
    0.00000E+00         0.00000E+00        -0.30179E+08
 
   -0.30063E+08         0.32934E+05         0.00000E+00
    0.32934E+05        -0.59999E+08         0.00000E+00
    0.00000E+00         0.00000E+00        -0.30172E+08
 
   -0.30070E+08         0.50046E+05         0.00000E+00
    0.50046E+05        -0.59997E+08         0.00000E+00
    0.00000E+00         0.00000E+00        -0.30163E+08
 
   -0.30077E+08         0.63385E+05         0.00000E+00
    0.63385E+05        -0.59996E+08         0.00000E+00
    0.00000E+00         0.00000E+00        -0.30153E+08
 
   -0.30085E+08         0.72925E+05         0.00000E+00
    0.72925E+05        -0.59994E+08         0.00000E+00
    0.00000E+00         0.00000E+00        -0.30143E+08
 
   -0.30094E+08         0.78691E+05         0.00000E+00
    0.78691E+05        -0.59993E+08         0.00000E+00
    0.00000E+00         0.00000E+00        -0.30132E+08
 
   -0.30103E+08         0.80829E+05         0.00000E+00
    0.80829E+05        -0.59992E+08         0.00000E+00
    0.00000E+00         0.00000E+00        -0.30122E+08
 
   -0.30111E+08         0.79643E+05         0.00000E+00
    0.79643E+05        -0.59992E+08         0.00000E+00
    0.00000E+00         0.00000E+00        -0.30114E+08
 
   -0.30118E+08         0.75591E+05         0.00000E+00
    0.75591E+05        -0.59993E+08         0.00000E+00
    0.00000E+00         0.00000E+00        -0.30108E+08
 
   -0.30124E+08         0.69242E+05         0.00000E+00
    0.69242E+05        -0.59994E+08         0.00000E+00
    0.00000E+00         0.00000E+00        -0.30104E+08
 
   -0.30128E+08         0.61218E+05         0.00000E+00
    0.61218E+05        -0.59997E+08         0.00000E+00
    0.00000E+00         0.00000E+00        -0.30104E+08
 
   -0.30130E+08         0.52114E+05         0.00000E+00
    0.52114E+05        -0.60000E+08         0.00000E+00
    0.00000E+00         0.00000E+00        -0.30106E+08
 
   -0.30131E+08         0.42444E+05         0.00000E+00
    0.42444E+05        -0.60005E+08         0.00000E+00
    0.00000E+00         0.00000E+00        -0.30110E+08
 
   -0.30131E+08         0.32588E+05         0.00000E+00
    0.32588E+05        -0.60010E+08         0.00000E+00
    0.00000E+00         0.00000E+00        -0.30117E+08
 
   -0.30131E+08         0.22781E+05         0.00000E+00
    0.22781E+05        -0.60016E+08         0.00000E+00
    0.00000E+00         0.00000E+00        -0.30126E+08
 
   -0.30034E+08         0.12512E+05         0.00000E+00
    0.12512E+05        -0.60000E+08         0.00000E+00
    0.00000E+00         0.00000E+00        -0.30202E+08
 
   -0.30043E+08         0.33967E+05         0.00000E+00
    0.33967E+05        -0.59999E+08         0.00000E+00
    0.00000E+00         0.00000E+00        -0.30191E+08
 
   -0.30054E+08         0.51396E+05         0.00000E+00
    0.51396E+05        -0.59998E+08         0.00000E+00
    0.00000E+00         0.00000E+00        -0.30179E+08
 
   -0.30066E+08         0.64713E+05         0.00000E+00
    0.64713E+05        -0.59997E+08         0.00000E+00
    0.00000E+00         0.00000E+00        -0.30166E+08
 
   -0.30078E+08         0.73879E+05         0.00000E+00
    0.73879E+05        -0.59997E+08         0.00000E+00
    0.00000E+00         0.00000E+00        -0.30153E+08
 
   -0.30091E+08         0.78997E+05         0.00000E+00
    0.78997E+05        -0.59997E+08         0.00000E+00
    0.00000E+00         0.00000E+00        -0.30141E+08
 
   -0.30103E+08         0.80333E+05         0.00000E+00
    0.80333E+05        -0.59998E+08         0.00000E+00
    0.00000E+00         0.00000E+00        -0.30130E+08
 
   -0.30114E+08         0.78332E+05         0.00000E+00
    0.78332E+05        -0.60000E+08         0.00000E+00
    0.00000E+00         0.00000E+00        -0.30122E+08
 
   -0.30124E+08         0.73522E+05         0.00000E+00
    0.73522E+05        -0.60003E+08         0.00000E+00
    0.00000E+00         0.00000E+00        -0.30115E+08
 
   -0.30131E+08         0.66460E+05         0.00000E+00
    0.66460E+05        -0.60006E+08         0.00000E+00
    0.00000E+00         0.00000E+00        -0.30112E+08
 
   -0.30137E+08         0.57708E+05         0.00000E+00
    0.57708E+05        -0.60010E+08         0.00000E+00
    0.00000E+00         0.00000E+00        -0.30111E+08
 
   -0.30140E+08         0.47827E+05         0.00000E+00
    0.47827E+05        -0.60014E+08         0.00000E+00
    0.00000E+00         0.00000E+00        -0.30114E+08
 
   -0.30142E+08         0.37324E+05         0.00000E+00
    0.37324E+05        -0.60019E+08         0.00000E+00
    0.00000E+00         0.00000E+00        -0.30119E+08
 
   -0.30142E+08         0.26589E+05         0.00000E+00
    0.26589E+05        -0.60025E+08         0.00000E+00
    0.00000E+00         0.00000E+00        -0.30126E+08
 
   -0.30141E+08         0.15855E+05         0.00000E+00
    0.15855E+05        -0.60031E+08         0.00000E+00
    0.00000E+00         0.00000E+00        -0.30136E+08
 
   -0.30010E+08         0.12874E+05         0.00000E+00
    0.12874E+05        -0.60000E+08         0.00000E+00
    0.00000E+00         0.00000E+00        -0.30226E+08
 
   -0.30024E+08         0.34703E+05         0.00000E+00
    0.34703E+05        -0.59999E+08         0.00000E+00
    0.00000E+00         0.00000E+00        -0.30211E+08
 
   -0.30039E+08         0.52110E+05         0.00000E+00
    0.52110E+05        -0.59999E+08         0.00000E+00
    0.00000E+00         0.00000E+00        -0.30196E+08
 
   -0.30055E+08         0.64956E+05         0.00000E+00
    0.64956E+05        -0.59999E+08         0.00000E+00
    0.00000E+00         0.00000E+00        -0.30180E+08
 
   -0.30071E+08         0.73252E+05         0.00000E+00
    0.73252E+05        -0.60000E+08         0.00000E+00
    0.00000E+00         0.00000E+00        -0.30165E+08
 
   -0.30088E+08         0.77279E+05         0.00000E+00
    0.77279E+05        -0.60002E+08         0.00000E+00
    0.00000E+00         0.00000E+00        -0.30151E+08
 
   -0.30104E+08         0.77592E+05         0.00000E+00
    0.77592E+05        -0.60006E+08         0.00000E+00
    0.00000E+00         0.00000E+00        -0.30140E+08
 
   -0.30118E+08         0.74828E+05         0.00000E+00
    0.74828E+05        -0.60010E+08         0.00000E+00
    0.00000E+00         0.00000E+00        -0.30131E+08
 
   -0.30130E+08         0.69549E+05         0.00000E+00
    0.69549E+05        -0.60015E+08         0.00000E+00
    0.00000E+00         0.00000E+00        -0.30125E+08
 
   -0.30140E+08         0.62192E+05         0.00000E+00
    0.62192E+05        -0.60020E+08         0.00000E+00
    0.00000E+00         0.00000E+00        -0.30122E+08
 
   -0.30146E+08         0.53142E+05         0.00000E+00
    0.53142E+05        -0.60025E+08         0.00000E+00
    0.00000E+00         0.00000E+00        -0.30122E+08
 
   -0.30151E+08         0.42830E+05         0.00000E+00
    0.42830E+05        -0.60030E+08         0.00000E+00
    0.00000E+00         0.00000E+00        -0.30125E+08
 
   -0.30152E+08         0.31733E+05         0.00000E+00
    0.31733E+05        -0.60036E+08         0.00000E+00
    0.00000E+00         0.00000E+00        -0.30130E+08
 
   -0.30153E+08         0.20277E+05         0.00000E+00
    0.20277E+05        -0.60042E+08         0.00000E+00
    0.00000E+00         0.00000E+00        -0.30137E+08
 
   -0.30152E+08         0.87292E+04         0.00000E+00
    0.87292E+04        -0.60048E+08         0.00000E+00
    0.00000E+00         0.00000E+00        -0.30147E+08
 
   -0.29986E+08         0.13163E+05         0.00000E+00
    0.13163E+05        -0.60000E+08         0.00000E+00
    0.00000E+00         0.00000E+00        -0.30251E+08
 
   -0.30004E+08         0.35064E+05         0.00000E+00
    0.35064E+05        -0.60000E+08         0.00000E+00
    0.00000E+00         0.00000E+00        -0.30232E+08
 
   -0.30024E+08         0.51955E+05         0.00000E+00
    0.51955E+05        -0.60000E+08         0.00000E+00
    0.00000E+00         0.00000E+00        -0.30212E+08
 
   -0.30045E+08         0.63679E+05         0.00000E+00
    0.63679E+05        -0.60001E+08         0.00000E+00
    0.00000E+00         0.00000E+00        -0.30193E+08
 
   -0.30066E+08         0.70456E+05         0.00000E+00
    0.70456E+05        -0.60005E+08         0.00000E+00
    0.00000E+00         0.00000E+00        -0.30176E+08
 
   -0.30086E+08         0.72983E+05         0.00000E+00
    0.72983E+05        -0.60010E+08         0.00000E+00
    0.00000E+00         0.00000E+00        -0.30162E+08
 
   -0.30105E+08         0.72182E+05         0.00000E+00
    0.72182E+05        -0.60016E+08         0.00000E+00
    0.00000E+00         0.00000E+00        -0.30152E+08
 
   -0.30122E+08         0.68859E+05         0.00000E+00
    0.68859E+05        -0.60023E+08         0.00000E+00
    0.00000E+00         0.00000E+00        -0.30144E+08
 
   -0.30136E+08         0.63522E+05         0.00000E+00
    0.63522E+05        -0.60030E+08         0.00000E+00
    0.00000E+00         0.00000E+00        -0.30139E+08
 
   -0.30148E+08         0.56410E+05         0.00000E+00
    0.56410E+05        -0.60037E+08         0.00000E+00
    0.00000E+00         0.00000E+00        -0.30137E+08
 
   -0.30156E+08         0.47634E+05         0.00000E+00
    0.47634E+05        -0.60043E+08         0.00000E+00
    0.00000E+00         0.00000E+00        -0.30136E+08
 
   -0.30161E+08         0.37370E+05         0.00000E+00
    0.37370E+05        -0.60049E+08         0.00000E+00
    0.00000E+00         0.00000E+00        -0.30138E+08
 
   -0.30164E+08         0.25998E+05         0.00000E+00
    0.25998E+05        -0.60055E+08         0.00000E+00
    0.00000E+00         0.00000E+00        -0.30143E+08
 
   -0.30165E+08         0.14008E+05         0.00000E+00
    0.14008E+05        -0.60060E+08         0.00000E+00
    0.00000E+00         0.00000E+00        -0.30150E+08
 
   -0.30164E+08         0.17709E+04         0.00000E+00
    0.17709E+04        -0.60067E+08         0.00000E+00
    0.00000E+00         0.00000E+00        -0.30159E+08
 
   -0.29962E+08         0.13370E+05         0.00000E+00
    0.13370E+05        -0.60000E+08         0.00000E+00
    0.00000E+00         0.00000E+00        -0.30276E+08
 
   -0.29985E+08         0.34890E+05         0.00000E+00
    0.34890E+05        -0.60000E+08         0.00000E+00
    0.00000E+00         0.00000E+00        -0.30252E+08
 
   -0.30010E+08         0.50489E+05         0.00000E+00
    0.50489E+05        -0.60001E+08         0.00000E+00
    0.00000E+00         0.00000E+00        -0.30228E+08
 
   -0.30036E+08         0.60170E+05         0.00000E+00
    0.60170E+05        -0.60005E+08         0.00000E+00
    0.00000E+00         0.00000E+00        -0.30206E+08
 
   -0.30062E+08         0.64763E+05         0.00000E+00
    0.64763E+05        -0.60012E+08         0.00000E+00
    0.00000E+00         0.00000E+00        -0.30189E+08
 
   -0.30086E+08         0.65613E+05         0.00000E+00
    0.65613E+05        -0.60020E+08         0.00000E+00
    0.00000E+00         0.00000E+00        -0.30176E+08
 
   -0.30108E+08         0.63912E+05         0.00000E+00
    0.63912E+05        -0.60029E+08         0.00000E+00
    0.00000E+00         0.00000E+00        -0.30166E+08
 
   -0.30126E+08         0.60402E+05         0.00000E+00
    0.60402E+05        -0.60039E+08         0.00000E+00
    0.00000E+00         0.00000E+00        -0.30160E+08
 
   -0.30142E+08         0.55442E+05         0.00000E+00
    0.55442E+05        -0.60048E+08         0.00000E+00
    0.00000E+00         0.00000E+00        -0.30157E+08
 
   -0.30155E+08         0.49101E+05         0.00000E+00
    0.49101E+05        -0.60057E+08         0.00000E+00
    0.00000E+00         0.00000E+00        -0.30155E+08
 
   -0.30165E+08         0.41237E+05         0.00000E+00
    0.41237E+05        -0.60064E+08         0.00000E+00
    0.00000E+00         0.00000E+00        -0.30155E+08
 
   -0.30172E+08         0.31676E+05         0.00000E+00
    0.31676E+05        -0.60070E+08         0.00000E+00
    0.00000E+00         0.00000E+00        -0.30156E+08
 
   -0.30176E+08         0.20503E+05         0.00000E+00
    0.20503E+05        -0.60076E+08         0.00000E+00
    0.00000E+00         0.00000E+00        -0.30159E+08
 
   -0.30177E+08         0.82264E+04         0.00000E+00
    0.82264E+04        -0.60081E+08         0.00000E+00
    0.00000E+00         0.00000E+00        -0.30165E+08
 
   -0.30177E+08        -0.45730E+04         0.00000E+00
   -0.45730E+04        -0.60087E+08         0.00000E+00
    0.00000E+00         0.00000E+00        -0.30173E+08
 
   -0.29937E+08         0.13464E+05         0.00000E+00
    0.13464E+05        -0.60000E+08         0.00000E+00
    0.00000E+00         0.00000E+00        -0.30301E+08
 
   -0.29967E+08         0.33808E+05         0.00000E+00
    0.33808E+05        -0.60001E+08         0.00000E+00
    0.00000E+00         0.00000E+00        -0.30271E+08
 
   -0.29999E+08         0.46834E+05         0.00000E+00
    0.46834E+05        -0.60004E+08         0.00000E+00
    0.00000E+00         0.00000E+00        -0.30243E+08
 
   -0.30031E+08         0.53389E+05         0.00000E+00
    0.53389E+05        -0.60012E+08         0.00000E+00
    0.00000E+00         0.00000E+00        -0.30221E+08
 
   -0.30060E+08         0.55519E+05         0.00000E+00
    0.55519E+05        -0.60022E+08         0.00000E+00
    0.00000E+00         0.00000E+00        -0.30204E+08
 
   -0.30087E+08         0.55027E+05         0.00000E+00
    0.55027E+05        -0.60033E+08         0.00000E+00
    0.00000E+00         0.00000E+00        -0.30193E+08
 
   -0.30110E+08         0.52925E+05         0.00000E+00
    0.52925E+05        -0.60045E+08         0.00000E+00
    0.00000E+00         0.00000E+00        -0.30185E+08
 
   -0.30130E+08         0.49686E+05         0.00000E+00
    0.49686E+05        -0.60057E+08         0.00000E+00
    0.00000E+00         0.00000E+00        -0.30181E+08
 
   -0.30147E+08         0.45486E+05         0.00000E+00
    0.45486E+05        -0.60069E+08         0.00000E+00
    0.00000E+00         0.00000E+00        -0.30178E+08
 
   -0.30162E+08         0.40291E+05         0.00000E+00
    0.40291E+05        -0.60079E+08         0.00000E+00
    0.00000E+00         0.00000E+00        -0.30177E+08
 
   -0.30173E+08         0.33875E+05         0.00000E+00
    0.33875E+05        -0.60087E+08         0.00000E+00
    0.00000E+00         0.00000E+00        -0.30177E+08
 
   -0.30182E+08         0.25803E+05         0.00000E+00
    0.25803E+05        -0.60094E+08         0.00000E+00
    0.00000E+00         0.00000E+00        -0.30178E+08
 
   -0.30187E+08         0.15624E+05         0.00000E+00
    0.15624E+05        -0.60099E+08         0.00000E+00
    0.00000E+00         0.00000E+00        -0.30179E+08
 
   -0.30189E+08         0.34929E+04         0.00000E+00
    0.34929E+04        -0.60104E+08         0.00000E+00
    0.00000E+00         0.00000E+00        -0.30182E+08
 
   -0.30190E+08        -0.97317E+04         0.00000E+00
   -0.97317E+04        -0.60108E+08         0.00000E+00
    0.00000E+00         0.00000E+00        -0.30187E+08
 
   -0.29914E+08         0.13327E+05         0.00000E+00
    0.13327E+05        -0.60000E+08         0.00000E+00
    0.00000E+00         0.00000E+00        -0.30325E+08
 
   -0.29952E+08         0.30828E+05         0.00000E+00
    0.30828E+05        -0.60003E+08         0.00000E+00
    0.00000E+00         0.00000E+00        -0.30289E+08
 
   -0.29991E+08         0.39392E+05         0.00000E+00
    0.39392E+05        -0.60010E+08         0.00000E+00
    0.00000E+00         0.00000E+00        -0.30259E+08
 
   -0.30028E+08         0.42347E+05         0.00000E+00
    0.42347E+05        -0.60022E+08         0.00000E+00
    0.00000E+00         0.00000E+00        -0.30237E+08
 
   -0.30060E+08         0.42651E+05         0.00000E+00
    0.42651E+05        -0.60036E+08         0.00000E+00
    0.00000E+00         0.00000E+00        -0.30223E+08
 
   -0.30089E+08         0.41582E+05         0.00000E+00
    0.41582E+05        -0.60050E+08         0.00000E+00
    0.00000E+00         0.00000E+00        -0.30214E+08
 
   -0.30113E+08         0.39660E+05         0.00000E+00
    0.39660E+05        -0.60065E+08         0.00000E+00
    0.00000E+00         0.00000E+00        -0.30208E+08
 
   -0.30134E+08         0.37093E+05         0.00000E+00
    0.37093E+05        -0.60079E+08         0.00000E+00
    0.00000E+00         0.00000E+00        -0.30205E+08
 
   -0.30151E+08         0.33931E+05         0.00000E+00
    0.33931E+05        -0.60091E+08         0.00000E+00
    0.00000E+00         0.00000E+00        -0.30204E+08
 
   -0.30167E+08         0.30109E+05         0.00000E+00
    0.30109E+05        -0.60103E+08         0.00000E+00
    0.00000E+00         0.00000E+00        -0.30204E+08
 
   -0.30179E+08         0.25427E+05         0.00000E+00
    0.25427E+05        -0.60113E+08         0.00000E+00
    0.00000E+00         0.00000E+00        -0.30204E+08
 
   -0.30190E+08         0.19469E+05         0.00000E+00
    0.19469E+05        -0.60120E+08         0.00000E+00
    0.00000E+00         0.00000E+00        -0.30204E+08
 
   -0.30197E+08         0.11466E+05         0.00000E+00
    0.11466E+05        -0.60126E+08         0.00000E+00
    0.00000E+00         0.00000E+00        -0.30203E+08
 
   -0.30202E+08         0.50895E+03         0.00000E+00
    0.50895E+03        -0.60129E+08         0.00000E+00
    0.00000E+00         0.00000E+00        -0.30203E+08
 
   -0.30204E+08        -0.12873E+05         0.00000E+00
   -0.12873E+05        -0.60130E+08         0.00000E+00
    0.00000E+00         0.00000E+00        -0.30203E+08
 
   -0.29893E+08         0.12291E+05         0.00000E+00
    0.12291E+05        -0.60001E+08         0.00000E+00
    0.00000E+00         0.00000E+00        -0.30347E+08
 
   -0.29942E+08         0.23396E+05         0.00000E+00
    0.23396E+05        -0.60008E+08         0.00000E+00
    0.00000E+00         0.00000E+00        -0.30307E+08
 
   -0.29988E+08         0.26521E+05         0.00000E+00
    0.26521E+05        -0.60022E+08         0.00000E+00
    0.00000E+00         0.00000E+00        -0.30278E+08
 
   -0.30027E+08         0.27211E+05         0.00000E+00
    0.27211E+05        -0.60038E+08         0.00000E+00
    0.00000E+00         0.00000E+00        -0.30259E+08
 
   -0.30061E+08         0.26875E+05         0.00000E+00
    0.26875E+05        -0.60054E+08         0.00000E+00
    0.00000E+00         0.00000E+00        -0.30247E+08
 
   -0.30090E+08         0.25961E+05         0.00000E+00
    0.25961E+05        -0.60071E+08         0.00000E+00
    0.00000E+00         0.00000E+00        -0.30239E+08
 
   -0.30115E+08         0.24654E+05         0.00000E+00
    0.24654E+05        -0.60087E+08         0.00000E+00
    0.00000E+00         0.00000E+00        -0.30236E+08
 
   -0.30136E+08         0.23025E+05         0.00000E+00
    0.23025E+05        -0.60102E+08         0.00000E+00
    0.00000E+00         0.00000E+00        -0.30234E+08
 
   -0.30154E+08         0.21077E+05         0.00000E+00
    0.21077E+05        -0.60116E+08         0.00000E+00
    0.00000E+00         0.00000E+00        -0.30234E+08
 
   -0.30170E+08         0.18753E+05         0.00000E+00
    0.18753E+05        -0.60129E+08         0.00000E+00
    0.00000E+00         0.00000E+00        -0.30235E+08
 
   -0.30184E+08         0.15916E+05         0.00000E+00
    0.15916E+05        -0.60140E+08         0.00000E+00
    0.00000E+00         0.00000E+00        -0.30236E+08
 
   -0.30195E+08         0.12307E+05         0.00000E+00
    0.12307E+05        -0.60148E+08         0.00000E+00
    0.00000E+00         0.00000E+00        -0.30235E+08
 
   -0.30205E+08         0.73684E+04         0.00000E+00
    0.73684E+04        -0.60154E+08         0.00000E+00
    0.00000E+00         0.00000E+00        -0.30233E+08
 
   -0.30213E+08        -0.21122E+03         0.00000E+00
   -0.21122E+03        -0.60156E+08         0.00000E+00
    0.00000E+00         0.00000E+00        -0.30228E+08
 
   -0.30217E+08        -0.12655E+05         0.00000E+00
   -0.12655E+05        -0.60155E+08         0.00000E+00
    0.00000E+00         0.00000E+00        -0.30222E+08
 
   -0.29879E+08         0.63058E+04         0.00000E+00
    0.63058E+04        -0.60009E+08         0.00000E+00
    0.00000E+00         0.00000E+00        -0.30372E+08
 
   -0.29939E+08         0.84890E+04         0.00000E+00
    0.84890E+04        -0.60022E+08         0.00000E+00
    0.00000E+00         0.00000E+00        -0.30329E+08
 
   -0.29987E+08         0.92482E+04         0.00000E+00
    0.92482E+04        -0.60040E+08         0.00000E+00
    0.00000E+00         0.00000E+00        -0.30303E+08
 
   -0.30027E+08         0.93764E+04         0.00000E+00
    0.93764E+04        -0.60058E+08         0.00000E+00
    0.00000E+00         0.00000E+00        -0.30286E+08
 
   -0.30062E+08         0.91959E+04         0.00000E+00
    0.91959E+04        -0.60077E+08         0.00000E+00
    0.00000E+00         0.00000E+00        -0.30276E+08
 
   -0.30091E+08         0.88505E+04         0.00000E+00
    0.88505E+04        -0.60095E+08         0.00000E+00
    0.00000E+00         0.00000E+00        -0.30270E+08
 
   -0.30116E+08         0.83911E+04         0.00000E+00
    0.83911E+04        -0.60112E+08         0.00000E+00
    0.00000E+00         0.00000E+00        -0.30267E+08
 
   -0.30137E+08         0.78353E+04         0.00000E+00
    0.78353E+04        -0.60128E+08         0.00000E+00
    0.00000E+00         0.00000E+00        -0.30267E+08
 
   -0.30156E+08         0.71801E+04         0.00000E+00
    0.71801E+04        -0.60143E+08         0.00000E+00
    0.00000E+00         0.00000E+00        -0.30268E+08
 
   -0.30172E+08         0.64027E+04         0.00000E+00
    0.64027E+04        -0.60157E+08         0.00000E+00
    0.00000E+00         0.00000E+00        -0.30270E+08
 
   -0.30186E+08         0.54542E+04         0.00000E+00
    0.54542E+04        -0.60168E+08         0.00000E+00
    0.00000E+00         0.00000E+00        -0.30271E+08
 
   -0.30198E+08         0.42414E+04         0.00000E+00
    0.42414E+04        -0.60178E+08         0.00000E+00
    0.00000E+00         0.00000E+00        -0.30272E+08
 
   -0.30209E+08         0.25887E+04         0.00000E+00
    0.25887E+04        -0.60185E+08         0.00000E+00
    0.00000E+00         0.00000E+00        -0.30270E+08
 
   -0.30220E+08         0.85343E+01         0.00000E+00
    0.85343E+01        -0.60188E+08         0.00000E+00
    0.00000E+00         0.00000E+00        -0.30263E+08
 
   -0.30228E+08        -0.56934E+04         0.00000E+00
   -0.56934E+04        -0.60181E+08         0.00000E+00
    0.00000E+00         0.00000E+00        -0.30246E+08
 
SCALARS stressS double 
LOOKUP_TABLE default
  -40078823.1158999     
  -40078177.7448531     
  -40077160.6470991     
  -40075799.9272986     
  -40074122.8463690     
  -40072155.7072109     
  -40069923.5306754     
  -40067450.2064990     
  -40064758.6714126     
  -40061870.6049127     
  -40058806.2118385     
  -40055584.0137480     
  -40052220.6056171     
  -40048730.3615776     
  -40045125.0587443     
  -40078815.3837001     
  -40078160.3070279     
  -40077125.2435695     
  -40075740.9806754     
  -40074037.2523980     
  -40072042.5552779     
  -40069784.0090541     
  -40067287.0949327     
  -40064576.0709050     
  -40061673.7329880     
  -40058601.0644809     
  -40055377.1081554     
  -40052018.7569773     
  -40048540.4879537     
  -40044953.9942477     
  -40078799.8856298     
  -40078125.5988339     
  -40077054.9361294     
  -40075624.0254337     
  -40073867.5447668     
  -40071818.4882705     
  -40069507.8618762     
  -40066964.4304926     
  -40064215.2620203     
  -40061285.1920168     
  -40058196.7704736     
  -40054970.0925830     
  -40051622.6618299     
  -40048169.1649354     
  -40044621.1371038     
  -40078776.5788210     
  -40078073.9891013     
  -40076950.7986412     
  -40075451.1015404     
  -40073616.8943055     
  -40071487.7759434     
  -40069100.7916022     
  -40066489.6443363     
  -40063685.2082916     
  -40060715.5041663     
  -40057605.4069864     
  -40054376.6167661     
  -40051047.5866980     
  -40047633.3341506     
  -40044145.1456986     
  -40078745.4390734     
  -40078006.1215948     
  -40076814.6044018     
  -40075225.5084556     
  -40073290.5398153     
  -40071057.9334936     
  -40068572.3793586     
  -40065874.3083309     
  -40062999.7098281     
  -40059980.7074538     
  -40056845.2742560     
  -40053617.3038045     
  -40050316.5401130     
  -40046958.4851110     
  -40043554.1016982     
  -40078706.5096678     
  -40077923.0026027     
  -40076648.9910151     
  -40074952.0315735     
  -40072895.7061919     
  -40070539.0554058     
  -40067935.7242884     
  -40065134.3859830     
  -40062177.6823233     
  -40059102.5942155     
  -40055941.1389086     
  -40052719.9429446     
  -40049460.4335294     
  -40046178.7758443     
  -40042885.6191407     
  -40078659.9782523     
  -40077826.1531215     
  -40076457.6757635     
  -40074637.2237682     
  -40072442.2618305     
  -40069944.0748293     
  -40067207.6598094     
  -40064290.7748212     
  -40061243.3621530     
  -40058109.1122135     
  -40054924.5524651     
  -40051719.7644984     
  -40048518.3308482     
  -40045337.3397412     
  -40042187.1130596     
  -40078606.3794192     
  -40077717.6832016     
  -40076245.6660761     
  -40074289.8459802     
  -40071943.1405638     
  -40069290.8947810     
  -40066409.9269276     
  -40063368.9681509     
  -40060227.1604216     
  -40057034.7692420     
  -40053834.2192464     
  -40050659.7743193     
  -40047537.8039602     
  -40044486.6155936     
  -40041516.1771032     
  -40078546.0932404     
  -40077600.5095494     
  -40076019.6072269     
  -40073921.1780853     
  -40071414.8741712     
  -40068601.0434292     
  -40065570.1484576     
  -40062401.7844480     
  -40059165.7832895     
  -40055921.0497406     
  -40052716.3414260     
  -40049591.2292332     
  -40046575.4398650     
  -40043688.8352897     
  -40040941.0484132     
  -40078480.5857466     
  -40077478.4889963     
  -40075787.9637953     
  -40073545.3191994     
  -40070877.5058968     
  -40067900.7075693     
  -40064719.3852220     
  -40061426.4094974     
  -40058102.7064411     
  -40054816.4934478     
  -40051625.2203719     
  -40048574.2712483     
  -40045697.5198183     
  -40043016.7509490     
  -40040541.2075141     
  -40078411.6152086     
  -40077356.7593167     
  -40075561.1822583     
  -40073179.2352998     
  -40070354.9489625     
  -40067220.5682362     
  -40063895.6850009     
  -40060486.8449337     
  -40057087.4492366     
  -40053777.7163844     
  -40050623.8972845     
  -40047678.6999906     
  -40044980.9254057     
  -40042554.4612825     
  -40040408.0375467     
  -40078341.5379419     
  -40077241.4263064     
  -40075351.6400018     
  -40072842.7258662     
  -40069874.8063357     
  -40066596.0597736     
  -40063141.6840980     
  -40059633.3155296     
  -40056178.2918060     
  -40052869.6780709     
  -40049784.7954105     
  -40046985.0654914     
  -40044514.2208853     
  -40042398.3530993     
  -40040645.3073804     
  -40078273.4768923     
  -40077139.5369799     
  -40075173.2153029     
  -40072557.9217635     
  -40069467.8387259     
  -40066066.3730771     
  -40062504.8254381     
  -40058921.1022604     
  -40055439.0339844     
  -40052165.8320823     
  -40049191.2458474     
  -40046585.8196196     
  -40044398.8803239     
  -40042657.9111233     
  -40041369.1896518     
  -40078211.2067412     
  -40077058.8488575     
  -40075040.6313305     
  -40072348.2036408     
  -40069166.7632939     
  -40065673.7799509     
  -40062037.0950287     
  -40058412.7420453     
  -40054942.2074003     
  -40051749.8665977     
  -40048938.3553841     
  -40046586.9841719     
  -40044750.4175220     
  -40043456.0212047     
  -40042707.3696343     
  -40078159.0033507     
  -40077007.1328775     
  -40074968.3443679     
  -40072236.7674984     
  -40069004.8759097     
  -40065462.5053326     
  -40061794.4571232     
  -40058176.3747592     
  -40054769.7291219     
  -40051716.6647398     
  -40049134.5639126     
  -40047109.9832598     
  -40045699.0159038     
  -40044928.3976383     
  -40044796.7349687     
  -40078121.3250356     
  -40076991.2644864     
  -40074968.8755711     
  -40072244.6172894     
  -40069014.1163742     
  -40065477.5954316     
  -40061836.5454464     
  -40058287.5892757     
  -40055014.0324823     
  -40052176.3501708     
  -40049904.3553483     
  -40048291.2494699     
  -40047390.1053110     
  -40047221.1402592     
  -40047779.0635834     
  -40078102.3567533     
  -40077016.1536630     
  -40075050.8794407     
  -40072388.2283887     
  -40069223.1099846     
  -40065763.6489261     
  -40062227.2474730     
  -40058831.6608678     
  -40055781.9336680     
  -40053256.0679153     
  -40051392.6583040     
  -40050284.7544162     
  -40049980.0159743     
  -40050487.1924528     
  -40051793.3726785     
  -40078105.6406954     
  -40077083.5621861     
  -40075217.4486530     
  -40072677.5725585     
  -40069655.5070057     
  -40066364.6411463     
  -40063036.0114447     
  -40059906.3668769     
  -40057199.5057754     
  -40055105.5724846     
  -40053765.1658867     
  -40053263.1774464     
  -40053634.6423782     
  -40054876.9295594     
  -40056968.4253462     
  -40078132.8478351     
  -40077191.6796937     
  -40075465.4554515     
  -40073115.4413346     
  -40070329.6849695     
  -40067324.9634850     
  -40064341.6127071     
  -40061628.3280115     
  -40059417.9268390     
  -40057901.1970472     
  -40057209.1601963     
  -40057410.3293853     
  -40058521.8696796     
  -40060530.2302218     
  -40063410.4309297     
  -40078185.4842308     
  -40077334.6374677     
  -40075786.9836741     
  -40073699.2480316     
  -40071261.2510409     
  -40068693.7321226     
  -40066238.8771687     
  -40064141.5543210     
  -40062621.8598954     
  -40061849.8704273     
  -40061931.9930363     
  -40062914.1671958     
  -40064798.4581747     
  -40067565.1024546     
  -40071192.9730796     
  -40078261.7724103     
  -40077508.5939823     
  -40076172.6709184     
  -40074426.3972047     
  -40072471.3702277     
  -40070534.9842843     
  -40068850.4654759     
  -40067627.9417434     
  -40067035.1939665     
  -40067187.9997160     
  -40068152.9165131     
  -40069956.3291732     
  -40072597.6144902     
  -40076064.8868934     
  -40080350.9048485     
  -40078366.8566995     
  -40077713.3477192     
  -40076623.8035473     
  -40075307.3392773     
  -40074003.0987840     
  -40072949.6410599     
  -40072344.8812986     
  -40072316.0300161     
  -40072917.7395992     
  -40074169.4657159     
  -40076088.1768559     
  -40078697.3676207     
  -40082019.7827128     
  -40086072.8253967     
  -40090874.9514849     
  -40078498.3942184     
  -40077949.9479928     
  -40077155.7471289     
  -40076391.8671076     
  -40075959.9092225     
  -40076110.3824480     
  -40076961.2407185     
  -40078478.7858788     
  -40080541.9739079     
  -40083037.1705182     
  -40085929.6043952     
  -40089265.8041240     
  -40093128.3381890     
  -40097592.9940910     
  -40102716.5528800     
  -40078656.9960947     
  -40078220.7927540     
  -40077801.4428619     
  -40077791.1256029     
  -40078561.3854633     
  -40080322.0392741     
  -40083025.3573650     
  -40086408.2515341     
  -40090142.2221676     
  -40093976.5701859     
  -40097820.6840781     
  -40101754.9771746     
  -40105956.8394023     
  -40110598.8133347     
  -40115797.3033359     
  -40078841.8799195     
  -40078543.2100002     
  -40078651.9650109     
  -40079738.5772264     
  -40082203.0619474     
  -40086054.5051123     
  -40090938.7414293     
  -40096359.2943915     
  -40101848.6297560     
  -40107059.8458064     
  -40111829.9575910     
  -40116228.7925673     
  -40120531.1024573     
  -40125055.9729459     
  -40130024.9354357     
  -40079051.8750106     
  -40078963.4061567     
  -40079935.2071657     
  -40082728.6231116     
  -40087533.8069148     
  -40093882.9470480     
  -40101075.0519874     
  -40108489.1472640     
  -40115651.9669000     
  -40122206.4669653     
  -40127911.4948471     
  -40132723.9605794     
  -40136903.5736749     
  -40140961.0718671     
  -40145314.9050064     
  -40079284.6326866     
  -40079643.0300371     
  -40082219.8017245     
  -40087681.6591911     
  -40095389.4312210     
  -40104311.5053726     
  -40113634.5296007     
  -40122805.3526315     
  -40131433.4253197     
  -40139213.4274669     
  -40145872.8363431     
  -40151188.6113694     
  -40155195.6782047     
  -40158396.4242150     
  -40161638.4605062     
  -40079609.1459793     
  -40081151.3083023     
  -40086870.1888162     
  -40095833.9475657     
  -40106418.3905790     
  -40117544.7412855     
  -40128595.2487316     
  -40139180.1099548     
  -40149015.7763817     
  -40157852.4871663     
  -40165425.5355726     
  -40171414.6173629     
  -40175452.9287663     
  -40177696.8945653     
  -40179049.9265896     
  -40080376.9552538     
  -40085760.9786647     
  -40095831.8860997     
  -40107967.6609551     
  -40120726.9666017     
  -40133455.4034208     
  -40145775.6418439     
  -40157434.2046610     
  -40168224.4469905     
  -40177941.0533297     
  -40186337.6375617     
  -40193068.2883472     
  -40197603.1768589     
  -40199016.6290578     
  -40198220.3650329     
  -40086688.0235023     
  -40096730.0986597     
  -40109917.4333360     
  -40123936.2701537     
  -40138024.2582968     
  -40151782.1685759     
  -40164967.9829806     
  -40177402.6371661     
  -40188925.8886529     
  -40199363.5063872     
  -40208490.6668723     
  -40215975.1799159     
  -40221253.0470924     
  -40223241.0144586     
  -40218442.4583219     
SCALARS 2waySource double 
LOOKUP_TABLE default
 -9.991203175254693E-010
 -1.001171532889522E-009
 -1.002454976540638E-009
 -1.002825327012304E-009
 -1.002149036978311E-009
 -1.000302837304377E-009
 -9.971720001572477E-010
 -9.926495662044164E-010
 -9.866343509601030E-010
 -9.790302485968483E-010
 -9.697459076556685E-010
 -9.586948986914357E-010
 -9.457965826897968E-010
 -9.309775572751495E-010
 -9.141737988480427E-010
 -9.951516635654919E-010
 -9.972866720278304E-010
 -9.986893401336940E-010
 -9.992086097386088E-010
 -9.987049825534033E-010
 -9.970499295157208E-010
 -9.941235732381977E-010
 -9.898141857760834E-010
 -9.840163562937503E-010
 -9.766302889932310E-010
 -9.675615171065607E-010
 -9.567211703622890E-010
 -9.440268279920896E-010
 -9.294039834831515E-010
 -9.127881154957238E-010
 -9.884191486186654E-010
 -9.906623244127529E-010
 -9.922389895010262E-010
 -9.929869796083464E-010
 -9.927564963062334E-010
 -9.914088360760121E-010
 -9.888148079157523E-010
 -9.848539124302598E-010
 -9.794131763150925E-010
 -9.723861667104966E-010
 -9.636730313213692E-010
 -9.531807827734050E-010
 -9.408241894359370E-010
 -9.265271933865401E-010
 -9.102249360513649E-010
 -9.789388996731681E-010
 -9.813160324737748E-010
 -9.831229440514710E-010
 -9.841813790957338E-010
 -9.843257891084698E-010
 -9.834026293374640E-010
 -9.812688012887812E-010
 -9.777910153616441E-010
 -9.728451065032403E-010
 -9.663150825543879E-010
 -9.580933725923533E-010
 -9.480812368263299E-010
 -9.361896185015983E-010
 -9.223404974050963E-010
 -9.064688323746604E-010
 -9.667367027223204E-010
 -9.692749367207545E-010
 -9.713701847168685E-010
 -9.728222504604855E-010
 -9.734446020251686E-010
 -9.730634878346525E-010
 -9.715171575263120E-010
 -9.686551733229285E-010
 -9.643385234206446E-010
 -9.584385991631896E-010
 -9.508378059146802E-010
 -9.414299919106889E-010
 -9.301212798747538E-010
 -9.168313254733356E-010
 -9.014950327657423E-010
 -9.518476337116694E-010
 -9.545753965753207E-010
 -9.570183920269188E-010
 -9.589487475124192E-010
 -9.601526737075045E-010
 -9.604308097645530E-010
 -9.595975542050394E-010
 -9.574809010376751E-010
 -9.539230794357783E-010
 -9.487797735485404E-010
 -9.419210466393047E-010
 -9.332316671142598E-010
 -9.226119497800869E-010
 -9.099788391667966E-010
 -8.952673137074432E-010
 -9.343157050074371E-010
 -9.372623978595954E-010
 -9.401136699768695E-010
 -9.426070575051021E-010
 -9.444957260207563E-010
 -9.455485907995133E-010
 -9.455507817702338E-010
 -9.443041114968239E-010
 -9.416280045680085E-010
 -9.373593995747764E-010
 -9.313535347207476E-010
 -9.234844544548711E-010
 -9.136456451162067E-010
 -9.017508767895171E-010
 -8.877352874418881E-010
 -9.141934292261760E-010
 -9.173888773809723E-010
 -9.207084257930656E-010
 -9.238486261798293E-010
 -9.265228134283583E-010
 -9.284620823804005E-010
 -9.294167942814371E-010
 -9.291578021148351E-010
 -9.274776137168437E-010
 -9.241913388562298E-010
 -9.191368838730701E-010
 -9.121757918712531E-010
 -9.031935680084676E-010
 -8.921002792455667E-010
 -8.788311901564108E-010
 -8.915414834393630E-010
 -8.950147560453789E-010
 -8.988604037644436E-010
 -9.027274331071265E-010
 -9.062827460461862E-010
 -9.092135134188343E-010
 -9.112297670251044E-010
 -9.120666166084088E-010
 -9.114857629151075E-010
 -9.092770550887063E-010
 -9.052585220234209E-010
 -8.992772328554272E-010
 -8.912094018064349E-010
 -8.809606521775316E-010
 -8.684662451670530E-010
 -8.664278251204718E-010
 -8.702057289572159E-010
 -8.746301225070901E-010
 -8.792967124051152E-010
 -8.838197756573260E-010
 -8.878368540276951E-010
 -8.910123731039559E-010
 -8.930409755855131E-010
 -8.936496533942288E-010
 -8.925994223341833E-010
 -8.896856807013184E-010
 -8.847387580167847E-010
 -8.776239771356119E-010
 -8.682416270405758E-010
 -8.565266772072505E-010
 -8.389272387552208E-010
 -8.430316845681655E-010
 -8.480782224115642E-010
 -8.536048758869944E-010
 -8.591684377623982E-010
 -8.643518999733126E-010
 -8.687692458832760E-010
 -8.720701896949171E-010
 -8.739429273646218E-010
 -8.741158743883579E-010
 -8.723586882780586E-010
 -8.684823068481821E-010
 -8.623393342461103E-010
 -8.538236558365022E-010
 -8.428696101128712E-010
 -8.091205048764578E-010
 -8.135650387119973E-010
 -8.192623442768492E-010
 -8.256909353058084E-010
 -8.323477738498074E-010
 -8.387575551714076E-010
 -8.444798288320568E-010
 -8.491150531481525E-010
 -8.523081602267921E-010
 -8.537510373112969E-010
 -8.531836093451429E-010
 -8.503947404171479E-010
 -8.452221933735611E-010
 -8.375525014087517E-010
 -8.273191049455962E-010
 -7.770934383043155E-010
 -7.818787816239472E-010
 -7.882335880258470E-010
 -7.955797686770420E-010
 -8.033553148162988E-010
 -8.110250748433286E-010
 -8.180911229927282E-010
 -8.241002262341660E-010
 -8.286492318583296E-010
 -8.313885485510321E-010
 -8.320243543915030E-010
 -8.303200153334994E-010
 -8.260969558738858E-010
 -8.192336873948157E-010
 -8.096628745555467E-010
 -7.429360226603405E-010
 -7.480448975308007E-010
 -7.550338663046685E-010
 -7.632780676573625E-010
 -7.721617535028337E-010
 -7.810917457537266E-010
 -7.895105004339491E-010
 -7.969065973390207E-010
 -8.028229389682905E-010
 -8.068626643096962E-010
 -8.086935707040848E-010
 -8.080508310953322E-010
 -8.047384338316202E-010
 -7.986274746489259E-010
 -7.896505254864966E-010
 -7.067419239670633E-010
 -7.121334036519181E-010
 -7.196948816422294E-010
 -7.287721572018977E-010
 -7.387077799166165E-010
 -7.488561499699246E-010
 -7.585995999687446E-010
 -7.673636274306110E-010
 -7.746301727256783E-010
 -7.799484250929983E-010
 -7.829429935761744E-010
 -7.833192183572562E-010
 -7.808645811022788E-010
 -7.754450126674467E-010
 -7.669945650472314E-010
 -6.686074460342412E-010
 -6.742135028496379E-010
 -6.822400424266191E-010
 -6.920302026924158E-010
 -7.029047305140651E-010
 -7.141764350620979E-010
 -7.251695552263372E-010
 -7.352417327463293E-010
 -7.438059928641647E-010
 -7.503502243237553E-010
 -7.544520368618848E-010
 -7.557873599781381E-010
 -7.541309693393092E-010
 -7.493477708404043E-010
 -7.413753326297669E-010
 -6.286321375365089E-010
 -6.343568594646112E-010
 -6.426912753997333E-010
 -6.530106114123603E-010
 -6.646416187672348E-010
 -6.768734306737374E-010
 -6.889787714192446E-010
 -7.002446215410918E-010
 -7.100076911953500E-010
 -7.176881095161637E-010
 -7.228148507920904E-010
 -7.250383594729868E-010
 -7.241273610548026E-010
 -7.199513199504962E-010
 -7.124521486809194E-010
 -5.869190236487120E-010
 -5.926438412198202E-010
 -6.010817688401294E-010
 -6.116782214428358E-010
 -6.238005010052036E-010
 -6.367404089286191E-010
 -6.497340408672885E-010
 -6.620014142932991E-010
 -6.728002698801301E-010
 -6.814808305110580E-010
 -6.875264339955299E-010
 -6.905692932510588E-010
 -6.903797748838326E-010
 -6.868356152310064E-010
 -6.798802791350826E-010
 -5.435759601232625E-010
 -5.491716530398716E-010
 -5.574728692490237E-010
 -5.680282270736066E-010
 -5.802814091062951E-010
 -5.935615757961638E-010
 -6.070965590003727E-010
 -6.200587499389154E-010
 -6.316389376603940E-010
 -6.411269119622267E-010
 -6.479696188193967E-010
 -6.517889357233102E-010
 -6.523594746596071E-010
 -6.495626724473785E-010
 -6.433334927484314E-010
 -4.987173843511667E-010
 -5.040624760340667E-010
 -5.119715888194502E-010
 -5.221131861753438E-010
 -5.340340223463229E-010
 -5.471386075657377E-010
 -5.606938830911423E-010
 -5.738751082428713E-010
 -5.858519534032948E-010
 -5.958871152935156E-010
 -6.034076268141445E-010
 -6.080237710968075E-010
 -6.094998517008798E-010
 -6.076996806297338E-010
 -6.025287400057842E-010
 -4.524665642153369E-010
 -4.574685322442672E-010
 -4.647419933152120E-010
 -4.740639414629126E-010
 -4.850864538937870E-010
 -4.973194143126925E-010
 -5.101378894042836E-010
 -5.228233643390358E-010
 -5.346337374551361E-010
 -5.448802385807918E-010
 -5.529899450310492E-010
 -5.585343605369379E-010
 -5.612188386991704E-010
 -5.608426812166452E-010
 -5.572476810443427E-010
 -4.049589546651620E-010
 -4.095722596920456E-010
 -4.160042720190947E-010
 -4.240899844275618E-010
 -4.335506881865191E-010
 -4.440105839359055E-010
 -4.550440854200626E-010
 -4.662158536655552E-010
 -4.770735170545939E-010
 -4.871122684990872E-010
 -4.957796096816297E-010
 -5.025387044133820E-010
 -5.069378418037878E-010
 -5.086314135813870E-010
 -5.073494218486360E-010
 -3.563462839046943E-010
 -3.605836587318738E-010
 -3.660171176359895E-010
 -3.724435589330421E-010
 -3.795721869513539E-010
 -3.871371903164542E-010
 -3.950405829526197E-010
 -4.033778546195255E-010
 -4.122642478904582E-010
 -4.215720212263899E-010
 -4.308087228662188E-010
 -4.392322514720319E-010
 -4.460831729594765E-010
 -4.507459852666335E-010
 -4.527695289955405E-010
 -3.068049713291461E-010
 -3.107377979112267E-010
 -3.150432872126285E-010
 -3.193264408008998E-010
 -3.231829757612202E-010
 -3.265108875668425E-010
 -3.297544392668345E-010
 -3.337976153926991E-010
 -3.395408104532868E-010
 -3.474302966252735E-010
 -3.571708708950314E-010
 -3.677921119110830E-010
 -3.780530027224363E-010
 -3.868741012271665E-010
 -3.935044686805031E-010
 -2.565506180154578E-010
 -2.602966515501406E-010
 -2.632833027336479E-010
 -2.647018860937448E-010
 -2.640255724513657E-010
 -2.616165465394279E-010
 -2.588024964761459E-010
 -2.573396944085491E-010
 -2.588322683638484E-010
 -2.643724448906301E-010
 -2.741923020624669E-010
 -2.873744908032472E-010
 -3.021362796160316E-010
 -3.166348274462500E-010
 -3.295813207173900E-010
 -2.058674277628280E-010
 -2.095429859999694E-010
 -2.107082940840728E-010
 -2.079177338934111E-010
 -2.009805606958919E-010
 -1.914889422054208E-010
 -1.818840748070400E-010
 -1.744053564413967E-010
 -1.709356680060645E-010
 -1.730421857952337E-010
 -1.818035446571190E-010
 -1.972018911355148E-010
 -2.173807164625471E-010
 -2.394336939968168E-010
 -2.610080405874210E-010
 -1.551610034157261E-010
 -1.586993966530153E-010
 -1.565460643265971E-010
 -1.470414897316523E-010
 -1.319843801638612E-010
 -1.150385200064717E-010
 -9.899163866893708E-011
 -8.587763954375496E-011
 -7.741100719865659E-011
 -7.528834157701516E-011
 -8.130056070933047E-011
 -9.702876678028221E-011
 -1.225186805623673E-010
 -1.541511721012271E-010
 -1.877207156163417E-010
 -1.050976683738667E-010
 -1.073257640715419E-010
 -9.794641303324413E-011
 -7.821721402755232E-011
 -5.495317453065931E-011
 -3.171831099906838E-011
 -1.052457632217761E-011
  7.154059671412821E-012
  1.993539381107435E-011
  2.627112979105560E-011
  2.419812742297439E-011
  1.108050550262124E-011
 -1.622503861314344E-011
 -5.869342411987519E-011
 -1.094490762622287E-010
 -5.615488839396813E-011
 -5.208491502243461E-011
 -2.713015827429391E-011
  1.842460379866297E-012
  3.083185363651441E-011
  5.821824817641854E-011
  8.285984204614842E-011
  1.036948435101933E-010
  1.195923729316869E-010
  1.292149972063836E-010
  1.308083383156104E-010
  1.217953390471432E-010
  9.794442113403570E-011
  5.218353982692027E-011
 -2.659431994811042E-011
 -9.221250513943176E-012
  2.649335761307318E-011
  6.045263363992362E-011
  9.328601519194708E-011
  1.247632233469171E-010
  1.541236421290199E-010
  1.805086667892239E-010
  2.029957932471833E-010
  2.205576195730736E-010
  2.319739583279828E-010
  2.356749866605470E-010
  2.294348147337805E-010
  2.096142807615247E-010
  1.686224978191028E-010
  7.757225896506602E-011
SCALARS poroP double 
LOOKUP_TABLE default
  1.813679320243312E-005
  1.814453751175756E-005
  1.814782800391011E-005
  1.814659891144299E-005
  1.814075462858273E-005
  1.813018473717285E-005
  1.811477229548337E-005
  1.809440783164897E-005
  1.806900599724486E-005
  1.803850872340977E-005
  1.800289132743572E-005
  1.796216886104830E-005
  1.791640185901000E-005
  1.786570123758518E-005
  1.781023147103244E-005
  1.813510584666029E-005
  1.814284326888457E-005
  1.814613342167448E-005
  1.814491342444895E-005
  1.813909084015966E-005
  1.812855881249155E-005
  1.811320531301316E-005
  1.809292291765930E-005
  1.806762639682203E-005
  1.803725867896637E-005
  1.800179502506756E-005
  1.796124966521589E-005
  1.791568182710609E-005
  1.786520086069563E-005
  1.780996972415516E-005
  1.813171072872777E-005
  1.813943402670906E-005
  1.814272420215298E-005
  1.814152402126247E-005
  1.813574757497288E-005
  1.812529483449464E-005
  1.811006217209947E-005
  1.808994662843837E-005
  1.806486404724905E-005
  1.803475880568397E-005
  1.799960560158550E-005
  1.795941693070676E-005
  1.791424946177808E-005
  1.786420954259680E-005
  1.780945696690502E-005
  1.812656656642226E-005
  1.813426806033513E-005
  1.813756036532685E-005
  1.813639431527869E-005
  1.813069365011489E-005
  1.812036861680789E-005
  1.810532465380032E-005
  1.808546650983212E-005
  1.806071346311924E-005
  1.803100997562422E-005
  1.799632956072653E-005
  1.795668195692781E-005
  1.791212004640188E-005
  1.786274578617505E-005
  1.780871447273988E-005
  1.811961046887038E-005
  1.812728226294788E-005
  1.813058197900295E-005
  1.812947042188261E-005
  1.812388306835507E-005
  1.811374158765159E-005
  1.809896418826103E-005
  1.807946577228674E-005
  1.805516764836269E-005
  1.802601412776543E-005
  1.799197675107704E-005
  1.795306146204959E-005
  1.790931615127232E-005
  1.786083711712980E-005
  1.780777420450149E-005
  1.811075714450358E-005
  1.811839175171811E-005
  1.812170909125096E-005
  1.812068080666200E-005
  1.811525555314142E-005
  1.810536684318450E-005
  1.809094704928988E-005
  1.807192345719609E-005
  1.804821835796763E-005
  1.801977424836071E-005
  1.798656017741656E-005
  1.794857723572955E-005
  1.790586717452627E-005
  1.785851985466767E-005
  1.780667893734991E-005
  1.809989836659613E-005
  1.810748983339915E-005
  1.811084228782489E-005
  1.810993759105650E-005
  1.810473774515528E-005
  1.809519025850583E-005
  1.808123646232199E-005
  1.806281600725365E-005
  1.803985625632247E-005
  1.801229425535373E-005
  1.798009573792914E-005
  1.794325560199553E-005
  1.790180879572041E-005
  1.785583850014039E-005
  1.780548201874371E-005
  1.808690425813756E-005
  1.809444903911800E-005
  1.809786421854184E-005
  1.809713885736231E-005
  1.809224666441000E-005
  1.808314701254205E-005
  1.806978911927509E-005
  1.805211922449993E-005
  1.803007127371226E-005
  1.800357927968276E-005
  1.797260147402885E-005
  1.793712628817448E-005
  1.789718193081956E-005
  1.785284519102597E-005
  1.780424759096700E-005
  1.807162625430390E-005
  1.807912426765547E-005
  1.808264217861784E-005
  1.808217095491575E-005
  1.807769044809515E-005
  1.806916774515988E-005
  1.805655494869916E-005
  1.803980302572602E-005
  1.801885321924788E-005
  1.799363404080080E-005
  1.796409553559093E-005
  1.793022058544163E-005
  1.789203144873973E-005
  1.784959929851331E-005
  1.780305101744567E-005
  1.805389645173377E-005
  1.806135691444827E-005
  1.806503309703224E-005
  1.806491138785784E-005
  1.806097050947027E-005
  1.805317759794899E-005
  1.804148540475427E-005
  1.802584002060011E-005
  1.800618796299965E-005
  1.798245892981918E-005
  1.795459304003926E-005
  1.792256919608075E-005
  1.788640485914272E-005
  1.784616704906340E-005
  1.780197921265637E-005
  1.803353897188434E-005
  1.804097930172735E-005
  1.804488865713374E-005
  1.804523409999485E-005
  1.804198442196322E-005
  1.803509838958049E-005
  1.802452262896814E-005
  1.801019375648048E-005
  1.799205524049104E-005
  1.797004595259096E-005
  1.794410318687990E-005
  1.791419955558184E-005
  1.788035086584355E-005
  1.784262132399306E-005
  1.780113123825192E-005
  1.801038411001803E-005
  1.801782753735327E-005
  1.802206164238422E-005
  1.802301433775937E-005
  1.802062861972978E-005
  1.801484582765871E-005
  1.800559845285609E-005
  1.799281174836660E-005
  1.797642027097243E-005
  1.795637569522604E-005
  1.793262396674723E-005
  1.790513272345546E-005
  1.787391820976200E-005
  1.783904180566729E-005
  1.780061874456886E-005
  1.798428522726696E-005
  1.799175789242193E-005
  1.799641802530711E-005
  1.799813256902929E-005
  1.799679860162334E-005
  1.799232642637174E-005
  1.798462906312352E-005
  1.797362202364293E-005
  1.795923067641091E-005
  1.794141132120423E-005
  1.792013643435999E-005
  1.789538055834167E-005
  1.786715485685357E-005
  1.783551558344050E-005
  1.780056614233622E-005
  1.795514184955828E-005
  1.796266473687524E-005
  1.796785105482962E-005
  1.797048159780688E-005
  1.797038792741662E-005
  1.796743416796027E-005
  1.796150837206596E-005
  1.795251832989866E-005
  1.794039250067056E-005
  1.792508898494313E-005
  1.790660474357220E-005
  1.788494291886502E-005
  1.786010817193044E-005
  1.783213792561678E-005
  1.780110997954592E-005
  1.792292750698161E-005
  1.793050251129746E-005
  1.793629514567067E-005
  1.793997465666439E-005
  1.794128810086221E-005
  1.794004283509603E-005
  1.793609743539100E-005
  1.792935650845235E-005
  1.791976494147446E-005
  1.790730037942883E-005
  1.789197195341492E-005
  1.787381021572612E-005
  1.785282504640249E-005
  1.782901246460671E-005
  1.780239681534269E-005
  1.788771976465284E-005
  1.789530956176833E-005
  1.790174123521733E-005
  1.790655204178547E-005
  1.790938983877378E-005
  1.790999934264040E-005
  1.790821326241521E-005
  1.790394238314949E-005
  1.789716063967400E-005
  1.788788388717995E-005
  1.787614370657582E-005
  1.786196693926680E-005
  1.784535447561400E-005
  1.782624996118328E-005
  1.780457827174443E-005
  1.784972813950378E-005
  1.785723092597306E-005
  1.786425218853092E-005
  1.787018836693861E-005
  1.787458346083964E-005
  1.787712220020868E-005
  1.787762283399444E-005
  1.787602054342523E-005
  1.787233730006165E-005
  1.786663856187135E-005
  1.785898287932339E-005
  1.784937614987227E-005
  1.783775184369917E-005
  1.782396465679506E-005
  1.780780247496351E-005
  1.780931437719986E-005
  1.781653544345825E-005
  1.782397638075143E-005
  1.783090162925916E-005
  1.783676274321514E-005
  1.784120096850699E-005
  1.784404347057676E-005
  1.784527765797882E-005
  1.784499692565437E-005
  1.784332439482676E-005
  1.784033142313245E-005
  1.783597264964507E-005
  1.783005558078123E-005
  1.782226597123591E-005
  1.781219971316908E-005
  1.776699397638200E-005
  1.777362231442549E-005
  1.778115738956523E-005
  1.778876385994413E-005
  1.779583453757301E-005
  1.780200421227037E-005
  1.780715118365496E-005
  1.781135467880049E-005
  1.781480361258788E-005
  1.781767505143025E-005
  1.782001819602976E-005
  1.782167704641095E-005
  1.782226932945936E-005
  1.782122579912989E-005
  1.781786820576405E-005
  1.772343424279361E-005
  1.772901156774063E-005
  1.773613396209880E-005
  1.774391137523799E-005
  1.775173422112835E-005
  1.775930053850275E-005
  1.776660863343142E-005
  1.777388134423018E-005
  1.778141829519756E-005
  1.778942212819119E-005
  1.779785734855507E-005
  1.780638029578612E-005
  1.781434190895366E-005
  1.782084450893922E-005
  1.782484653282974E-005
  1.767941893924288E-005
  1.768333013240759E-005
  1.768933013859209E-005
  1.769654669503665E-005
  1.770444680143002E-005
  1.771289832991545E-005
  1.772212439390834E-005
  1.773254580437702E-005
  1.774455935029708E-005
  1.775832665128811E-005
  1.777364254855627E-005
  1.778989937282802E-005
  1.780611781252534E-005
  1.782101152521636E-005
  1.783308855201667E-005
  1.763570241257332E-005
  1.763723711682462E-005
  1.764123669917013E-005
  1.764693586855479E-005
  1.765403044749588E-005
  1.766271635033872E-005
  1.767355996629457E-005
  1.768720856995171E-005
  1.770408592639784E-005
  1.772420720451344E-005
  1.774712039787779E-005
  1.777191724410835E-005
  1.779726664167314E-005
  1.782145312067387E-005
  1.784244342447019E-005
  1.759301088446584E-005
  1.759130766362279E-005
  1.759229259375270E-005
  1.759537836654301E-005
  1.760066696008205E-005
  1.760890396408109E-005
  1.762109981255456E-005
  1.763805695593991E-005
  1.766008418818508E-005
  1.768694957349662E-005
  1.771794382543598E-005
  1.775190865699287E-005
  1.778720545854945E-005
  1.782167317420337E-005
  1.785263483312300E-005
  1.755199000847667E-005
  1.754599996460751E-005
  1.754278821415259E-005
  1.754210714214389E-005
  1.754471332885363E-005
  1.755204378667732E-005
  1.756547471384000E-005
  1.758575491151794E-005
  1.761292184173615E-005
  1.764649576978096E-005
  1.768562906353700E-005
  1.772907817833590E-005
  1.777502827253913E-005
  1.782089907348476E-005
  1.786324872136172E-005
  1.751310371944886E-005
  1.750154007602336E-005
  1.749280428055744E-005
  1.748732904140506E-005
  1.748684551358677E-005
  1.749335891555526E-005
  1.750812734982790E-005
  1.753149956373856E-005
  1.756324579338215E-005
  1.760284612131888E-005
  1.764957097082874E-005
  1.770235606328609E-005
  1.775946558172695E-005
  1.781802410021900E-005
  1.787370995641367E-005
  1.747654249841800E-005
  1.745776368684950E-005
  1.744217654026706E-005
  1.743149257623624E-005
  1.742845001099299E-005
  1.743483171536595E-005
  1.745104847525242E-005
  1.747686057959679E-005
  1.751196787432030E-005
  1.755615498239114E-005
  1.760917770471697E-005
  1.767050935835234E-005
  1.773888803424296E-005
  1.781154197307286E-005
  1.788325299967822E-005
  1.744206376507996E-005
  1.741402562122035E-005
  1.739083849098474E-005
  1.737598346191365E-005
  1.737191828862491E-005
  1.737889494038098E-005
  1.739624081072024E-005
  1.742339876720553E-005
  1.746023228422933E-005
  1.750700236617831E-005
  1.756421942411148E-005
  1.763238690179668E-005
  1.771142072362442E-005
  1.779942307114962E-005
  1.789085290312313E-005
  1.740880864918692E-005
  1.736954806441449E-005
  1.734027170334802E-005
  1.732380908074805E-005
  1.732000255415805E-005
  1.732746016746698E-005
  1.734507881532727E-005
  1.737235904148054E-005
  1.740935685597775E-005
  1.745667211894510E-005
  1.751548258947709E-005
  1.758753819066027E-005
  1.767504496641938E-005
  1.777907435337122E-005
  1.789502527093267E-005
  1.737494485494315E-005
  1.732653318316530E-005
  1.729483609520756E-005
  1.727811397817735E-005
  1.727414277997014E-005
  1.728113098764186E-005
  1.729808705208580E-005
  1.732458762141663E-005
  1.736071546009736E-005
  1.740712754864182E-005
  1.746525825048057E-005
  1.753770153126913E-005
  1.762877028769841E-005
  1.774598066049280E-005
  1.789360355147171E-005
  1.734787375007039E-005
  1.729239132141995E-005
  1.725755055797484E-005
  1.723924748273819E-005
  1.723391916007905E-005
  1.723966234273004E-005
  1.725542767012984E-005
  1.728072695106621E-005
  1.731555463625283E-005
  1.736046318092121E-005
  1.741681194516842E-005
  1.748732204124929E-005
  1.757734244969387E-005
  1.769778198205379E-005
  1.787982517946155E-005
SCALARS elementIsPlast double 
LOOKUP_TABLE default
   1.00000000000000     
   1.00000000000000     
   1.00000000000000     
   1.00000000000000     
   1.00000000000000     
   1.00000000000000     
   1.00000000000000     
   1.00000000000000     
   1.00000000000000     
   1.00000000000000     
   1.00000000000000     
   1.00000000000000     
   1.00000000000000     
   1.00000000000000     
   1.00000000000000     
   1.00000000000000     
   1.00000000000000     
   1.00000000000000     
   1.00000000000000     
   1.00000000000000     
   1.00000000000000     
   1.00000000000000     
   1.00000000000000     
   1.00000000000000     
   1.00000000000000     
   1.00000000000000     
   1.00000000000000     
   1.00000000000000     
   1.00000000000000     
   1.00000000000000     
   1.00000000000000     
   1.00000000000000     
   1.00000000000000     
   1.00000000000000     
   1.00000000000000     
   1.00000000000000     
   1.00000000000000     
   1.00000000000000     
   1.00000000000000     
   1.00000000000000     
   1.00000000000000     
   1.00000000000000     
   1.00000000000000     
   1.00000000000000     
   1.00000000000000     
   1.00000000000000     
   1.00000000000000     
   1.00000000000000     
   1.00000000000000     
   1.00000000000000     
   1.00000000000000     
   1.00000000000000     
   1.00000000000000     
   1.00000000000000     
   1.00000000000000     
   1.00000000000000     
   1.00000000000000     
   1.00000000000000     
   1.00000000000000     
   1.00000000000000     
   1.00000000000000     
   1.00000000000000     
   1.00000000000000     
   1.00000000000000     
   1.00000000000000     
   1.00000000000000     
   1.00000000000000     
   1.00000000000000     
   1.00000000000000     
   1.00000000000000     
   1.00000000000000     
   1.00000000000000     
   1.00000000000000     
   1.00000000000000     
   1.00000000000000     
   1.00000000000000     
   1.00000000000000     
   1.00000000000000     
   1.00000000000000     
   1.00000000000000     
   1.00000000000000     
   1.00000000000000     
   1.00000000000000     
   1.00000000000000     
   1.00000000000000     
   1.00000000000000     
   1.00000000000000     
   1.00000000000000     
   1.00000000000000     
   1.00000000000000     
   1.00000000000000     
   1.00000000000000     
   1.00000000000000     
   1.00000000000000     
   1.00000000000000     
   1.00000000000000     
   1.00000000000000     
   1.00000000000000     
   1.00000000000000     
   1.00000000000000     
   1.00000000000000     
   1.00000000000000     
   1.00000000000000     
   1.00000000000000     
   1.00000000000000     
   1.00000000000000     
   1.00000000000000     
   1.00000000000000     
   1.00000000000000     
   1.00000000000000     
   1.00000000000000     
   1.00000000000000     
   1.00000000000000     
   1.00000000000000     
   1.00000000000000     
   1.00000000000000     
   1.00000000000000     
   1.00000000000000     
   1.00000000000000     
   1.00000000000000     
   1.00000000000000     
   1.00000000000000     
   1.00000000000000     
   1.00000000000000     
   1.00000000000000     
   1.00000000000000     
   1.00000000000000     
   1.00000000000000     
   1.00000000000000     
   1.00000000000000     
   1.00000000000000     
   1.00000000000000     
   1.00000000000000     
   1.00000000000000     
   1.00000000000000     
   1.00000000000000     
   1.00000000000000     
   1.00000000000000     
   1.00000000000000     
   1.00000000000000     
   1.00000000000000     
   1.00000000000000     
   1.00000000000000     
   1.00000000000000     
   1.00000000000000     
   1.00000000000000     
   1.00000000000000     
   1.00000000000000     
   1.00000000000000     
   1.00000000000000     
   1.00000000000000     
   1.00000000000000     
   1.00000000000000     
   1.00000000000000     
   1.00000000000000     
   1.00000000000000     
   1.00000000000000     
   1.00000000000000     
   1.00000000000000     
   1.00000000000000     
   1.00000000000000     
   1.00000000000000     
   1.00000000000000     
   1.00000000000000     
   1.00000000000000     
   1.00000000000000     
   1.00000000000000     
   1.00000000000000     
   1.00000000000000     
   1.00000000000000     
   1.00000000000000     
   1.00000000000000     
   1.00000000000000     
   1.00000000000000     
   1.00000000000000     
   1.00000000000000     
   1.00000000000000     
   1.00000000000000     
   1.00000000000000     
   1.00000000000000     
   1.00000000000000     
   1.00000000000000     
   1.00000000000000     
   1.00000000000000     
   1.00000000000000     
   1.00000000000000     
   1.00000000000000     
   1.00000000000000     
   1.00000000000000     
   1.00000000000000     
   1.00000000000000     
   1.00000000000000     
   1.00000000000000     
   1.00000000000000     
   1.00000000000000     
   1.00000000000000     
   1.00000000000000     
   1.00000000000000     
   1.00000000000000     
   1.00000000000000     
   1.00000000000000     
   1.00000000000000     
   1.00000000000000     
   1.00000000000000     
   1.00000000000000     
   1.00000000000000     
   1.00000000000000     
   1.00000000000000     
   1.00000000000000     
   1.00000000000000     
   1.00000000000000     
   1.00000000000000     
   1.00000000000000     
   1.00000000000000     
   1.00000000000000     
   1.00000000000000     
   1.00000000000000     
   1.00000000000000     
   1.00000000000000     
   1.00000000000000     
   1.00000000000000     
   1.00000000000000     
   1.00000000000000     
   1.00000000000000     
   1.00000000000000     
   1.00000000000000     
   1.00000000000000     
   1.00000000000000     
   1.00000000000000     
   1.00000000000000     
   1.00000000000000     
   1.00000000000000     
   1.00000000000000     
   1.00000000000000     
   1.00000000000000     
   1.00000000000000     
   1.00000000000000     
   1.00000000000000     
   1.00000000000000     
   1.00000000000000     
   1.00000000000000     
   1.00000000000000     
   1.00000000000000     
   1.00000000000000     
   1.00000000000000     
   1.00000000000000     
   1.00000000000000     
   1.00000000000000     
   1.00000000000000     
   1.00000000000000     
   1.00000000000000     
   1.00000000000000     
   1.00000000000000     
   1.00000000000000     
   1.00000000000000     
   1.00000000000000     
   1.00000000000000     
   1.00000000000000     
   1.00000000000000     
   1.00000000000000     
   1.00000000000000     
   1.00000000000000     
   1.00000000000000     
   1.00000000000000     
   1.00000000000000     
   1.00000000000000     
   1.00000000000000     
   1.00000000000000     
   1.00000000000000     
   1.00000000000000     
   1.00000000000000     
   1.00000000000000     
   1.00000000000000     
   1.00000000000000     
   1.00000000000000     
   1.00000000000000     
   1.00000000000000     
   1.00000000000000     
   1.00000000000000     
   1.00000000000000     
   1.00000000000000     
   1.00000000000000     
   1.00000000000000     
   1.00000000000000     
   1.00000000000000     
   1.00000000000000     
   1.00000000000000     
   1.00000000000000     
   1.00000000000000     
   1.00000000000000     
   1.00000000000000     
   1.00000000000000     
   1.00000000000000     
   1.00000000000000     
   1.00000000000000     
   1.00000000000000     
   1.00000000000000     
   1.00000000000000     
   1.00000000000000     
   1.00000000000000     
   1.00000000000000     
   1.00000000000000     
   1.00000000000000     
   1.00000000000000     
   1.00000000000000     
   1.00000000000000     
   1.00000000000000     
   1.00000000000000     
   1.00000000000000     
   1.00000000000000     
   1.00000000000000     
   1.00000000000000     
   1.00000000000000     
   1.00000000000000     
   1.00000000000000     
   1.00000000000000     
   1.00000000000000     
   1.00000000000000     
   1.00000000000000     
   1.00000000000000     
   1.00000000000000     
   1.00000000000000     
   1.00000000000000     
   1.00000000000000     
   1.00000000000000     
   1.00000000000000     
   1.00000000000000     
   1.00000000000000     
   1.00000000000000     
   1.00000000000000     
   1.00000000000000     
   1.00000000000000     
   1.00000000000000     
   1.00000000000000     
   1.00000000000000     
   1.00000000000000     
   1.00000000000000     
   1.00000000000000     
   1.00000000000000     
   1.00000000000000     
   1.00000000000000     
   1.00000000000000     
   1.00000000000000     
   1.00000000000000     
   1.00000000000000     
   1.00000000000000     
   1.00000000000000     
   1.00000000000000     
   1.00000000000000     
   1.00000000000000     
   1.00000000000000     
   1.00000000000000     
   1.00000000000000     
   1.00000000000000     
   1.00000000000000     
   1.00000000000000     
   1.00000000000000     
   1.00000000000000     
   1.00000000000000     
   1.00000000000000     
   1.00000000000000     
   1.00000000000000     
   1.00000000000000     
   1.00000000000000     
   1.00000000000000     
   1.00000000000000     
   1.00000000000000     
   1.00000000000000     
   1.00000000000000     
   1.00000000000000     
   1.00000000000000     
   1.00000000000000     
   1.00000000000000     
   1.00000000000000     
   1.00000000000000     
   1.00000000000000     
   1.00000000000000     
   1.00000000000000     
   1.00000000000000     
   1.00000000000000     
   1.00000000000000     
   1.00000000000000     
   1.00000000000000     
   1.00000000000000     
   1.00000000000000     
   1.00000000000000     
   1.00000000000000     
   1.00000000000000     
   1.00000000000000     
   1.00000000000000     
   1.00000000000000     
   1.00000000000000     
   1.00000000000000     
   1.00000000000000     
   1.00000000000000     
   1.00000000000000     
   1.00000000000000     
   1.00000000000000     
   1.00000000000000     
   1.00000000000000     
   1.00000000000000     
   1.00000000000000     
   1.00000000000000     
   1.00000000000000     
   1.00000000000000     
   1.00000000000000     
   1.00000000000000     
   1.00000000000000     
   1.00000000000000     
   1.00000000000000     
   1.00000000000000     
   1.00000000000000     
   1.00000000000000     
   1.00000000000000     
   1.00000000000000     
   1.00000000000000     
   1.00000000000000     
   1.00000000000000     
   1.00000000000000     
   1.00000000000000     
   1.00000000000000     
   1.00000000000000     
   1.00000000000000     
   1.00000000000000     
   1.00000000000000     
   1.00000000000000     
   1.00000000000000     
   1.00000000000000     
   1.00000000000000     
   1.00000000000000     
   1.00000000000000     
   1.00000000000000     
   1.00000000000000     
   1.00000000000000     
   1.00000000000000     
   1.00000000000000     
   1.00000000000000     
   1.00000000000000     
   1.00000000000000     
   1.00000000000000     
   1.00000000000000     
   1.00000000000000     
   1.00000000000000     
   1.00000000000000     
   1.00000000000000     
   1.00000000000000     
   1.00000000000000     
   1.00000000000000     
   1.00000000000000     
   1.00000000000000     
SCALARS poroL double 
LOOKUP_TABLE default
  0.155786761276052     
  0.155786773984747     
  0.155786785099055     
  0.155786794337021     
  0.155786801393340     
  0.155786805955267     
  0.155786807713391     
  0.155786806374475     
  0.155786801676735     
  0.155786793395337     
  0.155786781350179     
  0.155786765413837     
  0.155786745519194     
  0.155786721666596     
  0.155786693929925     
  0.155786759648047     
  0.155786772424513     
  0.155786783676680     
  0.155786793104842     
  0.155786800387839     
  0.155786805199614     
  0.155786807219524     
  0.155786806144137     
  0.155786801701626     
  0.155786793659565     
  0.155786781831805     
  0.155786766086095     
  0.155786746351717     
  0.155786722626659     
  0.155786694983931     
  0.155786756371889     
  0.155786769282001     
  0.155786780808031     
  0.155786790614838     
  0.155786798349762     
  0.155786803658973     
  0.155786806200337     
  0.155786805649628     
  0.155786801714475     
  0.155786794148214     
  0.155786782752081     
  0.155786767383995     
  0.155786747965983     
  0.155786724491417     
  0.155786697031360     
  0.155786751406627     
  0.155786764512650     
  0.155786776444869     
  0.155786786814934     
  0.155786795223535     
  0.155786801276314     
  0.155786804593747     
  0.155786804821329     
  0.155786801640846     
  0.155786794781217     
  0.155786784024610     
  0.155786769213840     
  0.155786750259842     
  0.155786727149056     
  0.155786699949958     
  0.155786744689557     
  0.155786758048402     
  0.155786770513623     
  0.155786781625864     
  0.155786790922865     
  0.155786797955258     
  0.155786802297484     
  0.155786803553439     
  0.155786801367590     
  0.155786795437146     
  0.155786785518470     
  0.155786771433709     
  0.155786753078877     
  0.155786730431028     
  0.155786703555677     
  0.155786736135057     
  0.155786749796635     
  0.155786762914052     
  0.155786774939285     
  0.155786785331900     
  0.155786793571253     
  0.155786799177061     
  0.155786801702204     
  0.155786800740959     
  0.155786795951355     
  0.155786787056154     
  0.155786773851630     
  0.155786756214708     
  0.155786734110901     
  0.155786707601955     
  0.155786725633458     
  0.155786739638958     
  0.155786753518150     
  0.155786766616914     
  0.155786778301372     
  0.155786787970689     
  0.155786795066218     
  0.155786799083319     
  0.155786799565184     
  0.155786796112780     
  0.155786788410860     
  0.155786776222927     
  0.155786759402523     
  0.155786737901383     
  0.155786711777411     
  0.155786713050774     
  0.155786727431673     
  0.155786742170050     
  0.155786756489444     
  0.155786769648813     
  0.155786780951032     
  0.155786789754410     
  0.155786795476486     
  0.155786797596268     
  0.155786795661112     
  0.155786789302906     
  0.155786778246515     
  0.155786762317304     
  0.155786741451238     
  0.155786715703161     
  0.155786698235518     
  0.155786713007246     
  0.155786728685933     
  0.155786744356457     
  0.155786759155194     
  0.155786772277325     
  0.155786782979086     
  0.155786790599174     
  0.155786794541666     
  0.155786794281960     
  0.155786789395043     
  0.155786779559405     
  0.155786764568639     
  0.155786744341133     
  0.155786718929671     
  0.155786681008513     
  0.155786696177406     
  0.155786712857618     
  0.155786729987008     
  0.155786746567754     
  0.155786761673274     
  0.155786774452773     
  0.155786784137953     
  0.155786790052825     
  0.155786791602337     
  0.155786788284688     
  0.155786779729672     
  0.155786765694184     
  0.155786746077667     
  0.155786720932469     
  0.155786661180358     
  0.155786676734959     
  0.155786694456436     
  0.155786713124535     
  0.155786731600121     
  0.155786748824693     
  0.155786763824941     
  0.155786775717898     
  0.155786783728564     
  0.155786787178744     
  0.155786785496113     
  0.155786778247835     
  0.155786765151249     
  0.155786746086810     
  0.155786721107673     
  0.155786638563228     
  0.155786654469048     
  0.155786673239962     
  0.155786693491985     
  0.155786713936403     
  0.155786733374724     
  0.155786750699454     
  0.155786764900184     
  0.155786775085798     
  0.155786780492083     
  0.155786780470209     
  0.155786774515340     
  0.155786762307316     
  0.155786743706813     
  0.155786718768716     
  0.155786612986465     
  0.155786629181741     
  0.155786648967417     
  0.155786670799593     
  0.155786693235482     
  0.155786714928414     
  0.155786734627557     
  0.155786751187605     
  0.155786763581385     
  0.155786770940493     
  0.155786772547028     
  0.155786767832884     
  0.155786756429785     
  0.155786738182578     
  0.155786713146377     
  0.155786584320563     
  0.155786600707738     
  0.155786621418800     
  0.155786644760316     
  0.155786669139252     
  0.155786693054584     
  0.155786715103275     
  0.155786733992859     
  0.155786748563438     
  0.155786757816379     
  0.155786760959138     
  0.155786757384776     
  0.155786746677459     
  0.155786728664103     
  0.155786703395013     
  0.155786552506166     
  0.155786568941710     
  0.155786590417327     
  0.155786615108960     
  0.155786641283099     
  0.155786667286828     
  0.155786691557173     
  0.155786712647639     
  0.155786729261028     
  0.155786740281568     
  0.155786744815448     
  0.155786742227401     
  0.155786732095822     
  0.155786714211069     
  0.155786688608208     
  0.155786517586550     
  0.155786533869118     
  0.155786555857625     
  0.155786581624258     
  0.155786609312055     
  0.155786637125558     
  0.155786663347546     
  0.155786686376322     
  0.155786704775776     
  0.155786717327342     
  0.155786723064038     
  0.155786721295772     
  0.155786711615183     
  0.155786693810397     
  0.155786667846988     
  0.155786479739044     
  0.155786495597237     
  0.155786517735990     
  0.155786544154096     
  0.155786572896249     
  0.155786602046222     
  0.155786629749938     
  0.155786654267538     
  0.155786674043729     
  0.155786687774722     
  0.155786694452955     
  0.155786693368559     
  0.155786684088392     
  0.155786666399845     
  0.155786640190122     
  0.155786439298152     
  0.155786454381360     
  0.155786476177015     
  0.155786502639769     
  0.155786531747539     
  0.155786561500114     
  0.155786589947456     
  0.155786615255829     
  0.155786635797102     
  0.155786650231747     
  0.155786657549592     
  0.155786657052266     
  0.155786648277773     
  0.155786630932107     
  0.155786604777419     
  0.155786396766525     
  0.155786410634618     
  0.155786431448342     
  0.155786457131843     
  0.155786485631416     
  0.155786514914332     
  0.155786543010155     
  0.155786568085070     
  0.155786588537089     
  0.155786603075679     
  0.155786610742183     
  0.155786610853577     
  0.155786602895549     
  0.155786586403091     
  0.155786560890108     
  0.155786352799891     
  0.155786364922192     
  0.155786383949617     
  0.155786407786537     
  0.155786434363208     
  0.155786461679673     
  0.155786487871270     
  0.155786511277235     
  0.155786530504145     
  0.155786544446360     
  0.155786552249869     
  0.155786553217631     
  0.155786546684698     
  0.155786531905420     
  0.155786508000747     
  0.155786308195691     
  0.155786317900566     
  0.155786334176907     
  0.155786354826342     
  0.155786377765123     
  0.155786401111932     
  0.155786423295838     
  0.155786443121282     
  0.155786459694430     
  0.155786472286306     
  0.155786480179769     
  0.155786482564191     
  0.155786478465053     
  0.155786466687440     
  0.155786445795099     
  0.155786263668707     
  0.155786270230406     
  0.155786282611103     
  0.155786298436927     
  0.155786315564132     
  0.155786332353563     
  0.155786347849185     
  0.155786361719729     
  0.155786373968557     
  0.155786384461178     
  0.155786392615060     
  0.155786397341212     
  0.155786397133573     
  0.155786390142802     
  0.155786374193675     
  0.155786219963190     
  0.155786222478790     
  0.155786229572964     
  0.155786238534746     
  0.155786247146102     
  0.155786254225630     
  0.155786259876425     
  0.155786265160153     
  0.155786271316717     
  0.155786278988290     
  0.155786287733057     
  0.155786296034819     
  0.155786301619824     
  0.155786301744035     
  0.155786293293704     
  0.155786177720100     
  0.155786175085471     
  0.155786175099497     
  0.155786174497799     
  0.155786171178921     
  0.155786164965900     
  0.155786157602085     
  0.155786151860032     
  0.155786150304122     
  0.155786154383075     
  0.155786163946270     
  0.155786177131598     
  0.155786190759679     
  0.155786200922991     
  0.155786203284256     
  0.155786137409398     
  0.155786128143220     
  0.155786118570857     
  0.155786104737074     
  0.155786085295984     
  0.155786062182914     
  0.155786039380314     
  0.155786021055980     
  0.155786010576565     
  0.155786010090627     
  0.155786020122318     
  0.155786039070225     
  0.155786063085057     
  0.155786086836883     
  0.155786104299952     
  0.155786099230577     
  0.155786081132301     
  0.155786058069772     
  0.155786025898005     
  0.155785985892501     
  0.155785943434681     
  0.155785904327572     
  0.155785873108188     
  0.155785853116883     
  0.155785846884771     
  0.155785856022673     
  0.155785880335367     
  0.155785916563178     
  0.155785958005596     
  0.155785996225600     
  0.155786062959133     
  0.155786032164092     
  0.155785989155651     
  0.155785932286346     
  0.155785868930632     
  0.155785807275959     
  0.155785752906273     
  0.155785709519450     
  0.155785679983190     
  0.155785666907113     
  0.155785672897958     
  0.155785700174866     
  0.155785748385102     
  0.155785811766330     
  0.155785878257423     
  0.155786027205488     
  0.155785976082121     
  0.155785902814380     
  0.155785817399779     
  0.155785732174472     
  0.155785654044785     
  0.155785586659542     
  0.155785532517770     
  0.155785493856623     
  0.155785473197198     
  0.155785473753458     
  0.155785499739206     
  0.155785556182052     
  0.155785642950167     
  0.155785748493147     
  0.155785987433197     
  0.155785897605965     
  0.155785788440366     
  0.155785678366142     
  0.155785576246448     
  0.155785485323613     
  0.155785407508621     
  0.155785344327947     
  0.155785297453929     
  0.155785269122899     
  0.155785262664497     
  0.155785283333546     
  0.155785339518548     
  0.155785445856214     
  0.155785599604214     
  0.155785911813156     
  0.155785779083997     
  0.155785642802200     
  0.155785516661922     
  0.155785402964463     
  0.155785302877570     
  0.155785217213559     
  0.155785146861657     
  0.155785093048949     
  0.155785057668129     
  0.155785043807969     
  0.155785056744889     
  0.155785106166321     
  0.155785211313798     
  0.155785430268966     
