# vtk DataFile Version 3.0
vtk output
ASCII
DATASET UNSTRUCTURED_GRID
POINTS       496 double 
  0.00000000E+00  3.00000000E+02  0.00000000E+00
  0.00000000E+00  2.80000000E+02  0.00000000E+00
  0.00000000E+00  2.60000000E+02  0.00000000E+00
  0.00000000E+00  2.40000000E+02  0.00000000E+00
  0.00000000E+00  2.20000000E+02  0.00000000E+00
  0.00000000E+00  2.00000000E+02  0.00000000E+00
  0.00000000E+00  1.80000000E+02  0.00000000E+00
  0.00000000E+00  1.60000000E+02  0.00000000E+00
  0.00000000E+00  1.40000000E+02  0.00000000E+00
  0.00000000E+00  1.20000000E+02  0.00000000E+00
  0.00000000E+00  1.00000000E+02  0.00000000E+00
  0.00000000E+00  8.00000000E+01  0.00000000E+00
  0.00000000E+00  6.00000000E+01  0.00000000E+00
  0.00000000E+00  4.00000000E+01  0.00000000E+00
  0.00000000E+00  2.00000000E+01  0.00000000E+00
  0.00000000E+00  4.99600361E-14  0.00000000E+00
  2.00000000E+01  3.00000000E+02  0.00000000E+00
  2.00000000E+01  2.80000000E+02  0.00000000E+00
  2.00000000E+01  2.60000000E+02  0.00000000E+00
  2.00000000E+01  2.40000000E+02  0.00000000E+00
  2.00000000E+01  2.20000000E+02  0.00000000E+00
  2.00000000E+01  2.00000000E+02  0.00000000E+00
  2.00000000E+01  1.80000000E+02  0.00000000E+00
  2.00000000E+01  1.60000000E+02  0.00000000E+00
  2.00000000E+01  1.40000000E+02  0.00000000E+00
  2.00000000E+01  1.20000000E+02  0.00000000E+00
  2.00000000E+01  1.00000000E+02  0.00000000E+00
  2.00000000E+01  8.00000000E+01  0.00000000E+00
  2.00000000E+01  6.00000000E+01  0.00000000E+00
  2.00000000E+01  4.00000000E+01  0.00000000E+00
  2.00000000E+01  2.00000000E+01  0.00000000E+00
  2.00000000E+01  4.99600361E-14  0.00000000E+00
  4.00000000E+01  3.00000000E+02  0.00000000E+00
  4.00000000E+01  2.80000000E+02  0.00000000E+00
  4.00000000E+01  2.60000000E+02  0.00000000E+00
  4.00000000E+01  2.40000000E+02  0.00000000E+00
  4.00000000E+01  2.20000000E+02  0.00000000E+00
  4.00000000E+01  2.00000000E+02  0.00000000E+00
  4.00000000E+01  1.80000000E+02  0.00000000E+00
  4.00000000E+01  1.60000000E+02  0.00000000E+00
  4.00000000E+01  1.40000000E+02  0.00000000E+00
  4.00000000E+01  1.20000000E+02  0.00000000E+00
  4.00000000E+01  1.00000000E+02  0.00000000E+00
  4.00000000E+01  8.00000000E+01  0.00000000E+00
  4.00000000E+01  6.00000000E+01  0.00000000E+00
  4.00000000E+01  4.00000000E+01  0.00000000E+00
  4.00000000E+01  2.00000000E+01  0.00000000E+00
  4.00000000E+01  4.99600361E-14  0.00000000E+00
  6.00000000E+01  3.00000000E+02  0.00000000E+00
  6.00000000E+01  2.80000000E+02  0.00000000E+00
  6.00000000E+01  2.60000000E+02  0.00000000E+00
  6.00000000E+01  2.40000000E+02  0.00000000E+00
  6.00000000E+01  2.20000000E+02  0.00000000E+00
  6.00000000E+01  2.00000000E+02  0.00000000E+00
  6.00000000E+01  1.80000000E+02  0.00000000E+00
  6.00000000E+01  1.60000000E+02  0.00000000E+00
  6.00000000E+01  1.40000000E+02  0.00000000E+00
  6.00000000E+01  1.20000000E+02  0.00000000E+00
  6.00000000E+01  1.00000000E+02  0.00000000E+00
  6.00000000E+01  8.00000000E+01  0.00000000E+00
  6.00000000E+01  6.00000000E+01  0.00000000E+00
  6.00000000E+01  4.00000000E+01  0.00000000E+00
  6.00000000E+01  2.00000000E+01  0.00000000E+00
  6.00000000E+01  4.99600361E-14  0.00000000E+00
  8.00000000E+01  3.00000000E+02  0.00000000E+00
  8.00000000E+01  2.80000000E+02  0.00000000E+00
  8.00000000E+01  2.60000000E+02  0.00000000E+00
  8.00000000E+01  2.40000000E+02  0.00000000E+00
  8.00000000E+01  2.20000000E+02  0.00000000E+00
  8.00000000E+01  2.00000000E+02  0.00000000E+00
  8.00000000E+01  1.80000000E+02  0.00000000E+00
  8.00000000E+01  1.60000000E+02  0.00000000E+00
  8.00000000E+01  1.40000000E+02  0.00000000E+00
  8.00000000E+01  1.20000000E+02  0.00000000E+00
  8.00000000E+01  1.00000000E+02  0.00000000E+00
  8.00000000E+01  8.00000000E+01  0.00000000E+00
  8.00000000E+01  6.00000000E+01  0.00000000E+00
  8.00000000E+01  4.00000000E+01  0.00000000E+00
  8.00000000E+01  2.00000000E+01  0.00000000E+00
  8.00000000E+01  4.99600361E-14  0.00000000E+00
  1.00000000E+02  3.00000000E+02  0.00000000E+00
  1.00000000E+02  2.80000000E+02  0.00000000E+00
  1.00000000E+02  2.60000000E+02  0.00000000E+00
  1.00000000E+02  2.40000000E+02  0.00000000E+00
  1.00000000E+02  2.20000000E+02  0.00000000E+00
  1.00000000E+02  2.00000000E+02  0.00000000E+00
  1.00000000E+02  1.80000000E+02  0.00000000E+00
  1.00000000E+02  1.60000000E+02  0.00000000E+00
  1.00000000E+02  1.40000000E+02  0.00000000E+00
  1.00000000E+02  1.20000000E+02  0.00000000E+00
  1.00000000E+02  1.00000000E+02  0.00000000E+00
  1.00000000E+02  8.00000000E+01  0.00000000E+00
  1.00000000E+02  6.00000000E+01  0.00000000E+00
  1.00000000E+02  4.00000000E+01  0.00000000E+00
  1.00000000E+02  2.00000000E+01  0.00000000E+00
  1.00000000E+02  4.99600361E-14  0.00000000E+00
  1.20000000E+02  3.00000000E+02  0.00000000E+00
  1.20000000E+02  2.80000000E+02  0.00000000E+00
  1.20000000E+02  2.60000000E+02  0.00000000E+00
  1.20000000E+02  2.40000000E+02  0.00000000E+00
  1.20000000E+02  2.20000000E+02  0.00000000E+00
  1.20000000E+02  2.00000000E+02  0.00000000E+00
  1.20000000E+02  1.80000000E+02  0.00000000E+00
  1.20000000E+02  1.60000000E+02  0.00000000E+00
  1.20000000E+02  1.40000000E+02  0.00000000E+00
  1.20000000E+02  1.20000000E+02  0.00000000E+00
  1.20000000E+02  1.00000000E+02  0.00000000E+00
  1.20000000E+02  8.00000000E+01  0.00000000E+00
  1.20000000E+02  6.00000000E+01  0.00000000E+00
  1.20000000E+02  4.00000000E+01  0.00000000E+00
  1.20000000E+02  2.00000000E+01  0.00000000E+00
  1.20000000E+02  4.99600361E-14  0.00000000E+00
  1.40000000E+02  3.00000000E+02  0.00000000E+00
  1.40000000E+02  2.80000000E+02  0.00000000E+00
  1.40000000E+02  2.60000000E+02  0.00000000E+00
  1.40000000E+02  2.40000000E+02  0.00000000E+00
  1.40000000E+02  2.20000000E+02  0.00000000E+00
  1.40000000E+02  2.00000000E+02  0.00000000E+00
  1.40000000E+02  1.80000000E+02  0.00000000E+00
  1.40000000E+02  1.60000000E+02  0.00000000E+00
  1.40000000E+02  1.40000000E+02  0.00000000E+00
  1.40000000E+02  1.20000000E+02  0.00000000E+00
  1.40000000E+02  1.00000000E+02  0.00000000E+00
  1.40000000E+02  8.00000000E+01  0.00000000E+00
  1.40000000E+02  6.00000000E+01  0.00000000E+00
  1.40000000E+02  4.00000000E+01  0.00000000E+00
  1.40000000E+02  2.00000000E+01  0.00000000E+00
  1.40000000E+02  4.99600361E-14  0.00000000E+00
  1.60000000E+02  3.00000000E+02  0.00000000E+00
  1.60000000E+02  2.80000000E+02  0.00000000E+00
  1.60000000E+02  2.60000000E+02  0.00000000E+00
  1.60000000E+02  2.40000000E+02  0.00000000E+00
  1.60000000E+02  2.20000000E+02  0.00000000E+00
  1.60000000E+02  2.00000000E+02  0.00000000E+00
  1.60000000E+02  1.80000000E+02  0.00000000E+00
  1.60000000E+02  1.60000000E+02  0.00000000E+00
  1.60000000E+02  1.40000000E+02  0.00000000E+00
  1.60000000E+02  1.20000000E+02  0.00000000E+00
  1.60000000E+02  1.00000000E+02  0.00000000E+00
  1.60000000E+02  8.00000000E+01  0.00000000E+00
  1.60000000E+02  6.00000000E+01  0.00000000E+00
  1.60000000E+02  4.00000000E+01  0.00000000E+00
  1.60000000E+02  2.00000000E+01  0.00000000E+00
  1.60000000E+02  4.99600361E-14  0.00000000E+00
  1.80000000E+02  3.00000000E+02  0.00000000E+00
  1.80000000E+02  2.80000000E+02  0.00000000E+00
  1.80000000E+02  2.60000000E+02  0.00000000E+00
  1.80000000E+02  2.40000000E+02  0.00000000E+00
  1.80000000E+02  2.20000000E+02  0.00000000E+00
  1.80000000E+02  2.00000000E+02  0.00000000E+00
  1.80000000E+02  1.80000000E+02  0.00000000E+00
  1.80000000E+02  1.60000000E+02  0.00000000E+00
  1.80000000E+02  1.40000000E+02  0.00000000E+00
  1.80000000E+02  1.20000000E+02  0.00000000E+00
  1.80000000E+02  1.00000000E+02  0.00000000E+00
  1.80000000E+02  8.00000000E+01  0.00000000E+00
  1.80000000E+02  6.00000000E+01  0.00000000E+00
  1.80000000E+02  4.00000000E+01  0.00000000E+00
  1.80000000E+02  2.00000000E+01  0.00000000E+00
  1.80000000E+02  4.99600361E-14  0.00000000E+00
  2.00000000E+02  3.00000000E+02  0.00000000E+00
  2.00000000E+02  2.80000000E+02  0.00000000E+00
  2.00000000E+02  2.60000000E+02  0.00000000E+00
  2.00000000E+02  2.40000000E+02  0.00000000E+00
  2.00000000E+02  2.20000000E+02  0.00000000E+00
  2.00000000E+02  2.00000000E+02  0.00000000E+00
  2.00000000E+02  1.80000000E+02  0.00000000E+00
  2.00000000E+02  1.60000000E+02  0.00000000E+00
  2.00000000E+02  1.40000000E+02  0.00000000E+00
  2.00000000E+02  1.20000000E+02  0.00000000E+00
  2.00000000E+02  1.00000000E+02  0.00000000E+00
  2.00000000E+02  8.00000000E+01  0.00000000E+00
  2.00000000E+02  6.00000000E+01  0.00000000E+00
  2.00000000E+02  4.00000000E+01  0.00000000E+00
  2.00000000E+02  2.00000000E+01  0.00000000E+00
  2.00000000E+02  4.99600361E-14  0.00000000E+00
  2.20000000E+02  3.00000000E+02  0.00000000E+00
  2.20000000E+02  2.80000000E+02  0.00000000E+00
  2.20000000E+02  2.60000000E+02  0.00000000E+00
  2.20000000E+02  2.40000000E+02  0.00000000E+00
  2.20000000E+02  2.20000000E+02  0.00000000E+00
  2.20000000E+02  2.00000000E+02  0.00000000E+00
  2.20000000E+02  1.80000000E+02  0.00000000E+00
  2.20000000E+02  1.60000000E+02  0.00000000E+00
  2.20000000E+02  1.40000000E+02  0.00000000E+00
  2.20000000E+02  1.20000000E+02  0.00000000E+00
  2.20000000E+02  1.00000000E+02  0.00000000E+00
  2.20000000E+02  8.00000000E+01  0.00000000E+00
  2.20000000E+02  6.00000000E+01  0.00000000E+00
  2.20000000E+02  4.00000000E+01  0.00000000E+00
  2.20000000E+02  2.00000000E+01  0.00000000E+00
  2.20000000E+02  4.99600361E-14  0.00000000E+00
  2.40000000E+02  3.00000000E+02  0.00000000E+00
  2.40000000E+02  2.80000000E+02  0.00000000E+00
  2.40000000E+02  2.60000000E+02  0.00000000E+00
  2.40000000E+02  2.40000000E+02  0.00000000E+00
  2.40000000E+02  2.20000000E+02  0.00000000E+00
  2.40000000E+02  2.00000000E+02  0.00000000E+00
  2.40000000E+02  1.80000000E+02  0.00000000E+00
  2.40000000E+02  1.60000000E+02  0.00000000E+00
  2.40000000E+02  1.40000000E+02  0.00000000E+00
  2.40000000E+02  1.20000000E+02  0.00000000E+00
  2.40000000E+02  1.00000000E+02  0.00000000E+00
  2.40000000E+02  8.00000000E+01  0.00000000E+00
  2.40000000E+02  6.00000000E+01  0.00000000E+00
  2.40000000E+02  4.00000000E+01  0.00000000E+00
  2.40000000E+02  2.00000000E+01  0.00000000E+00
  2.40000000E+02  4.99600361E-14  0.00000000E+00
  2.60000000E+02  3.00000000E+02  0.00000000E+00
  2.60000000E+02  2.80000000E+02  0.00000000E+00
  2.60000000E+02  2.60000000E+02  0.00000000E+00
  2.60000000E+02  2.40000000E+02  0.00000000E+00
  2.60000000E+02  2.20000000E+02  0.00000000E+00
  2.60000000E+02  2.00000000E+02  0.00000000E+00
  2.60000000E+02  1.80000000E+02  0.00000000E+00
  2.60000000E+02  1.60000000E+02  0.00000000E+00
  2.60000000E+02  1.40000000E+02  0.00000000E+00
  2.60000000E+02  1.20000000E+02  0.00000000E+00
  2.60000000E+02  1.00000000E+02  0.00000000E+00
  2.60000000E+02  8.00000000E+01  0.00000000E+00
  2.60000000E+02  6.00000000E+01  0.00000000E+00
  2.60000000E+02  4.00000000E+01  0.00000000E+00
  2.60000000E+02  2.00000000E+01  0.00000000E+00
  2.60000000E+02  4.99600361E-14  0.00000000E+00
  2.80000000E+02  3.00000000E+02  0.00000000E+00
  2.80000000E+02  2.80000000E+02  0.00000000E+00
  2.80000000E+02  2.60000000E+02  0.00000000E+00
  2.80000000E+02  2.40000000E+02  0.00000000E+00
  2.80000000E+02  2.20000000E+02  0.00000000E+00
  2.80000000E+02  2.00000000E+02  0.00000000E+00
  2.80000000E+02  1.80000000E+02  0.00000000E+00
  2.80000000E+02  1.60000000E+02  0.00000000E+00
  2.80000000E+02  1.40000000E+02  0.00000000E+00
  2.80000000E+02  1.20000000E+02  0.00000000E+00
  2.80000000E+02  1.00000000E+02  0.00000000E+00
  2.80000000E+02  8.00000000E+01  0.00000000E+00
  2.80000000E+02  6.00000000E+01  0.00000000E+00
  2.80000000E+02  4.00000000E+01  0.00000000E+00
  2.80000000E+02  2.00000000E+01  0.00000000E+00
  2.80000000E+02  4.99600361E-14  0.00000000E+00
  3.00000000E+02  3.00000000E+02  0.00000000E+00
  3.00000000E+02  2.80000000E+02  0.00000000E+00
  3.00000000E+02  2.60000000E+02  0.00000000E+00
  3.00000000E+02  2.40000000E+02  0.00000000E+00
  3.00000000E+02  2.20000000E+02  0.00000000E+00
  3.00000000E+02  2.00000000E+02  0.00000000E+00
  3.00000000E+02  1.80000000E+02  0.00000000E+00
  3.00000000E+02  1.60000000E+02  0.00000000E+00
  3.00000000E+02  1.40000000E+02  0.00000000E+00
  3.00000000E+02  1.20000000E+02  0.00000000E+00
  3.00000000E+02  1.00000000E+02  0.00000000E+00
  3.00000000E+02  8.00000000E+01  0.00000000E+00
  3.00000000E+02  6.00000000E+01  0.00000000E+00
  3.00000000E+02  4.00000000E+01  0.00000000E+00
  3.00000000E+02  2.00000000E+01  0.00000000E+00
  3.00000000E+02  4.99600361E-14  0.00000000E+00
  3.20000000E+02  3.00000000E+02  0.00000000E+00
  3.20000000E+02  2.80000000E+02  0.00000000E+00
  3.20000000E+02  2.60000000E+02  0.00000000E+00
  3.20000000E+02  2.40000000E+02  0.00000000E+00
  3.20000000E+02  2.20000000E+02  0.00000000E+00
  3.20000000E+02  2.00000000E+02  0.00000000E+00
  3.20000000E+02  1.80000000E+02  0.00000000E+00
  3.20000000E+02  1.60000000E+02  0.00000000E+00
  3.20000000E+02  1.40000000E+02  0.00000000E+00
  3.20000000E+02  1.20000000E+02  0.00000000E+00
  3.20000000E+02  1.00000000E+02  0.00000000E+00
  3.20000000E+02  8.00000000E+01  0.00000000E+00
  3.20000000E+02  6.00000000E+01  0.00000000E+00
  3.20000000E+02  4.00000000E+01  0.00000000E+00
  3.20000000E+02  2.00000000E+01  0.00000000E+00
  3.20000000E+02  4.99600361E-14  0.00000000E+00
  3.40000000E+02  3.00000000E+02  0.00000000E+00
  3.40000000E+02  2.80000000E+02  0.00000000E+00
  3.40000000E+02  2.60000000E+02  0.00000000E+00
  3.40000000E+02  2.40000000E+02  0.00000000E+00
  3.40000000E+02  2.20000000E+02  0.00000000E+00
  3.40000000E+02  2.00000000E+02  0.00000000E+00
  3.40000000E+02  1.80000000E+02  0.00000000E+00
  3.40000000E+02  1.60000000E+02  0.00000000E+00
  3.40000000E+02  1.40000000E+02  0.00000000E+00
  3.40000000E+02  1.20000000E+02  0.00000000E+00
  3.40000000E+02  1.00000000E+02  0.00000000E+00
  3.40000000E+02  8.00000000E+01  0.00000000E+00
  3.40000000E+02  6.00000000E+01  0.00000000E+00
  3.40000000E+02  4.00000000E+01  0.00000000E+00
  3.40000000E+02  2.00000000E+01  0.00000000E+00
  3.40000000E+02  4.99600361E-14  0.00000000E+00
  3.60000000E+02  3.00000000E+02  0.00000000E+00
  3.60000000E+02  2.80000000E+02  0.00000000E+00
  3.60000000E+02  2.60000000E+02  0.00000000E+00
  3.60000000E+02  2.40000000E+02  0.00000000E+00
  3.60000000E+02  2.20000000E+02  0.00000000E+00
  3.60000000E+02  2.00000000E+02  0.00000000E+00
  3.60000000E+02  1.80000000E+02  0.00000000E+00
  3.60000000E+02  1.60000000E+02  0.00000000E+00
  3.60000000E+02  1.40000000E+02  0.00000000E+00
  3.60000000E+02  1.20000000E+02  0.00000000E+00
  3.60000000E+02  1.00000000E+02  0.00000000E+00
  3.60000000E+02  8.00000000E+01  0.00000000E+00
  3.60000000E+02  6.00000000E+01  0.00000000E+00
  3.60000000E+02  4.00000000E+01  0.00000000E+00
  3.60000000E+02  2.00000000E+01  0.00000000E+00
  3.60000000E+02  4.99600361E-14  0.00000000E+00
  3.80000000E+02  3.00000000E+02  0.00000000E+00
  3.80000000E+02  2.80000000E+02  0.00000000E+00
  3.80000000E+02  2.60000000E+02  0.00000000E+00
  3.80000000E+02  2.40000000E+02  0.00000000E+00
  3.80000000E+02  2.20000000E+02  0.00000000E+00
  3.80000000E+02  2.00000000E+02  0.00000000E+00
  3.80000000E+02  1.80000000E+02  0.00000000E+00
  3.80000000E+02  1.60000000E+02  0.00000000E+00
  3.80000000E+02  1.40000000E+02  0.00000000E+00
  3.80000000E+02  1.20000000E+02  0.00000000E+00
  3.80000000E+02  1.00000000E+02  0.00000000E+00
  3.80000000E+02  8.00000000E+01  0.00000000E+00
  3.80000000E+02  6.00000000E+01  0.00000000E+00
  3.80000000E+02  4.00000000E+01  0.00000000E+00
  3.80000000E+02  2.00000000E+01  0.00000000E+00
  3.80000000E+02  4.99600361E-14  0.00000000E+00
  4.00000000E+02  3.00000000E+02  0.00000000E+00
  4.00000000E+02  2.80000000E+02  0.00000000E+00
  4.00000000E+02  2.60000000E+02  0.00000000E+00
  4.00000000E+02  2.40000000E+02  0.00000000E+00
  4.00000000E+02  2.20000000E+02  0.00000000E+00
  4.00000000E+02  2.00000000E+02  0.00000000E+00
  4.00000000E+02  1.80000000E+02  0.00000000E+00
  4.00000000E+02  1.60000000E+02  0.00000000E+00
  4.00000000E+02  1.40000000E+02  0.00000000E+00
  4.00000000E+02  1.20000000E+02  0.00000000E+00
  4.00000000E+02  1.00000000E+02  0.00000000E+00
  4.00000000E+02  8.00000000E+01  0.00000000E+00
  4.00000000E+02  6.00000000E+01  0.00000000E+00
  4.00000000E+02  4.00000000E+01  0.00000000E+00
  4.00000000E+02  2.00000000E+01  0.00000000E+00
  4.00000000E+02  4.99600361E-14  0.00000000E+00
  4.20000000E+02  3.00000000E+02  0.00000000E+00
  4.20000000E+02  2.80000000E+02  0.00000000E+00
  4.20000000E+02  2.60000000E+02  0.00000000E+00
  4.20000000E+02  2.40000000E+02  0.00000000E+00
  4.20000000E+02  2.20000000E+02  0.00000000E+00
  4.20000000E+02  2.00000000E+02  0.00000000E+00
  4.20000000E+02  1.80000000E+02  0.00000000E+00
  4.20000000E+02  1.60000000E+02  0.00000000E+00
  4.20000000E+02  1.40000000E+02  0.00000000E+00
  4.20000000E+02  1.20000000E+02  0.00000000E+00
  4.20000000E+02  1.00000000E+02  0.00000000E+00
  4.20000000E+02  8.00000000E+01  0.00000000E+00
  4.20000000E+02  6.00000000E+01  0.00000000E+00
  4.20000000E+02  4.00000000E+01  0.00000000E+00
  4.20000000E+02  2.00000000E+01  0.00000000E+00
  4.20000000E+02  4.99600361E-14  0.00000000E+00
  4.40000000E+02  3.00000000E+02  0.00000000E+00
  4.40000000E+02  2.80000000E+02  0.00000000E+00
  4.40000000E+02  2.60000000E+02  0.00000000E+00
  4.40000000E+02  2.40000000E+02  0.00000000E+00
  4.40000000E+02  2.20000000E+02  0.00000000E+00
  4.40000000E+02  2.00000000E+02  0.00000000E+00
  4.40000000E+02  1.80000000E+02  0.00000000E+00
  4.40000000E+02  1.60000000E+02  0.00000000E+00
  4.40000000E+02  1.40000000E+02  0.00000000E+00
  4.40000000E+02  1.20000000E+02  0.00000000E+00
  4.40000000E+02  1.00000000E+02  0.00000000E+00
  4.40000000E+02  8.00000000E+01  0.00000000E+00
  4.40000000E+02  6.00000000E+01  0.00000000E+00
  4.40000000E+02  4.00000000E+01  0.00000000E+00
  4.40000000E+02  2.00000000E+01  0.00000000E+00
  4.40000000E+02  4.99600361E-14  0.00000000E+00
  4.60000000E+02  3.00000000E+02  0.00000000E+00
  4.60000000E+02  2.80000000E+02  0.00000000E+00
  4.60000000E+02  2.60000000E+02  0.00000000E+00
  4.60000000E+02  2.40000000E+02  0.00000000E+00
  4.60000000E+02  2.20000000E+02  0.00000000E+00
  4.60000000E+02  2.00000000E+02  0.00000000E+00
  4.60000000E+02  1.80000000E+02  0.00000000E+00
  4.60000000E+02  1.60000000E+02  0.00000000E+00
  4.60000000E+02  1.40000000E+02  0.00000000E+00
  4.60000000E+02  1.20000000E+02  0.00000000E+00
  4.60000000E+02  1.00000000E+02  0.00000000E+00
  4.60000000E+02  8.00000000E+01  0.00000000E+00
  4.60000000E+02  6.00000000E+01  0.00000000E+00
  4.60000000E+02  4.00000000E+01  0.00000000E+00
  4.60000000E+02  2.00000000E+01  0.00000000E+00
  4.60000000E+02  4.99600361E-14  0.00000000E+00
  4.80000000E+02  3.00000000E+02  0.00000000E+00
  4.80000000E+02  2.80000000E+02  0.00000000E+00
  4.80000000E+02  2.60000000E+02  0.00000000E+00
  4.80000000E+02  2.40000000E+02  0.00000000E+00
  4.80000000E+02  2.20000000E+02  0.00000000E+00
  4.80000000E+02  2.00000000E+02  0.00000000E+00
  4.80000000E+02  1.80000000E+02  0.00000000E+00
  4.80000000E+02  1.60000000E+02  0.00000000E+00
  4.80000000E+02  1.40000000E+02  0.00000000E+00
  4.80000000E+02  1.20000000E+02  0.00000000E+00
  4.80000000E+02  1.00000000E+02  0.00000000E+00
  4.80000000E+02  8.00000000E+01  0.00000000E+00
  4.80000000E+02  6.00000000E+01  0.00000000E+00
  4.80000000E+02  4.00000000E+01  0.00000000E+00
  4.80000000E+02  2.00000000E+01  0.00000000E+00
  4.80000000E+02  4.99600361E-14  0.00000000E+00
  5.00000000E+02  3.00000000E+02  0.00000000E+00
  5.00000000E+02  2.80000000E+02  0.00000000E+00
  5.00000000E+02  2.60000000E+02  0.00000000E+00
  5.00000000E+02  2.40000000E+02  0.00000000E+00
  5.00000000E+02  2.20000000E+02  0.00000000E+00
  5.00000000E+02  2.00000000E+02  0.00000000E+00
  5.00000000E+02  1.80000000E+02  0.00000000E+00
  5.00000000E+02  1.60000000E+02  0.00000000E+00
  5.00000000E+02  1.40000000E+02  0.00000000E+00
  5.00000000E+02  1.20000000E+02  0.00000000E+00
  5.00000000E+02  1.00000000E+02  0.00000000E+00
  5.00000000E+02  8.00000000E+01  0.00000000E+00
  5.00000000E+02  6.00000000E+01  0.00000000E+00
  5.00000000E+02  4.00000000E+01  0.00000000E+00
  5.00000000E+02  2.00000000E+01  0.00000000E+00
  5.00000000E+02  4.99600361E-14  0.00000000E+00
  5.20000000E+02  3.00000000E+02  0.00000000E+00
  5.20000000E+02  2.80000000E+02  0.00000000E+00
  5.20000000E+02  2.60000000E+02  0.00000000E+00
  5.20000000E+02  2.40000000E+02  0.00000000E+00
  5.20000000E+02  2.20000000E+02  0.00000000E+00
  5.20000000E+02  2.00000000E+02  0.00000000E+00
  5.20000000E+02  1.80000000E+02  0.00000000E+00
  5.20000000E+02  1.60000000E+02  0.00000000E+00
  5.20000000E+02  1.40000000E+02  0.00000000E+00
  5.20000000E+02  1.20000000E+02  0.00000000E+00
  5.20000000E+02  1.00000000E+02  0.00000000E+00
  5.20000000E+02  8.00000000E+01  0.00000000E+00
  5.20000000E+02  6.00000000E+01  0.00000000E+00
  5.20000000E+02  4.00000000E+01  0.00000000E+00
  5.20000000E+02  2.00000000E+01  0.00000000E+00
  5.20000000E+02  4.99600361E-14  0.00000000E+00
  5.40000000E+02  3.00000000E+02  0.00000000E+00
  5.40000000E+02  2.80000000E+02  0.00000000E+00
  5.40000000E+02  2.60000000E+02  0.00000000E+00
  5.40000000E+02  2.40000000E+02  0.00000000E+00
  5.40000000E+02  2.20000000E+02  0.00000000E+00
  5.40000000E+02  2.00000000E+02  0.00000000E+00
  5.40000000E+02  1.80000000E+02  0.00000000E+00
  5.40000000E+02  1.60000000E+02  0.00000000E+00
  5.40000000E+02  1.40000000E+02  0.00000000E+00
  5.40000000E+02  1.20000000E+02  0.00000000E+00
  5.40000000E+02  1.00000000E+02  0.00000000E+00
  5.40000000E+02  8.00000000E+01  0.00000000E+00
  5.40000000E+02  6.00000000E+01  0.00000000E+00
  5.40000000E+02  4.00000000E+01  0.00000000E+00
  5.40000000E+02  2.00000000E+01  0.00000000E+00
  5.40000000E+02  4.99600361E-14  0.00000000E+00
  5.60000000E+02  3.00000000E+02  0.00000000E+00
  5.60000000E+02  2.80000000E+02  0.00000000E+00
  5.60000000E+02  2.60000000E+02  0.00000000E+00
  5.60000000E+02  2.40000000E+02  0.00000000E+00
  5.60000000E+02  2.20000000E+02  0.00000000E+00
  5.60000000E+02  2.00000000E+02  0.00000000E+00
  5.60000000E+02  1.80000000E+02  0.00000000E+00
  5.60000000E+02  1.60000000E+02  0.00000000E+00
  5.60000000E+02  1.40000000E+02  0.00000000E+00
  5.60000000E+02  1.20000000E+02  0.00000000E+00
  5.60000000E+02  1.00000000E+02  0.00000000E+00
  5.60000000E+02  8.00000000E+01  0.00000000E+00
  5.60000000E+02  6.00000000E+01  0.00000000E+00
  5.60000000E+02  4.00000000E+01  0.00000000E+00
  5.60000000E+02  2.00000000E+01  0.00000000E+00
  5.60000000E+02  4.99600361E-14  0.00000000E+00
  5.80000000E+02  3.00000000E+02  0.00000000E+00
  5.80000000E+02  2.80000000E+02  0.00000000E+00
  5.80000000E+02  2.60000000E+02  0.00000000E+00
  5.80000000E+02  2.40000000E+02  0.00000000E+00
  5.80000000E+02  2.20000000E+02  0.00000000E+00
  5.80000000E+02  2.00000000E+02  0.00000000E+00
  5.80000000E+02  1.80000000E+02  0.00000000E+00
  5.80000000E+02  1.60000000E+02  0.00000000E+00
  5.80000000E+02  1.40000000E+02  0.00000000E+00
  5.80000000E+02  1.20000000E+02  0.00000000E+00
  5.80000000E+02  1.00000000E+02  0.00000000E+00
  5.80000000E+02  8.00000000E+01  0.00000000E+00
  5.80000000E+02  6.00000000E+01  0.00000000E+00
  5.80000000E+02  4.00000000E+01  0.00000000E+00
  5.80000000E+02  2.00000000E+01  0.00000000E+00
  5.80000000E+02  4.99600361E-14  0.00000000E+00
  6.00000000E+02  3.00000000E+02  0.00000000E+00
  6.00000000E+02  2.80000000E+02  0.00000000E+00
  6.00000000E+02  2.60000000E+02  0.00000000E+00
  6.00000000E+02  2.40000000E+02  0.00000000E+00
  6.00000000E+02  2.20000000E+02  0.00000000E+00
  6.00000000E+02  2.00000000E+02  0.00000000E+00
  6.00000000E+02  1.80000000E+02  0.00000000E+00
  6.00000000E+02  1.60000000E+02  0.00000000E+00
  6.00000000E+02  1.40000000E+02  0.00000000E+00
  6.00000000E+02  1.20000000E+02  0.00000000E+00
  6.00000000E+02  1.00000000E+02  0.00000000E+00
  6.00000000E+02  8.00000000E+01  0.00000000E+00
  6.00000000E+02  6.00000000E+01  0.00000000E+00
  6.00000000E+02  4.00000000E+01  0.00000000E+00
  6.00000000E+02  2.00000000E+01  0.00000000E+00
  6.00000000E+02  4.99600361E-14  0.00000000E+00
CELLS       450      2250
         4           0           1          17          16
         4           1           2          18          17
         4           2           3          19          18
         4           3           4          20          19
         4           4           5          21          20
         4           5           6          22          21
         4           6           7          23          22
         4           7           8          24          23
         4           8           9          25          24
         4           9          10          26          25
         4          10          11          27          26
         4          11          12          28          27
         4          12          13          29          28
         4          13          14          30          29
         4          14          15          31          30
         4          16          17          33          32
         4          17          18          34          33
         4          18          19          35          34
         4          19          20          36          35
         4          20          21          37          36
         4          21          22          38          37
         4          22          23          39          38
         4          23          24          40          39
         4          24          25          41          40
         4          25          26          42          41
         4          26          27          43          42
         4          27          28          44          43
         4          28          29          45          44
         4          29          30          46          45
         4          30          31          47          46
         4          32          33          49          48
         4          33          34          50          49
         4          34          35          51          50
         4          35          36          52          51
         4          36          37          53          52
         4          37          38          54          53
         4          38          39          55          54
         4          39          40          56          55
         4          40          41          57          56
         4          41          42          58          57
         4          42          43          59          58
         4          43          44          60          59
         4          44          45          61          60
         4          45          46          62          61
         4          46          47          63          62
         4          48          49          65          64
         4          49          50          66          65
         4          50          51          67          66
         4          51          52          68          67
         4          52          53          69          68
         4          53          54          70          69
         4          54          55          71          70
         4          55          56          72          71
         4          56          57          73          72
         4          57          58          74          73
         4          58          59          75          74
         4          59          60          76          75
         4          60          61          77          76
         4          61          62          78          77
         4          62          63          79          78
         4          64          65          81          80
         4          65          66          82          81
         4          66          67          83          82
         4          67          68          84          83
         4          68          69          85          84
         4          69          70          86          85
         4          70          71          87          86
         4          71          72          88          87
         4          72          73          89          88
         4          73          74          90          89
         4          74          75          91          90
         4          75          76          92          91
         4          76          77          93          92
         4          77          78          94          93
         4          78          79          95          94
         4          80          81          97          96
         4          81          82          98          97
         4          82          83          99          98
         4          83          84         100          99
         4          84          85         101         100
         4          85          86         102         101
         4          86          87         103         102
         4          87          88         104         103
         4          88          89         105         104
         4          89          90         106         105
         4          90          91         107         106
         4          91          92         108         107
         4          92          93         109         108
         4          93          94         110         109
         4          94          95         111         110
         4          96          97         113         112
         4          97          98         114         113
         4          98          99         115         114
         4          99         100         116         115
         4         100         101         117         116
         4         101         102         118         117
         4         102         103         119         118
         4         103         104         120         119
         4         104         105         121         120
         4         105         106         122         121
         4         106         107         123         122
         4         107         108         124         123
         4         108         109         125         124
         4         109         110         126         125
         4         110         111         127         126
         4         112         113         129         128
         4         113         114         130         129
         4         114         115         131         130
         4         115         116         132         131
         4         116         117         133         132
         4         117         118         134         133
         4         118         119         135         134
         4         119         120         136         135
         4         120         121         137         136
         4         121         122         138         137
         4         122         123         139         138
         4         123         124         140         139
         4         124         125         141         140
         4         125         126         142         141
         4         126         127         143         142
         4         128         129         145         144
         4         129         130         146         145
         4         130         131         147         146
         4         131         132         148         147
         4         132         133         149         148
         4         133         134         150         149
         4         134         135         151         150
         4         135         136         152         151
         4         136         137         153         152
         4         137         138         154         153
         4         138         139         155         154
         4         139         140         156         155
         4         140         141         157         156
         4         141         142         158         157
         4         142         143         159         158
         4         144         145         161         160
         4         145         146         162         161
         4         146         147         163         162
         4         147         148         164         163
         4         148         149         165         164
         4         149         150         166         165
         4         150         151         167         166
         4         151         152         168         167
         4         152         153         169         168
         4         153         154         170         169
         4         154         155         171         170
         4         155         156         172         171
         4         156         157         173         172
         4         157         158         174         173
         4         158         159         175         174
         4         160         161         177         176
         4         161         162         178         177
         4         162         163         179         178
         4         163         164         180         179
         4         164         165         181         180
         4         165         166         182         181
         4         166         167         183         182
         4         167         168         184         183
         4         168         169         185         184
         4         169         170         186         185
         4         170         171         187         186
         4         171         172         188         187
         4         172         173         189         188
         4         173         174         190         189
         4         174         175         191         190
         4         176         177         193         192
         4         177         178         194         193
         4         178         179         195         194
         4         179         180         196         195
         4         180         181         197         196
         4         181         182         198         197
         4         182         183         199         198
         4         183         184         200         199
         4         184         185         201         200
         4         185         186         202         201
         4         186         187         203         202
         4         187         188         204         203
         4         188         189         205         204
         4         189         190         206         205
         4         190         191         207         206
         4         192         193         209         208
         4         193         194         210         209
         4         194         195         211         210
         4         195         196         212         211
         4         196         197         213         212
         4         197         198         214         213
         4         198         199         215         214
         4         199         200         216         215
         4         200         201         217         216
         4         201         202         218         217
         4         202         203         219         218
         4         203         204         220         219
         4         204         205         221         220
         4         205         206         222         221
         4         206         207         223         222
         4         208         209         225         224
         4         209         210         226         225
         4         210         211         227         226
         4         211         212         228         227
         4         212         213         229         228
         4         213         214         230         229
         4         214         215         231         230
         4         215         216         232         231
         4         216         217         233         232
         4         217         218         234         233
         4         218         219         235         234
         4         219         220         236         235
         4         220         221         237         236
         4         221         222         238         237
         4         222         223         239         238
         4         224         225         241         240
         4         225         226         242         241
         4         226         227         243         242
         4         227         228         244         243
         4         228         229         245         244
         4         229         230         246         245
         4         230         231         247         246
         4         231         232         248         247
         4         232         233         249         248
         4         233         234         250         249
         4         234         235         251         250
         4         235         236         252         251
         4         236         237         253         252
         4         237         238         254         253
         4         238         239         255         254
         4         240         241         257         256
         4         241         242         258         257
         4         242         243         259         258
         4         243         244         260         259
         4         244         245         261         260
         4         245         246         262         261
         4         246         247         263         262
         4         247         248         264         263
         4         248         249         265         264
         4         249         250         266         265
         4         250         251         267         266
         4         251         252         268         267
         4         252         253         269         268
         4         253         254         270         269
         4         254         255         271         270
         4         256         257         273         272
         4         257         258         274         273
         4         258         259         275         274
         4         259         260         276         275
         4         260         261         277         276
         4         261         262         278         277
         4         262         263         279         278
         4         263         264         280         279
         4         264         265         281         280
         4         265         266         282         281
         4         266         267         283         282
         4         267         268         284         283
         4         268         269         285         284
         4         269         270         286         285
         4         270         271         287         286
         4         272         273         289         288
         4         273         274         290         289
         4         274         275         291         290
         4         275         276         292         291
         4         276         277         293         292
         4         277         278         294         293
         4         278         279         295         294
         4         279         280         296         295
         4         280         281         297         296
         4         281         282         298         297
         4         282         283         299         298
         4         283         284         300         299
         4         284         285         301         300
         4         285         286         302         301
         4         286         287         303         302
         4         288         289         305         304
         4         289         290         306         305
         4         290         291         307         306
         4         291         292         308         307
         4         292         293         309         308
         4         293         294         310         309
         4         294         295         311         310
         4         295         296         312         311
         4         296         297         313         312
         4         297         298         314         313
         4         298         299         315         314
         4         299         300         316         315
         4         300         301         317         316
         4         301         302         318         317
         4         302         303         319         318
         4         304         305         321         320
         4         305         306         322         321
         4         306         307         323         322
         4         307         308         324         323
         4         308         309         325         324
         4         309         310         326         325
         4         310         311         327         326
         4         311         312         328         327
         4         312         313         329         328
         4         313         314         330         329
         4         314         315         331         330
         4         315         316         332         331
         4         316         317         333         332
         4         317         318         334         333
         4         318         319         335         334
         4         320         321         337         336
         4         321         322         338         337
         4         322         323         339         338
         4         323         324         340         339
         4         324         325         341         340
         4         325         326         342         341
         4         326         327         343         342
         4         327         328         344         343
         4         328         329         345         344
         4         329         330         346         345
         4         330         331         347         346
         4         331         332         348         347
         4         332         333         349         348
         4         333         334         350         349
         4         334         335         351         350
         4         336         337         353         352
         4         337         338         354         353
         4         338         339         355         354
         4         339         340         356         355
         4         340         341         357         356
         4         341         342         358         357
         4         342         343         359         358
         4         343         344         360         359
         4         344         345         361         360
         4         345         346         362         361
         4         346         347         363         362
         4         347         348         364         363
         4         348         349         365         364
         4         349         350         366         365
         4         350         351         367         366
         4         352         353         369         368
         4         353         354         370         369
         4         354         355         371         370
         4         355         356         372         371
         4         356         357         373         372
         4         357         358         374         373
         4         358         359         375         374
         4         359         360         376         375
         4         360         361         377         376
         4         361         362         378         377
         4         362         363         379         378
         4         363         364         380         379
         4         364         365         381         380
         4         365         366         382         381
         4         366         367         383         382
         4         368         369         385         384
         4         369         370         386         385
         4         370         371         387         386
         4         371         372         388         387
         4         372         373         389         388
         4         373         374         390         389
         4         374         375         391         390
         4         375         376         392         391
         4         376         377         393         392
         4         377         378         394         393
         4         378         379         395         394
         4         379         380         396         395
         4         380         381         397         396
         4         381         382         398         397
         4         382         383         399         398
         4         384         385         401         400
         4         385         386         402         401
         4         386         387         403         402
         4         387         388         404         403
         4         388         389         405         404
         4         389         390         406         405
         4         390         391         407         406
         4         391         392         408         407
         4         392         393         409         408
         4         393         394         410         409
         4         394         395         411         410
         4         395         396         412         411
         4         396         397         413         412
         4         397         398         414         413
         4         398         399         415         414
         4         400         401         417         416
         4         401         402         418         417
         4         402         403         419         418
         4         403         404         420         419
         4         404         405         421         420
         4         405         406         422         421
         4         406         407         423         422
         4         407         408         424         423
         4         408         409         425         424
         4         409         410         426         425
         4         410         411         427         426
         4         411         412         428         427
         4         412         413         429         428
         4         413         414         430         429
         4         414         415         431         430
         4         416         417         433         432
         4         417         418         434         433
         4         418         419         435         434
         4         419         420         436         435
         4         420         421         437         436
         4         421         422         438         437
         4         422         423         439         438
         4         423         424         440         439
         4         424         425         441         440
         4         425         426         442         441
         4         426         427         443         442
         4         427         428         444         443
         4         428         429         445         444
         4         429         430         446         445
         4         430         431         447         446
         4         432         433         449         448
         4         433         434         450         449
         4         434         435         451         450
         4         435         436         452         451
         4         436         437         453         452
         4         437         438         454         453
         4         438         439         455         454
         4         439         440         456         455
         4         440         441         457         456
         4         441         442         458         457
         4         442         443         459         458
         4         443         444         460         459
         4         444         445         461         460
         4         445         446         462         461
         4         446         447         463         462
         4         448         449         465         464
         4         449         450         466         465
         4         450         451         467         466
         4         451         452         468         467
         4         452         453         469         468
         4         453         454         470         469
         4         454         455         471         470
         4         455         456         472         471
         4         456         457         473         472
         4         457         458         474         473
         4         458         459         475         474
         4         459         460         476         475
         4         460         461         477         476
         4         461         462         478         477
         4         462         463         479         478
         4         464         465         481         480
         4         465         466         482         481
         4         466         467         483         482
         4         467         468         484         483
         4         468         469         485         484
         4         469         470         486         485
         4         470         471         487         486
         4         471         472         488         487
         4         472         473         489         488
         4         473         474         490         489
         4         474         475         491         490
         4         475         476         492         491
         4         476         477         493         492
         4         477         478         494         493
         4         478         479         495         494
CELL_TYPES        450
9
9
9
9
9
9
9
9
9
9
9
9
9
9
9
9
9
9
9
9
9
9
9
9
9
9
9
9
9
9
9
9
9
9
9
9
9
9
9
9
9
9
9
9
9
9
9
9
9
9
9
9
9
9
9
9
9
9
9
9
9
9
9
9
9
9
9
9
9
9
9
9
9
9
9
9
9
9
9
9
9
9
9
9
9
9
9
9
9
9
9
9
9
9
9
9
9
9
9
9
9
9
9
9
9
9
9
9
9
9
9
9
9
9
9
9
9
9
9
9
9
9
9
9
9
9
9
9
9
9
9
9
9
9
9
9
9
9
9
9
9
9
9
9
9
9
9
9
9
9
9
9
9
9
9
9
9
9
9
9
9
9
9
9
9
9
9
9
9
9
9
9
9
9
9
9
9
9
9
9
9
9
9
9
9
9
9
9
9
9
9
9
9
9
9
9
9
9
9
9
9
9
9
9
9
9
9
9
9
9
9
9
9
9
9
9
9
9
9
9
9
9
9
9
9
9
9
9
9
9
9
9
9
9
9
9
9
9
9
9
9
9
9
9
9
9
9
9
9
9
9
9
9
9
9
9
9
9
9
9
9
9
9
9
9
9
9
9
9
9
9
9
9
9
9
9
9
9
9
9
9
9
9
9
9
9
9
9
9
9
9
9
9
9
9
9
9
9
9
9
9
9
9
9
9
9
9
9
9
9
9
9
9
9
9
9
9
9
9
9
9
9
9
9
9
9
9
9
9
9
9
9
9
9
9
9
9
9
9
9
9
9
9
9
9
9
9
9
9
9
9
9
9
9
9
9
9
9
9
9
9
9
9
9
9
9
9
9
9
9
9
9
9
9
9
9
9
9
9
9
9
9
9
9
9
9
9
9
9
9
9
9
9
9
9
9
9
9
9
9
9
9
9
9
9
9
9
9
9
9
9
9
9
9
9
9
9
9
9
9
9
9
9
9
9
9
9
9
9
9
9
9
9
9
9
9
9
9
9
9
9
9
9
9
9
9
9
9
9
9
POINT_DATA       496
SCALARS p double 
LOOKUP_TABLE default
   23125662.7561762     
   23124559.3268169     
   23121689.9817784     
   23117475.7555612     
   23112302.0187191     
   23106516.9249286     
   23100431.3816077     
   23094320.6336734     
   23088426.1462952     
   23082957.0670098     
   23078090.4303145     
   23073969.8741668     
   23070703.0850157     
   23068358.5358744     
   23066962.0408821     
   23066493.4842745     
   23107092.4696424     
   23105991.1385480     
   23103126.9405549     
   23098919.8211121     
   23093754.1279268     
   23087977.1425113     
   23081899.1939417     
   23075795.2317434     
   23069906.6209427     
   23064442.5087818     
   23059579.9425519     
   23055462.5531371     
   23052198.0170369     
   23049854.8426524     
   23048458.9752795     
   23047990.5748077     
   23051438.8068238     
   23050343.8177002     
   23047495.1935965     
   23043309.5965896     
   23038168.3081231     
   23032416.0302937     
   23026361.3643622     
   23020278.3586708     
   23014408.0474458     
   23008959.5202670     
   23004109.8073273     
   23000002.4763377     
   22996745.1500916     
   22994406.4269657     
   22993012.6368151     
   22992544.7630291     
   22958873.2182744     
   22957788.9499171     
   22954966.7222245     
   22950817.6941323     
   22945718.0154157     
   22940008.1882580     
   22933993.9940695     
   22927947.9173436     
   22922110.3194652     
   22916690.0123438     
   22911863.8221657     
   22907775.0826717     
   22904531.2467012     
   22902201.0146336     
   22900811.3308581     
   22900344.5308773     
   22829680.9803439     
   22828612.0414654     
   22825827.6924965     
   22821731.3244953     
   22816691.9256596     
   22811044.2742538     
   22805090.2577290     
   22799100.0711353     
   22793312.8521017     
   22787936.6540907     
   22783147.6813839     
   22779088.6960391     
   22775866.7556903     
   22773550.6082190     
   22772167.9984814     
   22771703.1267276     
   22664260.5303815     
   22663211.8483258     
   22660477.7918947     
   22656451.6464102     
   22651493.3123841     
   22645930.4200556     
   22640059.8655662     
   22634148.6629271     
   22628433.8764518     
   22623122.0099114     
   22618387.9624853     
   22614373.3805989     
   22611184.5680102     
   22608890.1776095     
   22607518.8867099     
   22607057.2153595     
   22463122.4803783     
   22462099.4080774     
   22459429.2716640     
   22455492.8799071     
   22450639.2272889     
   22445187.4209335     
   22439428.2207008     
   22433624.2626674     
   22428009.3177172     
   22422787.2292528     
   22418130.6284574     
   22414179.2866282     
   22411038.2331676     
   22408775.7861483     
   22407421.6078874     
   22406964.9008018     
   22226888.4235121     
   22225896.8131678     
   22223305.6910842     
   22219481.0889995     
   22214759.3335729     
   22209449.6373971     
   22203835.2091008     
   22198172.7492829     
   22192691.1753434     
   22187590.2220218     
   22183039.0008068     
   22179174.4248710     
   22176099.5762574     
   22173882.0733563     
   22172552.5195068     
   22172103.1108699     
   21956289.3709071     
   21955335.6897665     
   21952840.4758987     
   21949152.7392552     
   21944594.4700553     
   21939463.4029393     
   21934033.4128176     
   21928553.3385728     
   21923245.3240375     
   21918303.2140206     
   21913891.0787367     
   21910141.7870311     
   21907155.6314452     
   21904999.0559745     
   21903703.4876966     
   21903264.3287946     
   21652164.0269447     
   21651255.3975797     
   21648875.0997136     
   21645352.9064318     
   21640994.7021746     
   21636084.8631031     
   21630885.7332796     
   21625635.9570927     
   21620548.6206113     
   21615809.6030303     
   21611576.1674704     
   21607975.7442683     
   21605104.8701132     
   21603028.2388854     
   21601777.8899103     
   21601352.5423547     
   21315456.6290109     
   21314600.9867611     
   21312356.9741294     
   21309032.9816530     
   21304916.8724832     
   21300277.2918761     
   21295362.4065757     
   21290397.9480995     
   21285585.3345247     
   21281100.1170562     
   21277090.7636899     
   21273677.7232024     
   21270952.6696422     
   21268977.8851401     
   21267785.7649076     
   21267378.3864481     
   20947214.4472290     
   20946420.4921320     
   20944336.6847051     
   20941247.8865509     
   20937421.5414071     
   20933107.7291099     
   20928537.3484511     
   20923920.1226299     
   20919442.8784333     
   20915268.2321884     
   20911533.6864859     
   20908351.0238963     
   20905805.8842321     
   20903957.4456284     
   20902838.1418343     
   20902453.4155041     
   20548584.5473582     
   20547861.9134288     
   20545964.9511520     
   20543152.6954847     
   20539669.3268187     
   20535742.9953154     
   20531583.8156029     
   20527382.0494769     
   20523306.7210813     
   20519504.7163879     
   20516100.2728273     
   20513194.7565771     
   20510866.5635315     
   20509171.0588552     
   20508140.4236898     
   20507783.4560954     
   20120810.3359326     
   20120169.6716319     
   20118488.9501902     
   20115998.8054390     
   20112916.7311732     
   20109445.1266015     
   20105769.4080186     
   20102056.6013310     
   20098454.5070867     
   20095091.3454372     
   20092075.7299470     
   20089496.8431701     
   20087424.6699275     
   20085910.0925314     
   20084984.7952717     
   20084660.9724981     
   19665227.9253056     
   19664680.8258987     
   19663248.3074920     
   19661129.5624468     
   19658511.4087955     
   19655566.2092598     
   19652450.4020630     
   19649303.7850724     
   19646249.3915652     
   19643393.7746155     
   19640827.5689880     
   19638626.0985062     
   19636849.8551235     
   19635544.6914663     
   19634741.6635269     
   19634456.4820228     
   19183261.8175025     
   19182820.8412893     
   19181670.7891935     
   19179975.6263233     
   19177887.0262062     
   19175542.6437463     
   19173065.4501172     
   19170563.8904766     
   19168132.6185059     
   19165853.5869119     
   19163797.2122340     
   19162023.4154624     
   19160582.3069666     
   19159514.3791116     
   19158850.1187310     
   19158608.9782614     
   18676421.2714785     
   18676099.6994745     
   18675267.9228366     
   18674050.0935924     
   18672557.7765686     
   18670889.0383806     
   18669128.7917556     
   18667349.9993673     
   18665615.4284002     
   18663979.6254249     
   18662490.7609140     
   18661192.0762651     
   18660122.7170217     
   18659317.7748916     
   18658807.4630737     
   18658615.3706903     
   18146296.5555037     
   18146108.0131968     
   18145630.7147752     
   18144943.5927205     
   18144112.8118638     
   18143191.8857333     
   18142223.1404667     
   18141240.1012076     
   18140270.3787588     
   18139338.6077242     
   18138469.0240204     
   18137687.3136480     
   18137021.4665831     
   18136501.5044545     
   18136157.9537798     
   18136019.2050782     
   17594555.6462064     
   17594513.5529904     
   17594425.7318694     
   17594319.7691508     
   17594210.9198120     
   17594103.2857199     
   17593992.4082871     
   17593868.8309812     
   17593722.1790131     
   17593545.1575250     
   17593336.9062913     
   17593105.1951809     
   17592867.1624191     
   17592648.4952790     
   17592481.0213690     
   17592398.8947068     
   17022941.5153438     
   17023058.3964871     
   17023391.8323238     
   17023911.2925185     
   17024575.5761989     
   17025334.8864834     
   17026134.3929193     
   17026918.8658090     
   17027637.9268922     
   17028251.1429382     
   17028732.1063428     
   17029070.9138188     
   17029274.6783097     
   17029365.9405498     
   17029379.1756131     
   17029355.5303450     
   16433270.2334957     
   16433556.8890737     
   16434337.6500447     
   16435516.5703024     
   16436990.5753459     
   16438652.1482591     
   16440393.5363241     
   16442112.2211653     
   16443717.1339613     
   16445134.6544520     
   16446313.3562027     
   16447226.6506160     
   16447872.9116218     
   16448273.0638558     
   16448465.7902422     
   16448500.6933122     
   15827430.0257664     
   15827894.5539218     
   15829140.0214639     
   15830997.2915211     
   15833296.3193915     
   15835869.0563232     
   15838553.8821782     
   15841201.4539972     
   15843681.3711991     
   15845888.5844938     
   15847748.4325259     
   15849219.3304164     
   15850292.5451427     
   15850988.9585081     
   15851353.0649169     
   15851444.5420261     
   15207381.4586243     
   15208028.1285071     
   15209743.4363212     
   15212276.8144153     
   15215386.6799654     
   15218843.1291989     
   15222432.0813393     
   15225960.7736787     
   15229263.8556821     
   15232209.1304945     
   15234702.0968941     
   15236688.4949418     
   15238154.0356629     
   15239120.8175575     
   15239640.4538002     
   15239784.2259644     
   14575159.1909680     
   14575987.0734310     
   14578160.6409632     
   14581339.2035019     
   14585205.9945544     
   14589470.1931815     
   14593870.0851995     
   14598177.0001369     
   14602199.0956142     
   14605784.5761189     
   14608824.4371552     
   14611254.5555877     
   14613056.0880644     
   14614252.6770106     
   14614903.6399771     
   14615093.0270474     
   13932875.8055666     
   13933876.9461877     
   13936474.4639819     
   13940228.4689872     
   13944745.2492890     
   13949677.7962489     
   13954726.6492474     
   13959640.0587995     
   13964212.8674193     
   13968284.8510687     
   13971740.0361033     
   13974507.7874068     
   13976564.7481779     
   13977934.7959347     
   13978684.0166826     
   13978909.8876371     
   13282728.7605829     
   13283885.4820611     
   13286840.8726366     
   13291047.0028571     
   13296035.6686337     
   13301415.3565289     
   13306866.2171839     
   13312132.3583411     
   13317012.6849933     
   13321352.6041814     
   13325038.8138583     
   13327998.6027916     
   13330203.4096142     
   13331673.7308939     
   13332479.3499239     
   13332730.4629190     
   12627012.5621156     
   12628292.9163990     
   12631493.0929561     
   12635950.9671555     
   12641136.5632042     
   12646638.3432867     
   12652143.4498225     
   12657416.0770570     
   12662278.4366671     
   12666596.2487246     
   12670269.6380215     
   12673230.0083947     
   12675443.9756579     
   12676923.1343389     
   12677734.2321956     
   12677997.1975893     
   11968140.4783754     
   11969489.3610849     
   11972745.0996883     
   11977137.4940891     
   11982112.3197371     
   11987283.4267652     
   11992381.7892296     
   11997217.2679089     
   12001652.2708102     
   12005584.7437428     
   12008937.7567873     
   12011654.6168982     
   12013700.6551976     
   12015075.5874084     
   12015831.9991535     
   12016092.5557433     
   11308686.9129535     
   11310004.0136590     
   11312987.5855401     
   11316811.9298600     
   11320991.8764722     
   11325232.2314937     
   11329345.3665039     
   11333205.9446761     
   11336726.3644260     
   11339842.6709552     
   11342506.1806105     
   11344678.8257888     
   11346332.4366313     
   11347456.0830391     
   11348087.0613656     
   11348330.6750431     
   10651476.1708469     
   10652558.0536443     
   10654642.0564958     
   10657115.8115950     
   10659705.1276110     
   10662263.8800664     
   10664704.9133740     
   10666972.2354999     
   10669027.6539513     
   10670843.5488288     
   10672398.6753941     
   10673675.6318839     
   10674659.7136496     
   10675340.7766506     
   10675727.1654150     
   10675963.3282261     
   10000000.0000000     
   10000000.0000000     
   10000000.0000000     
   10000000.0000000     
   10000000.0000000     
   10000000.0000000     
   10000000.0000000     
   10000000.0000000     
   10000000.0000000     
   10000000.0000000     
   10000000.0000000     
   10000000.0000000     
   10000000.0000000     
  10000000.00000000     
   10000000.0000000     
   10000000.0000000     
VECTORS u double 
    0.00000E+00        -0.46726E-01         0.00000E+00
    0.00000E+00        -0.43384E-01         0.00000E+00
    0.00000E+00        -0.40069E-01         0.00000E+00
    0.00000E+00        -0.36784E-01         0.00000E+00
    0.00000E+00        -0.33533E-01         0.00000E+00
    0.00000E+00        -0.30318E-01         0.00000E+00
    0.00000E+00        -0.27139E-01         0.00000E+00
    0.00000E+00        -0.23997E-01         0.00000E+00
    0.00000E+00        -0.20891E-01         0.00000E+00
    0.00000E+00        -0.17819E-01         0.00000E+00
    0.00000E+00        -0.14780E-01         0.00000E+00
    0.00000E+00        -0.11772E-01         0.00000E+00
    0.00000E+00        -0.87919E-02         0.00000E+00
    0.00000E+00        -0.58380E-02         0.00000E+00
    0.00000E+00        -0.29081E-02         0.00000E+00
    0.00000E+00         0.00000E+00         0.00000E+00
    0.62301E-03        -0.46748E-01         0.00000E+00
    0.57718E-03        -0.43406E-01         0.00000E+00
    0.52840E-03        -0.40090E-01         0.00000E+00
    0.47715E-03        -0.36805E-01         0.00000E+00
    0.42462E-03        -0.33553E-01         0.00000E+00
    0.37193E-03        -0.30337E-01         0.00000E+00
    0.32035E-03        -0.27157E-01         0.00000E+00
    0.27078E-03        -0.24014E-01         0.00000E+00
    0.22400E-03        -0.20906E-01         0.00000E+00
    0.18053E-03        -0.17833E-01         0.00000E+00
    0.14067E-03        -0.14792E-01         0.00000E+00
    0.10463E-03        -0.11782E-01         0.00000E+00
    0.72489E-04        -0.87992E-02         0.00000E+00
    0.44320E-04        -0.58429E-02         0.00000E+00
    0.20155E-04        -0.29105E-02         0.00000E+00
    0.00000E+00         0.00000E+00         0.00000E+00
    0.12412E-02        -0.46815E-01         0.00000E+00
    0.11497E-02        -0.43471E-01         0.00000E+00
    0.10522E-02        -0.40154E-01         0.00000E+00
    0.95006E-03        -0.36867E-01         0.00000E+00
    0.84543E-03        -0.33613E-01         0.00000E+00
    0.74052E-03        -0.30395E-01         0.00000E+00
    0.63789E-03        -0.27212E-01         0.00000E+00
    0.53933E-03        -0.24065E-01         0.00000E+00
    0.44634E-03        -0.20953E-01         0.00000E+00
    0.35991E-03        -0.17874E-01         0.00000E+00
    0.28063E-03        -0.14827E-01         0.00000E+00
    0.20887E-03        -0.11810E-01         0.00000E+00
    0.14483E-03        -0.88209E-02         0.00000E+00
    0.88630E-04        -0.58575E-02         0.00000E+00
    0.40340E-04        -0.29178E-02         0.00000E+00
    0.00000E+00         0.00000E+00         0.00000E+00
    0.18496E-02        -0.46925E-01         0.00000E+00
    0.17128E-02        -0.43579E-01         0.00000E+00
    0.15671E-02        -0.40260E-01         0.00000E+00
    0.14145E-02        -0.36970E-01         0.00000E+00
    0.12585E-02        -0.33714E-01         0.00000E+00
    0.11024E-02        -0.30491E-01         0.00000E+00
    0.94989E-03        -0.27303E-01         0.00000E+00
    0.80352E-03        -0.24149E-01         0.00000E+00
    0.66546E-03        -0.21030E-01         0.00000E+00
    0.53708E-03        -0.17942E-01         0.00000E+00
    0.41921E-03        -0.14885E-01         0.00000E+00
    0.31237E-03        -0.11857E-01         0.00000E+00
    0.21687E-03        -0.88568E-02         0.00000E+00
    0.13291E-03        -0.58816E-02         0.00000E+00
    0.60585E-04        -0.29299E-02         0.00000E+00
    0.00000E+00         0.00000E+00         0.00000E+00
    0.24429E-02        -0.47078E-01         0.00000E+00
    0.22616E-02        -0.43730E-01         0.00000E+00
    0.20683E-02        -0.40408E-01         0.00000E+00
    0.18664E-02        -0.37115E-01         0.00000E+00
    0.16601E-02        -0.33854E-01         0.00000E+00
    0.14545E-02        -0.30626E-01         0.00000E+00
    0.12537E-02        -0.27430E-01         0.00000E+00
    0.10614E-02        -0.24268E-01         0.00000E+00
    0.87992E-03        -0.21137E-01         0.00000E+00
    0.71105E-03        -0.18037E-01         0.00000E+00
    0.55579E-03        -0.14966E-01         0.00000E+00
    0.41480E-03        -0.11923E-01         0.00000E+00
    0.28849E-03        -0.89067E-02         0.00000E+00
    0.17713E-03        -0.59151E-02         0.00000E+00
    0.80921E-04        -0.29467E-02         0.00000E+00
    0.00000E+00         0.00000E+00         0.00000E+00
    0.30158E-02        -0.47274E-01         0.00000E+00
    0.27907E-02        -0.43923E-01         0.00000E+00
    0.25510E-02        -0.40598E-01         0.00000E+00
    0.23010E-02        -0.37301E-01         0.00000E+00
    0.20465E-02        -0.34034E-01         0.00000E+00
    0.17936E-02        -0.30798E-01         0.00000E+00
    0.15471E-02        -0.27593E-01         0.00000E+00
    0.13111E-02        -0.24419E-01         0.00000E+00
    0.10885E-02        -0.21274E-01         0.00000E+00
    0.88099E-03        -0.18157E-01         0.00000E+00
    0.68985E-03        -0.15069E-01         0.00000E+00
    0.51585E-03        -0.12007E-01         0.00000E+00
    0.35954E-03        -0.89702E-02         0.00000E+00
    0.22126E-03        -0.59577E-02         0.00000E+00
    0.10134E-03        -0.29681E-02         0.00000E+00
    0.00000E+00         0.00000E+00         0.00000E+00
    0.35623E-02        -0.47511E-01         0.00000E+00
    0.32946E-02        -0.44158E-01         0.00000E+00
    0.30100E-02        -0.40829E-01         0.00000E+00
    0.27141E-02        -0.37527E-01         0.00000E+00
    0.24142E-02        -0.34254E-01         0.00000E+00
    0.21169E-02        -0.31009E-01         0.00000E+00
    0.18279E-02        -0.27791E-01         0.00000E+00
    0.15513E-02        -0.24602E-01         0.00000E+00
    0.12901E-02        -0.21439E-01         0.00000E+00
    0.10462E-02        -0.18303E-01         0.00000E+00
    0.82091E-03        -0.15193E-01         0.00000E+00
    0.61526E-03        -0.12108E-01         0.00000E+00
    0.42988E-03        -0.90468E-02         0.00000E+00
    0.26528E-03        -0.60092E-02         0.00000E+00
    0.12186E-03        -0.29939E-02         0.00000E+00
    0.00000E+00         0.00000E+00         0.00000E+00
    0.40768E-02        -0.47790E-01         0.00000E+00
    0.37677E-02        -0.44433E-01         0.00000E+00
    0.34401E-02        -0.41101E-01         0.00000E+00
    0.31013E-02        -0.37794E-01         0.00000E+00
    0.27596E-02        -0.34512E-01         0.00000E+00
    0.24220E-02        -0.31255E-01         0.00000E+00
    0.20943E-02        -0.28023E-01         0.00000E+00
    0.17805E-02        -0.24816E-01         0.00000E+00
    0.14837E-02        -0.21632E-01         0.00000E+00
    0.12058E-02        -0.18473E-01         0.00000E+00
    0.94851E-03        -0.15338E-01         0.00000E+00
    0.71276E-03        -0.12225E-01         0.00000E+00
    0.49942E-03        -0.91360E-02         0.00000E+00
    0.30915E-03        -0.60691E-02         0.00000E+00
    0.14251E-03        -0.30240E-02         0.00000E+00
    0.00000E+00         0.00000E+00         0.00000E+00
    0.45531E-02        -0.48108E-01         0.00000E+00
    0.42042E-02        -0.44749E-01         0.00000E+00
    0.38366E-02        -0.41412E-01         0.00000E+00
    0.34589E-02        -0.38099E-01         0.00000E+00
    0.30800E-02        -0.34807E-01         0.00000E+00
    0.27068E-02        -0.31537E-01         0.00000E+00
    0.23446E-02        -0.28287E-01         0.00000E+00
    0.19974E-02        -0.25059E-01         0.00000E+00
    0.16683E-02        -0.21852E-01         0.00000E+00
    0.13594E-02        -0.18666E-01         0.00000E+00
    0.10723E-02        -0.15502E-01         0.00000E+00
    0.80816E-03        -0.12359E-01         0.00000E+00
    0.56808E-03        -0.92372E-02         0.00000E+00
    0.35288E-03        -0.61371E-02         0.00000E+00
    0.16328E-03        -0.30581E-02         0.00000E+00
    0.00000E+00         0.00000E+00         0.00000E+00
    0.49858E-02        -0.48464E-01         0.00000E+00
    0.45991E-02        -0.45103E-01         0.00000E+00
    0.41952E-02        -0.41762E-01         0.00000E+00
    0.37837E-02        -0.38440E-01         0.00000E+00
    0.33729E-02        -0.35136E-01         0.00000E+00
    0.29690E-02        -0.31850E-01         0.00000E+00
    0.25770E-02        -0.28581E-01         0.00000E+00
    0.22008E-02        -0.25330E-01         0.00000E+00
    0.18431E-02        -0.22096E-01         0.00000E+00
    0.15062E-02        -0.18881E-01         0.00000E+00
    0.11918E-02        -0.15684E-01         0.00000E+00
    0.90124E-03        -0.12507E-01         0.00000E+00
    0.63578E-03        -0.93498E-02         0.00000E+00
    0.39647E-03        -0.62127E-02         0.00000E+00
    0.18423E-03        -0.30961E-02         0.00000E+00
    0.00000E+00         0.00000E+00         0.00000E+00
    0.53695E-02        -0.48857E-01         0.00000E+00
    0.49485E-02        -0.45493E-01         0.00000E+00
    0.45132E-02        -0.42146E-01         0.00000E+00
    0.40732E-02        -0.38814E-01         0.00000E+00
    0.36359E-02        -0.35498E-01         0.00000E+00
    0.32067E-02        -0.32194E-01         0.00000E+00
    0.27900E-02        -0.28904E-01         0.00000E+00
    0.23891E-02        -0.25627E-01         0.00000E+00
    0.20069E-02        -0.22364E-01         0.00000E+00
    0.16455E-02        -0.19116E-01         0.00000E+00
    0.13066E-02        -0.15884E-01         0.00000E+00
    0.99182E-03        -0.12670E-01         0.00000E+00
    0.70252E-03        -0.94732E-02         0.00000E+00
    0.43997E-03        -0.62956E-02         0.00000E+00
    0.20541E-03        -0.31377E-02         0.00000E+00
    0.00000E+00         0.00000E+00         0.00000E+00
    0.57012E-02        -0.49285E-01         0.00000E+00
    0.52495E-02        -0.45916E-01         0.00000E+00
    0.47880E-02        -0.42562E-01         0.00000E+00
    0.43251E-02        -0.39220E-01         0.00000E+00
    0.38668E-02        -0.35888E-01         0.00000E+00
    0.34178E-02        -0.32565E-01         0.00000E+00
    0.29815E-02        -0.29251E-01         0.00000E+00
    0.25609E-02        -0.25947E-01         0.00000E+00
    0.21586E-02        -0.22653E-01         0.00000E+00
    0.17765E-02        -0.19370E-01         0.00000E+00
    0.14163E-02        -0.16101E-01         0.00000E+00
    0.10797E-02        -0.12846E-01         0.00000E+00
    0.76828E-03        -0.96067E-02         0.00000E+00
    0.48348E-03        -0.63853E-02         0.00000E+00
    0.22691E-03        -0.31827E-02         0.00000E+00
    0.00000E+00         0.00000E+00         0.00000E+00
    0.59785E-02        -0.49744E-01         0.00000E+00
    0.55002E-02        -0.46369E-01         0.00000E+00
    0.50176E-02        -0.43006E-01         0.00000E+00
    0.45372E-02        -0.39651E-01         0.00000E+00
    0.40635E-02        -0.36303E-01         0.00000E+00
    0.36000E-02        -0.32960E-01         0.00000E+00
    0.31496E-02        -0.29622E-01         0.00000E+00
    0.27146E-02        -0.26288E-01         0.00000E+00
    0.22969E-02        -0.22961E-01         0.00000E+00
    0.18983E-02        -0.19642E-01         0.00000E+00
    0.15204E-02        -0.16332E-01         0.00000E+00
    0.11648E-02        -0.13034E-01         0.00000E+00
    0.83308E-03        -0.97495E-02         0.00000E+00
    0.52713E-03        -0.64812E-02         0.00000E+00
    0.24885E-03        -0.32308E-02         0.00000E+00
    0.00000E+00         0.00000E+00         0.00000E+00
    0.61991E-02        -0.50230E-01         0.00000E+00
    0.56991E-02        -0.46848E-01         0.00000E+00
    0.52002E-02        -0.43475E-01         0.00000E+00
    0.47074E-02        -0.40107E-01         0.00000E+00
    0.42236E-02        -0.36741E-01         0.00000E+00
    0.37514E-02        -0.33376E-01         0.00000E+00
    0.32924E-02        -0.30011E-01         0.00000E+00
    0.28484E-02        -0.26648E-01         0.00000E+00
    0.24205E-02        -0.23286E-01         0.00000E+00
    0.20100E-02        -0.19928E-01         0.00000E+00
    0.16183E-02        -0.16576E-01         0.00000E+00
    0.12467E-02        -0.13233E-01         0.00000E+00
    0.89696E-03        -0.99007E-02         0.00000E+00
    0.57109E-03        -0.65828E-02         0.00000E+00
    0.27138E-03        -0.32818E-02         0.00000E+00
    0.00000E+00         0.00000E+00         0.00000E+00
    0.63624E-02        -0.50740E-01         0.00000E+00
    0.58447E-02        -0.47349E-01         0.00000E+00
    0.53342E-02        -0.43964E-01         0.00000E+00
    0.48338E-02        -0.40581E-01         0.00000E+00
    0.43453E-02        -0.37196E-01         0.00000E+00
    0.38697E-02        -0.33809E-01         0.00000E+00
    0.34079E-02        -0.30417E-01         0.00000E+00
    0.29604E-02        -0.27023E-01         0.00000E+00
    0.25277E-02        -0.23625E-01         0.00000E+00
    0.21104E-02        -0.20227E-01         0.00000E+00
    0.17092E-02        -0.16832E-01         0.00000E+00
    0.13251E-02        -0.13441E-01         0.00000E+00
    0.95988E-03        -0.10059E-01         0.00000E+00
    0.61552E-03        -0.66894E-02         0.00000E+00
    0.29466E-03        -0.33352E-02         0.00000E+00
    0.00000E+00         0.00000E+00         0.00000E+00
    0.64668E-02        -0.51270E-01         0.00000E+00
    0.59357E-02        -0.47868E-01         0.00000E+00
    0.54181E-02        -0.44470E-01         0.00000E+00
    0.49148E-02        -0.41071E-01         0.00000E+00
    0.44265E-02        -0.37666E-01         0.00000E+00
    0.39530E-02        -0.34255E-01         0.00000E+00
    0.34939E-02        -0.30836E-01         0.00000E+00
    0.30488E-02        -0.27409E-01         0.00000E+00
    0.26170E-02        -0.23975E-01         0.00000E+00
    0.21981E-02        -0.20537E-01         0.00000E+00
    0.17922E-02        -0.17096E-01         0.00000E+00
    0.13996E-02        -0.13657E-01         0.00000E+00
    0.10217E-02        -0.10224E-01         0.00000E+00
    0.66050E-03        -0.68001E-02         0.00000E+00
    0.31886E-03        -0.33908E-02         0.00000E+00
    0.00000E+00         0.00000E+00         0.00000E+00
    0.65106E-02        -0.51814E-01         0.00000E+00
    0.59708E-02        -0.48401E-01         0.00000E+00
    0.54503E-02        -0.44988E-01         0.00000E+00
    0.49489E-02        -0.41571E-01         0.00000E+00
    0.44657E-02        -0.38145E-01         0.00000E+00
    0.39994E-02        -0.34709E-01         0.00000E+00
    0.35486E-02        -0.31262E-01         0.00000E+00
    0.31115E-02        -0.27803E-01         0.00000E+00
    0.26863E-02        -0.24332E-01         0.00000E+00
    0.22715E-02        -0.20853E-01         0.00000E+00
    0.18660E-02        -0.17367E-01         0.00000E+00
    0.14692E-02        -0.13879E-01         0.00000E+00
    0.10820E-02        -0.10393E-01         0.00000E+00
    0.70601E-03        -0.69142E-02         0.00000E+00
    0.34410E-03        -0.34481E-02         0.00000E+00
    0.00000E+00         0.00000E+00         0.00000E+00
    0.64922E-02        -0.52369E-01         0.00000E+00
    0.59484E-02        -0.48942E-01         0.00000E+00
    0.54297E-02        -0.45513E-01         0.00000E+00
    0.49346E-02        -0.42077E-01         0.00000E+00
    0.44611E-02        -0.38629E-01         0.00000E+00
    0.40070E-02        -0.35168E-01         0.00000E+00
    0.35698E-02        -0.31692E-01         0.00000E+00
    0.31464E-02        -0.28200E-01         0.00000E+00
    0.27336E-02        -0.24693E-01         0.00000E+00
    0.23287E-02        -0.21172E-01         0.00000E+00
    0.19290E-02        -0.17641E-01         0.00000E+00
    0.15329E-02        -0.14104E-01         0.00000E+00
    0.11402E-02        -0.10565E-01         0.00000E+00
    0.75177E-03        -0.70306E-02         0.00000E+00
    0.37038E-03        -0.35066E-02         0.00000E+00
    0.00000E+00         0.00000E+00         0.00000E+00
    0.64101E-02        -0.52928E-01         0.00000E+00
    0.58671E-02        -0.49487E-01         0.00000E+00
    0.53547E-02        -0.46041E-01         0.00000E+00
    0.48705E-02        -0.42584E-01         0.00000E+00
    0.44114E-02        -0.39113E-01         0.00000E+00
    0.39744E-02        -0.35626E-01         0.00000E+00
    0.35557E-02        -0.32120E-01         0.00000E+00
    0.31513E-02        -0.28596E-01         0.00000E+00
    0.27566E-02        -0.25052E-01         0.00000E+00
    0.23672E-02        -0.21492E-01         0.00000E+00
    0.19790E-02        -0.17917E-01         0.00000E+00
    0.15889E-02        -0.14331E-01         0.00000E+00
    0.11950E-02        -0.10739E-01         0.00000E+00
    0.79721E-03        -0.71483E-02         0.00000E+00
    0.39760E-03        -0.35660E-02         0.00000E+00
    0.00000E+00         0.00000E+00         0.00000E+00
    0.62624E-02        -0.53487E-01         0.00000E+00
    0.57253E-02        -0.50031E-01         0.00000E+00
    0.52241E-02        -0.46566E-01         0.00000E+00
    0.47553E-02        -0.43087E-01         0.00000E+00
    0.43152E-02        -0.39593E-01         0.00000E+00
    0.38998E-02        -0.36078E-01         0.00000E+00
    0.35045E-02        -0.32543E-01         0.00000E+00
    0.31240E-02        -0.28986E-01         0.00000E+00
    0.27527E-02        -0.25407E-01         0.00000E+00
    0.23844E-02        -0.21807E-01         0.00000E+00
    0.20135E-02        -0.18189E-01         0.00000E+00
    0.16348E-02        -0.14556E-01         0.00000E+00
    0.12448E-02        -0.10912E-01         0.00000E+00
    0.84144E-03        -0.72664E-02         0.00000E+00
    0.42542E-03        -0.36256E-02         0.00000E+00
    0.00000E+00         0.00000E+00         0.00000E+00
    0.60477E-02        -0.54040E-01         0.00000E+00
    0.55217E-02        -0.50567E-01         0.00000E+00
    0.50365E-02        -0.47082E-01         0.00000E+00
    0.45878E-02        -0.43582E-01         0.00000E+00
    0.41712E-02        -0.40061E-01         0.00000E+00
    0.37819E-02        -0.36519E-01         0.00000E+00
    0.34144E-02        -0.32954E-01         0.00000E+00
    0.30625E-02        -0.29365E-01         0.00000E+00
    0.27192E-02        -0.25751E-01         0.00000E+00
    0.23771E-02        -0.22114E-01         0.00000E+00
    0.20290E-02        -0.18454E-01         0.00000E+00
    0.16676E-02        -0.14776E-01         0.00000E+00
    0.12871E-02        -0.11084E-01         0.00000E+00
    0.88301E-03        -0.73837E-02         0.00000E+00
    0.45340E-03        -0.36853E-02         0.00000E+00
    0.00000E+00         0.00000E+00         0.00000E+00
    0.57645E-02        -0.54582E-01         0.00000E+00
    0.52551E-02        -0.51091E-01         0.00000E+00
    0.47909E-02        -0.47585E-01         0.00000E+00
    0.43671E-02        -0.44061E-01         0.00000E+00
    0.39785E-02        -0.40514E-01         0.00000E+00
    0.36195E-02        -0.36944E-01         0.00000E+00
    0.32839E-02        -0.33349E-01         0.00000E+00
    0.29643E-02        -0.29727E-01         0.00000E+00
    0.26531E-02        -0.26080E-01         0.00000E+00
    0.23416E-02        -0.22407E-01         0.00000E+00
    0.20213E-02        -0.18710E-01         0.00000E+00
    0.16832E-02        -0.14990E-01         0.00000E+00
    0.13186E-02        -0.11251E-01         0.00000E+00
    0.91979E-03        -0.74991E-02         0.00000E+00
    0.48080E-03        -0.37443E-02         0.00000E+00
    0.00000E+00         0.00000E+00         0.00000E+00
    0.54117E-02        -0.55107E-01         0.00000E+00
    0.49244E-02        -0.51597E-01         0.00000E+00
    0.44866E-02        -0.48069E-01         0.00000E+00
    0.40926E-02        -0.44519E-01         0.00000E+00
    0.37365E-02        -0.40945E-01         0.00000E+00
    0.34117E-02        -0.37346E-01         0.00000E+00
    0.31113E-02        -0.33720E-01         0.00000E+00
    0.28274E-02        -0.30068E-01         0.00000E+00
    0.25513E-02        -0.26389E-01         0.00000E+00
    0.22739E-02        -0.22683E-01         0.00000E+00
    0.19857E-02        -0.18950E-01         0.00000E+00
    0.16763E-02        -0.15192E-01         0.00000E+00
    0.13346E-02        -0.11411E-01         0.00000E+00
    0.94863E-03        -0.76113E-02         0.00000E+00
    0.50648E-03        -0.38023E-02         0.00000E+00
    0.00000E+00         0.00000E+00         0.00000E+00
    0.49883E-02        -0.55609E-01         0.00000E+00
    0.45292E-02        -0.52079E-01         0.00000E+00
    0.41233E-02        -0.48527E-01         0.00000E+00
    0.37641E-02        -0.44951E-01         0.00000E+00
    0.34446E-02        -0.41349E-01         0.00000E+00
    0.31577E-02        -0.37720E-01         0.00000E+00
    0.28954E-02        -0.34064E-01         0.00000E+00
    0.26492E-02        -0.30381E-01         0.00000E+00
    0.24103E-02        -0.26672E-01         0.00000E+00
    0.21694E-02        -0.22935E-01         0.00000E+00
    0.19166E-02        -0.19172E-01         0.00000E+00
    0.16408E-02        -0.15380E-01         0.00000E+00
    0.13290E-02        -0.11562E-01         0.00000E+00
    0.96495E-03        -0.77184E-02         0.00000E+00
    0.52859E-03        -0.38585E-02         0.00000E+00
    0.00000E+00         0.00000E+00         0.00000E+00
    0.44935E-02        -0.56081E-01         0.00000E+00
    0.40691E-02        -0.52530E-01         0.00000E+00
    0.37010E-02        -0.48953E-01         0.00000E+00
    0.33817E-02        -0.45349E-01         0.00000E+00
    0.31031E-02        -0.41717E-01         0.00000E+00
    0.28569E-02        -0.38058E-01         0.00000E+00
    0.26345E-02        -0.34373E-01         0.00000E+00
    0.24273E-02        -0.30661E-01         0.00000E+00
    0.22266E-02        -0.26924E-01         0.00000E+00
    0.20233E-02        -0.23161E-01         0.00000E+00
    0.18081E-02        -0.19370E-01         0.00000E+00
    0.15697E-02        -0.15550E-01         0.00000E+00
    0.12942E-02        -0.11700E-01         0.00000E+00
    0.96190E-03        -0.78189E-02         0.00000E+00
    0.54362E-03        -0.39129E-02         0.00000E+00
    0.00000E+00         0.00000E+00         0.00000E+00
    0.39269E-02        -0.56518E-01         0.00000E+00
    0.35441E-02        -0.52943E-01         0.00000E+00
    0.32203E-02        -0.49340E-01         0.00000E+00
    0.29461E-02        -0.45707E-01         0.00000E+00
    0.27121E-02        -0.42045E-01         0.00000E+00
    0.25088E-02        -0.38356E-01         0.00000E+00
    0.23272E-02        -0.34642E-01         0.00000E+00
    0.21589E-02        -0.30903E-01         0.00000E+00
    0.19961E-02        -0.27141E-01         0.00000E+00
    0.18307E-02        -0.23355E-01         0.00000E+00
    0.16541E-02        -0.19541E-01         0.00000E+00
    0.14558E-02        -0.15698E-01         0.00000E+00
    0.12218E-02        -0.11822E-01         0.00000E+00
    0.93079E-03        -0.79101E-02         0.00000E+00
    0.54605E-03        -0.39635E-02         0.00000E+00
    0.00000E+00         0.00000E+00         0.00000E+00
    0.32878E-02        -0.56911E-01         0.00000E+00
    0.29548E-02        -0.53312E-01         0.00000E+00
    0.26823E-02        -0.49681E-01         0.00000E+00
    0.24586E-02        -0.46018E-01         0.00000E+00
    0.22722E-02        -0.42325E-01         0.00000E+00
    0.21126E-02        -0.38607E-01         0.00000E+00
    0.19713E-02        -0.34866E-01         0.00000E+00
    0.18409E-02        -0.31103E-01         0.00000E+00
    0.17147E-02        -0.27320E-01         0.00000E+00
    0.15862E-02        -0.23514E-01         0.00000E+00
    0.14482E-02        -0.19683E-01         0.00000E+00
    0.12915E-02        -0.15822E-01         0.00000E+00
    0.11030E-02        -0.11927E-01         0.00000E+00
    0.86158E-03        -0.79911E-02         0.00000E+00
    0.52598E-03        -0.40114E-02         0.00000E+00
    0.00000E+00         0.00000E+00         0.00000E+00
    0.25759E-02        -0.57250E-01         0.00000E+00
    0.23024E-02        -0.53627E-01         0.00000E+00
    0.20892E-02        -0.49966E-01         0.00000E+00
    0.19207E-02        -0.46272E-01         0.00000E+00
    0.17833E-02        -0.42550E-01         0.00000E+00
    0.16670E-02        -0.38805E-01         0.00000E+00
    0.15644E-02        -0.35041E-01         0.00000E+00
    0.14698E-02        -0.31258E-01         0.00000E+00
    0.13783E-02        -0.27457E-01         0.00000E+00
    0.12850E-02        -0.23636E-01         0.00000E+00
    0.11845E-02        -0.19792E-01         0.00000E+00
    0.10696E-02        -0.15920E-01         0.00000E+00
    0.92920E-03        -0.12012E-01         0.00000E+00
    0.74384E-03        -0.80613E-02         0.00000E+00
    0.47339E-03        -0.40567E-02         0.00000E+00
    0.00000E+00         0.00000E+00         0.00000E+00
    0.17904E-02        -0.57526E-01         0.00000E+00
    0.15892E-02        -0.53877E-01         0.00000E+00
    0.14437E-02        -0.50185E-01         0.00000E+00
    0.13332E-02        -0.46461E-01         0.00000E+00
    0.12443E-02        -0.42713E-01         0.00000E+00
    0.11692E-02        -0.38947E-01         0.00000E+00
    0.11030E-02        -0.35164E-01         0.00000E+00
    0.10420E-02        -0.31367E-01         0.00000E+00
    0.98295E-03        -0.27553E-01         0.00000E+00
    0.92273E-03        -0.23721E-01         0.00000E+00
    0.85781E-03        -0.19868E-01         0.00000E+00
    0.78339E-03        -0.15989E-01         0.00000E+00
    0.69172E-03        -0.12077E-01         0.00000E+00
    0.56791E-03        -0.81191E-02         0.00000E+00
    0.37685E-03        -0.40991E-02         0.00000E+00
    0.00000E+00         0.00000E+00         0.00000E+00
    0.93089E-03        -0.57722E-01         0.00000E+00
    0.81973E-03        -0.54045E-01         0.00000E+00
    0.74838E-03        -0.50324E-01         0.00000E+00
    0.69476E-03        -0.46577E-01         0.00000E+00
    0.65163E-03        -0.42811E-01         0.00000E+00
    0.61520E-03        -0.39031E-01         0.00000E+00
    0.58308E-03        -0.35237E-01         0.00000E+00
    0.55344E-03        -0.31430E-01         0.00000E+00
    0.52474E-03        -0.27608E-01         0.00000E+00
    0.49548E-03        -0.23769E-01         0.00000E+00
    0.46396E-03        -0.19911E-01         0.00000E+00
    0.42788E-03        -0.16029E-01         0.00000E+00
    0.38339E-03        -0.12116E-01         0.00000E+00
    0.32268E-03        -0.81595E-02         0.00000E+00
    0.22534E-03        -0.41377E-02         0.00000E+00
    0.00000E+00         0.00000E+00         0.00000E+00
    0.00000E+00        -0.57808E-01         0.00000E+00
    0.00000E+00        -0.54106E-01         0.00000E+00
    0.00000E+00        -0.50371E-01         0.00000E+00
    0.00000E+00        -0.46615E-01         0.00000E+00
    0.00000E+00        -0.42844E-01         0.00000E+00
    0.00000E+00        -0.39059E-01         0.00000E+00
    0.00000E+00        -0.35261E-01         0.00000E+00
    0.00000E+00        -0.31450E-01         0.00000E+00
    0.00000E+00        -0.27625E-01         0.00000E+00
    0.00000E+00        -0.23785E-01         0.00000E+00
    0.00000E+00        -0.19925E-01         0.00000E+00
    0.00000E+00        -0.16042E-01         0.00000E+00
    0.00000E+00        -0.12129E-01         0.00000E+00
    0.00000E+00        -0.81749E-02         0.00000E+00
    0.00000E+00        -0.41573E-02         0.00000E+00
    0.00000E+00         0.00000E+00         0.00000E+00
CELL_DATA        450
VECTORS vDarcy double 
    0.13234E-09        -0.78563E-11         0.00000E+00
    0.13231E-09        -0.20430E-10         0.00000E+00
    0.13226E-09        -0.30007E-10         0.00000E+00
    0.13221E-09        -0.36841E-10         0.00000E+00
    0.13215E-09        -0.41197E-10         0.00000E+00
    0.13209E-09        -0.43340E-10         0.00000E+00
    0.13204E-09        -0.43522E-10         0.00000E+00
    0.13199E-09        -0.41983E-10         0.00000E+00
    0.13195E-09        -0.38955E-10         0.00000E+00
    0.13192E-09        -0.34665E-10         0.00000E+00
    0.13189E-09        -0.29351E-10         0.00000E+00
    0.13187E-09        -0.23271E-10         0.00000E+00
    0.13186E-09        -0.16702E-10         0.00000E+00
    0.13185E-09        -0.99489E-11         0.00000E+00
    0.13185E-09        -0.33383E-11         0.00000E+00
    0.39660E-09        -0.78262E-11         0.00000E+00
    0.39652E-09        -0.20356E-10         0.00000E+00
    0.39638E-09        -0.29905E-10         0.00000E+00
    0.39621E-09        -0.36725E-10         0.00000E+00
    0.39603E-09        -0.41080E-10         0.00000E+00
    0.39585E-09        -0.43229E-10         0.00000E+00
    0.39569E-09        -0.43423E-10         0.00000E+00
    0.39555E-09        -0.41897E-10         0.00000E+00
    0.39542E-09        -0.38881E-10         0.00000E+00
    0.39532E-09        -0.34604E-10         0.00000E+00
    0.39523E-09        -0.29304E-10         0.00000E+00
    0.39517E-09        -0.23237E-10         0.00000E+00
    0.39513E-09        -0.16681E-10         0.00000E+00
    0.39510E-09        -0.99392E-11         0.00000E+00
    0.39510E-09        -0.33358E-11         0.00000E+00
    0.65964E-09        -0.77654E-11         0.00000E+00
    0.65950E-09        -0.20207E-10         0.00000E+00
    0.65926E-09        -0.29698E-10         0.00000E+00
    0.65897E-09        -0.36490E-10         0.00000E+00
    0.65867E-09        -0.40840E-10         0.00000E+00
    0.65836E-09        -0.43002E-10         0.00000E+00
    0.65808E-09        -0.43216E-10         0.00000E+00
    0.65782E-09        -0.41715E-10         0.00000E+00
    0.65760E-09        -0.38725E-10         0.00000E+00
    0.65741E-09        -0.34474E-10         0.00000E+00
    0.65726E-09        -0.29202E-10         0.00000E+00
    0.65714E-09        -0.23163E-10         0.00000E+00
    0.65706E-09        -0.16635E-10         0.00000E+00
    0.65701E-09        -0.99171E-11         0.00000E+00
    0.65699E-09        -0.33301E-11         0.00000E+00
    0.92063E-09        -0.76724E-11         0.00000E+00
    0.92043E-09        -0.19977E-10         0.00000E+00
    0.92009E-09        -0.29380E-10         0.00000E+00
    0.91968E-09        -0.36126E-10         0.00000E+00
    0.91923E-09        -0.40467E-10         0.00000E+00
    0.91878E-09        -0.42643E-10         0.00000E+00
    0.91836E-09        -0.42885E-10         0.00000E+00
    0.91797E-09        -0.41418E-10         0.00000E+00
    0.91763E-09        -0.38467E-10         0.00000E+00
    0.91733E-09        -0.34258E-10         0.00000E+00
    0.91708E-09        -0.29029E-10         0.00000E+00
    0.91690E-09        -0.23036E-10         0.00000E+00
    0.91677E-09        -0.16554E-10         0.00000E+00
    0.91669E-09        -0.98771E-11         0.00000E+00
    0.91666E-09        -0.33194E-11         0.00000E+00
    0.11788E-08        -0.75455E-11         0.00000E+00
    0.11785E-08        -0.19663E-10         0.00000E+00
    0.11781E-08        -0.28941E-10         0.00000E+00
    0.11775E-08        -0.35622E-10         0.00000E+00
    0.11769E-08        -0.39943E-10         0.00000E+00
    0.11763E-08        -0.42130E-10         0.00000E+00
    0.11757E-08        -0.42403E-10         0.00000E+00
    0.11751E-08        -0.40980E-10         0.00000E+00
    0.11746E-08        -0.38080E-10         0.00000E+00
    0.11742E-08        -0.33929E-10         0.00000E+00
    0.11738E-08        -0.28764E-10         0.00000E+00
    0.11736E-08        -0.22840E-10         0.00000E+00
    0.11734E-08        -0.16426E-10         0.00000E+00
    0.11732E-08        -0.98115E-11         0.00000E+00
    0.11732E-08        -0.33010E-11         0.00000E+00
    0.14333E-08        -0.73819E-11         0.00000E+00
    0.14329E-08        -0.19255E-10         0.00000E+00
    0.14324E-08        -0.28370E-10         0.00000E+00
    0.14316E-08        -0.34960E-10         0.00000E+00
    0.14309E-08        -0.39244E-10         0.00000E+00
    0.14300E-08        -0.41435E-10         0.00000E+00
    0.14292E-08        -0.41739E-10         0.00000E+00
    0.14285E-08        -0.40365E-10         0.00000E+00
    0.14278E-08        -0.37530E-10         0.00000E+00
    0.14272E-08        -0.33456E-10         0.00000E+00
    0.14267E-08        -0.28380E-10         0.00000E+00
    0.14263E-08        -0.22551E-10         0.00000E+00
    0.14260E-08        -0.16235E-10         0.00000E+00
    0.14258E-08        -0.97100E-11         0.00000E+00
    0.14257E-08        -0.32719E-11         0.00000E+00
    0.16833E-08        -0.71783E-11         0.00000E+00
    0.16829E-08        -0.18746E-10         0.00000E+00
    0.16822E-08        -0.27652E-10         0.00000E+00
    0.16813E-08        -0.34116E-10         0.00000E+00
    0.16803E-08        -0.38341E-10         0.00000E+00
    0.16792E-08        -0.40522E-10         0.00000E+00
    0.16782E-08        -0.40852E-10         0.00000E+00
    0.16772E-08        -0.39534E-10         0.00000E+00
    0.16763E-08        -0.36778E-10         0.00000E+00
    0.16755E-08        -0.32804E-10         0.00000E+00
    0.16748E-08        -0.27845E-10         0.00000E+00
    0.16742E-08        -0.22145E-10         0.00000E+00
    0.16738E-08        -0.15960E-10         0.00000E+00
    0.16736E-08        -0.95611E-11         0.00000E+00
    0.16735E-08        -0.32281E-11         0.00000E+00
    0.19281E-08        -0.69309E-11         0.00000E+00
    0.19276E-08        -0.18122E-10         0.00000E+00
    0.19267E-08        -0.26765E-10         0.00000E+00
    0.19256E-08        -0.33062E-10         0.00000E+00
    0.19244E-08        -0.37197E-10         0.00000E+00
    0.19231E-08        -0.39348E-10         0.00000E+00
    0.19218E-08        -0.39697E-10         0.00000E+00
    0.19205E-08        -0.38439E-10         0.00000E+00
    0.19193E-08        -0.35779E-10         0.00000E+00
    0.19182E-08        -0.31933E-10         0.00000E+00
    0.19173E-08        -0.27125E-10         0.00000E+00
    0.19166E-08        -0.21592E-10         0.00000E+00
    0.19160E-08        -0.15583E-10         0.00000E+00
    0.19157E-08        -0.93520E-11         0.00000E+00
    0.19155E-08        -0.31655E-11         0.00000E+00
    0.21669E-08        -0.66350E-11         0.00000E+00
    0.21663E-08        -0.17370E-10         0.00000E+00
    0.21653E-08        -0.25687E-10         0.00000E+00
    0.21639E-08        -0.31766E-10         0.00000E+00
    0.21624E-08        -0.35772E-10         0.00000E+00
    0.21608E-08        -0.37867E-10         0.00000E+00
    0.21591E-08        -0.38225E-10         0.00000E+00
    0.21575E-08        -0.37033E-10         0.00000E+00
    0.21560E-08        -0.34489E-10         0.00000E+00
    0.21546E-08        -0.30799E-10         0.00000E+00
    0.21534E-08        -0.26183E-10         0.00000E+00
    0.21525E-08        -0.20865E-10         0.00000E+00
    0.21518E-08        -0.15080E-10         0.00000E+00
    0.21513E-08        -0.90696E-11         0.00000E+00
    0.21511E-08        -0.30797E-11         0.00000E+00
    0.23989E-08        -0.62854E-11         0.00000E+00
    0.23982E-08        -0.16474E-10         0.00000E+00
    0.23970E-08        -0.24390E-10         0.00000E+00
    0.23954E-08        -0.30190E-10         0.00000E+00
    0.23936E-08        -0.34019E-10         0.00000E+00
    0.23916E-08        -0.36031E-10         0.00000E+00
    0.23895E-08        -0.36387E-10         0.00000E+00
    0.23875E-08        -0.35267E-10         0.00000E+00
    0.23856E-08        -0.32860E-10         0.00000E+00
    0.23839E-08        -0.29364E-10         0.00000E+00
    0.23824E-08        -0.24984E-10         0.00000E+00
    0.23812E-08        -0.19934E-10         0.00000E+00
    0.23803E-08        -0.14432E-10         0.00000E+00
    0.23798E-08        -0.87008E-11         0.00000E+00
    0.23795E-08        -0.29664E-11         0.00000E+00
    0.26235E-08        -0.58766E-11         0.00000E+00
    0.26226E-08        -0.15417E-10         0.00000E+00
    0.26212E-08        -0.22845E-10         0.00000E+00
    0.26193E-08        -0.28294E-10         0.00000E+00
    0.26171E-08        -0.31895E-10         0.00000E+00
    0.26147E-08        -0.33789E-10         0.00000E+00
    0.26122E-08        -0.34133E-10         0.00000E+00
    0.26098E-08        -0.33093E-10         0.00000E+00
    0.26075E-08        -0.30848E-10         0.00000E+00
    0.26054E-08        -0.27585E-10         0.00000E+00
    0.26036E-08        -0.23495E-10         0.00000E+00
    0.26021E-08        -0.18773E-10         0.00000E+00
    0.26010E-08        -0.13619E-10         0.00000E+00
    0.26003E-08        -0.82337E-11         0.00000E+00
    0.25999E-08        -0.28216E-11         0.00000E+00
    0.28398E-08        -0.54025E-11         0.00000E+00
    0.28389E-08        -0.14180E-10         0.00000E+00
    0.28372E-08        -0.21021E-10         0.00000E+00
    0.28350E-08        -0.26039E-10         0.00000E+00
    0.28323E-08        -0.29353E-10         0.00000E+00
    0.28295E-08        -0.31096E-10         0.00000E+00
    0.28265E-08        -0.31414E-10         0.00000E+00
    0.28236E-08        -0.30465E-10         0.00000E+00
    0.28208E-08        -0.28414E-10         0.00000E+00
    0.28183E-08        -0.25430E-10         0.00000E+00
    0.28161E-08        -0.21686E-10         0.00000E+00
    0.28144E-08        -0.17359E-10         0.00000E+00
    0.28130E-08        -0.12624E-10         0.00000E+00
    0.28122E-08        -0.76581E-11         0.00000E+00
    0.28117E-08        -0.26419E-11         0.00000E+00
    0.30473E-08        -0.48562E-11         0.00000E+00
    0.30462E-08        -0.12744E-10         0.00000E+00
    0.30442E-08        -0.18887E-10         0.00000E+00
    0.30416E-08        -0.23386E-10         0.00000E+00
    0.30386E-08        -0.26352E-10         0.00000E+00
    0.30352E-08        -0.27908E-10         0.00000E+00
    0.30317E-08        -0.28192E-10         0.00000E+00
    0.30283E-08        -0.27347E-10         0.00000E+00
    0.30250E-08        -0.25522E-10         0.00000E+00
    0.30221E-08        -0.22868E-10         0.00000E+00
    0.30195E-08        -0.19535E-10         0.00000E+00
    0.30174E-08        -0.15674E-10         0.00000E+00
    0.30159E-08        -0.11434E-10         0.00000E+00
    0.30148E-08        -0.69668E-11         0.00000E+00
    0.30143E-08        -0.24249E-11         0.00000E+00
    0.32452E-08        -0.42307E-11         0.00000E+00
    0.32439E-08        -0.11089E-10         0.00000E+00
    0.32417E-08        -0.16416E-10         0.00000E+00
    0.32387E-08        -0.20303E-10         0.00000E+00
    0.32352E-08        -0.22856E-10         0.00000E+00
    0.32313E-08        -0.24190E-10         0.00000E+00
    0.32273E-08        -0.24432E-10         0.00000E+00
    0.32233E-08        -0.23709E-10         0.00000E+00
    0.32195E-08        -0.22150E-10         0.00000E+00
    0.32161E-08        -0.19881E-10         0.00000E+00
    0.32131E-08        -0.17027E-10         0.00000E+00
    0.32107E-08        -0.13707E-10         0.00000E+00
    0.32089E-08        -0.10043E-10         0.00000E+00
    0.32077E-08        -0.61558E-11         0.00000E+00
    0.32071E-08        -0.21691E-11         0.00000E+00
    0.34329E-08        -0.35192E-11         0.00000E+00
    0.34315E-08        -0.91983E-11         0.00000E+00
    0.34289E-08        -0.13584E-10         0.00000E+00
    0.34255E-08        -0.16764E-10         0.00000E+00
    0.34215E-08        -0.18840E-10         0.00000E+00
    0.34171E-08        -0.19920E-10         0.00000E+00
    0.34125E-08        -0.20117E-10         0.00000E+00
    0.34080E-08        -0.19538E-10         0.00000E+00
    0.34037E-08        -0.18288E-10         0.00000E+00
    0.33998E-08        -0.16464E-10         0.00000E+00
    0.33965E-08        -0.14158E-10         0.00000E+00
    0.33937E-08        -0.11459E-10         0.00000E+00
    0.33917E-08        -0.84520E-11         0.00000E+00
    0.33903E-08        -0.52259E-11         0.00000E+00
    0.33897E-08        -0.18745E-11         0.00000E+00
    0.36098E-08        -0.27158E-11         0.00000E+00
    0.36082E-08        -0.70583E-11         0.00000E+00
    0.36054E-08        -0.10375E-10         0.00000E+00
    0.36016E-08        -0.12753E-10         0.00000E+00
    0.35970E-08        -0.14293E-10         0.00000E+00
    0.35921E-08        -0.15092E-10         0.00000E+00
    0.35869E-08        -0.15244E-10         0.00000E+00
    0.35819E-08        -0.14836E-10         0.00000E+00
    0.35771E-08        -0.13943E-10         0.00000E+00
    0.35728E-08        -0.12626E-10         0.00000E+00
    0.35691E-08        -0.10942E-10         0.00000E+00
    0.35660E-08        -0.89409E-11         0.00000E+00
    0.35638E-08        -0.66701E-11         0.00000E+00
    0.35623E-08        -0.41831E-11         0.00000E+00
    0.35615E-08        -0.15429E-11         0.00000E+00
    0.37754E-08        -0.18167E-11         0.00000E+00
    0.37736E-08        -0.46620E-11         0.00000E+00
    0.37705E-08        -0.67841E-11         0.00000E+00
    0.37662E-08        -0.82732E-11         0.00000E+00
    0.37612E-08        -0.92225E-11         0.00000E+00
    0.37557E-08        -0.97187E-11         0.00000E+00
    0.37501E-08        -0.98357E-11         0.00000E+00
    0.37445E-08        -0.96307E-11         0.00000E+00
    0.37393E-08        -0.91438E-11         0.00000E+00
    0.37346E-08        -0.83991E-11         0.00000E+00
    0.37305E-08        -0.74089E-11         0.00000E+00
    0.37272E-08        -0.61795E-11         0.00000E+00
    0.37248E-08        -0.47183E-11         0.00000E+00
    0.37232E-08        -0.30408E-11         0.00000E+00
    0.37224E-08        -0.11782E-11         0.00000E+00
    0.39291E-08        -0.82131E-12         0.00000E+00
    0.39272E-08        -0.20124E-11         0.00000E+00
    0.39237E-08        -0.28242E-11         0.00000E+00
    0.39191E-08        -0.33461E-11         0.00000E+00
    0.39136E-08        -0.36628E-11         0.00000E+00
    0.39076E-08        -0.38446E-11         0.00000E+00
    0.39015E-08        -0.39408E-11         0.00000E+00
    0.38955E-08        -0.39755E-11         0.00000E+00
    0.38899E-08        -0.39485E-11         0.00000E+00
    0.38849E-08        -0.38383E-11         0.00000E+00
    0.38806E-08        -0.36089E-11         0.00000E+00
    0.38771E-08        -0.32188E-11         0.00000E+00
    0.38745E-08        -0.26303E-11         0.00000E+00
    0.38728E-08        -0.18198E-11         0.00000E+00
    0.38719E-08        -0.78655E-12         0.00000E+00
    0.40703E-08         0.26631E-12         0.00000E+00
    0.40682E-08         0.87460E-12         0.00000E+00
    0.40645E-08         0.14724E-11         0.00000E+00
    0.40595E-08         0.19778E-11         0.00000E+00
    0.40537E-08         0.23205E-11         0.00000E+00
    0.40474E-08         0.24521E-11         0.00000E+00
    0.40409E-08         0.23534E-11         0.00000E+00
    0.40346E-08         0.20383E-11         0.00000E+00
    0.40287E-08         0.15532E-11         0.00000E+00
    0.40235E-08         0.97111E-12         0.00000E+00
    0.40190E-08         0.38136E-12         0.00000E+00
    0.40154E-08        -0.12203E-12         0.00000E+00
    0.40127E-08        -0.45368E-12         0.00000E+00
    0.40109E-08        -0.54923E-12         0.00000E+00
    0.40101E-08        -0.37664E-12         0.00000E+00
    0.41986E-08         0.14368E-11         0.00000E+00
    0.41964E-08         0.39672E-11         0.00000E+00
    0.41925E-08         0.60473E-11         0.00000E+00
    0.41872E-08         0.76137E-11         0.00000E+00
    0.41812E-08         0.86199E-11         0.00000E+00
    0.41746E-08         0.90473E-11         0.00000E+00
    0.41680E-08         0.89130E-11         0.00000E+00
    0.41615E-08         0.82750E-11         0.00000E+00
    0.41555E-08         0.72309E-11         0.00000E+00
    0.41502E-08         0.59096E-11         0.00000E+00
    0.41456E-08         0.44584E-11         0.00000E+00
    0.41420E-08         0.30267E-11         0.00000E+00
    0.41393E-08         0.17498E-11         0.00000E+00
    0.41376E-08         0.73337E-12         0.00000E+00
    0.41367E-08         0.40086E-13         0.00000E+00
    0.43134E-08         0.26745E-11         0.00000E+00
    0.43111E-08         0.72142E-11         0.00000E+00
    0.43071E-08         0.10810E-10         0.00000E+00
    0.43017E-08         0.13434E-10         0.00000E+00
    0.42956E-08         0.15076E-10         0.00000E+00
    0.42890E-08         0.15759E-10         0.00000E+00
    0.42824E-08         0.15546E-10         0.00000E+00
    0.42760E-08         0.14544E-10         0.00000E+00
    0.42701E-08         0.12906E-10         0.00000E+00
    0.42648E-08         0.10819E-10         0.00000E+00
    0.42605E-08         0.84890E-11         0.00000E+00
    0.42570E-08         0.61223E-11         0.00000E+00
    0.42544E-08         0.39044E-11         0.00000E+00
    0.42527E-08         0.19826E-11         0.00000E+00
    0.42519E-08         0.44998E-12         0.00000E+00
    0.44142E-08         0.39560E-11         0.00000E+00
    0.44120E-08         0.10541E-10         0.00000E+00
    0.44079E-08         0.15631E-10         0.00000E+00
    0.44026E-08         0.19257E-10         0.00000E+00
    0.43966E-08         0.21465E-10         0.00000E+00
    0.43903E-08         0.22336E-10         0.00000E+00
    0.43840E-08         0.21989E-10         0.00000E+00
    0.43779E-08         0.20589E-10         0.00000E+00
    0.43724E-08         0.18344E-10         0.00000E+00
    0.43676E-08         0.15497E-10         0.00000E+00
    0.43635E-08         0.12309E-10         0.00000E+00
    0.43603E-08         0.90389E-11         0.00000E+00
    0.43579E-08         0.59216E-11         0.00000E+00
    0.43564E-08         0.31465E-11         0.00000E+00
    0.43556E-08         0.83757E-12         0.00000E+00
    0.45006E-08         0.52492E-11         0.00000E+00
    0.44984E-08         0.13844E-10         0.00000E+00
    0.44945E-08         0.20334E-10         0.00000E+00
    0.44895E-08         0.24837E-10         0.00000E+00
    0.44840E-08         0.27485E-10         0.00000E+00
    0.44783E-08         0.28440E-10         0.00000E+00
    0.44727E-08         0.27895E-10         0.00000E+00
    0.44674E-08         0.26078E-10         0.00000E+00
    0.44626E-08         0.23250E-10         0.00000E+00
    0.44584E-08         0.19698E-10         0.00000E+00
    0.44549E-08         0.15724E-10         0.00000E+00
    0.44521E-08         0.11631E-10         0.00000E+00
    0.44501E-08         0.77020E-11         0.00000E+00
    0.44488E-08         0.41676E-11         0.00000E+00
    0.44482E-08         0.11861E-11         0.00000E+00
    0.45719E-08         0.65106E-11         0.00000E+00
    0.45698E-08         0.16983E-10         0.00000E+00
    0.45663E-08         0.24678E-10         0.00000E+00
    0.45620E-08         0.29843E-10         0.00000E+00
    0.45574E-08         0.32738E-10         0.00000E+00
    0.45528E-08         0.33636E-10         0.00000E+00
    0.45483E-08         0.32823E-10         0.00000E+00
    0.45443E-08         0.30597E-10         0.00000E+00
    0.45406E-08         0.27260E-10         0.00000E+00
    0.45374E-08         0.23122E-10         0.00000E+00
    0.45348E-08         0.18504E-10         0.00000E+00
    0.45327E-08         0.13736E-10         0.00000E+00
    0.45312E-08         0.91372E-11         0.00000E+00
    0.45303E-08         0.49847E-11         0.00000E+00
    0.45298E-08         0.14783E-11         0.00000E+00
    0.46276E-08         0.76806E-11         0.00000E+00
    0.46259E-08         0.19765E-10         0.00000E+00
    0.46230E-08         0.28334E-10         0.00000E+00
    0.46198E-08         0.33834E-10         0.00000E+00
    0.46166E-08         0.36707E-10         0.00000E+00
    0.46136E-08         0.37374E-10         0.00000E+00
    0.46110E-08         0.36235E-10         0.00000E+00
    0.46087E-08         0.33650E-10         0.00000E+00
    0.46067E-08         0.29944E-10         0.00000E+00
    0.46050E-08         0.25421E-10         0.00000E+00
    0.46035E-08         0.20389E-10         0.00000E+00
    0.46023E-08         0.15171E-10         0.00000E+00
    0.46015E-08         0.10111E-10         0.00000E+00
    0.46010E-08         0.55350E-11         0.00000E+00
    0.46007E-08         0.16980E-11         0.00000E+00
    0.46670E-08         0.86737E-11         0.00000E+00
    0.46658E-08         0.21908E-10         0.00000E+00
    0.46641E-08         0.30837E-10         0.00000E+00
    0.46626E-08         0.36213E-10         0.00000E+00
    0.46615E-08         0.38730E-10         0.00000E+00
    0.46610E-08         0.38996E-10         0.00000E+00
    0.46608E-08         0.37512E-10         0.00000E+00
    0.46609E-08         0.34679E-10         0.00000E+00
    0.46611E-08         0.30817E-10         0.00000E+00
    0.46613E-08         0.26197E-10         0.00000E+00
    0.46614E-08         0.21073E-10         0.00000E+00
    0.46614E-08         0.15729E-10         0.00000E+00
    0.46613E-08         0.10499E-10         0.00000E+00
    0.46613E-08         0.57549E-11         0.00000E+00
    0.46613E-08         0.18299E-11         0.00000E+00
    0.46893E-08         0.93569E-11         0.00000E+00
    0.46890E-08         0.22976E-10         0.00000E+00
    0.46891E-08         0.31498E-10         0.00000E+00
    0.46902E-08         0.36161E-10         0.00000E+00
    0.46922E-08         0.37986E-10         0.00000E+00
    0.46949E-08         0.37739E-10         0.00000E+00
    0.46980E-08         0.35977E-10         0.00000E+00
    0.47011E-08         0.33091E-10         0.00000E+00
    0.47041E-08         0.29365E-10         0.00000E+00
    0.47066E-08         0.25009E-10         0.00000E+00
    0.47087E-08         0.20207E-10         0.00000E+00
    0.47102E-08         0.15163E-10         0.00000E+00
    0.47112E-08         0.10159E-10         0.00000E+00
    0.47118E-08         0.55794E-11         0.00000E+00
    0.47121E-08         0.18635E-11         0.00000E+00
    0.46935E-08         0.94870E-11         0.00000E+00
    0.46947E-08         0.22203E-10         0.00000E+00
    0.46978E-08         0.29241E-10         0.00000E+00
    0.47027E-08         0.32580E-10         0.00000E+00
    0.47090E-08         0.33494E-10         0.00000E+00
    0.47159E-08         0.32783E-10         0.00000E+00
    0.47229E-08         0.30949E-10         0.00000E+00
    0.47297E-08         0.28313E-10         0.00000E+00
    0.47359E-08         0.25087E-10         0.00000E+00
    0.47413E-08         0.21413E-10         0.00000E+00
    0.47458E-08         0.17402E-10         0.00000E+00
    0.47491E-08         0.13168E-10         0.00000E+00
    0.47515E-08         0.88929E-11         0.00000E+00
    0.47529E-08         0.49380E-11         0.00000E+00
    0.47534E-08         0.17945E-11         0.00000E+00
    0.46779E-08         0.85362E-11         0.00000E+00
    0.46821E-08         0.18032E-10         0.00000E+00
    0.46902E-08         0.22412E-10         0.00000E+00
    0.47008E-08         0.24089E-10         0.00000E+00
    0.47125E-08         0.24196E-10         0.00000E+00
    0.47246E-08         0.23324E-10         0.00000E+00
    0.47362E-08         0.21808E-10         0.00000E+00
    0.47472E-08         0.19843E-10         0.00000E+00
    0.47571E-08         0.17553E-10         0.00000E+00
    0.47657E-08         0.15014E-10         0.00000E+00
    0.47729E-08         0.12277E-10         0.00000E+00
    0.47785E-08         0.93874E-11         0.00000E+00
    0.47825E-08         0.64229E-11         0.00000E+00
    0.47850E-08         0.36208E-11         0.00000E+00
    0.47860E-08         0.17076E-11         0.00000E+00
    0.46397E-08         0.38493E-11         0.00000E+00
    0.46512E-08         0.74152E-11         0.00000E+00
    0.46676E-08         0.88023E-11         0.00000E+00
    0.46857E-08         0.92137E-11         0.00000E+00
    0.47041E-08         0.91051E-11         0.00000E+00
    0.47220E-08         0.86864E-11         0.00000E+00
    0.47388E-08         0.80684E-11         0.00000E+00
    0.47543E-08         0.73144E-11         0.00000E+00
    0.47681E-08         0.64621E-11         0.00000E+00
    0.47801E-08         0.55342E-11         0.00000E+00
    0.47903E-08         0.45443E-11         0.00000E+00
    0.47983E-08         0.35021E-11         0.00000E+00
    0.48043E-08         0.24237E-11         0.00000E+00
    0.48082E-08         0.13751E-11         0.00000E+00
    0.48105E-08         0.84048E-12         0.00000E+00
POINT_DATA        496
VECTORS vDarcyNodal double 
    0.13234E-09        -0.78638E-11         0.00000E+00
    0.13233E-09        -0.14156E-10         0.00000E+00
    0.13229E-09        -0.25241E-10         0.00000E+00
    0.13224E-09        -0.33451E-10         0.00000E+00
    0.13218E-09        -0.39048E-10         0.00000E+00
    0.13212E-09        -0.42296E-10         0.00000E+00
    0.13206E-09        -0.43456E-10         0.00000E+00
    0.13201E-09        -0.42775E-10         0.00000E+00
    0.13197E-09        -0.40488E-10         0.00000E+00
    0.13193E-09        -0.36826E-10         0.00000E+00
    0.13190E-09        -0.32021E-10         0.00000E+00
    0.13188E-09        -0.26321E-10         0.00000E+00
    0.13186E-09        -0.19993E-10         0.00000E+00
    0.13185E-09        -0.13329E-10         0.00000E+00
    0.13185E-09        -0.66450E-11         0.00000E+00
    0.13185E-09        -0.33388E-11         0.00000E+00
    0.26449E-09        -0.78488E-11         0.00000E+00
    0.26445E-09        -0.14130E-10         0.00000E+00
    0.26437E-09        -0.25197E-10         0.00000E+00
    0.26427E-09        -0.33397E-10         0.00000E+00
    0.26415E-09        -0.38990E-10         0.00000E+00
    0.26403E-09        -0.42240E-10         0.00000E+00
    0.26392E-09        -0.43405E-10         0.00000E+00
    0.26381E-09        -0.42730E-10         0.00000E+00
    0.26373E-09        -0.40450E-10         0.00000E+00
    0.26365E-09        -0.36794E-10         0.00000E+00
    0.26359E-09        -0.31995E-10         0.00000E+00
    0.26354E-09        -0.26301E-10         0.00000E+00
    0.26350E-09        -0.19980E-10         0.00000E+00
    0.26348E-09        -0.13322E-10         0.00000E+00
    0.26347E-09        -0.66422E-11         0.00000E+00
    0.26347E-09        -0.33377E-11         0.00000E+00
    0.52815E-09        -0.78036E-11         0.00000E+00
    0.52809E-09        -0.14052E-10         0.00000E+00
    0.52793E-09        -0.25065E-10         0.00000E+00
    0.52771E-09        -0.33233E-10         0.00000E+00
    0.52747E-09        -0.38815E-10         0.00000E+00
    0.52722E-09        -0.42069E-10         0.00000E+00
    0.52699E-09        -0.43247E-10         0.00000E+00
    0.52678E-09        -0.42590E-10         0.00000E+00
    0.52659E-09        -0.40329E-10         0.00000E+00
    0.52643E-09        -0.36692E-10         0.00000E+00
    0.52630E-09        -0.31913E-10         0.00000E+00
    0.52619E-09        -0.26239E-10         0.00000E+00
    0.52612E-09        -0.19938E-10         0.00000E+00
    0.52607E-09        -0.13298E-10         0.00000E+00
    0.52605E-09        -0.66329E-11         0.00000E+00
    0.52604E-09        -0.33339E-11         0.00000E+00
    0.79018E-09        -0.77271E-11         0.00000E+00
    0.79008E-09        -0.13920E-10         0.00000E+00
    0.78984E-09        -0.24840E-10         0.00000E+00
    0.78951E-09        -0.32954E-10         0.00000E+00
    0.78914E-09        -0.38515E-10         0.00000E+00
    0.78876E-09        -0.41773E-10         0.00000E+00
    0.78839E-09        -0.42971E-10         0.00000E+00
    0.78805E-09        -0.42341E-10         0.00000E+00
    0.78775E-09        -0.40111E-10         0.00000E+00
    0.78748E-09        -0.36507E-10         0.00000E+00
    0.78726E-09        -0.31763E-10         0.00000E+00
    0.78708E-09        -0.26125E-10         0.00000E+00
    0.78695E-09        -0.19860E-10         0.00000E+00
    0.78687E-09        -0.13253E-10         0.00000E+00
    0.78683E-09        -0.66143E-11         0.00000E+00
    0.78682E-09        -0.33263E-11         0.00000E+00
    0.10498E-08        -0.76177E-11         0.00000E+00
    0.10496E-08        -0.13730E-10         0.00000E+00
    0.10493E-08        -0.24517E-10         0.00000E+00
    0.10488E-08        -0.32551E-10         0.00000E+00
    0.10483E-08        -0.38078E-10         0.00000E+00
    0.10478E-08        -0.41337E-10         0.00000E+00
    0.10473E-08        -0.42557E-10         0.00000E+00
    0.10468E-08        -0.41962E-10         0.00000E+00
    0.10463E-08        -0.39774E-10         0.00000E+00
    0.10459E-08        -0.36217E-10         0.00000E+00
    0.10456E-08        -0.31524E-10         0.00000E+00
    0.10453E-08        -0.25941E-10         0.00000E+00
    0.10451E-08        -0.19731E-10         0.00000E+00
    0.10450E-08        -0.13178E-10         0.00000E+00
    0.10449E-08        -0.65822E-11         0.00000E+00
    0.10449E-08        -0.33125E-11         0.00000E+00
    0.13061E-08        -0.74732E-11         0.00000E+00
    0.13059E-08        -0.13478E-10         0.00000E+00
    0.13055E-08        -0.24087E-10         0.00000E+00
    0.13049E-08        -0.32012E-10         0.00000E+00
    0.13042E-08        -0.37487E-10         0.00000E+00
    0.13035E-08        -0.40736E-10         0.00000E+00
    0.13028E-08        -0.41977E-10         0.00000E+00
    0.13021E-08        -0.41422E-10         0.00000E+00
    0.13015E-08        -0.39286E-10         0.00000E+00
    0.13009E-08        -0.35791E-10         0.00000E+00
    0.13005E-08        -0.31169E-10         0.00000E+00
    0.13001E-08        -0.25664E-10         0.00000E+00
    0.12998E-08        -0.19535E-10         0.00000E+00
    0.12996E-08        -0.13060E-10         0.00000E+00
    0.12995E-08        -0.65303E-11         0.00000E+00
    0.12995E-08        -0.32896E-11         0.00000E+00
    0.15584E-08        -0.72905E-11         0.00000E+00
    0.15582E-08        -0.13159E-10         0.00000E+00
    0.15576E-08        -0.23539E-10         0.00000E+00
    0.15569E-08        -0.31318E-10         0.00000E+00
    0.15560E-08        -0.36717E-10         0.00000E+00
    0.15551E-08        -0.39943E-10         0.00000E+00
    0.15542E-08        -0.41197E-10         0.00000E+00
    0.15533E-08        -0.40683E-10         0.00000E+00
    0.15524E-08        -0.38609E-10         0.00000E+00
    0.15517E-08        -0.35195E-10         0.00000E+00
    0.15510E-08        -0.30667E-10         0.00000E+00
    0.15505E-08        -0.25268E-10         0.00000E+00
    0.15501E-08        -0.19251E-10         0.00000E+00
    0.15498E-08        -0.12885E-10         0.00000E+00
    0.15496E-08        -0.64515E-11         0.00000E+00
    0.15496E-08        -0.32542E-11         0.00000E+00
    0.18058E-08        -0.70661E-11         0.00000E+00
    0.18056E-08        -0.12765E-10         0.00000E+00
    0.18049E-08        -0.22858E-10         0.00000E+00
    0.18040E-08        -0.30449E-10         0.00000E+00
    0.18029E-08        -0.35740E-10         0.00000E+00
    0.18018E-08        -0.38920E-10         0.00000E+00
    0.18006E-08        -0.40176E-10         0.00000E+00
    0.17994E-08        -0.39703E-10         0.00000E+00
    0.17983E-08        -0.37702E-10         0.00000E+00
    0.17973E-08        -0.34387E-10         0.00000E+00
    0.17964E-08        -0.29982E-10         0.00000E+00
    0.17957E-08        -0.24722E-10         0.00000E+00
    0.17951E-08        -0.18854E-10         0.00000E+00
    0.17947E-08        -0.12637E-10         0.00000E+00
    0.17945E-08        -0.63376E-11         0.00000E+00
    0.17945E-08        -0.32021E-11         0.00000E+00
    0.20476E-08        -0.67956E-11         0.00000E+00
    0.20473E-08        -0.12288E-10         0.00000E+00
    0.20466E-08        -0.22028E-10         0.00000E+00
    0.20454E-08        -0.29378E-10         0.00000E+00
    0.20441E-08        -0.34520E-10         0.00000E+00
    0.20427E-08        -0.37625E-10         0.00000E+00
    0.20412E-08        -0.38868E-10         0.00000E+00
    0.20397E-08        -0.38433E-10         0.00000E+00
    0.20383E-08        -0.36517E-10         0.00000E+00
    0.20370E-08        -0.33325E-10         0.00000E+00
    0.20358E-08        -0.29075E-10         0.00000E+00
    0.20349E-08        -0.23995E-10         0.00000E+00
    0.20341E-08        -0.18321E-10         0.00000E+00
    0.20336E-08        -0.12298E-10         0.00000E+00
    0.20334E-08        -0.61799E-11         0.00000E+00
    0.20333E-08        -0.31290E-11         0.00000E+00
    0.22831E-08        -0.64743E-11         0.00000E+00
    0.22827E-08        -0.11717E-10         0.00000E+00
    0.22818E-08        -0.21028E-10         0.00000E+00
    0.22805E-08        -0.28075E-10         0.00000E+00
    0.22789E-08        -0.33018E-10         0.00000E+00
    0.22771E-08        -0.36013E-10         0.00000E+00
    0.22753E-08        -0.37224E-10         0.00000E+00
    0.22734E-08        -0.36826E-10         0.00000E+00
    0.22716E-08        -0.35006E-10         0.00000E+00
    0.22700E-08        -0.31964E-10         0.00000E+00
    0.22685E-08        -0.27907E-10         0.00000E+00
    0.22673E-08        -0.23053E-10         0.00000E+00
    0.22664E-08        -0.17625E-10         0.00000E+00
    0.22657E-08        -0.11852E-10         0.00000E+00
    0.22654E-08        -0.59694E-11         0.00000E+00
    0.22652E-08        -0.30305E-11         0.00000E+00
    0.25114E-08        -0.60965E-11         0.00000E+00
    0.25110E-08        -0.11043E-10         0.00000E+00
    0.25099E-08        -0.19836E-10         0.00000E+00
    0.25083E-08        -0.26505E-10         0.00000E+00
    0.25064E-08        -0.31191E-10         0.00000E+00
    0.25043E-08        -0.34037E-10         0.00000E+00
    0.25020E-08        -0.35194E-10         0.00000E+00
    0.24997E-08        -0.34829E-10         0.00000E+00
    0.24976E-08        -0.33122E-10         0.00000E+00
    0.24955E-08        -0.30260E-10         0.00000E+00
    0.24937E-08        -0.26441E-10         0.00000E+00
    0.24922E-08        -0.21865E-10         0.00000E+00
    0.24911E-08        -0.16742E-10         0.00000E+00
    0.24902E-08        -0.11281E-10         0.00000E+00
    0.24898E-08        -0.56978E-11         0.00000E+00
    0.24896E-08        -0.29023E-11         0.00000E+00
    0.27319E-08        -0.56567E-11         0.00000E+00
    0.27314E-08        -0.10252E-10         0.00000E+00
    0.27301E-08        -0.18426E-10         0.00000E+00
    0.27283E-08        -0.24634E-10         0.00000E+00
    0.27260E-08        -0.28997E-10         0.00000E+00
    0.27234E-08        -0.31648E-10         0.00000E+00
    0.27207E-08        -0.32728E-10         0.00000E+00
    0.27180E-08        -0.32396E-10         0.00000E+00
    0.27154E-08        -0.30820E-10         0.00000E+00
    0.27129E-08        -0.28174E-10         0.00000E+00
    0.27107E-08        -0.24640E-10         0.00000E+00
    0.27089E-08        -0.20403E-10         0.00000E+00
    0.27075E-08        -0.15650E-10         0.00000E+00
    0.27065E-08        -0.10571E-10         0.00000E+00
    0.27059E-08        -0.53575E-11         0.00000E+00
    0.27057E-08        -0.27409E-11         0.00000E+00
    0.29438E-08        -0.51483E-11         0.00000E+00
    0.29432E-08        -0.93314E-11         0.00000E+00
    0.29418E-08        -0.16775E-10         0.00000E+00
    0.29396E-08        -0.22426E-10         0.00000E+00
    0.29370E-08        -0.26394E-10         0.00000E+00
    0.29340E-08        -0.28801E-10         0.00000E+00
    0.29307E-08        -0.29782E-10         0.00000E+00
    0.29275E-08        -0.29483E-10         0.00000E+00
    0.29244E-08        -0.28059E-10         0.00000E+00
    0.29215E-08        -0.25669E-10         0.00000E+00
    0.29189E-08        -0.22476E-10         0.00000E+00
    0.29167E-08        -0.18642E-10         0.00000E+00
    0.29150E-08        -0.14332E-10         0.00000E+00
    0.29138E-08        -0.97104E-11         0.00000E+00
    0.29132E-08        -0.49426E-11         0.00000E+00
    0.29129E-08        -0.25430E-11         0.00000E+00
    0.31465E-08        -0.45641E-11         0.00000E+00
    0.31459E-08        -0.82687E-11         0.00000E+00
    0.31442E-08        -0.14857E-10         0.00000E+00
    0.31417E-08        -0.19848E-10         0.00000E+00
    0.31386E-08        -0.23344E-10         0.00000E+00
    0.31351E-08        -0.25458E-10         0.00000E+00
    0.31314E-08        -0.26317E-10         0.00000E+00
    0.31276E-08        -0.26055E-10         0.00000E+00
    0.31240E-08        -0.24809E-10         0.00000E+00
    0.31206E-08        -0.22720E-10         0.00000E+00
    0.31176E-08        -0.19927E-10         0.00000E+00
    0.31151E-08        -0.16566E-10         0.00000E+00
    0.31131E-08        -0.12775E-10         0.00000E+00
    0.31117E-08        -0.86904E-11         0.00000E+00
    0.31109E-08        -0.44491E-11         0.00000E+00
    0.31106E-08        -0.23068E-11         0.00000E+00
    0.33394E-08        -0.38973E-11         0.00000E+00
    0.33387E-08        -0.70510E-11         0.00000E+00
    0.33367E-08        -0.12649E-10         0.00000E+00
    0.33339E-08        -0.16872E-10         0.00000E+00
    0.33303E-08        -0.19815E-10         0.00000E+00
    0.33263E-08        -0.21588E-10         0.00000E+00
    0.33220E-08        -0.22305E-10         0.00000E+00
    0.33177E-08        -0.22086E-10         0.00000E+00
    0.33135E-08        -0.21050E-10         0.00000E+00
    0.33097E-08        -0.19311E-10         0.00000E+00
    0.33062E-08        -0.16981E-10         0.00000E+00
    0.33034E-08        -0.14167E-10         0.00000E+00
    0.33011E-08        -0.10975E-10         0.00000E+00
    0.32995E-08        -0.75087E-11         0.00000E+00
    0.32986E-08        -0.38758E-11         0.00000E+00
    0.32983E-08        -0.20314E-11         0.00000E+00
    0.35217E-08        -0.31412E-11         0.00000E+00
    0.35209E-08        -0.56666E-11         0.00000E+00
    0.35188E-08        -0.10133E-10         0.00000E+00
    0.35156E-08        -0.13476E-10         0.00000E+00
    0.35115E-08        -0.15788E-10         0.00000E+00
    0.35070E-08        -0.17172E-10         0.00000E+00
    0.35022E-08        -0.17732E-10         0.00000E+00
    0.34973E-08        -0.17569E-10         0.00000E+00
    0.34926E-08        -0.16776E-10         0.00000E+00
    0.34882E-08        -0.15441E-10         0.00000E+00
    0.34844E-08        -0.13641E-10         0.00000E+00
    0.34811E-08        -0.11450E-10         0.00000E+00
    0.34786E-08        -0.89360E-11         0.00000E+00
    0.34768E-08        -0.61692E-11         0.00000E+00
    0.34758E-08        -0.32246E-11         0.00000E+00
    0.34754E-08        -0.17176E-11         0.00000E+00
    0.36931E-08        -0.22905E-11         0.00000E+00
    0.36921E-08        -0.41075E-11         0.00000E+00
    0.36897E-08        -0.72995E-11         0.00000E+00
    0.36861E-08        -0.96519E-11         0.00000E+00
    0.36817E-08        -0.11258E-10         0.00000E+00
    0.36766E-08        -0.12212E-10         0.00000E+00
    0.36712E-08        -0.12604E-10         0.00000E+00
    0.36658E-08        -0.12512E-10         0.00000E+00
    0.36606E-08        -0.12003E-10         0.00000E+00
    0.36558E-08        -0.11128E-10         0.00000E+00
    0.36516E-08        -0.99275E-11         0.00000E+00
    0.36480E-08        -0.84334E-11         0.00000E+00
    0.36453E-08        -0.66750E-11         0.00000E+00
    0.36433E-08        -0.46841E-11         0.00000E+00
    0.36421E-08        -0.25015E-11         0.00000E+00
    0.36418E-08        -0.13682E-11         0.00000E+00
    0.38527E-08        -0.13429E-11         0.00000E+00
    0.38517E-08        -0.23712E-11         0.00000E+00
    0.38491E-08        -0.41467E-11         0.00000E+00
    0.38451E-08        -0.54055E-11         0.00000E+00
    0.38402E-08        -0.62381E-11         0.00000E+00
    0.38346E-08        -0.67295E-11         0.00000E+00
    0.38288E-08        -0.69507E-11         0.00000E+00
    0.38229E-08        -0.69541E-11         0.00000E+00
    0.38172E-08        -0.67716E-11         0.00000E+00
    0.38120E-08        -0.64150E-11         0.00000E+00
    0.38075E-08        -0.58806E-11         0.00000E+00
    0.38037E-08        -0.51550E-11         0.00000E+00
    0.38007E-08        -0.42229E-11         0.00000E+00
    0.37986E-08        -0.30751E-11         0.00000E+00
    0.37973E-08        -0.17175E-11         0.00000E+00
    0.37969E-08        -0.98821E-12         0.00000E+00
    0.40002E-08        -0.29978E-12         0.00000E+00
    0.39991E-08        -0.46262E-12         0.00000E+00
    0.39963E-08        -0.69006E-12         0.00000E+00
    0.39920E-08        -0.76494E-12         0.00000E+00
    0.39866E-08        -0.77089E-12         0.00000E+00
    0.39807E-08        -0.77811E-12         0.00000E+00
    0.39744E-08        -0.83489E-12         0.00000E+00
    0.39681E-08        -0.96228E-12         0.00000E+00
    0.39621E-08        -0.11526E-11         0.00000E+00
    0.39566E-08        -0.13720E-11         0.00000E+00
    0.39518E-08        -0.15667E-11         0.00000E+00
    0.39478E-08        -0.16728E-11         0.00000E+00
    0.39447E-08        -0.16263E-11         0.00000E+00
    0.39425E-08        -0.13750E-11         0.00000E+00
    0.39412E-08        -0.88882E-12         0.00000E+00
    0.39408E-08        -0.58490E-12         0.00000E+00
    0.41350E-08         0.83236E-12         0.00000E+00
    0.41339E-08         0.16035E-11         0.00000E+00
    0.41308E-08         0.30369E-11         0.00000E+00
    0.41262E-08         0.42150E-11         0.00000E+00
    0.41206E-08         0.50691E-11         0.00000E+00
    0.41143E-08         0.55506E-11         0.00000E+00
    0.41077E-08         0.56402E-11         0.00000E+00
    0.41012E-08         0.53538E-11         0.00000E+00
    0.40949E-08         0.47440E-11         0.00000E+00
    0.40893E-08         0.38962E-11         0.00000E+00
    0.40843E-08         0.29191E-11         0.00000E+00
    0.40803E-08         0.19320E-11         0.00000E+00
    0.40771E-08         0.10505E-11         0.00000E+00
    0.40749E-08         0.37210E-12         0.00000E+00
    0.40736E-08        -0.37068E-13         0.00000E+00
    0.40732E-08        -0.16839E-12         0.00000E+00
    0.42566E-08         0.20413E-11         0.00000E+00
    0.42554E-08         0.38005E-11         0.00000E+00
    0.42521E-08         0.69775E-11         0.00000E+00
    0.42474E-08         0.94458E-11         0.00000E+00
    0.42416E-08         0.11164E-10         0.00000E+00
    0.42352E-08         0.12116E-10         0.00000E+00
    0.42285E-08         0.12320E-10         0.00000E+00
    0.42219E-08         0.11834E-10         0.00000E+00
    0.42156E-08         0.10762E-10         0.00000E+00
    0.42099E-08         0.92442E-11         0.00000E+00
    0.42051E-08         0.74488E-11         0.00000E+00
    0.42010E-08         0.55530E-11         0.00000E+00
    0.41979E-08         0.37259E-11         0.00000E+00
    0.41958E-08         0.21110E-11         0.00000E+00
    0.41945E-08         0.81051E-12         0.00000E+00
    0.41941E-08         0.24855E-12         0.00000E+00
    0.43645E-08         0.33077E-11         0.00000E+00
    0.43632E-08         0.60880E-11         0.00000E+00
    0.43599E-08         0.11047E-10         0.00000E+00
    0.43551E-08         0.14798E-10         0.00000E+00
    0.43493E-08         0.17345E-10         0.00000E+00
    0.43429E-08         0.18719E-10         0.00000E+00
    0.43364E-08         0.18985E-10         0.00000E+00
    0.43300E-08         0.18256E-10         0.00000E+00
    0.43239E-08         0.16688E-10         0.00000E+00
    0.43185E-08         0.14480E-10         0.00000E+00
    0.43139E-08         0.11859E-10         0.00000E+00
    0.43101E-08         0.90582E-11         0.00000E+00
    0.43072E-08         0.63007E-11         0.00000E+00
    0.43051E-08         0.37759E-11         0.00000E+00
    0.43040E-08         0.16221E-11         0.00000E+00
    0.43036E-08         0.65140E-12         0.00000E+00
    0.44581E-08         0.46043E-11         0.00000E+00
    0.44568E-08         0.84087E-11         0.00000E+00
    0.44535E-08         0.15125E-10         0.00000E+00
    0.44489E-08         0.20090E-10         0.00000E+00
    0.44433E-08         0.23377E-10         0.00000E+00
    0.44373E-08         0.25082E-10         0.00000E+00
    0.44313E-08         0.25340E-10         0.00000E+00
    0.44254E-08         0.24322E-10         0.00000E+00
    0.44199E-08         0.22245E-10         0.00000E+00
    0.44151E-08         0.19361E-10         0.00000E+00
    0.44109E-08         0.15948E-10         0.00000E+00
    0.44075E-08         0.12290E-10         0.00000E+00
    0.44049E-08         0.86598E-11         0.00000E+00
    0.44031E-08         0.52921E-11         0.00000E+00
    0.44021E-08         0.23619E-11         0.00000E+00
    0.44017E-08         0.10237E-11         0.00000E+00
    0.45369E-08         0.58941E-11         0.00000E+00
    0.45357E-08         0.10684E-10         0.00000E+00
    0.45326E-08         0.19052E-10         0.00000E+00
    0.45283E-08         0.25080E-10         0.00000E+00
    0.45233E-08         0.28945E-10         0.00000E+00
    0.45181E-08         0.30843E-10         0.00000E+00
    0.45129E-08         0.30996E-10         0.00000E+00
    0.45080E-08         0.29651E-10         0.00000E+00
    0.45036E-08         0.27083E-10         0.00000E+00
    0.44996E-08         0.23586E-10         0.00000E+00
    0.44962E-08         0.19473E-10         0.00000E+00
    0.44935E-08         0.15065E-10         0.00000E+00
    0.44914E-08         0.10674E-10         0.00000E+00
    0.44900E-08         0.65775E-11         0.00000E+00
    0.44891E-08         0.29917E-11         0.00000E+00
    0.44888E-08         0.13485E-11         0.00000E+00
    0.46004E-08         0.71271E-11         0.00000E+00
    0.45992E-08         0.12809E-10         0.00000E+00
    0.45965E-08         0.22608E-10         0.00000E+00
    0.45929E-08         0.29440E-10         0.00000E+00
    0.45890E-08         0.33636E-10         0.00000E+00
    0.45850E-08         0.35530E-10         0.00000E+00
    0.45814E-08         0.35463E-10         0.00000E+00
    0.45780E-08         0.33769E-10         0.00000E+00
    0.45750E-08         0.30774E-10         0.00000E+00
    0.45723E-08         0.26795E-10         0.00000E+00
    0.45701E-08         0.22153E-10         0.00000E+00
    0.45682E-08         0.17175E-10         0.00000E+00
    0.45668E-08         0.12200E-10         0.00000E+00
    0.45659E-08         0.75444E-11         0.00000E+00
    0.45653E-08         0.34713E-11         0.00000E+00
    0.45651E-08         0.16082E-11         0.00000E+00
    0.46478E-08         0.82340E-11         0.00000E+00
    0.46469E-08         0.14636E-10         0.00000E+00
    0.46448E-08         0.25490E-10         0.00000E+00
    0.46424E-08         0.32727E-10         0.00000E+00
    0.46400E-08         0.36905E-10         0.00000E+00
    0.46381E-08         0.38551E-10         0.00000E+00
    0.46365E-08         0.38147E-10         0.00000E+00
    0.46353E-08         0.36117E-10         0.00000E+00
    0.46343E-08         0.32820E-10         0.00000E+00
    0.46335E-08         0.28570E-10         0.00000E+00
    0.46328E-08         0.23657E-10         0.00000E+00
    0.46321E-08         0.18384E-10         0.00000E+00
    0.46316E-08         0.13082E-10         0.00000E+00
    0.46312E-08         0.81017E-11         0.00000E+00
    0.46310E-08         0.37617E-11         0.00000E+00
    0.46309E-08         0.17878E-11         0.00000E+00
    0.46785E-08         0.91134E-11         0.00000E+00
    0.46779E-08         0.15946E-10         0.00000E+00
    0.46769E-08         0.27255E-10         0.00000E+00
    0.46763E-08         0.34322E-10         0.00000E+00
    0.46765E-08         0.38038E-10         0.00000E+00
    0.46773E-08         0.39176E-10         0.00000E+00
    0.46786E-08         0.38361E-10         0.00000E+00
    0.46802E-08         0.36074E-10         0.00000E+00
    0.46818E-08         0.32675E-10         0.00000E+00
    0.46833E-08         0.28444E-10         0.00000E+00
    0.46846E-08         0.23612E-10         0.00000E+00
    0.46855E-08         0.18418E-10         0.00000E+00
    0.46861E-08         0.13146E-10         0.00000E+00
    0.46864E-08         0.81522E-11         0.00000E+00
    0.46867E-08         0.38232E-11         0.00000E+00
    0.46867E-08         0.18721E-11         0.00000E+00
    0.46915E-08         0.96004E-11         0.00000E+00
    0.46914E-08         0.16387E-10         0.00000E+00
    0.46923E-08         0.27218E-10         0.00000E+00
    0.46946E-08         0.33337E-10         0.00000E+00
    0.46983E-08         0.36109E-10         0.00000E+00
    0.47029E-08         0.36549E-10         0.00000E+00
    0.47079E-08         0.35355E-10         0.00000E+00
    0.47130E-08         0.32995E-10         0.00000E+00
    0.47178E-08         0.29781E-10         0.00000E+00
    0.47221E-08         0.25930E-10         0.00000E+00
    0.47258E-08         0.21604E-10         0.00000E+00
    0.47286E-08         0.16952E-10         0.00000E+00
    0.47307E-08         0.12176E-10         0.00000E+00
    0.47320E-08         0.75861E-11         0.00000E+00
    0.47327E-08         0.36197E-11         0.00000E+00
    0.47328E-08         0.18548E-11         0.00000E+00
    0.46852E-08         0.93735E-11         0.00000E+00
    0.46862E-08         0.15304E-10         0.00000E+00
    0.46905E-08         0.24226E-10         0.00000E+00
    0.46975E-08         0.28484E-10         0.00000E+00
    0.47061E-08         0.29965E-10         0.00000E+00
    0.47154E-08         0.29728E-10         0.00000E+00
    0.47250E-08         0.28377E-10         0.00000E+00
    0.47342E-08         0.26268E-10         0.00000E+00
    0.47427E-08         0.23620E-10         0.00000E+00
    0.47503E-08         0.20570E-10         0.00000E+00
    0.47567E-08         0.17212E-10         0.00000E+00
    0.47619E-08         0.13618E-10         0.00000E+00
    0.47657E-08         0.98844E-11         0.00000E+00
    0.47682E-08         0.62449E-11         0.00000E+00
    0.47696E-08         0.31128E-11         0.00000E+00
    0.47698E-08         0.17341E-11         0.00000E+00
    0.46565E-08         0.76989E-11         0.00000E+00
    0.46612E-08         0.11265E-10         0.00000E+00
    0.46720E-08         0.16218E-10         0.00000E+00
    0.46858E-08         0.18016E-10         0.00000E+00
    0.47007E-08         0.18319E-10         0.00000E+00
    0.47159E-08         0.17792E-10         0.00000E+00
    0.47306E-08         0.16755E-10         0.00000E+00
    0.47444E-08         0.15383E-10         0.00000E+00
    0.47570E-08         0.13777E-10         0.00000E+00
    0.47682E-08         0.11997E-10         0.00000E+00
    0.47777E-08         0.10079E-10         0.00000E+00
    0.47855E-08         0.80466E-11         0.00000E+00
    0.47914E-08         0.59260E-11         0.00000E+00
    0.47954E-08         0.37989E-11         0.00000E+00
    0.47978E-08         0.22156E-11         0.00000E+00
    0.47987E-08         0.16810E-11         0.00000E+00
    0.46359E-08         0.00000E+00         0.00000E+00
    0.46437E-08         0.00000E+00         0.00000E+00
    0.46587E-08        -0.12427E-22         0.00000E+00
    0.46764E-08         0.32009E-27         0.00000E+00
    0.46950E-08         0.16570E-22         0.00000E+00
    0.47133E-08         0.00000E+00         0.00000E+00
    0.47307E-08         0.00000E+00         0.00000E+00
    0.47469E-08        -0.12428E-22         0.00000E+00
    0.47616E-08        -0.12428E-22         0.00000E+00
    0.47746E-08         0.12428E-22         0.00000E+00
    0.47857E-08         0.16571E-22         0.00000E+00
    0.47948E-08        -0.16572E-22         0.00000E+00
    0.48019E-08        -0.41428E-23         0.00000E+00
    0.48068E-08         0.16572E-22         0.00000E+00
    0.48096E-08         0.82860E-23         0.00000E+00
    0.48114E-08         0.00000E+00         0.00000E+00
CELL_DATA        450
TENSORS stressef double 
   -0.10668E+08         0.25154E+04         0.00000E+00
    0.25154E+04        -0.36879E+08         0.00000E+00
    0.00000E+00         0.00000E+00        -0.12372E+08
 
   -0.10574E+08         0.76654E+04         0.00000E+00
    0.76654E+04        -0.36871E+08         0.00000E+00
    0.00000E+00         0.00000E+00        -0.12472E+08
 
   -0.10498E+08         0.12678E+05         0.00000E+00
    0.12678E+05        -0.36855E+08         0.00000E+00
    0.00000E+00         0.00000E+00        -0.12538E+08
 
   -0.10447E+08         0.17137E+05         0.00000E+00
    0.17137E+05        -0.36830E+08         0.00000E+00
    0.00000E+00         0.00000E+00        -0.12564E+08
 
   -0.10426E+08         0.20635E+05         0.00000E+00
    0.20635E+05        -0.36798E+08         0.00000E+00
    0.00000E+00         0.00000E+00        -0.12543E+08
 
   -0.10436E+08         0.23031E+05         0.00000E+00
    0.23031E+05        -0.36761E+08         0.00000E+00
    0.00000E+00         0.00000E+00        -0.12477E+08
 
   -0.10476E+08         0.24667E+05         0.00000E+00
    0.24667E+05        -0.36720E+08         0.00000E+00
    0.00000E+00         0.00000E+00        -0.12371E+08
 
   -0.10538E+08         0.25800E+05         0.00000E+00
    0.25800E+05        -0.36676E+08         0.00000E+00
    0.00000E+00         0.00000E+00        -0.12234E+08
 
   -0.10617E+08         0.26797E+05         0.00000E+00
    0.26797E+05        -0.36629E+08         0.00000E+00
    0.00000E+00         0.00000E+00        -0.12078E+08
 
   -0.10702E+08         0.27947E+05         0.00000E+00
    0.27947E+05        -0.36580E+08         0.00000E+00
    0.00000E+00         0.00000E+00        -0.11913E+08
 
   -0.10789E+08         0.29400E+05         0.00000E+00
    0.29400E+05        -0.36528E+08         0.00000E+00
    0.00000E+00         0.00000E+00        -0.11745E+08
 
   -0.10870E+08         0.31194E+05         0.00000E+00
    0.31194E+05        -0.36471E+08         0.00000E+00
    0.00000E+00         0.00000E+00        -0.11580E+08
 
   -0.10941E+08         0.33264E+05         0.00000E+00
    0.33264E+05        -0.36410E+08         0.00000E+00
    0.00000E+00         0.00000E+00        -0.11421E+08
 
   -0.11001E+08         0.35514E+05         0.00000E+00
    0.35514E+05        -0.36343E+08         0.00000E+00
    0.00000E+00         0.00000E+00        -0.11271E+08
 
   -0.11044E+08         0.37824E+05         0.00000E+00
    0.37824E+05        -0.36271E+08         0.00000E+00
    0.00000E+00         0.00000E+00        -0.11130E+08
 
   -0.10695E+08         0.74771E+04         0.00000E+00
    0.74771E+04        -0.36916E+08         0.00000E+00
    0.00000E+00         0.00000E+00        -0.12393E+08
 
   -0.10601E+08         0.22899E+05         0.00000E+00
    0.22899E+05        -0.36908E+08         0.00000E+00
    0.00000E+00         0.00000E+00        -0.12494E+08
 
   -0.10526E+08         0.37924E+05         0.00000E+00
    0.37924E+05        -0.36892E+08         0.00000E+00
    0.00000E+00         0.00000E+00        -0.12560E+08
 
   -0.10476E+08         0.51064E+05         0.00000E+00
    0.51064E+05        -0.36868E+08         0.00000E+00
    0.00000E+00         0.00000E+00        -0.12584E+08
 
   -0.10458E+08         0.61327E+05         0.00000E+00
    0.61327E+05        -0.36837E+08         0.00000E+00
    0.00000E+00         0.00000E+00        -0.12562E+08
 
   -0.10470E+08         0.68340E+05         0.00000E+00
    0.68340E+05        -0.36801E+08         0.00000E+00
    0.00000E+00         0.00000E+00        -0.12496E+08
 
   -0.10510E+08         0.73177E+05         0.00000E+00
    0.73177E+05        -0.36761E+08         0.00000E+00
    0.00000E+00         0.00000E+00        -0.12390E+08
 
   -0.10573E+08         0.76604E+05         0.00000E+00
    0.76604E+05        -0.36719E+08         0.00000E+00
    0.00000E+00         0.00000E+00        -0.12256E+08
 
   -0.10652E+08         0.79704E+05         0.00000E+00
    0.79704E+05        -0.36674E+08         0.00000E+00
    0.00000E+00         0.00000E+00        -0.12102E+08
 
   -0.10737E+08         0.83303E+05         0.00000E+00
    0.83303E+05        -0.36627E+08         0.00000E+00
    0.00000E+00         0.00000E+00        -0.11939E+08
 
   -0.10822E+08         0.87805E+05         0.00000E+00
    0.87805E+05        -0.36575E+08         0.00000E+00
    0.00000E+00         0.00000E+00        -0.11773E+08
 
   -0.10903E+08         0.93301E+05         0.00000E+00
    0.93301E+05        -0.36519E+08         0.00000E+00
    0.00000E+00         0.00000E+00        -0.11610E+08
 
   -0.10974E+08         0.99605E+05         0.00000E+00
    0.99605E+05        -0.36458E+08         0.00000E+00
    0.00000E+00         0.00000E+00        -0.11452E+08
 
   -0.11033E+08         0.10644E+06         0.00000E+00
    0.10644E+06        -0.36392E+08         0.00000E+00
    0.00000E+00         0.00000E+00        -0.11303E+08
 
   -0.11077E+08         0.11345E+06         0.00000E+00
    0.11345E+06        -0.36319E+08         0.00000E+00
    0.00000E+00         0.00000E+00        -0.11162E+08
 
   -0.10749E+08         0.12429E+05         0.00000E+00
    0.12429E+05        -0.36990E+08         0.00000E+00
    0.00000E+00         0.00000E+00        -0.12436E+08
 
   -0.10654E+08         0.37997E+05         0.00000E+00
    0.37997E+05        -0.36982E+08         0.00000E+00
    0.00000E+00         0.00000E+00        -0.12536E+08
 
   -0.10581E+08         0.62536E+05         0.00000E+00
    0.62536E+05        -0.36967E+08         0.00000E+00
    0.00000E+00         0.00000E+00        -0.12602E+08
 
   -0.10535E+08         0.83851E+05         0.00000E+00
    0.83851E+05        -0.36944E+08         0.00000E+00
    0.00000E+00         0.00000E+00        -0.12624E+08
 
   -0.10520E+08         0.10020E+06         0.00000E+00
    0.10020E+06        -0.36915E+08         0.00000E+00
    0.00000E+00         0.00000E+00        -0.12600E+08
 
   -0.10536E+08         0.11141E+06         0.00000E+00
    0.11141E+06        -0.36881E+08         0.00000E+00
    0.00000E+00         0.00000E+00        -0.12534E+08
 
   -0.10579E+08         0.11924E+06         0.00000E+00
    0.11924E+06        -0.36845E+08         0.00000E+00
    0.00000E+00         0.00000E+00        -0.12430E+08
 
   -0.10643E+08         0.12508E+06         0.00000E+00
    0.12508E+06        -0.36806E+08         0.00000E+00
    0.00000E+00         0.00000E+00        -0.12299E+08
 
   -0.10721E+08         0.13062E+06         0.00000E+00
    0.13062E+06        -0.36764E+08         0.00000E+00
    0.00000E+00         0.00000E+00        -0.12150E+08
 
   -0.10805E+08         0.13710E+06         0.00000E+00
    0.13710E+06        -0.36718E+08         0.00000E+00
    0.00000E+00         0.00000E+00        -0.11991E+08
 
   -0.10890E+08         0.14505E+06         0.00000E+00
    0.14505E+06        -0.36669E+08         0.00000E+00
    0.00000E+00         0.00000E+00        -0.11830E+08
 
   -0.10969E+08         0.15457E+06         0.00000E+00
    0.15457E+06        -0.36614E+08         0.00000E+00
    0.00000E+00         0.00000E+00        -0.11670E+08
 
   -0.11039E+08         0.16539E+06         0.00000E+00
    0.16539E+06        -0.36554E+08         0.00000E+00
    0.00000E+00         0.00000E+00        -0.11515E+08
 
   -0.11097E+08         0.17705E+06         0.00000E+00
    0.17705E+06        -0.36488E+08         0.00000E+00
    0.00000E+00         0.00000E+00        -0.11367E+08
 
   -0.11141E+08         0.18896E+06         0.00000E+00
    0.18896E+06        -0.36416E+08         0.00000E+00
    0.00000E+00         0.00000E+00        -0.11227E+08
 
   -0.10829E+08         0.17418E+05         0.00000E+00
    0.17418E+05        -0.37101E+08         0.00000E+00
    0.00000E+00         0.00000E+00        -0.12500E+08
 
   -0.10735E+08         0.52807E+05         0.00000E+00
    0.52807E+05        -0.37093E+08         0.00000E+00
    0.00000E+00         0.00000E+00        -0.12600E+08
 
   -0.10664E+08         0.86140E+05         0.00000E+00
    0.86140E+05        -0.37078E+08         0.00000E+00
    0.00000E+00         0.00000E+00        -0.12663E+08
 
   -0.10623E+08         0.11452E+06         0.00000E+00
    0.11452E+06        -0.37057E+08         0.00000E+00
    0.00000E+00         0.00000E+00        -0.12683E+08
 
   -0.10615E+08         0.13584E+06         0.00000E+00
    0.13584E+06        -0.37032E+08         0.00000E+00
    0.00000E+00         0.00000E+00        -0.12657E+08
 
   -0.10635E+08         0.15075E+06         0.00000E+00
    0.15075E+06        -0.37003E+08         0.00000E+00
    0.00000E+00         0.00000E+00        -0.12590E+08
 
   -0.10682E+08         0.16136E+06         0.00000E+00
    0.16136E+06        -0.36971E+08         0.00000E+00
    0.00000E+00         0.00000E+00        -0.12490E+08
 
   -0.10747E+08         0.16991E+06         0.00000E+00
    0.16991E+06        -0.36936E+08         0.00000E+00
    0.00000E+00         0.00000E+00        -0.12365E+08
 
   -0.10824E+08         0.17846E+06         0.00000E+00
    0.17846E+06        -0.36898E+08         0.00000E+00
    0.00000E+00         0.00000E+00        -0.12222E+08
 
   -0.10907E+08         0.18845E+06         0.00000E+00
    0.18845E+06        -0.36855E+08         0.00000E+00
    0.00000E+00         0.00000E+00        -0.12070E+08
 
   -0.10989E+08         0.20045E+06         0.00000E+00
    0.20045E+06        -0.36808E+08         0.00000E+00
    0.00000E+00         0.00000E+00        -0.11915E+08
 
   -0.11067E+08         0.21450E+06         0.00000E+00
    0.21450E+06        -0.36755E+08         0.00000E+00
    0.00000E+00         0.00000E+00        -0.11760E+08
 
   -0.11136E+08         0.23026E+06         0.00000E+00
    0.23026E+06        -0.36696E+08         0.00000E+00
    0.00000E+00         0.00000E+00        -0.11608E+08
 
   -0.11194E+08         0.24710E+06         0.00000E+00
    0.24710E+06        -0.36631E+08         0.00000E+00
    0.00000E+00         0.00000E+00        -0.11462E+08
 
   -0.11237E+08         0.26416E+06         0.00000E+00
    0.26416E+06        -0.36560E+08         0.00000E+00
    0.00000E+00         0.00000E+00        -0.11323E+08
 
   -0.10936E+08         0.22294E+05         0.00000E+00
    0.22294E+05        -0.37248E+08         0.00000E+00
    0.00000E+00         0.00000E+00        -0.12585E+08
 
   -0.10842E+08         0.66987E+05         0.00000E+00
    0.66987E+05        -0.37241E+08         0.00000E+00
    0.00000E+00         0.00000E+00        -0.12685E+08
 
   -0.10776E+08         0.10820E+06         0.00000E+00
    0.10820E+06        -0.37227E+08         0.00000E+00
    0.00000E+00         0.00000E+00        -0.12745E+08
 
   -0.10743E+08         0.14202E+06         0.00000E+00
    0.14202E+06        -0.37209E+08         0.00000E+00
    0.00000E+00         0.00000E+00        -0.12759E+08
 
   -0.10742E+08         0.16701E+06         0.00000E+00
    0.16701E+06        -0.37188E+08         0.00000E+00
    0.00000E+00         0.00000E+00        -0.12731E+08
 
   -0.10769E+08         0.18497E+06         0.00000E+00
    0.18497E+06        -0.37165E+08         0.00000E+00
    0.00000E+00         0.00000E+00        -0.12666E+08
 
   -0.10818E+08         0.19828E+06         0.00000E+00
    0.19828E+06        -0.37138E+08         0.00000E+00
    0.00000E+00         0.00000E+00        -0.12571E+08
 
   -0.10884E+08         0.21006E+06         0.00000E+00
    0.21006E+06        -0.37109E+08         0.00000E+00
    0.00000E+00         0.00000E+00        -0.12452E+08
 
   -0.10960E+08         0.22236E+06         0.00000E+00
    0.22236E+06        -0.37075E+08         0.00000E+00
    0.00000E+00         0.00000E+00        -0.12318E+08
 
   -0.11041E+08         0.23662E+06         0.00000E+00
    0.23662E+06        -0.37036E+08         0.00000E+00
    0.00000E+00         0.00000E+00        -0.12175E+08
 
   -0.11121E+08         0.25338E+06         0.00000E+00
    0.25338E+06        -0.36992E+08         0.00000E+00
    0.00000E+00         0.00000E+00        -0.12027E+08
 
   -0.11196E+08         0.27261E+06         0.00000E+00
    0.27261E+06        -0.36942E+08         0.00000E+00
    0.00000E+00         0.00000E+00        -0.11878E+08
 
   -0.11264E+08         0.29384E+06         0.00000E+00
    0.29384E+06        -0.36885E+08         0.00000E+00
    0.00000E+00         0.00000E+00        -0.11731E+08
 
   -0.11321E+08         0.31624E+06         0.00000E+00
    0.31624E+06        -0.36821E+08         0.00000E+00
    0.00000E+00         0.00000E+00        -0.11588E+08
 
   -0.11365E+08         0.33879E+06         0.00000E+00
    0.33879E+06        -0.36750E+08         0.00000E+00
    0.00000E+00         0.00000E+00        -0.11451E+08
 
   -0.11070E+08         0.26984E+05         0.00000E+00
    0.26984E+05        -0.37431E+08         0.00000E+00
    0.00000E+00         0.00000E+00        -0.12690E+08
 
   -0.10978E+08         0.80153E+05         0.00000E+00
    0.80153E+05        -0.37425E+08         0.00000E+00
    0.00000E+00         0.00000E+00        -0.12789E+08
 
   -0.10918E+08         0.12758E+06         0.00000E+00
    0.12758E+06        -0.37414E+08         0.00000E+00
    0.00000E+00         0.00000E+00        -0.12844E+08
 
   -0.10894E+08         0.16509E+06         0.00000E+00
    0.16509E+06        -0.37400E+08         0.00000E+00
    0.00000E+00         0.00000E+00        -0.12854E+08
 
   -0.10902E+08         0.19263E+06         0.00000E+00
    0.19263E+06        -0.37384E+08         0.00000E+00
    0.00000E+00         0.00000E+00        -0.12823E+08
 
   -0.10935E+08         0.21285E+06         0.00000E+00
    0.21285E+06        -0.37367E+08         0.00000E+00
    0.00000E+00         0.00000E+00        -0.12760E+08
 
   -0.10987E+08         0.22924E+06         0.00000E+00
    0.22924E+06        -0.37347E+08         0.00000E+00
    0.00000E+00         0.00000E+00        -0.12672E+08
 
   -0.11053E+08         0.24485E+06         0.00000E+00
    0.24485E+06        -0.37323E+08         0.00000E+00
    0.00000E+00         0.00000E+00        -0.12563E+08
 
   -0.11128E+08         0.26169E+06         0.00000E+00
    0.26169E+06        -0.37295E+08         0.00000E+00
    0.00000E+00         0.00000E+00        -0.12439E+08
 
   -0.11206E+08         0.28103E+06         0.00000E+00
    0.28103E+06        -0.37260E+08         0.00000E+00
    0.00000E+00         0.00000E+00        -0.12305E+08
 
   -0.11283E+08         0.30332E+06         0.00000E+00
    0.30332E+06        -0.37220E+08         0.00000E+00
    0.00000E+00         0.00000E+00        -0.12166E+08
 
   -0.11356E+08         0.32841E+06         0.00000E+00
    0.32841E+06        -0.37172E+08         0.00000E+00
    0.00000E+00         0.00000E+00        -0.12024E+08
 
   -0.11421E+08         0.35567E+06         0.00000E+00
    0.35567E+06        -0.37117E+08         0.00000E+00
    0.00000E+00         0.00000E+00        -0.11882E+08
 
   -0.11478E+08         0.38413E+06         0.00000E+00
    0.38413E+06        -0.37055E+08         0.00000E+00
    0.00000E+00         0.00000E+00        -0.11743E+08
 
   -0.11522E+08         0.41291E+06         0.00000E+00
    0.41291E+06        -0.36986E+08         0.00000E+00
    0.00000E+00         0.00000E+00        -0.11608E+08
 
   -0.11229E+08         0.31300E+05         0.00000E+00
    0.31300E+05        -0.37650E+08         0.00000E+00
    0.00000E+00         0.00000E+00        -0.12816E+08
 
   -0.11142E+08         0.91701E+05         0.00000E+00
    0.91701E+05        -0.37645E+08         0.00000E+00
    0.00000E+00         0.00000E+00        -0.12912E+08
 
   -0.11092E+08         0.14312E+06         0.00000E+00
    0.14312E+06        -0.37637E+08         0.00000E+00
    0.00000E+00         0.00000E+00        -0.12960E+08
 
   -0.11079E+08         0.18239E+06         0.00000E+00
    0.18239E+06        -0.37629E+08         0.00000E+00
    0.00000E+00         0.00000E+00        -0.12964E+08
 
   -0.11096E+08         0.21129E+06         0.00000E+00
    0.21129E+06        -0.37620E+08         0.00000E+00
    0.00000E+00         0.00000E+00        -0.12933E+08
 
   -0.11134E+08         0.23391E+06         0.00000E+00
    0.23391E+06        -0.37610E+08         0.00000E+00
    0.00000E+00         0.00000E+00        -0.12874E+08
 
   -0.11188E+08         0.25384E+06         0.00000E+00
    0.25384E+06        -0.37596E+08         0.00000E+00
    0.00000E+00         0.00000E+00        -0.12794E+08
 
   -0.11253E+08         0.27388E+06         0.00000E+00
    0.27388E+06        -0.37579E+08         0.00000E+00
    0.00000E+00         0.00000E+00        -0.12695E+08
 
   -0.11325E+08         0.29598E+06         0.00000E+00
    0.29598E+06        -0.37555E+08         0.00000E+00
    0.00000E+00         0.00000E+00        -0.12582E+08
 
   -0.11400E+08         0.32119E+06         0.00000E+00
    0.32119E+06        -0.37526E+08         0.00000E+00
    0.00000E+00         0.00000E+00        -0.12460E+08
 
   -0.11474E+08         0.34979E+06         0.00000E+00
    0.34979E+06        -0.37489E+08         0.00000E+00
    0.00000E+00         0.00000E+00        -0.12331E+08
 
   -0.11544E+08         0.38142E+06         0.00000E+00
    0.38142E+06        -0.37445E+08         0.00000E+00
    0.00000E+00         0.00000E+00        -0.12197E+08
 
   -0.11608E+08         0.41535E+06         0.00000E+00
    0.41535E+06        -0.37392E+08         0.00000E+00
    0.00000E+00         0.00000E+00        -0.12062E+08
 
   -0.11663E+08         0.45068E+06         0.00000E+00
    0.45068E+06        -0.37332E+08         0.00000E+00
    0.00000E+00         0.00000E+00        -0.11927E+08
 
   -0.11708E+08         0.48588E+06         0.00000E+00
    0.48588E+06        -0.37264E+08         0.00000E+00
    0.00000E+00         0.00000E+00        -0.11794E+08
 
   -0.11416E+08         0.35017E+05         0.00000E+00
    0.35017E+05        -0.37904E+08         0.00000E+00
    0.00000E+00         0.00000E+00        -0.12960E+08
 
   -0.11335E+08         0.10055E+06         0.00000E+00
    0.10055E+06        -0.37901E+08         0.00000E+00
    0.00000E+00         0.00000E+00        -0.13050E+08
 
   -0.11298E+08         0.15340E+06         0.00000E+00
    0.15340E+06        -0.37898E+08         0.00000E+00
    0.00000E+00         0.00000E+00        -0.13090E+08
 
   -0.11299E+08         0.19263E+06         0.00000E+00
    0.19263E+06        -0.37896E+08         0.00000E+00
    0.00000E+00         0.00000E+00        -0.13089E+08
 
   -0.11323E+08         0.22266E+06         0.00000E+00
    0.22266E+06        -0.37894E+08         0.00000E+00
    0.00000E+00         0.00000E+00        -0.13059E+08
 
   -0.11365E+08         0.24796E+06         0.00000E+00
    0.24796E+06        -0.37891E+08         0.00000E+00
    0.00000E+00         0.00000E+00        -0.13006E+08
 
   -0.11419E+08         0.27182E+06         0.00000E+00
    0.27182E+06        -0.37884E+08         0.00000E+00
    0.00000E+00         0.00000E+00        -0.12936E+08
 
   -0.11482E+08         0.29686E+06         0.00000E+00
    0.29686E+06        -0.37873E+08         0.00000E+00
    0.00000E+00         0.00000E+00        -0.12849E+08
 
   -0.11551E+08         0.32488E+06         0.00000E+00
    0.32488E+06        -0.37855E+08         0.00000E+00
    0.00000E+00         0.00000E+00        -0.12749E+08
 
   -0.11622E+08         0.35667E+06         0.00000E+00
    0.35667E+06        -0.37831E+08         0.00000E+00
    0.00000E+00         0.00000E+00        -0.12639E+08
 
   -0.11692E+08         0.39227E+06         0.00000E+00
    0.39227E+06        -0.37798E+08         0.00000E+00
    0.00000E+00         0.00000E+00        -0.12520E+08
 
   -0.11760E+08         0.43122E+06         0.00000E+00
    0.43122E+06        -0.37758E+08         0.00000E+00
    0.00000E+00         0.00000E+00        -0.12396E+08
 
   -0.11822E+08         0.47267E+06         0.00000E+00
    0.47267E+06        -0.37708E+08         0.00000E+00
    0.00000E+00         0.00000E+00        -0.12268E+08
 
   -0.11876E+08         0.51522E+06         0.00000E+00
    0.51522E+06        -0.37650E+08         0.00000E+00
    0.00000E+00         0.00000E+00        -0.12138E+08
 
   -0.11922E+08         0.55774E+06         0.00000E+00
    0.55774E+06        -0.37584E+08         0.00000E+00
    0.00000E+00         0.00000E+00        -0.12008E+08
 
   -0.11631E+08         0.37756E+05         0.00000E+00
    0.37756E+05        -0.38193E+08         0.00000E+00
    0.00000E+00         0.00000E+00        -0.13121E+08
 
   -0.11561E+08         0.10530E+06         0.00000E+00
    0.10530E+06        -0.38193E+08         0.00000E+00
    0.00000E+00         0.00000E+00        -0.13203E+08
 
   -0.11540E+08         0.15695E+06         0.00000E+00
    0.15695E+06        -0.38195E+08         0.00000E+00
    0.00000E+00         0.00000E+00        -0.13232E+08
 
   -0.11551E+08         0.19550E+06         0.00000E+00
    0.19550E+06        -0.38200E+08         0.00000E+00
    0.00000E+00         0.00000E+00        -0.13227E+08
 
   -0.11582E+08         0.22678E+06         0.00000E+00
    0.22678E+06        -0.38205E+08         0.00000E+00
    0.00000E+00         0.00000E+00        -0.13200E+08
 
   -0.11625E+08         0.25492E+06         0.00000E+00
    0.25492E+06        -0.38209E+08         0.00000E+00
    0.00000E+00         0.00000E+00        -0.13156E+08
 
   -0.11679E+08         0.28302E+06         0.00000E+00
    0.28302E+06        -0.38209E+08         0.00000E+00
    0.00000E+00         0.00000E+00        -0.13096E+08
 
   -0.11739E+08         0.31356E+06         0.00000E+00
    0.31356E+06        -0.38203E+08         0.00000E+00
    0.00000E+00         0.00000E+00        -0.13023E+08
 
   -0.11804E+08         0.34803E+06         0.00000E+00
    0.34803E+06        -0.38192E+08         0.00000E+00
    0.00000E+00         0.00000E+00        -0.12937E+08
 
   -0.11871E+08         0.38702E+06         0.00000E+00
    0.38702E+06        -0.38173E+08         0.00000E+00
    0.00000E+00         0.00000E+00        -0.12840E+08
 
   -0.11937E+08         0.43040E+06         0.00000E+00
    0.43040E+06        -0.38145E+08         0.00000E+00
    0.00000E+00         0.00000E+00        -0.12734E+08
 
   -0.12001E+08         0.47741E+06         0.00000E+00
    0.47741E+06        -0.38109E+08         0.00000E+00
    0.00000E+00         0.00000E+00        -0.12620E+08
 
   -0.12061E+08         0.52693E+06         0.00000E+00
    0.52693E+06        -0.38063E+08         0.00000E+00
    0.00000E+00         0.00000E+00        -0.12500E+08
 
   -0.12115E+08         0.57769E+06         0.00000E+00
    0.57769E+06        -0.38008E+08         0.00000E+00
    0.00000E+00         0.00000E+00        -0.12375E+08
 
   -0.12162E+08         0.62795E+06         0.00000E+00
    0.62795E+06        -0.37944E+08         0.00000E+00
    0.00000E+00         0.00000E+00        -0.12248E+08
 
   -0.11875E+08         0.38675E+05         0.00000E+00
    0.38675E+05        -0.38515E+08         0.00000E+00
    0.00000E+00         0.00000E+00        -0.13297E+08
 
   -0.11822E+08         0.10475E+06         0.00000E+00
    0.10475E+06        -0.38519E+08         0.00000E+00
    0.00000E+00         0.00000E+00        -0.13363E+08
 
   -0.11817E+08         0.15344E+06         0.00000E+00
    0.15344E+06        -0.38527E+08         0.00000E+00
    0.00000E+00         0.00000E+00        -0.13382E+08
 
   -0.11837E+08         0.19118E+06         0.00000E+00
    0.19118E+06        -0.38539E+08         0.00000E+00
    0.00000E+00         0.00000E+00        -0.13376E+08
 
   -0.11871E+08         0.22362E+06         0.00000E+00
    0.22362E+06        -0.38551E+08         0.00000E+00
    0.00000E+00         0.00000E+00        -0.13355E+08
 
   -0.11916E+08         0.25471E+06         0.00000E+00
    0.25471E+06        -0.38561E+08         0.00000E+00
    0.00000E+00         0.00000E+00        -0.13321E+08
 
   -0.11967E+08         0.28734E+06         0.00000E+00
    0.28734E+06        -0.38568E+08         0.00000E+00
    0.00000E+00         0.00000E+00        -0.13274E+08
 
   -0.12023E+08         0.32370E+06         0.00000E+00
    0.32370E+06        -0.38569E+08         0.00000E+00
    0.00000E+00         0.00000E+00        -0.13215E+08
 
   -0.12083E+08         0.36509E+06         0.00000E+00
    0.36509E+06        -0.38564E+08         0.00000E+00
    0.00000E+00         0.00000E+00        -0.13145E+08
 
   -0.12144E+08         0.41187E+06         0.00000E+00
    0.41187E+06        -0.38551E+08         0.00000E+00
    0.00000E+00         0.00000E+00        -0.13063E+08
 
   -0.12206E+08         0.46361E+06         0.00000E+00
    0.46361E+06        -0.38528E+08         0.00000E+00
    0.00000E+00         0.00000E+00        -0.12970E+08
 
   -0.12267E+08         0.51945E+06         0.00000E+00
    0.51945E+06        -0.38496E+08         0.00000E+00
    0.00000E+00         0.00000E+00        -0.12867E+08
 
   -0.12325E+08         0.57801E+06         0.00000E+00
    0.57801E+06        -0.38454E+08         0.00000E+00
    0.00000E+00         0.00000E+00        -0.12756E+08
 
   -0.12379E+08         0.63754E+06         0.00000E+00
    0.63754E+06        -0.38402E+08         0.00000E+00
    0.00000E+00         0.00000E+00        -0.12637E+08
 
   -0.12427E+08         0.69627E+06         0.00000E+00
    0.69627E+06        -0.38340E+08         0.00000E+00
    0.00000E+00         0.00000E+00        -0.12513E+08
 
   -0.12151E+08         0.37043E+05         0.00000E+00
    0.37043E+05        -0.38870E+08         0.00000E+00
    0.00000E+00         0.00000E+00        -0.13481E+08
 
   -0.12119E+08         0.98433E+05         0.00000E+00
    0.98433E+05        -0.38877E+08         0.00000E+00
    0.00000E+00         0.00000E+00        -0.13528E+08
 
   -0.12128E+08         0.14316E+06         0.00000E+00
    0.14316E+06        -0.38891E+08         0.00000E+00
    0.00000E+00         0.00000E+00        -0.13539E+08
 
   -0.12154E+08         0.17966E+06         0.00000E+00
    0.17966E+06        -0.38909E+08         0.00000E+00
    0.00000E+00         0.00000E+00        -0.13535E+08
 
   -0.12191E+08         0.21320E+06         0.00000E+00
    0.21320E+06        -0.38928E+08         0.00000E+00
    0.00000E+00         0.00000E+00        -0.13522E+08
 
   -0.12234E+08         0.24727E+06         0.00000E+00
    0.24727E+06        -0.38945E+08         0.00000E+00
    0.00000E+00         0.00000E+00        -0.13499E+08
 
   -0.12281E+08         0.28458E+06         0.00000E+00
    0.28458E+06        -0.38959E+08         0.00000E+00
    0.00000E+00         0.00000E+00        -0.13467E+08
 
   -0.12332E+08         0.32703E+06         0.00000E+00
    0.32703E+06        -0.38967E+08         0.00000E+00
    0.00000E+00         0.00000E+00        -0.13425E+08
 
   -0.12386E+08         0.37567E+06         0.00000E+00
    0.37567E+06        -0.38968E+08         0.00000E+00
    0.00000E+00         0.00000E+00        -0.13371E+08
 
   -0.12441E+08         0.43069E+06         0.00000E+00
    0.43069E+06        -0.38961E+08         0.00000E+00
    0.00000E+00         0.00000E+00        -0.13305E+08
 
   -0.12498E+08         0.49157E+06         0.00000E+00
    0.49157E+06        -0.38945E+08         0.00000E+00
    0.00000E+00         0.00000E+00        -0.13227E+08
 
   -0.12555E+08         0.55698E+06         0.00000E+00
    0.55698E+06        -0.38918E+08         0.00000E+00
    0.00000E+00         0.00000E+00        -0.13136E+08
 
   -0.12611E+08         0.62529E+06         0.00000E+00
    0.62529E+06        -0.38880E+08         0.00000E+00
    0.00000E+00         0.00000E+00        -0.13035E+08
 
   -0.12664E+08         0.69448E+06         0.00000E+00
    0.69448E+06        -0.38831E+08         0.00000E+00
    0.00000E+00         0.00000E+00        -0.12922E+08
 
   -0.12715E+08         0.76238E+06         0.00000E+00
    0.76238E+06        -0.38772E+08         0.00000E+00
    0.00000E+00         0.00000E+00        -0.12802E+08
 
   -0.12465E+08         0.32896E+05         0.00000E+00
    0.32896E+05        -0.39254E+08         0.00000E+00
    0.00000E+00         0.00000E+00        -0.13666E+08
 
   -0.12454E+08         0.86241E+05         0.00000E+00
    0.86241E+05        -0.39266E+08         0.00000E+00
    0.00000E+00         0.00000E+00        -0.13695E+08
 
   -0.12473E+08         0.12638E+06         0.00000E+00
    0.12638E+06        -0.39286E+08         0.00000E+00
    0.00000E+00         0.00000E+00        -0.13702E+08
 
   -0.12503E+08         0.16133E+06         0.00000E+00
    0.16133E+06        -0.39310E+08         0.00000E+00
    0.00000E+00         0.00000E+00        -0.13703E+08
 
   -0.12539E+08         0.19559E+06         0.00000E+00
    0.19559E+06        -0.39335E+08         0.00000E+00
    0.00000E+00         0.00000E+00        -0.13699E+08
 
   -0.12578E+08         0.23252E+06         0.00000E+00
    0.23252E+06        -0.39359E+08         0.00000E+00
    0.00000E+00         0.00000E+00        -0.13690E+08
 
   -0.12621E+08         0.27453E+06         0.00000E+00
    0.27453E+06        -0.39380E+08         0.00000E+00
    0.00000E+00         0.00000E+00        -0.13674E+08
 
   -0.12665E+08         0.32320E+06         0.00000E+00
    0.32320E+06        -0.39395E+08         0.00000E+00
    0.00000E+00         0.00000E+00        -0.13649E+08
 
   -0.12711E+08         0.37943E+06         0.00000E+00
    0.37943E+06        -0.39403E+08         0.00000E+00
    0.00000E+00         0.00000E+00        -0.13614E+08
 
   -0.12760E+08         0.44323E+06         0.00000E+00
    0.44323E+06        -0.39402E+08         0.00000E+00
    0.00000E+00         0.00000E+00        -0.13565E+08
 
   -0.12810E+08         0.51371E+06         0.00000E+00
    0.51371E+06        -0.39391E+08         0.00000E+00
    0.00000E+00         0.00000E+00        -0.13503E+08
 
   -0.12863E+08         0.58950E+06         0.00000E+00
    0.58950E+06        -0.39370E+08         0.00000E+00
    0.00000E+00         0.00000E+00        -0.13426E+08
 
   -0.12917E+08         0.66834E+06         0.00000E+00
    0.66834E+06        -0.39337E+08         0.00000E+00
    0.00000E+00         0.00000E+00        -0.13334E+08
 
   -0.12971E+08         0.74802E+06         0.00000E+00
    0.74802E+06        -0.39292E+08         0.00000E+00
    0.00000E+00         0.00000E+00        -0.13229E+08
 
   -0.13024E+08         0.82584E+06         0.00000E+00
    0.82584E+06        -0.39236E+08         0.00000E+00
    0.00000E+00         0.00000E+00        -0.13112E+08
 
   -0.12819E+08         0.26034E+05         0.00000E+00
    0.26034E+05        -0.39670E+08         0.00000E+00
    0.00000E+00         0.00000E+00        -0.13849E+08
 
   -0.12826E+08         0.69227E+05         0.00000E+00
    0.69227E+05        -0.39684E+08         0.00000E+00
    0.00000E+00         0.00000E+00        -0.13862E+08
 
   -0.12850E+08         0.10376E+06         0.00000E+00
    0.10376E+06        -0.39708E+08         0.00000E+00
    0.00000E+00         0.00000E+00        -0.13869E+08
 
   -0.12882E+08         0.13632E+06         0.00000E+00
    0.13632E+06        -0.39738E+08         0.00000E+00
    0.00000E+00         0.00000E+00        -0.13877E+08
 
   -0.12915E+08         0.17093E+06         0.00000E+00
    0.17093E+06        -0.39769E+08         0.00000E+00
    0.00000E+00         0.00000E+00        -0.13885E+08
 
   -0.12949E+08         0.21049E+06         0.00000E+00
    0.21049E+06        -0.39800E+08         0.00000E+00
    0.00000E+00         0.00000E+00        -0.13891E+08
 
   -0.12984E+08         0.25709E+06         0.00000E+00
    0.25709E+06        -0.39827E+08         0.00000E+00
    0.00000E+00         0.00000E+00        -0.13893E+08
 
   -0.13020E+08         0.31213E+06         0.00000E+00
    0.31213E+06        -0.39849E+08         0.00000E+00
    0.00000E+00         0.00000E+00        -0.13887E+08
 
   -0.13057E+08         0.37618E+06         0.00000E+00
    0.37618E+06        -0.39864E+08         0.00000E+00
    0.00000E+00         0.00000E+00        -0.13870E+08
 
   -0.13098E+08         0.44904E+06         0.00000E+00
    0.44904E+06        -0.39870E+08         0.00000E+00
    0.00000E+00         0.00000E+00        -0.13841E+08
 
   -0.13142E+08         0.52973E+06         0.00000E+00
    0.52973E+06        -0.39865E+08         0.00000E+00
    0.00000E+00         0.00000E+00        -0.13795E+08
 
   -0.13190E+08         0.61634E+06         0.00000E+00
    0.61634E+06        -0.39850E+08         0.00000E+00
    0.00000E+00         0.00000E+00        -0.13733E+08
 
   -0.13241E+08         0.70659E+06         0.00000E+00
    0.70659E+06        -0.39822E+08         0.00000E+00
    0.00000E+00         0.00000E+00        -0.13653E+08
 
   -0.13295E+08         0.79758E+06         0.00000E+00
    0.79758E+06        -0.39782E+08         0.00000E+00
    0.00000E+00         0.00000E+00        -0.13555E+08
 
   -0.13352E+08         0.88611E+06         0.00000E+00
    0.88611E+06        -0.39730E+08         0.00000E+00
    0.00000E+00         0.00000E+00        -0.13442E+08
 
   -0.13216E+08         0.17112E+05         0.00000E+00
    0.17112E+05        -0.40112E+08         0.00000E+00
    0.00000E+00         0.00000E+00        -0.14024E+08
 
   -0.13234E+08         0.48371E+05         0.00000E+00
    0.48371E+05        -0.40129E+08         0.00000E+00
    0.00000E+00         0.00000E+00        -0.14029E+08
 
   -0.13261E+08         0.75821E+05         0.00000E+00
    0.75821E+05        -0.40157E+08         0.00000E+00
    0.00000E+00         0.00000E+00        -0.14039E+08
 
   -0.13290E+08         0.10508E+06         0.00000E+00
    0.10508E+06        -0.40192E+08         0.00000E+00
    0.00000E+00         0.00000E+00        -0.14056E+08
 
   -0.13318E+08         0.13948E+06         0.00000E+00
    0.13948E+06        -0.40229E+08         0.00000E+00
    0.00000E+00         0.00000E+00        -0.14078E+08
 
   -0.13344E+08         0.18138E+06         0.00000E+00
    0.18138E+06        -0.40266E+08         0.00000E+00
    0.00000E+00         0.00000E+00        -0.14101E+08
 
   -0.13370E+08         0.23248E+06         0.00000E+00
    0.23248E+06        -0.40300E+08         0.00000E+00
    0.00000E+00         0.00000E+00        -0.14121E+08
 
   -0.13395E+08         0.29382E+06         0.00000E+00
    0.29382E+06        -0.40328E+08         0.00000E+00
    0.00000E+00         0.00000E+00        -0.14135E+08
 
   -0.13423E+08         0.36577E+06         0.00000E+00
    0.36577E+06        -0.40349E+08         0.00000E+00
    0.00000E+00         0.00000E+00        -0.14139E+08
 
   -0.13454E+08         0.44795E+06         0.00000E+00
    0.44795E+06        -0.40362E+08         0.00000E+00
    0.00000E+00         0.00000E+00        -0.14129E+08
 
   -0.13490E+08         0.53906E+06         0.00000E+00
    0.53906E+06        -0.40364E+08         0.00000E+00
    0.00000E+00         0.00000E+00        -0.14102E+08
 
   -0.13533E+08         0.63706E+06         0.00000E+00
    0.63706E+06        -0.40355E+08         0.00000E+00
    0.00000E+00         0.00000E+00        -0.14055E+08
 
   -0.13581E+08         0.73932E+06         0.00000E+00
    0.73932E+06        -0.40333E+08         0.00000E+00
    0.00000E+00         0.00000E+00        -0.13987E+08
 
   -0.13637E+08         0.84239E+06         0.00000E+00
    0.84239E+06        -0.40298E+08         0.00000E+00
    0.00000E+00         0.00000E+00        -0.13899E+08
 
   -0.13698E+08         0.94231E+06         0.00000E+00
    0.94231E+06        -0.40251E+08         0.00000E+00
    0.00000E+00         0.00000E+00        -0.13790E+08
 
   -0.13658E+08         0.72215E+04         0.00000E+00
    0.72215E+04        -0.40581E+08         0.00000E+00
    0.00000E+00         0.00000E+00        -0.14192E+08
 
   -0.13680E+08         0.24368E+05         0.00000E+00
    0.24368E+05        -0.40600E+08         0.00000E+00
    0.00000E+00         0.00000E+00        -0.14194E+08
 
   -0.13704E+08         0.43315E+05         0.00000E+00
    0.43315E+05        -0.40631E+08         0.00000E+00
    0.00000E+00         0.00000E+00        -0.14211E+08
 
   -0.13727E+08         0.68312E+05         0.00000E+00
    0.68312E+05        -0.40670E+08         0.00000E+00
    0.00000E+00         0.00000E+00        -0.14240E+08
 
   -0.13747E+08         0.10189E+06         0.00000E+00
    0.10189E+06        -0.40712E+08         0.00000E+00
    0.00000E+00         0.00000E+00        -0.14277E+08
 
   -0.13763E+08         0.14571E+06         0.00000E+00
    0.14571E+06        -0.40754E+08         0.00000E+00
    0.00000E+00         0.00000E+00        -0.14317E+08
 
   -0.13777E+08         0.20103E+06         0.00000E+00
    0.20103E+06        -0.40793E+08         0.00000E+00
    0.00000E+00         0.00000E+00        -0.14357E+08
 
   -0.13791E+08         0.26853E+06         0.00000E+00
    0.26853E+06        -0.40827E+08         0.00000E+00
    0.00000E+00         0.00000E+00        -0.14392E+08
 
   -0.13807E+08         0.34830E+06         0.00000E+00
    0.34830E+06        -0.40855E+08         0.00000E+00
    0.00000E+00         0.00000E+00        -0.14417E+08
 
   -0.13827E+08         0.43970E+06         0.00000E+00
    0.43970E+06        -0.40874E+08         0.00000E+00
    0.00000E+00         0.00000E+00        -0.14427E+08
 
   -0.13854E+08         0.54137E+06         0.00000E+00
    0.54137E+06        -0.40883E+08         0.00000E+00
    0.00000E+00         0.00000E+00        -0.14419E+08
 
   -0.13890E+08         0.65111E+06         0.00000E+00
    0.65111E+06        -0.40880E+08         0.00000E+00
    0.00000E+00         0.00000E+00        -0.14390E+08
 
   -0.13936E+08         0.76580E+06         0.00000E+00
    0.76580E+06        -0.40865E+08         0.00000E+00
    0.00000E+00         0.00000E+00        -0.14336E+08
 
   -0.13992E+08         0.88149E+06         0.00000E+00
    0.88149E+06        -0.40837E+08         0.00000E+00
    0.00000E+00         0.00000E+00        -0.14257E+08
 
   -0.14058E+08         0.99363E+06         0.00000E+00
    0.99363E+06        -0.40795E+08         0.00000E+00
    0.00000E+00         0.00000E+00        -0.14153E+08
 
   -0.14143E+08        -0.32460E+04         0.00000E+00
   -0.32460E+04        -0.41075E+08         0.00000E+00
    0.00000E+00         0.00000E+00        -0.14352E+08
 
   -0.14163E+08        -0.17152E+04         0.00000E+00
   -0.17152E+04        -0.41095E+08         0.00000E+00
    0.00000E+00         0.00000E+00        -0.14358E+08
 
   -0.14180E+08         0.74613E+04         0.00000E+00
    0.74613E+04        -0.41128E+08         0.00000E+00
    0.00000E+00         0.00000E+00        -0.14385E+08
 
   -0.14193E+08         0.27147E+05         0.00000E+00
    0.27147E+05        -0.41170E+08         0.00000E+00
    0.00000E+00         0.00000E+00        -0.14427E+08
 
   -0.14200E+08         0.59091E+05         0.00000E+00
    0.59091E+05        -0.41215E+08         0.00000E+00
    0.00000E+00         0.00000E+00        -0.14480E+08
 
   -0.14204E+08         0.10430E+06         0.00000E+00
    0.10430E+06        -0.41262E+08         0.00000E+00
    0.00000E+00         0.00000E+00        -0.14539E+08
 
   -0.14204E+08         0.16342E+06         0.00000E+00
    0.16342E+06        -0.41306E+08         0.00000E+00
    0.00000E+00         0.00000E+00        -0.14599E+08
 
   -0.14204E+08         0.23671E+06         0.00000E+00
    0.23671E+06        -0.41345E+08         0.00000E+00
    0.00000E+00         0.00000E+00        -0.14654E+08
 
   -0.14207E+08         0.32394E+06         0.00000E+00
    0.32394E+06        -0.41378E+08         0.00000E+00
    0.00000E+00         0.00000E+00        -0.14700E+08
 
   -0.14215E+08         0.42437E+06         0.00000E+00
    0.42437E+06        -0.41403E+08         0.00000E+00
    0.00000E+00         0.00000E+00        -0.14732E+08
 
   -0.14232E+08         0.53650E+06         0.00000E+00
    0.53650E+06        -0.41419E+08         0.00000E+00
    0.00000E+00         0.00000E+00        -0.14745E+08
 
   -0.14260E+08         0.65789E+06         0.00000E+00
    0.65789E+06        -0.41423E+08         0.00000E+00
    0.00000E+00         0.00000E+00        -0.14734E+08
 
   -0.14302E+08         0.78513E+06         0.00000E+00
    0.78513E+06        -0.41415E+08         0.00000E+00
    0.00000E+00         0.00000E+00        -0.14696E+08
 
   -0.14359E+08         0.91392E+06         0.00000E+00
    0.91392E+06        -0.41394E+08         0.00000E+00
    0.00000E+00         0.00000E+00        -0.14628E+08
 
   -0.14432E+08         0.10395E+07         0.00000E+00
    0.10395E+07        -0.41359E+08         0.00000E+00
    0.00000E+00         0.00000E+00        -0.14529E+08
 
   -0.14672E+08        -0.13964E+05         0.00000E+00
   -0.13964E+05        -0.41594E+08         0.00000E+00
    0.00000E+00         0.00000E+00        -0.14505E+08
 
   -0.14683E+08        -0.28917E+05         0.00000E+00
   -0.28917E+05        -0.41614E+08         0.00000E+00
    0.00000E+00         0.00000E+00        -0.14520E+08
 
   -0.14688E+08        -0.30524E+05         0.00000E+00
   -0.30524E+05        -0.41647E+08         0.00000E+00
    0.00000E+00         0.00000E+00        -0.14560E+08
 
   -0.14686E+08        -0.17034E+05         0.00000E+00
   -0.17034E+05        -0.41690E+08         0.00000E+00
    0.00000E+00         0.00000E+00        -0.14617E+08
 
   -0.14679E+08         0.12397E+05         0.00000E+00
    0.12397E+05        -0.41738E+08         0.00000E+00
    0.00000E+00         0.00000E+00        -0.14688E+08
 
   -0.14666E+08         0.58233E+05         0.00000E+00
    0.58233E+05        -0.41787E+08         0.00000E+00
    0.00000E+00         0.00000E+00        -0.14765E+08
 
   -0.14651E+08         0.12057E+06         0.00000E+00
    0.12057E+06        -0.41835E+08         0.00000E+00
    0.00000E+00         0.00000E+00        -0.14845E+08
 
   -0.14635E+08         0.19906E+06         0.00000E+00
    0.19906E+06        -0.41878E+08         0.00000E+00
    0.00000E+00         0.00000E+00        -0.14921E+08
 
   -0.14622E+08         0.29332E+06         0.00000E+00
    0.29332E+06        -0.41916E+08         0.00000E+00
    0.00000E+00         0.00000E+00        -0.14989E+08
 
   -0.14617E+08         0.40230E+06         0.00000E+00
    0.40230E+06        -0.41947E+08         0.00000E+00
    0.00000E+00         0.00000E+00        -0.15042E+08
 
   -0.14622E+08         0.52431E+06         0.00000E+00
    0.52431E+06        -0.41968E+08         0.00000E+00
    0.00000E+00         0.00000E+00        -0.15075E+08
 
   -0.14642E+08         0.65692E+06         0.00000E+00
    0.65692E+06        -0.41980E+08         0.00000E+00
    0.00000E+00         0.00000E+00        -0.15084E+08
 
   -0.14680E+08         0.79661E+06         0.00000E+00
    0.79661E+06        -0.41980E+08         0.00000E+00
    0.00000E+00         0.00000E+00        -0.15062E+08
 
   -0.14737E+08         0.93882E+06         0.00000E+00
    0.93882E+06        -0.41967E+08         0.00000E+00
    0.00000E+00         0.00000E+00        -0.15007E+08
 
   -0.14815E+08         0.10784E+07         0.00000E+00
    0.10784E+07        -0.41939E+08         0.00000E+00
    0.00000E+00         0.00000E+00        -0.14916E+08
 
   -0.15244E+08        -0.24675E+05         0.00000E+00
   -0.24675E+05        -0.42135E+08         0.00000E+00
    0.00000E+00         0.00000E+00        -0.14652E+08
 
   -0.15239E+08        -0.56338E+05         0.00000E+00
   -0.56338E+05        -0.42154E+08         0.00000E+00
    0.00000E+00         0.00000E+00        -0.14681E+08
 
   -0.15227E+08        -0.69442E+05         0.00000E+00
   -0.69442E+05        -0.42188E+08         0.00000E+00
    0.00000E+00         0.00000E+00        -0.14736E+08
 
   -0.15207E+08        -0.62935E+05         0.00000E+00
   -0.62935E+05        -0.42231E+08         0.00000E+00
    0.00000E+00         0.00000E+00        -0.14811E+08
 
   -0.15181E+08        -0.36690E+05         0.00000E+00
   -0.36690E+05        -0.42279E+08         0.00000E+00
    0.00000E+00         0.00000E+00        -0.14899E+08
 
   -0.15149E+08         0.90627E+04         0.00000E+00
    0.90627E+04        -0.42329E+08         0.00000E+00
    0.00000E+00         0.00000E+00        -0.14995E+08
 
   -0.15116E+08         0.73815E+05         0.00000E+00
    0.73815E+05        -0.42378E+08         0.00000E+00
    0.00000E+00         0.00000E+00        -0.15094E+08
 
   -0.15082E+08         0.15690E+06         0.00000E+00
    0.15690E+06        -0.42424E+08         0.00000E+00
    0.00000E+00         0.00000E+00        -0.15190E+08
 
   -0.15053E+08         0.25735E+06         0.00000E+00
    0.25735E+06        -0.42466E+08         0.00000E+00
    0.00000E+00         0.00000E+00        -0.15278E+08
 
   -0.15032E+08         0.37388E+06         0.00000E+00
    0.37388E+06        -0.42501E+08         0.00000E+00
    0.00000E+00         0.00000E+00        -0.15352E+08
 
   -0.15024E+08         0.50486E+06         0.00000E+00
    0.50486E+06        -0.42528E+08         0.00000E+00
    0.00000E+00         0.00000E+00        -0.15407E+08
 
   -0.15034E+08         0.64788E+06         0.00000E+00
    0.64788E+06        -0.42547E+08         0.00000E+00
    0.00000E+00         0.00000E+00        -0.15436E+08
 
   -0.15066E+08         0.79964E+06         0.00000E+00
    0.79964E+06        -0.42555E+08         0.00000E+00
    0.00000E+00         0.00000E+00        -0.15433E+08
 
   -0.15122E+08         0.95542E+06         0.00000E+00
    0.95542E+06        -0.42550E+08         0.00000E+00
    0.00000E+00         0.00000E+00        -0.15392E+08
 
   -0.15206E+08         0.11086E+07         0.00000E+00
    0.11086E+07        -0.42532E+08         0.00000E+00
    0.00000E+00         0.00000E+00        -0.15309E+08
 
   -0.15856E+08        -0.35103E+05         0.00000E+00
   -0.35103E+05        -0.42696E+08         0.00000E+00
    0.00000E+00         0.00000E+00        -0.14795E+08
 
   -0.15830E+08        -0.83427E+05         0.00000E+00
   -0.83427E+05        -0.42715E+08         0.00000E+00
    0.00000E+00         0.00000E+00        -0.14842E+08
 
   -0.15796E+08        -0.10815E+06         0.00000E+00
   -0.10815E+06        -0.42747E+08         0.00000E+00
    0.00000E+00         0.00000E+00        -0.14915E+08
 
   -0.15753E+08        -0.10909E+06         0.00000E+00
   -0.10909E+06        -0.42789E+08         0.00000E+00
    0.00000E+00         0.00000E+00        -0.15008E+08
 
   -0.15705E+08        -0.86549E+05         0.00000E+00
   -0.86549E+05        -0.42836E+08         0.00000E+00
    0.00000E+00         0.00000E+00        -0.15114E+08
 
   -0.15652E+08        -0.41420E+05         0.00000E+00
   -0.41420E+05        -0.42886E+08         0.00000E+00
    0.00000E+00         0.00000E+00        -0.15228E+08
 
   -0.15598E+08         0.25118E+05         0.00000E+00
    0.25118E+05        -0.42935E+08         0.00000E+00
    0.00000E+00         0.00000E+00        -0.15344E+08
 
   -0.15544E+08         0.11194E+06         0.00000E+00
    0.11194E+06        -0.42981E+08         0.00000E+00
    0.00000E+00         0.00000E+00        -0.15458E+08
 
   -0.15497E+08         0.21729E+06         0.00000E+00
    0.21729E+06        -0.43024E+08         0.00000E+00
    0.00000E+00         0.00000E+00        -0.15565E+08
 
   -0.15459E+08         0.34002E+06         0.00000E+00
    0.34002E+06        -0.43062E+08         0.00000E+00
    0.00000E+00         0.00000E+00        -0.15659E+08
 
   -0.15437E+08         0.47846E+06         0.00000E+00
    0.47846E+06        -0.43094E+08         0.00000E+00
    0.00000E+00         0.00000E+00        -0.15735E+08
 
   -0.15435E+08         0.63057E+06         0.00000E+00
    0.63057E+06        -0.43120E+08         0.00000E+00
    0.00000E+00         0.00000E+00        -0.15785E+08
 
   -0.15459E+08         0.79331E+06         0.00000E+00
    0.79331E+06        -0.43137E+08         0.00000E+00
    0.00000E+00         0.00000E+00        -0.15803E+08
 
   -0.15514E+08         0.96215E+06         0.00000E+00
    0.96215E+06        -0.43142E+08         0.00000E+00
    0.00000E+00         0.00000E+00        -0.15779E+08
 
   -0.15603E+08         0.11299E+07         0.00000E+00
    0.11299E+07        -0.43134E+08         0.00000E+00
    0.00000E+00         0.00000E+00        -0.15707E+08
 
   -0.16506E+08        -0.45108E+05         0.00000E+00
   -0.45108E+05        -0.43277E+08         0.00000E+00
    0.00000E+00         0.00000E+00        -0.14936E+08
 
   -0.16454E+08        -0.10960E+06         0.00000E+00
   -0.10960E+06        -0.43294E+08         0.00000E+00
    0.00000E+00         0.00000E+00        -0.15004E+08
 
   -0.16393E+08        -0.14574E+06         0.00000E+00
   -0.14574E+06        -0.43325E+08         0.00000E+00
    0.00000E+00         0.00000E+00        -0.15097E+08
 
   -0.16324E+08        -0.15398E+06         0.00000E+00
   -0.15398E+06        -0.43364E+08         0.00000E+00
    0.00000E+00         0.00000E+00        -0.15209E+08
 
   -0.16250E+08        -0.13534E+06         0.00000E+00
   -0.13534E+06        -0.43408E+08         0.00000E+00
    0.00000E+00         0.00000E+00        -0.15332E+08
 
   -0.16173E+08        -0.91161E+05         0.00000E+00
   -0.91161E+05        -0.43455E+08         0.00000E+00
    0.00000E+00         0.00000E+00        -0.15463E+08
 
   -0.16096E+08        -0.23339E+05         0.00000E+00
   -0.23339E+05        -0.43501E+08         0.00000E+00
    0.00000E+00         0.00000E+00        -0.15595E+08
 
   -0.16022E+08         0.66045E+05         0.00000E+00
    0.66045E+05        -0.43546E+08         0.00000E+00
    0.00000E+00         0.00000E+00        -0.15725E+08
 
   -0.15955E+08         0.17515E+06         0.00000E+00
    0.17515E+06        -0.43588E+08         0.00000E+00
    0.00000E+00         0.00000E+00        -0.15848E+08
 
   -0.15899E+08         0.30210E+06         0.00000E+00
    0.30210E+06        -0.43627E+08         0.00000E+00
    0.00000E+00         0.00000E+00        -0.15960E+08
 
   -0.15861E+08         0.44579E+06         0.00000E+00
    0.44579E+06        -0.43664E+08         0.00000E+00
    0.00000E+00         0.00000E+00        -0.16056E+08
 
   -0.15846E+08         0.60486E+06         0.00000E+00
    0.60486E+06        -0.43696E+08         0.00000E+00
    0.00000E+00         0.00000E+00        -0.16128E+08
 
   -0.15860E+08         0.77681E+06         0.00000E+00
    0.77681E+06        -0.43721E+08         0.00000E+00
    0.00000E+00         0.00000E+00        -0.16168E+08
 
   -0.15911E+08         0.95747E+06         0.00000E+00
    0.95747E+06        -0.43738E+08         0.00000E+00
    0.00000E+00         0.00000E+00        -0.16165E+08
 
   -0.16004E+08         0.11402E+07         0.00000E+00
    0.11402E+07        -0.43742E+08         0.00000E+00
    0.00000E+00         0.00000E+00        -0.16107E+08
 
   -0.17192E+08        -0.54649E+05         0.00000E+00
   -0.54649E+05        -0.43874E+08         0.00000E+00
    0.00000E+00         0.00000E+00        -0.15079E+08
 
   -0.17109E+08        -0.13438E+06         0.00000E+00
   -0.13438E+06        -0.43890E+08         0.00000E+00
    0.00000E+00         0.00000E+00        -0.15169E+08
 
   -0.17017E+08        -0.18121E+06         0.00000E+00
   -0.18121E+06        -0.43918E+08         0.00000E+00
    0.00000E+00         0.00000E+00        -0.15283E+08
 
   -0.16918E+08        -0.19624E+06         0.00000E+00
   -0.19624E+06        -0.43954E+08         0.00000E+00
    0.00000E+00         0.00000E+00        -0.15414E+08
 
   -0.16815E+08        -0.18110E+06         0.00000E+00
   -0.18110E+06        -0.43994E+08         0.00000E+00
    0.00000E+00         0.00000E+00        -0.15554E+08
 
   -0.16711E+08        -0.13790E+06         0.00000E+00
   -0.13790E+06        -0.44035E+08         0.00000E+00
    0.00000E+00         0.00000E+00        -0.15700E+08
 
   -0.16610E+08        -0.69260E+05         0.00000E+00
   -0.69260E+05        -0.44076E+08         0.00000E+00
    0.00000E+00         0.00000E+00        -0.15845E+08
 
   -0.16513E+08         0.21837E+05         0.00000E+00
    0.21837E+05        -0.44117E+08         0.00000E+00
    0.00000E+00         0.00000E+00        -0.15988E+08
 
   -0.16427E+08         0.13287E+06         0.00000E+00
    0.13287E+06        -0.44156E+08         0.00000E+00
    0.00000E+00         0.00000E+00        -0.16124E+08
 
   -0.16353E+08         0.26194E+06         0.00000E+00
    0.26194E+06        -0.44195E+08         0.00000E+00
    0.00000E+00         0.00000E+00        -0.16251E+08
 
   -0.16297E+08         0.40806E+06         0.00000E+00
    0.40806E+06        -0.44233E+08         0.00000E+00
    0.00000E+00         0.00000E+00        -0.16365E+08
 
   -0.16266E+08         0.57083E+06         0.00000E+00
    0.57083E+06        -0.44270E+08         0.00000E+00
    0.00000E+00         0.00000E+00        -0.16459E+08
 
   -0.16268E+08         0.74939E+06         0.00000E+00
    0.74939E+06        -0.44305E+08         0.00000E+00
    0.00000E+00         0.00000E+00        -0.16524E+08
 
   -0.16312E+08         0.94047E+06         0.00000E+00
    0.94047E+06        -0.44334E+08         0.00000E+00
    0.00000E+00         0.00000E+00        -0.16544E+08
 
   -0.16407E+08         0.11374E+07         0.00000E+00
    0.11374E+07        -0.44352E+08         0.00000E+00
    0.00000E+00         0.00000E+00        -0.16506E+08
 
   -0.17910E+08        -0.63601E+05         0.00000E+00
   -0.63601E+05        -0.44487E+08         0.00000E+00
    0.00000E+00         0.00000E+00        -0.15223E+08
 
   -0.17791E+08        -0.15746E+06         0.00000E+00
   -0.15746E+06        -0.44502E+08         0.00000E+00
    0.00000E+00         0.00000E+00        -0.15338E+08
 
   -0.17663E+08        -0.21374E+06         0.00000E+00
   -0.21374E+06        -0.44526E+08         0.00000E+00
    0.00000E+00         0.00000E+00        -0.15474E+08
 
   -0.17531E+08        -0.23432E+06         0.00000E+00
   -0.23432E+06        -0.44557E+08         0.00000E+00
    0.00000E+00         0.00000E+00        -0.15623E+08
 
   -0.17397E+08        -0.22174E+06         0.00000E+00
   -0.22174E+06        -0.44590E+08         0.00000E+00
    0.00000E+00         0.00000E+00        -0.15780E+08
 
   -0.17265E+08        -0.17911E+06         0.00000E+00
   -0.17911E+06        -0.44624E+08         0.00000E+00
    0.00000E+00         0.00000E+00        -0.15937E+08
 
   -0.17138E+08        -0.11005E+06         0.00000E+00
   -0.11005E+06        -0.44658E+08         0.00000E+00
    0.00000E+00         0.00000E+00        -0.16093E+08
 
   -0.17019E+08        -0.18341E+05         0.00000E+00
   -0.18341E+05        -0.44691E+08         0.00000E+00
    0.00000E+00         0.00000E+00        -0.16244E+08
 
   -0.16913E+08         0.92831E+05         0.00000E+00
    0.92831E+05        -0.44725E+08         0.00000E+00
    0.00000E+00         0.00000E+00        -0.16390E+08
 
   -0.16821E+08         0.22139E+06         0.00000E+00
    0.22139E+06        -0.44761E+08         0.00000E+00
    0.00000E+00         0.00000E+00        -0.16528E+08
 
   -0.16748E+08         0.36665E+06         0.00000E+00
    0.36665E+06        -0.44800E+08         0.00000E+00
    0.00000E+00         0.00000E+00        -0.16658E+08
 
   -0.16699E+08         0.52934E+06         0.00000E+00
    0.52934E+06        -0.44841E+08         0.00000E+00
    0.00000E+00         0.00000E+00        -0.16773E+08
 
   -0.16684E+08         0.71060E+06         0.00000E+00
    0.71060E+06        -0.44885E+08         0.00000E+00
    0.00000E+00         0.00000E+00        -0.16864E+08
 
   -0.16716E+08         0.90953E+06         0.00000E+00
    0.90953E+06        -0.44927E+08         0.00000E+00
    0.00000E+00         0.00000E+00        -0.16914E+08
 
   -0.16809E+08         0.11200E+07         0.00000E+00
    0.11200E+07        -0.44960E+08         0.00000E+00
    0.00000E+00         0.00000E+00        -0.16899E+08
 
   -0.18657E+08        -0.72034E+05         0.00000E+00
   -0.72034E+05        -0.45113E+08         0.00000E+00
    0.00000E+00         0.00000E+00        -0.15372E+08
 
   -0.18497E+08        -0.17853E+06         0.00000E+00
   -0.17853E+06        -0.45126E+08         0.00000E+00
    0.00000E+00         0.00000E+00        -0.15513E+08
 
   -0.18330E+08        -0.24235E+06         0.00000E+00
   -0.24235E+06        -0.45147E+08         0.00000E+00
    0.00000E+00         0.00000E+00        -0.15671E+08
 
   -0.18161E+08        -0.26657E+06         0.00000E+00
   -0.26657E+06        -0.45171E+08         0.00000E+00
    0.00000E+00         0.00000E+00        -0.15839E+08
 
   -0.17993E+08        -0.25490E+06         0.00000E+00
   -0.25490E+06        -0.45196E+08         0.00000E+00
    0.00000E+00         0.00000E+00        -0.16008E+08
 
   -0.17831E+08        -0.21205E+06         0.00000E+00
   -0.21205E+06        -0.45219E+08         0.00000E+00
    0.00000E+00         0.00000E+00        -0.16175E+08
 
   -0.17679E+08        -0.14295E+06         0.00000E+00
   -0.14295E+06        -0.45242E+08         0.00000E+00
    0.00000E+00         0.00000E+00        -0.16336E+08
 
   -0.17539E+08        -0.52134E+05         0.00000E+00
   -0.52134E+05        -0.45267E+08         0.00000E+00
    0.00000E+00         0.00000E+00        -0.16492E+08
 
   -0.17414E+08         0.56904E+05         0.00000E+00
    0.56904E+05        -0.45294E+08         0.00000E+00
    0.00000E+00         0.00000E+00        -0.16643E+08
 
   -0.17305E+08         0.18217E+06         0.00000E+00
    0.18217E+06        -0.45326E+08         0.00000E+00
    0.00000E+00         0.00000E+00        -0.16790E+08
 
   -0.17214E+08         0.32330E+06         0.00000E+00
    0.32330E+06        -0.45364E+08         0.00000E+00
    0.00000E+00         0.00000E+00        -0.16932E+08
 
   -0.17146E+08         0.48185E+06         0.00000E+00
    0.48185E+06        -0.45408E+08         0.00000E+00
    0.00000E+00         0.00000E+00        -0.17067E+08
 
   -0.17111E+08         0.66091E+06         0.00000E+00
    0.66091E+06        -0.45458E+08         0.00000E+00
    0.00000E+00         0.00000E+00        -0.17186E+08
 
   -0.17125E+08         0.86302E+06         0.00000E+00
    0.86302E+06        -0.45513E+08         0.00000E+00
    0.00000E+00         0.00000E+00        -0.17268E+08
 
   -0.17210E+08         0.10851E+07         0.00000E+00
    0.10851E+07        -0.45563E+08         0.00000E+00
    0.00000E+00         0.00000E+00        -0.17285E+08
 
   -0.19430E+08        -0.79976E+05         0.00000E+00
   -0.79976E+05        -0.45750E+08         0.00000E+00
    0.00000E+00         0.00000E+00        -0.15526E+08
 
   -0.19223E+08        -0.19726E+06         0.00000E+00
   -0.19726E+06        -0.45761E+08         0.00000E+00
    0.00000E+00         0.00000E+00        -0.15694E+08
 
   -0.19012E+08        -0.26605E+06         0.00000E+00
   -0.26605E+06        -0.45778E+08         0.00000E+00
    0.00000E+00         0.00000E+00        -0.15876E+08
 
   -0.18803E+08        -0.29093E+06         0.00000E+00
   -0.29093E+06        -0.45794E+08         0.00000E+00
    0.00000E+00         0.00000E+00        -0.16060E+08
 
   -0.18600E+08        -0.27786E+06         0.00000E+00
   -0.27786E+06        -0.45807E+08         0.00000E+00
    0.00000E+00         0.00000E+00        -0.16239E+08
 
   -0.18409E+08        -0.23374E+06         0.00000E+00
   -0.23374E+06        -0.45817E+08         0.00000E+00
    0.00000E+00         0.00000E+00        -0.16410E+08
 
   -0.18233E+08        -0.16517E+06         0.00000E+00
   -0.16517E+06        -0.45827E+08         0.00000E+00
    0.00000E+00         0.00000E+00        -0.16572E+08
 
   -0.18074E+08        -0.77337E+05         0.00000E+00
   -0.77337E+05        -0.45840E+08         0.00000E+00
    0.00000E+00         0.00000E+00        -0.16727E+08
 
   -0.17931E+08         0.26599E+05         0.00000E+00
    0.26599E+05        -0.45859E+08         0.00000E+00
    0.00000E+00         0.00000E+00        -0.16879E+08
 
   -0.17806E+08         0.14532E+06         0.00000E+00
    0.14532E+06        -0.45886E+08         0.00000E+00
    0.00000E+00         0.00000E+00        -0.17031E+08
 
   -0.17699E+08         0.27904E+06         0.00000E+00
    0.27904E+06        -0.45923E+08         0.00000E+00
    0.00000E+00         0.00000E+00        -0.17184E+08
 
   -0.17611E+08         0.42957E+06         0.00000E+00
    0.42957E+06        -0.45969E+08         0.00000E+00
    0.00000E+00         0.00000E+00        -0.17338E+08
 
   -0.17551E+08         0.60126E+06         0.00000E+00
    0.60126E+06        -0.46025E+08         0.00000E+00
    0.00000E+00         0.00000E+00        -0.17484E+08
 
   -0.17540E+08         0.80066E+06         0.00000E+00
    0.80066E+06        -0.46091E+08         0.00000E+00
    0.00000E+00         0.00000E+00        -0.17605E+08
 
   -0.17609E+08         0.10324E+07         0.00000E+00
    0.10324E+07        -0.46160E+08         0.00000E+00
    0.00000E+00         0.00000E+00        -0.17661E+08
 
   -0.20226E+08        -0.87536E+05         0.00000E+00
   -0.87536E+05        -0.46396E+08         0.00000E+00
    0.00000E+00         0.00000E+00        -0.15687E+08
 
   -0.19964E+08        -0.21321E+06         0.00000E+00
   -0.21321E+06        -0.46406E+08         0.00000E+00
    0.00000E+00         0.00000E+00        -0.15884E+08
 
   -0.19703E+08        -0.28315E+06         0.00000E+00
   -0.28315E+06        -0.46416E+08         0.00000E+00
    0.00000E+00         0.00000E+00        -0.16088E+08
 
   -0.19451E+08        -0.30467E+06         0.00000E+00
   -0.30467E+06        -0.46421E+08         0.00000E+00
    0.00000E+00         0.00000E+00        -0.16287E+08
 
   -0.19214E+08        -0.28735E+06         0.00000E+00
   -0.28735E+06        -0.46420E+08         0.00000E+00
    0.00000E+00         0.00000E+00        -0.16471E+08
 
   -0.18996E+08        -0.24112E+06         0.00000E+00
   -0.24112E+06        -0.46414E+08         0.00000E+00
    0.00000E+00         0.00000E+00        -0.16639E+08
 
   -0.18799E+08        -0.17426E+06         0.00000E+00
   -0.17426E+06        -0.46409E+08         0.00000E+00
    0.00000E+00         0.00000E+00        -0.16795E+08
 
   -0.18624E+08        -0.92061E+05         0.00000E+00
   -0.92061E+05        -0.46408E+08         0.00000E+00
    0.00000E+00         0.00000E+00        -0.16945E+08
 
   -0.18467E+08         0.31443E+04         0.00000E+00
    0.31443E+04        -0.46418E+08         0.00000E+00
    0.00000E+00         0.00000E+00        -0.17094E+08
 
   -0.18327E+08         0.11132E+06         0.00000E+00
    0.11132E+06        -0.46439E+08         0.00000E+00
    0.00000E+00         0.00000E+00        -0.17248E+08
 
   -0.18203E+08         0.23382E+06         0.00000E+00
    0.23382E+06        -0.46474E+08         0.00000E+00
    0.00000E+00         0.00000E+00        -0.17411E+08
 
   -0.18096E+08         0.37320E+06         0.00000E+00
    0.37320E+06        -0.46524E+08         0.00000E+00
    0.00000E+00         0.00000E+00        -0.17583E+08
 
   -0.18011E+08         0.53389E+06         0.00000E+00
    0.53389E+06        -0.46586E+08         0.00000E+00
    0.00000E+00         0.00000E+00        -0.17758E+08
 
   -0.17965E+08         0.72380E+06         0.00000E+00
    0.72380E+06        -0.46661E+08         0.00000E+00
    0.00000E+00         0.00000E+00        -0.17920E+08
 
   -0.18008E+08         0.95140E+06         0.00000E+00
    0.95140E+06        -0.46748E+08         0.00000E+00
    0.00000E+00         0.00000E+00        -0.18022E+08
 
   -0.21040E+08        -0.94809E+05         0.00000E+00
   -0.94809E+05        -0.47049E+08         0.00000E+00
    0.00000E+00         0.00000E+00        -0.15856E+08
 
   -0.20714E+08        -0.22537E+06         0.00000E+00
   -0.22537E+06        -0.47056E+08         0.00000E+00
    0.00000E+00         0.00000E+00        -0.16084E+08
 
   -0.20398E+08        -0.29077E+06         0.00000E+00
   -0.29077E+06        -0.47058E+08         0.00000E+00
    0.00000E+00         0.00000E+00        -0.16310E+08
 
   -0.20101E+08        -0.30376E+06         0.00000E+00
   -0.30376E+06        -0.47048E+08         0.00000E+00
    0.00000E+00         0.00000E+00        -0.16517E+08
 
   -0.19831E+08        -0.27955E+06         0.00000E+00
   -0.27955E+06        -0.47027E+08         0.00000E+00
    0.00000E+00         0.00000E+00        -0.16698E+08
 
   -0.19590E+08        -0.23151E+06         0.00000E+00
   -0.23151E+06        -0.47003E+08         0.00000E+00
    0.00000E+00         0.00000E+00        -0.16856E+08
 
   -0.19379E+08        -0.16856E+06         0.00000E+00
   -0.16856E+06        -0.46981E+08         0.00000E+00
    0.00000E+00         0.00000E+00        -0.17001E+08
 
   -0.19191E+08        -0.95113E+05         0.00000E+00
   -0.95113E+05        -0.46967E+08         0.00000E+00
    0.00000E+00         0.00000E+00        -0.17140E+08
 
   -0.19023E+08        -0.12332E+05         0.00000E+00
   -0.12332E+05        -0.46966E+08         0.00000E+00
    0.00000E+00         0.00000E+00        -0.17282E+08
 
   -0.18870E+08         0.80816E+05         0.00000E+00
    0.80816E+05        -0.46981E+08         0.00000E+00
    0.00000E+00         0.00000E+00        -0.17436E+08
 
   -0.18730E+08         0.18723E+06         0.00000E+00
    0.18723E+06        -0.47015E+08         0.00000E+00
    0.00000E+00         0.00000E+00        -0.17606E+08
 
   -0.18604E+08         0.31103E+06         0.00000E+00
    0.31103E+06        -0.47068E+08         0.00000E+00
    0.00000E+00         0.00000E+00        -0.17796E+08
 
   -0.18492E+08         0.45694E+06         0.00000E+00
    0.45694E+06        -0.47140E+08         0.00000E+00
    0.00000E+00         0.00000E+00        -0.18002E+08
 
   -0.18410E+08         0.63312E+06         0.00000E+00
    0.63312E+06        -0.47227E+08         0.00000E+00
    0.00000E+00         0.00000E+00        -0.18211E+08
 
   -0.18407E+08         0.85609E+06         0.00000E+00
    0.85609E+06        -0.47326E+08         0.00000E+00
    0.00000E+00         0.00000E+00        -0.18369E+08
 
   -0.21868E+08        -0.10183E+06         0.00000E+00
   -0.10183E+06        -0.47707E+08         0.00000E+00
    0.00000E+00         0.00000E+00        -0.16032E+08
 
   -0.21465E+08        -0.23118E+06         0.00000E+00
   -0.23118E+06        -0.47709E+08         0.00000E+00
    0.00000E+00         0.00000E+00        -0.16295E+08
 
   -0.21087E+08        -0.28344E+06         0.00000E+00
   -0.28344E+06        -0.47696E+08         0.00000E+00
    0.00000E+00         0.00000E+00        -0.16538E+08
 
   -0.20746E+08        -0.28229E+06         0.00000E+00
   -0.28229E+06        -0.47663E+08         0.00000E+00
    0.00000E+00         0.00000E+00        -0.16742E+08
 
   -0.20449E+08        -0.25069E+06         0.00000E+00
   -0.25069E+06        -0.47620E+08         0.00000E+00
    0.00000E+00         0.00000E+00        -0.16910E+08
 
   -0.20193E+08        -0.20356E+06         0.00000E+00
   -0.20356E+06        -0.47575E+08         0.00000E+00
    0.00000E+00         0.00000E+00        -0.17052E+08
 
   -0.19972E+08        -0.14792E+06         0.00000E+00
   -0.14792E+06        -0.47537E+08         0.00000E+00
    0.00000E+00         0.00000E+00        -0.17180E+08
 
   -0.19777E+08        -0.86365E+05         0.00000E+00
   -0.86365E+05        -0.47511E+08         0.00000E+00
    0.00000E+00         0.00000E+00        -0.17307E+08
 
   -0.19601E+08        -0.19154E+05         0.00000E+00
   -0.19154E+05        -0.47501E+08         0.00000E+00
    0.00000E+00         0.00000E+00        -0.17440E+08
 
   -0.19438E+08         0.55208E+05         0.00000E+00
    0.55208E+05        -0.47509E+08         0.00000E+00
    0.00000E+00         0.00000E+00        -0.17589E+08
 
   -0.19284E+08         0.14021E+06         0.00000E+00
    0.14021E+06        -0.47540E+08         0.00000E+00
    0.00000E+00         0.00000E+00        -0.17762E+08
 
   -0.19137E+08         0.24175E+06         0.00000E+00
    0.24175E+06        -0.47596E+08         0.00000E+00
    0.00000E+00         0.00000E+00        -0.17967E+08
 
   -0.18998E+08         0.36802E+06         0.00000E+00
    0.36802E+06        -0.47678E+08         0.00000E+00
    0.00000E+00         0.00000E+00        -0.18206E+08
 
   -0.18872E+08         0.52879E+06         0.00000E+00
    0.52879E+06        -0.47780E+08         0.00000E+00
    0.00000E+00         0.00000E+00        -0.18468E+08
 
   -0.18806E+08         0.74294E+06         0.00000E+00
    0.74294E+06        -0.47895E+08         0.00000E+00
    0.00000E+00         0.00000E+00        -0.18704E+08
 
   -0.22704E+08        -0.10811E+06         0.00000E+00
   -0.10811E+06        -0.48366E+08         0.00000E+00
    0.00000E+00         0.00000E+00        -0.16219E+08
 
   -0.22204E+08        -0.22384E+06         0.00000E+00
   -0.22384E+06        -0.48357E+08         0.00000E+00
    0.00000E+00         0.00000E+00        -0.16516E+08
 
   -0.21759E+08        -0.25081E+06         0.00000E+00
   -0.25081E+06        -0.48317E+08         0.00000E+00
    0.00000E+00         0.00000E+00        -0.16762E+08
 
   -0.21382E+08        -0.23329E+06         0.00000E+00
   -0.23329E+06        -0.48252E+08         0.00000E+00
    0.00000E+00         0.00000E+00        -0.16948E+08
 
   -0.21069E+08        -0.19905E+06         0.00000E+00
   -0.19905E+06        -0.48183E+08         0.00000E+00
    0.00000E+00         0.00000E+00        -0.17093E+08
 
   -0.20807E+08        -0.15821E+06         0.00000E+00
   -0.15821E+06        -0.48121E+08         0.00000E+00
    0.00000E+00         0.00000E+00        -0.17215E+08
 
   -0.20582E+08        -0.11405E+06         0.00000E+00
   -0.11405E+06        -0.48070E+08         0.00000E+00
    0.00000E+00         0.00000E+00        -0.17327E+08
 
   -0.20383E+08        -0.67397E+05         0.00000E+00
   -0.67397E+05        -0.48035E+08         0.00000E+00
    0.00000E+00         0.00000E+00        -0.17440E+08
 
   -0.20203E+08        -0.17899E+05         0.00000E+00
   -0.17899E+05        -0.48018E+08         0.00000E+00
    0.00000E+00         0.00000E+00        -0.17563E+08
 
   -0.20034E+08         0.35662E+05         0.00000E+00
    0.35662E+05        -0.48021E+08         0.00000E+00
    0.00000E+00         0.00000E+00        -0.17705E+08
 
   -0.19869E+08         0.95923E+05         0.00000E+00
    0.95923E+05        -0.48047E+08         0.00000E+00
    0.00000E+00         0.00000E+00        -0.17877E+08
 
   -0.19703E+08         0.16858E+06         0.00000E+00
    0.16858E+06        -0.48101E+08         0.00000E+00
    0.00000E+00         0.00000E+00        -0.18089E+08
 
   -0.19531E+08         0.26543E+06         0.00000E+00
    0.26543E+06        -0.48188E+08         0.00000E+00
    0.00000E+00         0.00000E+00        -0.18354E+08
 
   -0.19358E+08         0.40445E+06         0.00000E+00
    0.40445E+06        -0.48313E+08         0.00000E+00
    0.00000E+00         0.00000E+00        -0.18680E+08
 
   -0.19209E+08         0.60170E+06         0.00000E+00
    0.60170E+06        -0.48456E+08         0.00000E+00
    0.00000E+00         0.00000E+00        -0.19026E+08
 
   -0.23533E+08        -0.10993E+06         0.00000E+00
   -0.10993E+06        -0.49020E+08         0.00000E+00
    0.00000E+00         0.00000E+00        -0.16415E+08
 
   -0.22912E+08        -0.18501E+06         0.00000E+00
   -0.18501E+06        -0.48981E+08         0.00000E+00
    0.00000E+00         0.00000E+00        -0.16737E+08
 
   -0.22408E+08        -0.17805E+06         0.00000E+00
   -0.17805E+06        -0.48890E+08         0.00000E+00
    0.00000E+00         0.00000E+00        -0.16956E+08
 
   -0.22015E+08        -0.15441E+06         0.00000E+00
   -0.15441E+06        -0.48793E+08         0.00000E+00
    0.00000E+00         0.00000E+00        -0.17109E+08
 
   -0.21698E+08        -0.12732E+06         0.00000E+00
   -0.12732E+06        -0.48704E+08         0.00000E+00
    0.00000E+00         0.00000E+00        -0.17228E+08
 
   -0.21434E+08        -0.99312E+05         0.00000E+00
   -0.99312E+05        -0.48630E+08         0.00000E+00
    0.00000E+00         0.00000E+00        -0.17332E+08
 
   -0.21209E+08        -0.70806E+05         0.00000E+00
   -0.70806E+05        -0.48573E+08         0.00000E+00
    0.00000E+00         0.00000E+00        -0.17431E+08
 
   -0.21010E+08        -0.41541E+05         0.00000E+00
   -0.41541E+05        -0.48533E+08         0.00000E+00
    0.00000E+00         0.00000E+00        -0.17534E+08
 
   -0.20829E+08        -0.11153E+05         0.00000E+00
   -0.11153E+05        -0.48513E+08         0.00000E+00
    0.00000E+00         0.00000E+00        -0.17650E+08
 
   -0.20657E+08         0.21122E+05         0.00000E+00
    0.21122E+05        -0.48514E+08         0.00000E+00
    0.00000E+00         0.00000E+00        -0.17786E+08
 
   -0.20486E+08         0.56566E+05         0.00000E+00
    0.56566E+05        -0.48538E+08         0.00000E+00
    0.00000E+00         0.00000E+00        -0.17953E+08
 
   -0.20306E+08         0.98401E+05         0.00000E+00
    0.98401E+05        -0.48589E+08         0.00000E+00
    0.00000E+00         0.00000E+00        -0.18164E+08
 
   -0.20105E+08         0.15507E+06         0.00000E+00
    0.15507E+06        -0.48674E+08         0.00000E+00
    0.00000E+00         0.00000E+00        -0.18442E+08
 
   -0.19869E+08         0.24971E+06         0.00000E+00
    0.24971E+06        -0.48805E+08         0.00000E+00
    0.00000E+00         0.00000E+00        -0.18822E+08
 
   -0.19614E+08         0.43254E+06         0.00000E+00
    0.43254E+06        -0.49006E+08         0.00000E+00
    0.00000E+00         0.00000E+00        -0.19331E+08
 
   -0.24323E+08        -0.80697E+05         0.00000E+00
   -0.80697E+05        -0.49640E+08         0.00000E+00
    0.00000E+00         0.00000E+00        -0.16609E+08
 
   -0.23565E+08        -0.78060E+05         0.00000E+00
   -0.78060E+05        -0.49508E+08         0.00000E+00
    0.00000E+00         0.00000E+00        -0.16896E+08
 
   -0.23048E+08        -0.64971E+05         0.00000E+00
   -0.64971E+05        -0.49378E+08         0.00000E+00
    0.00000E+00         0.00000E+00        -0.17070E+08
 
   -0.22655E+08        -0.54014E+05         0.00000E+00
   -0.54014E+05        -0.49264E+08         0.00000E+00
    0.00000E+00         0.00000E+00        -0.17197E+08
 
   -0.22340E+08        -0.43687E+05         0.00000E+00
   -0.43687E+05        -0.49169E+08         0.00000E+00
    0.00000E+00         0.00000E+00        -0.17301E+08
 
   -0.22078E+08        -0.33716E+05         0.00000E+00
   -0.33716E+05        -0.49093E+08         0.00000E+00
    0.00000E+00         0.00000E+00        -0.17395E+08
 
   -0.21855E+08        -0.23828E+05         0.00000E+00
   -0.23828E+05        -0.49036E+08         0.00000E+00
    0.00000E+00         0.00000E+00        -0.17487E+08
 
   -0.21658E+08        -0.13827E+05         0.00000E+00
   -0.13827E+05        -0.48999E+08         0.00000E+00
    0.00000E+00         0.00000E+00        -0.17587E+08
 
   -0.21477E+08        -0.35368E+04         0.00000E+00
   -0.35368E+04        -0.48983E+08         0.00000E+00
    0.00000E+00         0.00000E+00        -0.17700E+08
 
   -0.21306E+08         0.72943E+04         0.00000E+00
    0.72943E+04        -0.48987E+08         0.00000E+00
    0.00000E+00         0.00000E+00        -0.17834E+08
 
   -0.21133E+08         0.18993E+05         0.00000E+00
    0.18993E+05        -0.49015E+08         0.00000E+00
    0.00000E+00         0.00000E+00        -0.17999E+08
 
   -0.20948E+08         0.32338E+05         0.00000E+00
    0.32338E+05        -0.49068E+08         0.00000E+00
    0.00000E+00         0.00000E+00        -0.18209E+08
 
   -0.20732E+08         0.49718E+05         0.00000E+00
    0.49718E+05        -0.49154E+08         0.00000E+00
    0.00000E+00         0.00000E+00        -0.18490E+08
 
   -0.20449E+08         0.80364E+05         0.00000E+00
    0.80364E+05        -0.49290E+08         0.00000E+00
    0.00000E+00         0.00000E+00        -0.18901E+08
 
   -0.20019E+08         0.17037E+06         0.00000E+00
    0.17037E+06        -0.49515E+08         0.00000E+00
    0.00000E+00         0.00000E+00        -0.19587E+08
 
TENSORS stresstot double 
   -0.33784E+08         0.25154E+04         0.00000E+00
    0.25154E+04        -0.59995E+08         0.00000E+00
    0.00000E+00         0.00000E+00        -0.35488E+08
 
   -0.33688E+08         0.76654E+04         0.00000E+00
    0.76654E+04        -0.59985E+08         0.00000E+00
    0.00000E+00         0.00000E+00        -0.35586E+08
 
   -0.33609E+08         0.12678E+05         0.00000E+00
    0.12678E+05        -0.59965E+08         0.00000E+00
    0.00000E+00         0.00000E+00        -0.35649E+08
 
   -0.33553E+08         0.17137E+05         0.00000E+00
    0.17137E+05        -0.59935E+08         0.00000E+00
    0.00000E+00         0.00000E+00        -0.35670E+08
 
   -0.33526E+08         0.20635E+05         0.00000E+00
    0.20635E+05        -0.59898E+08         0.00000E+00
    0.00000E+00         0.00000E+00        -0.35644E+08
 
   -0.33531E+08         0.23031E+05         0.00000E+00
    0.23031E+05        -0.59855E+08         0.00000E+00
    0.00000E+00         0.00000E+00        -0.35571E+08
 
   -0.33564E+08         0.24667E+05         0.00000E+00
    0.24667E+05        -0.59808E+08         0.00000E+00
    0.00000E+00         0.00000E+00        -0.35459E+08
 
   -0.33620E+08         0.25800E+05         0.00000E+00
    0.25800E+05        -0.59758E+08         0.00000E+00
    0.00000E+00         0.00000E+00        -0.35316E+08
 
   -0.33693E+08         0.26797E+05         0.00000E+00
    0.26797E+05        -0.59706E+08         0.00000E+00
    0.00000E+00         0.00000E+00        -0.35155E+08
 
   -0.33774E+08         0.27947E+05         0.00000E+00
    0.27947E+05        -0.59652E+08         0.00000E+00
    0.00000E+00         0.00000E+00        -0.34984E+08
 
   -0.33855E+08         0.29400E+05         0.00000E+00
    0.29400E+05        -0.59595E+08         0.00000E+00
    0.00000E+00         0.00000E+00        -0.34812E+08
 
   -0.33933E+08         0.31194E+05         0.00000E+00
    0.31194E+05        -0.59535E+08         0.00000E+00
    0.00000E+00         0.00000E+00        -0.34643E+08
 
   -0.34002E+08         0.33264E+05         0.00000E+00
    0.33264E+05        -0.59470E+08         0.00000E+00
    0.00000E+00         0.00000E+00        -0.34481E+08
 
   -0.34059E+08         0.35514E+05         0.00000E+00
    0.35514E+05        -0.59402E+08         0.00000E+00
    0.00000E+00         0.00000E+00        -0.34329E+08
 
   -0.34102E+08         0.37824E+05         0.00000E+00
    0.37824E+05        -0.59328E+08         0.00000E+00
    0.00000E+00         0.00000E+00        -0.34187E+08
 
   -0.33774E+08         0.74771E+04         0.00000E+00
    0.74771E+04        -0.59995E+08         0.00000E+00
    0.00000E+00         0.00000E+00        -0.35472E+08
 
   -0.33677E+08         0.22899E+05         0.00000E+00
    0.22899E+05        -0.59985E+08         0.00000E+00
    0.00000E+00         0.00000E+00        -0.35571E+08
 
   -0.33599E+08         0.37924E+05         0.00000E+00
    0.37924E+05        -0.59965E+08         0.00000E+00
    0.00000E+00         0.00000E+00        -0.35633E+08
 
   -0.33545E+08         0.51064E+05         0.00000E+00
    0.51064E+05        -0.59936E+08         0.00000E+00
    0.00000E+00         0.00000E+00        -0.35653E+08
 
   -0.33521E+08         0.61327E+05         0.00000E+00
    0.61327E+05        -0.59900E+08         0.00000E+00
    0.00000E+00         0.00000E+00        -0.35625E+08
 
   -0.33527E+08         0.68340E+05         0.00000E+00
    0.68340E+05        -0.59858E+08         0.00000E+00
    0.00000E+00         0.00000E+00        -0.35553E+08
 
   -0.33561E+08         0.73177E+05         0.00000E+00
    0.73177E+05        -0.59813E+08         0.00000E+00
    0.00000E+00         0.00000E+00        -0.35442E+08
 
   -0.33618E+08         0.76604E+05         0.00000E+00
    0.76604E+05        -0.59764E+08         0.00000E+00
    0.00000E+00         0.00000E+00        -0.35301E+08
 
   -0.33691E+08         0.79704E+05         0.00000E+00
    0.79704E+05        -0.59714E+08         0.00000E+00
    0.00000E+00         0.00000E+00        -0.35141E+08
 
   -0.33771E+08         0.83303E+05         0.00000E+00
    0.83303E+05        -0.59661E+08         0.00000E+00
    0.00000E+00         0.00000E+00        -0.34973E+08
 
   -0.33852E+08         0.87805E+05         0.00000E+00
    0.87805E+05        -0.59605E+08         0.00000E+00
    0.00000E+00         0.00000E+00        -0.34803E+08
 
   -0.33929E+08         0.93301E+05         0.00000E+00
    0.93301E+05        -0.59545E+08         0.00000E+00
    0.00000E+00         0.00000E+00        -0.34636E+08
 
   -0.33997E+08         0.99605E+05         0.00000E+00
    0.99605E+05        -0.59481E+08         0.00000E+00
    0.00000E+00         0.00000E+00        -0.34476E+08
 
   -0.34054E+08         0.10644E+06         0.00000E+00
    0.10644E+06        -0.59413E+08         0.00000E+00
    0.00000E+00         0.00000E+00        -0.34324E+08
 
   -0.34097E+08         0.11345E+06         0.00000E+00
    0.11345E+06        -0.59340E+08         0.00000E+00
    0.00000E+00         0.00000E+00        -0.34183E+08
 
   -0.33754E+08         0.12429E+05         0.00000E+00
    0.12429E+05        -0.59995E+08         0.00000E+00
    0.00000E+00         0.00000E+00        -0.35440E+08
 
   -0.33657E+08         0.37997E+05         0.00000E+00
    0.37997E+05        -0.59985E+08         0.00000E+00
    0.00000E+00         0.00000E+00        -0.35539E+08
 
   -0.33580E+08         0.62536E+05         0.00000E+00
    0.62536E+05        -0.59966E+08         0.00000E+00
    0.00000E+00         0.00000E+00        -0.35601E+08
 
   -0.33529E+08         0.83851E+05         0.00000E+00
    0.83851E+05        -0.59938E+08         0.00000E+00
    0.00000E+00         0.00000E+00        -0.35619E+08
 
   -0.33509E+08         0.10020E+06         0.00000E+00
    0.10020E+06        -0.59904E+08         0.00000E+00
    0.00000E+00         0.00000E+00        -0.35589E+08
 
   -0.33519E+08         0.11141E+06         0.00000E+00
    0.11141E+06        -0.59865E+08         0.00000E+00
    0.00000E+00         0.00000E+00        -0.35517E+08
 
   -0.33556E+08         0.11924E+06         0.00000E+00
    0.11924E+06        -0.59822E+08         0.00000E+00
    0.00000E+00         0.00000E+00        -0.35407E+08
 
   -0.33614E+08         0.12508E+06         0.00000E+00
    0.12508E+06        -0.59777E+08         0.00000E+00
    0.00000E+00         0.00000E+00        -0.35270E+08
 
   -0.33687E+08         0.13062E+06         0.00000E+00
    0.13062E+06        -0.59729E+08         0.00000E+00
    0.00000E+00         0.00000E+00        -0.35115E+08
 
   -0.33766E+08         0.13710E+06         0.00000E+00
    0.13710E+06        -0.59679E+08         0.00000E+00
    0.00000E+00         0.00000E+00        -0.34952E+08
 
   -0.33845E+08         0.14505E+06         0.00000E+00
    0.14505E+06        -0.59624E+08         0.00000E+00
    0.00000E+00         0.00000E+00        -0.34786E+08
 
   -0.33921E+08         0.15457E+06         0.00000E+00
    0.15457E+06        -0.59566E+08         0.00000E+00
    0.00000E+00         0.00000E+00        -0.34622E+08
 
   -0.33989E+08         0.16539E+06         0.00000E+00
    0.16539E+06        -0.59503E+08         0.00000E+00
    0.00000E+00         0.00000E+00        -0.34464E+08
 
   -0.34045E+08         0.17705E+06         0.00000E+00
    0.17705E+06        -0.59436E+08         0.00000E+00
    0.00000E+00         0.00000E+00        -0.34314E+08
 
   -0.34088E+08         0.18896E+06         0.00000E+00
    0.18896E+06        -0.59363E+08         0.00000E+00
    0.00000E+00         0.00000E+00        -0.34174E+08
 
   -0.33723E+08         0.17418E+05         0.00000E+00
    0.17418E+05        -0.59995E+08         0.00000E+00
    0.00000E+00         0.00000E+00        -0.35394E+08
 
   -0.33627E+08         0.52807E+05         0.00000E+00
    0.52807E+05        -0.59985E+08         0.00000E+00
    0.00000E+00         0.00000E+00        -0.35492E+08
 
   -0.33552E+08         0.86140E+05         0.00000E+00
    0.86140E+05        -0.59967E+08         0.00000E+00
    0.00000E+00         0.00000E+00        -0.35552E+08
 
   -0.33507E+08         0.11452E+06         0.00000E+00
    0.11452E+06        -0.59941E+08         0.00000E+00
    0.00000E+00         0.00000E+00        -0.35566E+08
 
   -0.33493E+08         0.13584E+06         0.00000E+00
    0.13584E+06        -0.59910E+08         0.00000E+00
    0.00000E+00         0.00000E+00        -0.35535E+08
 
   -0.33508E+08         0.15075E+06         0.00000E+00
    0.15075E+06        -0.59875E+08         0.00000E+00
    0.00000E+00         0.00000E+00        -0.35463E+08
 
   -0.33548E+08         0.16136E+06         0.00000E+00
    0.16136E+06        -0.59837E+08         0.00000E+00
    0.00000E+00         0.00000E+00        -0.35357E+08
 
   -0.33608E+08         0.16991E+06         0.00000E+00
    0.16991E+06        -0.59797E+08         0.00000E+00
    0.00000E+00         0.00000E+00        -0.35225E+08
 
   -0.33679E+08         0.17846E+06         0.00000E+00
    0.17846E+06        -0.59753E+08         0.00000E+00
    0.00000E+00         0.00000E+00        -0.35077E+08
 
   -0.33757E+08         0.18845E+06         0.00000E+00
    0.18845E+06        -0.59705E+08         0.00000E+00
    0.00000E+00         0.00000E+00        -0.34920E+08
 
   -0.33835E+08         0.20045E+06         0.00000E+00
    0.20045E+06        -0.59653E+08         0.00000E+00
    0.00000E+00         0.00000E+00        -0.34760E+08
 
   -0.33909E+08         0.21450E+06         0.00000E+00
    0.21450E+06        -0.59597E+08         0.00000E+00
    0.00000E+00         0.00000E+00        -0.34601E+08
 
   -0.33975E+08         0.23026E+06         0.00000E+00
    0.23026E+06        -0.59535E+08         0.00000E+00
    0.00000E+00         0.00000E+00        -0.34447E+08
 
   -0.34031E+08         0.24710E+06         0.00000E+00
    0.24710E+06        -0.59469E+08         0.00000E+00
    0.00000E+00         0.00000E+00        -0.34299E+08
 
   -0.34074E+08         0.26416E+06         0.00000E+00
    0.26416E+06        -0.59396E+08         0.00000E+00
    0.00000E+00         0.00000E+00        -0.34160E+08
 
   -0.33683E+08         0.22294E+05         0.00000E+00
    0.22294E+05        -0.59994E+08         0.00000E+00
    0.00000E+00         0.00000E+00        -0.35331E+08
 
   -0.33587E+08         0.66987E+05         0.00000E+00
    0.66987E+05        -0.59986E+08         0.00000E+00
    0.00000E+00         0.00000E+00        -0.35430E+08
 
   -0.33517E+08         0.10820E+06         0.00000E+00
    0.10820E+06        -0.59969E+08         0.00000E+00
    0.00000E+00         0.00000E+00        -0.35487E+08
 
   -0.33480E+08         0.14202E+06         0.00000E+00
    0.14202E+06        -0.59946E+08         0.00000E+00
    0.00000E+00         0.00000E+00        -0.35496E+08
 
   -0.33473E+08         0.16701E+06         0.00000E+00
    0.16701E+06        -0.59919E+08         0.00000E+00
    0.00000E+00         0.00000E+00        -0.35462E+08
 
   -0.33494E+08         0.18497E+06         0.00000E+00
    0.18497E+06        -0.59890E+08         0.00000E+00
    0.00000E+00         0.00000E+00        -0.35391E+08
 
   -0.33538E+08         0.19828E+06         0.00000E+00
    0.19828E+06        -0.59858E+08         0.00000E+00
    0.00000E+00         0.00000E+00        -0.35290E+08
 
   -0.33598E+08         0.21006E+06         0.00000E+00
    0.21006E+06        -0.59823E+08         0.00000E+00
    0.00000E+00         0.00000E+00        -0.35166E+08
 
   -0.33669E+08         0.22236E+06         0.00000E+00
    0.22236E+06        -0.59783E+08         0.00000E+00
    0.00000E+00         0.00000E+00        -0.35026E+08
 
   -0.33744E+08         0.23662E+06         0.00000E+00
    0.23662E+06        -0.59740E+08         0.00000E+00
    0.00000E+00         0.00000E+00        -0.34878E+08
 
   -0.33820E+08         0.25338E+06         0.00000E+00
    0.25338E+06        -0.59691E+08         0.00000E+00
    0.00000E+00         0.00000E+00        -0.34725E+08
 
   -0.33891E+08         0.27261E+06         0.00000E+00
    0.27261E+06        -0.59637E+08         0.00000E+00
    0.00000E+00         0.00000E+00        -0.34573E+08
 
   -0.33956E+08         0.29384E+06         0.00000E+00
    0.29384E+06        -0.59577E+08         0.00000E+00
    0.00000E+00         0.00000E+00        -0.34423E+08
 
   -0.34011E+08         0.31624E+06         0.00000E+00
    0.31624E+06        -0.59511E+08         0.00000E+00
    0.00000E+00         0.00000E+00        -0.34278E+08
 
   -0.34054E+08         0.33879E+06         0.00000E+00
    0.33879E+06        -0.59440E+08         0.00000E+00
    0.00000E+00         0.00000E+00        -0.34140E+08
 
   -0.33633E+08         0.26984E+05         0.00000E+00
    0.26984E+05        -0.59995E+08         0.00000E+00
    0.00000E+00         0.00000E+00        -0.35254E+08
 
   -0.33539E+08         0.80153E+05         0.00000E+00
    0.80153E+05        -0.59986E+08         0.00000E+00
    0.00000E+00         0.00000E+00        -0.35350E+08
 
   -0.33476E+08         0.12758E+06         0.00000E+00
    0.12758E+06        -0.59972E+08         0.00000E+00
    0.00000E+00         0.00000E+00        -0.35402E+08
 
   -0.33448E+08         0.16509E+06         0.00000E+00
    0.16509E+06        -0.59953E+08         0.00000E+00
    0.00000E+00         0.00000E+00        -0.35407E+08
 
   -0.33450E+08         0.19263E+06         0.00000E+00
    0.19263E+06        -0.59932E+08         0.00000E+00
    0.00000E+00         0.00000E+00        -0.35372E+08
 
   -0.33478E+08         0.21285E+06         0.00000E+00
    0.21285E+06        -0.59910E+08         0.00000E+00
    0.00000E+00         0.00000E+00        -0.35303E+08
 
   -0.33524E+08         0.22924E+06         0.00000E+00
    0.22924E+06        -0.59884E+08         0.00000E+00
    0.00000E+00         0.00000E+00        -0.35209E+08
 
   -0.33584E+08         0.24485E+06         0.00000E+00
    0.24485E+06        -0.59854E+08         0.00000E+00
    0.00000E+00         0.00000E+00        -0.35094E+08
 
   -0.33653E+08         0.26169E+06         0.00000E+00
    0.26169E+06        -0.59820E+08         0.00000E+00
    0.00000E+00         0.00000E+00        -0.34964E+08
 
   -0.33726E+08         0.28103E+06         0.00000E+00
    0.28103E+06        -0.59781E+08         0.00000E+00
    0.00000E+00         0.00000E+00        -0.34825E+08
 
   -0.33799E+08         0.30332E+06         0.00000E+00
    0.30332E+06        -0.59736E+08         0.00000E+00
    0.00000E+00         0.00000E+00        -0.34682E+08
 
   -0.33868E+08         0.32841E+06         0.00000E+00
    0.32841E+06        -0.59685E+08         0.00000E+00
    0.00000E+00         0.00000E+00        -0.34537E+08
 
   -0.33931E+08         0.35567E+06         0.00000E+00
    0.35567E+06        -0.59627E+08         0.00000E+00
    0.00000E+00         0.00000E+00        -0.34392E+08
 
   -0.33986E+08         0.38413E+06         0.00000E+00
    0.38413E+06        -0.59563E+08         0.00000E+00
    0.00000E+00         0.00000E+00        -0.34251E+08
 
   -0.34029E+08         0.41291E+06         0.00000E+00
    0.41291E+06        -0.59493E+08         0.00000E+00
    0.00000E+00         0.00000E+00        -0.34115E+08
 
   -0.33574E+08         0.31300E+05         0.00000E+00
    0.31300E+05        -0.59995E+08         0.00000E+00
    0.00000E+00         0.00000E+00        -0.35160E+08
 
   -0.33484E+08         0.91701E+05         0.00000E+00
    0.91701E+05        -0.59988E+08         0.00000E+00
    0.00000E+00         0.00000E+00        -0.35254E+08
 
   -0.33431E+08         0.14312E+06         0.00000E+00
    0.14312E+06        -0.59977E+08         0.00000E+00
    0.00000E+00         0.00000E+00        -0.35299E+08
 
   -0.33414E+08         0.18239E+06         0.00000E+00
    0.18239E+06        -0.59964E+08         0.00000E+00
    0.00000E+00         0.00000E+00        -0.35299E+08
 
   -0.33426E+08         0.21129E+06         0.00000E+00
    0.21129E+06        -0.59950E+08         0.00000E+00
    0.00000E+00         0.00000E+00        -0.35263E+08
 
   -0.33459E+08         0.23391E+06         0.00000E+00
    0.23391E+06        -0.59934E+08         0.00000E+00
    0.00000E+00         0.00000E+00        -0.35199E+08
 
   -0.33506E+08         0.25384E+06         0.00000E+00
    0.25384E+06        -0.59915E+08         0.00000E+00
    0.00000E+00         0.00000E+00        -0.35113E+08
 
   -0.33566E+08         0.27388E+06         0.00000E+00
    0.27388E+06        -0.59892E+08         0.00000E+00
    0.00000E+00         0.00000E+00        -0.35008E+08
 
   -0.33633E+08         0.29598E+06         0.00000E+00
    0.29598E+06        -0.59863E+08         0.00000E+00
    0.00000E+00         0.00000E+00        -0.34890E+08
 
   -0.33703E+08         0.32119E+06         0.00000E+00
    0.32119E+06        -0.59829E+08         0.00000E+00
    0.00000E+00         0.00000E+00        -0.34763E+08
 
   -0.33772E+08         0.34979E+06         0.00000E+00
    0.34979E+06        -0.59788E+08         0.00000E+00
    0.00000E+00         0.00000E+00        -0.34629E+08
 
   -0.33839E+08         0.38142E+06         0.00000E+00
    0.38142E+06        -0.59740E+08         0.00000E+00
    0.00000E+00         0.00000E+00        -0.34492E+08
 
   -0.33900E+08         0.41535E+06         0.00000E+00
    0.41535E+06        -0.59685E+08         0.00000E+00
    0.00000E+00         0.00000E+00        -0.34354E+08
 
   -0.33954E+08         0.45068E+06         0.00000E+00
    0.45068E+06        -0.59623E+08         0.00000E+00
    0.00000E+00         0.00000E+00        -0.34218E+08
 
   -0.33998E+08         0.48588E+06         0.00000E+00
    0.48588E+06        -0.59554E+08         0.00000E+00
    0.00000E+00         0.00000E+00        -0.34084E+08
 
   -0.33507E+08         0.35017E+05         0.00000E+00
    0.35017E+05        -0.59995E+08         0.00000E+00
    0.00000E+00         0.00000E+00        -0.35051E+08
 
   -0.33425E+08         0.10055E+06         0.00000E+00
    0.10055E+06        -0.59990E+08         0.00000E+00
    0.00000E+00         0.00000E+00        -0.35139E+08
 
   -0.33384E+08         0.15340E+06         0.00000E+00
    0.15340E+06        -0.59984E+08         0.00000E+00
    0.00000E+00         0.00000E+00        -0.35177E+08
 
   -0.33381E+08         0.19263E+06         0.00000E+00
    0.19263E+06        -0.59978E+08         0.00000E+00
    0.00000E+00         0.00000E+00        -0.35171E+08
 
   -0.33400E+08         0.22266E+06         0.00000E+00
    0.22266E+06        -0.59971E+08         0.00000E+00
    0.00000E+00         0.00000E+00        -0.35136E+08
 
   -0.33436E+08         0.24796E+06         0.00000E+00
    0.24796E+06        -0.59962E+08         0.00000E+00
    0.00000E+00         0.00000E+00        -0.35078E+08
 
   -0.33485E+08         0.27182E+06         0.00000E+00
    0.27182E+06        -0.59950E+08         0.00000E+00
    0.00000E+00         0.00000E+00        -0.35002E+08
 
   -0.33543E+08         0.29686E+06         0.00000E+00
    0.29686E+06        -0.59933E+08         0.00000E+00
    0.00000E+00         0.00000E+00        -0.34910E+08
 
   -0.33607E+08         0.32488E+06         0.00000E+00
    0.32488E+06        -0.59911E+08         0.00000E+00
    0.00000E+00         0.00000E+00        -0.34804E+08
 
   -0.33673E+08         0.35667E+06         0.00000E+00
    0.35667E+06        -0.59881E+08         0.00000E+00
    0.00000E+00         0.00000E+00        -0.34689E+08
 
   -0.33739E+08         0.39227E+06         0.00000E+00
    0.39227E+06        -0.59845E+08         0.00000E+00
    0.00000E+00         0.00000E+00        -0.34567E+08
 
   -0.33803E+08         0.43122E+06         0.00000E+00
    0.43122E+06        -0.59801E+08         0.00000E+00
    0.00000E+00         0.00000E+00        -0.34439E+08
 
   -0.33862E+08         0.47267E+06         0.00000E+00
    0.47267E+06        -0.59749E+08         0.00000E+00
    0.00000E+00         0.00000E+00        -0.34309E+08
 
   -0.33915E+08         0.51522E+06         0.00000E+00
    0.51522E+06        -0.59689E+08         0.00000E+00
    0.00000E+00         0.00000E+00        -0.34177E+08
 
   -0.33960E+08         0.55774E+06         0.00000E+00
    0.55774E+06        -0.59622E+08         0.00000E+00
    0.00000E+00         0.00000E+00        -0.34046E+08
 
   -0.33435E+08         0.37756E+05         0.00000E+00
    0.37756E+05        -0.59997E+08         0.00000E+00
    0.00000E+00         0.00000E+00        -0.34925E+08
 
   -0.33363E+08         0.10530E+06         0.00000E+00
    0.10530E+06        -0.59995E+08         0.00000E+00
    0.00000E+00         0.00000E+00        -0.35005E+08
 
   -0.33339E+08         0.15695E+06         0.00000E+00
    0.15695E+06        -0.59995E+08         0.00000E+00
    0.00000E+00         0.00000E+00        -0.35031E+08
 
   -0.33346E+08         0.19550E+06         0.00000E+00
    0.19550E+06        -0.59995E+08         0.00000E+00
    0.00000E+00         0.00000E+00        -0.35022E+08
 
   -0.33372E+08         0.22678E+06         0.00000E+00
    0.22678E+06        -0.59995E+08         0.00000E+00
    0.00000E+00         0.00000E+00        -0.34990E+08
 
   -0.33411E+08         0.25492E+06         0.00000E+00
    0.25492E+06        -0.59994E+08         0.00000E+00
    0.00000E+00         0.00000E+00        -0.34941E+08
 
   -0.33459E+08         0.28302E+06         0.00000E+00
    0.28302E+06        -0.59988E+08         0.00000E+00
    0.00000E+00         0.00000E+00        -0.34876E+08
 
   -0.33514E+08         0.31356E+06         0.00000E+00
    0.31356E+06        -0.59978E+08         0.00000E+00
    0.00000E+00         0.00000E+00        -0.34797E+08
 
   -0.33574E+08         0.34803E+06         0.00000E+00
    0.34803E+06        -0.59961E+08         0.00000E+00
    0.00000E+00         0.00000E+00        -0.34706E+08
 
   -0.33636E+08         0.38702E+06         0.00000E+00
    0.38702E+06        -0.59938E+08         0.00000E+00
    0.00000E+00         0.00000E+00        -0.34605E+08
 
   -0.33698E+08         0.43040E+06         0.00000E+00
    0.43040E+06        -0.59906E+08         0.00000E+00
    0.00000E+00         0.00000E+00        -0.34495E+08
 
   -0.33759E+08         0.47741E+06         0.00000E+00
    0.47741E+06        -0.59867E+08         0.00000E+00
    0.00000E+00         0.00000E+00        -0.34378E+08
 
   -0.33816E+08         0.52693E+06         0.00000E+00
    0.52693E+06        -0.59818E+08         0.00000E+00
    0.00000E+00         0.00000E+00        -0.34255E+08
 
   -0.33869E+08         0.57769E+06         0.00000E+00
    0.57769E+06        -0.59761E+08         0.00000E+00
    0.00000E+00         0.00000E+00        -0.34129E+08
 
   -0.33915E+08         0.62795E+06         0.00000E+00
    0.62795E+06        -0.59696E+08         0.00000E+00
    0.00000E+00         0.00000E+00        -0.34001E+08
 
   -0.33358E+08         0.38675E+05         0.00000E+00
    0.38675E+05        -0.59999E+08         0.00000E+00
    0.00000E+00         0.00000E+00        -0.34780E+08
 
   -0.33304E+08         0.10475E+06         0.00000E+00
    0.10475E+06        -0.60001E+08         0.00000E+00
    0.00000E+00         0.00000E+00        -0.34845E+08
 
   -0.33296E+08         0.15344E+06         0.00000E+00
    0.15344E+06        -0.60006E+08         0.00000E+00
    0.00000E+00         0.00000E+00        -0.34861E+08
 
   -0.33312E+08         0.19118E+06         0.00000E+00
    0.19118E+06        -0.60014E+08         0.00000E+00
    0.00000E+00         0.00000E+00        -0.34851E+08
 
   -0.33342E+08         0.22362E+06         0.00000E+00
    0.22362E+06        -0.60021E+08         0.00000E+00
    0.00000E+00         0.00000E+00        -0.34826E+08
 
   -0.33381E+08         0.25471E+06         0.00000E+00
    0.25471E+06        -0.60027E+08         0.00000E+00
    0.00000E+00         0.00000E+00        -0.34786E+08
 
   -0.33427E+08         0.28734E+06         0.00000E+00
    0.28734E+06        -0.60028E+08         0.00000E+00
    0.00000E+00         0.00000E+00        -0.34735E+08
 
   -0.33479E+08         0.32370E+06         0.00000E+00
    0.32370E+06        -0.60025E+08         0.00000E+00
    0.00000E+00         0.00000E+00        -0.34671E+08
 
   -0.33534E+08         0.36509E+06         0.00000E+00
    0.36509E+06        -0.60015E+08         0.00000E+00
    0.00000E+00         0.00000E+00        -0.34596E+08
 
   -0.33591E+08         0.41187E+06         0.00000E+00
    0.41187E+06        -0.59997E+08         0.00000E+00
    0.00000E+00         0.00000E+00        -0.34509E+08
 
   -0.33649E+08         0.46361E+06         0.00000E+00
    0.46361E+06        -0.59971E+08         0.00000E+00
    0.00000E+00         0.00000E+00        -0.34413E+08
 
   -0.33706E+08         0.51945E+06         0.00000E+00
    0.51945E+06        -0.59936E+08         0.00000E+00
    0.00000E+00         0.00000E+00        -0.34307E+08
 
   -0.33762E+08         0.57801E+06         0.00000E+00
    0.57801E+06        -0.59892E+08         0.00000E+00
    0.00000E+00         0.00000E+00        -0.34193E+08
 
   -0.33814E+08         0.63754E+06         0.00000E+00
    0.63754E+06        -0.59838E+08         0.00000E+00
    0.00000E+00         0.00000E+00        -0.34073E+08
 
   -0.33861E+08         0.69627E+06         0.00000E+00
    0.69627E+06        -0.59775E+08         0.00000E+00
    0.00000E+00         0.00000E+00        -0.33948E+08
 
   -0.33282E+08         0.37043E+05         0.00000E+00
    0.37043E+05        -0.60001E+08         0.00000E+00
    0.00000E+00         0.00000E+00        -0.34611E+08
 
   -0.33249E+08         0.98433E+05         0.00000E+00
    0.98433E+05        -0.60007E+08         0.00000E+00
    0.00000E+00         0.00000E+00        -0.34658E+08
 
   -0.33255E+08         0.14316E+06         0.00000E+00
    0.14316E+06        -0.60018E+08         0.00000E+00
    0.00000E+00         0.00000E+00        -0.34666E+08
 
   -0.33278E+08         0.17966E+06         0.00000E+00
    0.17966E+06        -0.60032E+08         0.00000E+00
    0.00000E+00         0.00000E+00        -0.34659E+08
 
   -0.33310E+08         0.21320E+06         0.00000E+00
    0.21320E+06        -0.60047E+08         0.00000E+00
    0.00000E+00         0.00000E+00        -0.34641E+08
 
   -0.33348E+08         0.24727E+06         0.00000E+00
    0.24727E+06        -0.60059E+08         0.00000E+00
    0.00000E+00         0.00000E+00        -0.34614E+08
 
   -0.33391E+08         0.28458E+06         0.00000E+00
    0.28458E+06        -0.60068E+08         0.00000E+00
    0.00000E+00         0.00000E+00        -0.34577E+08
 
   -0.33437E+08         0.32703E+06         0.00000E+00
    0.32703E+06        -0.60072E+08         0.00000E+00
    0.00000E+00         0.00000E+00        -0.34530E+08
 
   -0.33486E+08         0.37567E+06         0.00000E+00
    0.37567E+06        -0.60069E+08         0.00000E+00
    0.00000E+00         0.00000E+00        -0.34471E+08
 
   -0.33537E+08         0.43069E+06         0.00000E+00
    0.43069E+06        -0.60057E+08         0.00000E+00
    0.00000E+00         0.00000E+00        -0.34401E+08
 
   -0.33591E+08         0.49157E+06         0.00000E+00
    0.49157E+06        -0.60037E+08         0.00000E+00
    0.00000E+00         0.00000E+00        -0.34320E+08
 
   -0.33644E+08         0.55698E+06         0.00000E+00
    0.55698E+06        -0.60007E+08         0.00000E+00
    0.00000E+00         0.00000E+00        -0.34226E+08
 
   -0.33698E+08         0.62529E+06         0.00000E+00
    0.62529E+06        -0.59967E+08         0.00000E+00
    0.00000E+00         0.00000E+00        -0.34122E+08
 
   -0.33750E+08         0.69448E+06         0.00000E+00
    0.69448E+06        -0.59917E+08         0.00000E+00
    0.00000E+00         0.00000E+00        -0.34008E+08
 
   -0.33800E+08         0.76238E+06         0.00000E+00
    0.76238E+06        -0.59857E+08         0.00000E+00
    0.00000E+00         0.00000E+00        -0.33887E+08
 
   -0.33213E+08         0.32896E+05         0.00000E+00
    0.32896E+05        -0.60002E+08         0.00000E+00
    0.00000E+00         0.00000E+00        -0.34413E+08
 
   -0.33200E+08         0.86241E+05         0.00000E+00
    0.86241E+05        -0.60012E+08         0.00000E+00
    0.00000E+00         0.00000E+00        -0.34441E+08
 
   -0.33216E+08         0.12638E+06         0.00000E+00
    0.12638E+06        -0.60030E+08         0.00000E+00
    0.00000E+00         0.00000E+00        -0.34446E+08
 
   -0.33243E+08         0.16133E+06         0.00000E+00
    0.16133E+06        -0.60050E+08         0.00000E+00
    0.00000E+00         0.00000E+00        -0.34443E+08
 
   -0.33275E+08         0.19559E+06         0.00000E+00
    0.19559E+06        -0.60072E+08         0.00000E+00
    0.00000E+00         0.00000E+00        -0.34435E+08
 
   -0.33311E+08         0.23252E+06         0.00000E+00
    0.23252E+06        -0.60091E+08         0.00000E+00
    0.00000E+00         0.00000E+00        -0.34422E+08
 
   -0.33348E+08         0.27453E+06         0.00000E+00
    0.27453E+06        -0.60108E+08         0.00000E+00
    0.00000E+00         0.00000E+00        -0.34402E+08
 
   -0.33388E+08         0.32320E+06         0.00000E+00
    0.32320E+06        -0.60118E+08         0.00000E+00
    0.00000E+00         0.00000E+00        -0.34373E+08
 
   -0.33430E+08         0.37943E+06         0.00000E+00
    0.37943E+06        -0.60122E+08         0.00000E+00
    0.00000E+00         0.00000E+00        -0.34333E+08
 
   -0.33475E+08         0.44323E+06         0.00000E+00
    0.44323E+06        -0.60118E+08         0.00000E+00
    0.00000E+00         0.00000E+00        -0.34281E+08
 
   -0.33523E+08         0.51371E+06         0.00000E+00
    0.51371E+06        -0.60104E+08         0.00000E+00
    0.00000E+00         0.00000E+00        -0.34215E+08
 
   -0.33573E+08         0.58950E+06         0.00000E+00
    0.58950E+06        -0.60079E+08         0.00000E+00
    0.00000E+00         0.00000E+00        -0.34135E+08
 
   -0.33624E+08         0.66834E+06         0.00000E+00
    0.66834E+06        -0.60044E+08         0.00000E+00
    0.00000E+00         0.00000E+00        -0.34042E+08
 
   -0.33677E+08         0.74802E+06         0.00000E+00
    0.74802E+06        -0.59998E+08         0.00000E+00
    0.00000E+00         0.00000E+00        -0.33935E+08
 
   -0.33729E+08         0.82584E+06         0.00000E+00
    0.82584E+06        -0.59941E+08         0.00000E+00
    0.00000E+00         0.00000E+00        -0.33817E+08
 
   -0.33154E+08         0.26034E+05         0.00000E+00
    0.26034E+05        -0.60004E+08         0.00000E+00
    0.00000E+00         0.00000E+00        -0.34183E+08
 
   -0.33159E+08         0.69227E+05         0.00000E+00
    0.69227E+05        -0.60017E+08         0.00000E+00
    0.00000E+00         0.00000E+00        -0.34195E+08
 
   -0.33181E+08         0.10376E+06         0.00000E+00
    0.10376E+06        -0.60039E+08         0.00000E+00
    0.00000E+00         0.00000E+00        -0.34200E+08
 
   -0.33209E+08         0.13632E+06         0.00000E+00
    0.13632E+06        -0.60066E+08         0.00000E+00
    0.00000E+00         0.00000E+00        -0.34205E+08
 
   -0.33239E+08         0.17093E+06         0.00000E+00
    0.17093E+06        -0.60094E+08         0.00000E+00
    0.00000E+00         0.00000E+00        -0.34209E+08
 
   -0.33270E+08         0.21049E+06         0.00000E+00
    0.21049E+06        -0.60121E+08         0.00000E+00
    0.00000E+00         0.00000E+00        -0.34212E+08
 
   -0.33301E+08         0.25709E+06         0.00000E+00
    0.25709E+06        -0.60144E+08         0.00000E+00
    0.00000E+00         0.00000E+00        -0.34210E+08
 
   -0.33332E+08         0.31213E+06         0.00000E+00
    0.31213E+06        -0.60162E+08         0.00000E+00
    0.00000E+00         0.00000E+00        -0.34200E+08
 
   -0.33366E+08         0.37618E+06         0.00000E+00
    0.37618E+06        -0.60173E+08         0.00000E+00
    0.00000E+00         0.00000E+00        -0.34180E+08
 
   -0.33403E+08         0.44904E+06         0.00000E+00
    0.44904E+06        -0.60176E+08         0.00000E+00
    0.00000E+00         0.00000E+00        -0.34146E+08
 
   -0.33444E+08         0.52973E+06         0.00000E+00
    0.52973E+06        -0.60168E+08         0.00000E+00
    0.00000E+00         0.00000E+00        -0.34098E+08
 
   -0.33490E+08         0.61634E+06         0.00000E+00
    0.61634E+06        -0.60150E+08         0.00000E+00
    0.00000E+00         0.00000E+00        -0.34033E+08
 
   -0.33539E+08         0.70659E+06         0.00000E+00
    0.70659E+06        -0.60121E+08         0.00000E+00
    0.00000E+00         0.00000E+00        -0.33951E+08
 
   -0.33593E+08         0.79758E+06         0.00000E+00
    0.79758E+06        -0.60079E+08         0.00000E+00
    0.00000E+00         0.00000E+00        -0.33852E+08
 
   -0.33648E+08         0.88611E+06         0.00000E+00
    0.88611E+06        -0.60026E+08         0.00000E+00
    0.00000E+00         0.00000E+00        -0.33738E+08
 
   -0.33109E+08         0.17112E+05         0.00000E+00
    0.17112E+05        -0.60004E+08         0.00000E+00
    0.00000E+00         0.00000E+00        -0.33917E+08
 
   -0.33126E+08         0.48371E+05         0.00000E+00
    0.48371E+05        -0.60021E+08         0.00000E+00
    0.00000E+00         0.00000E+00        -0.33921E+08
 
   -0.33151E+08         0.75821E+05         0.00000E+00
    0.75821E+05        -0.60047E+08         0.00000E+00
    0.00000E+00         0.00000E+00        -0.33929E+08
 
   -0.33177E+08         0.10508E+06         0.00000E+00
    0.10508E+06        -0.60079E+08         0.00000E+00
    0.00000E+00         0.00000E+00        -0.33943E+08
 
   -0.33202E+08         0.13948E+06         0.00000E+00
    0.13948E+06        -0.60113E+08         0.00000E+00
    0.00000E+00         0.00000E+00        -0.33962E+08
 
   -0.33225E+08         0.18138E+06         0.00000E+00
    0.18138E+06        -0.60147E+08         0.00000E+00
    0.00000E+00         0.00000E+00        -0.33981E+08
 
   -0.33247E+08         0.23248E+06         0.00000E+00
    0.23248E+06        -0.60177E+08         0.00000E+00
    0.00000E+00         0.00000E+00        -0.33998E+08
 
   -0.33269E+08         0.29382E+06         0.00000E+00
    0.29382E+06        -0.60202E+08         0.00000E+00
    0.00000E+00         0.00000E+00        -0.34009E+08
 
   -0.33294E+08         0.36577E+06         0.00000E+00
    0.36577E+06        -0.60220E+08         0.00000E+00
    0.00000E+00         0.00000E+00        -0.34010E+08
 
   -0.33322E+08         0.44795E+06         0.00000E+00
    0.44795E+06        -0.60229E+08         0.00000E+00
    0.00000E+00         0.00000E+00        -0.33997E+08
 
   -0.33355E+08         0.53906E+06         0.00000E+00
    0.53906E+06        -0.60229E+08         0.00000E+00
    0.00000E+00         0.00000E+00        -0.33967E+08
 
   -0.33396E+08         0.63706E+06         0.00000E+00
    0.63706E+06        -0.60218E+08         0.00000E+00
    0.00000E+00         0.00000E+00        -0.33918E+08
 
   -0.33443E+08         0.73932E+06         0.00000E+00
    0.73932E+06        -0.60194E+08         0.00000E+00
    0.00000E+00         0.00000E+00        -0.33849E+08
 
   -0.33497E+08         0.84239E+06         0.00000E+00
    0.84239E+06        -0.60158E+08         0.00000E+00
    0.00000E+00         0.00000E+00        -0.33759E+08
 
   -0.33557E+08         0.94231E+06         0.00000E+00
    0.94231E+06        -0.60110E+08         0.00000E+00
    0.00000E+00         0.00000E+00        -0.33649E+08
 
   -0.33082E+08         0.72215E+04         0.00000E+00
    0.72215E+04        -0.60005E+08         0.00000E+00
    0.00000E+00         0.00000E+00        -0.33616E+08
 
   -0.33103E+08         0.24368E+05         0.00000E+00
    0.24368E+05        -0.60023E+08         0.00000E+00
    0.00000E+00         0.00000E+00        -0.33618E+08
 
   -0.33126E+08         0.43315E+05         0.00000E+00
    0.43315E+05        -0.60052E+08         0.00000E+00
    0.00000E+00         0.00000E+00        -0.33633E+08
 
   -0.33146E+08         0.68312E+05         0.00000E+00
    0.68312E+05        -0.60089E+08         0.00000E+00
    0.00000E+00         0.00000E+00        -0.33659E+08
 
   -0.33163E+08         0.10189E+06         0.00000E+00
    0.10189E+06        -0.60129E+08         0.00000E+00
    0.00000E+00         0.00000E+00        -0.33693E+08
 
   -0.33177E+08         0.14571E+06         0.00000E+00
    0.14571E+06        -0.60168E+08         0.00000E+00
    0.00000E+00         0.00000E+00        -0.33731E+08
 
   -0.33188E+08         0.20103E+06         0.00000E+00
    0.20103E+06        -0.60204E+08         0.00000E+00
    0.00000E+00         0.00000E+00        -0.33768E+08
 
   -0.33199E+08         0.26853E+06         0.00000E+00
    0.26853E+06        -0.60236E+08         0.00000E+00
    0.00000E+00         0.00000E+00        -0.33800E+08
 
   -0.33212E+08         0.34830E+06         0.00000E+00
    0.34830E+06        -0.60261E+08         0.00000E+00
    0.00000E+00         0.00000E+00        -0.33822E+08
 
   -0.33230E+08         0.43970E+06         0.00000E+00
    0.43970E+06        -0.60277E+08         0.00000E+00
    0.00000E+00         0.00000E+00        -0.33831E+08
 
   -0.33255E+08         0.54137E+06         0.00000E+00
    0.54137E+06        -0.60284E+08         0.00000E+00
    0.00000E+00         0.00000E+00        -0.33821E+08
 
   -0.33290E+08         0.65111E+06         0.00000E+00
    0.65111E+06        -0.60280E+08         0.00000E+00
    0.00000E+00         0.00000E+00        -0.33789E+08
 
   -0.33334E+08         0.76580E+06         0.00000E+00
    0.76580E+06        -0.60263E+08         0.00000E+00
    0.00000E+00         0.00000E+00        -0.33734E+08
 
   -0.33389E+08         0.88149E+06         0.00000E+00
    0.88149E+06        -0.60234E+08         0.00000E+00
    0.00000E+00         0.00000E+00        -0.33655E+08
 
   -0.33455E+08         0.99363E+06         0.00000E+00
    0.99363E+06        -0.60192E+08         0.00000E+00
    0.00000E+00         0.00000E+00        -0.33550E+08
 
   -0.33073E+08        -0.32460E+04         0.00000E+00
   -0.32460E+04        -0.60005E+08         0.00000E+00
    0.00000E+00         0.00000E+00        -0.33282E+08
 
   -0.33092E+08        -0.17152E+04         0.00000E+00
   -0.17152E+04        -0.60024E+08         0.00000E+00
    0.00000E+00         0.00000E+00        -0.33287E+08
 
   -0.33108E+08         0.74613E+04         0.00000E+00
    0.74613E+04        -0.60056E+08         0.00000E+00
    0.00000E+00         0.00000E+00        -0.33312E+08
 
   -0.33119E+08         0.27147E+05         0.00000E+00
    0.27147E+05        -0.60096E+08         0.00000E+00
    0.00000E+00         0.00000E+00        -0.33353E+08
 
   -0.33125E+08         0.59091E+05         0.00000E+00
    0.59091E+05        -0.60140E+08         0.00000E+00
    0.00000E+00         0.00000E+00        -0.33404E+08
 
   -0.33126E+08         0.10430E+06         0.00000E+00
    0.10430E+06        -0.60184E+08         0.00000E+00
    0.00000E+00         0.00000E+00        -0.33461E+08
 
   -0.33124E+08         0.16342E+06         0.00000E+00
    0.16342E+06        -0.60226E+08         0.00000E+00
    0.00000E+00         0.00000E+00        -0.33519E+08
 
   -0.33122E+08         0.23671E+06         0.00000E+00
    0.23671E+06        -0.60263E+08         0.00000E+00
    0.00000E+00         0.00000E+00        -0.33572E+08
 
   -0.33123E+08         0.32394E+06         0.00000E+00
    0.32394E+06        -0.60294E+08         0.00000E+00
    0.00000E+00         0.00000E+00        -0.33616E+08
 
   -0.33129E+08         0.42437E+06         0.00000E+00
    0.42437E+06        -0.60317E+08         0.00000E+00
    0.00000E+00         0.00000E+00        -0.33646E+08
 
   -0.33144E+08         0.53650E+06         0.00000E+00
    0.53650E+06        -0.60331E+08         0.00000E+00
    0.00000E+00         0.00000E+00        -0.33657E+08
 
   -0.33171E+08         0.65789E+06         0.00000E+00
    0.65789E+06        -0.60334E+08         0.00000E+00
    0.00000E+00         0.00000E+00        -0.33645E+08
 
   -0.33212E+08         0.78513E+06         0.00000E+00
    0.78513E+06        -0.60325E+08         0.00000E+00
    0.00000E+00         0.00000E+00        -0.33605E+08
 
   -0.33269E+08         0.91392E+06         0.00000E+00
    0.91392E+06        -0.60303E+08         0.00000E+00
    0.00000E+00         0.00000E+00        -0.33537E+08
 
   -0.33340E+08         0.10395E+07         0.00000E+00
    0.10395E+07        -0.60268E+08         0.00000E+00
    0.00000E+00         0.00000E+00        -0.33438E+08
 
   -0.33084E+08        -0.13964E+05         0.00000E+00
   -0.13964E+05        -0.60005E+08         0.00000E+00
    0.00000E+00         0.00000E+00        -0.32916E+08
 
   -0.33094E+08        -0.28917E+05         0.00000E+00
   -0.28917E+05        -0.60024E+08         0.00000E+00
    0.00000E+00         0.00000E+00        -0.32931E+08
 
   -0.33098E+08        -0.30524E+05         0.00000E+00
   -0.30524E+05        -0.60057E+08         0.00000E+00
    0.00000E+00         0.00000E+00        -0.32970E+08
 
   -0.33095E+08        -0.17034E+05         0.00000E+00
   -0.17034E+05        -0.60099E+08         0.00000E+00
    0.00000E+00         0.00000E+00        -0.33026E+08
 
   -0.33086E+08         0.12397E+05         0.00000E+00
    0.12397E+05        -0.60146E+08         0.00000E+00
    0.00000E+00         0.00000E+00        -0.33095E+08
 
   -0.33073E+08         0.58233E+05         0.00000E+00
    0.58233E+05        -0.60194E+08         0.00000E+00
    0.00000E+00         0.00000E+00        -0.33171E+08
 
   -0.33056E+08         0.12057E+06         0.00000E+00
    0.12057E+06        -0.60240E+08         0.00000E+00
    0.00000E+00         0.00000E+00        -0.33250E+08
 
   -0.33039E+08         0.19906E+06         0.00000E+00
    0.19906E+06        -0.60282E+08         0.00000E+00
    0.00000E+00         0.00000E+00        -0.33325E+08
 
   -0.33025E+08         0.29332E+06         0.00000E+00
    0.29332E+06        -0.60319E+08         0.00000E+00
    0.00000E+00         0.00000E+00        -0.33391E+08
 
   -0.33018E+08         0.40230E+06         0.00000E+00
    0.40230E+06        -0.60348E+08         0.00000E+00
    0.00000E+00         0.00000E+00        -0.33443E+08
 
   -0.33022E+08         0.52431E+06         0.00000E+00
    0.52431E+06        -0.60368E+08         0.00000E+00
    0.00000E+00         0.00000E+00        -0.33475E+08
 
   -0.33041E+08         0.65692E+06         0.00000E+00
    0.65692E+06        -0.60379E+08         0.00000E+00
    0.00000E+00         0.00000E+00        -0.33483E+08
 
   -0.33078E+08         0.79661E+06         0.00000E+00
    0.79661E+06        -0.60378E+08         0.00000E+00
    0.00000E+00         0.00000E+00        -0.33460E+08
 
   -0.33134E+08         0.93882E+06         0.00000E+00
    0.93882E+06        -0.60364E+08         0.00000E+00
    0.00000E+00         0.00000E+00        -0.33405E+08
 
   -0.33212E+08         0.10784E+07         0.00000E+00
    0.10784E+07        -0.60336E+08         0.00000E+00
    0.00000E+00         0.00000E+00        -0.33313E+08
 
   -0.33114E+08        -0.24675E+05         0.00000E+00
   -0.24675E+05        -0.60005E+08         0.00000E+00
    0.00000E+00         0.00000E+00        -0.32522E+08
 
   -0.33110E+08        -0.56338E+05         0.00000E+00
   -0.56338E+05        -0.60024E+08         0.00000E+00
    0.00000E+00         0.00000E+00        -0.32551E+08
 
   -0.33097E+08        -0.69442E+05         0.00000E+00
   -0.69442E+05        -0.60057E+08         0.00000E+00
    0.00000E+00         0.00000E+00        -0.32606E+08
 
   -0.33076E+08        -0.62935E+05         0.00000E+00
   -0.62935E+05        -0.60100E+08         0.00000E+00
    0.00000E+00         0.00000E+00        -0.32680E+08
 
   -0.33050E+08        -0.36690E+05         0.00000E+00
   -0.36690E+05        -0.60148E+08         0.00000E+00
    0.00000E+00         0.00000E+00        -0.32768E+08
 
   -0.33018E+08         0.90627E+04         0.00000E+00
    0.90627E+04        -0.60198E+08         0.00000E+00
    0.00000E+00         0.00000E+00        -0.32863E+08
 
   -0.32983E+08         0.73815E+05         0.00000E+00
    0.73815E+05        -0.60246E+08         0.00000E+00
    0.00000E+00         0.00000E+00        -0.32962E+08
 
   -0.32949E+08         0.15690E+06         0.00000E+00
    0.15690E+06        -0.60292E+08         0.00000E+00
    0.00000E+00         0.00000E+00        -0.33057E+08
 
   -0.32919E+08         0.25735E+06         0.00000E+00
    0.25735E+06        -0.60332E+08         0.00000E+00
    0.00000E+00         0.00000E+00        -0.33144E+08
 
   -0.32898E+08         0.37388E+06         0.00000E+00
    0.37388E+06        -0.60367E+08         0.00000E+00
    0.00000E+00         0.00000E+00        -0.33218E+08
 
   -0.32890E+08         0.50486E+06         0.00000E+00
    0.50486E+06        -0.60394E+08         0.00000E+00
    0.00000E+00         0.00000E+00        -0.33272E+08
 
   -0.32899E+08         0.64788E+06         0.00000E+00
    0.64788E+06        -0.60412E+08         0.00000E+00
    0.00000E+00         0.00000E+00        -0.33301E+08
 
   -0.32930E+08         0.79964E+06         0.00000E+00
    0.79964E+06        -0.60420E+08         0.00000E+00
    0.00000E+00         0.00000E+00        -0.33297E+08
 
   -0.32987E+08         0.95542E+06         0.00000E+00
    0.95542E+06        -0.60415E+08         0.00000E+00
    0.00000E+00         0.00000E+00        -0.33256E+08
 
   -0.33071E+08         0.11086E+07         0.00000E+00
    0.11086E+07        -0.60396E+08         0.00000E+00
    0.00000E+00         0.00000E+00        -0.33174E+08
 
   -0.33165E+08        -0.35103E+05         0.00000E+00
   -0.35103E+05        -0.60005E+08         0.00000E+00
    0.00000E+00         0.00000E+00        -0.32104E+08
 
   -0.33139E+08        -0.83427E+05         0.00000E+00
   -0.83427E+05        -0.60024E+08         0.00000E+00
    0.00000E+00         0.00000E+00        -0.32151E+08
 
   -0.33105E+08        -0.10815E+06         0.00000E+00
   -0.10815E+06        -0.60056E+08         0.00000E+00
    0.00000E+00         0.00000E+00        -0.32224E+08
 
   -0.33063E+08        -0.10909E+06         0.00000E+00
   -0.10909E+06        -0.60098E+08         0.00000E+00
    0.00000E+00         0.00000E+00        -0.32317E+08
 
   -0.33014E+08        -0.86549E+05         0.00000E+00
   -0.86549E+05        -0.60146E+08         0.00000E+00
    0.00000E+00         0.00000E+00        -0.32424E+08
 
   -0.32962E+08        -0.41420E+05         0.00000E+00
   -0.41420E+05        -0.60195E+08         0.00000E+00
    0.00000E+00         0.00000E+00        -0.32538E+08
 
   -0.32908E+08         0.25118E+05         0.00000E+00
    0.25118E+05        -0.60245E+08         0.00000E+00
    0.00000E+00         0.00000E+00        -0.32654E+08
 
   -0.32855E+08         0.11194E+06         0.00000E+00
    0.11194E+06        -0.60292E+08         0.00000E+00
    0.00000E+00         0.00000E+00        -0.32769E+08
 
   -0.32808E+08         0.21729E+06         0.00000E+00
    0.21729E+06        -0.60335E+08         0.00000E+00
    0.00000E+00         0.00000E+00        -0.32876E+08
 
   -0.32770E+08         0.34002E+06         0.00000E+00
    0.34002E+06        -0.60373E+08         0.00000E+00
    0.00000E+00         0.00000E+00        -0.32970E+08
 
   -0.32748E+08         0.47846E+06         0.00000E+00
    0.47846E+06        -0.60405E+08         0.00000E+00
    0.00000E+00         0.00000E+00        -0.33046E+08
 
   -0.32746E+08         0.63057E+06         0.00000E+00
    0.63057E+06        -0.60431E+08         0.00000E+00
    0.00000E+00         0.00000E+00        -0.33096E+08
 
   -0.32770E+08         0.79331E+06         0.00000E+00
    0.79331E+06        -0.60448E+08         0.00000E+00
    0.00000E+00         0.00000E+00        -0.33114E+08
 
   -0.32825E+08         0.96215E+06         0.00000E+00
    0.96215E+06        -0.60453E+08         0.00000E+00
    0.00000E+00         0.00000E+00        -0.33090E+08
 
   -0.32914E+08         0.11299E+07         0.00000E+00
    0.11299E+07        -0.60445E+08         0.00000E+00
    0.00000E+00         0.00000E+00        -0.33018E+08
 
   -0.33234E+08        -0.45108E+05         0.00000E+00
   -0.45108E+05        -0.60005E+08         0.00000E+00
    0.00000E+00         0.00000E+00        -0.31665E+08
 
   -0.33183E+08        -0.10960E+06         0.00000E+00
   -0.10960E+06        -0.60023E+08         0.00000E+00
    0.00000E+00         0.00000E+00        -0.31733E+08
 
   -0.33122E+08        -0.14574E+06         0.00000E+00
   -0.14574E+06        -0.60054E+08         0.00000E+00
    0.00000E+00         0.00000E+00        -0.31827E+08
 
   -0.33055E+08        -0.15398E+06         0.00000E+00
   -0.15398E+06        -0.60094E+08         0.00000E+00
    0.00000E+00         0.00000E+00        -0.31939E+08
 
   -0.32982E+08        -0.13534E+06         0.00000E+00
   -0.13534E+06        -0.60140E+08         0.00000E+00
    0.00000E+00         0.00000E+00        -0.32064E+08
 
   -0.32906E+08        -0.91161E+05         0.00000E+00
   -0.91161E+05        -0.60187E+08         0.00000E+00
    0.00000E+00         0.00000E+00        -0.32196E+08
 
   -0.32830E+08        -0.23339E+05         0.00000E+00
   -0.23339E+05        -0.60235E+08         0.00000E+00
    0.00000E+00         0.00000E+00        -0.32329E+08
 
   -0.32757E+08         0.66045E+05         0.00000E+00
    0.66045E+05        -0.60281E+08         0.00000E+00
    0.00000E+00         0.00000E+00        -0.32460E+08
 
   -0.32691E+08         0.17515E+06         0.00000E+00
    0.17515E+06        -0.60324E+08         0.00000E+00
    0.00000E+00         0.00000E+00        -0.32584E+08
 
   -0.32636E+08         0.30210E+06         0.00000E+00
    0.30210E+06        -0.60364E+08         0.00000E+00
    0.00000E+00         0.00000E+00        -0.32697E+08
 
   -0.32599E+08         0.44579E+06         0.00000E+00
    0.44579E+06        -0.60401E+08         0.00000E+00
    0.00000E+00         0.00000E+00        -0.32794E+08
 
   -0.32584E+08         0.60486E+06         0.00000E+00
    0.60486E+06        -0.60434E+08         0.00000E+00
    0.00000E+00         0.00000E+00        -0.32867E+08
 
   -0.32599E+08         0.77681E+06         0.00000E+00
    0.77681E+06        -0.60460E+08         0.00000E+00
    0.00000E+00         0.00000E+00        -0.32907E+08
 
   -0.32650E+08         0.95747E+06         0.00000E+00
    0.95747E+06        -0.60477E+08         0.00000E+00
    0.00000E+00         0.00000E+00        -0.32904E+08
 
   -0.32743E+08         0.11402E+07         0.00000E+00
    0.11402E+07        -0.60481E+08         0.00000E+00
    0.00000E+00         0.00000E+00        -0.32846E+08
 
   -0.33322E+08        -0.54649E+05         0.00000E+00
   -0.54649E+05        -0.60005E+08         0.00000E+00
    0.00000E+00         0.00000E+00        -0.31209E+08
 
   -0.33240E+08        -0.13438E+06         0.00000E+00
   -0.13438E+06        -0.60022E+08         0.00000E+00
    0.00000E+00         0.00000E+00        -0.31300E+08
 
   -0.33149E+08        -0.18121E+06         0.00000E+00
   -0.18121E+06        -0.60051E+08         0.00000E+00
    0.00000E+00         0.00000E+00        -0.31416E+08
 
   -0.33052E+08        -0.19624E+06         0.00000E+00
   -0.19624E+06        -0.60088E+08         0.00000E+00
    0.00000E+00         0.00000E+00        -0.31548E+08
 
   -0.32951E+08        -0.18110E+06         0.00000E+00
   -0.18110E+06        -0.60130E+08         0.00000E+00
    0.00000E+00         0.00000E+00        -0.31690E+08
 
   -0.32850E+08        -0.13790E+06         0.00000E+00
   -0.13790E+06        -0.60173E+08         0.00000E+00
    0.00000E+00         0.00000E+00        -0.31838E+08
 
   -0.32750E+08        -0.69260E+05         0.00000E+00
   -0.69260E+05        -0.60217E+08         0.00000E+00
    0.00000E+00         0.00000E+00        -0.31986E+08
 
   -0.32656E+08         0.21837E+05         0.00000E+00
    0.21837E+05        -0.60259E+08         0.00000E+00
    0.00000E+00         0.00000E+00        -0.32131E+08
 
   -0.32571E+08         0.13287E+06         0.00000E+00
    0.13287E+06        -0.60301E+08         0.00000E+00
    0.00000E+00         0.00000E+00        -0.32269E+08
 
   -0.32499E+08         0.26194E+06         0.00000E+00
    0.26194E+06        -0.60341E+08         0.00000E+00
    0.00000E+00         0.00000E+00        -0.32397E+08
 
   -0.32445E+08         0.40806E+06         0.00000E+00
    0.40806E+06        -0.60380E+08         0.00000E+00
    0.00000E+00         0.00000E+00        -0.32512E+08
 
   -0.32415E+08         0.57083E+06         0.00000E+00
    0.57083E+06        -0.60419E+08         0.00000E+00
    0.00000E+00         0.00000E+00        -0.32608E+08
 
   -0.32417E+08         0.74939E+06         0.00000E+00
    0.74939E+06        -0.60455E+08         0.00000E+00
    0.00000E+00         0.00000E+00        -0.32673E+08
 
   -0.32461E+08         0.94047E+06         0.00000E+00
    0.94047E+06        -0.60484E+08         0.00000E+00
    0.00000E+00         0.00000E+00        -0.32694E+08
 
   -0.32557E+08         0.11374E+07         0.00000E+00
    0.11374E+07        -0.60502E+08         0.00000E+00
    0.00000E+00         0.00000E+00        -0.32656E+08
 
   -0.33427E+08        -0.63601E+05         0.00000E+00
   -0.63601E+05        -0.60005E+08         0.00000E+00
    0.00000E+00         0.00000E+00        -0.30741E+08
 
   -0.33309E+08        -0.15746E+06         0.00000E+00
   -0.15746E+06        -0.60020E+08         0.00000E+00
    0.00000E+00         0.00000E+00        -0.30857E+08
 
   -0.33184E+08        -0.21374E+06         0.00000E+00
   -0.21374E+06        -0.60047E+08         0.00000E+00
    0.00000E+00         0.00000E+00        -0.30995E+08
 
   -0.33054E+08        -0.23432E+06         0.00000E+00
   -0.23432E+06        -0.60080E+08         0.00000E+00
    0.00000E+00         0.00000E+00        -0.31146E+08
 
   -0.32923E+08        -0.22174E+06         0.00000E+00
   -0.22174E+06        -0.60116E+08         0.00000E+00
    0.00000E+00         0.00000E+00        -0.31305E+08
 
   -0.32794E+08        -0.17911E+06         0.00000E+00
   -0.17911E+06        -0.60153E+08         0.00000E+00
    0.00000E+00         0.00000E+00        -0.31466E+08
 
   -0.32670E+08        -0.11005E+06         0.00000E+00
   -0.11005E+06        -0.60190E+08         0.00000E+00
    0.00000E+00         0.00000E+00        -0.31625E+08
 
   -0.32554E+08        -0.18341E+05         0.00000E+00
   -0.18341E+05        -0.60226E+08         0.00000E+00
    0.00000E+00         0.00000E+00        -0.31780E+08
 
   -0.32451E+08         0.92831E+05         0.00000E+00
    0.92831E+05        -0.60263E+08         0.00000E+00
    0.00000E+00         0.00000E+00        -0.31928E+08
 
   -0.32361E+08         0.22139E+06         0.00000E+00
    0.22139E+06        -0.60301E+08         0.00000E+00
    0.00000E+00         0.00000E+00        -0.32069E+08
 
   -0.32290E+08         0.36665E+06         0.00000E+00
    0.36665E+06        -0.60342E+08         0.00000E+00
    0.00000E+00         0.00000E+00        -0.32200E+08
 
   -0.32242E+08         0.52934E+06         0.00000E+00
    0.52934E+06        -0.60385E+08         0.00000E+00
    0.00000E+00         0.00000E+00        -0.32317E+08
 
   -0.32229E+08         0.71060E+06         0.00000E+00
    0.71060E+06        -0.60430E+08         0.00000E+00
    0.00000E+00         0.00000E+00        -0.32409E+08
 
   -0.32262E+08         0.90953E+06         0.00000E+00
    0.90953E+06        -0.60472E+08         0.00000E+00
    0.00000E+00         0.00000E+00        -0.32459E+08
 
   -0.32355E+08         0.11200E+07         0.00000E+00
    0.11200E+07        -0.60505E+08         0.00000E+00
    0.00000E+00         0.00000E+00        -0.32445E+08
 
   -0.33549E+08        -0.72034E+05         0.00000E+00
   -0.72034E+05        -0.60005E+08         0.00000E+00
    0.00000E+00         0.00000E+00        -0.30264E+08
 
   -0.33390E+08        -0.17853E+06         0.00000E+00
   -0.17853E+06        -0.60019E+08         0.00000E+00
    0.00000E+00         0.00000E+00        -0.30406E+08
 
   -0.33225E+08        -0.24235E+06         0.00000E+00
   -0.24235E+06        -0.60042E+08         0.00000E+00
    0.00000E+00         0.00000E+00        -0.30566E+08
 
   -0.33059E+08        -0.26657E+06         0.00000E+00
   -0.26657E+06        -0.60070E+08         0.00000E+00
    0.00000E+00         0.00000E+00        -0.30737E+08
 
   -0.32895E+08        -0.25490E+06         0.00000E+00
   -0.25490E+06        -0.60098E+08         0.00000E+00
    0.00000E+00         0.00000E+00        -0.30910E+08
 
   -0.32737E+08        -0.21205E+06         0.00000E+00
   -0.21205E+06        -0.60125E+08         0.00000E+00
    0.00000E+00         0.00000E+00        -0.31081E+08
 
   -0.32589E+08        -0.14295E+06         0.00000E+00
   -0.14295E+06        -0.60152E+08         0.00000E+00
    0.00000E+00         0.00000E+00        -0.31246E+08
 
   -0.32453E+08        -0.52134E+05         0.00000E+00
   -0.52134E+05        -0.60181E+08         0.00000E+00
    0.00000E+00         0.00000E+00        -0.31406E+08
 
   -0.32331E+08         0.56904E+05         0.00000E+00
    0.56904E+05        -0.60211E+08         0.00000E+00
    0.00000E+00         0.00000E+00        -0.31560E+08
 
   -0.32225E+08         0.18217E+06         0.00000E+00
    0.18217E+06        -0.60246E+08         0.00000E+00
    0.00000E+00         0.00000E+00        -0.31710E+08
 
   -0.32137E+08         0.32330E+06         0.00000E+00
    0.32330E+06        -0.60286E+08         0.00000E+00
    0.00000E+00         0.00000E+00        -0.31855E+08
 
   -0.32071E+08         0.48185E+06         0.00000E+00
    0.48185E+06        -0.60332E+08         0.00000E+00
    0.00000E+00         0.00000E+00        -0.31992E+08
 
   -0.32037E+08         0.66091E+06         0.00000E+00
    0.66091E+06        -0.60384E+08         0.00000E+00
    0.00000E+00         0.00000E+00        -0.32112E+08
 
   -0.32052E+08         0.86302E+06         0.00000E+00
    0.86302E+06        -0.60440E+08         0.00000E+00
    0.00000E+00         0.00000E+00        -0.32195E+08
 
   -0.32137E+08         0.10851E+07         0.00000E+00
    0.10851E+07        -0.60490E+08         0.00000E+00
    0.00000E+00         0.00000E+00        -0.32212E+08
 
   -0.33685E+08        -0.79976E+05         0.00000E+00
   -0.79976E+05        -0.60005E+08         0.00000E+00
    0.00000E+00         0.00000E+00        -0.29781E+08
 
   -0.33479E+08        -0.19726E+06         0.00000E+00
   -0.19726E+06        -0.60018E+08         0.00000E+00
    0.00000E+00         0.00000E+00        -0.29950E+08
 
   -0.33271E+08        -0.26605E+06         0.00000E+00
   -0.26605E+06        -0.60037E+08         0.00000E+00
    0.00000E+00         0.00000E+00        -0.30135E+08
 
   -0.33065E+08        -0.29093E+06         0.00000E+00
   -0.29093E+06        -0.60057E+08         0.00000E+00
    0.00000E+00         0.00000E+00        -0.30323E+08
 
   -0.32867E+08        -0.27786E+06         0.00000E+00
   -0.27786E+06        -0.60074E+08         0.00000E+00
    0.00000E+00         0.00000E+00        -0.30507E+08
 
   -0.32681E+08        -0.23374E+06         0.00000E+00
   -0.23374E+06        -0.60089E+08         0.00000E+00
    0.00000E+00         0.00000E+00        -0.30682E+08
 
   -0.32509E+08        -0.16517E+06         0.00000E+00
   -0.16517E+06        -0.60104E+08         0.00000E+00
    0.00000E+00         0.00000E+00        -0.30848E+08
 
   -0.32355E+08        -0.77337E+05         0.00000E+00
   -0.77337E+05        -0.60121E+08         0.00000E+00
    0.00000E+00         0.00000E+00        -0.31008E+08
 
   -0.32217E+08         0.26599E+05         0.00000E+00
    0.26599E+05        -0.60144E+08         0.00000E+00
    0.00000E+00         0.00000E+00        -0.31164E+08
 
   -0.32095E+08         0.14532E+06         0.00000E+00
    0.14532E+06        -0.60175E+08         0.00000E+00
    0.00000E+00         0.00000E+00        -0.31320E+08
 
   -0.31990E+08         0.27904E+06         0.00000E+00
    0.27904E+06        -0.60214E+08         0.00000E+00
    0.00000E+00         0.00000E+00        -0.31476E+08
 
   -0.31905E+08         0.42957E+06         0.00000E+00
    0.42957E+06        -0.60263E+08         0.00000E+00
    0.00000E+00         0.00000E+00        -0.31632E+08
 
   -0.31847E+08         0.60126E+06         0.00000E+00
    0.60126E+06        -0.60320E+08         0.00000E+00
    0.00000E+00         0.00000E+00        -0.31780E+08
 
   -0.31836E+08         0.80066E+06         0.00000E+00
    0.80066E+06        -0.60387E+08         0.00000E+00
    0.00000E+00         0.00000E+00        -0.31901E+08
 
   -0.31906E+08         0.10324E+07         0.00000E+00
    0.10324E+07        -0.60457E+08         0.00000E+00
    0.00000E+00         0.00000E+00        -0.31957E+08
 
   -0.33834E+08        -0.87536E+05         0.00000E+00
   -0.87536E+05        -0.60005E+08         0.00000E+00
    0.00000E+00         0.00000E+00        -0.29296E+08
 
   -0.33574E+08        -0.21321E+06         0.00000E+00
   -0.21321E+06        -0.60016E+08         0.00000E+00
    0.00000E+00         0.00000E+00        -0.29495E+08
 
   -0.33317E+08        -0.28315E+06         0.00000E+00
   -0.28315E+06        -0.60030E+08         0.00000E+00
    0.00000E+00         0.00000E+00        -0.29702E+08
 
   -0.33069E+08        -0.30467E+06         0.00000E+00
   -0.30467E+06        -0.60039E+08         0.00000E+00
    0.00000E+00         0.00000E+00        -0.29905E+08
 
   -0.32837E+08        -0.28735E+06         0.00000E+00
   -0.28735E+06        -0.60043E+08         0.00000E+00
    0.00000E+00         0.00000E+00        -0.30094E+08
 
   -0.32624E+08        -0.24112E+06         0.00000E+00
   -0.24112E+06        -0.60042E+08         0.00000E+00
    0.00000E+00         0.00000E+00        -0.30267E+08
 
   -0.32433E+08        -0.17426E+06         0.00000E+00
   -0.17426E+06        -0.60042E+08         0.00000E+00
    0.00000E+00         0.00000E+00        -0.30429E+08
 
   -0.32262E+08        -0.92061E+05         0.00000E+00
   -0.92061E+05        -0.60047E+08         0.00000E+00
    0.00000E+00         0.00000E+00        -0.30583E+08
 
   -0.32110E+08         0.31443E+04         0.00000E+00
    0.31443E+04        -0.60060E+08         0.00000E+00
    0.00000E+00         0.00000E+00        -0.30736E+08
 
   -0.31974E+08         0.11132E+06         0.00000E+00
    0.11132E+06        -0.60086E+08         0.00000E+00
    0.00000E+00         0.00000E+00        -0.30895E+08
 
   -0.31853E+08         0.23382E+06         0.00000E+00
    0.23382E+06        -0.60124E+08         0.00000E+00
    0.00000E+00         0.00000E+00        -0.31061E+08
 
   -0.31748E+08         0.37320E+06         0.00000E+00
    0.37320E+06        -0.60176E+08         0.00000E+00
    0.00000E+00         0.00000E+00        -0.31235E+08
 
   -0.31665E+08         0.53389E+06         0.00000E+00
    0.53389E+06        -0.60240E+08         0.00000E+00
    0.00000E+00         0.00000E+00        -0.31412E+08
 
   -0.31620E+08         0.72380E+06         0.00000E+00
    0.72380E+06        -0.60316E+08         0.00000E+00
    0.00000E+00         0.00000E+00        -0.31575E+08
 
   -0.31664E+08         0.95140E+06         0.00000E+00
    0.95140E+06        -0.60404E+08         0.00000E+00
    0.00000E+00         0.00000E+00        -0.31678E+08
 
   -0.33995E+08        -0.94809E+05         0.00000E+00
   -0.94809E+05        -0.60005E+08         0.00000E+00
    0.00000E+00         0.00000E+00        -0.28811E+08
 
   -0.33672E+08        -0.22537E+06         0.00000E+00
   -0.22537E+06        -0.60014E+08         0.00000E+00
    0.00000E+00         0.00000E+00        -0.29042E+08
 
   -0.33359E+08        -0.29077E+06         0.00000E+00
   -0.29077E+06        -0.60019E+08         0.00000E+00
    0.00000E+00         0.00000E+00        -0.29271E+08
 
   -0.33067E+08        -0.30376E+06         0.00000E+00
   -0.30376E+06        -0.60014E+08         0.00000E+00
    0.00000E+00         0.00000E+00        -0.29483E+08
 
   -0.32802E+08        -0.27955E+06         0.00000E+00
   -0.27955E+06        -0.59999E+08         0.00000E+00
    0.00000E+00         0.00000E+00        -0.29669E+08
 
   -0.32567E+08        -0.23151E+06         0.00000E+00
   -0.23151E+06        -0.59979E+08         0.00000E+00
    0.00000E+00         0.00000E+00        -0.29833E+08
 
   -0.32361E+08        -0.16856E+06         0.00000E+00
   -0.16856E+06        -0.59963E+08         0.00000E+00
    0.00000E+00         0.00000E+00        -0.29983E+08
 
   -0.32178E+08        -0.95113E+05         0.00000E+00
   -0.95113E+05        -0.59954E+08         0.00000E+00
    0.00000E+00         0.00000E+00        -0.30127E+08
 
   -0.32015E+08        -0.12332E+05         0.00000E+00
   -0.12332E+05        -0.59958E+08         0.00000E+00
    0.00000E+00         0.00000E+00        -0.30274E+08
 
   -0.31866E+08         0.80816E+05         0.00000E+00
    0.80816E+05        -0.59977E+08         0.00000E+00
    0.00000E+00         0.00000E+00        -0.30432E+08
 
   -0.31730E+08         0.18723E+06         0.00000E+00
    0.18723E+06        -0.60014E+08         0.00000E+00
    0.00000E+00         0.00000E+00        -0.30605E+08
 
   -0.31605E+08         0.31103E+06         0.00000E+00
    0.31103E+06        -0.60070E+08         0.00000E+00
    0.00000E+00         0.00000E+00        -0.30798E+08
 
   -0.31496E+08         0.45694E+06         0.00000E+00
    0.45694E+06        -0.60143E+08         0.00000E+00
    0.00000E+00         0.00000E+00        -0.31006E+08
 
   -0.31415E+08         0.63312E+06         0.00000E+00
    0.63312E+06        -0.60232E+08         0.00000E+00
    0.00000E+00         0.00000E+00        -0.31215E+08
 
   -0.31413E+08         0.85609E+06         0.00000E+00
    0.85609E+06        -0.60331E+08         0.00000E+00
    0.00000E+00         0.00000E+00        -0.31374E+08
 
   -0.34166E+08        -0.10183E+06         0.00000E+00
   -0.10183E+06        -0.60005E+08         0.00000E+00
    0.00000E+00         0.00000E+00        -0.28331E+08
 
   -0.33766E+08        -0.23118E+06         0.00000E+00
   -0.23118E+06        -0.60010E+08         0.00000E+00
    0.00000E+00         0.00000E+00        -0.28596E+08
 
   -0.33391E+08        -0.28344E+06         0.00000E+00
   -0.28344E+06        -0.60000E+08         0.00000E+00
    0.00000E+00         0.00000E+00        -0.28842E+08
 
   -0.33055E+08        -0.28229E+06         0.00000E+00
   -0.28229E+06        -0.59973E+08         0.00000E+00
    0.00000E+00         0.00000E+00        -0.29052E+08
 
   -0.32763E+08        -0.25069E+06         0.00000E+00
   -0.25069E+06        -0.59934E+08         0.00000E+00
    0.00000E+00         0.00000E+00        -0.29224E+08
 
   -0.32513E+08        -0.20356E+06         0.00000E+00
   -0.20356E+06        -0.59894E+08         0.00000E+00
    0.00000E+00         0.00000E+00        -0.29372E+08
 
   -0.32297E+08        -0.14792E+06         0.00000E+00
   -0.14792E+06        -0.59862E+08         0.00000E+00
    0.00000E+00         0.00000E+00        -0.29505E+08
 
   -0.32107E+08        -0.86365E+05         0.00000E+00
   -0.86365E+05        -0.59841E+08         0.00000E+00
    0.00000E+00         0.00000E+00        -0.29636E+08
 
   -0.31935E+08        -0.19154E+05         0.00000E+00
   -0.19154E+05        -0.59835E+08         0.00000E+00
    0.00000E+00         0.00000E+00        -0.29774E+08
 
   -0.31776E+08         0.55208E+05         0.00000E+00
    0.55208E+05        -0.59847E+08         0.00000E+00
    0.00000E+00         0.00000E+00        -0.29927E+08
 
   -0.31625E+08         0.14021E+06         0.00000E+00
    0.14021E+06        -0.59881E+08         0.00000E+00
    0.00000E+00         0.00000E+00        -0.30103E+08
 
   -0.31481E+08         0.24175E+06         0.00000E+00
    0.24175E+06        -0.59939E+08         0.00000E+00
    0.00000E+00         0.00000E+00        -0.30311E+08
 
   -0.31344E+08         0.36802E+06         0.00000E+00
    0.36802E+06        -0.60023E+08         0.00000E+00
    0.00000E+00         0.00000E+00        -0.30551E+08
 
   -0.31219E+08         0.52879E+06         0.00000E+00
    0.52879E+06        -0.60126E+08         0.00000E+00
    0.00000E+00         0.00000E+00        -0.30814E+08
 
   -0.31153E+08         0.74294E+06         0.00000E+00
    0.74294E+06        -0.60242E+08         0.00000E+00
    0.00000E+00         0.00000E+00        -0.31051E+08
 
   -0.34343E+08        -0.10811E+06         0.00000E+00
   -0.10811E+06        -0.60005E+08         0.00000E+00
    0.00000E+00         0.00000E+00        -0.27858E+08
 
   -0.33846E+08        -0.22384E+06         0.00000E+00
   -0.22384E+06        -0.59999E+08         0.00000E+00
    0.00000E+00         0.00000E+00        -0.28158E+08
 
   -0.33404E+08        -0.25081E+06         0.00000E+00
   -0.25081E+06        -0.59962E+08         0.00000E+00
    0.00000E+00         0.00000E+00        -0.28407E+08
 
   -0.33031E+08        -0.23329E+06         0.00000E+00
   -0.23329E+06        -0.59901E+08         0.00000E+00
    0.00000E+00         0.00000E+00        -0.28598E+08
 
   -0.32723E+08        -0.19905E+06         0.00000E+00
   -0.19905E+06        -0.59837E+08         0.00000E+00
    0.00000E+00         0.00000E+00        -0.28747E+08
 
   -0.32465E+08        -0.15821E+06         0.00000E+00
   -0.15821E+06        -0.59779E+08         0.00000E+00
    0.00000E+00         0.00000E+00        -0.28873E+08
 
   -0.32245E+08        -0.11405E+06         0.00000E+00
   -0.11405E+06        -0.59733E+08         0.00000E+00
    0.00000E+00         0.00000E+00        -0.28990E+08
 
   -0.32051E+08        -0.67397E+05         0.00000E+00
   -0.67397E+05        -0.59703E+08         0.00000E+00
    0.00000E+00         0.00000E+00        -0.29107E+08
 
   -0.31874E+08        -0.17899E+05         0.00000E+00
   -0.17899E+05        -0.59689E+08         0.00000E+00
    0.00000E+00         0.00000E+00        -0.29234E+08
 
   -0.31708E+08         0.35662E+05         0.00000E+00
    0.35662E+05        -0.59695E+08         0.00000E+00
    0.00000E+00         0.00000E+00        -0.29380E+08
 
   -0.31546E+08         0.95923E+05         0.00000E+00
    0.95923E+05        -0.59724E+08         0.00000E+00
    0.00000E+00         0.00000E+00        -0.29554E+08
 
   -0.31382E+08         0.16858E+06         0.00000E+00
    0.16858E+06        -0.59780E+08         0.00000E+00
    0.00000E+00         0.00000E+00        -0.29768E+08
 
   -0.31212E+08         0.26543E+06         0.00000E+00
    0.26543E+06        -0.59869E+08         0.00000E+00
    0.00000E+00         0.00000E+00        -0.30035E+08
 
   -0.31040E+08         0.40445E+06         0.00000E+00
    0.40445E+06        -0.59994E+08         0.00000E+00
    0.00000E+00         0.00000E+00        -0.30361E+08
 
   -0.30891E+08         0.60170E+06         0.00000E+00
    0.60170E+06        -0.60139E+08         0.00000E+00
    0.00000E+00         0.00000E+00        -0.30708E+08
 
   -0.34514E+08        -0.10993E+06         0.00000E+00
   -0.10993E+06        -0.60001E+08         0.00000E+00
    0.00000E+00         0.00000E+00        -0.27395E+08
 
   -0.33894E+08        -0.18501E+06         0.00000E+00
   -0.18501E+06        -0.59963E+08         0.00000E+00
    0.00000E+00         0.00000E+00        -0.27720E+08
 
   -0.33393E+08        -0.17805E+06         0.00000E+00
   -0.17805E+06        -0.59875E+08         0.00000E+00
    0.00000E+00         0.00000E+00        -0.27941E+08
 
   -0.33003E+08        -0.15441E+06         0.00000E+00
   -0.15441E+06        -0.59781E+08         0.00000E+00
    0.00000E+00         0.00000E+00        -0.28098E+08
 
   -0.32690E+08        -0.12732E+06         0.00000E+00
   -0.12732E+06        -0.59696E+08         0.00000E+00
    0.00000E+00         0.00000E+00        -0.28220E+08
 
   -0.32429E+08        -0.99312E+05         0.00000E+00
   -0.99312E+05        -0.59625E+08         0.00000E+00
    0.00000E+00         0.00000E+00        -0.28327E+08
 
   -0.32207E+08        -0.70806E+05         0.00000E+00
   -0.70806E+05        -0.59571E+08         0.00000E+00
    0.00000E+00         0.00000E+00        -0.28430E+08
 
   -0.32012E+08        -0.41541E+05         0.00000E+00
   -0.41541E+05        -0.59535E+08         0.00000E+00
    0.00000E+00         0.00000E+00        -0.28536E+08
 
   -0.31833E+08        -0.11153E+05         0.00000E+00
   -0.11153E+05        -0.59518E+08         0.00000E+00
    0.00000E+00         0.00000E+00        -0.28654E+08
 
   -0.31664E+08         0.21122E+05         0.00000E+00
    0.21122E+05        -0.59521E+08         0.00000E+00
    0.00000E+00         0.00000E+00        -0.28793E+08
 
   -0.31495E+08         0.56566E+05         0.00000E+00
    0.56566E+05        -0.59546E+08         0.00000E+00
    0.00000E+00         0.00000E+00        -0.28961E+08
 
   -0.31316E+08         0.98401E+05         0.00000E+00
    0.98401E+05        -0.59599E+08         0.00000E+00
    0.00000E+00         0.00000E+00        -0.29174E+08
 
   -0.31116E+08         0.15507E+06         0.00000E+00
    0.15507E+06        -0.59685E+08         0.00000E+00
    0.00000E+00         0.00000E+00        -0.29453E+08
 
   -0.30881E+08         0.24971E+06         0.00000E+00
    0.24971E+06        -0.59817E+08         0.00000E+00
    0.00000E+00         0.00000E+00        -0.29833E+08
 
   -0.30626E+08         0.43254E+06         0.00000E+00
    0.43254E+06        -0.60018E+08         0.00000E+00
    0.00000E+00         0.00000E+00        -0.30343E+08
 
   -0.34649E+08        -0.80697E+05         0.00000E+00
   -0.80697E+05        -0.59966E+08         0.00000E+00
    0.00000E+00         0.00000E+00        -0.26935E+08
 
   -0.33892E+08        -0.78060E+05         0.00000E+00
   -0.78060E+05        -0.59835E+08         0.00000E+00
    0.00000E+00         0.00000E+00        -0.27223E+08
 
   -0.33376E+08        -0.64971E+05         0.00000E+00
   -0.64971E+05        -0.59706E+08         0.00000E+00
    0.00000E+00         0.00000E+00        -0.27398E+08
 
   -0.32984E+08        -0.54014E+05         0.00000E+00
   -0.54014E+05        -0.59593E+08         0.00000E+00
    0.00000E+00         0.00000E+00        -0.27526E+08
 
   -0.32670E+08        -0.43687E+05         0.00000E+00
   -0.43687E+05        -0.59499E+08         0.00000E+00
    0.00000E+00         0.00000E+00        -0.27631E+08
 
   -0.32410E+08        -0.33716E+05         0.00000E+00
   -0.33716E+05        -0.59425E+08         0.00000E+00
    0.00000E+00         0.00000E+00        -0.27726E+08
 
   -0.32188E+08        -0.23828E+05         0.00000E+00
   -0.23828E+05        -0.59369E+08         0.00000E+00
    0.00000E+00         0.00000E+00        -0.27820E+08
 
   -0.31992E+08        -0.13827E+05         0.00000E+00
   -0.13827E+05        -0.59333E+08         0.00000E+00
    0.00000E+00         0.00000E+00        -0.27921E+08
 
   -0.31812E+08        -0.35368E+04         0.00000E+00
   -0.35368E+04        -0.59318E+08         0.00000E+00
    0.00000E+00         0.00000E+00        -0.28035E+08
 
   -0.31641E+08         0.72943E+04         0.00000E+00
    0.72943E+04        -0.59323E+08         0.00000E+00
    0.00000E+00         0.00000E+00        -0.28170E+08
 
   -0.31470E+08         0.18993E+05         0.00000E+00
    0.18993E+05        -0.59351E+08         0.00000E+00
    0.00000E+00         0.00000E+00        -0.28335E+08
 
   -0.31285E+08         0.32338E+05         0.00000E+00
    0.32338E+05        -0.59405E+08         0.00000E+00
    0.00000E+00         0.00000E+00        -0.28546E+08
 
   -0.31069E+08         0.49718E+05         0.00000E+00
    0.49718E+05        -0.59492E+08         0.00000E+00
    0.00000E+00         0.00000E+00        -0.28828E+08
 
   -0.30786E+08         0.80364E+05         0.00000E+00
    0.80364E+05        -0.59628E+08         0.00000E+00
    0.00000E+00         0.00000E+00        -0.29239E+08
 
   -0.30357E+08         0.17037E+06         0.00000E+00
    0.17037E+06        -0.59853E+08         0.00000E+00
    0.00000E+00         0.00000E+00        -0.29925E+08
 
SCALARS stressS double 
LOOKUP_TABLE default
  -43088905.4161000     
  -43086085.0594841     
  -43074035.5010186     
  -43052694.9684252     
  -43022652.6602305     
  -42985581.8035440     
  -42943506.5139554     
  -42898253.5492362     
  -42851207.7495116     
  -42803083.6767493     
  -42753945.2294484     
  -42703460.7841780     
  -42651143.3943683     
  -42596515.7531280     
  -42539203.8901144     
  -43080340.0836927     
  -43077687.8629812     
  -43065779.9742928     
  -43044664.6257173     
  -43015257.0204635     
  -42979276.1530981     
  -42938473.9019080     
  -42894566.6764498     
  -42848766.8888924     
  -42801679.6124625     
  -42753338.3469058     
  -42703441.3582514     
  -42651538.0917521     
  -42597181.6095827     
  -42540017.0617765     
  -43062850.6808920     
  -43060263.0754183     
  -43048839.3297475     
  -43028705.3588507     
  -43000751.4331422     
  -42966851.4016662     
  -42928574.2707678     
  -42887282.7527178     
  -42843863.0665014     
  -42798747.7799562     
  -42751944.5060128     
  -42703187.4492460     
  -42652091.8950852     
  -42598286.6850261     
  -42541465.6919168     
  -43037148.3667697     
  -43034588.9959034     
  -43023542.6139263     
  -43004721.2881258     
  -42979354.2063767     
  -42948725.2589147     
  -42914104.6942073     
  -42876490.4371858     
  -42836392.6836570     
  -42794047.5646471     
  -42749416.9627938     
  -42702303.7634704     
  -42652425.8878832     
  -42599461.0264269     
  -42543223.0347952     
  -43002776.7004771     
  -43000669.9091508     
  -42990733.9934345     
  -42973861.7853285     
  -42951569.4920780     
  -42925204.0124543     
  -42895291.5760166     
  -42862163.6792129     
  -42826075.9443953     
  -42787124.3626767     
  -42745246.5796791     
  -42700276.1742671     
  -42652010.8895235     
  -42600271.8395402     
  -42544871.2173765     
  -42960341.6404432     
  -42958550.3112594     
  -42950045.8500762     
  -42936114.7274899     
  -42918190.4253258     
  -42896891.4067409     
  -42872209.2598496     
  -42844111.1445325     
  -42812569.6364096     
  -42777524.3208736     
  -42738878.8248117     
  -42696510.2855652     
  -42650280.0474025     
  -42600063.2029347     
  -42545723.0600130     
  -42909635.7874951     
  -42908873.3956915     
  -42902460.5146680     
  -42892399.2556533     
  -42879697.5224296     
  -42863857.9256790     
  -42844742.4219439     
  -42821988.8648579     
  -42795359.0105882     
  -42764646.9829273     
  -42729674.2212435     
  -42690331.2377046     
  -42646499.4001218     
  -42598106.2497505     
  -42545163.4967236     
  -42851303.2895137     
  -42851526.2622556     
  -42848363.9770004     
  -42843156.5514575     
  -42835620.9411872     
  -42825636.5420435     
  -42812373.4606396     
  -42795247.5299165     
  -42773829.2874974     
  -42747778.7439872     
  -42716871.6621522     
  -42680943.9856626     
  -42639922.0148011     
  -42593781.4384563     
  -42542552.9388665     
  -42785406.3933738     
  -42787834.5035818     
  -42788212.0632553     
  -42787613.3044475     
  -42785873.2004348     
  -42781731.9030258     
  -42774393.8128946     
  -42763037.8515595     
  -42747089.4281580     
  -42726100.2367209     
  -42699706.7517725     
  -42667665.7229683     
  -42629841.3543087     
  -42586279.3466751     
  -42537078.4534581     
  -42712375.3905827     
  -42716367.0251451     
  -42720858.9427294     
  -42725692.2755556     
  -42729536.4377951     
  -42731382.3121330     
  -42730063.2927348     
  -42724727.2793001     
  -42714575.1572195     
  -42698971.2277045     
  -42677427.3683295     
  -42649630.5970429     
  -42615415.8574436     
  -42574809.5645650     
  -42527980.5559051     
  -42631443.1423412     
  -42637758.4492268     
  -42646290.0230203     
  -42656155.3362929     
  -42665792.0511301     
  -42673706.1363263     
  -42678653.7691422     
  -42679502.2514370     
  -42675348.1629642     
  -42665422.8193616     
  -42649130.3692131     
  -42625968.7982856     
  -42595796.9162551     
  -42558553.0440653     
  -42514496.1783413     
  -42542563.6090357     
  -42551204.3391371     
  -42563920.7606619     
  -42578860.5787734     
  -42594139.0437624     
  -42608097.3627584     
  -42619321.9702879     
  -42626474.3467683     
  -42628490.1533131     
  -42624495.5246348     
  -42613742.6702117     
  -42595683.5864317     
  -42570020.6843083     
  -42536625.8053526     
  -42495783.9904673     
  -42446979.9556151     
  -42457124.4819897     
  -42473540.7144937     
  -42493333.8466254     
  -42514149.1257004     
  -42534101.6578682     
  -42551399.3146801     
  -42564769.0222760     
  -42573010.0191133     
  -42575074.7484170     
  -42570131.8059684     
  -42557609.3515510     
  -42536958.1527961     
  -42508017.0753818     
  -42470974.1111623     
  -42343487.6602977     
  -42355654.7135398     
  -42375459.2714631     
  -42399692.3414960     
  -42425664.0588870     
  -42451064.2718560     
  -42474203.2198154     
  -42493519.8945653     
  -42507777.1505299     
  -42515963.7870042     
  -42517124.9737425     
  -42510447.9303507     
  -42495326.1440234     
  -42471510.6191886     
  -42439098.0592516     
  -42234213.7942517     
  -42247652.3822741     
  -42270285.0000153     
  -42298241.3246168     
  -42328494.8184216     
  -42358718.9856415     
  -42387013.9700527     
  -42411849.6823117     
  -42431920.0402191     
  -42446066.0099311     
  -42453347.0440651     
  -42452820.7361370     
  -42443793.3192096     
  -42425843.9880515     
  -42398818.5038146     
  -42119876.2886170     
  -42134244.3513853     
  -42158674.2717093     
  -42189211.3632595     
  -42222814.3873176     
  -42256932.3822691     
  -42289563.0670033     
  -42319128.2029235     
  -42344368.5241959     
  -42364182.4641746     
  -42377502.9396938     
  -42383379.5141945     
  -42380963.9013235     
  -42369596.5690901     
  -42348594.1901602     
  -42001599.4634777     
  -42016316.3779881     
  -42041592.6203895     
  -42073593.4678007     
  -42109198.5633613     
  -42145942.5825073     
  -42181774.0129299     
  -42215145.6899704     
  -42244754.3296109     
  -42269515.7588305     
  -42288514.8729455     
  -42300842.1522449     
  -42305417.6339884     
  -42301145.8209140     
  -42287245.4304277     
  -41880515.4017814     
  -41894986.8202570     
  -41920081.7438302     
  -41952241.4003474     
  -41988448.7837549     
  -42026244.0796246     
  -42063730.7079371     
  -42099335.9579803     
  -42131988.7930297     
  -42160954.2721169     
  -42185285.3253294     
  -42203941.5937094     
  -42215786.1840296     
  -42219235.3378181     
  -42213498.2927015     
  -41757811.2505902     
  -41771269.8508391     
  -41795152.2164117     
  -41826073.6335509     
  -41861263.1293345     
  -41898398.5704870     
  -41935651.6887983     
  -41971793.3561673     
  -42006031.4916063     
  -42037740.7366215     
  -42066473.7495985     
  -42091242.2495938     
  -42110596.6649693     
  -42122788.7053000     
  -42125906.3873303     
  -41634669.6415602     
  -41646211.2214953     
  -41667699.2891312     
  -41695964.1075805     
  -41728402.2839711     
  -41762934.2737842     
  -41797984.1651211     
  -41832635.3511538     
  -41866484.1546879     
  -41899422.7061201     
  -41931277.6167416     
  -41961479.3602954     
  -41988516.4867584     
  -42010114.8621585     
  -42023380.8371542     
  -41512097.3627805     
  -41520676.3509004     
  -41538571.1633298     
  -41562672.8647785     
  -41590534.9766048     
  -41620342.1141813     
  -41650997.3722530     
  -41682007.5484323     
  -41713444.2392961     
  -41745738.0218215     
  -41779229.1104788     
  -41813853.7621088     
  -41848305.1712922     
  -41879804.7514765     
  -41904597.0454096     
  -41391026.3564722     
  -41395503.3030765     
  -41408489.2668035     
  -41426822.1102696     
  -41448105.4579041     
  -41470924.3397229     
  -41494805.3727747     
  -41520002.4184491     
  -41547140.4392903     
  -41577045.6895000     
  -41610567.3658297     
  -41648119.7135382     
  -41689083.8448613     
  -41730797.7417552     
  -41768285.2337642     
  -41272335.0055136     
  -41271422.6496135     
  -41278023.5003615     
  -41288738.2279448     
  -41301228.2986499     
  -41314624.9515007     
  -41329316.8460837     
  -41346518.3534465     
  -41367641.0786922     
  -41393849.2923870     
  -41426066.5215178     
  -41465011.4840895     
  -41510972.6000986     
  -41562339.4205169     
  -41613081.2949727     
  -41156705.1025123     
  -41148873.2495067     
  -41147420.7663861     
  -41148290.8497973     
  -41149414.5105131     
  -41150774.5094619     
  -41153969.0967799     
  -41161293.8877315     
  -41174937.4323090     
  -41196474.5110550     
  -41226745.0912505     
  -41266310.0903898     
  -41315630.9633471     
  -41374753.6304722     
  -41440159.7246880     
  -41044809.1432554     
  -41028217.3555867     
  -41016317.3844665     
  -41004434.0949252     
  -40991147.3508074     
  -40977869.8563356     
  -40967659.6311445     
  -40963738.9906467     
  -40968773.2875406     
  -40984730.0398765     
  -41012784.7352566     
  -41053094.8510262     
  -41105556.2288222     
  -41170396.8731536     
  -41248552.8337317     
  -40937110.9165309     
  -40909128.7000557     
  -40883270.9393900     
  -40854490.0590734     
  -40823244.7727886     
  -40793233.2042612     
  -40768710.9656780     
  -40753010.4788180     
  -40748776.8824848     
  -40758198.8117093     
  -40783037.2829567     
  -40824347.6730014     
  -40881572.1060518     
  -40954066.8825944     
  -41039294.6477901     
  -40833934.3257728     
  -40790361.1469930     
  -40744472.0154335     
  -40692929.0738313     
  -40640419.0191975     
  -40592995.3820218     
  -40554673.3584994     
  -40527943.1546349     
  -40514623.5246065     
  -40516705.5365789     
  -40536599.0300139     
  -40576863.6542383     
  -40639172.9855913     
  -40719615.5256030     
  -40815164.8343340     
  -40735055.9475943     
  -40667408.6588366     
  -40590939.1159172     
  -40510094.1520433     
  -40435772.3195882     
  -40372628.8313525     
  -40322623.5128584     
  -40286713.0833760     
  -40265797.7859456     
  -40261056.0793786     
  -40274597.5058370     
  -40309961.9881017     
  -40371797.2804455     
  -40465257.2323599     
  -40579176.6175093     
  -40636759.2748278     
  -40525904.4154325     
  -40403224.0401084     
  -40294099.4229436     
  -40202133.1330284     
  -40127427.9014142     
  -40069385.4378428     
  -40027504.3074376     
  -40001673.9259120     
  -39992338.7010114     
  -40000731.8755808     
  -40029578.2988474     
  -40084938.8950014     
  -40177203.1883625     
  -40328924.5471775     
  -40516547.3531664     
  -40316783.4591520     
  -40160157.7847206     
  -40034532.2243403     
  -39933641.8047180     
  -39853711.2548195     
  -39792457.5051361     
  -39748596.3240270     
  -39721553.1809928     
  -39711372.7824998     
  -39718748.7050482     
  -39745527.7715786     
  -39796322.6074721     
  -39884426.5198843     
  -40044793.2024322     
SCALARS 2waySource double 
LOOKUP_TABLE default
 -3.501751418781309E-005
 -3.605430062985680E-005
 -3.700936530169274E-005
 -3.787661368969185E-005
 -3.865178783744798E-005
 -3.933768420159500E-005
 -3.993973056970846E-005
 -4.046432086773310E-005
 -4.091556792595457E-005
 -4.129402249003257E-005
 -4.159623940187908E-005
 -4.181609678392763E-005
 -4.194635089098372E-005
 -4.197986315118205E-005
 -4.191036069968520E-005
 -3.490806030112202E-005
 -3.594226485396822E-005
 -3.689527814510542E-005
 -3.776117236433496E-005
 -3.853644821811654E-005
 -3.922488351489140E-005
 -3.983129230466463E-005
 -4.036144262894585E-005
 -4.081856981677974E-005
 -4.120248300644212E-005
 -4.150937636603292E-005
 -4.173313288140162E-005
 -4.186668668298601E-005
 -4.190305389592606E-005
 -4.183616036847045E-005
 -3.473101207917889E-005
 -3.575782614289973E-005
 -3.670447571612449E-005
 -3.756558677670024E-005
 -3.833933299141763E-005
 -3.903041264640100E-005
 -3.964281896343470E-005
 -4.018104430439364E-005
 -4.064667777408423E-005
 -4.103840295910505E-005
 -4.135195168756956E-005
 -4.158127280162215E-005
 -4.171957980624252E-005
 -4.176028944471088E-005
 -4.169773303275960E-005
 -3.448778079698590E-005
 -3.550236699585502E-005
 -3.643840550374903E-005
 -3.729129574939319E-005
 -3.806251902943100E-005
 -3.875656282999227E-005
 -3.937655858541491E-005
 -3.992475582024210E-005
 -4.040073917680236E-005
 -4.080192892084682E-005
 -4.112354204206776E-005
 -4.135964860461126E-005
 -4.150390106379216E-005
 -4.155025115299457E-005
 -4.149357901388239E-005
 -3.418079676238097E-005
 -3.517810262322227E-005
 -3.609901264114091E-005
 -3.694132143648683E-005
 -3.770924275068466E-005
 -3.840658802540884E-005
 -3.903538091373195E-005
 -3.959446419816532E-005
 -4.008159374370196E-005
 -4.049294987434725E-005
 -4.082333081432871E-005
 -4.106693848542982E-005
 -4.121794790416343E-005
 -4.127101222042092E-005
 -4.122157649701752E-005
 -3.381316107246461E-005
 -3.478778831283123E-005
 -3.568932052402209E-005
 -3.651931473836410E-005
 -3.728347373468667E-005
 -3.798483994464157E-005
 -3.862231241187838E-005
 -3.919200679552839E-005
 -3.968996444136286E-005
 -4.011120137518365E-005
 -4.045017149214313E-005
 -4.070133972712725E-005
 -4.085943834811530E-005
 -4.091979504372299E-005
 -4.087856987623530E-005
 -3.338872411171751E-005
 -3.433518783245008E-005
 -3.521361039445886E-005
 -3.602997509884254E-005
 -3.679046579594157E-005
 -3.749539425351916E-005
 -3.814013885282962E-005
 -3.871893318753942E-005
 -3.922612773870567E-005
 -3.965584773888201E-005
 -4.000235150042816E-005
 -4.026039000590785E-005
 -4.042524911598605E-005
 -4.049305890452975E-005
 -4.046081414580899E-005
 -3.291222596727294E-005
 -3.382475870771781E-005
 -3.467708860663854E-005
 -3.547912749357138E-005
 -3.623530299510435E-005
 -3.694161959180919E-005
 -3.759110166657624E-005
 -3.817612346883664E-005
 -3.868971104608195E-005
 -3.912537432658952E-005
 -3.947735734860139E-005
 -3.974073673055437E-005
 -3.991156940106789E-005
 -3.998669584979602E-005
 -3.996384710935308E-005
 -3.238904411008423E-005
 -3.326201073287331E-005
 -3.408613666003913E-005
 -3.487322717599075E-005
 -3.562249028373603E-005
 -3.632668459066209E-005
 -3.697667058687512E-005
 -3.756352196219136E-005
 -3.807932543128628E-005
 -3.851729814470962E-005
 -3.887184449136720E-005
 -3.913851280866983E-005
 -3.931386240905554E-005
 -3.939555231343037E-005
 -3.938210522945689E-005
 -3.182476167848337E-005
 -3.265327069622952E-005
 -3.344831626746180E-005
 -3.421782771711016E-005
 -3.495593529843827E-005
 -3.565271435857649E-005
 -3.629746583417392E-005
 -3.688037118102054E-005
 -3.739301008113786E-005
 -3.782858491295111E-005
 -3.818176848906006E-005
 -3.844864531585194E-005
 -3.862651222936216E-005
 -3.871370383928858E-005
 -3.870930853832923E-005
 -3.122591829766805E-005
 -3.200693654671218E-005
 -3.277066117554181E-005
 -3.351775696227937E-005
 -3.423851563690629E-005
 -3.492085215150155E-005
 -3.555303327094942E-005
 -3.612474036856547E-005
 -3.662749917624605E-005
 -3.705475225085137E-005
 -3.740179474471321E-005
 -3.766521906182361E-005
 -3.784309389605419E-005
 -3.793425395229834E-005
 -3.793834936399538E-005
 -3.059983807768041E-005
 -3.133108633632572E-005
 -3.205918468225073E-005
 -3.277723424007995E-005
 -3.347236275051622E-005
 -3.413128124767127E-005
 -3.474176123892854E-005
 -3.529350544656893E-005
 -3.577833909416041E-005
 -3.619039780577731E-005
 -3.652553602575899E-005
 -3.678123995391937E-005
 -3.695608940993309E-005
 -3.704937529812654E-005
 -3.706111102918453E-005
 -2.995491772731271E-005
 -3.063352592497367E-005
 -3.131917465576464E-005
 -3.199914861314964E-005
 -3.265842291764281E-005
 -3.328306857884921E-005
 -3.386093441803285E-005
 -3.438235225419353E-005
 -3.484006623804096E-005
 -3.522888422156526E-005
 -3.554560171361739E-005
 -3.578856835226183E-005
 -3.595680391366029E-005
 -3.605024146635185E-005
 -3.606889108932409E-005
 -2.929864939513243E-005
 -2.992049255186149E-005
 -3.055501090297707E-005
 -3.118563648647385E-005
 -3.179654613767491E-005
 -3.237388208770362E-005
 -3.290654442877105E-005
 -3.338598591979948E-005
 -3.380591264317794E-005
 -3.416248814467849E-005
 -3.445352728816447E-005
 -3.467806701871547E-005
 -3.483596540600710E-005
 -3.492737003942444E-005
 -3.495227162256438E-005
 -2.864033271735349E-005
 -2.919830036432366E-005
 -2.977017536787124E-005
 -3.033775030865000E-005
 -3.088534575497967E-005
 -3.140055635247279E-005
 -3.187376404489691E-005
 -3.229787953394302E-005
 -3.266835579717720E-005
 -3.298267259318233E-005
 -3.323986578274312E-005
 -3.343999223397982E-005
 -3.358354951506117E-005
 -3.367082287977483E-005
 -3.370127855165809E-005
 -2.798873581887049E-005
 -2.847223984724031E-005
 -2.896720555643301E-005
 -2.945543896046891E-005
 -2.992293386755808E-005
 -3.035927970548990E-005
 -3.075679662552552E-005
 -3.111079214733267E-005
 -3.141874270282879E-005
 -3.167985336325157E-005
 -3.189460157443527E-005
 -3.206408040330731E-005
 -3.218926028474826E-005
 -3.227040504690363E-005
 -3.230604461165467E-005
 -2.735250035374879E-005
 -2.774714961937313E-005
 -2.814818834417720E-005
 -2.853877225279429E-005
 -2.890714224702332E-005
 -2.924563025249587E-005
 -2.954961244147191E-005
 -2.981717541803575E-005
 -3.004827222936013E-005
 -3.024431004592494E-005
 -3.040745995912211E-005
 -3.053992535215996E-005
 -3.064300564300130E-005
 -3.071632109974655E-005
 -3.075769408081530E-005
 -2.673982071018282E-005
 -2.702766818831923E-005
 -2.731530216661934E-005
 -2.758759997029784E-005
 -2.783582478299714E-005
 -2.805546799645951E-005
 -2.824579892675522E-005
 -2.840849333336300E-005
 -2.854696388655312E-005
 -2.866546523335534E-005
 -2.876798859575223E-005
 -2.885751996989412E-005
 -2.893544106949530E-005
 -2.900037200161063E-005
 -2.904860242491257E-005
 -2.615824608426392E-005
 -2.631812021780234E-005
 -2.647046834667820E-005
 -2.660201036613785E-005
 -2.670689984762453E-005
 -2.678456569096053E-005
 -2.683887553851901E-005
 -2.687655019362704E-005
 -2.690551283416001E-005
 -2.693332001483483E-005
 -2.696618872840558E-005
 -2.700781007968538E-005
 -2.705866616847674E-005
 -2.711598986388403E-005
 -2.717314416971393E-005
 -2.561446744622925E-005
 -2.562228659869666E-005
 -2.561542089371269E-005
 -2.558188498494495E-005
 -2.551843096693169E-005
 -2.542881223697906E-005
 -2.532272277299897E-005
 -2.521340991277645E-005
 -2.511482194995069E-005
 -2.503895071440403E-005
 -2.499403460422464E-005
 -2.498381972480712E-005
 -2.500723826738852E-005
 -2.505867080353842E-005
 -2.512833576229149E-005
 -2.511391201471437E-005
 -2.494302041032797E-005
 -2.475107435627202E-005
 -2.452639607793736E-005
 -2.426783679708281E-005
 -2.398388106815109E-005
 -2.369145340093958E-005
 -2.341224093573496E-005
 -2.316794287654873E-005
 -2.297588844118386E-005
 -2.284625681424828E-005
 -2.278179147136833E-005
 -2.277857928016602E-005
 -2.282725199318287E-005
 -2.291403175201558E-005
 -2.466103445731802E-005
 -2.428194788946661E-005
 -2.387657401349246E-005
 -2.343251295391496E-005
 -2.295028854821270E-005
 -2.244407337017071E-005
 -2.193953451943992E-005
 -2.146849487133079E-005
 -2.106168368676728E-005
 -2.074224021516460E-005
 -2.052208015640098E-005
 -2.040187341303268E-005
 -2.037371597374226E-005
 -2.042362450878048E-005
 -2.053301763727294E-005
 -2.425946489028599E-005
 -2.363882196294052E-005
 -2.298793172884096E-005
 -2.229259516597437E-005
 -2.155604589500352E-005
 -2.080031435732855E-005
 -2.006148963161510E-005
 -1.938151010328324E-005
 -1.879915443008836E-005
 -1.834284291189026E-005
 -1.802646756943065E-005
 -1.784890523966847E-005
 -1.779740656819384E-005
 -1.785262776431364E-005
 -1.799057395017951E-005
 -2.391192939535874E-005
 -2.301030346139287E-005
 -2.207538550003976E-005
 -2.109071126024910E-005
 -2.006671070876242E-005
 -1.903770250562126E-005
 -1.805142654667026E-005
 -1.715604682255589E-005
 -1.639263015350626E-005
 -1.579210339953440E-005
 -1.537195883207967E-005
 -1.513257999506532E-005
 -1.505788570829893E-005
 -1.512168929991003E-005
 -1.529553006013154E-005
 -2.362074366947427E-005
 -2.238859432270867E-005
 -2.111871205926783E-005
 -1.979702398472979E-005
 -1.845100982624447E-005
 -1.713433586040184E-005
 -1.590348312143720E-005
 -1.480252821336043E-005
 -1.386425808026253E-005
 -1.311609574872079E-005
 -1.258081363707075E-005
 -1.226804311669203E-005
 -1.216536166606088E-005
 -1.224132277919224E-005
 -1.245756152831064E-005
 -2.338771207358102E-005
 -2.175578100402308E-005
 -2.007831110062315E-005
 -1.835923150362903E-005
 -1.666273073317384E-005
 -1.506429939999732E-005
 -1.361371231734066E-005
 -1.233495778813374E-005
 -1.124234616138159E-005
 -1.035210612861761E-005
 -9.688513991430070E-006
 -9.279620927285565E-006
 -9.133251490909702E-006
 -9.220579009115486E-006
 -9.490095472758116E-006
 -2.321298102157332E-005
 -2.107137565929476E-005
 -1.887577543035752E-005
 -1.669366195031482E-005
 -1.464768634649904E-005
 -1.280633515809789E-005
 -1.118159047129968E-005
 -9.766535997501582E-006
 -8.552965153072317E-006
 -7.540980808898514E-006
 -6.746701675350171E-006
 -6.209213515141157E-006
 -5.981730129877511E-006
 -6.067752058344449E-006
 -6.407541076883967E-006
 -2.308758069638687E-005
 -2.023321933354858E-005
 -1.735824671847280E-005
 -1.469478273570533E-005
 -1.236568655745479E-005
 -1.035062519396664E-005
 -8.609163628230206E-006
 -7.104961079768966E-006
 -5.811489311054253E-006
 -4.713621987967907E-006
 -3.812177388023499E-006
 -3.134767577744684E-006
 -2.756602449107566E-006
 -2.799386283595031E-006
 -3.230518202882760E-006
 -2.294876119798308E-005
 -1.894337257729574E-005
 -1.529396533619355E-005
 -1.229710665516271E-005
 -9.802852193505774E-006
 -7.695696700981859E-006
 -5.896395935844926E-006
 -4.350427239281389E-006
 -3.020294438825198E-006
 -1.881525422931711E-006
 -9.221966074571629E-007
 -1.483279242037381E-007
  3.948220838754102E-007
  5.579553990677789E-007
 -2.662820771009316E-009
 -2.218125556515481E-005
 -1.655953300601841E-005
 -1.259125833951554E-005
 -9.492353937995294E-006
 -6.959778813339190E-006
 -4.838955534563929E-006
 -3.037243684056797E-006
 -1.494632102688553E-006
 -1.707966528054319E-007
  9.611380541925371E-007
  1.917375483341954E-006
  2.702221129507621E-006
  3.299345185402740E-006
  3.632273606397901E-006
  3.342617291785760E-006
SCALARS poroP double 
LOOKUP_TABLE default
  1.651536729609976E-005
  1.550852740841521E-005
  1.446750669229377E-005
  1.341147855230488E-005
  1.236555752411343E-005
  1.134912027692221E-005
  1.037776425511817E-005
  9.461339672446962E-006
  8.607197627656516E-006
  7.819263683390998E-006
  7.099404582275482E-006
  6.447994320731963E-006
  5.864482828845614E-006
  5.348051541476691E-006
  4.897731558347792E-006
  1.645549246939292E-005
  1.545138319347355E-005
  1.441601633747079E-005
  1.337005497816938E-005
  1.233551084107822E-005
  1.133104166686725E-005
  1.037233538958945E-005
  9.468378235842227E-006
  8.625693442135861E-006
  7.847550655591926E-006
  7.135425185861613E-006
  6.489692993259597E-006
  5.910007403320621E-006
  5.395567836648533E-006
  4.945620946345003E-006
  1.633461370336143E-005
  1.533984930431336E-005
  1.431629583794761E-005
  1.328708010412384E-005
  1.227497629006971E-005
  1.129589936315884E-005
  1.036290744093850E-005
  9.483929170406036E-006
  8.663748899075642E-006
  7.904621682099211E-006
  7.207552825813120E-006
  6.572936275402851E-006
  6.000659608271237E-006
  5.490136546880737E-006
  5.041052193064796E-006
  1.614495363059262E-005
  1.516683449427473E-005
  1.416605993010163E-005
  1.316481388259795E-005
  1.218626322418507E-005
  1.124600695449292E-005
  1.035223099070065E-005
  9.510553745034681E-006
  8.723134480225261E-006
  7.991292502877588E-006
  7.315876882319388E-006
  6.697262892854122E-006
  6.135499047836456E-006
  5.630794563224395E-006
  5.183298208275259E-006
  1.588479906644397E-005
  1.492882576489089E-005
  1.395851016457516E-005
  1.300102287776906E-005
  1.207340515435396E-005
  1.118612110356155E-005
  1.034457339475524E-005
  9.551285314950445E-006
  8.805743872753998E-006
  8.108463649781326E-006
  7.460216103170950E-006
  6.861667820282278E-006
  6.313444583175713E-006
  5.816294965397349E-006
  5.371035076155769E-006
  1.554795422657197E-005
  1.462288661811208E-005
  1.369866717587690E-005
  1.279954841921578E-005
  1.193960355098220E-005
  1.112093204371144E-005
  1.034440250183030E-005
  9.608698118966560E-006
  8.912549634957019E-006
  8.255971563915458E-006
  7.639731572131839E-006
  7.064979291167810E-006
  6.533154211030640E-006
  6.045418769862070E-006
  5.603080775816659E-006
  1.513347179944622E-005
  1.424848275208611E-005
  1.338646363375461E-005
  1.256658088027390E-005
  1.179086002297678E-005
  1.105518269043554E-005
  1.035390649272421E-005
  9.683818575652976E-006
  9.043549311612970E-006
  8.433020908914611E-006
  7.853365009830008E-006
  7.306183355188956E-006
  6.793224273791739E-006
  6.316516139359771E-006
  5.877943634200324E-006
  1.464132862301548E-005
  1.381262380097576E-005
  1.303334969933283E-005
  1.231144971941064E-005
  1.163514250541726E-005
  1.099167662189621E-005
  1.037329950925464E-005
  9.775904813862353E-006
  9.197669868948580E-006
  8.638611076628325E-006
  8.099990775468366E-006
  7.583685310022469E-006
  7.092098012724971E-006
  6.627857916887060E-006
  6.193668006781946E-006
  1.408376920078974E-005
  1.332751654338692E-005
  1.265452668242598E-005
  1.204418098003228E-005
  1.147421282060466E-005
  1.092976069337664E-005
  1.040126660453156E-005
  9.883206510503915E-006
  9.373134773233016E-006
  8.870769040173545E-006
  8.377526941062068E-006
  7.895693356018939E-006
  7.428091684881235E-006
  6.977931162754590E-006
  6.548638698088762E-006
  1.347995065354858E-005
  1.282527780813588E-005
  1.226522121244568E-005
  1.176870963412179E-005
  1.130876181294720E-005
  1.086780608415518E-005
  1.043457693563504E-005
  1.000164474801307E-005
  9.565718478408903E-006
  9.126223283515338E-006
  8.683793075345455E-006
  8.240613748690432E-006
  7.799630422267892E-006
  7.364984635580197E-006
  6.941031944455229E-006
  1.286274913886961E-005
  1.231572901747950E-005
  1.187191623344259E-005
  1.148855511579577E-005
  1.113841013090667E-005
  1.080313564949439E-005
  1.046879650551818E-005
  1.012676291924551E-005
  9.772035342858737E-006
  9.401949894073857E-006
  9.016154266956815E-006
  8.616026341182275E-006
  8.204884597786983E-006
  7.787371598406566E-006
  7.368755968341636E-006
  1.225255177456476E-005
  1.181256421430186E-005
  1.147762979208629E-005
  1.120299477123995E-005
  1.096125348821579E-005
  1.073221815744473E-005
  1.050053448623507E-005
  1.025496638956588E-005
  9.987773427925540E-006
  9.693852625240859E-006
  9.370949258384181E-006
  9.019256206837063E-006
  8.641713521551668E-006
  8.243224021668751E-006
  7.829890873255414E-006
  1.165572816044768E-005
  1.131951190415395E-005
  1.108478008064111E-005
  1.091280434648657E-005
  1.077613635452389E-005
  1.065292087263401E-005
  1.052647245619213E-005
  1.038204523483062E-005
  1.020813570488294E-005
  9.997110321663174E-006
  9.743797474737384E-006
  9.446753326106738E-006
  9.107445540959660E-006
  8.730362094253565E-006
  8.322413278304861E-006
  1.108405827341067E-005
  1.083732286775100E-005
  1.069434723983089E-005
  1.061879627777507E-005
  1.058313920721633E-005
  1.056487948655653E-005
  1.054390101644176E-005
  1.050319548277231E-005
  1.042785669541624E-005
  1.030583558941433E-005
  1.012943524536786E-005
  9.893918007903654E-006
  9.598372417042131E-006
  9.246065262054473E-006
  8.844252137168817E-006
  1.052934726882777E-005
  1.036650515275226E-005
  1.030861244059289E-005
  1.032306463482862E-005
  1.038372331750053E-005
  1.046669179837749E-005
  1.055019217291012E-005
  1.061408290464597E-005
  1.064036949566129E-005
  1.061368704191363E-005
  1.052132791414059E-005
  1.035457875456193E-005
  1.010956973338473E-005
  9.786878610073809E-006
  9.392805611508805E-006
  9.987608142765676E-006
  9.906561199475240E-006
  9.929951632504219E-006
  1.002890316478755E-005
  1.017909040291841E-005
  1.035769346208093E-005
  1.054208541136657E-005
  1.070995773166902E-005
  1.084014811606864E-005
  1.091295843555274E-005
  1.091103004811881E-005
  1.082111426252184E-005
  1.063455480020816E-005
  1.034800664657240E-005
  9.964802470160591E-006
  9.456294871887560E-006
  9.456147498601131E-006
  9.557788378405009E-006
  9.736671598690058E-006
  9.970531212244881E-006
  1.023830400029125E-005
  1.051784062237492E-005
  1.078593156409714E-005
  1.101914943027169E-005
  1.119390190741854E-005
  1.128849319338230E-005
  1.128385112126524E-005
  1.116482941367301E-005
  1.092290886187994E-005
  1.055744178890780E-005
  8.933343338207974E-006
  9.013435131473527E-006
  9.191485126887125E-006
  9.446512052606555E-006
  9.759048254564999E-006
  1.010947189026890E-005
  1.047683091135911E-005
  1.083881344938882E-005
  1.117092279933287E-005
  1.144714386643548E-005
  1.164173569182442E-005
  1.173018208161217E-005
  1.168991229913490E-005
  1.150439391545611E-005
  1.116753412297954E-005
  8.417982178103524E-006
  8.578065108058164E-006
  8.831447427827543E-006
  9.159804155469920E-006
  9.545949810809695E-006
  9.971954819896203E-006
  1.041860493888448E-005
  1.086499685903866E-005
  1.128766152157878E-005
  1.166126260650486E-005
  1.195726092389655E-005
  1.214587386457166E-005
  1.219747563720041E-005
  1.208446672595292E-005
  1.179019730575235E-005
  7.911222702403251E-006
  8.151342150235601E-006
  8.479221620443215E-006
  8.878430241985360E-006
  9.333056782040909E-006
  9.826755427520048E-006
  1.034229753273962E-005
  1.086102499967094E-005
  1.136261700773750E-005
  1.182436705436827E-005
  1.221932595848965E-005
  1.251453584654766E-005
  1.267247791277413E-005
  1.265283472948262E-005
  1.242197764565017E-005
  7.415657108893287E-006
  7.736023371186488E-006
  8.137697396609950E-006
  8.604877094189752E-006
  9.122374360021039E-006
  9.674930602288044E-006
  1.024714261107125E-005
  1.082347586125786E-005
  1.138845207789333E-005
  1.192512137136272E-005
  1.241163475621205E-005
  1.281663824468511E-005
  1.309643763427230E-005
  1.319587655006274E-005
  1.305822924455785E-005
  6.934772989673382E-006
  7.335692656525082E-006
  7.810412130031367E-006
  8.342483908572758E-006
  8.916269049959260E-006
  9.517125558839225E-006
  1.013161519065992E-005
  1.074842401280259E-005
  1.135839666643380E-005
  1.195262843829887E-005
  1.251800324072166E-005
  1.303016227609563E-005
  1.344552897846404E-005
  1.369507755207534E-005
  1.369044772173022E-005
  6.471995098755168E-006
  6.954447184841474E-006
  7.501774372094231E-006
  8.095137580849013E-006
  8.717177520621847E-006
  9.353328652069977E-006
  9.993037550892067E-006
  1.063091723784552E-005
  1.126580916476727E-005
  1.189794139654091E-005
  1.252474453761541E-005
  1.313404829189780E-005
  1.369229719950711E-005
  1.412605945152589E-005
  1.430853090678253E-005
  6.030411346268607E-006
  6.596614454569947E-006
  7.216616933807822E-006
  7.866726602170120E-006
  8.526508109756883E-006
  9.181885276478308E-006
  9.827176569747668E-006
  1.046512184732717E-005
  1.110407242866580E-005
  1.175391049233086E-005
  1.242244422836142E-005
  1.311103831882860E-005
  1.380466845927433E-005
  1.444642824804246E-005
  1.488682013941206E-005
  5.612405977765203E-006
  6.266696263456066E-006
  6.959726819359917E-006
  7.659673890332660E-006
  8.342682428596464E-006
  8.997753226972639E-006
  9.627452283447283E-006
  1.024468777597532E-005
  1.086763653891149E-005
  1.151558461436161E-005
  1.220595245430608E-005
  1.295267959817831E-005
  1.376327576046835E-005
  1.462203964970887E-005
  1.540551903838827E-005
  5.220173804687200E-006
  5.970004919383120E-006
  6.735052002244090E-006
  7.472335900554318E-006
  8.157938058865592E-006
  8.790397329601396E-006
  9.384602797527282E-006
  9.963533874151782E-006
  1.055320069803919E-005
  1.118071244730604E-005
  1.187325993408681E-005
  1.265687036170581E-005
  1.355836627866798E-005
  1.460461134304316E-005
  1.577421969605148E-005
  4.856169612209084E-006
  5.712730875094587E-006
  6.542905700968689E-006
  7.293769536900052E-006
  7.954147516221173E-006
  8.542497904382135E-006
  9.086858147513903E-006
  9.616669819232038E-006
  1.016159647793077E-005
  1.075306920439655E-005
  1.142628550991285E-005
  1.222193880750152E-005
  1.318600178848214E-005
  1.439017559414887E-005
  1.596990510294343E-005
  4.525196963198760E-006
  5.500936675760092E-006
  6.370831793025001E-006
  7.094541815278627E-006
  7.701018837763309E-006
  8.231652854975728E-006
  8.721367426462086E-006
  9.200307462711964E-006
  9.697322569771164E-006
  1.024369272287359E-005
  1.087832833074474E-005
  1.165439359795510E-005
  1.265017138575226E-005
  1.398707654900006E-005
  1.597730207123004E-005
  4.236324980884356E-006
  5.326390599510047E-006
  6.169152587002900E-006
  6.822372566085939E-006
  7.362253904764959E-006
  7.836023256558645E-006
  8.276698723857172E-006
  8.711437310817582E-006
  9.165989808854248E-006
  9.668715806905606E-006
  1.025663827766705E-005
  1.098680442233486E-005
  1.196060066975294E-005
  1.338565151052060E-005
  1.580730524338822E-005
  3.989174903680272E-006
  5.090962731824641E-006
  5.838813207406503E-006
  6.421154181085135E-006
  6.908374831534320E-006
  7.340465925048418E-006
  7.746048501449839E-006
  8.149119435858235E-006
  8.572659435237163E-006
  9.042238094079082E-006
  9.591293934505853E-006
  1.027277290960527E-005
  1.118931578488984E-005
  1.259471484452765E-005
  1.550617641476372E-005
SCALARS elementIsPlast double 
LOOKUP_TABLE default
   1.00000000000000     
   1.00000000000000     
   1.00000000000000     
   1.00000000000000     
   1.00000000000000     
   1.00000000000000     
   1.00000000000000     
   1.00000000000000     
   1.00000000000000     
   1.00000000000000     
   1.00000000000000     
   1.00000000000000     
   1.00000000000000     
   1.00000000000000     
   1.00000000000000     
   1.00000000000000     
   1.00000000000000     
   1.00000000000000     
   1.00000000000000     
   1.00000000000000     
   1.00000000000000     
   1.00000000000000     
   1.00000000000000     
   1.00000000000000     
   1.00000000000000     
   1.00000000000000     
   1.00000000000000     
   1.00000000000000     
   1.00000000000000     
   1.00000000000000     
   1.00000000000000     
   1.00000000000000     
   1.00000000000000     
   1.00000000000000     
   1.00000000000000     
   1.00000000000000     
   1.00000000000000     
   1.00000000000000     
   1.00000000000000     
   1.00000000000000     
   1.00000000000000     
   1.00000000000000     
   1.00000000000000     
   1.00000000000000     
   1.00000000000000     
   1.00000000000000     
   1.00000000000000     
   1.00000000000000     
   1.00000000000000     
   1.00000000000000     
   1.00000000000000     
   1.00000000000000     
   1.00000000000000     
   1.00000000000000     
   1.00000000000000     
   1.00000000000000     
   1.00000000000000     
   1.00000000000000     
   1.00000000000000     
   1.00000000000000     
   1.00000000000000     
   1.00000000000000     
   1.00000000000000     
   1.00000000000000     
   1.00000000000000     
   1.00000000000000     
   1.00000000000000     
   1.00000000000000     
   1.00000000000000     
   1.00000000000000     
   1.00000000000000     
   1.00000000000000     
   1.00000000000000     
   1.00000000000000     
   1.00000000000000     
   1.00000000000000     
   1.00000000000000     
   1.00000000000000     
   1.00000000000000     
   1.00000000000000     
   1.00000000000000     
   1.00000000000000     
   1.00000000000000     
   1.00000000000000     
   1.00000000000000     
   1.00000000000000     
   1.00000000000000     
   1.00000000000000     
   1.00000000000000     
   1.00000000000000     
   1.00000000000000     
   1.00000000000000     
   1.00000000000000     
   1.00000000000000     
   1.00000000000000     
   1.00000000000000     
   1.00000000000000     
   1.00000000000000     
   1.00000000000000     
   1.00000000000000     
   1.00000000000000     
   1.00000000000000     
   1.00000000000000     
   1.00000000000000     
   1.00000000000000     
   1.00000000000000     
   1.00000000000000     
   1.00000000000000     
   1.00000000000000     
   1.00000000000000     
   1.00000000000000     
   1.00000000000000     
   1.00000000000000     
   1.00000000000000     
   1.00000000000000     
   1.00000000000000     
   1.00000000000000     
   1.00000000000000     
   1.00000000000000     
   1.00000000000000     
   1.00000000000000     
   1.00000000000000     
   1.00000000000000     
   1.00000000000000     
   1.00000000000000     
   1.00000000000000     
   1.00000000000000     
   1.00000000000000     
   1.00000000000000     
   1.00000000000000     
   1.00000000000000     
   1.00000000000000     
   1.00000000000000     
   1.00000000000000     
   1.00000000000000     
   1.00000000000000     
   1.00000000000000     
   1.00000000000000     
   1.00000000000000     
   1.00000000000000     
   1.00000000000000     
   1.00000000000000     
   1.00000000000000     
   1.00000000000000     
   1.00000000000000     
   1.00000000000000     
   1.00000000000000     
   1.00000000000000     
   1.00000000000000     
   1.00000000000000     
   1.00000000000000     
   1.00000000000000     
   1.00000000000000     
   1.00000000000000     
   1.00000000000000     
   1.00000000000000     
   1.00000000000000     
   1.00000000000000     
   1.00000000000000     
   1.00000000000000     
   1.00000000000000     
   1.00000000000000     
   1.00000000000000     
   1.00000000000000     
   1.00000000000000     
   1.00000000000000     
   1.00000000000000     
   1.00000000000000     
   1.00000000000000     
   1.00000000000000     
   1.00000000000000     
   1.00000000000000     
   1.00000000000000     
   1.00000000000000     
   1.00000000000000     
   1.00000000000000     
   1.00000000000000     
   1.00000000000000     
   1.00000000000000     
   1.00000000000000     
   1.00000000000000     
   1.00000000000000     
   1.00000000000000     
   1.00000000000000     
   1.00000000000000     
   1.00000000000000     
   1.00000000000000     
   1.00000000000000     
   1.00000000000000     
   1.00000000000000     
   1.00000000000000     
   1.00000000000000     
   1.00000000000000     
   1.00000000000000     
   1.00000000000000     
   1.00000000000000     
   1.00000000000000     
   1.00000000000000     
   1.00000000000000     
   1.00000000000000     
   1.00000000000000     
   1.00000000000000     
   1.00000000000000     
   1.00000000000000     
   1.00000000000000     
   1.00000000000000     
   1.00000000000000     
   1.00000000000000     
   1.00000000000000     
   1.00000000000000     
   1.00000000000000     
   1.00000000000000     
   1.00000000000000     
   1.00000000000000     
   1.00000000000000     
   1.00000000000000     
   1.00000000000000     
   1.00000000000000     
   1.00000000000000     
   1.00000000000000     
   1.00000000000000     
   1.00000000000000     
   1.00000000000000     
   1.00000000000000     
   1.00000000000000     
   1.00000000000000     
   1.00000000000000     
   1.00000000000000     
   1.00000000000000     
   1.00000000000000     
   1.00000000000000     
   1.00000000000000     
   1.00000000000000     
   1.00000000000000     
   1.00000000000000     
   1.00000000000000     
   1.00000000000000     
   1.00000000000000     
   1.00000000000000     
   1.00000000000000     
   1.00000000000000     
   1.00000000000000     
   1.00000000000000     
   1.00000000000000     
   1.00000000000000     
   1.00000000000000     
   1.00000000000000     
   1.00000000000000     
   1.00000000000000     
   1.00000000000000     
   1.00000000000000     
   1.00000000000000     
   1.00000000000000     
   1.00000000000000     
   1.00000000000000     
   1.00000000000000     
   1.00000000000000     
   1.00000000000000     
   1.00000000000000     
   1.00000000000000     
   1.00000000000000     
   1.00000000000000     
   1.00000000000000     
   1.00000000000000     
   1.00000000000000     
   1.00000000000000     
   1.00000000000000     
   1.00000000000000     
   1.00000000000000     
   1.00000000000000     
   1.00000000000000     
   1.00000000000000     
   1.00000000000000     
   1.00000000000000     
   1.00000000000000     
   1.00000000000000     
   1.00000000000000     
   1.00000000000000     
   1.00000000000000     
   1.00000000000000     
   1.00000000000000     
   1.00000000000000     
   1.00000000000000     
   1.00000000000000     
   1.00000000000000     
   1.00000000000000     
   1.00000000000000     
   1.00000000000000     
   1.00000000000000     
   1.00000000000000     
   1.00000000000000     
   1.00000000000000     
   1.00000000000000     
   1.00000000000000     
   1.00000000000000     
   1.00000000000000     
   1.00000000000000     
   1.00000000000000     
   1.00000000000000     
   1.00000000000000     
   1.00000000000000     
   1.00000000000000     
   1.00000000000000     
   1.00000000000000     
   1.00000000000000     
   1.00000000000000     
   1.00000000000000     
   1.00000000000000     
   1.00000000000000     
   1.00000000000000     
   1.00000000000000     
   1.00000000000000     
   1.00000000000000     
   1.00000000000000     
   1.00000000000000     
   1.00000000000000     
   1.00000000000000     
   1.00000000000000     
   1.00000000000000     
   1.00000000000000     
   1.00000000000000     
   1.00000000000000     
   1.00000000000000     
   1.00000000000000     
   1.00000000000000     
   1.00000000000000     
   1.00000000000000     
   1.00000000000000     
   1.00000000000000     
   1.00000000000000     
   1.00000000000000     
   1.00000000000000     
   1.00000000000000     
   1.00000000000000     
   1.00000000000000     
   1.00000000000000     
   1.00000000000000     
   1.00000000000000     
   1.00000000000000     
   1.00000000000000     
   1.00000000000000     
   1.00000000000000     
   1.00000000000000     
   1.00000000000000     
   1.00000000000000     
   1.00000000000000     
   1.00000000000000     
   1.00000000000000     
   1.00000000000000     
   1.00000000000000     
   1.00000000000000     
   1.00000000000000     
   1.00000000000000     
   1.00000000000000     
   1.00000000000000     
   1.00000000000000     
   1.00000000000000     
   1.00000000000000     
   1.00000000000000     
   1.00000000000000     
   1.00000000000000     
   1.00000000000000     
   1.00000000000000     
   1.00000000000000     
   1.00000000000000     
   1.00000000000000     
   1.00000000000000     
   1.00000000000000     
   1.00000000000000     
   1.00000000000000     
   1.00000000000000     
   1.00000000000000     
   1.00000000000000     
   1.00000000000000     
   1.00000000000000     
   1.00000000000000     
   1.00000000000000     
   1.00000000000000     
   1.00000000000000     
   1.00000000000000     
   1.00000000000000     
   1.00000000000000     
   1.00000000000000     
   1.00000000000000     
   1.00000000000000     
   1.00000000000000     
   1.00000000000000     
   1.00000000000000     
   1.00000000000000     
   1.00000000000000     
   1.00000000000000     
   1.00000000000000     
   1.00000000000000     
   1.00000000000000     
   1.00000000000000     
   1.00000000000000     
   1.00000000000000     
   1.00000000000000     
   1.00000000000000     
   1.00000000000000     
   1.00000000000000     
   1.00000000000000     
   1.00000000000000     
   1.00000000000000     
   1.00000000000000     
   1.00000000000000     
   1.00000000000000     
   1.00000000000000     
   1.00000000000000     
   1.00000000000000     
   1.00000000000000     
   1.00000000000000     
   1.00000000000000     
   1.00000000000000     
   1.00000000000000     
   1.00000000000000     
   1.00000000000000     
   1.00000000000000     
   1.00000000000000     
   1.00000000000000     
   1.00000000000000     
   1.00000000000000     
   1.00000000000000     
   1.00000000000000     
   1.00000000000000     
   1.00000000000000     
   1.00000000000000     
   1.00000000000000     
   1.00000000000000     
   1.00000000000000     
   1.00000000000000     
   1.00000000000000     
   1.00000000000000     
   1.00000000000000     
   1.00000000000000     
   1.00000000000000     
   1.00000000000000     
   1.00000000000000     
   1.00000000000000     
   1.00000000000000     
   1.00000000000000     
   1.00000000000000     
   1.00000000000000     
   1.00000000000000     
   1.00000000000000     
   1.00000000000000     
   1.00000000000000     
   1.00000000000000     
   1.00000000000000     
   1.00000000000000     
SCALARS poroL double 
LOOKUP_TABLE default
  0.155862876298117     
  0.155861875887312     
  0.155860900334567     
  0.155859972385955     
  0.155859115441319     
  0.155858338538409     
  0.155857643957303     
  0.155857029482818     
  0.155856493546368     
  0.155856036062225     
  0.155855659638971     
  0.155855368168153     
  0.155855165523027     
  0.155855054919584     
  0.155855038288318     
  0.155862596849965     
  0.155861597932498     
  0.155860627038750     
  0.155859707542191     
  0.155858857217624     
  0.155858084020741     
  0.155857392409507     
  0.155856780150453     
  0.155856246172561     
  0.155855790576288     
  0.155855415812478     
  0.155855125544462     
  0.155854923569076     
  0.155854812887920     
  0.155854795503067     
  0.155862040463836     
  0.155861050507731     
  0.155860087895622     
  0.155859177834294     
  0.155858339024001     
  0.155857575464691     
  0.155856890377732     
  0.155856283186155     
  0.155855753586656     
  0.155855301990994     
  0.155854930578142     
  0.155854642751965     
  0.155854442037028     
  0.155854331068603     
  0.155854311918527     
  0.155861195649252     
  0.155860222294922     
  0.155859279854118     
  0.155858388032743     
  0.155857563273951     
  0.155856813767875     
  0.155856140141497     
  0.155855542302613     
  0.155855020209679     
  0.155854574846179     
  0.155854208583481     
  0.155853924275830     
  0.155853724818420     
  0.155853613269268     
  0.155853591249839     
  0.155860066834833     
  0.155859112382953     
  0.155858192264937     
  0.155857329717239     
  0.155856532793547     
  0.155855804022580     
  0.155855146943690     
  0.155854563479057     
  0.155854052862363     
  0.155853616342221     
  0.155853256391876     
  0.155852975915327     
  0.155852777768721     
  0.155852664449413     
  0.155852638270380     
  0.155858646661352     
  0.155857720996378     
  0.155856836490617     
  0.155856010352565     
  0.155855248235627     
  0.155854549855698     
  0.155853918294757     
  0.155853354412622     
  0.155852858845573     
  0.155852433530307     
  0.155852081185339     
  0.155851804852995     
  0.155851607709164     
  0.155851492252706     
  0.155851460908412     
  0.155856940133290     
  0.155856047016601     
  0.155855209284543     
  0.155854433456856     
  0.155853716332195     
  0.155853059930355     
  0.155852461773327     
  0.155851923322509     
  0.155851446706815     
  0.155851034865426     
  0.155850691492809     
  0.155850419965221     
  0.155850223605175     
  0.155850105375731     
  0.155850067151619     
  0.155854947476968     
  0.155854103534610     
  0.155853324357559     
  0.155852610221693     
  0.155851953956119     
  0.155851345975649     
  0.155850786955023     
  0.155850279121098     
  0.155849825579072     
  0.155849430358268     
  0.155849097605473     
  0.155848831368920     
  0.155848635267778     
  0.155848512495191     
  0.155848465613567     
  0.155852686497877     
  0.155851898610098     
  0.155851199474698     
  0.155850562722519     
  0.155849969683275     
  0.155849417337232     
  0.155848904215047     
  0.155848432883114     
  0.155848006882945     
  0.155847630728879     
  0.155847309753423     
  0.155847048991704     
  0.155846852942414     
  0.155846724837482     
  0.155846667454919     
  0.155850179903496     
  0.155849482240034     
  0.155848865571580     
  0.155848302418020     
  0.155847778238695     
  0.155847285269635     
  0.155846823094001     
  0.155846392526946     
  0.155845997916644     
  0.155845644861246     
  0.155845338814086     
  0.155845085207247     
  0.155844888861642     
  0.155844754083714     
  0.155844684055714     
  0.155847474133727     
  0.155846867039288     
  0.155846336943993     
  0.155845850089610     
  0.155845393324035     
  0.155844961713016     
  0.155844552647946     
  0.155844167796146     
  0.155843810504401     
  0.155843485222052     
  0.155843197176806     
  0.155842952395779     
  0.155842755858097     
  0.155842613039024     
  0.155842527354036     
  0.155844598372859     
  0.155844081346301     
  0.155843629589744     
  0.155843214627723     
  0.155842825456214     
  0.155842456415153     
  0.155842104641130     
  0.155841770647898     
  0.155841456161764     
  0.155841163900336     
  0.155840898274372     
  0.155840664417519     
  0.155840468094704     
  0.155840315539115     
  0.155840210812941     
  0.155841558625556     
  0.155841134872593     
  0.155840756784973     
  0.155840409731601     
  0.155840086093426     
  0.155839780103015     
  0.155839490308256     
  0.155839213052523     
  0.155838947207269     
  0.155838694173920     
  0.155838455990511     
  0.155838236263763     
  0.155838041175875     
  0.155837876781457     
  0.155837748707899     
  0.155838385862346     
  0.155838037263062     
  0.155837727094432     
  0.155837445310012     
  0.155837186568515     
  0.155836947521907     
  0.155836722299703     
  0.155836507012227     
  0.155836297242112     
  0.155836089553418     
  0.155835884293602     
  0.155835683544441     
  0.155835491496903     
  0.155835313639812     
  0.155835156659207     
  0.155835066147717     
  0.155834793065220     
  0.155834548774528     
  0.155834331792184     
  0.155834140507960     
  0.155833970054803     
  0.155833814283803     
  0.155833665719359     
  0.155833517194901     
  0.155833362933394     
  0.155833198031989     
  0.155833021499392     
  0.155832835181187     
  0.155832643176496     
  0.155832453157972     
  0.155831601259057     
  0.155831404410906     
  0.155831230465758     
  0.155831082028299     
  0.155830959126818     
  0.155830859417298     
  0.155830776423611     
  0.155830700629126     
  0.155830621123428     
  0.155830527172529     
  0.155830410052560     
  0.155830264195914     
  0.155830087788594     
  0.155829882820992     
  0.155829658081643     
  0.155827991925037     
  0.155827875072188     
  0.155827776099614     
  0.155827700691606     
  0.155827651218249     
  0.155827626116551     
  0.155827619467509     
  0.155827620341464     
  0.155827615662357     
  0.155827590469182     
  0.155827530377199     
  0.155827423572207     
  0.155827263469658     
  0.155827050219271     
  0.155826789400002     
  0.155824239905186     
  0.155824207148077     
  0.155824189548268     
  0.155824193861076     
  0.155824224093962     
  0.155824279730355     
  0.155824354526391     
  0.155824438347407     
  0.155824515001936     
  0.155824564206572     
  0.155824567614803     
  0.155824508864318     
  0.155824374323631     
  0.155824159870115     
  0.155823865733939     
  0.155820348413156     
  0.155820405584551     
  0.155820476523890     
  0.155820568886893     
  0.155820686665486     
  0.155820829590765     
  0.155820992273675     
  0.155821163024509     
  0.155821324258521     
  0.155821455305619     
  0.155821531011161     
  0.155821529237233     
  0.155821431647977     
  0.155821224312518     
  0.155820905560907     
  0.155816323046680     
  0.155816477303462     
  0.155816645298906     
  0.155816834464057     
  0.155817048333802     
  0.155817285943637     
  0.155817541571294     
  0.155817803034121     
  0.155818052625161     
  0.155818268098661     
  0.155818423619343     
  0.155818490550680     
  0.155818443094542     
  0.155818258651117     
  0.155817926165801     
  0.155812172892207     
  0.155812432607431     
  0.155812706364474     
  0.155813001241128     
  0.155813319813193     
  0.155813659738614     
  0.155814013049543     
  0.155814367095066     
  0.155814705076668     
  0.155815006146257     
  0.155815245464233     
  0.155815392015917     
  0.155815412219930     
  0.155815272533995     
  0.155814945490608     
  0.155807909059030     
  0.155808283371364     
  0.155808672336162     
  0.155809082231340     
  0.155809514294729     
  0.155809963280925     
  0.155810418012691     
  0.155810863996668     
  0.155811286245099     
  0.155811668715912     
  0.155811991251109     
  0.155812226076799     
  0.155812334415474     
  0.155812267985875     
  0.155811977142629     
  0.155803543564002     
  0.155804043348494     
  0.155804558363014     
  0.155805093706390     
  0.155805647932910     
  0.155806211243427     
  0.155806768369389     
  0.155807303085144     
  0.155807802140594     
  0.155808255870379     
  0.155808653982035     
  0.155808978485288     
  0.155809193630311     
  0.155809238674656     
  0.155809033715843     
  0.155799090177896     
  0.155799729318544     
  0.155800383000995     
  0.155801055871827     
  0.155801740818093     
  0.155802421590442     
  0.155803078210043     
  0.155803694070830     
  0.155804259325623     
  0.155804770710216     
  0.155805228879712     
  0.155805630543737     
  0.155805957138567     
  0.155806151737109     
  0.155806092496433     
  0.155794562656788     
  0.155795359404614     
  0.155796169960032     
  0.155796994904679     
  0.155797818229866     
  0.155798615458215     
  0.155799363465282     
  0.155800048614712     
  0.155800667193957     
  0.155801222307971     
  0.155801721618414     
  0.155802177477952     
  0.155802598183009     
  0.155802966625036     
  0.155803152812081     
  0.155789976858526     
  0.155790958461773     
  0.155791950913883     
  0.155792945816604     
  0.155793912258906     
  0.155794817571464     
  0.155795641745566     
  0.155796380452416     
  0.155797038070784     
  0.155797623908713     
  0.155798150929033     
  0.155798636649793     
  0.155799112127483     
  0.155799609501568     
  0.155800127609410     
  0.155785350781179     
  0.155786559992187     
  0.155787772595301     
  0.155788956502323     
  0.155790060867855     
  0.155791054931522     
  0.155791933906513     
  0.155792706653346     
  0.155793387784173     
  0.155793992619668     
  0.155794537239164     
  0.155795042274652     
  0.155795540716039     
  0.155796134604153     
  0.155796983360194     
  0.155780709998840     
  0.155782223227877     
  0.155783709150342     
  0.155785088151454     
  0.155786302039176     
  0.155787354205718     
  0.155788263014190     
  0.155789050210375     
  0.155789736966620     
  0.155790344937020     
  0.155790896380940     
  0.155791416929333     
  0.155791948970694     
  0.155792574426167     
  0.155793691986343     
  0.155776112648157     
  0.155778069802230     
  0.155779878116478     
  0.155781395886131     
  0.155782669293488     
  0.155783743397845     
  0.155784654942394     
  0.155785434350712     
  0.155786107806221     
  0.155786699939406     
  0.155787238045607     
  0.155787758022523     
  0.155788314511112     
  0.155789035263689     
  0.155790292709169     
  0.155771754261080     
  0.155774398782489     
  0.155776360210764     
  0.155777918638877     
  0.155779191839810     
  0.155780248396260     
  0.155781134216056     
  0.155781882993654     
  0.155782522002664     
  0.155783076374814     
  0.155783574139102     
  0.155784053973408     
  0.155784582988978     
  0.155785312718426     
  0.155786991787345     
