# vtk DataFile Version 3.0
vtk output
ASCII
DATASET UNSTRUCTURED_GRID
POINTS       496 double 
  0.00000000E+00  3.00000000E+02  0.00000000E+00
  0.00000000E+00  2.80000000E+02  0.00000000E+00
  0.00000000E+00  2.60000000E+02  0.00000000E+00
  0.00000000E+00  2.40000000E+02  0.00000000E+00
  0.00000000E+00  2.20000000E+02  0.00000000E+00
  0.00000000E+00  2.00000000E+02  0.00000000E+00
  0.00000000E+00  1.80000000E+02  0.00000000E+00
  0.00000000E+00  1.60000000E+02  0.00000000E+00
  0.00000000E+00  1.40000000E+02  0.00000000E+00
  0.00000000E+00  1.20000000E+02  0.00000000E+00
  0.00000000E+00  1.00000000E+02  0.00000000E+00
  0.00000000E+00  8.00000000E+01  0.00000000E+00
  0.00000000E+00  6.00000000E+01  0.00000000E+00
  0.00000000E+00  4.00000000E+01  0.00000000E+00
  0.00000000E+00  2.00000000E+01  0.00000000E+00
  0.00000000E+00  4.99600361E-14  0.00000000E+00
  2.00000000E+01  3.00000000E+02  0.00000000E+00
  2.00000000E+01  2.80000000E+02  0.00000000E+00
  2.00000000E+01  2.60000000E+02  0.00000000E+00
  2.00000000E+01  2.40000000E+02  0.00000000E+00
  2.00000000E+01  2.20000000E+02  0.00000000E+00
  2.00000000E+01  2.00000000E+02  0.00000000E+00
  2.00000000E+01  1.80000000E+02  0.00000000E+00
  2.00000000E+01  1.60000000E+02  0.00000000E+00
  2.00000000E+01  1.40000000E+02  0.00000000E+00
  2.00000000E+01  1.20000000E+02  0.00000000E+00
  2.00000000E+01  1.00000000E+02  0.00000000E+00
  2.00000000E+01  8.00000000E+01  0.00000000E+00
  2.00000000E+01  6.00000000E+01  0.00000000E+00
  2.00000000E+01  4.00000000E+01  0.00000000E+00
  2.00000000E+01  2.00000000E+01  0.00000000E+00
  2.00000000E+01  4.99600361E-14  0.00000000E+00
  4.00000000E+01  3.00000000E+02  0.00000000E+00
  4.00000000E+01  2.80000000E+02  0.00000000E+00
  4.00000000E+01  2.60000000E+02  0.00000000E+00
  4.00000000E+01  2.40000000E+02  0.00000000E+00
  4.00000000E+01  2.20000000E+02  0.00000000E+00
  4.00000000E+01  2.00000000E+02  0.00000000E+00
  4.00000000E+01  1.80000000E+02  0.00000000E+00
  4.00000000E+01  1.60000000E+02  0.00000000E+00
  4.00000000E+01  1.40000000E+02  0.00000000E+00
  4.00000000E+01  1.20000000E+02  0.00000000E+00
  4.00000000E+01  1.00000000E+02  0.00000000E+00
  4.00000000E+01  8.00000000E+01  0.00000000E+00
  4.00000000E+01  6.00000000E+01  0.00000000E+00
  4.00000000E+01  4.00000000E+01  0.00000000E+00
  4.00000000E+01  2.00000000E+01  0.00000000E+00
  4.00000000E+01  4.99600361E-14  0.00000000E+00
  6.00000000E+01  3.00000000E+02  0.00000000E+00
  6.00000000E+01  2.80000000E+02  0.00000000E+00
  6.00000000E+01  2.60000000E+02  0.00000000E+00
  6.00000000E+01  2.40000000E+02  0.00000000E+00
  6.00000000E+01  2.20000000E+02  0.00000000E+00
  6.00000000E+01  2.00000000E+02  0.00000000E+00
  6.00000000E+01  1.80000000E+02  0.00000000E+00
  6.00000000E+01  1.60000000E+02  0.00000000E+00
  6.00000000E+01  1.40000000E+02  0.00000000E+00
  6.00000000E+01  1.20000000E+02  0.00000000E+00
  6.00000000E+01  1.00000000E+02  0.00000000E+00
  6.00000000E+01  8.00000000E+01  0.00000000E+00
  6.00000000E+01  6.00000000E+01  0.00000000E+00
  6.00000000E+01  4.00000000E+01  0.00000000E+00
  6.00000000E+01  2.00000000E+01  0.00000000E+00
  6.00000000E+01  4.99600361E-14  0.00000000E+00
  8.00000000E+01  3.00000000E+02  0.00000000E+00
  8.00000000E+01  2.80000000E+02  0.00000000E+00
  8.00000000E+01  2.60000000E+02  0.00000000E+00
  8.00000000E+01  2.40000000E+02  0.00000000E+00
  8.00000000E+01  2.20000000E+02  0.00000000E+00
  8.00000000E+01  2.00000000E+02  0.00000000E+00
  8.00000000E+01  1.80000000E+02  0.00000000E+00
  8.00000000E+01  1.60000000E+02  0.00000000E+00
  8.00000000E+01  1.40000000E+02  0.00000000E+00
  8.00000000E+01  1.20000000E+02  0.00000000E+00
  8.00000000E+01  1.00000000E+02  0.00000000E+00
  8.00000000E+01  8.00000000E+01  0.00000000E+00
  8.00000000E+01  6.00000000E+01  0.00000000E+00
  8.00000000E+01  4.00000000E+01  0.00000000E+00
  8.00000000E+01  2.00000000E+01  0.00000000E+00
  8.00000000E+01  4.99600361E-14  0.00000000E+00
  1.00000000E+02  3.00000000E+02  0.00000000E+00
  1.00000000E+02  2.80000000E+02  0.00000000E+00
  1.00000000E+02  2.60000000E+02  0.00000000E+00
  1.00000000E+02  2.40000000E+02  0.00000000E+00
  1.00000000E+02  2.20000000E+02  0.00000000E+00
  1.00000000E+02  2.00000000E+02  0.00000000E+00
  1.00000000E+02  1.80000000E+02  0.00000000E+00
  1.00000000E+02  1.60000000E+02  0.00000000E+00
  1.00000000E+02  1.40000000E+02  0.00000000E+00
  1.00000000E+02  1.20000000E+02  0.00000000E+00
  1.00000000E+02  1.00000000E+02  0.00000000E+00
  1.00000000E+02  8.00000000E+01  0.00000000E+00
  1.00000000E+02  6.00000000E+01  0.00000000E+00
  1.00000000E+02  4.00000000E+01  0.00000000E+00
  1.00000000E+02  2.00000000E+01  0.00000000E+00
  1.00000000E+02  4.99600361E-14  0.00000000E+00
  1.20000000E+02  3.00000000E+02  0.00000000E+00
  1.20000000E+02  2.80000000E+02  0.00000000E+00
  1.20000000E+02  2.60000000E+02  0.00000000E+00
  1.20000000E+02  2.40000000E+02  0.00000000E+00
  1.20000000E+02  2.20000000E+02  0.00000000E+00
  1.20000000E+02  2.00000000E+02  0.00000000E+00
  1.20000000E+02  1.80000000E+02  0.00000000E+00
  1.20000000E+02  1.60000000E+02  0.00000000E+00
  1.20000000E+02  1.40000000E+02  0.00000000E+00
  1.20000000E+02  1.20000000E+02  0.00000000E+00
  1.20000000E+02  1.00000000E+02  0.00000000E+00
  1.20000000E+02  8.00000000E+01  0.00000000E+00
  1.20000000E+02  6.00000000E+01  0.00000000E+00
  1.20000000E+02  4.00000000E+01  0.00000000E+00
  1.20000000E+02  2.00000000E+01  0.00000000E+00
  1.20000000E+02  4.99600361E-14  0.00000000E+00
  1.40000000E+02  3.00000000E+02  0.00000000E+00
  1.40000000E+02  2.80000000E+02  0.00000000E+00
  1.40000000E+02  2.60000000E+02  0.00000000E+00
  1.40000000E+02  2.40000000E+02  0.00000000E+00
  1.40000000E+02  2.20000000E+02  0.00000000E+00
  1.40000000E+02  2.00000000E+02  0.00000000E+00
  1.40000000E+02  1.80000000E+02  0.00000000E+00
  1.40000000E+02  1.60000000E+02  0.00000000E+00
  1.40000000E+02  1.40000000E+02  0.00000000E+00
  1.40000000E+02  1.20000000E+02  0.00000000E+00
  1.40000000E+02  1.00000000E+02  0.00000000E+00
  1.40000000E+02  8.00000000E+01  0.00000000E+00
  1.40000000E+02  6.00000000E+01  0.00000000E+00
  1.40000000E+02  4.00000000E+01  0.00000000E+00
  1.40000000E+02  2.00000000E+01  0.00000000E+00
  1.40000000E+02  4.99600361E-14  0.00000000E+00
  1.60000000E+02  3.00000000E+02  0.00000000E+00
  1.60000000E+02  2.80000000E+02  0.00000000E+00
  1.60000000E+02  2.60000000E+02  0.00000000E+00
  1.60000000E+02  2.40000000E+02  0.00000000E+00
  1.60000000E+02  2.20000000E+02  0.00000000E+00
  1.60000000E+02  2.00000000E+02  0.00000000E+00
  1.60000000E+02  1.80000000E+02  0.00000000E+00
  1.60000000E+02  1.60000000E+02  0.00000000E+00
  1.60000000E+02  1.40000000E+02  0.00000000E+00
  1.60000000E+02  1.20000000E+02  0.00000000E+00
  1.60000000E+02  1.00000000E+02  0.00000000E+00
  1.60000000E+02  8.00000000E+01  0.00000000E+00
  1.60000000E+02  6.00000000E+01  0.00000000E+00
  1.60000000E+02  4.00000000E+01  0.00000000E+00
  1.60000000E+02  2.00000000E+01  0.00000000E+00
  1.60000000E+02  4.99600361E-14  0.00000000E+00
  1.80000000E+02  3.00000000E+02  0.00000000E+00
  1.80000000E+02  2.80000000E+02  0.00000000E+00
  1.80000000E+02  2.60000000E+02  0.00000000E+00
  1.80000000E+02  2.40000000E+02  0.00000000E+00
  1.80000000E+02  2.20000000E+02  0.00000000E+00
  1.80000000E+02  2.00000000E+02  0.00000000E+00
  1.80000000E+02  1.80000000E+02  0.00000000E+00
  1.80000000E+02  1.60000000E+02  0.00000000E+00
  1.80000000E+02  1.40000000E+02  0.00000000E+00
  1.80000000E+02  1.20000000E+02  0.00000000E+00
  1.80000000E+02  1.00000000E+02  0.00000000E+00
  1.80000000E+02  8.00000000E+01  0.00000000E+00
  1.80000000E+02  6.00000000E+01  0.00000000E+00
  1.80000000E+02  4.00000000E+01  0.00000000E+00
  1.80000000E+02  2.00000000E+01  0.00000000E+00
  1.80000000E+02  4.99600361E-14  0.00000000E+00
  2.00000000E+02  3.00000000E+02  0.00000000E+00
  2.00000000E+02  2.80000000E+02  0.00000000E+00
  2.00000000E+02  2.60000000E+02  0.00000000E+00
  2.00000000E+02  2.40000000E+02  0.00000000E+00
  2.00000000E+02  2.20000000E+02  0.00000000E+00
  2.00000000E+02  2.00000000E+02  0.00000000E+00
  2.00000000E+02  1.80000000E+02  0.00000000E+00
  2.00000000E+02  1.60000000E+02  0.00000000E+00
  2.00000000E+02  1.40000000E+02  0.00000000E+00
  2.00000000E+02  1.20000000E+02  0.00000000E+00
  2.00000000E+02  1.00000000E+02  0.00000000E+00
  2.00000000E+02  8.00000000E+01  0.00000000E+00
  2.00000000E+02  6.00000000E+01  0.00000000E+00
  2.00000000E+02  4.00000000E+01  0.00000000E+00
  2.00000000E+02  2.00000000E+01  0.00000000E+00
  2.00000000E+02  4.99600361E-14  0.00000000E+00
  2.20000000E+02  3.00000000E+02  0.00000000E+00
  2.20000000E+02  2.80000000E+02  0.00000000E+00
  2.20000000E+02  2.60000000E+02  0.00000000E+00
  2.20000000E+02  2.40000000E+02  0.00000000E+00
  2.20000000E+02  2.20000000E+02  0.00000000E+00
  2.20000000E+02  2.00000000E+02  0.00000000E+00
  2.20000000E+02  1.80000000E+02  0.00000000E+00
  2.20000000E+02  1.60000000E+02  0.00000000E+00
  2.20000000E+02  1.40000000E+02  0.00000000E+00
  2.20000000E+02  1.20000000E+02  0.00000000E+00
  2.20000000E+02  1.00000000E+02  0.00000000E+00
  2.20000000E+02  8.00000000E+01  0.00000000E+00
  2.20000000E+02  6.00000000E+01  0.00000000E+00
  2.20000000E+02  4.00000000E+01  0.00000000E+00
  2.20000000E+02  2.00000000E+01  0.00000000E+00
  2.20000000E+02  4.99600361E-14  0.00000000E+00
  2.40000000E+02  3.00000000E+02  0.00000000E+00
  2.40000000E+02  2.80000000E+02  0.00000000E+00
  2.40000000E+02  2.60000000E+02  0.00000000E+00
  2.40000000E+02  2.40000000E+02  0.00000000E+00
  2.40000000E+02  2.20000000E+02  0.00000000E+00
  2.40000000E+02  2.00000000E+02  0.00000000E+00
  2.40000000E+02  1.80000000E+02  0.00000000E+00
  2.40000000E+02  1.60000000E+02  0.00000000E+00
  2.40000000E+02  1.40000000E+02  0.00000000E+00
  2.40000000E+02  1.20000000E+02  0.00000000E+00
  2.40000000E+02  1.00000000E+02  0.00000000E+00
  2.40000000E+02  8.00000000E+01  0.00000000E+00
  2.40000000E+02  6.00000000E+01  0.00000000E+00
  2.40000000E+02  4.00000000E+01  0.00000000E+00
  2.40000000E+02  2.00000000E+01  0.00000000E+00
  2.40000000E+02  4.99600361E-14  0.00000000E+00
  2.60000000E+02  3.00000000E+02  0.00000000E+00
  2.60000000E+02  2.80000000E+02  0.00000000E+00
  2.60000000E+02  2.60000000E+02  0.00000000E+00
  2.60000000E+02  2.40000000E+02  0.00000000E+00
  2.60000000E+02  2.20000000E+02  0.00000000E+00
  2.60000000E+02  2.00000000E+02  0.00000000E+00
  2.60000000E+02  1.80000000E+02  0.00000000E+00
  2.60000000E+02  1.60000000E+02  0.00000000E+00
  2.60000000E+02  1.40000000E+02  0.00000000E+00
  2.60000000E+02  1.20000000E+02  0.00000000E+00
  2.60000000E+02  1.00000000E+02  0.00000000E+00
  2.60000000E+02  8.00000000E+01  0.00000000E+00
  2.60000000E+02  6.00000000E+01  0.00000000E+00
  2.60000000E+02  4.00000000E+01  0.00000000E+00
  2.60000000E+02  2.00000000E+01  0.00000000E+00
  2.60000000E+02  4.99600361E-14  0.00000000E+00
  2.80000000E+02  3.00000000E+02  0.00000000E+00
  2.80000000E+02  2.80000000E+02  0.00000000E+00
  2.80000000E+02  2.60000000E+02  0.00000000E+00
  2.80000000E+02  2.40000000E+02  0.00000000E+00
  2.80000000E+02  2.20000000E+02  0.00000000E+00
  2.80000000E+02  2.00000000E+02  0.00000000E+00
  2.80000000E+02  1.80000000E+02  0.00000000E+00
  2.80000000E+02  1.60000000E+02  0.00000000E+00
  2.80000000E+02  1.40000000E+02  0.00000000E+00
  2.80000000E+02  1.20000000E+02  0.00000000E+00
  2.80000000E+02  1.00000000E+02  0.00000000E+00
  2.80000000E+02  8.00000000E+01  0.00000000E+00
  2.80000000E+02  6.00000000E+01  0.00000000E+00
  2.80000000E+02  4.00000000E+01  0.00000000E+00
  2.80000000E+02  2.00000000E+01  0.00000000E+00
  2.80000000E+02  4.99600361E-14  0.00000000E+00
  3.00000000E+02  3.00000000E+02  0.00000000E+00
  3.00000000E+02  2.80000000E+02  0.00000000E+00
  3.00000000E+02  2.60000000E+02  0.00000000E+00
  3.00000000E+02  2.40000000E+02  0.00000000E+00
  3.00000000E+02  2.20000000E+02  0.00000000E+00
  3.00000000E+02  2.00000000E+02  0.00000000E+00
  3.00000000E+02  1.80000000E+02  0.00000000E+00
  3.00000000E+02  1.60000000E+02  0.00000000E+00
  3.00000000E+02  1.40000000E+02  0.00000000E+00
  3.00000000E+02  1.20000000E+02  0.00000000E+00
  3.00000000E+02  1.00000000E+02  0.00000000E+00
  3.00000000E+02  8.00000000E+01  0.00000000E+00
  3.00000000E+02  6.00000000E+01  0.00000000E+00
  3.00000000E+02  4.00000000E+01  0.00000000E+00
  3.00000000E+02  2.00000000E+01  0.00000000E+00
  3.00000000E+02  4.99600361E-14  0.00000000E+00
  3.20000000E+02  3.00000000E+02  0.00000000E+00
  3.20000000E+02  2.80000000E+02  0.00000000E+00
  3.20000000E+02  2.60000000E+02  0.00000000E+00
  3.20000000E+02  2.40000000E+02  0.00000000E+00
  3.20000000E+02  2.20000000E+02  0.00000000E+00
  3.20000000E+02  2.00000000E+02  0.00000000E+00
  3.20000000E+02  1.80000000E+02  0.00000000E+00
  3.20000000E+02  1.60000000E+02  0.00000000E+00
  3.20000000E+02  1.40000000E+02  0.00000000E+00
  3.20000000E+02  1.20000000E+02  0.00000000E+00
  3.20000000E+02  1.00000000E+02  0.00000000E+00
  3.20000000E+02  8.00000000E+01  0.00000000E+00
  3.20000000E+02  6.00000000E+01  0.00000000E+00
  3.20000000E+02  4.00000000E+01  0.00000000E+00
  3.20000000E+02  2.00000000E+01  0.00000000E+00
  3.20000000E+02  4.99600361E-14  0.00000000E+00
  3.40000000E+02  3.00000000E+02  0.00000000E+00
  3.40000000E+02  2.80000000E+02  0.00000000E+00
  3.40000000E+02  2.60000000E+02  0.00000000E+00
  3.40000000E+02  2.40000000E+02  0.00000000E+00
  3.40000000E+02  2.20000000E+02  0.00000000E+00
  3.40000000E+02  2.00000000E+02  0.00000000E+00
  3.40000000E+02  1.80000000E+02  0.00000000E+00
  3.40000000E+02  1.60000000E+02  0.00000000E+00
  3.40000000E+02  1.40000000E+02  0.00000000E+00
  3.40000000E+02  1.20000000E+02  0.00000000E+00
  3.40000000E+02  1.00000000E+02  0.00000000E+00
  3.40000000E+02  8.00000000E+01  0.00000000E+00
  3.40000000E+02  6.00000000E+01  0.00000000E+00
  3.40000000E+02  4.00000000E+01  0.00000000E+00
  3.40000000E+02  2.00000000E+01  0.00000000E+00
  3.40000000E+02  4.99600361E-14  0.00000000E+00
  3.60000000E+02  3.00000000E+02  0.00000000E+00
  3.60000000E+02  2.80000000E+02  0.00000000E+00
  3.60000000E+02  2.60000000E+02  0.00000000E+00
  3.60000000E+02  2.40000000E+02  0.00000000E+00
  3.60000000E+02  2.20000000E+02  0.00000000E+00
  3.60000000E+02  2.00000000E+02  0.00000000E+00
  3.60000000E+02  1.80000000E+02  0.00000000E+00
  3.60000000E+02  1.60000000E+02  0.00000000E+00
  3.60000000E+02  1.40000000E+02  0.00000000E+00
  3.60000000E+02  1.20000000E+02  0.00000000E+00
  3.60000000E+02  1.00000000E+02  0.00000000E+00
  3.60000000E+02  8.00000000E+01  0.00000000E+00
  3.60000000E+02  6.00000000E+01  0.00000000E+00
  3.60000000E+02  4.00000000E+01  0.00000000E+00
  3.60000000E+02  2.00000000E+01  0.00000000E+00
  3.60000000E+02  4.99600361E-14  0.00000000E+00
  3.80000000E+02  3.00000000E+02  0.00000000E+00
  3.80000000E+02  2.80000000E+02  0.00000000E+00
  3.80000000E+02  2.60000000E+02  0.00000000E+00
  3.80000000E+02  2.40000000E+02  0.00000000E+00
  3.80000000E+02  2.20000000E+02  0.00000000E+00
  3.80000000E+02  2.00000000E+02  0.00000000E+00
  3.80000000E+02  1.80000000E+02  0.00000000E+00
  3.80000000E+02  1.60000000E+02  0.00000000E+00
  3.80000000E+02  1.40000000E+02  0.00000000E+00
  3.80000000E+02  1.20000000E+02  0.00000000E+00
  3.80000000E+02  1.00000000E+02  0.00000000E+00
  3.80000000E+02  8.00000000E+01  0.00000000E+00
  3.80000000E+02  6.00000000E+01  0.00000000E+00
  3.80000000E+02  4.00000000E+01  0.00000000E+00
  3.80000000E+02  2.00000000E+01  0.00000000E+00
  3.80000000E+02  4.99600361E-14  0.00000000E+00
  4.00000000E+02  3.00000000E+02  0.00000000E+00
  4.00000000E+02  2.80000000E+02  0.00000000E+00
  4.00000000E+02  2.60000000E+02  0.00000000E+00
  4.00000000E+02  2.40000000E+02  0.00000000E+00
  4.00000000E+02  2.20000000E+02  0.00000000E+00
  4.00000000E+02  2.00000000E+02  0.00000000E+00
  4.00000000E+02  1.80000000E+02  0.00000000E+00
  4.00000000E+02  1.60000000E+02  0.00000000E+00
  4.00000000E+02  1.40000000E+02  0.00000000E+00
  4.00000000E+02  1.20000000E+02  0.00000000E+00
  4.00000000E+02  1.00000000E+02  0.00000000E+00
  4.00000000E+02  8.00000000E+01  0.00000000E+00
  4.00000000E+02  6.00000000E+01  0.00000000E+00
  4.00000000E+02  4.00000000E+01  0.00000000E+00
  4.00000000E+02  2.00000000E+01  0.00000000E+00
  4.00000000E+02  4.99600361E-14  0.00000000E+00
  4.20000000E+02  3.00000000E+02  0.00000000E+00
  4.20000000E+02  2.80000000E+02  0.00000000E+00
  4.20000000E+02  2.60000000E+02  0.00000000E+00
  4.20000000E+02  2.40000000E+02  0.00000000E+00
  4.20000000E+02  2.20000000E+02  0.00000000E+00
  4.20000000E+02  2.00000000E+02  0.00000000E+00
  4.20000000E+02  1.80000000E+02  0.00000000E+00
  4.20000000E+02  1.60000000E+02  0.00000000E+00
  4.20000000E+02  1.40000000E+02  0.00000000E+00
  4.20000000E+02  1.20000000E+02  0.00000000E+00
  4.20000000E+02  1.00000000E+02  0.00000000E+00
  4.20000000E+02  8.00000000E+01  0.00000000E+00
  4.20000000E+02  6.00000000E+01  0.00000000E+00
  4.20000000E+02  4.00000000E+01  0.00000000E+00
  4.20000000E+02  2.00000000E+01  0.00000000E+00
  4.20000000E+02  4.99600361E-14  0.00000000E+00
  4.40000000E+02  3.00000000E+02  0.00000000E+00
  4.40000000E+02  2.80000000E+02  0.00000000E+00
  4.40000000E+02  2.60000000E+02  0.00000000E+00
  4.40000000E+02  2.40000000E+02  0.00000000E+00
  4.40000000E+02  2.20000000E+02  0.00000000E+00
  4.40000000E+02  2.00000000E+02  0.00000000E+00
  4.40000000E+02  1.80000000E+02  0.00000000E+00
  4.40000000E+02  1.60000000E+02  0.00000000E+00
  4.40000000E+02  1.40000000E+02  0.00000000E+00
  4.40000000E+02  1.20000000E+02  0.00000000E+00
  4.40000000E+02  1.00000000E+02  0.00000000E+00
  4.40000000E+02  8.00000000E+01  0.00000000E+00
  4.40000000E+02  6.00000000E+01  0.00000000E+00
  4.40000000E+02  4.00000000E+01  0.00000000E+00
  4.40000000E+02  2.00000000E+01  0.00000000E+00
  4.40000000E+02  4.99600361E-14  0.00000000E+00
  4.60000000E+02  3.00000000E+02  0.00000000E+00
  4.60000000E+02  2.80000000E+02  0.00000000E+00
  4.60000000E+02  2.60000000E+02  0.00000000E+00
  4.60000000E+02  2.40000000E+02  0.00000000E+00
  4.60000000E+02  2.20000000E+02  0.00000000E+00
  4.60000000E+02  2.00000000E+02  0.00000000E+00
  4.60000000E+02  1.80000000E+02  0.00000000E+00
  4.60000000E+02  1.60000000E+02  0.00000000E+00
  4.60000000E+02  1.40000000E+02  0.00000000E+00
  4.60000000E+02  1.20000000E+02  0.00000000E+00
  4.60000000E+02  1.00000000E+02  0.00000000E+00
  4.60000000E+02  8.00000000E+01  0.00000000E+00
  4.60000000E+02  6.00000000E+01  0.00000000E+00
  4.60000000E+02  4.00000000E+01  0.00000000E+00
  4.60000000E+02  2.00000000E+01  0.00000000E+00
  4.60000000E+02  4.99600361E-14  0.00000000E+00
  4.80000000E+02  3.00000000E+02  0.00000000E+00
  4.80000000E+02  2.80000000E+02  0.00000000E+00
  4.80000000E+02  2.60000000E+02  0.00000000E+00
  4.80000000E+02  2.40000000E+02  0.00000000E+00
  4.80000000E+02  2.20000000E+02  0.00000000E+00
  4.80000000E+02  2.00000000E+02  0.00000000E+00
  4.80000000E+02  1.80000000E+02  0.00000000E+00
  4.80000000E+02  1.60000000E+02  0.00000000E+00
  4.80000000E+02  1.40000000E+02  0.00000000E+00
  4.80000000E+02  1.20000000E+02  0.00000000E+00
  4.80000000E+02  1.00000000E+02  0.00000000E+00
  4.80000000E+02  8.00000000E+01  0.00000000E+00
  4.80000000E+02  6.00000000E+01  0.00000000E+00
  4.80000000E+02  4.00000000E+01  0.00000000E+00
  4.80000000E+02  2.00000000E+01  0.00000000E+00
  4.80000000E+02  4.99600361E-14  0.00000000E+00
  5.00000000E+02  3.00000000E+02  0.00000000E+00
  5.00000000E+02  2.80000000E+02  0.00000000E+00
  5.00000000E+02  2.60000000E+02  0.00000000E+00
  5.00000000E+02  2.40000000E+02  0.00000000E+00
  5.00000000E+02  2.20000000E+02  0.00000000E+00
  5.00000000E+02  2.00000000E+02  0.00000000E+00
  5.00000000E+02  1.80000000E+02  0.00000000E+00
  5.00000000E+02  1.60000000E+02  0.00000000E+00
  5.00000000E+02  1.40000000E+02  0.00000000E+00
  5.00000000E+02  1.20000000E+02  0.00000000E+00
  5.00000000E+02  1.00000000E+02  0.00000000E+00
  5.00000000E+02  8.00000000E+01  0.00000000E+00
  5.00000000E+02  6.00000000E+01  0.00000000E+00
  5.00000000E+02  4.00000000E+01  0.00000000E+00
  5.00000000E+02  2.00000000E+01  0.00000000E+00
  5.00000000E+02  4.99600361E-14  0.00000000E+00
  5.20000000E+02  3.00000000E+02  0.00000000E+00
  5.20000000E+02  2.80000000E+02  0.00000000E+00
  5.20000000E+02  2.60000000E+02  0.00000000E+00
  5.20000000E+02  2.40000000E+02  0.00000000E+00
  5.20000000E+02  2.20000000E+02  0.00000000E+00
  5.20000000E+02  2.00000000E+02  0.00000000E+00
  5.20000000E+02  1.80000000E+02  0.00000000E+00
  5.20000000E+02  1.60000000E+02  0.00000000E+00
  5.20000000E+02  1.40000000E+02  0.00000000E+00
  5.20000000E+02  1.20000000E+02  0.00000000E+00
  5.20000000E+02  1.00000000E+02  0.00000000E+00
  5.20000000E+02  8.00000000E+01  0.00000000E+00
  5.20000000E+02  6.00000000E+01  0.00000000E+00
  5.20000000E+02  4.00000000E+01  0.00000000E+00
  5.20000000E+02  2.00000000E+01  0.00000000E+00
  5.20000000E+02  4.99600361E-14  0.00000000E+00
  5.40000000E+02  3.00000000E+02  0.00000000E+00
  5.40000000E+02  2.80000000E+02  0.00000000E+00
  5.40000000E+02  2.60000000E+02  0.00000000E+00
  5.40000000E+02  2.40000000E+02  0.00000000E+00
  5.40000000E+02  2.20000000E+02  0.00000000E+00
  5.40000000E+02  2.00000000E+02  0.00000000E+00
  5.40000000E+02  1.80000000E+02  0.00000000E+00
  5.40000000E+02  1.60000000E+02  0.00000000E+00
  5.40000000E+02  1.40000000E+02  0.00000000E+00
  5.40000000E+02  1.20000000E+02  0.00000000E+00
  5.40000000E+02  1.00000000E+02  0.00000000E+00
  5.40000000E+02  8.00000000E+01  0.00000000E+00
  5.40000000E+02  6.00000000E+01  0.00000000E+00
  5.40000000E+02  4.00000000E+01  0.00000000E+00
  5.40000000E+02  2.00000000E+01  0.00000000E+00
  5.40000000E+02  4.99600361E-14  0.00000000E+00
  5.60000000E+02  3.00000000E+02  0.00000000E+00
  5.60000000E+02  2.80000000E+02  0.00000000E+00
  5.60000000E+02  2.60000000E+02  0.00000000E+00
  5.60000000E+02  2.40000000E+02  0.00000000E+00
  5.60000000E+02  2.20000000E+02  0.00000000E+00
  5.60000000E+02  2.00000000E+02  0.00000000E+00
  5.60000000E+02  1.80000000E+02  0.00000000E+00
  5.60000000E+02  1.60000000E+02  0.00000000E+00
  5.60000000E+02  1.40000000E+02  0.00000000E+00
  5.60000000E+02  1.20000000E+02  0.00000000E+00
  5.60000000E+02  1.00000000E+02  0.00000000E+00
  5.60000000E+02  8.00000000E+01  0.00000000E+00
  5.60000000E+02  6.00000000E+01  0.00000000E+00
  5.60000000E+02  4.00000000E+01  0.00000000E+00
  5.60000000E+02  2.00000000E+01  0.00000000E+00
  5.60000000E+02  4.99600361E-14  0.00000000E+00
  5.80000000E+02  3.00000000E+02  0.00000000E+00
  5.80000000E+02  2.80000000E+02  0.00000000E+00
  5.80000000E+02  2.60000000E+02  0.00000000E+00
  5.80000000E+02  2.40000000E+02  0.00000000E+00
  5.80000000E+02  2.20000000E+02  0.00000000E+00
  5.80000000E+02  2.00000000E+02  0.00000000E+00
  5.80000000E+02  1.80000000E+02  0.00000000E+00
  5.80000000E+02  1.60000000E+02  0.00000000E+00
  5.80000000E+02  1.40000000E+02  0.00000000E+00
  5.80000000E+02  1.20000000E+02  0.00000000E+00
  5.80000000E+02  1.00000000E+02  0.00000000E+00
  5.80000000E+02  8.00000000E+01  0.00000000E+00
  5.80000000E+02  6.00000000E+01  0.00000000E+00
  5.80000000E+02  4.00000000E+01  0.00000000E+00
  5.80000000E+02  2.00000000E+01  0.00000000E+00
  5.80000000E+02  4.99600361E-14  0.00000000E+00
  6.00000000E+02  3.00000000E+02  0.00000000E+00
  6.00000000E+02  2.80000000E+02  0.00000000E+00
  6.00000000E+02  2.60000000E+02  0.00000000E+00
  6.00000000E+02  2.40000000E+02  0.00000000E+00
  6.00000000E+02  2.20000000E+02  0.00000000E+00
  6.00000000E+02  2.00000000E+02  0.00000000E+00
  6.00000000E+02  1.80000000E+02  0.00000000E+00
  6.00000000E+02  1.60000000E+02  0.00000000E+00
  6.00000000E+02  1.40000000E+02  0.00000000E+00
  6.00000000E+02  1.20000000E+02  0.00000000E+00
  6.00000000E+02  1.00000000E+02  0.00000000E+00
  6.00000000E+02  8.00000000E+01  0.00000000E+00
  6.00000000E+02  6.00000000E+01  0.00000000E+00
  6.00000000E+02  4.00000000E+01  0.00000000E+00
  6.00000000E+02  2.00000000E+01  0.00000000E+00
  6.00000000E+02  4.99600361E-14  0.00000000E+00
CELLS       450      2250
         4           0           1          17          16
         4           1           2          18          17
         4           2           3          19          18
         4           3           4          20          19
         4           4           5          21          20
         4           5           6          22          21
         4           6           7          23          22
         4           7           8          24          23
         4           8           9          25          24
         4           9          10          26          25
         4          10          11          27          26
         4          11          12          28          27
         4          12          13          29          28
         4          13          14          30          29
         4          14          15          31          30
         4          16          17          33          32
         4          17          18          34          33
         4          18          19          35          34
         4          19          20          36          35
         4          20          21          37          36
         4          21          22          38          37
         4          22          23          39          38
         4          23          24          40          39
         4          24          25          41          40
         4          25          26          42          41
         4          26          27          43          42
         4          27          28          44          43
         4          28          29          45          44
         4          29          30          46          45
         4          30          31          47          46
         4          32          33          49          48
         4          33          34          50          49
         4          34          35          51          50
         4          35          36          52          51
         4          36          37          53          52
         4          37          38          54          53
         4          38          39          55          54
         4          39          40          56          55
         4          40          41          57          56
         4          41          42          58          57
         4          42          43          59          58
         4          43          44          60          59
         4          44          45          61          60
         4          45          46          62          61
         4          46          47          63          62
         4          48          49          65          64
         4          49          50          66          65
         4          50          51          67          66
         4          51          52          68          67
         4          52          53          69          68
         4          53          54          70          69
         4          54          55          71          70
         4          55          56          72          71
         4          56          57          73          72
         4          57          58          74          73
         4          58          59          75          74
         4          59          60          76          75
         4          60          61          77          76
         4          61          62          78          77
         4          62          63          79          78
         4          64          65          81          80
         4          65          66          82          81
         4          66          67          83          82
         4          67          68          84          83
         4          68          69          85          84
         4          69          70          86          85
         4          70          71          87          86
         4          71          72          88          87
         4          72          73          89          88
         4          73          74          90          89
         4          74          75          91          90
         4          75          76          92          91
         4          76          77          93          92
         4          77          78          94          93
         4          78          79          95          94
         4          80          81          97          96
         4          81          82          98          97
         4          82          83          99          98
         4          83          84         100          99
         4          84          85         101         100
         4          85          86         102         101
         4          86          87         103         102
         4          87          88         104         103
         4          88          89         105         104
         4          89          90         106         105
         4          90          91         107         106
         4          91          92         108         107
         4          92          93         109         108
         4          93          94         110         109
         4          94          95         111         110
         4          96          97         113         112
         4          97          98         114         113
         4          98          99         115         114
         4          99         100         116         115
         4         100         101         117         116
         4         101         102         118         117
         4         102         103         119         118
         4         103         104         120         119
         4         104         105         121         120
         4         105         106         122         121
         4         106         107         123         122
         4         107         108         124         123
         4         108         109         125         124
         4         109         110         126         125
         4         110         111         127         126
         4         112         113         129         128
         4         113         114         130         129
         4         114         115         131         130
         4         115         116         132         131
         4         116         117         133         132
         4         117         118         134         133
         4         118         119         135         134
         4         119         120         136         135
         4         120         121         137         136
         4         121         122         138         137
         4         122         123         139         138
         4         123         124         140         139
         4         124         125         141         140
         4         125         126         142         141
         4         126         127         143         142
         4         128         129         145         144
         4         129         130         146         145
         4         130         131         147         146
         4         131         132         148         147
         4         132         133         149         148
         4         133         134         150         149
         4         134         135         151         150
         4         135         136         152         151
         4         136         137         153         152
         4         137         138         154         153
         4         138         139         155         154
         4         139         140         156         155
         4         140         141         157         156
         4         141         142         158         157
         4         142         143         159         158
         4         144         145         161         160
         4         145         146         162         161
         4         146         147         163         162
         4         147         148         164         163
         4         148         149         165         164
         4         149         150         166         165
         4         150         151         167         166
         4         151         152         168         167
         4         152         153         169         168
         4         153         154         170         169
         4         154         155         171         170
         4         155         156         172         171
         4         156         157         173         172
         4         157         158         174         173
         4         158         159         175         174
         4         160         161         177         176
         4         161         162         178         177
         4         162         163         179         178
         4         163         164         180         179
         4         164         165         181         180
         4         165         166         182         181
         4         166         167         183         182
         4         167         168         184         183
         4         168         169         185         184
         4         169         170         186         185
         4         170         171         187         186
         4         171         172         188         187
         4         172         173         189         188
         4         173         174         190         189
         4         174         175         191         190
         4         176         177         193         192
         4         177         178         194         193
         4         178         179         195         194
         4         179         180         196         195
         4         180         181         197         196
         4         181         182         198         197
         4         182         183         199         198
         4         183         184         200         199
         4         184         185         201         200
         4         185         186         202         201
         4         186         187         203         202
         4         187         188         204         203
         4         188         189         205         204
         4         189         190         206         205
         4         190         191         207         206
         4         192         193         209         208
         4         193         194         210         209
         4         194         195         211         210
         4         195         196         212         211
         4         196         197         213         212
         4         197         198         214         213
         4         198         199         215         214
         4         199         200         216         215
         4         200         201         217         216
         4         201         202         218         217
         4         202         203         219         218
         4         203         204         220         219
         4         204         205         221         220
         4         205         206         222         221
         4         206         207         223         222
         4         208         209         225         224
         4         209         210         226         225
         4         210         211         227         226
         4         211         212         228         227
         4         212         213         229         228
         4         213         214         230         229
         4         214         215         231         230
         4         215         216         232         231
         4         216         217         233         232
         4         217         218         234         233
         4         218         219         235         234
         4         219         220         236         235
         4         220         221         237         236
         4         221         222         238         237
         4         222         223         239         238
         4         224         225         241         240
         4         225         226         242         241
         4         226         227         243         242
         4         227         228         244         243
         4         228         229         245         244
         4         229         230         246         245
         4         230         231         247         246
         4         231         232         248         247
         4         232         233         249         248
         4         233         234         250         249
         4         234         235         251         250
         4         235         236         252         251
         4         236         237         253         252
         4         237         238         254         253
         4         238         239         255         254
         4         240         241         257         256
         4         241         242         258         257
         4         242         243         259         258
         4         243         244         260         259
         4         244         245         261         260
         4         245         246         262         261
         4         246         247         263         262
         4         247         248         264         263
         4         248         249         265         264
         4         249         250         266         265
         4         250         251         267         266
         4         251         252         268         267
         4         252         253         269         268
         4         253         254         270         269
         4         254         255         271         270
         4         256         257         273         272
         4         257         258         274         273
         4         258         259         275         274
         4         259         260         276         275
         4         260         261         277         276
         4         261         262         278         277
         4         262         263         279         278
         4         263         264         280         279
         4         264         265         281         280
         4         265         266         282         281
         4         266         267         283         282
         4         267         268         284         283
         4         268         269         285         284
         4         269         270         286         285
         4         270         271         287         286
         4         272         273         289         288
         4         273         274         290         289
         4         274         275         291         290
         4         275         276         292         291
         4         276         277         293         292
         4         277         278         294         293
         4         278         279         295         294
         4         279         280         296         295
         4         280         281         297         296
         4         281         282         298         297
         4         282         283         299         298
         4         283         284         300         299
         4         284         285         301         300
         4         285         286         302         301
         4         286         287         303         302
         4         288         289         305         304
         4         289         290         306         305
         4         290         291         307         306
         4         291         292         308         307
         4         292         293         309         308
         4         293         294         310         309
         4         294         295         311         310
         4         295         296         312         311
         4         296         297         313         312
         4         297         298         314         313
         4         298         299         315         314
         4         299         300         316         315
         4         300         301         317         316
         4         301         302         318         317
         4         302         303         319         318
         4         304         305         321         320
         4         305         306         322         321
         4         306         307         323         322
         4         307         308         324         323
         4         308         309         325         324
         4         309         310         326         325
         4         310         311         327         326
         4         311         312         328         327
         4         312         313         329         328
         4         313         314         330         329
         4         314         315         331         330
         4         315         316         332         331
         4         316         317         333         332
         4         317         318         334         333
         4         318         319         335         334
         4         320         321         337         336
         4         321         322         338         337
         4         322         323         339         338
         4         323         324         340         339
         4         324         325         341         340
         4         325         326         342         341
         4         326         327         343         342
         4         327         328         344         343
         4         328         329         345         344
         4         329         330         346         345
         4         330         331         347         346
         4         331         332         348         347
         4         332         333         349         348
         4         333         334         350         349
         4         334         335         351         350
         4         336         337         353         352
         4         337         338         354         353
         4         338         339         355         354
         4         339         340         356         355
         4         340         341         357         356
         4         341         342         358         357
         4         342         343         359         358
         4         343         344         360         359
         4         344         345         361         360
         4         345         346         362         361
         4         346         347         363         362
         4         347         348         364         363
         4         348         349         365         364
         4         349         350         366         365
         4         350         351         367         366
         4         352         353         369         368
         4         353         354         370         369
         4         354         355         371         370
         4         355         356         372         371
         4         356         357         373         372
         4         357         358         374         373
         4         358         359         375         374
         4         359         360         376         375
         4         360         361         377         376
         4         361         362         378         377
         4         362         363         379         378
         4         363         364         380         379
         4         364         365         381         380
         4         365         366         382         381
         4         366         367         383         382
         4         368         369         385         384
         4         369         370         386         385
         4         370         371         387         386
         4         371         372         388         387
         4         372         373         389         388
         4         373         374         390         389
         4         374         375         391         390
         4         375         376         392         391
         4         376         377         393         392
         4         377         378         394         393
         4         378         379         395         394
         4         379         380         396         395
         4         380         381         397         396
         4         381         382         398         397
         4         382         383         399         398
         4         384         385         401         400
         4         385         386         402         401
         4         386         387         403         402
         4         387         388         404         403
         4         388         389         405         404
         4         389         390         406         405
         4         390         391         407         406
         4         391         392         408         407
         4         392         393         409         408
         4         393         394         410         409
         4         394         395         411         410
         4         395         396         412         411
         4         396         397         413         412
         4         397         398         414         413
         4         398         399         415         414
         4         400         401         417         416
         4         401         402         418         417
         4         402         403         419         418
         4         403         404         420         419
         4         404         405         421         420
         4         405         406         422         421
         4         406         407         423         422
         4         407         408         424         423
         4         408         409         425         424
         4         409         410         426         425
         4         410         411         427         426
         4         411         412         428         427
         4         412         413         429         428
         4         413         414         430         429
         4         414         415         431         430
         4         416         417         433         432
         4         417         418         434         433
         4         418         419         435         434
         4         419         420         436         435
         4         420         421         437         436
         4         421         422         438         437
         4         422         423         439         438
         4         423         424         440         439
         4         424         425         441         440
         4         425         426         442         441
         4         426         427         443         442
         4         427         428         444         443
         4         428         429         445         444
         4         429         430         446         445
         4         430         431         447         446
         4         432         433         449         448
         4         433         434         450         449
         4         434         435         451         450
         4         435         436         452         451
         4         436         437         453         452
         4         437         438         454         453
         4         438         439         455         454
         4         439         440         456         455
         4         440         441         457         456
         4         441         442         458         457
         4         442         443         459         458
         4         443         444         460         459
         4         444         445         461         460
         4         445         446         462         461
         4         446         447         463         462
         4         448         449         465         464
         4         449         450         466         465
         4         450         451         467         466
         4         451         452         468         467
         4         452         453         469         468
         4         453         454         470         469
         4         454         455         471         470
         4         455         456         472         471
         4         456         457         473         472
         4         457         458         474         473
         4         458         459         475         474
         4         459         460         476         475
         4         460         461         477         476
         4         461         462         478         477
         4         462         463         479         478
         4         464         465         481         480
         4         465         466         482         481
         4         466         467         483         482
         4         467         468         484         483
         4         468         469         485         484
         4         469         470         486         485
         4         470         471         487         486
         4         471         472         488         487
         4         472         473         489         488
         4         473         474         490         489
         4         474         475         491         490
         4         475         476         492         491
         4         476         477         493         492
         4         477         478         494         493
         4         478         479         495         494
CELL_TYPES        450
9
9
9
9
9
9
9
9
9
9
9
9
9
9
9
9
9
9
9
9
9
9
9
9
9
9
9
9
9
9
9
9
9
9
9
9
9
9
9
9
9
9
9
9
9
9
9
9
9
9
9
9
9
9
9
9
9
9
9
9
9
9
9
9
9
9
9
9
9
9
9
9
9
9
9
9
9
9
9
9
9
9
9
9
9
9
9
9
9
9
9
9
9
9
9
9
9
9
9
9
9
9
9
9
9
9
9
9
9
9
9
9
9
9
9
9
9
9
9
9
9
9
9
9
9
9
9
9
9
9
9
9
9
9
9
9
9
9
9
9
9
9
9
9
9
9
9
9
9
9
9
9
9
9
9
9
9
9
9
9
9
9
9
9
9
9
9
9
9
9
9
9
9
9
9
9
9
9
9
9
9
9
9
9
9
9
9
9
9
9
9
9
9
9
9
9
9
9
9
9
9
9
9
9
9
9
9
9
9
9
9
9
9
9
9
9
9
9
9
9
9
9
9
9
9
9
9
9
9
9
9
9
9
9
9
9
9
9
9
9
9
9
9
9
9
9
9
9
9
9
9
9
9
9
9
9
9
9
9
9
9
9
9
9
9
9
9
9
9
9
9
9
9
9
9
9
9
9
9
9
9
9
9
9
9
9
9
9
9
9
9
9
9
9
9
9
9
9
9
9
9
9
9
9
9
9
9
9
9
9
9
9
9
9
9
9
9
9
9
9
9
9
9
9
9
9
9
9
9
9
9
9
9
9
9
9
9
9
9
9
9
9
9
9
9
9
9
9
9
9
9
9
9
9
9
9
9
9
9
9
9
9
9
9
9
9
9
9
9
9
9
9
9
9
9
9
9
9
9
9
9
9
9
9
9
9
9
9
9
9
9
9
9
9
9
9
9
9
9
9
9
9
9
9
9
9
9
9
9
9
9
9
9
9
9
9
9
9
9
9
9
9
9
9
9
9
9
9
9
9
9
9
9
9
9
9
9
9
9
9
9
9
9
9
9
9
9
9
9
9
POINT_DATA       496
SCALARS p double 
LOOKUP_TABLE default
   44271571.1797022     
   44266979.5656274     
   44253428.7703388     
   44230928.0232787     
   44199230.5970007     
   44164572.3870899     
   44134256.8402032     
   44108679.4263180     
   44086915.4422316     
   44068345.3445993     
   44052593.1457344     
   44039473.9654814     
   44028955.5889546     
   44021130.7582999     
   44016196.6516300     
   44014438.8917470     
   44231764.7603912     
   44227151.9472854     
   44213519.0513911     
   44190906.3262096     
   44159124.0875612     
   44124491.9322176     
   44094230.1163365     
   44068629.1954179     
   44046792.4636605     
   44028125.8571120     
   44012270.4259200     
   43999052.5385162     
   43988447.8334919     
   43980554.9921168     
   43975576.2304345     
   43973801.9951050     
   44112226.9909560     
   44107537.8564827     
   44093692.1672354     
   44070788.5755373     
   44038769.3170829     
   44004226.4440647     
   43974097.3089580     
   43948406.0251266     
   43926346.7545513     
   43907393.5936690     
   43891234.0001410     
   43877726.1019039     
   43866868.0079415     
   43858775.5558351     
   43853665.6621995     
   43851842.9946953     
   43912609.5624481     
   43907800.0170499     
   43893666.8073393     
   43870336.1871667     
   43838035.1020399     
   43803644.7313922     
   43773655.4339160     
   43747779.2244377     
   43725347.5461766     
   43705930.3976444     
   43689283.6023992     
   43675313.1932609     
   43664051.6114618     
   43655641.2579680     
   43650322.2476807     
   43648422.1589389     
   43632337.7995804     
   43627393.7226664     
   43612847.8331580     
   43588878.1446060     
   43556412.7598181     
   43522339.1100940     
   43492495.4956570     
   43466350.8840822     
   43443416.1212598     
   43423385.5935128     
   43406101.1206830     
   43391528.1583571     
   43379741.6711349     
   43370917.3930770     
   43365325.3872761     
   43363323.7800127     
   43270633.8126149     
   43265525.3568098     
   43250465.7673542     
   43225603.1481394     
   43193147.1825587     
   43159743.2287235     
   43130059.2561874     
   43103581.7777905     
   43080047.8854665     
   43059299.2722309     
   43041275.1810793     
   43026006.4282400     
   43013614.2280138     
   43004311.1769501     
   42998401.8737994     
   42996281.3711266     
   42826591.6344885     
   42821285.4440243     
   42805744.3270991     
   42780088.3596946     
   42747871.6449126     
   42715309.0395205     
   42685695.4034419     
   42658829.8126872     
   42634646.8794457     
   42613136.7754752     
   42594336.0855418     
   42578339.5324419     
   42565313.1514606     
   42555506.2447051     
   42549260.0914895     
   42547011.7122967     
   42299295.5974983     
   42293749.0835046     
   42277657.8320011     
   42251479.5405817     
   42219837.6603185     
   42188207.5938184     
   42158645.5806191     
   42131380.2136506     
   42106567.7181197     
   42084333.1846565     
   42064800.1912479     
   42048118.7641378     
   42034493.0118894     
   42024204.8449521     
   42017631.7183362     
   42015256.3358367     
   41687852.1023068     
   41682065.5645713     
   41665279.8902475     
   41639092.8216802     
   41608251.9821390     
   41577539.0803200     
   41548077.3530735     
   41520496.9759500     
   41495170.7015925     
   41472347.6906366     
   41452222.3464347     
   41434985.6662828     
   41420868.0354983     
   41410175.7183409     
   41403318.9239458     
   41400828.4469743     
   40991393.3293793     
   40985410.3298170     
   40968159.0613814     
   40942432.3066879     
   40912625.4424027     
   40882543.6521274     
   40853230.8397291     
   40825506.6169791     
   40799891.6568675     
   40776726.3948277     
   40756253.8882118     
   40738686.5817642     
   40724264.3420839     
   40713304.9097932     
   40706244.3655580     
   40703662.5952480     
   40209193.8127567     
   40203031.9262961     
   40185759.5800958     
   40160630.2773753     
   40131983.0918422     
   40102480.7063271     
   40073476.1186367     
   40045884.3082363     
   40020317.1894682     
   39997168.7391578     
   39976702.2711778     
   39959127.4986058     
   39944671.7693370     
   39933645.9260202     
   39926500.4930820     
   39923863.6282168     
   39340808.2829557     
   39334499.5913500     
   39317410.9921374     
   39293112.8738582     
   39265536.4797138     
   39236802.9526095     
   39208400.3225624     
   39181332.3658802     
   39156258.5484920     
   39133592.2452939     
   39113587.8062666     
   39096424.6709112     
   39082290.6421734     
   39071464.6291641     
   39064393.6772453     
   39061750.4639633     
   38385560.2255334     
   38379301.0592177     
   38362642.1958286     
   38339436.5164759     
   38312982.8067552     
   38285304.8382787     
   38257918.0646646     
   38231864.9667274     
   38207822.0553968     
   38186192.5120759     
   38167193.6776494     
   38150946.2270972     
   38137567.7317274     
   38127272.7533700     
   38120477.1693005     
   38117888.7334138     
   37343395.8861851     
   37337389.8372579     
   37321442.7061157     
   37299572.2245539     
   37274484.3635824     
   37248249.2115284     
   37222368.5559369     
   37197888.8868968     
   37175476.2185280     
   37155497.7108658     
   37138107.4864164     
   37123340.4318371     
   37111214.1151203     
   37101841.1396231     
   37095564.1550805     
   37093103.5898288     
   36215219.2819667     
   36209453.2999518     
   36194563.6556003     
   36174170.5565563     
   36150798.1232568     
   36126447.3084267     
   36102598.5447483     
   36080277.0714657     
   36060115.5473099     
   36042420.5983228     
   36027256.7786737     
   36014549.3347966     
   36004195.5991262     
   35996177.8804931     
   35990706.0880939     
   35988458.7873850     
   35002168.7898504     
   34996819.8046475     
   34983290.6252489     
   34964636.6270427     
   34943345.5021452     
   34921332.8893610     
   34900034.2722496     
   34880438.5426343     
   34863126.0599449     
   34848316.2346938     
   34835950.1264825     
   34825816.0549305     
   34817689.6385532     
   34811441.7270739     
   34807106.8691109     
   34805171.9190476     
   33706582.3198972     
   33701838.9340723     
   33689760.4429384     
   33673134.0460207     
   33654277.2722116     
   33635024.9110715     
   33616750.3466983     
   33600391.6577241     
   33586460.2695731     
   33575058.1870979     
   33565945.9714927     
   33558722.3478350     
   33553033.7065023     
   33548737.8746646     
   33545885.2389388     
   33544413.4123237     
   32331749.4815891     
   32327563.5802333     
   32317011.7831836     
   32302615.7989734     
   32286505.8491324     
   32270384.8039145     
   32255541.0002071     
   32242847.9716369     
   32232734.2949713     
   32225145.0783573     
   32219570.6927572     
   32215304.6175448     
   32211820.0820176     
   32208933.2886548     
   32207211.9371415     
   32206831.2466539     
   30881318.7382127     
   30877710.9207419     
   30868774.2544760     
   30856809.7320301     
   30843728.3996432     
   30831065.6511163     
   30819995.9256662     
   30811316.1418879     
   30805363.9819031     
   30801869.8140685     
   30799862.7362858     
   30798234.8394264     
   30796386.0401519     
   30794626.0196117     
   30793446.5383282     
   30793429.9975533     
   29359650.1581048     
   29356673.5455045     
   29349504.2916354     
   29340206.2778160     
   29330444.0625471     
   29321550.8042567     
   29314566.0295556     
   29310215.1849825     
   29308764.9938682     
   29309673.3600814     
   29311483.9760174     
   29312786.0346848     
   29312972.9148682     
   29312329.6467487     
   29311594.3498567     
   29311389.8263515     
   27771869.1442723     
   27769611.2948269     
   27764424.2750762     
   27758081.8307147     
   27751959.4436988     
   27747158.7548698     
   27744582.2593087     
   27744928.3371542     
   27748544.9929013     
   27754720.6528343     
   27761118.1486899     
   27765835.4373260     
   27768568.5031780     
   27769610.5071503     
   27769412.3857566     
   27769095.1900229     
   26123919.3177581     
   26122496.3439115     
   26119558.1575873     
   26116503.8451163     
   26114365.6442460     
   26113989.2562408     
   26116157.9553522     
   26121650.7886888     
   26131163.0095040     
   26143360.7538610     
   26154779.6122595     
   26163299.3339573     
   26168677.9143111     
   26171163.8211634     
   26171618.8337257     
   26171478.3241339     
   24422594.6060216     
   24422140.3994752     
   24421740.4831798     
   24422310.2831077     
   24424476.4967254     
   24428805.1723772     
   24435983.6680309     
   24446980.4838258     
   24462869.7516393     
   24481194.5602646     
   24497406.7533999     
   24509475.7202897     
   24517343.4675874     
   24521435.6654014     
   24522770.6081048     
   24522905.7463741     
   22675557.3382189     
   22676204.6952529     
   22678604.6615854     
   22683063.9165057     
   22689739.1131367     
   22698889.1763972     
   22711096.4784772     
   22727548.8934444     
   22749427.1471242     
   22773197.0472748     
   22793503.0994525     
   22808826.0763484     
   22819150.0142131     
   22824961.0547227     
   22827310.6999300     
   22827777.1881737     
   20891344.8454050     
   20893197.6840258     
   20898556.8353316     
   20906991.0563131     
   20918132.0760033     
   20931909.8696936     
   20948754.9290206     
   20969912.8540450     
   20996455.8675314     
   21024349.3214890     
   21048044.4930689     
   21066212.9162237     
   21078814.4764200     
   21086301.3407650     
   21089676.3186976     
   21090488.6479694     
   19079369.7396334     
   19082466.6558504     
   19090743.1637469     
   19102913.8956791     
   19118061.5349850     
   19135795.8791617     
   19156354.3320023     
   19180779.5088087     
   19209970.6059594     
   19240299.9058354     
   19266370.0021248     
   19286656.6528397     
   19301071.3187893     
   19309969.5440016     
   19314242.4267030     
   19315374.2226422     
   17249923.7219533     
   17254192.4058145     
   17265016.2637142     
   17280180.1714600     
   17298259.4542882     
   17318618.0287627     
   17341318.1088796     
   17367065.8666050     
   17396497.8957907     
   17426970.8965914     
   17453910.9986299     
   17475155.0893637     
   17490553.7029913     
   17500305.2295790     
   17505172.0814926     
   17506548.8511945     
   15414205.6093351     
   15419401.2171186     
   15431897.2120442     
   15448575.8356864     
   15467676.5158277     
   15488485.5227563     
   15510999.2751870     
   15535631.3218155     
   15562722.7309995     
   15590636.8607690     
   15616033.4334749     
   15636591.4364167     
   15651643.5278721     
   15661313.8760838     
   15666221.2930822     
   15667716.3103601     
   13584426.6776746     
   13590015.7844735     
   13602500.7923428     
   13618162.0649975     
   13635330.2576081     
   13653457.5096422     
   13672594.6300281     
   13693032.7987743     
   13714894.7158001     
   13737302.5072144     
   13758108.8302166     
   13775467.3154066     
   13788340.4708514     
   13796475.7437241     
   13800581.8332911     
   13802003.8065418     
   11774121.0361576     
   11779005.0581346     
   11788255.9695811     
   11798910.7450955     
   11810038.9703801     
   11821436.3711247     
   11833223.0587838     
   11845624.9879007     
   11858705.1158793     
   11872123.4645966     
   11884820.3883714     
   11895785.6232593     
   11903916.1015116     
   11908650.3121875     
   11910853.2345366     
   11912119.1288095     
   10000000.0000000     
   10000000.0000000     
   10000000.0000000     
   10000000.0000000     
   10000000.0000000     
   10000000.0000000     
   10000000.0000000     
   10000000.0000000     
   10000000.0000000     
   10000000.0000000     
   10000000.0000000     
   10000000.0000000     
   10000000.0000000     
  10000000.00000000     
   10000000.0000000     
   10000000.0000000     
VECTORS u double 
    0.00000E+00        -0.20160E-01         0.00000E+00
    0.00000E+00        -0.18504E-01         0.00000E+00
    0.00000E+00        -0.16909E-01         0.00000E+00
    0.00000E+00        -0.15379E-01         0.00000E+00
    0.00000E+00        -0.13915E-01         0.00000E+00
    0.00000E+00        -0.12519E-01         0.00000E+00
    0.00000E+00        -0.11154E-01         0.00000E+00
    0.00000E+00        -0.98130E-02         0.00000E+00
    0.00000E+00        -0.84948E-02         0.00000E+00
    0.00000E+00        -0.71990E-02         0.00000E+00
    0.00000E+00        -0.59267E-02         0.00000E+00
    0.00000E+00        -0.46794E-02         0.00000E+00
    0.00000E+00        -0.34596E-02         0.00000E+00
    0.00000E+00        -0.22706E-02         0.00000E+00
    0.00000E+00        -0.11160E-02         0.00000E+00
    0.00000E+00         0.00000E+00         0.00000E+00
    0.11862E-02        -0.20205E-01         0.00000E+00
    0.10939E-02        -0.18548E-01         0.00000E+00
    0.99935E-03        -0.16952E-01         0.00000E+00
    0.90323E-03        -0.15420E-01         0.00000E+00
    0.80639E-03        -0.13955E-01         0.00000E+00
    0.71177E-03        -0.12556E-01         0.00000E+00
    0.62476E-03        -0.11189E-01         0.00000E+00
    0.54491E-03        -0.98448E-02         0.00000E+00
    0.47053E-03        -0.85232E-02         0.00000E+00
    0.40011E-03        -0.72238E-02         0.00000E+00
    0.33237E-03        -0.59476E-02         0.00000E+00
    0.26618E-03        -0.46964E-02         0.00000E+00
    0.20060E-03        -0.34725E-02         0.00000E+00
    0.13482E-03        -0.22793E-02         0.00000E+00
    0.68137E-04        -0.11204E-02         0.00000E+00
    0.00000E+00         0.00000E+00         0.00000E+00
    0.23649E-02        -0.20342E-01         0.00000E+00
    0.21803E-02        -0.18680E-01         0.00000E+00
    0.19910E-02        -0.17080E-01         0.00000E+00
    0.17988E-02        -0.15544E-01         0.00000E+00
    0.16058E-02        -0.14075E-01         0.00000E+00
    0.14173E-02        -0.12670E-01         0.00000E+00
    0.12444E-02        -0.11294E-01         0.00000E+00
    0.10857E-02        -0.99403E-02         0.00000E+00
    0.93783E-03        -0.86084E-02         0.00000E+00
    0.79771E-03        -0.72981E-02         0.00000E+00
    0.66282E-03        -0.60105E-02         0.00000E+00
    0.53096E-03        -0.47473E-02         0.00000E+00
    0.40025E-03        -0.35112E-02         0.00000E+00
    0.26906E-03        -0.23054E-02         0.00000E+00
    0.13602E-03        -0.11336E-02         0.00000E+00
    0.00000E+00         0.00000E+00         0.00000E+00
    0.35288E-02        -0.20569E-01         0.00000E+00
    0.32521E-02        -0.18901E-01         0.00000E+00
    0.29679E-02        -0.17294E-01         0.00000E+00
    0.26793E-02        -0.15751E-01         0.00000E+00
    0.23905E-02        -0.14275E-01         0.00000E+00
    0.21104E-02        -0.12859E-01         0.00000E+00
    0.18540E-02        -0.11468E-01         0.00000E+00
    0.16185E-02        -0.10099E-01         0.00000E+00
    0.13988E-02        -0.87501E-02         0.00000E+00
    0.11903E-02        -0.74216E-02         0.00000E+00
    0.98946E-03        -0.61149E-02         0.00000E+00
    0.79295E-03        -0.48320E-02         0.00000E+00
    0.59798E-03        -0.35755E-02         0.00000E+00
    0.40214E-03        -0.23487E-02         0.00000E+00
    0.20338E-03        -0.11554E-02         0.00000E+00
    0.00000E+00         0.00000E+00         0.00000E+00
    0.46693E-02        -0.20886E-01         0.00000E+00
    0.43004E-02        -0.19210E-01         0.00000E+00
    0.39218E-02        -0.17594E-01         0.00000E+00
    0.35375E-02        -0.16042E-01         0.00000E+00
    0.31532E-02        -0.14555E-01         0.00000E+00
    0.27851E-02        -0.13123E-01         0.00000E+00
    0.24489E-02        -0.11713E-01         0.00000E+00
    0.21395E-02        -0.10321E-01         0.00000E+00
    0.18502E-02        -0.89477E-02         0.00000E+00
    0.15755E-02        -0.75938E-02         0.00000E+00
    0.13104E-02        -0.62605E-02         0.00000E+00
    0.10507E-02        -0.49500E-02         0.00000E+00
    0.79280E-03        -0.36651E-02         0.00000E+00
    0.53346E-03        -0.24091E-02         0.00000E+00
    0.26995E-03        -0.11860E-02         0.00000E+00
    0.00000E+00         0.00000E+00         0.00000E+00
    0.57781E-02        -0.21295E-01         0.00000E+00
    0.53165E-02        -0.19608E-01         0.00000E+00
    0.48437E-02        -0.17981E-01         0.00000E+00
    0.43652E-02        -0.16418E-01         0.00000E+00
    0.38876E-02        -0.14918E-01         0.00000E+00
    0.34359E-02        -0.13463E-01         0.00000E+00
    0.30245E-02        -0.12026E-01         0.00000E+00
    0.26449E-02        -0.10605E-01         0.00000E+00
    0.22893E-02        -0.92006E-02         0.00000E+00
    0.19508E-02        -0.78139E-02         0.00000E+00
    0.16237E-02        -0.64466E-02         0.00000E+00
    0.13028E-02        -0.51009E-02         0.00000E+00
    0.98368E-03        -0.37797E-02         0.00000E+00
    0.66236E-03        -0.24864E-02         0.00000E+00
    0.33543E-03        -0.12250E-02         0.00000E+00
    0.00000E+00         0.00000E+00         0.00000E+00
    0.68467E-02        -0.21795E-01         0.00000E+00
    0.62918E-02        -0.20095E-01         0.00000E+00
    0.57250E-02        -0.18456E-01         0.00000E+00
    0.51533E-02        -0.16879E-01         0.00000E+00
    0.45879E-02        -0.15363E-01         0.00000E+00
    0.40583E-02        -0.13878E-01         0.00000E+00
    0.35770E-02        -0.12407E-01         0.00000E+00
    0.31315E-02        -0.10950E-01         0.00000E+00
    0.27131E-02        -0.95075E-02         0.00000E+00
    0.23140E-02        -0.80810E-02         0.00000E+00
    0.19275E-02        -0.66723E-02         0.00000E+00
    0.15478E-02        -0.52839E-02         0.00000E+00
    0.11696E-02        -0.39186E-02         0.00000E+00
    0.78816E-03        -0.25801E-02         0.00000E+00
    0.39949E-03        -0.12724E-02         0.00000E+00
    0.00000E+00         0.00000E+00         0.00000E+00
    0.78659E-02        -0.22388E-01         0.00000E+00
    0.72176E-02        -0.20674E-01         0.00000E+00
    0.65570E-02        -0.19020E-01         0.00000E+00
    0.58930E-02        -0.17427E-01         0.00000E+00
    0.52451E-02        -0.15887E-01         0.00000E+00
    0.46486E-02        -0.14366E-01         0.00000E+00
    0.41027E-02        -0.12854E-01         0.00000E+00
    0.35960E-02        -0.11354E-01         0.00000E+00
    0.31188E-02        -0.98670E-02         0.00000E+00
    0.26625E-02        -0.83937E-02         0.00000E+00
    0.22198E-02        -0.69366E-02         0.00000E+00
    0.17841E-02        -0.54981E-02         0.00000E+00
    0.13493E-02        -0.40814E-02         0.00000E+00
    0.91011E-03        -0.26899E-02         0.00000E+00
    0.46177E-03        -0.13279E-02         0.00000E+00
    0.00000E+00         0.00000E+00         0.00000E+00
    0.88263E-02        -0.23075E-01         0.00000E+00
    0.80834E-02        -0.21345E-01         0.00000E+00
    0.73301E-02        -0.19675E-01         0.00000E+00
    0.65781E-02        -0.18063E-01         0.00000E+00
    0.58590E-02        -0.16489E-01         0.00000E+00
    0.52023E-02        -0.14923E-01         0.00000E+00
    0.45982E-02        -0.13365E-01         0.00000E+00
    0.40353E-02        -0.11816E-01         0.00000E+00
    0.35036E-02        -0.10277E-01         0.00000E+00
    0.29941E-02        -0.87508E-02         0.00000E+00
    0.24986E-02        -0.72383E-02         0.00000E+00
    0.20100E-02        -0.57428E-02         0.00000E+00
    0.15216E-02        -0.42673E-02         0.00000E+00
    0.10274E-02        -0.28155E-02         0.00000E+00
    0.52184E-03        -0.13914E-02         0.00000E+00
    0.00000E+00         0.00000E+00         0.00000E+00
    0.97181E-02        -0.23858E-01         0.00000E+00
    0.88796E-02        -0.22110E-01         0.00000E+00
    0.80353E-02        -0.20421E-01         0.00000E+00
    0.72041E-02        -0.18783E-01         0.00000E+00
    0.64270E-02        -0.17164E-01         0.00000E+00
    0.57166E-02        -0.15548E-01         0.00000E+00
    0.50599E-02        -0.13937E-01         0.00000E+00
    0.44461E-02        -0.12333E-01         0.00000E+00
    0.38646E-02        -0.10737E-01         0.00000E+00
    0.33061E-02        -0.91505E-02         0.00000E+00
    0.27618E-02        -0.75762E-02         0.00000E+00
    0.22239E-02        -0.60168E-02         0.00000E+00
    0.16852E-02        -0.44756E-02         0.00000E+00
    0.11391E-02        -0.29562E-02         0.00000E+00
    0.57924E-03        -0.14627E-02         0.00000E+00
    0.00000E+00         0.00000E+00         0.00000E+00
    0.10532E-01        -0.24738E-01         0.00000E+00
    0.95980E-02        -0.22970E-01         0.00000E+00
    0.86666E-02        -0.21258E-01         0.00000E+00
    0.77708E-02        -0.19581E-01         0.00000E+00
    0.69462E-02        -0.17909E-01         0.00000E+00
    0.61878E-02        -0.16237E-01         0.00000E+00
    0.54845E-02        -0.14568E-01         0.00000E+00
    0.48251E-02        -0.12903E-01         0.00000E+00
    0.41990E-02        -0.11244E-01         0.00000E+00
    0.35960E-02        -0.95913E-02         0.00000E+00
    0.30072E-02        -0.79488E-02         0.00000E+00
    0.24240E-02        -0.63192E-02         0.00000E+00
    0.18387E-02        -0.47055E-02         0.00000E+00
    0.12441E-02        -0.31116E-02         0.00000E+00
    0.63343E-03        -0.15415E-02         0.00000E+00
    0.00000E+00         0.00000E+00         0.00000E+00
    0.11259E-01        -0.25717E-01         0.00000E+00
    0.10231E-01        -0.23925E-01         0.00000E+00
    0.92242E-02        -0.22181E-01         0.00000E+00
    0.82798E-02        -0.20451E-01         0.00000E+00
    0.74125E-02        -0.18720E-01         0.00000E+00
    0.66123E-02        -0.16988E-01         0.00000E+00
    0.58683E-02        -0.15255E-01         0.00000E+00
    0.51691E-02        -0.13524E-01         0.00000E+00
    0.45036E-02        -0.11795E-01         0.00000E+00
    0.38613E-02        -0.10072E-01         0.00000E+00
    0.32325E-02        -0.83549E-02         0.00000E+00
    0.26083E-02        -0.66487E-02         0.00000E+00
    0.19805E-02        -0.49563E-02         0.00000E+00
    0.13415E-02        -0.32812E-02         0.00000E+00
    0.68379E-03        -0.16275E-02         0.00000E+00
    0.00000E+00         0.00000E+00         0.00000E+00
    0.11891E-01        -0.26794E-01         0.00000E+00
    0.10777E-01        -0.24971E-01         0.00000E+00
    0.97114E-02        -0.23178E-01         0.00000E+00
    0.87272E-02        -0.21388E-01         0.00000E+00
    0.78220E-02        -0.19594E-01         0.00000E+00
    0.69859E-02        -0.17797E-01         0.00000E+00
    0.62075E-02        -0.15996E-01         0.00000E+00
    0.54746E-02        -0.14194E-01         0.00000E+00
    0.47757E-02        -0.12391E-01         0.00000E+00
    0.40994E-02        -0.10590E-01         0.00000E+00
    0.34355E-02        -0.87932E-02         0.00000E+00
    0.27749E-02        -0.70045E-02         0.00000E+00
    0.21089E-02        -0.52270E-02         0.00000E+00
    0.14298E-02        -0.34645E-02         0.00000E+00
    0.72958E-03        -0.17207E-02         0.00000E+00
    0.00000E+00         0.00000E+00         0.00000E+00
    0.12427E-01        -0.27966E-01         0.00000E+00
    0.11239E-01        -0.26098E-01         0.00000E+00
    0.10128E-01        -0.24245E-01         0.00000E+00
    0.91076E-02        -0.22389E-01         0.00000E+00
    0.81701E-02        -0.20529E-01         0.00000E+00
    0.73045E-02        -0.18662E-01         0.00000E+00
    0.64982E-02        -0.16789E-01         0.00000E+00
    0.57383E-02        -0.14910E-01         0.00000E+00
    0.50120E-02        -0.13028E-01         0.00000E+00
    0.43076E-02        -0.11144E-01         0.00000E+00
    0.36140E-02        -0.92624E-02         0.00000E+00
    0.29218E-02        -0.73855E-02         0.00000E+00
    0.22222E-02        -0.55171E-02         0.00000E+00
    0.15076E-02        -0.36610E-02         0.00000E+00
    0.76989E-03        -0.18207E-02         0.00000E+00
    0.00000E+00         0.00000E+00         0.00000E+00
    0.12869E-01        -0.29222E-01         0.00000E+00
    0.11618E-01        -0.27296E-01         0.00000E+00
    0.10468E-01        -0.25376E-01         0.00000E+00
    0.94156E-02        -0.23452E-01         0.00000E+00
    0.84517E-02        -0.21521E-01         0.00000E+00
    0.75634E-02        -0.19581E-01         0.00000E+00
    0.67364E-02        -0.17631E-01         0.00000E+00
    0.59565E-02        -0.15672E-01         0.00000E+00
    0.52098E-02        -0.13705E-01         0.00000E+00
    0.44834E-02        -0.11734E-01         0.00000E+00
    0.37658E-02        -0.97618E-02         0.00000E+00
    0.30470E-02        -0.77911E-02         0.00000E+00
    0.23186E-02        -0.58262E-02         0.00000E+00
    0.15733E-02        -0.38706E-02         0.00000E+00
    0.80355E-03        -0.19275E-02         0.00000E+00
    0.00000E+00         0.00000E+00         0.00000E+00
    0.13216E-01        -0.30554E-01         0.00000E+00
    0.11911E-01        -0.28561E-01         0.00000E+00
    0.10724E-01        -0.26570E-01         0.00000E+00
    0.96450E-02        -0.24574E-01         0.00000E+00
    0.86616E-02        -0.22568E-01         0.00000E+00
    0.77580E-02        -0.20551E-01         0.00000E+00
    0.69182E-02        -0.18519E-01         0.00000E+00
    0.61260E-02        -0.16476E-01         0.00000E+00
    0.53661E-02        -0.14421E-01         0.00000E+00
    0.46244E-02        -0.12358E-01         0.00000E+00
    0.38887E-02        -0.10291E-01         0.00000E+00
    0.31486E-02        -0.82214E-02         0.00000E+00
    0.23962E-02        -0.61545E-02         0.00000E+00
    0.16248E-02        -0.40936E-02         0.00000E+00
    0.82889E-03        -0.20416E-02         0.00000E+00
    0.00000E+00         0.00000E+00         0.00000E+00
    0.13463E-01        -0.31954E-01         0.00000E+00
    0.12106E-01        -0.29887E-01         0.00000E+00
    0.10888E-01        -0.27822E-01         0.00000E+00
    0.97893E-02        -0.25750E-01         0.00000E+00
    0.87941E-02        -0.23666E-01         0.00000E+00
    0.78836E-02        -0.21567E-01         0.00000E+00
    0.70394E-02        -0.19451E-01         0.00000E+00
    0.62432E-02        -0.17320E-01         0.00000E+00
    0.54779E-02        -0.15174E-01         0.00000E+00
    0.47280E-02        -0.13016E-01         0.00000E+00
    0.39804E-02        -0.10849E-01         0.00000E+00
    0.32246E-02        -0.86773E-02         0.00000E+00
    0.24529E-02        -0.65040E-02         0.00000E+00
    0.16602E-02        -0.43322E-02         0.00000E+00
    0.84340E-03        -0.21640E-02         0.00000E+00
    0.00000E+00         0.00000E+00         0.00000E+00
    0.13595E-01        -0.33413E-01         0.00000E+00
    0.12195E-01        -0.31270E-01         0.00000E+00
    0.10952E-01        -0.29127E-01         0.00000E+00
    0.98420E-02        -0.26975E-01         0.00000E+00
    0.88436E-02        -0.24809E-01         0.00000E+00
    0.79353E-02        -0.22625E-01         0.00000E+00
    0.70957E-02        -0.20422E-01         0.00000E+00
    0.63044E-02        -0.18199E-01         0.00000E+00
    0.55420E-02        -0.15960E-01         0.00000E+00
    0.47912E-02        -0.13704E-01         0.00000E+00
    0.40381E-02        -0.11437E-01         0.00000E+00
    0.32723E-02        -0.91614E-02         0.00000E+00
    0.24863E-02        -0.68790E-02         0.00000E+00
    0.16769E-02        -0.45924E-02         0.00000E+00
    0.84376E-03        -0.23028E-02         0.00000E+00
    0.00000E+00         0.00000E+00         0.00000E+00
    0.13599E-01        -0.34922E-01         0.00000E+00
    0.12167E-01        -0.32700E-01         0.00000E+00
    0.10908E-01        -0.30475E-01         0.00000E+00
    0.97963E-02        -0.28239E-01         0.00000E+00
    0.88044E-02        -0.25988E-01         0.00000E+00
    0.79078E-02        -0.23716E-01         0.00000E+00
    0.70826E-02        -0.21423E-01         0.00000E+00
    0.63054E-02        -0.19109E-01         0.00000E+00
    0.55547E-02        -0.16775E-01         0.00000E+00
    0.48106E-02        -0.14424E-01         0.00000E+00
    0.40580E-02        -0.12056E-01         0.00000E+00
    0.32882E-02        -0.96771E-02         0.00000E+00
    0.24956E-02        -0.72842E-02         0.00000E+00
    0.16793E-02        -0.48751E-02         0.00000E+00
    0.84478E-03        -0.24471E-02         0.00000E+00
    0.00000E+00         0.00000E+00         0.00000E+00
    0.13462E-01        -0.36468E-01         0.00000E+00
    0.12010E-01        -0.34164E-01         0.00000E+00
    0.10749E-01        -0.31854E-01         0.00000E+00
    0.96455E-02        -0.29532E-01         0.00000E+00
    0.86707E-02        -0.27192E-01         0.00000E+00
    0.77961E-02        -0.24831E-01         0.00000E+00
    0.69951E-02        -0.22447E-01         0.00000E+00
    0.62420E-02        -0.20041E-01         0.00000E+00
    0.55116E-02        -0.17614E-01         0.00000E+00
    0.47824E-02        -0.15169E-01         0.00000E+00
    0.40403E-02        -0.12704E-01         0.00000E+00
    0.32797E-02        -0.10214E-01         0.00000E+00
    0.24993E-02        -0.76963E-02         0.00000E+00
    0.16937E-02        -0.51508E-02         0.00000E+00
    0.86130E-03        -0.25813E-02         0.00000E+00
    0.00000E+00         0.00000E+00         0.00000E+00
    0.13172E-01        -0.38036E-01         0.00000E+00
    0.11716E-01        -0.35647E-01         0.00000E+00
    0.10465E-01        -0.33250E-01         0.00000E+00
    0.93831E-02        -0.30838E-01         0.00000E+00
    0.84369E-02        -0.28407E-01         0.00000E+00
    0.75951E-02        -0.25955E-01         0.00000E+00
    0.68286E-02        -0.23480E-01         0.00000E+00
    0.61093E-02        -0.20983E-01         0.00000E+00
    0.54092E-02        -0.18466E-01         0.00000E+00
    0.47062E-02        -0.15926E-01         0.00000E+00
    0.39930E-02        -0.13355E-01         0.00000E+00
    0.32642E-02        -0.10746E-01         0.00000E+00
    0.25090E-02        -0.80987E-02         0.00000E+00
    0.17184E-02        -0.54182E-02         0.00000E+00
    0.88386E-03        -0.27138E-02         0.00000E+00
    0.00000E+00         0.00000E+00         0.00000E+00
    0.12718E-01        -0.39608E-01         0.00000E+00
    0.11274E-01        -0.37133E-01         0.00000E+00
    0.10050E-01        -0.34646E-01         0.00000E+00
    0.90034E-02        -0.32142E-01         0.00000E+00
    0.80981E-02        -0.29618E-01         0.00000E+00
    0.73001E-02        -0.27072E-01         0.00000E+00
    0.65785E-02        -0.24506E-01         0.00000E+00
    0.59033E-02        -0.21918E-01         0.00000E+00
    0.52445E-02        -0.19310E-01         0.00000E+00
    0.45862E-02        -0.16673E-01         0.00000E+00
    0.39219E-02        -0.13991E-01         0.00000E+00
    0.32371E-02        -0.11263E-01         0.00000E+00
    0.25163E-02        -0.84915E-02         0.00000E+00
    0.17447E-02        -0.56818E-02         0.00000E+00
    0.90874E-03        -0.28458E-02         0.00000E+00
    0.00000E+00         0.00000E+00         0.00000E+00
    0.12090E-01        -0.41166E-01         0.00000E+00
    0.10679E-01        -0.38602E-01         0.00000E+00
    0.94978E-02        -0.36023E-01         0.00000E+00
    0.85018E-02        -0.33424E-01         0.00000E+00
    0.76503E-02        -0.30804E-01         0.00000E+00
    0.69074E-02        -0.28164E-01         0.00000E+00
    0.62409E-02        -0.25504E-01         0.00000E+00
    0.56203E-02        -0.22825E-01         0.00000E+00
    0.50178E-02        -0.20126E-01         0.00000E+00
    0.44213E-02        -0.17388E-01         0.00000E+00
    0.38178E-02        -0.14600E-01         0.00000E+00
    0.31875E-02        -0.11761E-01         0.00000E+00
    0.25101E-02        -0.88725E-02         0.00000E+00
    0.17652E-02        -0.59406E-02         0.00000E+00
    0.93333E-03        -0.29768E-02         0.00000E+00
    0.00000E+00         0.00000E+00         0.00000E+00
    0.11279E-01        -0.42686E-01         0.00000E+00
    0.99221E-02        -0.40032E-01         0.00000E+00
    0.88040E-02        -0.37358E-01         0.00000E+00
    0.78748E-02        -0.34662E-01         0.00000E+00
    0.70907E-02        -0.31944E-01         0.00000E+00
    0.64142E-02        -0.29207E-01         0.00000E+00
    0.58129E-02        -0.26453E-01         0.00000E+00
    0.52576E-02        -0.23683E-01         0.00000E+00
    0.47250E-02        -0.20891E-01         0.00000E+00
    0.42016E-02        -0.18056E-01         0.00000E+00
    0.36683E-02        -0.15170E-01         0.00000E+00
    0.31020E-02        -0.12231E-01         0.00000E+00
    0.24784E-02        -0.92367E-02         0.00000E+00
    0.17717E-02        -0.61917E-02         0.00000E+00
    0.95415E-03        -0.31057E-02         0.00000E+00
    0.00000E+00         0.00000E+00         0.00000E+00
    0.10277E-01        -0.44146E-01         0.00000E+00
    0.89994E-02        -0.41400E-01         0.00000E+00
    0.79655E-02        -0.38629E-01         0.00000E+00
    0.71207E-02        -0.35833E-01         0.00000E+00
    0.64180E-02        -0.33016E-01         0.00000E+00
    0.58187E-02        -0.30180E-01         0.00000E+00
    0.52915E-02        -0.27331E-01         0.00000E+00
    0.48109E-02        -0.24469E-01         0.00000E+00
    0.43572E-02        -0.21588E-01         0.00000E+00
    0.39142E-02        -0.18665E-01         0.00000E+00
    0.34585E-02        -0.15692E-01         0.00000E+00
    0.29650E-02        -0.12664E-01         0.00000E+00
    0.24066E-02        -0.95774E-02         0.00000E+00
    0.17526E-02        -0.64312E-02         0.00000E+00
    0.96537E-03        -0.32317E-02         0.00000E+00
    0.00000E+00         0.00000E+00         0.00000E+00
    0.90792E-02        -0.45518E-01         0.00000E+00
    0.79073E-02        -0.42679E-01         0.00000E+00
    0.69811E-02        -0.39810E-01         0.00000E+00
    0.62395E-02        -0.36913E-01         0.00000E+00
    0.56321E-02        -0.33994E-01         0.00000E+00
    0.51202E-02        -0.31060E-01         0.00000E+00
    0.46744E-02        -0.28116E-01         0.00000E+00
    0.42740E-02        -0.25165E-01         0.00000E+00
    0.39039E-02        -0.22199E-01         0.00000E+00
    0.35447E-02        -0.19198E-01         0.00000E+00
    0.31716E-02        -0.16151E-01         0.00000E+00
    0.27589E-02        -0.13050E-01         0.00000E+00
    0.22776E-02        -0.98870E-02         0.00000E+00
    0.16930E-02        -0.66541E-02         0.00000E+00
    0.95824E-03        -0.33519E-02         0.00000E+00
    0.00000E+00         0.00000E+00         0.00000E+00
    0.76794E-02        -0.46772E-01         0.00000E+00
    0.66444E-02        -0.43840E-01         0.00000E+00
    0.58521E-02        -0.40871E-01         0.00000E+00
    0.52329E-02        -0.37872E-01         0.00000E+00
    0.47340E-02        -0.34853E-01         0.00000E+00
    0.43179E-02        -0.31824E-01         0.00000E+00
    0.39586E-02        -0.28790E-01         0.00000E+00
    0.36400E-02        -0.25752E-01         0.00000E+00
    0.33529E-02        -0.22709E-01         0.00000E+00
    0.30781E-02        -0.19642E-01         0.00000E+00
    0.27899E-02        -0.16536E-01         0.00000E+00
    0.24642E-02        -0.13379E-01         0.00000E+00
    0.20715E-02        -0.10157E-01         0.00000E+00
    0.15744E-02        -0.68562E-02         0.00000E+00
    0.91834E-03        -0.34667E-02         0.00000E+00
    0.00000E+00         0.00000E+00         0.00000E+00
    0.60729E-02        -0.47874E-01         0.00000E+00
    0.52122E-02        -0.44848E-01         0.00000E+00
    0.45824E-02        -0.41778E-01         0.00000E+00
    0.41042E-02        -0.38680E-01         0.00000E+00
    0.37245E-02        -0.35567E-01         0.00000E+00
    0.34102E-02        -0.32450E-01         0.00000E+00
    0.31406E-02        -0.29334E-01         0.00000E+00
    0.29032E-02        -0.26220E-01         0.00000E+00
    0.26934E-02        -0.23107E-01         0.00000E+00
    0.24994E-02        -0.19985E-01         0.00000E+00
    0.22958E-02        -0.16834E-01         0.00000E+00
    0.20597E-02        -0.13638E-01         0.00000E+00
    0.17652E-02        -0.10379E-01         0.00000E+00
    0.13745E-02        -0.70324E-02         0.00000E+00
    0.82909E-03        -0.35750E-02         0.00000E+00
    0.00000E+00         0.00000E+00         0.00000E+00
    0.42560E-02        -0.48778E-01         0.00000E+00
    0.36165E-02        -0.45658E-01         0.00000E+00
    0.31795E-02        -0.42490E-01         0.00000E+00
    0.28567E-02        -0.39300E-01         0.00000E+00
    0.26027E-02        -0.36107E-01         0.00000E+00
    0.23934E-02        -0.32917E-01         0.00000E+00
    0.22143E-02        -0.29735E-01         0.00000E+00
    0.20574E-02        -0.26560E-01         0.00000E+00
    0.19185E-02        -0.23389E-01         0.00000E+00
    0.17955E-02        -0.20219E-01         0.00000E+00
    0.16722E-02        -0.17037E-01         0.00000E+00
    0.15251E-02        -0.13818E-01         0.00000E+00
    0.13332E-02        -0.10541E-01         0.00000E+00
    0.10670E-02        -0.71755E-02         0.00000E+00
    0.66908E-03        -0.36746E-02         0.00000E+00
    0.00000E+00         0.00000E+00         0.00000E+00
    0.22270E-02        -0.49423E-01         0.00000E+00
    0.18720E-02        -0.46210E-01         0.00000E+00
    0.16521E-02        -0.42955E-01         0.00000E+00
    0.14908E-02        -0.39695E-01         0.00000E+00
    0.13643E-02        -0.36445E-01         0.00000E+00
    0.12602E-02        -0.33207E-01         0.00000E+00
    0.11712E-02        -0.29982E-01         0.00000E+00
    0.10933E-02        -0.26767E-01         0.00000E+00
    0.10244E-02        -0.23559E-01         0.00000E+00
    0.96274E-03        -0.20353E-01         0.00000E+00
    0.90662E-03        -0.17144E-01         0.00000E+00
    0.84262E-03        -0.13915E-01         0.00000E+00
    0.75047E-03        -0.10636E-01         0.00000E+00
    0.61810E-03        -0.72713E-02         0.00000E+00
    0.41058E-03        -0.37611E-02         0.00000E+00
    0.00000E+00         0.00000E+00         0.00000E+00
    0.00000E+00        -0.49699E-01         0.00000E+00
    0.00000E+00        -0.46415E-01         0.00000E+00
    0.00000E+00        -0.43118E-01         0.00000E+00
    0.00000E+00        -0.39831E-01         0.00000E+00
    0.00000E+00        -0.36560E-01         0.00000E+00
    0.00000E+00        -0.33306E-01         0.00000E+00
    0.00000E+00        -0.30066E-01         0.00000E+00
    0.00000E+00        -0.26837E-01         0.00000E+00
    0.00000E+00        -0.23616E-01         0.00000E+00
    0.00000E+00        -0.20397E-01         0.00000E+00
    0.00000E+00        -0.17175E-01         0.00000E+00
    0.00000E+00        -0.13942E-01         0.00000E+00
    0.00000E+00        -0.10667E-01         0.00000E+00
    0.00000E+00        -0.73055E-02         0.00000E+00
    0.00000E+00        -0.38018E-02         0.00000E+00
    0.00000E+00         0.00000E+00         0.00000E+00
CELL_DATA        450
VECTORS vDarcy double 
    0.28429E-09        -0.32859E-10         0.00000E+00
    0.28465E-09        -0.97041E-10         0.00000E+00
    0.28533E-09        -0.16104E-09         0.00000E+00
    0.28603E-09        -0.22660E-09         0.00000E+00
    0.28623E-09        -0.24734E-09         0.00000E+00
    0.28593E-09        -0.21622E-09         0.00000E+00
    0.28581E-09        -0.18267E-09         0.00000E+00
    0.28614E-09        -0.15561E-09         0.00000E+00
    0.28673E-09        -0.13289E-09         0.00000E+00
    0.28744E-09        -0.11280E-09         0.00000E+00
    0.28815E-09        -0.93987E-10         0.00000E+00
    0.28880E-09        -0.75378E-10         0.00000E+00
    0.28934E-09        -0.56087E-10         0.00000E+00
    0.28973E-09        -0.35372E-10         0.00000E+00
    0.28995E-09        -0.12603E-10         0.00000E+00
    0.85374E-09        -0.33207E-10         0.00000E+00
    0.85475E-09        -0.98093E-10         0.00000E+00
    0.85653E-09        -0.16248E-09         0.00000E+00
    0.85839E-09        -0.22775E-09         0.00000E+00
    0.85890E-09        -0.24692E-09         0.00000E+00
    0.85806E-09        -0.21556E-09         0.00000E+00
    0.85787E-09        -0.18307E-09         0.00000E+00
    0.85895E-09        -0.15667E-09         0.00000E+00
    0.86073E-09        -0.13426E-09         0.00000E+00
    0.86281E-09        -0.11425E-09         0.00000E+00
    0.86490E-09        -0.95374E-10         0.00000E+00
    0.86681E-09        -0.76590E-10         0.00000E+00
    0.86840E-09        -0.57042E-10         0.00000E+00
    0.86956E-09        -0.35999E-10         0.00000E+00
    0.87018E-09        -0.12835E-10         0.00000E+00
    0.14256E-08        -0.33909E-10         0.00000E+00
    0.14270E-08        -0.99877E-10         0.00000E+00
    0.14296E-08        -0.16504E-09         0.00000E+00
    0.14321E-08        -0.22959E-09         0.00000E+00
    0.14325E-08        -0.24605E-09         0.00000E+00
    0.14314E-08        -0.21458E-09         0.00000E+00
    0.14315E-08        -0.18405E-09         0.00000E+00
    0.14334E-08        -0.15879E-09         0.00000E+00
    0.14363E-08        -0.13694E-09         0.00000E+00
    0.14396E-08        -0.11708E-09         0.00000E+00
    0.14430E-08        -0.98058E-10         0.00000E+00
    0.14460E-08        -0.78933E-10         0.00000E+00
    0.14486E-08        -0.58888E-10         0.00000E+00
    0.14504E-08        -0.37213E-10         0.00000E+00
    0.14514E-08        -0.13283E-10         0.00000E+00
    0.20015E-08        -0.34818E-10         0.00000E+00
    0.20034E-08        -0.10237E-09         0.00000E+00
    0.20071E-08        -0.16884E-09         0.00000E+00
    0.20099E-08        -0.23118E-09         0.00000E+00
    0.20093E-08        -0.24437E-09         0.00000E+00
    0.20075E-08        -0.21355E-09         0.00000E+00
    0.20079E-08        -0.18566E-09         0.00000E+00
    0.20105E-08        -0.16191E-09         0.00000E+00
    0.20145E-08        -0.14078E-09         0.00000E+00
    0.20188E-08        -0.12109E-09         0.00000E+00
    0.20232E-08        -0.10186E-09         0.00000E+00
    0.20272E-08        -0.82244E-10         0.00000E+00
    0.20305E-08        -0.61498E-10         0.00000E+00
    0.20329E-08        -0.38932E-10         0.00000E+00
    0.20341E-08        -0.13922E-10         0.00000E+00
    0.25829E-08        -0.35884E-10         0.00000E+00
    0.25852E-08        -0.10568E-09         0.00000E+00
    0.25902E-08        -0.17430E-09         0.00000E+00
    0.25933E-08        -0.23173E-09         0.00000E+00
    0.25908E-08        -0.24084E-09         0.00000E+00
    0.25877E-08        -0.21246E-09         0.00000E+00
    0.25882E-08        -0.18780E-09         0.00000E+00
    0.25914E-08        -0.16583E-09         0.00000E+00
    0.25960E-08        -0.14552E-09         0.00000E+00
    0.26011E-08        -0.12600E-09         0.00000E+00
    0.26061E-08        -0.10649E-09         0.00000E+00
    0.26107E-08        -0.86275E-10         0.00000E+00
    0.26145E-08        -0.64681E-10         0.00000E+00
    0.26173E-08        -0.41037E-10         0.00000E+00
    0.26188E-08        -0.14708E-10         0.00000E+00
    0.31707E-08        -0.37175E-10         0.00000E+00
    0.31730E-08        -0.10922E-09         0.00000E+00
    0.31775E-08        -0.18031E-09         0.00000E+00
    0.31794E-08        -0.23083E-09         0.00000E+00
    0.31754E-08        -0.23544E-09         0.00000E+00
    0.31720E-08        -0.21163E-09         0.00000E+00
    0.31730E-08        -0.19037E-09         0.00000E+00
    0.31766E-08        -0.17028E-09         0.00000E+00
    0.31815E-08        -0.15080E-09         0.00000E+00
    0.31869E-08        -0.13140E-09         0.00000E+00
    0.31921E-08        -0.11156E-09         0.00000E+00
    0.31969E-08        -0.90696E-10         0.00000E+00
    0.32009E-08        -0.68185E-10         0.00000E+00
    0.32038E-08        -0.43370E-10         0.00000E+00
    0.32054E-08        -0.15587E-10         0.00000E+00
    0.37650E-08        -0.38736E-10         0.00000E+00
    0.37677E-08        -0.11290E-09         0.00000E+00
    0.37714E-08        -0.18500E-09         0.00000E+00
    0.37711E-08        -0.22791E-09         0.00000E+00
    0.37656E-08        -0.22909E-09         0.00000E+00
    0.37619E-08        -0.21118E-09         0.00000E+00
    0.37630E-08        -0.19317E-09         0.00000E+00
    0.37665E-08        -0.17484E-09         0.00000E+00
    0.37712E-08        -0.15609E-09         0.00000E+00
    0.37763E-08        -0.13678E-09         0.00000E+00
    0.37813E-08        -0.11660E-09         0.00000E+00
    0.37857E-08        -0.95093E-10         0.00000E+00
    0.37895E-08        -0.71696E-10         0.00000E+00
    0.37923E-08        -0.45736E-10         0.00000E+00
    0.37938E-08        -0.16496E-10         0.00000E+00
    0.43654E-08        -0.40448E-10         0.00000E+00
    0.43686E-08        -0.11734E-09         0.00000E+00
    0.43710E-08        -0.18688E-09         0.00000E+00
    0.43681E-08        -0.22299E-09         0.00000E+00
    0.43617E-08        -0.22248E-09         0.00000E+00
    0.43579E-08        -0.21062E-09         0.00000E+00
    0.43585E-08        -0.19571E-09         0.00000E+00
    0.43613E-08        -0.17890E-09         0.00000E+00
    0.43651E-08        -0.16077E-09         0.00000E+00
    0.43692E-08        -0.14150E-09         0.00000E+00
    0.43732E-08        -0.12101E-09         0.00000E+00
    0.43768E-08        -0.98982E-10         0.00000E+00
    0.43799E-08        -0.74851E-10         0.00000E+00
    0.43822E-08        -0.47912E-10         0.00000E+00
    0.43835E-08        -0.17359E-10         0.00000E+00
    0.49717E-08        -0.42003E-10         0.00000E+00
    0.49740E-08        -0.12147E-09         0.00000E+00
    0.49739E-08        -0.18526E-09         0.00000E+00
    0.49684E-08        -0.21642E-09         0.00000E+00
    0.49622E-08        -0.21694E-09         0.00000E+00
    0.49592E-08        -0.20972E-09         0.00000E+00
    0.49590E-08        -0.19733E-09         0.00000E+00
    0.49604E-08        -0.18176E-09         0.00000E+00
    0.49625E-08        -0.16408E-09         0.00000E+00
    0.49648E-08        -0.14484E-09         0.00000E+00
    0.49671E-08        -0.12417E-09         0.00000E+00
    0.49692E-08        -0.10182E-09         0.00000E+00
    0.49712E-08        -0.77242E-10         0.00000E+00
    0.49727E-08        -0.49648E-10         0.00000E+00
    0.49737E-08        -0.18094E-10         0.00000E+00
    0.55832E-08        -0.43339E-10         0.00000E+00
    0.55838E-08        -0.12319E-09         0.00000E+00
    0.55816E-08        -0.18147E-09         0.00000E+00
    0.55751E-08        -0.20857E-09         0.00000E+00
    0.55687E-08        -0.21260E-09         0.00000E+00
    0.55653E-08        -0.20807E-09         0.00000E+00
    0.55635E-08        -0.19736E-09         0.00000E+00
    0.55627E-08        -0.18260E-09         0.00000E+00
    0.55623E-08        -0.16523E-09         0.00000E+00
    0.55621E-08        -0.14605E-09         0.00000E+00
    0.55620E-08        -0.12537E-09         0.00000E+00
    0.55620E-08        -0.10302E-09         0.00000E+00
    0.55622E-08        -0.78426E-10         0.00000E+00
    0.55626E-08        -0.50675E-10         0.00000E+00
    0.55630E-08        -0.18615E-10         0.00000E+00
    0.61976E-08        -0.44497E-10         0.00000E+00
    0.61974E-08        -0.12260E-09         0.00000E+00
    0.61935E-08        -0.17636E-09         0.00000E+00
    0.61865E-08        -0.20060E-09         0.00000E+00
    0.61797E-08        -0.20777E-09         0.00000E+00
    0.61747E-08        -0.20481E-09         0.00000E+00
    0.61704E-08        -0.19500E-09         0.00000E+00
    0.61666E-08        -0.18066E-09         0.00000E+00
    0.61630E-08        -0.16343E-09         0.00000E+00
    0.61595E-08        -0.14437E-09         0.00000E+00
    0.61562E-08        -0.12391E-09         0.00000E+00
    0.61534E-08        -0.10198E-09         0.00000E+00
    0.61515E-08        -0.77945E-10         0.00000E+00
    0.61504E-08        -0.50708E-10         0.00000E+00
    0.61500E-08        -0.18833E-10         0.00000E+00
    0.68162E-08        -0.44840E-10         0.00000E+00
    0.68143E-08        -0.12040E-09         0.00000E+00
    0.68086E-08        -0.16948E-09         0.00000E+00
    0.68005E-08        -0.19275E-09         0.00000E+00
    0.67925E-08        -0.20124E-09         0.00000E+00
    0.67849E-08        -0.19902E-09         0.00000E+00
    0.67775E-08        -0.18949E-09         0.00000E+00
    0.67700E-08        -0.17520E-09         0.00000E+00
    0.67624E-08        -0.15800E-09         0.00000E+00
    0.67550E-08        -0.13912E-09         0.00000E+00
    0.67480E-08        -0.11917E-09         0.00000E+00
    0.67419E-08        -0.98130E-10         0.00000E+00
    0.67372E-08        -0.75332E-10         0.00000E+00
    0.67342E-08        -0.49457E-10         0.00000E+00
    0.67329E-08        -0.18659E-10         0.00000E+00
    0.74349E-08        -0.43756E-10         0.00000E+00
    0.74312E-08        -0.11632E-09         0.00000E+00
    0.74236E-08        -0.16080E-09         0.00000E+00
    0.74138E-08        -0.18385E-09         0.00000E+00
    0.74035E-08        -0.19231E-09         0.00000E+00
    0.73928E-08        -0.19000E-09         0.00000E+00
    0.73816E-08        -0.18024E-09         0.00000E+00
    0.73700E-08        -0.16569E-09         0.00000E+00
    0.73582E-08        -0.14840E-09         0.00000E+00
    0.73464E-08        -0.12978E-09         0.00000E+00
    0.73352E-08        -0.11061E-09         0.00000E+00
    0.73253E-08        -0.90961E-10         0.00000E+00
    0.73174E-08        -0.70143E-10         0.00000E+00
    0.73122E-08        -0.46621E-10         0.00000E+00
    0.73098E-08        -0.18006E-10         0.00000E+00
    0.80477E-08        -0.41991E-10         0.00000E+00
    0.80428E-08        -0.10999E-09         0.00000E+00
    0.80335E-08        -0.15075E-09         0.00000E+00
    0.80219E-08        -0.17284E-09         0.00000E+00
    0.80088E-08        -0.18042E-09         0.00000E+00
    0.79946E-08        -0.17736E-09         0.00000E+00
    0.79795E-08        -0.16691E-09         0.00000E+00
    0.79636E-08        -0.15184E-09         0.00000E+00
    0.79473E-08        -0.13435E-09         0.00000E+00
    0.79310E-08        -0.11610E-09         0.00000E+00
    0.79156E-08        -0.97979E-10         0.00000E+00
    0.79018E-08        -0.80166E-10         0.00000E+00
    0.78905E-08        -0.62016E-10         0.00000E+00
    0.78827E-08        -0.41896E-10         0.00000E+00
    0.78790E-08        -0.16788E-10         0.00000E+00
    0.86514E-08        -0.39643E-10         0.00000E+00
    0.86448E-08        -0.10136E-09         0.00000E+00
    0.86335E-08        -0.13926E-09         0.00000E+00
    0.86196E-08        -0.15928E-09         0.00000E+00
    0.86037E-08        -0.16534E-09         0.00000E+00
    0.85861E-08        -0.16100E-09         0.00000E+00
    0.85671E-08        -0.14948E-09         0.00000E+00
    0.85471E-08        -0.13363E-09         0.00000E+00
    0.85265E-08        -0.11591E-09         0.00000E+00
    0.85061E-08        -0.98168E-10         0.00000E+00
    0.84868E-08        -0.81449E-10         0.00000E+00
    0.84695E-08        -0.65896E-10         0.00000E+00
    0.84551E-08        -0.50867E-10         0.00000E+00
    0.84447E-08        -0.34967E-10         0.00000E+00
    0.84394E-08        -0.14912E-10         0.00000E+00
    0.92382E-08        -0.35990E-10         0.00000E+00
    0.92306E-08        -0.91317E-10         0.00000E+00
    0.92179E-08        -0.12581E-09         0.00000E+00
    0.92018E-08        -0.14316E-09         0.00000E+00
    0.91831E-08        -0.14714E-09         0.00000E+00
    0.91624E-08        -0.14111E-09         0.00000E+00
    0.91399E-08        -0.12820E-09         0.00000E+00
    0.91162E-08        -0.11140E-09         0.00000E+00
    0.90918E-08        -0.93459E-10         0.00000E+00
    0.90680E-08        -0.76581E-10         0.00000E+00
    0.90458E-08        -0.61888E-10         0.00000E+00
    0.90267E-08        -0.49256E-10         0.00000E+00
    0.90109E-08        -0.37592E-10         0.00000E+00
    0.89985E-08        -0.25625E-10         0.00000E+00
    0.89915E-08        -0.12146E-10         0.00000E+00
    0.98021E-08        -0.31838E-10         0.00000E+00
    0.97944E-08        -0.80687E-10         0.00000E+00
    0.97808E-08        -0.11061E-09         0.00000E+00
    0.97629E-08        -0.12467E-09         0.00000E+00
    0.97418E-08        -0.12612E-09         0.00000E+00
    0.97183E-08        -0.11807E-09         0.00000E+00
    0.96929E-08        -0.10357E-09         0.00000E+00
    0.96661E-08        -0.85724E-10         0.00000E+00
    0.96388E-08        -0.67706E-10         0.00000E+00
    0.96125E-08        -0.52359E-10         0.00000E+00
    0.95892E-08        -0.40961E-10         0.00000E+00
    0.95707E-08        -0.32702E-10         0.00000E+00
    0.95577E-08        -0.25606E-10         0.00000E+00
    0.95485E-08        -0.16306E-10         0.00000E+00
    0.95405E-08        -0.66039E-11         0.00000E+00
    0.10339E-07        -0.27784E-10         0.00000E+00
    0.10331E-07        -0.69474E-10         0.00000E+00
    0.10317E-07        -0.93971E-10         0.00000E+00
    0.10297E-07        -0.10406E-09         0.00000E+00
    0.10274E-07        -0.10261E-09         0.00000E+00
    0.10248E-07        -0.92375E-10         0.00000E+00
    0.10220E-07        -0.76188E-10         0.00000E+00
    0.10191E-07        -0.57270E-10         0.00000E+00
    0.10162E-07        -0.39509E-10         0.00000E+00
    0.10134E-07        -0.27025E-10         0.00000E+00
    0.10112E-07        -0.21010E-10         0.00000E+00
    0.10097E-07        -0.19011E-10         0.00000E+00
    0.10087E-07        -0.16564E-10         0.00000E+00
    0.10081E-07        -0.10340E-10         0.00000E+00
    0.10077E-07        -0.14159E-11         0.00000E+00
    0.10845E-07        -0.23469E-10         0.00000E+00
    0.10837E-07        -0.57406E-10         0.00000E+00
    0.10821E-07        -0.75785E-10         0.00000E+00
    0.10799E-07        -0.81420E-10         0.00000E+00
    0.10774E-07        -0.76831E-10         0.00000E+00
    0.10746E-07        -0.64351E-10         0.00000E+00
    0.10716E-07        -0.46445E-10         0.00000E+00
    0.10685E-07        -0.26384E-10         0.00000E+00
    0.10653E-07        -0.92165E-11         0.00000E+00
    0.10624E-07        -0.70024E-12         0.00000E+00
    0.10599E-07        -0.11614E-11         0.00000E+00
    0.10582E-07        -0.59234E-11         0.00000E+00
    0.10570E-07        -0.85657E-11         0.00000E+00
    0.10565E-07        -0.68245E-11         0.00000E+00
    0.10563E-07        -0.78788E-12         0.00000E+00
    0.11314E-07        -0.18654E-10         0.00000E+00
    0.11304E-07        -0.44033E-10         0.00000E+00
    0.11287E-07        -0.55737E-10         0.00000E+00
    0.11263E-07        -0.56608E-10         0.00000E+00
    0.11236E-07        -0.48801E-10         0.00000E+00
    0.11206E-07        -0.34074E-10         0.00000E+00
    0.11173E-07        -0.14272E-10         0.00000E+00
    0.11139E-07         0.77209E-11         0.00000E+00
    0.11102E-07         0.25246E-10         0.00000E+00
    0.11067E-07         0.29252E-10         0.00000E+00
    0.11038E-07         0.21452E-10         0.00000E+00
    0.11017E-07         0.10406E-10         0.00000E+00
    0.11002E-07         0.14210E-11         0.00000E+00
    0.10994E-07        -0.33265E-11         0.00000E+00
    0.10992E-07        -0.18592E-11         0.00000E+00
    0.11740E-07        -0.13115E-10         0.00000E+00
    0.11729E-07        -0.28950E-10         0.00000E+00
    0.11710E-07        -0.33481E-10         0.00000E+00
    0.11684E-07        -0.29433E-10         0.00000E+00
    0.11654E-07        -0.18447E-10         0.00000E+00
    0.11622E-07        -0.14531E-11         0.00000E+00
    0.11587E-07         0.20806E-10         0.00000E+00
    0.11548E-07         0.46783E-10         0.00000E+00
    0.11505E-07         0.65472E-10         0.00000E+00
    0.11466E-07         0.63487E-10         0.00000E+00
    0.11435E-07         0.47169E-10         0.00000E+00
    0.11412E-07         0.28905E-10         0.00000E+00
    0.11397E-07         0.12571E-10         0.00000E+00
    0.11389E-07         0.91539E-12         0.00000E+00
    0.11386E-07        -0.16309E-11         0.00000E+00
    0.12117E-07        -0.66869E-11         0.00000E+00
    0.12105E-07        -0.11891E-10         0.00000E+00
    0.12084E-07        -0.88507E-11         0.00000E+00
    0.12056E-07         0.99794E-13         0.00000E+00
    0.12024E-07         0.14080E-10         0.00000E+00
    0.11990E-07         0.33301E-10         0.00000E+00
    0.11953E-07         0.58749E-10         0.00000E+00
    0.11911E-07         0.90502E-10         0.00000E+00
    0.11866E-07         0.10875E-09         0.00000E+00
    0.11827E-07         0.98449E-10         0.00000E+00
    0.11798E-07         0.73358E-10         0.00000E+00
    0.11776E-07         0.47197E-10         0.00000E+00
    0.11762E-07         0.23438E-10         0.00000E+00
    0.11753E-07         0.63775E-11         0.00000E+00
    0.11748E-07        -0.19137E-13         0.00000E+00
    0.12440E-07         0.68789E-12         0.00000E+00
    0.12427E-07         0.71233E-11         0.00000E+00
    0.12403E-07         0.17912E-10         0.00000E+00
    0.12374E-07         0.31492E-10         0.00000E+00
    0.12341E-07         0.48011E-10         0.00000E+00
    0.12306E-07         0.69054E-10         0.00000E+00
    0.12269E-07         0.97781E-10         0.00000E+00
    0.12229E-07         0.13454E-09         0.00000E+00
    0.12189E-07         0.14996E-09         0.00000E+00
    0.12155E-07         0.13010E-09         0.00000E+00
    0.12129E-07         0.97586E-10         0.00000E+00
    0.12109E-07         0.64810E-10         0.00000E+00
    0.12094E-07         0.35281E-10         0.00000E+00
    0.12084E-07         0.13127E-10         0.00000E+00
    0.12079E-07         0.21433E-11         0.00000E+00
    0.12702E-07         0.89023E-11         0.00000E+00
    0.12687E-07         0.27629E-10         0.00000E+00
    0.12663E-07         0.45914E-10         0.00000E+00
    0.12634E-07         0.63447E-10         0.00000E+00
    0.12602E-07         0.81654E-10         0.00000E+00
    0.12570E-07         0.10347E-09         0.00000E+00
    0.12537E-07         0.13396E-09         0.00000E+00
    0.12504E-07         0.17247E-09         0.00000E+00
    0.12473E-07         0.18402E-09         0.00000E+00
    0.12447E-07         0.15674E-09         0.00000E+00
    0.12425E-07         0.11930E-09         0.00000E+00
    0.12407E-07         0.81665E-10         0.00000E+00
    0.12393E-07         0.47370E-10         0.00000E+00
    0.12383E-07         0.20392E-10         0.00000E+00
    0.12378E-07         0.45553E-11         0.00000E+00
    0.12896E-07         0.17620E-10         0.00000E+00
    0.12882E-07         0.48544E-10         0.00000E+00
    0.12859E-07         0.73360E-10         0.00000E+00
    0.12833E-07         0.93602E-10         0.00000E+00
    0.12805E-07         0.11221E-09         0.00000E+00
    0.12779E-07         0.13319E-09         0.00000E+00
    0.12754E-07         0.16233E-09         0.00000E+00
    0.12734E-07         0.19849E-09         0.00000E+00
    0.12716E-07         0.20736E-09         0.00000E+00
    0.12700E-07         0.17724E-09         0.00000E+00
    0.12684E-07         0.13696E-09         0.00000E+00
    0.12670E-07         0.96225E-10         0.00000E+00
    0.12659E-07         0.58360E-10         0.00000E+00
    0.12651E-07         0.27240E-10         0.00000E+00
    0.12646E-07         0.69244E-11         0.00000E+00
    0.13018E-07         0.26214E-10         0.00000E+00
    0.13006E-07         0.67984E-10         0.00000E+00
    0.12987E-07         0.97301E-10         0.00000E+00
    0.12967E-07         0.11828E-09         0.00000E+00
    0.12948E-07         0.13562E-09         0.00000E+00
    0.12932E-07         0.15402E-09         0.00000E+00
    0.12921E-07         0.17865E-09         0.00000E+00
    0.12916E-07         0.20875E-09         0.00000E+00
    0.12915E-07         0.21652E-09         0.00000E+00
    0.12912E-07         0.18878E-09         0.00000E+00
    0.12906E-07         0.14790E-09         0.00000E+00
    0.12899E-07         0.10617E-09         0.00000E+00
    0.12893E-07         0.66418E-10         0.00000E+00
    0.12888E-07         0.32550E-10         0.00000E+00
    0.12885E-07         0.89338E-11         0.00000E+00
    0.13060E-07         0.33676E-10         0.00000E+00
    0.13052E-07         0.82985E-10         0.00000E+00
    0.13042E-07         0.11333E-09         0.00000E+00
    0.13035E-07         0.13233E-09         0.00000E+00
    0.13031E-07         0.14654E-09         0.00000E+00
    0.13031E-07         0.16095E-09         0.00000E+00
    0.13036E-07         0.17936E-09         0.00000E+00
    0.13049E-07         0.20124E-09         0.00000E+00
    0.13067E-07         0.20789E-09         0.00000E+00
    0.13083E-07         0.18635E-09         0.00000E+00
    0.13091E-07         0.14885E-09         0.00000E+00
    0.13095E-07         0.10843E-09         0.00000E+00
    0.13097E-07         0.69159E-10         0.00000E+00
    0.13097E-07         0.34805E-10         0.00000E+00
    0.13096E-07         0.10226E-10         0.00000E+00
    0.13017E-07         0.38365E-10         0.00000E+00
    0.13017E-07         0.88878E-10         0.00000E+00
    0.13023E-07         0.11507E-09         0.00000E+00
    0.13035E-07         0.12907E-09         0.00000E+00
    0.13052E-07         0.13857E-09         0.00000E+00
    0.13075E-07         0.14825E-09         0.00000E+00
    0.13103E-07         0.16043E-09         0.00000E+00
    0.13137E-07         0.17426E-09         0.00000E+00
    0.13176E-07         0.17915E-09         0.00000E+00
    0.13213E-07         0.16449E-09         0.00000E+00
    0.13241E-07         0.13499E-09         0.00000E+00
    0.13260E-07         0.99425E-10         0.00000E+00
    0.13274E-07         0.63396E-10         0.00000E+00
    0.13282E-07         0.32093E-10         0.00000E+00
    0.13286E-07         0.10386E-10         0.00000E+00
    0.12879E-07         0.37248E-10         0.00000E+00
    0.12896E-07         0.77318E-10         0.00000E+00
    0.12927E-07         0.93624E-10         0.00000E+00
    0.12968E-07         0.10068E-09         0.00000E+00
    0.13014E-07         0.10506E-09         0.00000E+00
    0.13066E-07         0.11005E-09         0.00000E+00
    0.13122E-07         0.11688E-09         0.00000E+00
    0.13182E-07         0.12437E-09         0.00000E+00
    0.13246E-07         0.12752E-09         0.00000E+00
    0.13308E-07         0.11926E-09         0.00000E+00
    0.13360E-07         0.10083E-09         0.00000E+00
    0.13400E-07         0.74771E-10         0.00000E+00
    0.13429E-07         0.45815E-10         0.00000E+00
    0.13448E-07         0.22461E-10         0.00000E+00
    0.13456E-07         0.95691E-11         0.00000E+00
    0.12634E-07         0.17367E-10         0.00000E+00
    0.12687E-07         0.32902E-10         0.00000E+00
    0.12760E-07         0.37901E-10         0.00000E+00
    0.12839E-07         0.39590E-10         0.00000E+00
    0.12921E-07         0.40552E-10         0.00000E+00
    0.13005E-07         0.41941E-10         0.00000E+00
    0.13092E-07         0.44134E-10         0.00000E+00
    0.13183E-07         0.46550E-10         0.00000E+00
    0.13278E-07         0.47757E-10         0.00000E+00
    0.13372E-07         0.45191E-10         0.00000E+00
    0.13456E-07         0.39029E-10         0.00000E+00
    0.13525E-07         0.28940E-10         0.00000E+00
    0.13571E-07         0.16851E-10         0.00000E+00
    0.13596E-07         0.78415E-11         0.00000E+00
    0.13609E-07         0.45062E-11         0.00000E+00
POINT_DATA        496
VECTORS vDarcyNodal double 
    0.28421E-09        -0.32783E-10         0.00000E+00
    0.28436E-09        -0.64765E-10         0.00000E+00
    0.28494E-09        -0.12870E-09         0.00000E+00
    0.28573E-09        -0.19347E-09         0.00000E+00
    0.28633E-09        -0.23686E-09         0.00000E+00
    0.28613E-09        -0.23192E-09         0.00000E+00
    0.28573E-09        -0.19950E-09         0.00000E+00
    0.28589E-09        -0.16897E-09         0.00000E+00
    0.28639E-09        -0.14395E-09         0.00000E+00
    0.28707E-09        -0.12249E-09         0.00000E+00
    0.28780E-09        -0.10303E-09         0.00000E+00
    0.28849E-09        -0.84353E-10         0.00000E+00
    0.28910E-09        -0.65457E-10         0.00000E+00
    0.28958E-09        -0.45529E-10         0.00000E+00
    0.28989E-09        -0.23879E-10         0.00000E+00
    0.29000E-09        -0.12544E-10         0.00000E+00
    0.56884E-09        -0.32934E-10         0.00000E+00
    0.56918E-09        -0.65134E-10         0.00000E+00
    0.57022E-09        -0.12939E-09         0.00000E+00
    0.57164E-09        -0.19417E-09         0.00000E+00
    0.57278E-09        -0.23707E-09         0.00000E+00
    0.57234E-09        -0.23164E-09         0.00000E+00
    0.57165E-09        -0.19939E-09         0.00000E+00
    0.57203E-09        -0.16931E-09         0.00000E+00
    0.57306E-09        -0.14455E-09         0.00000E+00
    0.57440E-09        -0.12320E-09         0.00000E+00
    0.57584E-09        -0.10375E-09         0.00000E+00
    0.57721E-09        -0.85012E-10         0.00000E+00
    0.57840E-09        -0.66008E-10         0.00000E+00
    0.57934E-09        -0.45931E-10         0.00000E+00
    0.57995E-09        -0.24097E-10         0.00000E+00
    0.58018E-09        -0.12662E-10         0.00000E+00
    0.11393E-08        -0.33479E-10         0.00000E+00
    0.11400E-08        -0.66165E-10         0.00000E+00
    0.11418E-08        -0.13118E-09         0.00000E+00
    0.11443E-08        -0.19605E-09         0.00000E+00
    0.11461E-08        -0.23760E-09         0.00000E+00
    0.11452E-08        -0.23084E-09         0.00000E+00
    0.11442E-08        -0.19924E-09         0.00000E+00
    0.11451E-08        -0.17042E-09         0.00000E+00
    0.11472E-08        -0.14637E-09         0.00000E+00
    0.11498E-08        -0.12531E-09         0.00000E+00
    0.11526E-08        -0.10587E-09         0.00000E+00
    0.11553E-08        -0.86951E-10         0.00000E+00
    0.11576E-08        -0.67623E-10         0.00000E+00
    0.11594E-08        -0.47110E-10         0.00000E+00
    0.11606E-08        -0.24737E-10         0.00000E+00
    0.11610E-08        -0.13007E-10         0.00000E+00
    0.17131E-08        -0.34338E-10         0.00000E+00
    0.17140E-08        -0.67620E-10         0.00000E+00
    0.17164E-08        -0.13373E-09         0.00000E+00
    0.17202E-08        -0.19858E-09         0.00000E+00
    0.17217E-08        -0.23805E-09         0.00000E+00
    0.17200E-08        -0.22979E-09         0.00000E+00
    0.17189E-08        -0.19939E-09         0.00000E+00
    0.17204E-08        -0.17241E-09         0.00000E+00
    0.17235E-08        -0.14935E-09         0.00000E+00
    0.17273E-08        -0.12870E-09         0.00000E+00
    0.17312E-08        -0.10926E-09         0.00000E+00
    0.17350E-08        -0.90039E-10         0.00000E+00
    0.17382E-08        -0.70196E-10         0.00000E+00
    0.17408E-08        -0.48990E-10         0.00000E+00
    0.17425E-08        -0.25759E-10         0.00000E+00
    0.17431E-08        -0.13559E-10         0.00000E+00
    0.22916E-08        -0.35297E-10         0.00000E+00
    0.22927E-08        -0.69571E-10         0.00000E+00
    0.22959E-08        -0.13748E-09         0.00000E+00
    0.23013E-08        -0.20144E-09         0.00000E+00
    0.23018E-08        -0.23750E-09         0.00000E+00
    0.22982E-08        -0.22813E-09         0.00000E+00
    0.22970E-08        -0.19982E-09         0.00000E+00
    0.22990E-08        -0.17516E-09         0.00000E+00
    0.23029E-08        -0.15333E-09         0.00000E+00
    0.23076E-08        -0.13316E-09         0.00000E+00
    0.23124E-08        -0.11368E-09         0.00000E+00
    0.23170E-08        -0.94060E-10         0.00000E+00
    0.23209E-08        -0.73544E-10         0.00000E+00
    0.23240E-08        -0.51440E-10         0.00000E+00
    0.23261E-08        -0.27095E-10         0.00000E+00
    0.23269E-08        -0.14284E-10         0.00000E+00
    0.28761E-08        -0.36470E-10         0.00000E+00
    0.28774E-08        -0.71989E-10         0.00000E+00
    0.28809E-08        -0.14250E-09         0.00000E+00
    0.28868E-08        -0.20459E-09         0.00000E+00
    0.28858E-08        -0.23507E-09         0.00000E+00
    0.28803E-08        -0.22516E-09         0.00000E+00
    0.28794E-08        -0.20043E-09         0.00000E+00
    0.28818E-08        -0.17848E-09         0.00000E+00
    0.28862E-08        -0.15803E-09         0.00000E+00
    0.28913E-08        -0.13836E-09         0.00000E+00
    0.28966E-08        -0.11880E-09         0.00000E+00
    0.29016E-08        -0.98701E-10         0.00000E+00
    0.29060E-08        -0.77412E-10         0.00000E+00
    0.29094E-08        -0.54278E-10         0.00000E+00
    0.29117E-08        -0.28650E-10         0.00000E+00
    0.29125E-08        -0.15132E-10         0.00000E+00
    0.34670E-08        -0.37879E-10         0.00000E+00
    0.34686E-08        -0.74410E-10         0.00000E+00
    0.34722E-08        -0.14704E-09         0.00000E+00
    0.34768E-08        -0.20655E-09         0.00000E+00
    0.34737E-08        -0.23120E-09         0.00000E+00
    0.34673E-08        -0.22190E-09         0.00000E+00
    0.34667E-08        -0.20156E-09         0.00000E+00
    0.34693E-08        -0.18217E-09         0.00000E+00
    0.34738E-08        -0.16305E-09         0.00000E+00
    0.34790E-08        -0.14384E-09         0.00000E+00
    0.34842E-08        -0.12416E-09         0.00000E+00
    0.34892E-08        -0.10356E-09         0.00000E+00
    0.34935E-08        -0.81469E-10         0.00000E+00
    0.34969E-08        -0.57276E-10         0.00000E+00
    0.34992E-08        -0.30307E-10         0.00000E+00
    0.35001E-08        -0.16043E-10         0.00000E+00
    0.40643E-08        -0.39593E-10         0.00000E+00
    0.40660E-08        -0.77227E-10         0.00000E+00
    0.40703E-08        -0.15086E-09         0.00000E+00
    0.40721E-08        -0.20636E-09         0.00000E+00
    0.40671E-08        -0.22580E-09         0.00000E+00
    0.40603E-08        -0.21837E-09         0.00000E+00
    0.40596E-08        -0.20279E-09         0.00000E+00
    0.40620E-08        -0.18583E-09         0.00000E+00
    0.40659E-08        -0.16787E-09         0.00000E+00
    0.40705E-08        -0.14903E-09         0.00000E+00
    0.40751E-08        -0.12921E-09         0.00000E+00
    0.40794E-08        -0.10813E-09         0.00000E+00
    0.40831E-08        -0.85320E-10         0.00000E+00
    0.40862E-08        -0.60157E-10         0.00000E+00
    0.40883E-08        -0.31925E-10         0.00000E+00
    0.40891E-08        -0.16949E-10         0.00000E+00
    0.46678E-08        -0.41303E-10         0.00000E+00
    0.46693E-08        -0.80557E-10         0.00000E+00
    0.46733E-08        -0.15336E-09         0.00000E+00
    0.46716E-08        -0.20351E-09         0.00000E+00
    0.46648E-08        -0.21966E-09         0.00000E+00
    0.46591E-08        -0.21473E-09         0.00000E+00
    0.46580E-08        -0.20354E-09         0.00000E+00
    0.46595E-08        -0.18878E-09         0.00000E+00
    0.46622E-08        -0.17180E-09         0.00000E+00
    0.46654E-08        -0.15324E-09         0.00000E+00
    0.46686E-08        -0.13330E-09         0.00000E+00
    0.46716E-08        -0.11186E-09         0.00000E+00
    0.46744E-08        -0.88512E-10         0.00000E+00
    0.46767E-08        -0.62607E-10         0.00000E+00
    0.46783E-08        -0.33346E-10         0.00000E+00
    0.46790E-08        -0.17769E-10         0.00000E+00
    0.52768E-08        -0.42702E-10         0.00000E+00
    0.52781E-08        -0.82913E-10         0.00000E+00
    0.52797E-08        -0.15337E-09         0.00000E+00
    0.52757E-08        -0.19817E-09         0.00000E+00
    0.52677E-08        -0.21370E-09         0.00000E+00
    0.52632E-08        -0.21193E-09         0.00000E+00
    0.52614E-08        -0.20351E-09         0.00000E+00
    0.52612E-08        -0.19031E-09         0.00000E+00
    0.52619E-08        -0.17404E-09         0.00000E+00
    0.52629E-08        -0.15568E-09         0.00000E+00
    0.52640E-08        -0.13571E-09         0.00000E+00
    0.52651E-08        -0.11412E-09         0.00000E+00
    0.52661E-08        -0.90546E-10         0.00000E+00
    0.52672E-08        -0.64283E-10         0.00000E+00
    0.52681E-08        -0.34397E-10         0.00000E+00
    0.52686E-08        -0.18419E-10         0.00000E+00
    0.58898E-08        -0.43975E-10         0.00000E+00
    0.58909E-08        -0.83620E-10         0.00000E+00
    0.58902E-08        -0.15130E-09         0.00000E+00
    0.58849E-08        -0.19188E-09         0.00000E+00
    0.58767E-08        -0.20747E-09         0.00000E+00
    0.58717E-08        -0.20874E-09         0.00000E+00
    0.58683E-08        -0.20192E-09         0.00000E+00
    0.58657E-08        -0.18965E-09         0.00000E+00
    0.58636E-08        -0.17379E-09         0.00000E+00
    0.58617E-08        -0.15559E-09         0.00000E+00
    0.58599E-08        -0.13570E-09         0.00000E+00
    0.58583E-08        -0.11426E-09         0.00000E+00
    0.58571E-08        -0.90896E-10         0.00000E+00
    0.58565E-08        -0.64818E-10         0.00000E+00
    0.58565E-08        -0.34894E-10         0.00000E+00
    0.58566E-08        -0.18811E-10         0.00000E+00
    0.65067E-08        -0.45019E-10         0.00000E+00
    0.65070E-08        -0.83480E-10         0.00000E+00
    0.65046E-08        -0.14766E-09         0.00000E+00
    0.64975E-08        -0.18507E-09         0.00000E+00
    0.64895E-08        -0.20089E-09         0.00000E+00
    0.64828E-08        -0.20383E-09         0.00000E+00
    0.64768E-08        -0.19789E-09         0.00000E+00
    0.64711E-08        -0.18600E-09         0.00000E+00
    0.64655E-08        -0.17030E-09         0.00000E+00
    0.64599E-08        -0.15221E-09         0.00000E+00
    0.64545E-08        -0.13258E-09         0.00000E+00
    0.64497E-08        -0.11164E-09         0.00000E+00
    0.64457E-08        -0.89029E-10         0.00000E+00
    0.64429E-08        -0.63835E-10         0.00000E+00
    0.64416E-08        -0.34648E-10         0.00000E+00
    0.64414E-08        -0.18855E-10         0.00000E+00
    0.71261E-08        -0.44661E-10         0.00000E+00
    0.71249E-08        -0.81762E-10         0.00000E+00
    0.71206E-08        -0.14222E-09         0.00000E+00
    0.71117E-08        -0.17715E-09         0.00000E+00
    0.71026E-08        -0.19310E-09         0.00000E+00
    0.70934E-08        -0.19642E-09         0.00000E+00
    0.70843E-08        -0.19062E-09         0.00000E+00
    0.70748E-08        -0.17869E-09         0.00000E+00
    0.70652E-08        -0.16291E-09         0.00000E+00
    0.70554E-08        -0.14491E-09         0.00000E+00
    0.70459E-08        -0.12571E-09         0.00000E+00
    0.70373E-08        -0.10566E-09         0.00000E+00
    0.70300E-08        -0.84433E-10         0.00000E+00
    0.70247E-08        -0.60954E-10         0.00000E+00
    0.70217E-08        -0.33468E-10         0.00000E+00
    0.70210E-08        -0.18463E-10         0.00000E+00
    0.77421E-08        -0.42850E-10         0.00000E+00
    0.77403E-08        -0.78311E-10         0.00000E+00
    0.77337E-08        -0.13490E-09         0.00000E+00
    0.77234E-08        -0.16750E-09         0.00000E+00
    0.77122E-08        -0.18306E-09         0.00000E+00
    0.77001E-08        -0.18589E-09         0.00000E+00
    0.76873E-08        -0.17962E-09         0.00000E+00
    0.76738E-08        -0.16725E-09         0.00000E+00
    0.76598E-08        -0.15119E-09         0.00000E+00
    0.76456E-08        -0.13327E-09         0.00000E+00
    0.76318E-08        -0.11468E-09         0.00000E+00
    0.76190E-08        -0.95910E-10         0.00000E+00
    0.76081E-08        -0.76672E-10         0.00000E+00
    0.75999E-08        -0.55811E-10         0.00000E+00
    0.75950E-08        -0.31159E-10         0.00000E+00
    0.75938E-08        -0.17549E-10         0.00000E+00
    0.83507E-08        -0.41132E-10         0.00000E+00
    0.83482E-08        -0.73673E-10         0.00000E+00
    0.83393E-08        -0.12584E-09         0.00000E+00
    0.83276E-08        -0.15609E-09         0.00000E+00
    0.83139E-08        -0.17020E-09         0.00000E+00
    0.82986E-08        -0.17190E-09         0.00000E+00
    0.82821E-08        -0.16466E-09         0.00000E+00
    0.82645E-08        -0.15150E-09         0.00000E+00
    0.82462E-08        -0.13500E-09         0.00000E+00
    0.82276E-08        -0.11718E-09         0.00000E+00
    0.82095E-08        -0.99390E-10         0.00000E+00
    0.81929E-08        -0.82235E-10         0.00000E+00
    0.81785E-08        -0.65511E-10         0.00000E+00
    0.81672E-08        -0.48102E-10         0.00000E+00
    0.81602E-08        -0.27525E-10         0.00000E+00
    0.81583E-08        -0.16027E-10         0.00000E+00
    0.89467E-08        -0.38153E-10         0.00000E+00
    0.89429E-08        -0.67325E-10         0.00000E+00
    0.89326E-08        -0.11477E-09         0.00000E+00
    0.89189E-08        -0.14245E-09         0.00000E+00
    0.89026E-08        -0.15442E-09         0.00000E+00
    0.88842E-08        -0.15445E-09         0.00000E+00
    0.88642E-08        -0.14582E-09         0.00000E+00
    0.88428E-08        -0.13161E-09         0.00000E+00
    0.88204E-08        -0.11454E-09         0.00000E+00
    0.87979E-08        -0.96901E-10         0.00000E+00
    0.87762E-08        -0.80228E-10         0.00000E+00
    0.87565E-08        -0.65110E-10         0.00000E+00
    0.87397E-08        -0.51252E-10         0.00000E+00
    0.87263E-08        -0.37733E-10         0.00000E+00
    0.87169E-08        -0.22355E-10         0.00000E+00
    0.87141E-08        -0.13798E-10         0.00000E+00
    0.95222E-08        -0.33828E-10         0.00000E+00
    0.95179E-08        -0.59983E-10         0.00000E+00
    0.95071E-08        -0.10235E-09         0.00000E+00
    0.94917E-08        -0.12652E-09         0.00000E+00
    0.94730E-08        -0.13588E-09         0.00000E+00
    0.94519E-08        -0.13380E-09         0.00000E+00
    0.94287E-08        -0.12348E-09         0.00000E+00
    0.94040E-08        -0.10800E-09         0.00000E+00
    0.93782E-08        -0.90323E-10         0.00000E+00
    0.93524E-08        -0.73140E-10         0.00000E+00
    0.93280E-08        -0.58241E-10         0.00000E+00
    0.93070E-08        -0.46035E-10         0.00000E+00
    0.92903E-08        -0.35596E-10         0.00000E+00
    0.92782E-08        -0.25485E-10         0.00000E+00
    0.92688E-08        -0.15417E-10         0.00000E+00
    0.92632E-08        -0.10494E-10         0.00000E+00
    0.10073E-07        -0.29848E-10         0.00000E+00
    0.10069E-07        -0.52543E-10         0.00000E+00
    0.10057E-07        -0.88942E-10         0.00000E+00
    0.10040E-07        -0.10876E-09         0.00000E+00
    0.10020E-07        -0.11490E-09         0.00000E+00
    0.99961E-08        -0.11039E-09         0.00000E+00
    0.99703E-08        -0.98168E-10         0.00000E+00
    0.99429E-08        -0.81305E-10         0.00000E+00
    0.99144E-08        -0.63109E-10         0.00000E+00
    0.98861E-08        -0.46927E-10         0.00000E+00
    0.98607E-08        -0.35080E-10         0.00000E+00
    0.98406E-08        -0.27629E-10         0.00000E+00
    0.98268E-08        -0.22712E-10         0.00000E+00
    0.98176E-08        -0.16427E-10         0.00000E+00
    0.98115E-08        -0.74931E-11         0.00000E+00
    0.98063E-08        -0.27141E-11         0.00000E+00
    0.10594E-07        -0.25721E-10         0.00000E+00
    0.10590E-07        -0.44716E-10         0.00000E+00
    0.10578E-07        -0.74504E-10         0.00000E+00
    0.10560E-07        -0.89277E-10         0.00000E+00
    0.10537E-07        -0.91765E-10         0.00000E+00
    0.10511E-07        -0.84594E-10         0.00000E+00
    0.10483E-07        -0.70397E-10         0.00000E+00
    0.10453E-07        -0.52155E-10         0.00000E+00
    0.10422E-07        -0.33671E-10         0.00000E+00
    0.10392E-07        -0.19609E-10         0.00000E+00
    0.10366E-07        -0.12957E-10         0.00000E+00
    0.10346E-07        -0.12392E-10         0.00000E+00
    0.10333E-07        -0.12863E-10         0.00000E+00
    0.10324E-07        -0.10477E-10         0.00000E+00
    0.10321E-07        -0.42630E-11         0.00000E+00
    0.10320E-07        -0.11791E-12         0.00000E+00
    0.11082E-07        -0.21217E-10         0.00000E+00
    0.11077E-07        -0.36160E-10         0.00000E+00
    0.11064E-07        -0.58689E-10         0.00000E+00
    0.11044E-07        -0.67930E-10         0.00000E+00
    0.11019E-07        -0.66487E-10         0.00000E+00
    0.10991E-07        -0.56589E-10         0.00000E+00
    0.10961E-07        -0.40400E-10         0.00000E+00
    0.10929E-07        -0.20675E-10         0.00000E+00
    0.10895E-07        -0.19311E-11         0.00000E+00
    0.10860E-07         0.96906E-11         0.00000E+00
    0.10830E-07         0.11094E-10         0.00000E+00
    0.10808E-07         0.53066E-11         0.00000E+00
    0.10791E-07        -0.16265E-11         0.00000E+00
    0.10781E-07        -0.49131E-11         0.00000E+00
    0.10777E-07        -0.33494E-11         0.00000E+00
    0.10778E-07        -0.14578E-11         0.00000E+00
    0.11530E-07        -0.16091E-10         0.00000E+00
    0.11524E-07        -0.26528E-10         0.00000E+00
    0.11509E-07        -0.41083E-10         0.00000E+00
    0.11487E-07        -0.44417E-10         0.00000E+00
    0.11460E-07        -0.38923E-10         0.00000E+00
    0.11430E-07        -0.26288E-10         0.00000E+00
    0.11397E-07        -0.79480E-11         0.00000E+00
    0.11363E-07         0.14121E-10         0.00000E+00
    0.11324E-07         0.34896E-10         0.00000E+00
    0.11284E-07         0.44806E-10         0.00000E+00
    0.11249E-07         0.39609E-10         0.00000E+00
    0.11224E-07         0.26550E-10         0.00000E+00
    0.11205E-07         0.13453E-10         0.00000E+00
    0.11194E-07         0.30073E-11         0.00000E+00
    0.11189E-07        -0.18363E-11         0.00000E+00
    0.11189E-07        -0.22606E-11         0.00000E+00
    0.11932E-07        -0.10139E-10         0.00000E+00
    0.11926E-07        -0.15537E-10         0.00000E+00
    0.11909E-07        -0.21349E-10         0.00000E+00
    0.11884E-07        -0.18499E-10         0.00000E+00
    0.11855E-07        -0.89589E-11         0.00000E+00
    0.11823E-07         0.63859E-11         0.00000E+00
    0.11788E-07         0.27298E-10         0.00000E+00
    0.11751E-07         0.53464E-10         0.00000E+00
    0.11707E-07         0.77356E-10         0.00000E+00
    0.11664E-07         0.84150E-10         0.00000E+00
    0.11629E-07         0.71045E-10         0.00000E+00
    0.11603E-07         0.49523E-10         0.00000E+00
    0.11585E-07         0.28023E-10         0.00000E+00
    0.11574E-07         0.10479E-10         0.00000E+00
    0.11568E-07         0.11206E-11         0.00000E+00
    0.11566E-07        -0.10013E-11         0.00000E+00
    0.12282E-07        -0.32356E-11         0.00000E+00
    0.12275E-07        -0.30423E-11         0.00000E+00
    0.12257E-07         0.60517E-12         0.00000E+00
    0.12230E-07         0.97460E-11         0.00000E+00
    0.12199E-07         0.23136E-10         0.00000E+00
    0.12166E-07         0.40992E-10         0.00000E+00
    0.12130E-07         0.64749E-10         0.00000E+00
    0.12092E-07         0.95784E-10         0.00000E+00
    0.12048E-07         0.12189E-09         0.00000E+00
    0.12007E-07         0.12305E-09         0.00000E+00
    0.11975E-07         0.10076E-09         0.00000E+00
    0.11951E-07         0.71030E-10         0.00000E+00
    0.11934E-07         0.42611E-10         0.00000E+00
    0.11922E-07         0.19336E-10         0.00000E+00
    0.11915E-07         0.52375E-11         0.00000E+00
    0.11913E-07         0.96291E-12         0.00000E+00
    0.12575E-07         0.46105E-11         0.00000E+00
    0.12567E-07         0.10852E-10         0.00000E+00
    0.12547E-07         0.24428E-10         0.00000E+00
    0.12520E-07         0.39655E-10         0.00000E+00
    0.12488E-07         0.56363E-10         0.00000E+00
    0.12455E-07         0.76070E-10         0.00000E+00
    0.12421E-07         0.10208E-09         0.00000E+00
    0.12385E-07         0.13654E-09         0.00000E+00
    0.12348E-07         0.16261E-09         0.00000E+00
    0.12314E-07         0.15701E-09         0.00000E+00
    0.12288E-07         0.12692E-09         0.00000E+00
    0.12266E-07         0.91364E-10         0.00000E+00
    0.12249E-07         0.57479E-10         0.00000E+00
    0.12237E-07         0.29071E-10         0.00000E+00
    0.12230E-07         0.10032E-10         0.00000E+00
    0.12227E-07         0.33236E-11         0.00000E+00
    0.12803E-07         0.13193E-10         0.00000E+00
    0.12795E-07         0.25678E-10         0.00000E+00
    0.12775E-07         0.49112E-10         0.00000E+00
    0.12748E-07         0.69703E-10         0.00000E+00
    0.12719E-07         0.88735E-10         0.00000E+00
    0.12689E-07         0.10905E-09         0.00000E+00
    0.12660E-07         0.13534E-09         0.00000E+00
    0.12632E-07         0.16989E-09         0.00000E+00
    0.12606E-07         0.19389E-09         0.00000E+00
    0.12583E-07         0.18375E-09         0.00000E+00
    0.12563E-07         0.14911E-09         0.00000E+00
    0.12546E-07         0.10960E-09         0.00000E+00
    0.12531E-07         0.71554E-10         0.00000E+00
    0.12520E-07         0.38690E-10         0.00000E+00
    0.12513E-07         0.14915E-10         0.00000E+00
    0.12511E-07         0.57869E-11         0.00000E+00
    0.12961E-07         0.22046E-10         0.00000E+00
    0.12953E-07         0.40485E-10         0.00000E+00
    0.12935E-07         0.72789E-10         0.00000E+00
    0.12912E-07         0.97256E-10         0.00000E+00
    0.12888E-07         0.11707E-09         0.00000E+00
    0.12865E-07         0.13634E-09         0.00000E+00
    0.12845E-07         0.16018E-09         0.00000E+00
    0.12830E-07         0.19093E-09         0.00000E+00
    0.12820E-07         0.21196E-09         0.00000E+00
    0.12811E-07         0.20086E-09         0.00000E+00
    0.12800E-07         0.16509E-09         0.00000E+00
    0.12789E-07         0.12359E-09         0.00000E+00
    0.12780E-07         0.83029E-10         0.00000E+00
    0.12772E-07         0.46910E-10         0.00000E+00
    0.12766E-07         0.19249E-10         0.00000E+00
    0.12764E-07         0.80618E-11         0.00000E+00
    0.13043E-07         0.30381E-10         0.00000E+00
    0.13036E-07         0.53712E-10         0.00000E+00
    0.13022E-07         0.92494E-10         0.00000E+00
    0.13007E-07         0.11833E-09         0.00000E+00
    0.12994E-07         0.13683E-09         0.00000E+00
    0.12984E-07         0.15329E-09         0.00000E+00
    0.12978E-07         0.17249E-09         0.00000E+00
    0.12978E-07         0.19647E-09         0.00000E+00
    0.12987E-07         0.21330E-09         0.00000E+00
    0.12996E-07         0.20444E-09         0.00000E+00
    0.12999E-07         0.17158E-09         0.00000E+00
    0.12998E-07         0.13049E-09         0.00000E+00
    0.12996E-07         0.89562E-10         0.00000E+00
    0.12993E-07         0.52058E-10         0.00000E+00
    0.12991E-07         0.22234E-10         0.00000E+00
    0.12990E-07         0.98057E-11         0.00000E+00
    0.13041E-07         0.36970E-10         0.00000E+00
    0.13037E-07         0.62948E-10         0.00000E+00
    0.13033E-07         0.10382E-09         0.00000E+00
    0.13032E-07         0.12733E-09         0.00000E+00
    0.13037E-07         0.14204E-09         0.00000E+00
    0.13046E-07         0.15420E-09         0.00000E+00
    0.13060E-07         0.16782E-09         0.00000E+00
    0.13079E-07         0.18413E-09         0.00000E+00
    0.13107E-07         0.19583E-09         0.00000E+00
    0.13136E-07         0.18980E-09         0.00000E+00
    0.13159E-07         0.16362E-09         0.00000E+00
    0.13173E-07         0.12679E-09         0.00000E+00
    0.13182E-07         0.88028E-10         0.00000E+00
    0.13188E-07         0.51907E-10         0.00000E+00
    0.13191E-07         0.22797E-10         0.00000E+00
    0.13191E-07         0.10647E-10         0.00000E+00
    0.12948E-07         0.39760E-10         0.00000E+00
    0.12950E-07         0.64296E-10         0.00000E+00
    0.12963E-07         0.10014E-09         0.00000E+00
    0.12986E-07         0.11681E-09         0.00000E+00
    0.13016E-07         0.12560E-09         0.00000E+00
    0.13051E-07         0.13262E-09         0.00000E+00
    0.13090E-07         0.14086E-09         0.00000E+00
    0.13134E-07         0.15056E-09         0.00000E+00
    0.13185E-07         0.15758E-09         0.00000E+00
    0.13237E-07         0.15383E-09         0.00000E+00
    0.13283E-07         0.13587E-09         0.00000E+00
    0.13318E-07         0.10763E-09         0.00000E+00
    0.13343E-07         0.74794E-10         0.00000E+00
    0.13360E-07         0.43582E-10         0.00000E+00
    0.13370E-07         0.19682E-10         0.00000E+00
    0.13371E-07         0.10125E-10         0.00000E+00
    0.12747E-07         0.34737E-10         0.00000E+00
    0.12768E-07         0.50273E-10         0.00000E+00
    0.12815E-07         0.70808E-10         0.00000E+00
    0.12872E-07         0.77496E-10         0.00000E+00
    0.12935E-07         0.80148E-10         0.00000E+00
    0.13000E-07         0.82498E-10         0.00000E+00
    0.13070E-07         0.86080E-10         0.00000E+00
    0.13143E-07         0.90690E-10         0.00000E+00
    0.13222E-07         0.94313E-10         0.00000E+00
    0.13302E-07         0.92954E-10         0.00000E+00
    0.13377E-07         0.84226E-10         0.00000E+00
    0.13439E-07         0.67973E-10         0.00000E+00
    0.13485E-07         0.45795E-10         0.00000E+00
    0.13515E-07         0.24695E-10         0.00000E+00
    0.13530E-07         0.12348E-10         0.00000E+00
    0.13535E-07         0.90129E-11         0.00000E+00
    0.12617E-07         0.00000E+00         0.00000E+00
    0.12653E-07         0.00000E+00         0.00000E+00
    0.12721E-07        -0.37270E-22         0.00000E+00
    0.12799E-07         0.48105E-26         0.00000E+00
    0.12880E-07         0.41416E-22         0.00000E+00
    0.12962E-07         0.00000E+00         0.00000E+00
    0.13047E-07         0.00000E+00         0.00000E+00
    0.13136E-07        -0.37287E-22         0.00000E+00
    0.13230E-07        -0.37287E-22         0.00000E+00
    0.13326E-07         0.37291E-22         0.00000E+00
    0.13417E-07         0.41435E-22         0.00000E+00
    0.13496E-07        -0.41437E-22         0.00000E+00
    0.13554E-07        -0.41430E-23         0.00000E+00
    0.13588E-07         0.41438E-22         0.00000E+00
    0.13604E-07         0.82878E-23         0.00000E+00
    0.13613E-07         0.00000E+00         0.00000E+00
CELL_DATA        450
TENSORS stressef double 
    0.54506E+07         0.58256E+04         0.00000E+00
    0.58256E+04        -0.15741E+08         0.00000E+00
    0.00000E+00         0.00000E+00        -0.28908E+07
 
    0.54284E+07         0.16300E+05         0.00000E+00
    0.16300E+05        -0.15728E+08         0.00000E+00
    0.00000E+00         0.00000E+00        -0.27731E+07
 
    0.53989E+07         0.25955E+05         0.00000E+00
    0.25955E+05        -0.15704E+08         0.00000E+00
    0.00000E+00         0.00000E+00        -0.26071E+07
 
    0.53504E+07         0.35657E+05         0.00000E+00
    0.35657E+05        -0.15670E+08         0.00000E+00
    0.00000E+00         0.00000E+00        -0.23827E+07
 
    0.51993E+07         0.41012E+05         0.00000E+00
    0.41012E+05        -0.15629E+08         0.00000E+00
    0.00000E+00         0.00000E+00        -0.21295E+07
 
    0.42476E+07         0.34840E+05         0.00000E+00
    0.34840E+05        -0.15588E+08         0.00000E+00
    0.00000E+00         0.00000E+00        -0.22681E+07
 
    0.32401E+07         0.31777E+05         0.00000E+00
    0.31777E+05        -0.15550E+08         0.00000E+00
    0.00000E+00         0.00000E+00        -0.24620E+07
 
    0.23106E+07         0.34381E+05         0.00000E+00
    0.34381E+05        -0.15509E+08         0.00000E+00
    0.00000E+00         0.00000E+00        -0.26396E+07
 
    0.14421E+07         0.41903E+05         0.00000E+00
    0.41903E+05        -0.15453E+08         0.00000E+00
    0.00000E+00         0.00000E+00        -0.28022E+07
 
    0.61966E+06         0.53562E+05         0.00000E+00
    0.53562E+05        -0.15375E+08         0.00000E+00
    0.00000E+00         0.00000E+00        -0.29512E+07
 
   -0.16963E+06         0.68731E+05         0.00000E+00
    0.68731E+05        -0.15268E+08         0.00000E+00
    0.00000E+00         0.00000E+00        -0.30875E+07
 
   -0.93670E+06         0.86904E+05         0.00000E+00
    0.86904E+05        -0.15125E+08         0.00000E+00
    0.00000E+00         0.00000E+00        -0.32123E+07
 
   -0.16909E+07         0.10766E+06         0.00000E+00
    0.10766E+06        -0.14940E+08         0.00000E+00
    0.00000E+00         0.00000E+00        -0.33261E+07
 
   -0.24403E+07         0.13061E+06         0.00000E+00
    0.13061E+06        -0.14708E+08         0.00000E+00
    0.00000E+00         0.00000E+00        -0.34297E+07
 
   -0.31912E+07         0.15537E+06         0.00000E+00
    0.15537E+06        -0.14426E+08         0.00000E+00
    0.00000E+00         0.00000E+00        -0.35234E+07
 
    0.53929E+07         0.16528E+05         0.00000E+00
    0.16528E+05        -0.15822E+08         0.00000E+00
    0.00000E+00         0.00000E+00        -0.29168E+07
 
    0.53689E+07         0.48738E+05         0.00000E+00
    0.48738E+05        -0.15810E+08         0.00000E+00
    0.00000E+00         0.00000E+00        -0.27991E+07
 
    0.53384E+07         0.78464E+05         0.00000E+00
    0.78464E+05        -0.15786E+08         0.00000E+00
    0.00000E+00         0.00000E+00        -0.26306E+07
 
    0.52880E+07         0.10580E+06         0.00000E+00
    0.10580E+06        -0.15752E+08         0.00000E+00
    0.00000E+00         0.00000E+00        -0.24028E+07
 
    0.51152E+07         0.12088E+06         0.00000E+00
    0.12088E+06        -0.15715E+08         0.00000E+00
    0.00000E+00         0.00000E+00        -0.21585E+07
 
    0.41557E+07         0.10136E+06         0.00000E+00
    0.10136E+06        -0.15679E+08         0.00000E+00
    0.00000E+00         0.00000E+00        -0.23047E+07
 
    0.31600E+07         0.92914E+05         0.00000E+00
    0.92914E+05        -0.15647E+08         0.00000E+00
    0.00000E+00         0.00000E+00        -0.24974E+07
 
    0.22410E+07         0.10142E+06         0.00000E+00
    0.10142E+06        -0.15609E+08         0.00000E+00
    0.00000E+00         0.00000E+00        -0.26737E+07
 
    0.13813E+07         0.12443E+06         0.00000E+00
    0.12443E+06        -0.15557E+08         0.00000E+00
    0.00000E+00         0.00000E+00        -0.28352E+07
 
    0.56614E+06         0.15967E+06         0.00000E+00
    0.15967E+06        -0.15482E+08         0.00000E+00
    0.00000E+00         0.00000E+00        -0.29831E+07
 
   -0.21689E+06         0.20534E+06         0.00000E+00
    0.20534E+06        -0.15377E+08         0.00000E+00
    0.00000E+00         0.00000E+00        -0.31187E+07
 
   -0.97859E+06         0.25995E+06         0.00000E+00
    0.25995E+06        -0.15235E+08         0.00000E+00
    0.00000E+00         0.00000E+00        -0.32427E+07
 
   -0.17282E+07         0.32227E+06         0.00000E+00
    0.32227E+06        -0.15051E+08         0.00000E+00
    0.00000E+00         0.00000E+00        -0.33559E+07
 
   -0.24736E+07         0.39117E+06         0.00000E+00
    0.39117E+06        -0.14821E+08         0.00000E+00
    0.00000E+00         0.00000E+00        -0.34590E+07
 
   -0.32214E+07         0.46554E+06         0.00000E+00
    0.46554E+06        -0.14540E+08         0.00000E+00
    0.00000E+00         0.00000E+00        -0.35523E+07
 
    0.52767E+07         0.27094E+05         0.00000E+00
    0.27094E+05        -0.15980E+08         0.00000E+00
    0.00000E+00         0.00000E+00        -0.29687E+07
 
    0.52503E+07         0.80404E+05         0.00000E+00
    0.80404E+05        -0.15968E+08         0.00000E+00
    0.00000E+00         0.00000E+00        -0.28496E+07
 
    0.52159E+07         0.12996E+06         0.00000E+00
    0.12996E+06        -0.15947E+08         0.00000E+00
    0.00000E+00         0.00000E+00        -0.26771E+07
 
    0.51617E+07         0.17256E+06         0.00000E+00
    0.17256E+06        -0.15918E+08         0.00000E+00
    0.00000E+00         0.00000E+00        -0.24422E+07
 
    0.49436E+07         0.19282E+06         0.00000E+00
    0.19282E+06        -0.15888E+08         0.00000E+00
    0.00000E+00         0.00000E+00        -0.22169E+07
 
    0.39725E+07         0.15928E+06         0.00000E+00
    0.15928E+06        -0.15864E+08         0.00000E+00
    0.00000E+00         0.00000E+00        -0.23783E+07
 
    0.30011E+07         0.14742E+06         0.00000E+00
    0.14742E+06        -0.15841E+08         0.00000E+00
    0.00000E+00         0.00000E+00        -0.25681E+07
 
    0.21026E+07         0.16358E+06         0.00000E+00
    0.16358E+06        -0.15811E+08         0.00000E+00
    0.00000E+00         0.00000E+00        -0.27417E+07
 
    0.12600E+07         0.20325E+06         0.00000E+00
    0.20325E+06        -0.15765E+08         0.00000E+00
    0.00000E+00         0.00000E+00        -0.29010E+07
 
    0.45936E+06         0.26282E+06         0.00000E+00
    0.26282E+06        -0.15694E+08         0.00000E+00
    0.00000E+00         0.00000E+00        -0.30470E+07
 
   -0.31131E+06         0.33942E+06         0.00000E+00
    0.33942E+06        -0.15593E+08         0.00000E+00
    0.00000E+00         0.00000E+00        -0.31809E+07
 
   -0.10624E+07         0.43074E+06         0.00000E+00
    0.43074E+06        -0.15455E+08         0.00000E+00
    0.00000E+00         0.00000E+00        -0.33034E+07
 
   -0.18028E+07         0.53479E+06         0.00000E+00
    0.53479E+06        -0.15275E+08         0.00000E+00
    0.00000E+00         0.00000E+00        -0.34155E+07
 
   -0.25404E+07         0.64979E+06         0.00000E+00
    0.64979E+06        -0.15047E+08         0.00000E+00
    0.00000E+00         0.00000E+00        -0.35176E+07
 
   -0.32817E+07         0.77395E+06         0.00000E+00
    0.77395E+06        -0.14769E+08         0.00000E+00
    0.00000E+00         0.00000E+00        -0.36101E+07
 
    0.51008E+07         0.38155E+05         0.00000E+00
    0.38155E+05        -0.16220E+08         0.00000E+00
    0.00000E+00         0.00000E+00        -0.30450E+07
 
    0.50718E+07         0.11033E+06         0.00000E+00
    0.11033E+06        -0.16210E+08         0.00000E+00
    0.00000E+00         0.00000E+00        -0.29223E+07
 
    0.50301E+07         0.17759E+06         0.00000E+00
    0.17759E+06        -0.16192E+08         0.00000E+00
    0.00000E+00         0.00000E+00        -0.27446E+07
 
    0.49645E+07         0.23446E+06         0.00000E+00
    0.23446E+06        -0.16170E+08         0.00000E+00
    0.00000E+00         0.00000E+00        -0.25011E+07
 
    0.46809E+07         0.24977E+06         0.00000E+00
    0.24977E+06        -0.16154E+08         0.00000E+00
    0.00000E+00         0.00000E+00        -0.23072E+07
 
    0.37001E+07         0.20413E+06         0.00000E+00
    0.20413E+06        -0.16144E+08         0.00000E+00
    0.00000E+00         0.00000E+00        -0.24887E+07
 
    0.27656E+07         0.19202E+06         0.00000E+00
    0.19202E+06        -0.16134E+08         0.00000E+00
    0.00000E+00         0.00000E+00        -0.26738E+07
 
    0.18969E+07         0.21825E+06         0.00000E+00
    0.21825E+06        -0.16115E+08         0.00000E+00
    0.00000E+00         0.00000E+00        -0.28435E+07
 
    0.10793E+07         0.27627E+06         0.00000E+00
    0.27627E+06        -0.16076E+08         0.00000E+00
    0.00000E+00         0.00000E+00        -0.29994E+07
 
    0.29976E+06         0.36125E+06         0.00000E+00
    0.36125E+06        -0.16012E+08         0.00000E+00
    0.00000E+00         0.00000E+00        -0.31425E+07
 
   -0.45273E+06         0.46943E+06         0.00000E+00
    0.46943E+06        -0.15917E+08         0.00000E+00
    0.00000E+00         0.00000E+00        -0.32739E+07
 
   -0.11880E+07         0.59780E+06         0.00000E+00
    0.59780E+06        -0.15784E+08         0.00000E+00
    0.00000E+00         0.00000E+00        -0.33943E+07
 
   -0.19147E+07         0.74381E+06         0.00000E+00
    0.74381E+06        -0.15608E+08         0.00000E+00
    0.00000E+00         0.00000E+00        -0.35046E+07
 
   -0.26405E+07         0.90512E+06         0.00000E+00
    0.90512E+06        -0.15385E+08         0.00000E+00
    0.00000E+00         0.00000E+00        -0.36052E+07
 
   -0.33721E+07         0.10794E+07         0.00000E+00
    0.10794E+07        -0.15111E+08         0.00000E+00
    0.00000E+00         0.00000E+00        -0.36966E+07
 
    0.48638E+07         0.48393E+05         0.00000E+00
    0.48393E+05        -0.16542E+08         0.00000E+00
    0.00000E+00         0.00000E+00        -0.31440E+07
 
    0.48294E+07         0.13847E+06         0.00000E+00
    0.13847E+06        -0.16534E+08         0.00000E+00
    0.00000E+00         0.00000E+00        -0.30160E+07
 
    0.47798E+07         0.21960E+06         0.00000E+00
    0.21960E+06        -0.16519E+08         0.00000E+00
    0.00000E+00         0.00000E+00        -0.28311E+07
 
    0.46948E+07         0.28848E+06         0.00000E+00
    0.28848E+06        -0.16506E+08         0.00000E+00
    0.00000E+00         0.00000E+00        -0.25809E+07
 
    0.43130E+07         0.28629E+06         0.00000E+00
    0.28629E+06        -0.16512E+08         0.00000E+00
    0.00000E+00         0.00000E+00        -0.24398E+07
 
    0.33437E+07         0.23085E+06         0.00000E+00
    0.23085E+06        -0.16519E+08         0.00000E+00
    0.00000E+00         0.00000E+00        -0.26350E+07
 
    0.24562E+07         0.22387E+06         0.00000E+00
    0.22387E+06        -0.16527E+08         0.00000E+00
    0.00000E+00         0.00000E+00        -0.28141E+07
 
    0.16258E+07         0.26343E+06         0.00000E+00
    0.26343E+06        -0.16519E+08         0.00000E+00
    0.00000E+00         0.00000E+00        -0.29787E+07
 
    0.84010E+06         0.34185E+06         0.00000E+00
    0.34185E+06        -0.16491E+08         0.00000E+00
    0.00000E+00         0.00000E+00        -0.31301E+07
 
    0.87845E+05         0.45347E+06         0.00000E+00
    0.45347E+06        -0.16435E+08         0.00000E+00
    0.00000E+00         0.00000E+00        -0.32694E+07
 
   -0.64099E+06         0.59392E+06         0.00000E+00
    0.59392E+06        -0.16346E+08         0.00000E+00
    0.00000E+00         0.00000E+00        -0.33975E+07
 
   -0.13555E+07         0.75973E+06         0.00000E+00
    0.75973E+06        -0.16220E+08         0.00000E+00
    0.00000E+00         0.00000E+00        -0.35151E+07
 
   -0.20640E+07         0.94792E+06         0.00000E+00
    0.94792E+06        -0.16051E+08         0.00000E+00
    0.00000E+00         0.00000E+00        -0.36229E+07
 
   -0.27739E+07         0.11558E+07         0.00000E+00
    0.11558E+07        -0.15834E+08         0.00000E+00
    0.00000E+00         0.00000E+00        -0.37215E+07
 
   -0.34922E+07         0.13805E+07         0.00000E+00
    0.13805E+07        -0.15565E+08         0.00000E+00
    0.00000E+00         0.00000E+00        -0.38114E+07
 
    0.45635E+07         0.57300E+05         0.00000E+00
    0.57300E+05        -0.16946E+08         0.00000E+00
    0.00000E+00         0.00000E+00        -0.32675E+07
 
    0.45205E+07         0.16404E+06         0.00000E+00
    0.16404E+06        -0.16941E+08         0.00000E+00
    0.00000E+00         0.00000E+00        -0.31309E+07
 
    0.44556E+07         0.25684E+06         0.00000E+00
    0.25684E+06        -0.16933E+08         0.00000E+00
    0.00000E+00         0.00000E+00        -0.29315E+07
 
    0.43575E+07         0.32552E+06         0.00000E+00
    0.32552E+06        -0.16929E+08         0.00000E+00
    0.00000E+00         0.00000E+00        -0.26746E+07
 
    0.38215E+07         0.29713E+06         0.00000E+00
    0.29713E+06        -0.16957E+08         0.00000E+00
    0.00000E+00         0.00000E+00        -0.26271E+07
 
    0.29109E+07         0.23671E+06         0.00000E+00
    0.23671E+06        -0.16994E+08         0.00000E+00
    0.00000E+00         0.00000E+00        -0.28167E+07
 
    0.20771E+07         0.24138E+06         0.00000E+00
    0.24138E+06        -0.17019E+08         0.00000E+00
    0.00000E+00         0.00000E+00        -0.29884E+07
 
    0.12914E+07         0.29786E+06         0.00000E+00
    0.29786E+06        -0.17025E+08         0.00000E+00
    0.00000E+00         0.00000E+00        -0.31467E+07
 
    0.54355E+06         0.39878E+06         0.00000E+00
    0.39878E+06        -0.17007E+08         0.00000E+00
    0.00000E+00         0.00000E+00        -0.32927E+07
 
   -0.17595E+06         0.53823E+06         0.00000E+00
    0.53823E+06        -0.16960E+08         0.00000E+00
    0.00000E+00         0.00000E+00        -0.34272E+07
 
   -0.87603E+06         0.71159E+06         0.00000E+00
    0.71159E+06        -0.16880E+08         0.00000E+00
    0.00000E+00         0.00000E+00        -0.35513E+07
 
   -0.15650E+07         0.91514E+06         0.00000E+00
    0.91514E+06        -0.16762E+08         0.00000E+00
    0.00000E+00         0.00000E+00        -0.36654E+07
 
   -0.22508E+07         0.11457E+07         0.00000E+00
    0.11457E+07        -0.16600E+08         0.00000E+00
    0.00000E+00         0.00000E+00        -0.37702E+07
 
   -0.29407E+07         0.14003E+07         0.00000E+00
    0.14003E+07        -0.16391E+08         0.00000E+00
    0.00000E+00         0.00000E+00        -0.38663E+07
 
   -0.36418E+07         0.16759E+07         0.00000E+00
    0.16759E+07        -0.16129E+08         0.00000E+00
    0.00000E+00         0.00000E+00        -0.39541E+07
 
    0.41960E+07         0.64812E+05         0.00000E+00
    0.64812E+05        -0.17431E+08         0.00000E+00
    0.00000E+00         0.00000E+00        -0.34124E+07
 
    0.41410E+07         0.18312E+06         0.00000E+00
    0.18312E+06        -0.17430E+08         0.00000E+00
    0.00000E+00         0.00000E+00        -0.32636E+07
 
    0.40543E+07         0.28222E+06         0.00000E+00
    0.28222E+06        -0.17436E+08         0.00000E+00
    0.00000E+00         0.00000E+00        -0.30467E+07
 
    0.39206E+07         0.33935E+06         0.00000E+00
    0.33935E+06        -0.17472E+08         0.00000E+00
    0.00000E+00         0.00000E+00        -0.27890E+07
 
    0.32225E+07         0.27794E+06         0.00000E+00
    0.27794E+06        -0.17515E+08         0.00000E+00
    0.00000E+00         0.00000E+00        -0.28585E+07
 
    0.24076E+07         0.22505E+06         0.00000E+00
    0.22505E+06        -0.17571E+08         0.00000E+00
    0.00000E+00         0.00000E+00        -0.30327E+07
 
    0.16313E+07         0.24488E+06         0.00000E+00
    0.24488E+06        -0.17611E+08         0.00000E+00
    0.00000E+00         0.00000E+00        -0.31959E+07
 
    0.89544E+06         0.32115E+06         0.00000E+00
    0.32115E+06        -0.17629E+08         0.00000E+00
    0.00000E+00         0.00000E+00        -0.33468E+07
 
    0.19047E+06         0.44623E+06         0.00000E+00
    0.44623E+06        -0.17623E+08         0.00000E+00
    0.00000E+00         0.00000E+00        -0.34864E+07
 
   -0.49137E+06         0.61443E+06         0.00000E+00
    0.61443E+06        -0.17586E+08         0.00000E+00
    0.00000E+00         0.00000E+00        -0.36155E+07
 
   -0.11579E+07         0.82116E+06         0.00000E+00
    0.82116E+06        -0.17516E+08         0.00000E+00
    0.00000E+00         0.00000E+00        -0.37348E+07
 
   -0.18167E+07         0.10626E+07         0.00000E+00
    0.10626E+07        -0.17407E+08         0.00000E+00
    0.00000E+00         0.00000E+00        -0.38447E+07
 
   -0.24753E+07         0.13356E+07         0.00000E+00
    0.13356E+07        -0.17255E+08         0.00000E+00
    0.00000E+00         0.00000E+00        -0.39460E+07
 
   -0.31409E+07         0.16370E+07         0.00000E+00
    0.16370E+07        -0.17054E+08         0.00000E+00
    0.00000E+00         0.00000E+00        -0.40390E+07
 
   -0.38207E+07         0.19639E+07         0.00000E+00
    0.19639E+07        -0.16801E+08         0.00000E+00
    0.00000E+00         0.00000E+00        -0.41243E+07
 
    0.37563E+07         0.70724E+05         0.00000E+00
    0.70724E+05        -0.18002E+08         0.00000E+00
    0.00000E+00         0.00000E+00        -0.35748E+07
 
    0.36849E+07         0.19471E+06         0.00000E+00
    0.19471E+06        -0.18007E+08         0.00000E+00
    0.00000E+00         0.00000E+00        -0.34058E+07
 
    0.35730E+07         0.29204E+06         0.00000E+00
    0.29204E+06        -0.18026E+08         0.00000E+00
    0.00000E+00         0.00000E+00        -0.31720E+07
 
    0.33209E+07         0.31528E+06         0.00000E+00
    0.31528E+06        -0.18089E+08         0.00000E+00
    0.00000E+00         0.00000E+00        -0.29812E+07
 
    0.25740E+07         0.22953E+06         0.00000E+00
    0.22953E+06        -0.18168E+08         0.00000E+00
    0.00000E+00         0.00000E+00        -0.31187E+07
 
    0.18327E+07         0.19830E+06         0.00000E+00
    0.19830E+06        -0.18245E+08         0.00000E+00
    0.00000E+00         0.00000E+00        -0.32825E+07
 
    0.11214E+07         0.23558E+06         0.00000E+00
    0.23558E+06        -0.18299E+08         0.00000E+00
    0.00000E+00         0.00000E+00        -0.34355E+07
 
    0.43902E+06         0.33312E+06         0.00000E+00
    0.33312E+06        -0.18330E+08         0.00000E+00
    0.00000E+00         0.00000E+00        -0.35783E+07
 
   -0.21870E+06         0.48338E+06         0.00000E+00
    0.48338E+06        -0.18335E+08         0.00000E+00
    0.00000E+00         0.00000E+00        -0.37108E+07
 
   -0.85837E+06         0.68094E+06         0.00000E+00
    0.68094E+06        -0.18310E+08         0.00000E+00
    0.00000E+00         0.00000E+00        -0.38337E+07
 
   -0.14868E+07         0.92131E+06         0.00000E+00
    0.92131E+06        -0.18251E+08         0.00000E+00
    0.00000E+00         0.00000E+00        -0.39475E+07
 
   -0.21110E+07         0.12007E+07         0.00000E+00
    0.12007E+07        -0.18152E+08         0.00000E+00
    0.00000E+00         0.00000E+00        -0.40527E+07
 
   -0.27379E+07         0.15160E+07         0.00000E+00
    0.15160E+07        -0.18011E+08         0.00000E+00
    0.00000E+00         0.00000E+00        -0.41497E+07
 
   -0.33746E+07         0.18643E+07         0.00000E+00
    0.18643E+07        -0.17821E+08         0.00000E+00
    0.00000E+00         0.00000E+00        -0.42391E+07
 
   -0.40285E+07         0.22427E+07         0.00000E+00
    0.22427E+07        -0.17578E+08         0.00000E+00
    0.00000E+00         0.00000E+00        -0.43213E+07
 
    0.32391E+07         0.73543E+05         0.00000E+00
    0.73543E+05        -0.18659E+08         0.00000E+00
    0.00000E+00         0.00000E+00        -0.37500E+07
 
    0.31446E+07         0.19701E+06         0.00000E+00
    0.19701E+06        -0.18673E+08         0.00000E+00
    0.00000E+00         0.00000E+00        -0.35564E+07
 
    0.29965E+07         0.27872E+06         0.00000E+00
    0.27872E+06        -0.18719E+08         0.00000E+00
    0.00000E+00         0.00000E+00        -0.33111E+07
 
    0.25713E+07         0.24499E+06         0.00000E+00
    0.24499E+06        -0.18816E+08         0.00000E+00
    0.00000E+00         0.00000E+00        -0.32490E+07
 
    0.18649E+07         0.16250E+06         0.00000E+00
    0.16250E+06        -0.18919E+08         0.00000E+00
    0.00000E+00         0.00000E+00        -0.34108E+07
 
    0.11951E+07         0.15481E+06         0.00000E+00
    0.15481E+06        -0.19010E+08         0.00000E+00
    0.00000E+00         0.00000E+00        -0.35630E+07
 
    0.54761E+06         0.21313E+06         0.00000E+00
    0.21313E+06        -0.19079E+08         0.00000E+00
    0.00000E+00         0.00000E+00        -0.37062E+07
 
   -0.77435E+05         0.33298E+06         0.00000E+00
    0.33298E+06        -0.19123E+08         0.00000E+00
    0.00000E+00         0.00000E+00        -0.38402E+07
 
   -0.68386E+06         0.50910E+06         0.00000E+00
    0.50910E+06        -0.19141E+08         0.00000E+00
    0.00000E+00         0.00000E+00        -0.39651E+07
 
   -0.12770E+07         0.73643E+06         0.00000E+00
    0.73643E+06        -0.19129E+08         0.00000E+00
    0.00000E+00         0.00000E+00        -0.40812E+07
 
   -0.18631E+07         0.10106E+07         0.00000E+00
    0.10106E+07        -0.19081E+08         0.00000E+00
    0.00000E+00         0.00000E+00        -0.41889E+07
 
   -0.24482E+07         0.13279E+07         0.00000E+00
    0.13279E+07        -0.18995E+08         0.00000E+00
    0.00000E+00         0.00000E+00        -0.42887E+07
 
   -0.30389E+07         0.16852E+07         0.00000E+00
    0.16852E+07        -0.18866E+08         0.00000E+00
    0.00000E+00         0.00000E+00        -0.43810E+07
 
   -0.36419E+07         0.20801E+07         0.00000E+00
    0.20801E+07        -0.18689E+08         0.00000E+00
    0.00000E+00         0.00000E+00        -0.44662E+07
 
   -0.42649E+07         0.25102E+07         0.00000E+00
    0.25102E+07        -0.18459E+08         0.00000E+00
    0.00000E+00         0.00000E+00        -0.45447E+07
 
    0.26374E+07         0.71575E+05         0.00000E+00
    0.71575E+05        -0.19401E+08         0.00000E+00
    0.00000E+00         0.00000E+00        -0.39348E+07
 
    0.25082E+07         0.18306E+06         0.00000E+00
    0.18306E+06        -0.19430E+08         0.00000E+00
    0.00000E+00         0.00000E+00        -0.37072E+07
 
    0.22871E+07         0.22193E+06         0.00000E+00
    0.22193E+06        -0.19526E+08         0.00000E+00
    0.00000E+00         0.00000E+00        -0.35023E+07
 
    0.17093E+07         0.14285E+06         0.00000E+00
    0.14285E+06        -0.19630E+08         0.00000E+00
    0.00000E+00         0.00000E+00        -0.35842E+07
 
    0.10960E+07         0.84811E+05         0.00000E+00
    0.84811E+05        -0.19757E+08         0.00000E+00
    0.00000E+00         0.00000E+00        -0.37323E+07
 
    0.49348E+06         0.97032E+05         0.00000E+00
    0.97032E+05        -0.19862E+08         0.00000E+00
    0.00000E+00         0.00000E+00        -0.38737E+07
 
   -0.89018E+05         0.17625E+06         0.00000E+00
    0.17625E+06        -0.19945E+08         0.00000E+00
    0.00000E+00         0.00000E+00        -0.40068E+07
 
   -0.65383E+06         0.31923E+06         0.00000E+00
    0.31923E+06        -0.20005E+08         0.00000E+00
    0.00000E+00         0.00000E+00        -0.41317E+07
 
   -0.12049E+07         0.52177E+06         0.00000E+00
    0.52177E+06        -0.20037E+08         0.00000E+00
    0.00000E+00         0.00000E+00        -0.42484E+07
 
   -0.17474E+07         0.77929E+06         0.00000E+00
    0.77929E+06        -0.20039E+08         0.00000E+00
    0.00000E+00         0.00000E+00        -0.43572E+07
 
   -0.22869E+07         0.10874E+07         0.00000E+00
    0.10874E+07        -0.20005E+08         0.00000E+00
    0.00000E+00         0.00000E+00        -0.44583E+07
 
   -0.28287E+07         0.14423E+07         0.00000E+00
    0.14423E+07        -0.19932E+08         0.00000E+00
    0.00000E+00         0.00000E+00        -0.45522E+07
 
   -0.33787E+07         0.18413E+07         0.00000E+00
    0.18413E+07        -0.19817E+08         0.00000E+00
    0.00000E+00         0.00000E+00        -0.46391E+07
 
   -0.39431E+07         0.22824E+07         0.00000E+00
    0.22824E+07        -0.19654E+08         0.00000E+00
    0.00000E+00         0.00000E+00        -0.47195E+07
 
   -0.45296E+07         0.27638E+07         0.00000E+00
    0.27638E+07        -0.19439E+08         0.00000E+00
    0.00000E+00         0.00000E+00        -0.47938E+07
 
    0.19389E+07         0.63228E+05         0.00000E+00
    0.63228E+05        -0.20232E+08         0.00000E+00
    0.00000E+00         0.00000E+00        -0.41196E+07
 
    0.17722E+07         0.14463E+06         0.00000E+00
    0.14463E+06        -0.20291E+08         0.00000E+00
    0.00000E+00         0.00000E+00        -0.38752E+07
 
    0.13762E+07         0.11752E+06         0.00000E+00
    0.11752E+06        -0.20401E+08         0.00000E+00
    0.00000E+00         0.00000E+00        -0.38155E+07
 
    0.80948E+06         0.28190E+05         0.00000E+00
    0.28190E+05        -0.20537E+08         0.00000E+00
    0.00000E+00         0.00000E+00        -0.39456E+07
 
    0.25948E+06        -0.70096E+04         0.00000E+00
   -0.70096E+04        -0.20675E+08         0.00000E+00
    0.00000E+00         0.00000E+00        -0.40831E+07
 
   -0.27336E+06         0.23831E+05         0.00000E+00
    0.23831E+05        -0.20794E+08         0.00000E+00
    0.00000E+00         0.00000E+00        -0.42136E+07
 
   -0.78883E+06         0.12339E+06         0.00000E+00
    0.12339E+06        -0.20894E+08         0.00000E+00
    0.00000E+00         0.00000E+00        -0.43366E+07
 
   -0.12899E+07         0.28978E+06         0.00000E+00
    0.28978E+06        -0.20971E+08         0.00000E+00
    0.00000E+00         0.00000E+00        -0.44521E+07
 
   -0.17816E+07         0.51939E+06         0.00000E+00
    0.51939E+06        -0.21019E+08         0.00000E+00
    0.00000E+00         0.00000E+00        -0.45602E+07
 
   -0.22693E+07         0.80766E+06         0.00000E+00
    0.80766E+06        -0.21036E+08         0.00000E+00
    0.00000E+00         0.00000E+00        -0.46611E+07
 
   -0.27582E+07         0.11500E+07         0.00000E+00
    0.11500E+07        -0.21017E+08         0.00000E+00
    0.00000E+00         0.00000E+00        -0.47551E+07
 
   -0.32529E+07         0.15424E+07         0.00000E+00
    0.15424E+07        -0.20960E+08         0.00000E+00
    0.00000E+00         0.00000E+00        -0.48426E+07
 
   -0.37579E+07         0.19824E+07         0.00000E+00
    0.19824E+07        -0.20860E+08         0.00000E+00
    0.00000E+00         0.00000E+00        -0.49236E+07
 
   -0.42786E+07         0.24686E+07         0.00000E+00
    0.24686E+07        -0.20714E+08         0.00000E+00
    0.00000E+00         0.00000E+00        -0.49986E+07
 
   -0.48223E+07         0.30010E+07         0.00000E+00
    0.30010E+07        -0.20517E+08         0.00000E+00
    0.00000E+00         0.00000E+00        -0.50678E+07
 
    0.11404E+07         0.44161E+05         0.00000E+00
    0.44161E+05        -0.21160E+08         0.00000E+00
    0.00000E+00         0.00000E+00        -0.43056E+07
 
    0.86151E+06         0.70101E+05         0.00000E+00
    0.70101E+05        -0.21242E+08         0.00000E+00
    0.00000E+00         0.00000E+00        -0.41334E+07
 
    0.35378E+06        -0.13689E+05         0.00000E+00
   -0.13689E+05        -0.21365E+08         0.00000E+00
    0.00000E+00         0.00000E+00        -0.42022E+07
 
   -0.15824E+06        -0.94414E+05         0.00000E+00
   -0.94414E+05        -0.21518E+08         0.00000E+00
    0.00000E+00         0.00000E+00        -0.43353E+07
 
   -0.64447E+06        -0.11464E+06         0.00000E+00
   -0.11464E+06        -0.21668E+08         0.00000E+00
    0.00000E+00         0.00000E+00        -0.44624E+07
 
   -0.11073E+07        -0.67011E+05         0.00000E+00
   -0.67011E+05        -0.21804E+08         0.00000E+00
    0.00000E+00         0.00000E+00        -0.45823E+07
 
   -0.15521E+07         0.52188E+05         0.00000E+00
    0.52188E+05        -0.21922E+08         0.00000E+00
    0.00000E+00         0.00000E+00        -0.46949E+07
 
   -0.19851E+07         0.24225E+06         0.00000E+00
    0.24225E+06        -0.22017E+08         0.00000E+00
    0.00000E+00         0.00000E+00        -0.48005E+07
 
   -0.24130E+07         0.49966E+06         0.00000E+00
    0.49966E+06        -0.22084E+08         0.00000E+00
    0.00000E+00         0.00000E+00        -0.48995E+07
 
   -0.28420E+07         0.81953E+06         0.00000E+00
    0.81953E+06        -0.22119E+08         0.00000E+00
    0.00000E+00         0.00000E+00        -0.49921E+07
 
   -0.32768E+07         0.11966E+07         0.00000E+00
    0.11966E+07        -0.22116E+08         0.00000E+00
    0.00000E+00         0.00000E+00        -0.50786E+07
 
   -0.37210E+07         0.16264E+07         0.00000E+00
    0.16264E+07        -0.22075E+08         0.00000E+00
    0.00000E+00         0.00000E+00        -0.51592E+07
 
   -0.41773E+07         0.21063E+07         0.00000E+00
    0.21063E+07        -0.21992E+08         0.00000E+00
    0.00000E+00         0.00000E+00        -0.52339E+07
 
   -0.46491E+07         0.26362E+07         0.00000E+00
    0.26362E+07        -0.21865E+08         0.00000E+00
    0.00000E+00         0.00000E+00        -0.53029E+07
 
   -0.51432E+07         0.32181E+07         0.00000E+00
    0.32181E+07        -0.21689E+08         0.00000E+00
    0.00000E+00         0.00000E+00        -0.53664E+07
 
    0.20591E+06         0.11122E+05         0.00000E+00
    0.11122E+05        -0.22170E+08         0.00000E+00
    0.00000E+00         0.00000E+00        -0.45483E+07
 
   -0.22857E+06        -0.38890E+05         0.00000E+00
   -0.38890E+05        -0.22265E+08         0.00000E+00
    0.00000E+00         0.00000E+00        -0.45073E+07
 
   -0.74479E+06        -0.15439E+06         0.00000E+00
   -0.15439E+06        -0.22402E+08         0.00000E+00
    0.00000E+00         0.00000E+00        -0.46293E+07
 
   -0.12026E+07        -0.22778E+06         0.00000E+00
   -0.22778E+06        -0.22568E+08         0.00000E+00
    0.00000E+00         0.00000E+00        -0.47542E+07
 
   -0.16207E+07        -0.23943E+06         0.00000E+00
   -0.23943E+06        -0.22732E+08         0.00000E+00
    0.00000E+00         0.00000E+00        -0.48706E+07
 
   -0.20095E+07        -0.17798E+06         0.00000E+00
   -0.17798E+06        -0.22887E+08         0.00000E+00
    0.00000E+00         0.00000E+00        -0.49794E+07
 
   -0.23788E+07        -0.39869E+05         0.00000E+00
   -0.39869E+05        -0.23026E+08         0.00000E+00
    0.00000E+00         0.00000E+00        -0.50810E+07
 
   -0.27387E+07         0.17413E+06         0.00000E+00
    0.17413E+06        -0.23142E+08         0.00000E+00
    0.00000E+00         0.00000E+00        -0.51761E+07
 
   -0.30981E+07         0.46019E+06         0.00000E+00
    0.46019E+06        -0.23229E+08         0.00000E+00
    0.00000E+00         0.00000E+00        -0.52654E+07
 
   -0.34642E+07         0.81265E+06         0.00000E+00
    0.81265E+06        -0.23282E+08         0.00000E+00
    0.00000E+00         0.00000E+00        -0.53493E+07
 
   -0.38418E+07         0.12252E+07         0.00000E+00
    0.12252E+07        -0.23298E+08         0.00000E+00
    0.00000E+00         0.00000E+00        -0.54280E+07
 
   -0.42330E+07         0.16924E+07         0.00000E+00
    0.16924E+07        -0.23275E+08         0.00000E+00
    0.00000E+00         0.00000E+00        -0.55016E+07
 
   -0.46378E+07         0.22110E+07         0.00000E+00
    0.22110E+07        -0.23211E+08         0.00000E+00
    0.00000E+00         0.00000E+00        -0.55697E+07
 
   -0.50562E+07         0.27821E+07         0.00000E+00
    0.27821E+07        -0.23105E+08         0.00000E+00
    0.00000E+00         0.00000E+00        -0.56322E+07
 
   -0.54926E+07         0.34112E+07         0.00000E+00
    0.34112E+07        -0.22953E+08         0.00000E+00
    0.00000E+00         0.00000E+00        -0.56891E+07
 
   -0.90361E+06        -0.37797E+05         0.00000E+00
   -0.37797E+05        -0.23272E+08         0.00000E+00
    0.00000E+00         0.00000E+00        -0.48825E+07
 
   -0.14579E+07        -0.16608E+06         0.00000E+00
   -0.16608E+06        -0.23357E+08         0.00000E+00
    0.00000E+00         0.00000E+00        -0.49630E+07
 
   -0.19302E+07        -0.29846E+06         0.00000E+00
   -0.29846E+06        -0.23512E+08         0.00000E+00
    0.00000E+00         0.00000E+00        -0.50884E+07
 
   -0.23286E+07        -0.37649E+06         0.00000E+00
   -0.37649E+06        -0.23687E+08         0.00000E+00
    0.00000E+00         0.00000E+00        -0.52031E+07
 
   -0.26729E+07        -0.38373E+06         0.00000E+00
   -0.38373E+06        -0.23868E+08         0.00000E+00
    0.00000E+00         0.00000E+00        -0.53081E+07
 
   -0.29810E+07        -0.31097E+06         0.00000E+00
   -0.31097E+06        -0.24042E+08         0.00000E+00
    0.00000E+00         0.00000E+00        -0.54047E+07
 
   -0.32686E+07        -0.15489E+06         0.00000E+00
   -0.15489E+06        -0.24202E+08         0.00000E+00
    0.00000E+00         0.00000E+00        -0.54942E+07
 
   -0.35495E+07         0.83152E+05         0.00000E+00
    0.83152E+05        -0.24340E+08         0.00000E+00
    0.00000E+00         0.00000E+00        -0.55779E+07
 
   -0.38351E+07         0.39855E+06         0.00000E+00
    0.39855E+06        -0.24448E+08         0.00000E+00
    0.00000E+00         0.00000E+00        -0.56567E+07
 
   -0.41343E+07         0.78455E+06         0.00000E+00
    0.78455E+06        -0.24523E+08         0.00000E+00
    0.00000E+00         0.00000E+00        -0.57314E+07
 
   -0.44518E+07         0.12335E+07         0.00000E+00
    0.12335E+07        -0.24559E+08         0.00000E+00
    0.00000E+00         0.00000E+00        -0.58022E+07
 
   -0.47886E+07         0.17383E+07         0.00000E+00
    0.17383E+07        -0.24556E+08         0.00000E+00
    0.00000E+00         0.00000E+00        -0.58689E+07
 
   -0.51409E+07         0.22944E+07         0.00000E+00
    0.22944E+07        -0.24513E+08         0.00000E+00
    0.00000E+00         0.00000E+00        -0.59307E+07
 
   -0.55025E+07         0.29030E+07         0.00000E+00
    0.29030E+07        -0.24431E+08         0.00000E+00
    0.00000E+00         0.00000E+00        -0.59867E+07
 
   -0.58720E+07         0.35748E+07         0.00000E+00
    0.35748E+07        -0.24309E+08         0.00000E+00
    0.00000E+00         0.00000E+00        -0.60361E+07
 
   -0.22184E+07        -0.98082E+05         0.00000E+00
   -0.98082E+05        -0.24437E+08         0.00000E+00
    0.00000E+00         0.00000E+00        -0.53324E+07
 
   -0.27917E+07        -0.29475E+06         0.00000E+00
   -0.29475E+06        -0.24529E+08         0.00000E+00
    0.00000E+00         0.00000E+00        -0.54640E+07
 
   -0.32153E+07        -0.45120E+06         0.00000E+00
   -0.45120E+06        -0.24689E+08         0.00000E+00
    0.00000E+00         0.00000E+00        -0.55809E+07
 
   -0.35421E+07        -0.54085E+06         0.00000E+00
   -0.54085E+06        -0.24875E+08         0.00000E+00
    0.00000E+00         0.00000E+00        -0.56835E+07
 
   -0.38031E+07        -0.54839E+06         0.00000E+00
   -0.54839E+06        -0.25072E+08         0.00000E+00
    0.00000E+00         0.00000E+00        -0.57750E+07
 
   -0.40224E+07        -0.46675E+06         0.00000E+00
   -0.46675E+06        -0.25266E+08         0.00000E+00
    0.00000E+00         0.00000E+00        -0.58576E+07
 
   -0.42209E+07        -0.29397E+06         0.00000E+00
   -0.29397E+06        -0.25446E+08         0.00000E+00
    0.00000E+00         0.00000E+00        -0.59335E+07
 
   -0.44161E+07        -0.32315E+05         0.00000E+00
   -0.32315E+05        -0.25606E+08         0.00000E+00
    0.00000E+00         0.00000E+00        -0.60044E+07
 
   -0.46225E+07         0.31250E+06         0.00000E+00
    0.31250E+06        -0.25737E+08         0.00000E+00
    0.00000E+00         0.00000E+00        -0.60719E+07
 
   -0.48504E+07         0.73233E+06         0.00000E+00
    0.73233E+06        -0.25834E+08         0.00000E+00
    0.00000E+00         0.00000E+00        -0.61370E+07
 
   -0.51053E+07         0.12179E+07         0.00000E+00
    0.12179E+07        -0.25894E+08         0.00000E+00
    0.00000E+00         0.00000E+00        -0.61999E+07
 
   -0.53868E+07         0.17605E+07         0.00000E+00
    0.17605E+07        -0.25915E+08         0.00000E+00
    0.00000E+00         0.00000E+00        -0.62604E+07
 
   -0.56878E+07         0.23531E+07         0.00000E+00
    0.23531E+07        -0.25898E+08         0.00000E+00
    0.00000E+00         0.00000E+00        -0.63171E+07
 
   -0.59925E+07         0.29948E+07         0.00000E+00
    0.29948E+07        -0.25843E+08         0.00000E+00
    0.00000E+00         0.00000E+00        -0.63672E+07
 
   -0.62851E+07         0.37011E+07         0.00000E+00
    0.37011E+07        -0.25758E+08         0.00000E+00
    0.00000E+00         0.00000E+00        -0.64086E+07
 
   -0.37207E+07        -0.15855E+06         0.00000E+00
   -0.15855E+06        -0.25672E+08         0.00000E+00
    0.00000E+00         0.00000E+00        -0.58786E+07
 
   -0.42503E+07        -0.42139E+06         0.00000E+00
   -0.42139E+06        -0.25776E+08         0.00000E+00
    0.00000E+00         0.00000E+00        -0.60053E+07
 
   -0.46047E+07        -0.61373E+06         0.00000E+00
   -0.61373E+06        -0.25939E+08         0.00000E+00
    0.00000E+00         0.00000E+00        -0.61087E+07
 
   -0.48463E+07        -0.72017E+06         0.00000E+00
   -0.72017E+06        -0.26134E+08         0.00000E+00
    0.00000E+00         0.00000E+00        -0.61961E+07
 
   -0.50128E+07        -0.73175E+06         0.00000E+00
   -0.73175E+06        -0.26343E+08         0.00000E+00
    0.00000E+00         0.00000E+00        -0.62712E+07
 
   -0.51342E+07        -0.64405E+06         0.00000E+00
   -0.64405E+06        -0.26553E+08         0.00000E+00
    0.00000E+00         0.00000E+00        -0.63374E+07
 
   -0.52352E+07        -0.45659E+06         0.00000E+00
   -0.45659E+06        -0.26752E+08         0.00000E+00
    0.00000E+00         0.00000E+00        -0.63974E+07
 
   -0.53375E+07        -0.17265E+06         0.00000E+00
   -0.17265E+06        -0.26932E+08         0.00000E+00
    0.00000E+00         0.00000E+00        -0.64539E+07
 
   -0.54589E+07         0.20056E+06         0.00000E+00
    0.20056E+06        -0.27085E+08         0.00000E+00
    0.00000E+00         0.00000E+00        -0.65088E+07
 
   -0.56116E+07         0.65295E+06         0.00000E+00
    0.65295E+06        -0.27206E+08         0.00000E+00
    0.00000E+00         0.00000E+00        -0.65636E+07
 
   -0.58015E+07         0.11736E+07         0.00000E+00
    0.11736E+07        -0.27294E+08         0.00000E+00
    0.00000E+00         0.00000E+00        -0.66190E+07
 
   -0.60275E+07         0.17520E+07         0.00000E+00
    0.17520E+07        -0.27346E+08         0.00000E+00
    0.00000E+00         0.00000E+00        -0.66746E+07
 
   -0.62792E+07         0.23793E+07         0.00000E+00
    0.23793E+07        -0.27363E+08         0.00000E+00
    0.00000E+00         0.00000E+00        -0.67285E+07
 
   -0.65334E+07         0.30510E+07         0.00000E+00
    0.30510E+07        -0.27350E+08         0.00000E+00
    0.00000E+00         0.00000E+00        -0.67767E+07
 
   -0.67398E+07         0.37777E+07         0.00000E+00
    0.37777E+07        -0.27313E+08         0.00000E+00
    0.00000E+00         0.00000E+00        -0.68105E+07
 
   -0.54022E+07        -0.21053E+06         0.00000E+00
   -0.21053E+06        -0.27006E+08         0.00000E+00
    0.00000E+00         0.00000E+00        -0.64817E+07
 
   -0.58408E+07        -0.54904E+06         0.00000E+00
   -0.54904E+06        -0.27102E+08         0.00000E+00
    0.00000E+00         0.00000E+00        -0.65886E+07
 
   -0.61027E+07        -0.78233E+06         0.00000E+00
   -0.78233E+06        -0.27264E+08         0.00000E+00
    0.00000E+00         0.00000E+00        -0.66734E+07
 
   -0.62427E+07        -0.91018E+06         0.00000E+00
   -0.91018E+06        -0.27462E+08         0.00000E+00
    0.00000E+00         0.00000E+00        -0.67410E+07
 
   -0.63029E+07        -0.92940E+06         0.00000E+00
   -0.92940E+06        -0.27678E+08         0.00000E+00
    0.00000E+00         0.00000E+00        -0.67961E+07
 
   -0.63165E+07        -0.83888E+06         0.00000E+00
   -0.83888E+06        -0.27897E+08         0.00000E+00
    0.00000E+00         0.00000E+00        -0.68427E+07
 
   -0.63114E+07        -0.63980E+06         0.00000E+00
   -0.63980E+06        -0.28109E+08         0.00000E+00
    0.00000E+00         0.00000E+00        -0.68841E+07
 
   -0.63131E+07        -0.33639E+06         0.00000E+00
   -0.33639E+06        -0.28305E+08         0.00000E+00
    0.00000E+00         0.00000E+00        -0.69236E+07
 
   -0.63440E+07         0.63114E+05         0.00000E+00
    0.63114E+05        -0.28478E+08         0.00000E+00
    0.00000E+00         0.00000E+00        -0.69644E+07
 
   -0.64187E+07         0.54448E+06         0.00000E+00
    0.54448E+06        -0.28622E+08         0.00000E+00
    0.00000E+00         0.00000E+00        -0.70081E+07
 
   -0.65422E+07         0.10945E+07         0.00000E+00
    0.10945E+07        -0.28739E+08         0.00000E+00
    0.00000E+00         0.00000E+00        -0.70563E+07
 
   -0.67132E+07         0.17029E+07         0.00000E+00
    0.17029E+07        -0.28831E+08         0.00000E+00
    0.00000E+00         0.00000E+00        -0.71088E+07
 
   -0.69191E+07         0.23569E+07         0.00000E+00
    0.23569E+07        -0.28898E+08         0.00000E+00
    0.00000E+00         0.00000E+00        -0.71634E+07
 
   -0.71329E+07         0.30489E+07         0.00000E+00
    0.30489E+07        -0.28947E+08         0.00000E+00
    0.00000E+00         0.00000E+00        -0.72161E+07
 
   -0.72695E+07         0.37696E+07         0.00000E+00
    0.37696E+07        -0.29023E+08         0.00000E+00
    0.00000E+00         0.00000E+00        -0.72712E+07
 
   -0.72530E+07        -0.25923E+06         0.00000E+00
   -0.25923E+06        -0.28417E+08         0.00000E+00
    0.00000E+00         0.00000E+00        -0.71340E+07
 
   -0.75671E+07        -0.67166E+06         0.00000E+00
   -0.67166E+06        -0.28508E+08         0.00000E+00
    0.00000E+00         0.00000E+00        -0.72151E+07
 
   -0.77101E+07        -0.95086E+06         0.00000E+00
   -0.95086E+06        -0.28663E+08         0.00000E+00
    0.00000E+00         0.00000E+00        -0.72747E+07
 
   -0.77318E+07        -0.11037E+07         0.00000E+00
   -0.11037E+07        -0.28857E+08         0.00000E+00
    0.00000E+00         0.00000E+00        -0.73177E+07
 
   -0.76736E+07        -0.11338E+07         0.00000E+00
   -0.11338E+07        -0.29070E+08         0.00000E+00
    0.00000E+00         0.00000E+00        -0.73486E+07
 
   -0.75695E+07        -0.10440E+07         0.00000E+00
   -0.10440E+07        -0.29289E+08         0.00000E+00
    0.00000E+00         0.00000E+00        -0.73717E+07
 
   -0.74499E+07        -0.83708E+06         0.00000E+00
   -0.83708E+06        -0.29504E+08         0.00000E+00
    0.00000E+00         0.00000E+00        -0.73908E+07
 
   -0.73433E+07        -0.51842E+06         0.00000E+00
   -0.51842E+06        -0.29708E+08         0.00000E+00
    0.00000E+00         0.00000E+00        -0.74102E+07
 
   -0.72777E+07        -0.97537E+05         0.00000E+00
   -0.97537E+05        -0.29893E+08         0.00000E+00
    0.00000E+00         0.00000E+00        -0.74340E+07
 
   -0.72757E+07         0.40877E+06         0.00000E+00
    0.40877E+06        -0.30059E+08         0.00000E+00
    0.00000E+00         0.00000E+00        -0.74669E+07
 
   -0.73327E+07         0.97719E+06         0.00000E+00
    0.97719E+06        -0.30201E+08         0.00000E+00
    0.00000E+00         0.00000E+00        -0.75068E+07
 
   -0.74471E+07         0.16012E+07         0.00000E+00
    0.16012E+07        -0.30338E+08         0.00000E+00
    0.00000E+00         0.00000E+00        -0.75693E+07
 
   -0.76049E+07         0.22763E+07         0.00000E+00
    0.22763E+07        -0.30459E+08         0.00000E+00
    0.00000E+00         0.00000E+00        -0.76610E+07
 
   -0.77777E+07         0.29903E+07         0.00000E+00
    0.29903E+07        -0.30543E+08         0.00000E+00
    0.00000E+00         0.00000E+00        -0.77941E+07
 
   -0.80308E+07         0.36614E+07         0.00000E+00
    0.36614E+07        -0.30600E+08         0.00000E+00
    0.00000E+00         0.00000E+00        -0.80361E+07
 
   -0.92643E+07        -0.30504E+06         0.00000E+00
   -0.30504E+06        -0.29901E+08         0.00000E+00
    0.00000E+00         0.00000E+00        -0.78331E+07
 
   -0.94252E+07        -0.78793E+06         0.00000E+00
   -0.78793E+06        -0.29986E+08         0.00000E+00
    0.00000E+00         0.00000E+00        -0.78822E+07
 
   -0.94256E+07        -0.11128E+07         0.00000E+00
   -0.11128E+07        -0.30130E+08         0.00000E+00
    0.00000E+00         0.00000E+00        -0.79112E+07
 
   -0.93120E+07        -0.12919E+07         0.00000E+00
   -0.12919E+07        -0.30311E+08         0.00000E+00
    0.00000E+00         0.00000E+00        -0.79246E+07
 
   -0.91234E+07        -0.13349E+07         0.00000E+00
   -0.13349E+07        -0.30511E+08         0.00000E+00
    0.00000E+00         0.00000E+00        -0.79269E+07
 
   -0.88929E+07        -0.12483E+07         0.00000E+00
   -0.12483E+07        -0.30718E+08         0.00000E+00
    0.00000E+00         0.00000E+00        -0.79222E+07
 
   -0.86504E+07        -0.10375E+07         0.00000E+00
   -0.10375E+07        -0.30923E+08         0.00000E+00
    0.00000E+00         0.00000E+00        -0.79147E+07
 
   -0.84292E+07        -0.70692E+06         0.00000E+00
   -0.70692E+06        -0.31119E+08         0.00000E+00
    0.00000E+00         0.00000E+00        -0.79097E+07
 
   -0.82596E+07        -0.26993E+06         0.00000E+00
   -0.26993E+06        -0.31301E+08         0.00000E+00
    0.00000E+00         0.00000E+00        -0.79122E+07
 
   -0.81823E+07         0.24919E+06         0.00000E+00
    0.24919E+06        -0.31455E+08         0.00000E+00
    0.00000E+00         0.00000E+00        -0.79589E+07
 
   -0.81651E+07         0.83866E+06         0.00000E+00
    0.83866E+06        -0.31619E+08         0.00000E+00
    0.00000E+00         0.00000E+00        -0.80377E+07
 
   -0.82262E+07         0.14952E+07         0.00000E+00
    0.14952E+07        -0.31735E+08         0.00000E+00
    0.00000E+00         0.00000E+00        -0.82032E+07
 
   -0.83492E+07         0.22004E+07         0.00000E+00
    0.22004E+07        -0.31811E+08         0.00000E+00
    0.00000E+00         0.00000E+00        -0.84374E+07
 
   -0.85484E+07         0.29068E+07         0.00000E+00
    0.29068E+07        -0.31889E+08         0.00000E+00
    0.00000E+00         0.00000E+00        -0.86984E+07
 
   -0.88567E+07         0.35716E+07         0.00000E+00
    0.35716E+07        -0.31981E+08         0.00000E+00
    0.00000E+00         0.00000E+00        -0.89368E+07
 
   -0.11426E+08        -0.34744E+06         0.00000E+00
   -0.34744E+06        -0.31454E+08         0.00000E+00
    0.00000E+00         0.00000E+00        -0.85759E+07
 
   -0.11407E+08        -0.89529E+06         0.00000E+00
   -0.89529E+06        -0.31530E+08         0.00000E+00
    0.00000E+00         0.00000E+00        -0.85874E+07
 
   -0.11243E+08        -0.12621E+07         0.00000E+00
   -0.12621E+07        -0.31659E+08         0.00000E+00
    0.00000E+00         0.00000E+00        -0.85805E+07
 
   -0.10978E+08        -0.14656E+07         0.00000E+00
   -0.14656E+07        -0.31819E+08         0.00000E+00
    0.00000E+00         0.00000E+00        -0.85596E+07
 
   -0.10649E+08        -0.15204E+07         0.00000E+00
   -0.15204E+07        -0.31995E+08         0.00000E+00
    0.00000E+00         0.00000E+00        -0.85287E+07
 
   -0.10284E+08        -0.14377E+07         0.00000E+00
   -0.14377E+07        -0.32176E+08         0.00000E+00
    0.00000E+00         0.00000E+00        -0.84918E+07
 
   -0.99116E+07        -0.12243E+07         0.00000E+00
   -0.12243E+07        -0.32354E+08         0.00000E+00
    0.00000E+00         0.00000E+00        -0.84531E+07
 
   -0.95629E+07        -0.88340E+06         0.00000E+00
   -0.88340E+06        -0.32522E+08         0.00000E+00
    0.00000E+00         0.00000E+00        -0.84169E+07
 
   -0.92956E+07        -0.42983E+06         0.00000E+00
   -0.42983E+06        -0.32663E+08         0.00000E+00
    0.00000E+00         0.00000E+00        -0.84270E+07
 
   -0.91191E+07         0.11019E+06         0.00000E+00
    0.11019E+06        -0.32815E+08         0.00000E+00
    0.00000E+00         0.00000E+00        -0.85231E+07
 
   -0.90589E+07         0.72276E+06         0.00000E+00
    0.72276E+06        -0.32920E+08         0.00000E+00
    0.00000E+00         0.00000E+00        -0.87630E+07
 
   -0.90573E+07         0.13923E+07         0.00000E+00
    0.13923E+07        -0.33023E+08         0.00000E+00
    0.00000E+00         0.00000E+00        -0.90369E+07
 
   -0.91554E+07         0.20979E+07         0.00000E+00
    0.20979E+07        -0.33136E+08         0.00000E+00
    0.00000E+00         0.00000E+00        -0.93232E+07
 
   -0.93692E+07         0.28074E+07         0.00000E+00
    0.28074E+07        -0.33248E+08         0.00000E+00
    0.00000E+00         0.00000E+00        -0.95936E+07
 
   -0.96961E+07         0.35089E+07         0.00000E+00
    0.35089E+07        -0.33330E+08         0.00000E+00
    0.00000E+00         0.00000E+00        -0.98029E+07
 
   -0.13724E+08        -0.38562E+06         0.00000E+00
   -0.38562E+06        -0.33069E+08         0.00000E+00
    0.00000E+00         0.00000E+00        -0.93587E+07
 
   -0.13501E+08        -0.99086E+06         0.00000E+00
   -0.99086E+06        -0.33135E+08         0.00000E+00
    0.00000E+00         0.00000E+00        -0.93273E+07
 
   -0.13153E+08        -0.13932E+07         0.00000E+00
   -0.13932E+07        -0.33245E+08         0.00000E+00
    0.00000E+00         0.00000E+00        -0.92796E+07
 
   -0.12722E+08        -0.16154E+07         0.00000E+00
   -0.16154E+07        -0.33377E+08         0.00000E+00
    0.00000E+00         0.00000E+00        -0.92198E+07
 
   -0.12241E+08        -0.16778E+07         0.00000E+00
   -0.16778E+07        -0.33517E+08         0.00000E+00
    0.00000E+00         0.00000E+00        -0.91517E+07
 
   -0.11736E+08        -0.15961E+07         0.00000E+00
   -0.15961E+07        -0.33657E+08         0.00000E+00
    0.00000E+00         0.00000E+00        -0.90786E+07
 
   -0.11227E+08        -0.13791E+07         0.00000E+00
   -0.13791E+07        -0.33790E+08         0.00000E+00
    0.00000E+00         0.00000E+00        -0.90035E+07
 
   -0.10742E+08        -0.10250E+07         0.00000E+00
   -0.10250E+07        -0.33912E+08         0.00000E+00
    0.00000E+00         0.00000E+00        -0.89357E+07
 
   -0.10357E+08        -0.55550E+06         0.00000E+00
   -0.55550E+06        -0.34024E+08         0.00000E+00
    0.00000E+00         0.00000E+00        -0.89792E+07
 
   -0.10138E+08        -0.10618E+05         0.00000E+00
   -0.10618E+05        -0.34123E+08         0.00000E+00
    0.00000E+00         0.00000E+00        -0.92341E+07
 
   -0.99919E+07         0.60117E+06         0.00000E+00
    0.60117E+06        -0.34235E+08         0.00000E+00
    0.00000E+00         0.00000E+00        -0.95451E+07
 
   -0.99434E+07         0.12697E+07         0.00000E+00
    0.12697E+07        -0.34357E+08         0.00000E+00
    0.00000E+00         0.00000E+00        -0.98683E+07
 
   -0.10014E+08         0.19759E+07         0.00000E+00
    0.19759E+07        -0.34483E+08         0.00000E+00
    0.00000E+00         0.00000E+00        -0.10181E+08
 
   -0.10216E+08         0.27080E+07         0.00000E+00
    0.27080E+07        -0.34598E+08         0.00000E+00
    0.00000E+00         0.00000E+00        -0.10454E+08
 
   -0.10549E+08         0.34506E+07         0.00000E+00
    0.34506E+07        -0.34680E+08         0.00000E+00
    0.00000E+00         0.00000E+00        -0.10663E+08
 
   -0.16144E+08        -0.41896E+06         0.00000E+00
   -0.41896E+06        -0.34741E+08         0.00000E+00
    0.00000E+00         0.00000E+00        -0.10177E+08
 
   -0.15693E+08        -0.10722E+07         0.00000E+00
   -0.10722E+07        -0.34796E+08         0.00000E+00
    0.00000E+00         0.00000E+00        -0.10098E+08
 
   -0.15141E+08        -0.15007E+07         0.00000E+00
   -0.15007E+07        -0.34881E+08         0.00000E+00
    0.00000E+00         0.00000E+00        -0.10005E+08
 
   -0.14531E+08        -0.17328E+07         0.00000E+00
   -0.17328E+07        -0.34979E+08         0.00000E+00
    0.00000E+00         0.00000E+00        -0.99019E+07
 
   -0.13891E+08        -0.17953E+07         0.00000E+00
   -0.17953E+07        -0.35074E+08         0.00000E+00
    0.00000E+00         0.00000E+00        -0.97929E+07
 
   -0.13240E+08        -0.17096E+07         0.00000E+00
   -0.17096E+07        -0.35161E+08         0.00000E+00
    0.00000E+00         0.00000E+00        -0.96803E+07
 
   -0.12591E+08        -0.14861E+07         0.00000E+00
   -0.14861E+07        -0.35238E+08         0.00000E+00
    0.00000E+00         0.00000E+00        -0.95658E+07
 
   -0.11954E+08        -0.11239E+07         0.00000E+00
   -0.11239E+07        -0.35303E+08         0.00000E+00
    0.00000E+00         0.00000E+00        -0.94725E+07
 
   -0.11499E+08        -0.65975E+06         0.00000E+00
   -0.65975E+06        -0.35376E+08         0.00000E+00
    0.00000E+00         0.00000E+00        -0.96238E+07
 
   -0.11200E+08        -0.12881E+06         0.00000E+00
   -0.12881E+06        -0.35463E+08         0.00000E+00
    0.00000E+00         0.00000E+00        -0.99520E+07
 
   -0.10985E+08         0.47294E+06         0.00000E+00
    0.47294E+06        -0.35571E+08         0.00000E+00
    0.00000E+00         0.00000E+00        -0.10303E+08
 
   -0.10881E+08         0.11351E+07         0.00000E+00
    0.11351E+07        -0.35694E+08         0.00000E+00
    0.00000E+00         0.00000E+00        -0.10657E+08
 
   -0.10910E+08         0.18490E+07         0.00000E+00
    0.18490E+07        -0.35824E+08         0.00000E+00
    0.00000E+00         0.00000E+00        -0.10995E+08
 
   -0.11084E+08         0.26052E+07         0.00000E+00
    0.26052E+07        -0.35943E+08         0.00000E+00
    0.00000E+00         0.00000E+00        -0.11291E+08
 
   -0.11411E+08         0.33867E+07         0.00000E+00
    0.33867E+07        -0.36034E+08         0.00000E+00
    0.00000E+00         0.00000E+00        -0.11519E+08
 
   -0.18670E+08        -0.44732E+06         0.00000E+00
   -0.44732E+06        -0.36463E+08         0.00000E+00
    0.00000E+00         0.00000E+00        -0.11026E+08
 
   -0.17965E+08        -0.11377E+07         0.00000E+00
   -0.11377E+07        -0.36505E+08         0.00000E+00
    0.00000E+00         0.00000E+00        -0.10894E+08
 
   -0.17190E+08        -0.15804E+07         0.00000E+00
   -0.15804E+07        -0.36565E+08         0.00000E+00
    0.00000E+00         0.00000E+00        -0.10751E+08
 
   -0.16386E+08        -0.18106E+07         0.00000E+00
   -0.18106E+07        -0.36622E+08         0.00000E+00
    0.00000E+00         0.00000E+00        -0.10602E+08
 
   -0.15582E+08        -0.18633E+07         0.00000E+00
   -0.18633E+07        -0.36664E+08         0.00000E+00
    0.00000E+00         0.00000E+00        -0.10449E+08
 
   -0.14787E+08        -0.17674E+07         0.00000E+00
   -0.17674E+07        -0.36689E+08         0.00000E+00
    0.00000E+00         0.00000E+00        -0.10295E+08
 
   -0.13995E+08        -0.15384E+07         0.00000E+00
   -0.15384E+07        -0.36702E+08         0.00000E+00
    0.00000E+00         0.00000E+00        -0.10139E+08
 
   -0.13225E+08        -0.11842E+07         0.00000E+00
   -0.11842E+07        -0.36710E+08         0.00000E+00
    0.00000E+00         0.00000E+00        -0.10040E+08
 
   -0.12712E+08        -0.74490E+06         0.00000E+00
   -0.74490E+06        -0.36748E+08         0.00000E+00
    0.00000E+00         0.00000E+00        -0.10280E+08
 
   -0.12325E+08        -0.23632E+06         0.00000E+00
   -0.23632E+06        -0.36810E+08         0.00000E+00
    0.00000E+00         0.00000E+00        -0.10632E+08
 
   -0.12037E+08         0.34732E+06         0.00000E+00
    0.34732E+06        -0.36902E+08         0.00000E+00
    0.00000E+00         0.00000E+00        -0.11006E+08
 
   -0.11869E+08         0.99933E+06         0.00000E+00
    0.99933E+06        -0.37019E+08         0.00000E+00
    0.00000E+00         0.00000E+00        -0.11388E+08
 
   -0.11840E+08         0.17159E+07         0.00000E+00
    0.17159E+07        -0.37149E+08         0.00000E+00
    0.00000E+00         0.00000E+00        -0.11759E+08
 
   -0.11971E+08         0.24908E+07         0.00000E+00
    0.24908E+07        -0.37279E+08         0.00000E+00
    0.00000E+00         0.00000E+00        -0.12096E+08
 
   -0.12279E+08         0.33083E+07         0.00000E+00
    0.33083E+07        -0.37387E+08         0.00000E+00
    0.00000E+00         0.00000E+00        -0.12364E+08
 
   -0.21281E+08        -0.47110E+06         0.00000E+00
   -0.47110E+06        -0.38226E+08         0.00000E+00
    0.00000E+00         0.00000E+00        -0.11901E+08
 
   -0.20296E+08        -0.11866E+07         0.00000E+00
   -0.11866E+07        -0.38255E+08         0.00000E+00
    0.00000E+00         0.00000E+00        -0.11710E+08
 
   -0.19277E+08        -0.16288E+07         0.00000E+00
   -0.16288E+07        -0.38287E+08         0.00000E+00
    0.00000E+00         0.00000E+00        -0.11513E+08
 
   -0.18269E+08        -0.18426E+07         0.00000E+00
   -0.18426E+07        -0.38298E+08         0.00000E+00
    0.00000E+00         0.00000E+00        -0.11313E+08
 
   -0.17298E+08        -0.18738E+07         0.00000E+00
   -0.18738E+07        -0.38281E+08         0.00000E+00
    0.00000E+00         0.00000E+00        -0.11116E+08
 
   -0.16365E+08        -0.17617E+07         0.00000E+00
   -0.17617E+07        -0.38237E+08         0.00000E+00
    0.00000E+00         0.00000E+00        -0.10920E+08
 
   -0.15444E+08        -0.15325E+07         0.00000E+00
   -0.15325E+07        -0.38181E+08         0.00000E+00
    0.00000E+00         0.00000E+00        -0.10725E+08
 
   -0.14575E+08        -0.12038E+07         0.00000E+00
   -0.12038E+07        -0.38134E+08         0.00000E+00
    0.00000E+00         0.00000E+00        -0.10625E+08
 
   -0.13989E+08        -0.79908E+06         0.00000E+00
   -0.79908E+06        -0.38120E+08         0.00000E+00
    0.00000E+00         0.00000E+00        -0.10894E+08
 
   -0.13519E+08        -0.32126E+06         0.00000E+00
   -0.32126E+06        -0.38146E+08         0.00000E+00
    0.00000E+00         0.00000E+00        -0.11251E+08
 
   -0.13153E+08         0.23308E+06         0.00000E+00
    0.23308E+06        -0.38213E+08         0.00000E+00
    0.00000E+00         0.00000E+00        -0.11637E+08
 
   -0.12909E+08         0.86430E+06         0.00000E+00
    0.86430E+06        -0.38320E+08         0.00000E+00
    0.00000E+00         0.00000E+00        -0.12046E+08
 
   -0.12809E+08         0.15726E+07         0.00000E+00
    0.15726E+07        -0.38453E+08         0.00000E+00
    0.00000E+00         0.00000E+00        -0.12462E+08
 
   -0.12877E+08         0.23560E+07         0.00000E+00
    0.23560E+07        -0.38599E+08         0.00000E+00
    0.00000E+00         0.00000E+00        -0.12858E+08
 
   -0.13149E+08         0.32063E+07         0.00000E+00
    0.32063E+07        -0.38737E+08         0.00000E+00
    0.00000E+00         0.00000E+00        -0.13191E+08
 
   -0.23960E+08        -0.49104E+06         0.00000E+00
   -0.49104E+06        -0.40022E+08         0.00000E+00
    0.00000E+00         0.00000E+00        -0.12796E+08
 
   -0.22663E+08        -0.12175E+07         0.00000E+00
   -0.12175E+07        -0.40038E+08         0.00000E+00
    0.00000E+00         0.00000E+00        -0.12540E+08
 
   -0.21377E+08        -0.16409E+07         0.00000E+00
   -0.16409E+07        -0.40036E+08         0.00000E+00
    0.00000E+00         0.00000E+00        -0.12283E+08
 
   -0.20157E+08        -0.18218E+07         0.00000E+00
   -0.18218E+07        -0.39995E+08         0.00000E+00
    0.00000E+00         0.00000E+00        -0.12030E+08
 
   -0.19023E+08        -0.18204E+07         0.00000E+00
   -0.18204E+07        -0.39910E+08         0.00000E+00
    0.00000E+00         0.00000E+00        -0.11787E+08
 
   -0.17966E+08        -0.16871E+07         0.00000E+00
   -0.16871E+07        -0.39793E+08         0.00000E+00
    0.00000E+00         0.00000E+00        -0.11552E+08
 
   -0.16948E+08        -0.14618E+07         0.00000E+00
   -0.14618E+07        -0.39663E+08         0.00000E+00
    0.00000E+00         0.00000E+00        -0.11322E+08
 
   -0.16002E+08        -0.11699E+07         0.00000E+00
   -0.11699E+07        -0.39548E+08         0.00000E+00
    0.00000E+00         0.00000E+00        -0.11201E+08
 
   -0.15337E+08        -0.80866E+06         0.00000E+00
   -0.80866E+06        -0.39475E+08         0.00000E+00
    0.00000E+00         0.00000E+00        -0.11447E+08
 
   -0.14789E+08        -0.37418E+06         0.00000E+00
   -0.37418E+06        -0.39453E+08         0.00000E+00
    0.00000E+00         0.00000E+00        -0.11788E+08
 
   -0.14341E+08         0.13541E+06         0.00000E+00
    0.13541E+06        -0.39490E+08         0.00000E+00
    0.00000E+00         0.00000E+00        -0.12177E+08
 
   -0.14012E+08         0.72930E+06         0.00000E+00
    0.72930E+06        -0.39585E+08         0.00000E+00
    0.00000E+00         0.00000E+00        -0.12615E+08
 
   -0.13824E+08         0.14142E+07         0.00000E+00
    0.14142E+07        -0.39727E+08         0.00000E+00
    0.00000E+00         0.00000E+00        -0.13086E+08
 
   -0.13808E+08         0.21919E+07         0.00000E+00
    0.21919E+07        -0.39898E+08         0.00000E+00
    0.00000E+00         0.00000E+00        -0.13563E+08
 
   -0.14019E+08         0.30570E+07         0.00000E+00
    0.30570E+07        -0.40078E+08         0.00000E+00
    0.00000E+00         0.00000E+00        -0.13987E+08
 
   -0.26686E+08        -0.50755E+06         0.00000E+00
   -0.50755E+06        -0.41841E+08         0.00000E+00
    0.00000E+00         0.00000E+00        -0.13705E+08
 
   -0.25036E+08        -0.12264E+07         0.00000E+00
   -0.12264E+07        -0.41840E+08         0.00000E+00
    0.00000E+00         0.00000E+00        -0.13375E+08
 
   -0.23463E+08        -0.16071E+07         0.00000E+00
   -0.16071E+07        -0.41794E+08         0.00000E+00
    0.00000E+00         0.00000E+00        -0.13051E+08
 
   -0.22028E+08        -0.17368E+07         0.00000E+00
   -0.17368E+07        -0.41685E+08         0.00000E+00
    0.00000E+00         0.00000E+00        -0.12743E+08
 
   -0.20742E+08        -0.16948E+07         0.00000E+00
   -0.16948E+07        -0.41522E+08         0.00000E+00
    0.00000E+00         0.00000E+00        -0.12453E+08
 
   -0.19582E+08        -0.15405E+07         0.00000E+00
   -0.15405E+07        -0.41326E+08         0.00000E+00
    0.00000E+00         0.00000E+00        -0.12182E+08
 
   -0.18506E+08        -0.13207E+07         0.00000E+00
   -0.13207E+07        -0.41122E+08         0.00000E+00
    0.00000E+00         0.00000E+00        -0.11926E+08
 
   -0.17504E+08        -0.10695E+07         0.00000E+00
   -0.10695E+07        -0.40943E+08         0.00000E+00
    0.00000E+00         0.00000E+00        -0.11746E+08
 
   -0.16764E+08        -0.76139E+06         0.00000E+00
   -0.76139E+06        -0.40794E+08         0.00000E+00
    0.00000E+00         0.00000E+00        -0.11924E+08
 
   -0.16145E+08        -0.38593E+06         0.00000E+00
   -0.38593E+06        -0.40719E+08         0.00000E+00
    0.00000E+00         0.00000E+00        -0.12231E+08
 
   -0.15615E+08         0.59174E+05         0.00000E+00
    0.59174E+05        -0.40719E+08         0.00000E+00
    0.00000E+00         0.00000E+00        -0.12610E+08
 
   -0.15191E+08         0.59175E+06         0.00000E+00
    0.59175E+06        -0.40800E+08         0.00000E+00
    0.00000E+00         0.00000E+00        -0.13071E+08
 
   -0.14899E+08         0.12301E+07         0.00000E+00
    0.12301E+07        -0.40957E+08         0.00000E+00
    0.00000E+00         0.00000E+00        -0.13609E+08
 
   -0.14777E+08         0.19843E+07         0.00000E+00
    0.19843E+07        -0.41170E+08         0.00000E+00
    0.00000E+00         0.00000E+00        -0.14191E+08
 
   -0.14889E+08         0.28584E+07         0.00000E+00
    0.28584E+07        -0.41404E+08         0.00000E+00
    0.00000E+00         0.00000E+00        -0.14745E+08
 
   -0.29435E+08        -0.51969E+06         0.00000E+00
   -0.51969E+06        -0.43670E+08         0.00000E+00
    0.00000E+00         0.00000E+00        -0.14621E+08
 
   -0.27376E+08        -0.12013E+07         0.00000E+00
   -0.12013E+07        -0.43643E+08         0.00000E+00
    0.00000E+00         0.00000E+00        -0.14204E+08
 
   -0.25498E+08        -0.15061E+07         0.00000E+00
   -0.15061E+07        -0.43530E+08         0.00000E+00
    0.00000E+00         0.00000E+00        -0.13805E+08
 
   -0.23861E+08        -0.15675E+07         0.00000E+00
   -0.15675E+07        -0.43326E+08         0.00000E+00
    0.00000E+00         0.00000E+00        -0.13437E+08
 
   -0.22449E+08        -0.14852E+07         0.00000E+00
   -0.14852E+07        -0.43065E+08         0.00000E+00
    0.00000E+00         0.00000E+00        -0.13103E+08
 
   -0.21212E+08        -0.13198E+07         0.00000E+00
   -0.13198E+07        -0.42785E+08         0.00000E+00
    0.00000E+00         0.00000E+00        -0.12799E+08
 
   -0.20103E+08        -0.11111E+07         0.00000E+00
   -0.11111E+07        -0.42512E+08         0.00000E+00
    0.00000E+00         0.00000E+00        -0.12523E+08
 
   -0.19092E+08        -0.89618E+06         0.00000E+00
   -0.89618E+06        -0.42271E+08         0.00000E+00
    0.00000E+00         0.00000E+00        -0.12293E+08
 
   -0.18270E+08        -0.65322E+06         0.00000E+00
   -0.65322E+06        -0.42061E+08         0.00000E+00
    0.00000E+00         0.00000E+00        -0.12320E+08
 
   -0.17599E+08        -0.34986E+06         0.00000E+00
   -0.34986E+06        -0.41927E+08         0.00000E+00
    0.00000E+00         0.00000E+00        -0.12572E+08
 
   -0.16996E+08         0.11837E+05         0.00000E+00
    0.11837E+05        -0.41886E+08         0.00000E+00
    0.00000E+00         0.00000E+00        -0.12924E+08
 
   -0.16471E+08         0.45280E+06         0.00000E+00
    0.45280E+06        -0.41947E+08         0.00000E+00
    0.00000E+00         0.00000E+00        -0.13393E+08
 
   -0.16055E+08         0.10093E+07         0.00000E+00
    0.10093E+07        -0.42122E+08         0.00000E+00
    0.00000E+00         0.00000E+00        -0.13996E+08
 
   -0.15792E+08         0.17138E+07         0.00000E+00
    0.17138E+07        -0.42393E+08         0.00000E+00
    0.00000E+00         0.00000E+00        -0.14713E+08
 
   -0.15762E+08         0.25806E+07         0.00000E+00
    0.25806E+07        -0.42716E+08         0.00000E+00
    0.00000E+00         0.00000E+00        -0.15460E+08
 
   -0.32169E+08        -0.52237E+06         0.00000E+00
   -0.52237E+06        -0.45496E+08         0.00000E+00
    0.00000E+00         0.00000E+00        -0.15533E+08
 
   -0.29626E+08        -0.11114E+07         0.00000E+00
   -0.11114E+07        -0.45414E+08         0.00000E+00
    0.00000E+00         0.00000E+00        -0.15008E+08
 
   -0.27446E+08        -0.12964E+07         0.00000E+00
   -0.12964E+07        -0.45181E+08         0.00000E+00
    0.00000E+00         0.00000E+00        -0.14525E+08
 
   -0.25648E+08        -0.12834E+07         0.00000E+00
   -0.12834E+07        -0.44841E+08         0.00000E+00
    0.00000E+00         0.00000E+00        -0.14098E+08
 
   -0.24148E+08        -0.11776E+07         0.00000E+00
   -0.11776E+07        -0.44465E+08         0.00000E+00
    0.00000E+00         0.00000E+00        -0.13723E+08
 
   -0.22865E+08        -0.10234E+07         0.00000E+00
   -0.10234E+07        -0.44097E+08         0.00000E+00
    0.00000E+00         0.00000E+00        -0.13392E+08
 
   -0.21739E+08        -0.84636E+06         0.00000E+00
   -0.84636E+06        -0.43763E+08         0.00000E+00
    0.00000E+00         0.00000E+00        -0.13101E+08
 
   -0.20746E+08        -0.66790E+06         0.00000E+00
   -0.66790E+06        -0.43478E+08         0.00000E+00
    0.00000E+00         0.00000E+00        -0.12845E+08
 
   -0.19873E+08        -0.48578E+06         0.00000E+00
   -0.48578E+06        -0.43258E+08         0.00000E+00
    0.00000E+00         0.00000E+00        -0.12687E+08
 
   -0.19154E+08        -0.26470E+06         0.00000E+00
   -0.26470E+06        -0.43063E+08         0.00000E+00
    0.00000E+00         0.00000E+00        -0.12815E+08
 
   -0.18499E+08        -0.30958E+03         0.00000E+00
   -0.30958E+03        -0.42981E+08         0.00000E+00
    0.00000E+00         0.00000E+00        -0.13118E+08
 
   -0.17888E+08         0.32374E+06         0.00000E+00
    0.32374E+06        -0.43018E+08         0.00000E+00
    0.00000E+00         0.00000E+00        -0.13569E+08
 
   -0.17329E+08         0.74667E+06         0.00000E+00
    0.74667E+06        -0.43198E+08         0.00000E+00
    0.00000E+00         0.00000E+00        -0.14213E+08
 
   -0.16883E+08         0.13466E+07         0.00000E+00
    0.13466E+07        -0.43549E+08         0.00000E+00
    0.00000E+00         0.00000E+00        -0.15090E+08
 
   -0.16645E+08         0.21728E+07         0.00000E+00
    0.21728E+07        -0.44013E+08         0.00000E+00
    0.00000E+00         0.00000E+00        -0.16118E+08
 
   -0.34818E+08        -0.49488E+06         0.00000E+00
   -0.49488E+06        -0.47293E+08         0.00000E+00
    0.00000E+00         0.00000E+00        -0.16422E+08
 
   -0.31706E+08        -0.87758E+06         0.00000E+00
   -0.87758E+06        -0.47068E+08         0.00000E+00
    0.00000E+00         0.00000E+00        -0.15755E+08
 
   -0.29287E+08        -0.91472E+06         0.00000E+00
   -0.91472E+06        -0.46624E+08         0.00000E+00
    0.00000E+00         0.00000E+00        -0.15182E+08
 
   -0.27400E+08        -0.85909E+06         0.00000E+00
   -0.85909E+06        -0.46120E+08         0.00000E+00
    0.00000E+00         0.00000E+00        -0.14704E+08
 
   -0.25859E+08        -0.76601E+06         0.00000E+00
   -0.76601E+06        -0.45628E+08         0.00000E+00
    0.00000E+00         0.00000E+00        -0.14297E+08
 
   -0.24558E+08        -0.65430E+06         0.00000E+00
   -0.65430E+06        -0.45182E+08         0.00000E+00
    0.00000E+00         0.00000E+00        -0.13948E+08
 
   -0.23431E+08        -0.53482E+06         0.00000E+00
   -0.53482E+06        -0.44799E+08         0.00000E+00
    0.00000E+00         0.00000E+00        -0.13646E+08
 
   -0.22444E+08        -0.41301E+06         0.00000E+00
   -0.41301E+06        -0.44483E+08         0.00000E+00
    0.00000E+00         0.00000E+00        -0.13385E+08
 
   -0.21585E+08        -0.29024E+06         0.00000E+00
   -0.29024E+06        -0.44247E+08         0.00000E+00
    0.00000E+00         0.00000E+00        -0.13166E+08
 
   -0.20810E+08        -0.15043E+06         0.00000E+00
   -0.15043E+06        -0.44104E+08         0.00000E+00
    0.00000E+00         0.00000E+00        -0.13041E+08
 
   -0.20127E+08         0.17311E+05         0.00000E+00
    0.17311E+05        -0.43995E+08         0.00000E+00
    0.00000E+00         0.00000E+00        -0.13213E+08
 
   -0.19468E+08         0.21469E+06         0.00000E+00
    0.21469E+06        -0.44011E+08         0.00000E+00
    0.00000E+00         0.00000E+00        -0.13613E+08
 
   -0.18798E+08         0.45792E+06         0.00000E+00
    0.45792E+06        -0.44201E+08         0.00000E+00
    0.00000E+00         0.00000E+00        -0.14260E+08
 
   -0.18103E+08         0.84783E+06         0.00000E+00
    0.84783E+06        -0.44599E+08         0.00000E+00
    0.00000E+00         0.00000E+00        -0.15262E+08
 
   -0.17557E+08         0.15725E+07         0.00000E+00
    0.15725E+07        -0.45280E+08         0.00000E+00
    0.00000E+00         0.00000E+00        -0.16697E+08
 
   -0.37201E+08        -0.30444E+06         0.00000E+00
   -0.30444E+06        -0.48890E+08         0.00000E+00
    0.00000E+00         0.00000E+00        -0.17218E+08
 
   -0.33554E+08        -0.35923E+06         0.00000E+00
   -0.35923E+06        -0.48315E+08         0.00000E+00
    0.00000E+00         0.00000E+00        -0.16374E+08
 
   -0.31066E+08        -0.33670E+06         0.00000E+00
   -0.33670E+06        -0.47658E+08         0.00000E+00
    0.00000E+00         0.00000E+00        -0.15745E+08
 
   -0.29156E+08        -0.30548E+06         0.00000E+00
   -0.30548E+06        -0.47031E+08         0.00000E+00
    0.00000E+00         0.00000E+00        -0.15237E+08
 
   -0.27609E+08        -0.26781E+06         0.00000E+00
   -0.26781E+06        -0.46464E+08         0.00000E+00
    0.00000E+00         0.00000E+00        -0.14815E+08
 
   -0.26309E+08        -0.22677E+06         0.00000E+00
   -0.22677E+06        -0.45972E+08         0.00000E+00
    0.00000E+00         0.00000E+00        -0.14456E+08
 
   -0.25190E+08        -0.18425E+06         0.00000E+00
   -0.18425E+06        -0.45561E+08         0.00000E+00
    0.00000E+00         0.00000E+00        -0.14150E+08
 
   -0.24214E+08        -0.14217E+06         0.00000E+00
   -0.14217E+06        -0.45233E+08         0.00000E+00
    0.00000E+00         0.00000E+00        -0.13889E+08
 
   -0.23357E+08        -0.96206E+05         0.00000E+00
   -0.96206E+05        -0.44988E+08         0.00000E+00
    0.00000E+00         0.00000E+00        -0.13669E+08
 
   -0.22602E+08        -0.45384E+05         0.00000E+00
   -0.45384E+05        -0.44843E+08         0.00000E+00
    0.00000E+00         0.00000E+00        -0.13489E+08
 
   -0.21875E+08         0.14266E+05         0.00000E+00
    0.14266E+05        -0.44840E+08         0.00000E+00
    0.00000E+00         0.00000E+00        -0.13351E+08
 
   -0.21212E+08         0.82534E+05         0.00000E+00
    0.82534E+05        -0.44948E+08         0.00000E+00
    0.00000E+00         0.00000E+00        -0.13586E+08
 
   -0.20503E+08         0.15523E+06         0.00000E+00
    0.15523E+06        -0.45186E+08         0.00000E+00
    0.00000E+00         0.00000E+00        -0.14221E+08
 
   -0.19625E+08         0.27939E+06         0.00000E+00
    0.27939E+06        -0.45626E+08         0.00000E+00
    0.00000E+00         0.00000E+00        -0.15265E+08
 
   -0.18533E+08         0.60831E+06         0.00000E+00
    0.60831E+06        -0.46427E+08         0.00000E+00
    0.00000E+00         0.00000E+00        -0.17102E+08
 
TENSORS stresstot double 
   -0.38799E+08         0.58256E+04         0.00000E+00
    0.58256E+04        -0.59991E+08         0.00000E+00
    0.00000E+00         0.00000E+00        -0.47140E+08
 
   -0.38812E+08         0.16300E+05         0.00000E+00
    0.16300E+05        -0.59969E+08         0.00000E+00
    0.00000E+00         0.00000E+00        -0.47013E+08
 
   -0.38823E+08         0.25955E+05         0.00000E+00
    0.25955E+05        -0.59926E+08         0.00000E+00
    0.00000E+00         0.00000E+00        -0.46829E+08
 
   -0.38845E+08         0.35657E+05         0.00000E+00
    0.35657E+05        -0.59865E+08         0.00000E+00
    0.00000E+00         0.00000E+00        -0.46578E+08
 
   -0.38963E+08         0.41012E+05         0.00000E+00
    0.41012E+05        -0.59791E+08         0.00000E+00
    0.00000E+00         0.00000E+00        -0.46291E+08
 
   -0.39882E+08         0.34840E+05         0.00000E+00
    0.34840E+05        -0.59717E+08         0.00000E+00
    0.00000E+00         0.00000E+00        -0.46397E+08
 
   -0.40861E+08         0.31777E+05         0.00000E+00
    0.31777E+05        -0.59652E+08         0.00000E+00
    0.00000E+00         0.00000E+00        -0.46563E+08
 
   -0.41767E+08         0.34381E+05         0.00000E+00
    0.34381E+05        -0.59586E+08         0.00000E+00
    0.00000E+00         0.00000E+00        -0.46717E+08
 
   -0.42615E+08         0.41903E+05         0.00000E+00
    0.41903E+05        -0.59511E+08         0.00000E+00
    0.00000E+00         0.00000E+00        -0.46860E+08
 
   -0.43421E+08         0.53562E+05         0.00000E+00
    0.53562E+05        -0.59416E+08         0.00000E+00
    0.00000E+00         0.00000E+00        -0.46991E+08
 
   -0.44195E+08         0.68731E+05         0.00000E+00
    0.68731E+05        -0.59294E+08         0.00000E+00
    0.00000E+00         0.00000E+00        -0.47113E+08
 
   -0.44951E+08         0.86904E+05         0.00000E+00
    0.86904E+05        -0.59139E+08         0.00000E+00
    0.00000E+00         0.00000E+00        -0.47226E+08
 
   -0.45696E+08         0.10766E+06         0.00000E+00
    0.10766E+06        -0.58944E+08         0.00000E+00
    0.00000E+00         0.00000E+00        -0.47331E+08
 
   -0.46439E+08         0.13061E+06         0.00000E+00
    0.13061E+06        -0.58706E+08         0.00000E+00
    0.00000E+00         0.00000E+00        -0.47428E+08
 
   -0.47186E+08         0.15537E+06         0.00000E+00
    0.15537E+06        -0.58421E+08         0.00000E+00
    0.00000E+00         0.00000E+00        -0.47518E+08
 
   -0.38777E+08         0.16528E+05         0.00000E+00
    0.16528E+05        -0.59992E+08         0.00000E+00
    0.00000E+00         0.00000E+00        -0.47086E+08
 
   -0.38792E+08         0.48738E+05         0.00000E+00
    0.48738E+05        -0.59971E+08         0.00000E+00
    0.00000E+00         0.00000E+00        -0.46960E+08
 
   -0.38804E+08         0.78464E+05         0.00000E+00
    0.78464E+05        -0.59928E+08         0.00000E+00
    0.00000E+00         0.00000E+00        -0.46773E+08
 
   -0.38827E+08         0.10580E+06         0.00000E+00
    0.10580E+06        -0.59867E+08         0.00000E+00
    0.00000E+00         0.00000E+00        -0.46518E+08
 
   -0.38966E+08         0.12088E+06         0.00000E+00
    0.12088E+06        -0.59796E+08         0.00000E+00
    0.00000E+00         0.00000E+00        -0.46240E+08
 
   -0.39894E+08         0.10136E+06         0.00000E+00
    0.10136E+06        -0.59728E+08         0.00000E+00
    0.00000E+00         0.00000E+00        -0.46354E+08
 
   -0.40861E+08         0.92914E+05         0.00000E+00
    0.92914E+05        -0.59668E+08         0.00000E+00
    0.00000E+00         0.00000E+00        -0.46519E+08
 
   -0.41757E+08         0.10142E+06         0.00000E+00
    0.10142E+06        -0.59607E+08         0.00000E+00
    0.00000E+00         0.00000E+00        -0.46671E+08
 
   -0.42596E+08         0.12443E+06         0.00000E+00
    0.12443E+06        -0.59534E+08         0.00000E+00
    0.00000E+00         0.00000E+00        -0.46812E+08
 
   -0.43394E+08         0.15967E+06         0.00000E+00
    0.15967E+06        -0.59442E+08         0.00000E+00
    0.00000E+00         0.00000E+00        -0.46943E+08
 
   -0.44162E+08         0.20534E+06         0.00000E+00
    0.20534E+06        -0.59322E+08         0.00000E+00
    0.00000E+00         0.00000E+00        -0.47064E+08
 
   -0.44912E+08         0.25995E+06         0.00000E+00
    0.25995E+06        -0.59168E+08         0.00000E+00
    0.00000E+00         0.00000E+00        -0.47176E+08
 
   -0.45652E+08         0.32227E+06         0.00000E+00
    0.32227E+06        -0.58975E+08         0.00000E+00
    0.00000E+00         0.00000E+00        -0.47280E+08
 
   -0.46391E+08         0.39117E+06         0.00000E+00
    0.39117E+06        -0.58739E+08         0.00000E+00
    0.00000E+00         0.00000E+00        -0.47376E+08
 
   -0.47135E+08         0.46554E+06         0.00000E+00
    0.46554E+06        -0.58454E+08         0.00000E+00
    0.00000E+00         0.00000E+00        -0.47466E+08
 
   -0.38733E+08         0.27094E+05         0.00000E+00
    0.27094E+05        -0.59990E+08         0.00000E+00
    0.00000E+00         0.00000E+00        -0.46979E+08
 
   -0.38750E+08         0.80404E+05         0.00000E+00
    0.80404E+05        -0.59969E+08         0.00000E+00
    0.00000E+00         0.00000E+00        -0.46850E+08
 
   -0.38766E+08         0.12996E+06         0.00000E+00
    0.12996E+06        -0.59929E+08         0.00000E+00
    0.00000E+00         0.00000E+00        -0.46659E+08
 
   -0.38793E+08         0.17256E+06         0.00000E+00
    0.17256E+06        -0.59873E+08         0.00000E+00
    0.00000E+00         0.00000E+00        -0.46397E+08
 
   -0.38978E+08         0.19282E+06         0.00000E+00
    0.19282E+06        -0.59809E+08         0.00000E+00
    0.00000E+00         0.00000E+00        -0.46138E+08
 
   -0.39916E+08         0.15928E+06         0.00000E+00
    0.15928E+06        -0.59753E+08         0.00000E+00
    0.00000E+00         0.00000E+00        -0.46267E+08
 
   -0.40860E+08         0.14742E+06         0.00000E+00
    0.14742E+06        -0.59702E+08         0.00000E+00
    0.00000E+00         0.00000E+00        -0.46429E+08
 
   -0.41734E+08         0.16358E+06         0.00000E+00
    0.16358E+06        -0.59648E+08         0.00000E+00
    0.00000E+00         0.00000E+00        -0.46579E+08
 
   -0.42556E+08         0.20325E+06         0.00000E+00
    0.20325E+06        -0.59581E+08         0.00000E+00
    0.00000E+00         0.00000E+00        -0.46717E+08
 
   -0.43339E+08         0.26282E+06         0.00000E+00
    0.26282E+06        -0.59493E+08         0.00000E+00
    0.00000E+00         0.00000E+00        -0.46845E+08
 
   -0.44095E+08         0.33942E+06         0.00000E+00
    0.33942E+06        -0.59376E+08         0.00000E+00
    0.00000E+00         0.00000E+00        -0.46964E+08
 
   -0.44833E+08         0.43074E+06         0.00000E+00
    0.43074E+06        -0.59226E+08         0.00000E+00
    0.00000E+00         0.00000E+00        -0.47074E+08
 
   -0.45564E+08         0.53479E+06         0.00000E+00
    0.53479E+06        -0.59036E+08         0.00000E+00
    0.00000E+00         0.00000E+00        -0.47177E+08
 
   -0.46295E+08         0.64979E+06         0.00000E+00
    0.64979E+06        -0.58802E+08         0.00000E+00
    0.00000E+00         0.00000E+00        -0.47272E+08
 
   -0.47033E+08         0.77395E+06         0.00000E+00
    0.77395E+06        -0.58520E+08         0.00000E+00
    0.00000E+00         0.00000E+00        -0.47361E+08
 
   -0.38669E+08         0.38155E+05         0.00000E+00
    0.38155E+05        -0.59990E+08         0.00000E+00
    0.00000E+00         0.00000E+00        -0.46815E+08
 
   -0.38689E+08         0.11033E+06         0.00000E+00
    0.11033E+06        -0.59970E+08         0.00000E+00
    0.00000E+00         0.00000E+00        -0.46683E+08
 
   -0.38711E+08         0.17759E+06         0.00000E+00
    0.17759E+06        -0.59934E+08         0.00000E+00
    0.00000E+00         0.00000E+00        -0.46486E+08
 
   -0.38749E+08         0.23446E+06         0.00000E+00
    0.23446E+06        -0.59883E+08         0.00000E+00
    0.00000E+00         0.00000E+00        -0.46215E+08
 
   -0.38999E+08         0.24977E+06         0.00000E+00
    0.24977E+06        -0.59834E+08         0.00000E+00
    0.00000E+00         0.00000E+00        -0.45987E+08
 
   -0.39948E+08         0.20413E+06         0.00000E+00
    0.20413E+06        -0.59792E+08         0.00000E+00
    0.00000E+00         0.00000E+00        -0.46137E+08
 
   -0.40854E+08         0.19202E+06         0.00000E+00
    0.19202E+06        -0.59754E+08         0.00000E+00
    0.00000E+00         0.00000E+00        -0.46294E+08
 
   -0.41699E+08         0.21825E+06         0.00000E+00
    0.21825E+06        -0.59710E+08         0.00000E+00
    0.00000E+00         0.00000E+00        -0.46439E+08
 
   -0.42495E+08         0.27627E+06         0.00000E+00
    0.27627E+06        -0.59651E+08         0.00000E+00
    0.00000E+00         0.00000E+00        -0.46574E+08
 
   -0.43256E+08         0.36125E+06         0.00000E+00
    0.36125E+06        -0.59569E+08         0.00000E+00
    0.00000E+00         0.00000E+00        -0.46699E+08
 
   -0.43993E+08         0.46943E+06         0.00000E+00
    0.46943E+06        -0.59457E+08         0.00000E+00
    0.00000E+00         0.00000E+00        -0.46814E+08
 
   -0.44716E+08         0.59780E+06         0.00000E+00
    0.59780E+06        -0.59311E+08         0.00000E+00
    0.00000E+00         0.00000E+00        -0.46922E+08
 
   -0.45432E+08         0.74381E+06         0.00000E+00
    0.74381E+06        -0.59126E+08         0.00000E+00
    0.00000E+00         0.00000E+00        -0.47022E+08
 
   -0.46151E+08         0.90512E+06         0.00000E+00
    0.90512E+06        -0.58896E+08         0.00000E+00
    0.00000E+00         0.00000E+00        -0.47116E+08
 
   -0.46879E+08         0.10794E+07         0.00000E+00
    0.10794E+07        -0.58618E+08         0.00000E+00
    0.00000E+00         0.00000E+00        -0.47203E+08
 
   -0.38585E+08         0.48393E+05         0.00000E+00
    0.48393E+05        -0.59991E+08         0.00000E+00
    0.00000E+00         0.00000E+00        -0.46593E+08
 
   -0.38610E+08         0.13847E+06         0.00000E+00
    0.13847E+06        -0.59973E+08         0.00000E+00
    0.00000E+00         0.00000E+00        -0.46455E+08
 
   -0.38640E+08         0.21960E+06         0.00000E+00
    0.21960E+06        -0.59938E+08         0.00000E+00
    0.00000E+00         0.00000E+00        -0.46251E+08
 
   -0.38696E+08         0.28848E+06         0.00000E+00
    0.28848E+06        -0.59897E+08         0.00000E+00
    0.00000E+00         0.00000E+00        -0.45972E+08
 
   -0.39045E+08         0.28629E+06         0.00000E+00
    0.28629E+06        -0.59870E+08         0.00000E+00
    0.00000E+00         0.00000E+00        -0.45798E+08
 
   -0.39982E+08         0.23085E+06         0.00000E+00
    0.23085E+06        -0.59845E+08         0.00000E+00
    0.00000E+00         0.00000E+00        -0.45961E+08
 
   -0.40842E+08         0.22387E+06         0.00000E+00
    0.22387E+06        -0.59825E+08         0.00000E+00
    0.00000E+00         0.00000E+00        -0.46112E+08
 
   -0.41648E+08         0.26343E+06         0.00000E+00
    0.26343E+06        -0.59793E+08         0.00000E+00
    0.00000E+00         0.00000E+00        -0.46252E+08
 
   -0.42411E+08         0.34185E+06         0.00000E+00
    0.34185E+06        -0.59742E+08         0.00000E+00
    0.00000E+00         0.00000E+00        -0.46382E+08
 
   -0.43145E+08         0.45347E+06         0.00000E+00
    0.45347E+06        -0.59667E+08         0.00000E+00
    0.00000E+00         0.00000E+00        -0.46502E+08
 
   -0.43857E+08         0.59392E+06         0.00000E+00
    0.59392E+06        -0.59563E+08         0.00000E+00
    0.00000E+00         0.00000E+00        -0.46614E+08
 
   -0.44558E+08         0.75973E+06         0.00000E+00
    0.75973E+06        -0.59423E+08         0.00000E+00
    0.00000E+00         0.00000E+00        -0.46718E+08
 
   -0.45256E+08         0.94792E+06         0.00000E+00
    0.94792E+06        -0.59243E+08         0.00000E+00
    0.00000E+00         0.00000E+00        -0.46815E+08
 
   -0.45959E+08         0.11558E+07         0.00000E+00
    0.11558E+07        -0.59019E+08         0.00000E+00
    0.00000E+00         0.00000E+00        -0.46906E+08
 
   -0.46673E+08         0.13805E+07         0.00000E+00
    0.13805E+07        -0.58746E+08         0.00000E+00
    0.00000E+00         0.00000E+00        -0.46992E+08
 
   -0.38483E+08         0.57300E+05         0.00000E+00
    0.57300E+05        -0.59992E+08         0.00000E+00
    0.00000E+00         0.00000E+00        -0.46314E+08
 
   -0.38515E+08         0.16404E+06         0.00000E+00
    0.16404E+06        -0.59976E+08         0.00000E+00
    0.00000E+00         0.00000E+00        -0.46167E+08
 
   -0.38560E+08         0.25684E+06         0.00000E+00
    0.25684E+06        -0.59948E+08         0.00000E+00
    0.00000E+00         0.00000E+00        -0.45947E+08
 
   -0.38629E+08         0.32552E+06         0.00000E+00
    0.32552E+06        -0.59915E+08         0.00000E+00
    0.00000E+00         0.00000E+00        -0.45661E+08
 
   -0.39132E+08         0.29713E+06         0.00000E+00
    0.29713E+06        -0.59911E+08         0.00000E+00
    0.00000E+00         0.00000E+00        -0.45581E+08
 
   -0.40012E+08         0.23671E+06         0.00000E+00
    0.23671E+06        -0.59917E+08         0.00000E+00
    0.00000E+00         0.00000E+00        -0.45739E+08
 
   -0.40817E+08         0.24138E+06         0.00000E+00
    0.24138E+06        -0.59913E+08         0.00000E+00
    0.00000E+00         0.00000E+00        -0.45883E+08
 
   -0.41578E+08         0.29786E+06         0.00000E+00
    0.29786E+06        -0.59894E+08         0.00000E+00
    0.00000E+00         0.00000E+00        -0.46016E+08
 
   -0.42303E+08         0.39878E+06         0.00000E+00
    0.39878E+06        -0.59854E+08         0.00000E+00
    0.00000E+00         0.00000E+00        -0.46139E+08
 
   -0.43003E+08         0.53823E+06         0.00000E+00
    0.53823E+06        -0.59787E+08         0.00000E+00
    0.00000E+00         0.00000E+00        -0.46254E+08
 
   -0.43686E+08         0.71159E+06         0.00000E+00
    0.71159E+06        -0.59690E+08         0.00000E+00
    0.00000E+00         0.00000E+00        -0.46361E+08
 
   -0.44361E+08         0.91514E+06         0.00000E+00
    0.91514E+06        -0.59558E+08         0.00000E+00
    0.00000E+00         0.00000E+00        -0.46461E+08
 
   -0.45035E+08         0.11457E+07         0.00000E+00
    0.11457E+07        -0.59385E+08         0.00000E+00
    0.00000E+00         0.00000E+00        -0.46555E+08
 
   -0.45718E+08         0.14003E+07         0.00000E+00
    0.14003E+07        -0.59168E+08         0.00000E+00
    0.00000E+00         0.00000E+00        -0.46643E+08
 
   -0.46415E+08         0.16759E+07         0.00000E+00
    0.16759E+07        -0.58901E+08         0.00000E+00
    0.00000E+00         0.00000E+00        -0.46727E+08
 
   -0.38364E+08         0.64812E+05         0.00000E+00
    0.64812E+05        -0.59991E+08         0.00000E+00
    0.00000E+00         0.00000E+00        -0.45973E+08
 
   -0.38409E+08         0.18312E+06         0.00000E+00
    0.18312E+06        -0.59980E+08         0.00000E+00
    0.00000E+00         0.00000E+00        -0.45813E+08
 
   -0.38474E+08         0.28222E+06         0.00000E+00
    0.28222E+06        -0.59965E+08         0.00000E+00
    0.00000E+00         0.00000E+00        -0.45575E+08
 
   -0.38579E+08         0.33935E+06         0.00000E+00
    0.33935E+06        -0.59972E+08         0.00000E+00
    0.00000E+00         0.00000E+00        -0.45289E+08
 
   -0.39245E+08         0.27794E+06         0.00000E+00
    0.27794E+06        -0.59983E+08         0.00000E+00
    0.00000E+00         0.00000E+00        -0.45326E+08
 
   -0.40029E+08         0.22505E+06         0.00000E+00
    0.22505E+06        -0.60008E+08         0.00000E+00
    0.00000E+00         0.00000E+00        -0.45470E+08
 
   -0.40777E+08         0.24488E+06         0.00000E+00
    0.24488E+06        -0.60020E+08         0.00000E+00
    0.00000E+00         0.00000E+00        -0.45605E+08
 
   -0.41487E+08         0.32115E+06         0.00000E+00
    0.32115E+06        -0.60012E+08         0.00000E+00
    0.00000E+00         0.00000E+00        -0.45730E+08
 
   -0.42169E+08         0.44623E+06         0.00000E+00
    0.44623E+06        -0.59982E+08         0.00000E+00
    0.00000E+00         0.00000E+00        -0.45846E+08
 
   -0.42831E+08         0.61443E+06         0.00000E+00
    0.61443E+06        -0.59925E+08         0.00000E+00
    0.00000E+00         0.00000E+00        -0.45955E+08
 
   -0.43479E+08         0.82116E+06         0.00000E+00
    0.82116E+06        -0.59837E+08         0.00000E+00
    0.00000E+00         0.00000E+00        -0.46056E+08
 
   -0.44123E+08         0.10626E+07         0.00000E+00
    0.10626E+07        -0.59713E+08         0.00000E+00
    0.00000E+00         0.00000E+00        -0.46151E+08
 
   -0.44770E+08         0.13356E+07         0.00000E+00
    0.13356E+07        -0.59549E+08         0.00000E+00
    0.00000E+00         0.00000E+00        -0.46241E+08
 
   -0.45428E+08         0.16370E+07         0.00000E+00
    0.16370E+07        -0.59341E+08         0.00000E+00
    0.00000E+00         0.00000E+00        -0.46326E+08
 
   -0.46103E+08         0.19639E+07         0.00000E+00
    0.19639E+07        -0.59083E+08         0.00000E+00
    0.00000E+00         0.00000E+00        -0.46407E+08
 
   -0.38234E+08         0.70724E+05         0.00000E+00
    0.70724E+05        -0.59992E+08         0.00000E+00
    0.00000E+00         0.00000E+00        -0.45566E+08
 
   -0.38295E+08         0.19471E+06         0.00000E+00
    0.19471E+06        -0.59987E+08         0.00000E+00
    0.00000E+00         0.00000E+00        -0.45385E+08
 
   -0.38385E+08         0.29204E+06         0.00000E+00
    0.29204E+06        -0.59984E+08         0.00000E+00
    0.00000E+00         0.00000E+00        -0.45130E+08
 
   -0.38609E+08         0.31528E+06         0.00000E+00
    0.31528E+06        -0.60019E+08         0.00000E+00
    0.00000E+00         0.00000E+00        -0.44911E+08
 
   -0.39324E+08         0.22953E+06         0.00000E+00
    0.22953E+06        -0.60066E+08         0.00000E+00
    0.00000E+00         0.00000E+00        -0.45017E+08
 
   -0.40035E+08         0.19830E+06         0.00000E+00
    0.19830E+06        -0.60113E+08         0.00000E+00
    0.00000E+00         0.00000E+00        -0.45151E+08
 
   -0.40718E+08         0.23558E+06         0.00000E+00
    0.23558E+06        -0.60139E+08         0.00000E+00
    0.00000E+00         0.00000E+00        -0.45275E+08
 
   -0.41374E+08         0.33312E+06         0.00000E+00
    0.33312E+06        -0.60144E+08         0.00000E+00
    0.00000E+00         0.00000E+00        -0.45392E+08
 
   -0.42008E+08         0.48338E+06         0.00000E+00
    0.48338E+06        -0.60125E+08         0.00000E+00
    0.00000E+00         0.00000E+00        -0.45500E+08
 
   -0.42627E+08         0.68094E+06         0.00000E+00
    0.68094E+06        -0.60079E+08         0.00000E+00
    0.00000E+00         0.00000E+00        -0.45602E+08
 
   -0.43237E+08         0.92131E+06         0.00000E+00
    0.92131E+06        -0.60001E+08         0.00000E+00
    0.00000E+00         0.00000E+00        -0.45698E+08
 
   -0.43846E+08         0.12007E+07         0.00000E+00
    0.12007E+07        -0.59887E+08         0.00000E+00
    0.00000E+00         0.00000E+00        -0.45787E+08
 
   -0.44460E+08         0.15160E+07         0.00000E+00
    0.15160E+07        -0.59733E+08         0.00000E+00
    0.00000E+00         0.00000E+00        -0.45872E+08
 
   -0.45088E+08         0.18643E+07         0.00000E+00
    0.18643E+07        -0.59535E+08         0.00000E+00
    0.00000E+00         0.00000E+00        -0.45953E+08
 
   -0.45738E+08         0.22427E+07         0.00000E+00
    0.22427E+07        -0.59287E+08         0.00000E+00
    0.00000E+00         0.00000E+00        -0.46031E+08
 
   -0.38098E+08         0.73543E+05         0.00000E+00
    0.73543E+05        -0.59995E+08         0.00000E+00
    0.00000E+00         0.00000E+00        -0.45087E+08
 
   -0.38181E+08         0.19701E+06         0.00000E+00
    0.19701E+06        -0.59998E+08         0.00000E+00
    0.00000E+00         0.00000E+00        -0.44882E+08
 
   -0.38307E+08         0.27872E+06         0.00000E+00
    0.27872E+06        -0.60022E+08         0.00000E+00
    0.00000E+00         0.00000E+00        -0.44615E+08
 
   -0.38704E+08         0.24499E+06         0.00000E+00
    0.24499E+06        -0.60092E+08         0.00000E+00
    0.00000E+00         0.00000E+00        -0.44525E+08
 
   -0.39380E+08         0.16250E+06         0.00000E+00
    0.16250E+06        -0.60164E+08         0.00000E+00
    0.00000E+00         0.00000E+00        -0.44656E+08
 
   -0.40020E+08         0.15481E+06         0.00000E+00
    0.15481E+06        -0.60225E+08         0.00000E+00
    0.00000E+00         0.00000E+00        -0.44778E+08
 
   -0.40639E+08         0.21313E+06         0.00000E+00
    0.21313E+06        -0.60266E+08         0.00000E+00
    0.00000E+00         0.00000E+00        -0.44893E+08
 
   -0.41238E+08         0.33298E+06         0.00000E+00
    0.33298E+06        -0.60284E+08         0.00000E+00
    0.00000E+00         0.00000E+00        -0.45000E+08
 
   -0.41820E+08         0.50910E+06         0.00000E+00
    0.50910E+06        -0.60277E+08         0.00000E+00
    0.00000E+00         0.00000E+00        -0.45101E+08
 
   -0.42391E+08         0.73643E+06         0.00000E+00
    0.73643E+06        -0.60243E+08         0.00000E+00
    0.00000E+00         0.00000E+00        -0.45196E+08
 
   -0.42959E+08         0.10106E+07         0.00000E+00
    0.10106E+07        -0.60177E+08         0.00000E+00
    0.00000E+00         0.00000E+00        -0.45284E+08
 
   -0.43528E+08         0.13279E+07         0.00000E+00
    0.13279E+07        -0.60075E+08         0.00000E+00
    0.00000E+00         0.00000E+00        -0.45368E+08
 
   -0.44106E+08         0.16852E+07         0.00000E+00
    0.16852E+07        -0.59933E+08         0.00000E+00
    0.00000E+00         0.00000E+00        -0.45448E+08
 
   -0.44700E+08         0.20801E+07         0.00000E+00
    0.20801E+07        -0.59747E+08         0.00000E+00
    0.00000E+00         0.00000E+00        -0.45524E+08
 
   -0.45318E+08         0.25102E+07         0.00000E+00
    0.25102E+07        -0.59512E+08         0.00000E+00
    0.00000E+00         0.00000E+00        -0.45598E+08
 
   -0.37960E+08         0.71575E+05         0.00000E+00
    0.71575E+05        -0.59999E+08         0.00000E+00
    0.00000E+00         0.00000E+00        -0.44532E+08
 
   -0.38077E+08         0.18306E+06         0.00000E+00
    0.18306E+06        -0.60016E+08         0.00000E+00
    0.00000E+00         0.00000E+00        -0.44293E+08
 
   -0.38277E+08         0.22193E+06         0.00000E+00
    0.22193E+06        -0.60090E+08         0.00000E+00
    0.00000E+00         0.00000E+00        -0.44067E+08
 
   -0.38828E+08         0.14285E+06         0.00000E+00
    0.14285E+06        -0.60167E+08         0.00000E+00
    0.00000E+00         0.00000E+00        -0.44121E+08
 
   -0.39411E+08         0.84811E+05         0.00000E+00
    0.84811E+05        -0.60265E+08         0.00000E+00
    0.00000E+00         0.00000E+00        -0.44240E+08
 
   -0.39984E+08         0.97032E+05         0.00000E+00
    0.97032E+05        -0.60340E+08         0.00000E+00
    0.00000E+00         0.00000E+00        -0.44352E+08
 
   -0.40539E+08         0.17625E+06         0.00000E+00
    0.17625E+06        -0.60395E+08         0.00000E+00
    0.00000E+00         0.00000E+00        -0.44456E+08
 
   -0.41077E+08         0.31923E+06         0.00000E+00
    0.31923E+06        -0.60428E+08         0.00000E+00
    0.00000E+00         0.00000E+00        -0.44555E+08
 
   -0.41603E+08         0.52177E+06         0.00000E+00
    0.52177E+06        -0.60436E+08         0.00000E+00
    0.00000E+00         0.00000E+00        -0.44647E+08
 
   -0.42124E+08         0.77929E+06         0.00000E+00
    0.77929E+06        -0.60415E+08         0.00000E+00
    0.00000E+00         0.00000E+00        -0.44734E+08
 
   -0.42645E+08         0.10874E+07         0.00000E+00
    0.10874E+07        -0.60362E+08         0.00000E+00
    0.00000E+00         0.00000E+00        -0.44816E+08
 
   -0.43170E+08         0.14423E+07         0.00000E+00
    0.14423E+07        -0.60274E+08         0.00000E+00
    0.00000E+00         0.00000E+00        -0.44894E+08
 
   -0.43708E+08         0.18413E+07         0.00000E+00
    0.18413E+07        -0.60146E+08         0.00000E+00
    0.00000E+00         0.00000E+00        -0.44968E+08
 
   -0.44263E+08         0.22824E+07         0.00000E+00
    0.22824E+07        -0.59974E+08         0.00000E+00
    0.00000E+00         0.00000E+00        -0.45039E+08
 
   -0.44845E+08         0.27638E+07         0.00000E+00
    0.27638E+07        -0.59754E+08         0.00000E+00
    0.00000E+00         0.00000E+00        -0.45109E+08
 
   -0.37833E+08         0.63228E+05         0.00000E+00
    0.63228E+05        -0.60004E+08         0.00000E+00
    0.00000E+00         0.00000E+00        -0.43891E+08
 
   -0.37988E+08         0.14463E+06         0.00000E+00
    0.14463E+06        -0.60052E+08         0.00000E+00
    0.00000E+00         0.00000E+00        -0.43635E+08
 
   -0.38363E+08         0.11752E+06         0.00000E+00
    0.11752E+06        -0.60140E+08         0.00000E+00
    0.00000E+00         0.00000E+00        -0.43555E+08
 
   -0.38903E+08         0.28190E+05         0.00000E+00
    0.28190E+05        -0.60250E+08         0.00000E+00
    0.00000E+00         0.00000E+00        -0.43658E+08
 
   -0.39425E+08        -0.70096E+04         0.00000E+00
   -0.70096E+04        -0.60359E+08         0.00000E+00
    0.00000E+00         0.00000E+00        -0.43767E+08
 
   -0.39929E+08         0.23831E+05         0.00000E+00
    0.23831E+05        -0.60450E+08         0.00000E+00
    0.00000E+00         0.00000E+00        -0.43869E+08
 
   -0.40416E+08         0.12339E+06         0.00000E+00
    0.12339E+06        -0.60522E+08         0.00000E+00
    0.00000E+00         0.00000E+00        -0.43964E+08
 
   -0.40891E+08         0.28978E+06         0.00000E+00
    0.28978E+06        -0.60572E+08         0.00000E+00
    0.00000E+00         0.00000E+00        -0.44053E+08
 
   -0.41358E+08         0.51939E+06         0.00000E+00
    0.51939E+06        -0.60596E+08         0.00000E+00
    0.00000E+00         0.00000E+00        -0.44137E+08
 
   -0.41825E+08         0.80766E+06         0.00000E+00
    0.80766E+06        -0.60591E+08         0.00000E+00
    0.00000E+00         0.00000E+00        -0.44216E+08
 
   -0.42295E+08         0.11500E+07         0.00000E+00
    0.11500E+07        -0.60554E+08         0.00000E+00
    0.00000E+00         0.00000E+00        -0.44292E+08
 
   -0.42774E+08         0.15424E+07         0.00000E+00
    0.15424E+07        -0.60480E+08         0.00000E+00
    0.00000E+00         0.00000E+00        -0.44363E+08
 
   -0.43266E+08         0.19824E+07         0.00000E+00
    0.19824E+07        -0.60368E+08         0.00000E+00
    0.00000E+00         0.00000E+00        -0.44432E+08
 
   -0.43778E+08         0.24686E+07         0.00000E+00
    0.24686E+07        -0.60213E+08         0.00000E+00
    0.00000E+00         0.00000E+00        -0.44498E+08
 
   -0.44316E+08         0.30010E+07         0.00000E+00
    0.30010E+07        -0.60011E+08         0.00000E+00
    0.00000E+00         0.00000E+00        -0.44562E+08
 
   -0.37720E+08         0.44161E+05         0.00000E+00
    0.44161E+05        -0.60020E+08         0.00000E+00
    0.00000E+00         0.00000E+00        -0.43166E+08
 
   -0.37987E+08         0.70101E+05         0.00000E+00
    0.70101E+05        -0.60091E+08         0.00000E+00
    0.00000E+00         0.00000E+00        -0.42982E+08
 
   -0.38474E+08        -0.13689E+05         0.00000E+00
   -0.13689E+05        -0.60193E+08         0.00000E+00
    0.00000E+00         0.00000E+00        -0.43030E+08
 
   -0.38961E+08        -0.94414E+05         0.00000E+00
   -0.94414E+05        -0.60321E+08         0.00000E+00
    0.00000E+00         0.00000E+00        -0.43138E+08
 
   -0.39420E+08        -0.11464E+06         0.00000E+00
   -0.11464E+06        -0.60443E+08         0.00000E+00
    0.00000E+00         0.00000E+00        -0.43238E+08
 
   -0.39854E+08        -0.67011E+05         0.00000E+00
   -0.67011E+05        -0.60551E+08         0.00000E+00
    0.00000E+00         0.00000E+00        -0.43329E+08
 
   -0.40272E+08         0.52188E+05         0.00000E+00
    0.52188E+05        -0.60642E+08         0.00000E+00
    0.00000E+00         0.00000E+00        -0.43415E+08
 
   -0.40679E+08         0.24225E+06         0.00000E+00
    0.24225E+06        -0.60712E+08         0.00000E+00
    0.00000E+00         0.00000E+00        -0.43495E+08
 
   -0.41084E+08         0.49966E+06         0.00000E+00
    0.49966E+06        -0.60755E+08         0.00000E+00
    0.00000E+00         0.00000E+00        -0.43570E+08
 
   -0.41492E+08         0.81953E+06         0.00000E+00
    0.81953E+06        -0.60769E+08         0.00000E+00
    0.00000E+00         0.00000E+00        -0.43642E+08
 
   -0.41909E+08         0.11966E+07         0.00000E+00
    0.11966E+07        -0.60748E+08         0.00000E+00
    0.00000E+00         0.00000E+00        -0.43711E+08
 
   -0.42338E+08         0.16264E+07         0.00000E+00
    0.16264E+07        -0.60692E+08         0.00000E+00
    0.00000E+00         0.00000E+00        -0.43776E+08
 
   -0.42782E+08         0.21063E+07         0.00000E+00
    0.21063E+07        -0.60597E+08         0.00000E+00
    0.00000E+00         0.00000E+00        -0.43839E+08
 
   -0.43245E+08         0.26362E+07         0.00000E+00
    0.26362E+07        -0.60461E+08         0.00000E+00
    0.00000E+00         0.00000E+00        -0.43899E+08
 
   -0.43734E+08         0.32181E+07         0.00000E+00
    0.32181E+07        -0.60280E+08         0.00000E+00
    0.00000E+00         0.00000E+00        -0.43958E+08
 
   -0.37656E+08         0.11122E+05         0.00000E+00
    0.11122E+05        -0.60032E+08         0.00000E+00
    0.00000E+00         0.00000E+00        -0.42410E+08
 
   -0.38079E+08        -0.38890E+05         0.00000E+00
   -0.38890E+05        -0.60115E+08         0.00000E+00
    0.00000E+00         0.00000E+00        -0.42357E+08
 
   -0.38576E+08        -0.15439E+06         0.00000E+00
   -0.15439E+06        -0.60233E+08         0.00000E+00
    0.00000E+00         0.00000E+00        -0.42460E+08
 
   -0.39009E+08        -0.22778E+06         0.00000E+00
   -0.22778E+06        -0.60375E+08         0.00000E+00
    0.00000E+00         0.00000E+00        -0.42561E+08
 
   -0.39401E+08        -0.23943E+06         0.00000E+00
   -0.23943E+06        -0.60513E+08         0.00000E+00
    0.00000E+00         0.00000E+00        -0.42651E+08
 
   -0.39763E+08        -0.17798E+06         0.00000E+00
   -0.17798E+06        -0.60641E+08         0.00000E+00
    0.00000E+00         0.00000E+00        -0.42733E+08
 
   -0.40106E+08        -0.39869E+05         0.00000E+00
   -0.39869E+05        -0.60754E+08         0.00000E+00
    0.00000E+00         0.00000E+00        -0.42809E+08
 
   -0.40442E+08         0.17413E+06         0.00000E+00
    0.17413E+06        -0.60845E+08         0.00000E+00
    0.00000E+00         0.00000E+00        -0.42879E+08
 
   -0.40779E+08         0.46019E+06         0.00000E+00
    0.46019E+06        -0.60910E+08         0.00000E+00
    0.00000E+00         0.00000E+00        -0.42947E+08
 
   -0.41126E+08         0.81265E+06         0.00000E+00
    0.81265E+06        -0.60944E+08         0.00000E+00
    0.00000E+00         0.00000E+00        -0.43011E+08
 
   -0.41487E+08         0.12252E+07         0.00000E+00
    0.12252E+07        -0.60943E+08         0.00000E+00
    0.00000E+00         0.00000E+00        -0.43073E+08
 
   -0.41864E+08         0.16924E+07         0.00000E+00
    0.16924E+07        -0.60906E+08         0.00000E+00
    0.00000E+00         0.00000E+00        -0.43132E+08
 
   -0.42257E+08         0.22110E+07         0.00000E+00
    0.22110E+07        -0.60830E+08         0.00000E+00
    0.00000E+00         0.00000E+00        -0.43189E+08
 
   -0.42668E+08         0.27821E+07         0.00000E+00
    0.27821E+07        -0.60716E+08         0.00000E+00
    0.00000E+00         0.00000E+00        -0.43244E+08
 
   -0.43099E+08         0.34112E+07         0.00000E+00
    0.34112E+07        -0.60560E+08         0.00000E+00
    0.00000E+00         0.00000E+00        -0.43296E+08
 
   -0.37680E+08        -0.37797E+05         0.00000E+00
   -0.37797E+05        -0.60048E+08         0.00000E+00
    0.00000E+00         0.00000E+00        -0.41659E+08
 
   -0.38224E+08        -0.16608E+06         0.00000E+00
   -0.16608E+06        -0.60123E+08         0.00000E+00
    0.00000E+00         0.00000E+00        -0.41729E+08
 
   -0.38678E+08        -0.29846E+06         0.00000E+00
   -0.29846E+06        -0.60259E+08         0.00000E+00
    0.00000E+00         0.00000E+00        -0.41836E+08
 
   -0.39053E+08        -0.37649E+06         0.00000E+00
   -0.37649E+06        -0.60412E+08         0.00000E+00
    0.00000E+00         0.00000E+00        -0.41928E+08
 
   -0.39373E+08        -0.38373E+06         0.00000E+00
   -0.38373E+06        -0.60568E+08         0.00000E+00
    0.00000E+00         0.00000E+00        -0.42008E+08
 
   -0.39656E+08        -0.31097E+06         0.00000E+00
   -0.31097E+06        -0.60717E+08         0.00000E+00
    0.00000E+00         0.00000E+00        -0.42080E+08
 
   -0.39919E+08        -0.15489E+06         0.00000E+00
   -0.15489E+06        -0.60853E+08         0.00000E+00
    0.00000E+00         0.00000E+00        -0.42145E+08
 
   -0.40178E+08         0.83152E+05         0.00000E+00
    0.83152E+05        -0.60968E+08         0.00000E+00
    0.00000E+00         0.00000E+00        -0.42206E+08
 
   -0.40444E+08         0.39855E+06         0.00000E+00
    0.39855E+06        -0.61057E+08         0.00000E+00
    0.00000E+00         0.00000E+00        -0.42265E+08
 
   -0.40725E+08         0.78455E+06         0.00000E+00
    0.78455E+06        -0.61114E+08         0.00000E+00
    0.00000E+00         0.00000E+00        -0.42322E+08
 
   -0.41028E+08         0.12335E+07         0.00000E+00
    0.12335E+07        -0.61135E+08         0.00000E+00
    0.00000E+00         0.00000E+00        -0.42378E+08
 
   -0.41352E+08         0.17383E+07         0.00000E+00
    0.17383E+07        -0.61119E+08         0.00000E+00
    0.00000E+00         0.00000E+00        -0.42432E+08
 
   -0.41694E+08         0.22944E+07         0.00000E+00
    0.22944E+07        -0.61066E+08         0.00000E+00
    0.00000E+00         0.00000E+00        -0.42484E+08
 
   -0.42049E+08         0.29030E+07         0.00000E+00
    0.29030E+07        -0.60977E+08         0.00000E+00
    0.00000E+00         0.00000E+00        -0.42533E+08
 
   -0.42414E+08         0.35748E+07         0.00000E+00
    0.35748E+07        -0.60851E+08         0.00000E+00
    0.00000E+00         0.00000E+00        -0.42578E+08
 
   -0.37824E+08        -0.98082E+05         0.00000E+00
   -0.98082E+05        -0.60043E+08         0.00000E+00
    0.00000E+00         0.00000E+00        -0.40938E+08
 
   -0.38388E+08        -0.29475E+06         0.00000E+00
   -0.29475E+06        -0.60125E+08         0.00000E+00
    0.00000E+00         0.00000E+00        -0.41060E+08
 
   -0.38794E+08        -0.45120E+06         0.00000E+00
   -0.45120E+06        -0.60268E+08         0.00000E+00
    0.00000E+00         0.00000E+00        -0.41160E+08
 
   -0.39100E+08        -0.54085E+06         0.00000E+00
   -0.54085E+06        -0.60434E+08         0.00000E+00
    0.00000E+00         0.00000E+00        -0.41242E+08
 
   -0.39339E+08        -0.54839E+06         0.00000E+00
   -0.54839E+06        -0.60607E+08         0.00000E+00
    0.00000E+00         0.00000E+00        -0.41310E+08
 
   -0.39535E+08        -0.46675E+06         0.00000E+00
   -0.46675E+06        -0.60778E+08         0.00000E+00
    0.00000E+00         0.00000E+00        -0.41370E+08
 
   -0.39712E+08        -0.29397E+06         0.00000E+00
   -0.29397E+06        -0.60937E+08         0.00000E+00
    0.00000E+00         0.00000E+00        -0.41424E+08
 
   -0.39887E+08        -0.32315E+05         0.00000E+00
   -0.32315E+05        -0.61077E+08         0.00000E+00
    0.00000E+00         0.00000E+00        -0.41475E+08
 
   -0.40076E+08         0.31250E+06         0.00000E+00
    0.31250E+06        -0.61191E+08         0.00000E+00
    0.00000E+00         0.00000E+00        -0.41525E+08
 
   -0.40289E+08         0.73233E+06         0.00000E+00
    0.73233E+06        -0.61273E+08         0.00000E+00
    0.00000E+00         0.00000E+00        -0.41575E+08
 
   -0.40531E+08         0.12179E+07         0.00000E+00
    0.12179E+07        -0.61320E+08         0.00000E+00
    0.00000E+00         0.00000E+00        -0.41626E+08
 
   -0.40802E+08         0.17605E+07         0.00000E+00
    0.17605E+07        -0.61331E+08         0.00000E+00
    0.00000E+00         0.00000E+00        -0.41676E+08
 
   -0.41095E+08         0.23531E+07         0.00000E+00
    0.23531E+07        -0.61305E+08         0.00000E+00
    0.00000E+00         0.00000E+00        -0.41724E+08
 
   -0.41394E+08         0.29948E+07         0.00000E+00
    0.29948E+07        -0.61245E+08         0.00000E+00
    0.00000E+00         0.00000E+00        -0.41769E+08
 
   -0.41683E+08         0.37011E+07         0.00000E+00
    0.37011E+07        -0.61156E+08         0.00000E+00
    0.00000E+00         0.00000E+00        -0.41806E+08
 
   -0.38073E+08        -0.15855E+06         0.00000E+00
   -0.15855E+06        -0.60024E+08         0.00000E+00
    0.00000E+00         0.00000E+00        -0.40230E+08
 
   -0.38593E+08        -0.42139E+06         0.00000E+00
   -0.42139E+06        -0.60119E+08         0.00000E+00
    0.00000E+00         0.00000E+00        -0.40348E+08
 
   -0.38932E+08        -0.61373E+06         0.00000E+00
   -0.61373E+06        -0.60267E+08         0.00000E+00
    0.00000E+00         0.00000E+00        -0.40436E+08
 
   -0.39155E+08        -0.72017E+06         0.00000E+00
   -0.72017E+06        -0.60443E+08         0.00000E+00
    0.00000E+00         0.00000E+00        -0.40505E+08
 
   -0.39301E+08        -0.73175E+06         0.00000E+00
   -0.73175E+06        -0.60632E+08         0.00000E+00
    0.00000E+00         0.00000E+00        -0.40560E+08
 
   -0.39402E+08        -0.64405E+06         0.00000E+00
   -0.64405E+06        -0.60821E+08         0.00000E+00
    0.00000E+00         0.00000E+00        -0.40606E+08
 
   -0.39485E+08        -0.45659E+06         0.00000E+00
   -0.45659E+06        -0.61001E+08         0.00000E+00
    0.00000E+00         0.00000E+00        -0.40647E+08
 
   -0.39570E+08        -0.17265E+06         0.00000E+00
   -0.17265E+06        -0.61165E+08         0.00000E+00
    0.00000E+00         0.00000E+00        -0.40686E+08
 
   -0.39677E+08         0.20056E+06         0.00000E+00
    0.20056E+06        -0.61303E+08         0.00000E+00
    0.00000E+00         0.00000E+00        -0.40727E+08
 
   -0.39818E+08         0.65295E+06         0.00000E+00
    0.65295E+06        -0.61413E+08         0.00000E+00
    0.00000E+00         0.00000E+00        -0.40770E+08
 
   -0.39998E+08         0.11736E+07         0.00000E+00
    0.11736E+07        -0.61490E+08         0.00000E+00
    0.00000E+00         0.00000E+00        -0.40816E+08
 
   -0.40216E+08         0.17520E+07         0.00000E+00
    0.17520E+07        -0.61534E+08         0.00000E+00
    0.00000E+00         0.00000E+00        -0.40863E+08
 
   -0.40462E+08         0.23793E+07         0.00000E+00
    0.23793E+07        -0.61546E+08         0.00000E+00
    0.00000E+00         0.00000E+00        -0.40911E+08
 
   -0.40712E+08         0.30510E+07         0.00000E+00
    0.30510E+07        -0.61528E+08         0.00000E+00
    0.00000E+00         0.00000E+00        -0.40955E+08
 
   -0.40915E+08         0.37777E+07         0.00000E+00
    0.37777E+07        -0.61488E+08         0.00000E+00
    0.00000E+00         0.00000E+00        -0.40986E+08
 
   -0.38419E+08        -0.21053E+06         0.00000E+00
   -0.21053E+06        -0.60023E+08         0.00000E+00
    0.00000E+00         0.00000E+00        -0.39499E+08
 
   -0.38850E+08        -0.54904E+06         0.00000E+00
   -0.54904E+06        -0.60111E+08         0.00000E+00
    0.00000E+00         0.00000E+00        -0.39598E+08
 
   -0.39098E+08        -0.78233E+06         0.00000E+00
   -0.78233E+06        -0.60260E+08         0.00000E+00
    0.00000E+00         0.00000E+00        -0.39669E+08
 
   -0.39222E+08        -0.91018E+06         0.00000E+00
   -0.91018E+06        -0.60441E+08         0.00000E+00
    0.00000E+00         0.00000E+00        -0.39720E+08
 
   -0.39264E+08        -0.92940E+06         0.00000E+00
   -0.92940E+06        -0.60639E+08         0.00000E+00
    0.00000E+00         0.00000E+00        -0.39758E+08
 
   -0.39261E+08        -0.83888E+06         0.00000E+00
   -0.83888E+06        -0.60841E+08         0.00000E+00
    0.00000E+00         0.00000E+00        -0.39787E+08
 
   -0.39240E+08        -0.63980E+06         0.00000E+00
   -0.63980E+06        -0.61038E+08         0.00000E+00
    0.00000E+00         0.00000E+00        -0.39813E+08
 
   -0.39229E+08        -0.33639E+06         0.00000E+00
   -0.33639E+06        -0.61221E+08         0.00000E+00
    0.00000E+00         0.00000E+00        -0.39839E+08
 
   -0.39249E+08         0.63114E+05         0.00000E+00
    0.63114E+05        -0.61383E+08         0.00000E+00
    0.00000E+00         0.00000E+00        -0.39869E+08
 
   -0.39315E+08         0.54448E+06         0.00000E+00
    0.54448E+06        -0.61518E+08         0.00000E+00
    0.00000E+00         0.00000E+00        -0.39905E+08
 
   -0.39432E+08         0.10945E+07         0.00000E+00
    0.10945E+07        -0.61629E+08         0.00000E+00
    0.00000E+00         0.00000E+00        -0.39946E+08
 
   -0.39598E+08         0.17029E+07         0.00000E+00
    0.17029E+07        -0.61715E+08         0.00000E+00
    0.00000E+00         0.00000E+00        -0.39993E+08
 
   -0.39800E+08         0.23569E+07         0.00000E+00
    0.23569E+07        -0.61778E+08         0.00000E+00
    0.00000E+00         0.00000E+00        -0.40044E+08
 
   -0.40011E+08         0.30489E+07         0.00000E+00
    0.30489E+07        -0.61825E+08         0.00000E+00
    0.00000E+00         0.00000E+00        -0.40094E+08
 
   -0.40146E+08         0.37696E+07         0.00000E+00
    0.37696E+07        -0.61899E+08         0.00000E+00
    0.00000E+00         0.00000E+00        -0.40147E+08
 
   -0.38858E+08        -0.25923E+06         0.00000E+00
   -0.25923E+06        -0.60022E+08         0.00000E+00
    0.00000E+00         0.00000E+00        -0.38739E+08
 
   -0.39165E+08        -0.67166E+06         0.00000E+00
   -0.67166E+06        -0.60106E+08         0.00000E+00
    0.00000E+00         0.00000E+00        -0.38813E+08
 
   -0.39296E+08        -0.95086E+06         0.00000E+00
   -0.95086E+06        -0.60249E+08         0.00000E+00
    0.00000E+00         0.00000E+00        -0.38861E+08
 
   -0.39304E+08        -0.11037E+07         0.00000E+00
   -0.11037E+07        -0.60429E+08         0.00000E+00
    0.00000E+00         0.00000E+00        -0.38890E+08
 
   -0.39231E+08        -0.11338E+07         0.00000E+00
   -0.11338E+07        -0.60627E+08         0.00000E+00
    0.00000E+00         0.00000E+00        -0.38907E+08
 
   -0.39114E+08        -0.10440E+07         0.00000E+00
   -0.10440E+07        -0.60833E+08         0.00000E+00
    0.00000E+00         0.00000E+00        -0.38916E+08
 
   -0.38982E+08        -0.83708E+06         0.00000E+00
   -0.83708E+06        -0.61037E+08         0.00000E+00
    0.00000E+00         0.00000E+00        -0.38923E+08
 
   -0.38866E+08        -0.51842E+06         0.00000E+00
   -0.51842E+06        -0.61231E+08         0.00000E+00
    0.00000E+00         0.00000E+00        -0.38933E+08
 
   -0.38794E+08        -0.97537E+05         0.00000E+00
   -0.97537E+05        -0.61409E+08         0.00000E+00
    0.00000E+00         0.00000E+00        -0.38950E+08
 
   -0.38787E+08         0.40877E+06         0.00000E+00
    0.40877E+06        -0.61571E+08         0.00000E+00
    0.00000E+00         0.00000E+00        -0.38979E+08
 
   -0.38841E+08         0.97719E+06         0.00000E+00
    0.97719E+06        -0.61709E+08         0.00000E+00
    0.00000E+00         0.00000E+00        -0.39015E+08
 
   -0.38953E+08         0.16012E+07         0.00000E+00
    0.16012E+07        -0.61843E+08         0.00000E+00
    0.00000E+00         0.00000E+00        -0.39075E+08
 
   -0.39108E+08         0.22763E+07         0.00000E+00
    0.22763E+07        -0.61962E+08         0.00000E+00
    0.00000E+00         0.00000E+00        -0.39164E+08
 
   -0.39279E+08         0.29903E+07         0.00000E+00
    0.29903E+07        -0.62044E+08         0.00000E+00
    0.00000E+00         0.00000E+00        -0.39295E+08
 
   -0.39531E+08         0.36614E+07         0.00000E+00
    0.36614E+07        -0.62100E+08         0.00000E+00
    0.00000E+00         0.00000E+00        -0.39536E+08
 
   -0.39383E+08        -0.30504E+06         0.00000E+00
   -0.30504E+06        -0.60020E+08         0.00000E+00
    0.00000E+00         0.00000E+00        -0.37952E+08
 
   -0.39538E+08        -0.78793E+06         0.00000E+00
   -0.78793E+06        -0.60099E+08         0.00000E+00
    0.00000E+00         0.00000E+00        -0.37995E+08
 
   -0.39529E+08        -0.11128E+07         0.00000E+00
   -0.11128E+07        -0.60234E+08         0.00000E+00
    0.00000E+00         0.00000E+00        -0.38015E+08
 
   -0.39405E+08        -0.12919E+07         0.00000E+00
   -0.12919E+07        -0.60404E+08         0.00000E+00
    0.00000E+00         0.00000E+00        -0.38017E+08
 
   -0.39205E+08        -0.13349E+07         0.00000E+00
   -0.13349E+07        -0.60593E+08         0.00000E+00
    0.00000E+00         0.00000E+00        -0.38009E+08
 
   -0.38965E+08        -0.12483E+07         0.00000E+00
   -0.12483E+07        -0.60790E+08         0.00000E+00
    0.00000E+00         0.00000E+00        -0.37994E+08
 
   -0.38714E+08        -0.10375E+07         0.00000E+00
   -0.10375E+07        -0.60987E+08         0.00000E+00
    0.00000E+00         0.00000E+00        -0.37979E+08
 
   -0.38488E+08        -0.70692E+06         0.00000E+00
   -0.70692E+06        -0.61178E+08         0.00000E+00
    0.00000E+00         0.00000E+00        -0.37969E+08
 
   -0.38316E+08        -0.26993E+06         0.00000E+00
   -0.26993E+06        -0.61358E+08         0.00000E+00
    0.00000E+00         0.00000E+00        -0.37969E+08
 
   -0.38238E+08         0.24919E+06         0.00000E+00
    0.24919E+06        -0.61511E+08         0.00000E+00
    0.00000E+00         0.00000E+00        -0.38015E+08
 
   -0.38221E+08         0.83866E+06         0.00000E+00
    0.83866E+06        -0.61674E+08         0.00000E+00
    0.00000E+00         0.00000E+00        -0.38093E+08
 
   -0.38281E+08         0.14952E+07         0.00000E+00
    0.14952E+07        -0.61791E+08         0.00000E+00
    0.00000E+00         0.00000E+00        -0.38258E+08
 
   -0.38403E+08         0.22004E+07         0.00000E+00
    0.22004E+07        -0.61865E+08         0.00000E+00
    0.00000E+00         0.00000E+00        -0.38492E+08
 
   -0.38601E+08         0.29068E+07         0.00000E+00
    0.29068E+07        -0.61942E+08         0.00000E+00
    0.00000E+00         0.00000E+00        -0.38751E+08
 
   -0.38909E+08         0.35716E+07         0.00000E+00
    0.35716E+07        -0.62034E+08         0.00000E+00
    0.00000E+00         0.00000E+00        -0.38989E+08
 
   -0.39990E+08        -0.34744E+06         0.00000E+00
   -0.34744E+06        -0.60018E+08         0.00000E+00
    0.00000E+00         0.00000E+00        -0.37140E+08
 
   -0.39967E+08        -0.89529E+06         0.00000E+00
   -0.89529E+06        -0.60090E+08         0.00000E+00
    0.00000E+00         0.00000E+00        -0.37147E+08
 
   -0.39796E+08        -0.12621E+07         0.00000E+00
   -0.12621E+07        -0.60212E+08         0.00000E+00
    0.00000E+00         0.00000E+00        -0.37134E+08
 
   -0.39524E+08        -0.14656E+07         0.00000E+00
   -0.14656E+07        -0.60365E+08         0.00000E+00
    0.00000E+00         0.00000E+00        -0.37105E+08
 
   -0.39186E+08        -0.15204E+07         0.00000E+00
   -0.15204E+07        -0.60533E+08         0.00000E+00
    0.00000E+00         0.00000E+00        -0.37067E+08
 
   -0.38816E+08        -0.14377E+07         0.00000E+00
   -0.14377E+07        -0.60707E+08         0.00000E+00
    0.00000E+00         0.00000E+00        -0.37024E+08
 
   -0.38440E+08        -0.12243E+07         0.00000E+00
   -0.12243E+07        -0.60882E+08         0.00000E+00
    0.00000E+00         0.00000E+00        -0.36982E+08
 
   -0.38091E+08        -0.88340E+06         0.00000E+00
   -0.88340E+06        -0.61050E+08         0.00000E+00
    0.00000E+00         0.00000E+00        -0.36945E+08
 
   -0.37826E+08        -0.42983E+06         0.00000E+00
   -0.42983E+06        -0.61193E+08         0.00000E+00
    0.00000E+00         0.00000E+00        -0.36957E+08
 
   -0.37653E+08         0.11019E+06         0.00000E+00
    0.11019E+06        -0.61349E+08         0.00000E+00
    0.00000E+00         0.00000E+00        -0.37057E+08
 
   -0.37597E+08         0.72276E+06         0.00000E+00
    0.72276E+06        -0.61458E+08         0.00000E+00
    0.00000E+00         0.00000E+00        -0.37301E+08
 
   -0.37597E+08         0.13923E+07         0.00000E+00
    0.13923E+07        -0.61563E+08         0.00000E+00
    0.00000E+00         0.00000E+00        -0.37577E+08
 
   -0.37696E+08         0.20979E+07         0.00000E+00
    0.20979E+07        -0.61677E+08         0.00000E+00
    0.00000E+00         0.00000E+00        -0.37864E+08
 
   -0.37910E+08         0.28074E+07         0.00000E+00
    0.28074E+07        -0.61789E+08         0.00000E+00
    0.00000E+00         0.00000E+00        -0.38134E+08
 
   -0.38236E+08         0.35089E+07         0.00000E+00
    0.35089E+07        -0.61871E+08         0.00000E+00
    0.00000E+00         0.00000E+00        -0.38343E+08
 
   -0.40671E+08        -0.38562E+06         0.00000E+00
   -0.38562E+06        -0.60016E+08         0.00000E+00
    0.00000E+00         0.00000E+00        -0.36306E+08
 
   -0.40445E+08        -0.99086E+06         0.00000E+00
   -0.99086E+06        -0.60079E+08         0.00000E+00
    0.00000E+00         0.00000E+00        -0.36271E+08
 
   -0.40093E+08        -0.13932E+07         0.00000E+00
   -0.13932E+07        -0.60184E+08         0.00000E+00
    0.00000E+00         0.00000E+00        -0.36219E+08
 
   -0.39658E+08        -0.16154E+07         0.00000E+00
   -0.16154E+07        -0.60312E+08         0.00000E+00
    0.00000E+00         0.00000E+00        -0.36155E+08
 
   -0.39173E+08        -0.16778E+07         0.00000E+00
   -0.16778E+07        -0.60449E+08         0.00000E+00
    0.00000E+00         0.00000E+00        -0.36084E+08
 
   -0.38667E+08        -0.15961E+07         0.00000E+00
   -0.15961E+07        -0.60587E+08         0.00000E+00
    0.00000E+00         0.00000E+00        -0.36009E+08
 
   -0.38159E+08        -0.13791E+07         0.00000E+00
   -0.13791E+07        -0.60722E+08         0.00000E+00
    0.00000E+00         0.00000E+00        -0.35935E+08
 
   -0.37678E+08        -0.10250E+07         0.00000E+00
   -0.10250E+07        -0.60849E+08         0.00000E+00
    0.00000E+00         0.00000E+00        -0.35872E+08
 
   -0.37301E+08        -0.55550E+06         0.00000E+00
   -0.55550E+06        -0.60968E+08         0.00000E+00
    0.00000E+00         0.00000E+00        -0.35924E+08
 
   -0.37091E+08        -0.10618E+05         0.00000E+00
   -0.10618E+05        -0.61077E+08         0.00000E+00
    0.00000E+00         0.00000E+00        -0.36188E+08
 
   -0.36953E+08         0.60117E+06         0.00000E+00
    0.60117E+06        -0.61196E+08         0.00000E+00
    0.00000E+00         0.00000E+00        -0.36506E+08
 
   -0.36910E+08         0.12697E+07         0.00000E+00
    0.12697E+07        -0.61324E+08         0.00000E+00
    0.00000E+00         0.00000E+00        -0.36835E+08
 
   -0.36983E+08         0.19759E+07         0.00000E+00
    0.19759E+07        -0.61452E+08         0.00000E+00
    0.00000E+00         0.00000E+00        -0.37150E+08
 
   -0.37187E+08         0.27080E+07         0.00000E+00
    0.27080E+07        -0.61568E+08         0.00000E+00
    0.00000E+00         0.00000E+00        -0.37425E+08
 
   -0.37520E+08         0.34506E+07         0.00000E+00
    0.34506E+07        -0.61651E+08         0.00000E+00
    0.00000E+00         0.00000E+00        -0.37634E+08
 
   -0.41417E+08        -0.41896E+06         0.00000E+00
   -0.41896E+06        -0.60014E+08         0.00000E+00
    0.00000E+00         0.00000E+00        -0.35450E+08
 
   -0.40964E+08        -0.10722E+07         0.00000E+00
   -0.10722E+07        -0.60067E+08         0.00000E+00
    0.00000E+00         0.00000E+00        -0.35369E+08
 
   -0.40411E+08        -0.15007E+07         0.00000E+00
   -0.15007E+07        -0.60152E+08         0.00000E+00
    0.00000E+00         0.00000E+00        -0.35275E+08
 
   -0.39800E+08        -0.17328E+07         0.00000E+00
   -0.17328E+07        -0.60248E+08         0.00000E+00
    0.00000E+00         0.00000E+00        -0.35171E+08
 
   -0.39161E+08        -0.17953E+07         0.00000E+00
   -0.17953E+07        -0.60344E+08         0.00000E+00
    0.00000E+00         0.00000E+00        -0.35063E+08
 
   -0.38514E+08        -0.17096E+07         0.00000E+00
   -0.17096E+07        -0.60435E+08         0.00000E+00
    0.00000E+00         0.00000E+00        -0.34954E+08
 
   -0.37871E+08        -0.14861E+07         0.00000E+00
   -0.14861E+07        -0.60518E+08         0.00000E+00
    0.00000E+00         0.00000E+00        -0.34846E+08
 
   -0.37244E+08        -0.11239E+07         0.00000E+00
   -0.11239E+07        -0.60594E+08         0.00000E+00
    0.00000E+00         0.00000E+00        -0.34763E+08
 
   -0.36804E+08        -0.65975E+06         0.00000E+00
   -0.65975E+06        -0.60680E+08         0.00000E+00
    0.00000E+00         0.00000E+00        -0.34928E+08
 
   -0.36520E+08        -0.12881E+06         0.00000E+00
   -0.12881E+06        -0.60782E+08         0.00000E+00
    0.00000E+00         0.00000E+00        -0.35271E+08
 
   -0.36316E+08         0.47294E+06         0.00000E+00
    0.47294E+06        -0.60902E+08         0.00000E+00
    0.00000E+00         0.00000E+00        -0.35634E+08
 
   -0.36221E+08         0.11351E+07         0.00000E+00
    0.11351E+07        -0.61034E+08         0.00000E+00
    0.00000E+00         0.00000E+00        -0.35997E+08
 
   -0.36255E+08         0.18490E+07         0.00000E+00
    0.18490E+07        -0.61168E+08         0.00000E+00
    0.00000E+00         0.00000E+00        -0.36340E+08
 
   -0.36431E+08         0.26052E+07         0.00000E+00
    0.26052E+07        -0.61289E+08         0.00000E+00
    0.00000E+00         0.00000E+00        -0.36638E+08
 
   -0.36759E+08         0.33867E+07         0.00000E+00
    0.33867E+07        -0.61381E+08         0.00000E+00
    0.00000E+00         0.00000E+00        -0.36866E+08
 
   -0.42219E+08        -0.44732E+06         0.00000E+00
   -0.44732E+06        -0.60012E+08         0.00000E+00
    0.00000E+00         0.00000E+00        -0.34576E+08
 
   -0.41514E+08        -0.11377E+07         0.00000E+00
   -0.11377E+07        -0.60054E+08         0.00000E+00
    0.00000E+00         0.00000E+00        -0.34444E+08
 
   -0.40741E+08        -0.15804E+07         0.00000E+00
   -0.15804E+07        -0.60116E+08         0.00000E+00
    0.00000E+00         0.00000E+00        -0.34302E+08
 
   -0.39941E+08        -0.18106E+07         0.00000E+00
   -0.18106E+07        -0.60176E+08         0.00000E+00
    0.00000E+00         0.00000E+00        -0.34156E+08
 
   -0.39142E+08        -0.18633E+07         0.00000E+00
   -0.18633E+07        -0.60224E+08         0.00000E+00
    0.00000E+00         0.00000E+00        -0.34010E+08
 
   -0.38355E+08        -0.17674E+07         0.00000E+00
   -0.17674E+07        -0.60258E+08         0.00000E+00
    0.00000E+00         0.00000E+00        -0.33864E+08
 
   -0.37575E+08        -0.15384E+07         0.00000E+00
   -0.15384E+07        -0.60283E+08         0.00000E+00
    0.00000E+00         0.00000E+00        -0.33720E+08
 
   -0.36822E+08        -0.11842E+07         0.00000E+00
   -0.11842E+07        -0.60307E+08         0.00000E+00
    0.00000E+00         0.00000E+00        -0.33637E+08
 
   -0.36329E+08        -0.74490E+06         0.00000E+00
   -0.74490E+06        -0.60364E+08         0.00000E+00
    0.00000E+00         0.00000E+00        -0.33896E+08
 
   -0.35961E+08        -0.23632E+06         0.00000E+00
   -0.23632E+06        -0.60446E+08         0.00000E+00
    0.00000E+00         0.00000E+00        -0.34269E+08
 
   -0.35689E+08         0.34732E+06         0.00000E+00
    0.34732E+06        -0.60555E+08         0.00000E+00
    0.00000E+00         0.00000E+00        -0.34658E+08
 
   -0.35533E+08         0.99933E+06         0.00000E+00
    0.99933E+06        -0.60683E+08         0.00000E+00
    0.00000E+00         0.00000E+00        -0.35051E+08
 
   -0.35511E+08         0.17159E+07         0.00000E+00
    0.17159E+07        -0.60820E+08         0.00000E+00
    0.00000E+00         0.00000E+00        -0.35430E+08
 
   -0.35645E+08         0.24908E+07         0.00000E+00
    0.24908E+07        -0.60953E+08         0.00000E+00
    0.00000E+00         0.00000E+00        -0.35770E+08
 
   -0.35954E+08         0.33083E+07         0.00000E+00
    0.33083E+07        -0.61063E+08         0.00000E+00
    0.00000E+00         0.00000E+00        -0.36039E+08
 
   -0.43065E+08        -0.47110E+06         0.00000E+00
   -0.47110E+06        -0.60010E+08         0.00000E+00
    0.00000E+00         0.00000E+00        -0.33686E+08
 
   -0.42083E+08        -0.11866E+07         0.00000E+00
   -0.11866E+07        -0.60042E+08         0.00000E+00
    0.00000E+00         0.00000E+00        -0.33497E+08
 
   -0.41069E+08        -0.16288E+07         0.00000E+00
   -0.16288E+07        -0.60078E+08         0.00000E+00
    0.00000E+00         0.00000E+00        -0.33304E+08
 
   -0.40069E+08        -0.18426E+07         0.00000E+00
   -0.18426E+07        -0.60098E+08         0.00000E+00
    0.00000E+00         0.00000E+00        -0.33113E+08
 
   -0.39108E+08        -0.18738E+07         0.00000E+00
   -0.18738E+07        -0.60091E+08         0.00000E+00
    0.00000E+00         0.00000E+00        -0.32925E+08
 
   -0.38187E+08        -0.17617E+07         0.00000E+00
   -0.17617E+07        -0.60060E+08         0.00000E+00
    0.00000E+00         0.00000E+00        -0.32743E+08
 
   -0.37284E+08        -0.15325E+07         0.00000E+00
   -0.15325E+07        -0.60021E+08         0.00000E+00
    0.00000E+00         0.00000E+00        -0.32564E+08
 
   -0.36436E+08        -0.12038E+07         0.00000E+00
   -0.12038E+07        -0.59994E+08         0.00000E+00
    0.00000E+00         0.00000E+00        -0.32486E+08
 
   -0.35875E+08        -0.79908E+06         0.00000E+00
   -0.79908E+06        -0.60006E+08         0.00000E+00
    0.00000E+00         0.00000E+00        -0.32780E+08
 
   -0.35429E+08        -0.32126E+06         0.00000E+00
   -0.32126E+06        -0.60056E+08         0.00000E+00
    0.00000E+00         0.00000E+00        -0.33161E+08
 
   -0.35082E+08         0.23308E+06         0.00000E+00
    0.23308E+06        -0.60143E+08         0.00000E+00
    0.00000E+00         0.00000E+00        -0.33566E+08
 
   -0.34853E+08         0.86430E+06         0.00000E+00
    0.86430E+06        -0.60263E+08         0.00000E+00
    0.00000E+00         0.00000E+00        -0.33989E+08
 
   -0.34761E+08         0.15726E+07         0.00000E+00
    0.15726E+07        -0.60406E+08         0.00000E+00
    0.00000E+00         0.00000E+00        -0.34414E+08
 
   -0.34834E+08         0.23560E+07         0.00000E+00
    0.23560E+07        -0.60557E+08         0.00000E+00
    0.00000E+00         0.00000E+00        -0.34815E+08
 
   -0.35108E+08         0.32063E+07         0.00000E+00
    0.32063E+07        -0.60696E+08         0.00000E+00
    0.00000E+00         0.00000E+00        -0.35150E+08
 
   -0.43947E+08        -0.49104E+06         0.00000E+00
   -0.49104E+06        -0.60009E+08         0.00000E+00
    0.00000E+00         0.00000E+00        -0.32783E+08
 
   -0.42654E+08        -0.12175E+07         0.00000E+00
   -0.12175E+07        -0.60029E+08         0.00000E+00
    0.00000E+00         0.00000E+00        -0.32531E+08
 
   -0.41377E+08        -0.16409E+07         0.00000E+00
   -0.16409E+07        -0.60036E+08         0.00000E+00
    0.00000E+00         0.00000E+00        -0.32283E+08
 
   -0.40169E+08        -0.18218E+07         0.00000E+00
   -0.18218E+07        -0.60006E+08         0.00000E+00
    0.00000E+00         0.00000E+00        -0.32042E+08
 
   -0.39049E+08        -0.18204E+07         0.00000E+00
   -0.18204E+07        -0.59936E+08         0.00000E+00
    0.00000E+00         0.00000E+00        -0.31813E+08
 
   -0.38009E+08        -0.16871E+07         0.00000E+00
   -0.16871E+07        -0.59836E+08         0.00000E+00
    0.00000E+00         0.00000E+00        -0.31595E+08
 
   -0.37012E+08        -0.14618E+07         0.00000E+00
   -0.14618E+07        -0.59727E+08         0.00000E+00
    0.00000E+00         0.00000E+00        -0.31386E+08
 
   -0.36091E+08        -0.11699E+07         0.00000E+00
   -0.11699E+07        -0.59638E+08         0.00000E+00
    0.00000E+00         0.00000E+00        -0.31290E+08
 
   -0.35455E+08        -0.80866E+06         0.00000E+00
   -0.80866E+06        -0.59592E+08         0.00000E+00
    0.00000E+00         0.00000E+00        -0.31565E+08
 
   -0.34933E+08        -0.37418E+06         0.00000E+00
   -0.37418E+06        -0.59598E+08         0.00000E+00
    0.00000E+00         0.00000E+00        -0.31933E+08
 
   -0.34507E+08         0.13541E+06         0.00000E+00
    0.13541E+06        -0.59657E+08         0.00000E+00
    0.00000E+00         0.00000E+00        -0.32344E+08
 
   -0.34195E+08         0.72930E+06         0.00000E+00
    0.72930E+06        -0.59768E+08         0.00000E+00
    0.00000E+00         0.00000E+00        -0.32798E+08
 
   -0.34018E+08         0.14142E+07         0.00000E+00
    0.14142E+07        -0.59921E+08         0.00000E+00
    0.00000E+00         0.00000E+00        -0.33280E+08
 
   -0.34008E+08         0.21919E+07         0.00000E+00
    0.21919E+07        -0.60098E+08         0.00000E+00
    0.00000E+00         0.00000E+00        -0.33763E+08
 
   -0.34221E+08         0.30570E+07         0.00000E+00
    0.30570E+07        -0.60281E+08         0.00000E+00
    0.00000E+00         0.00000E+00        -0.34189E+08
 
   -0.44853E+08        -0.50755E+06         0.00000E+00
   -0.50755E+06        -0.60007E+08         0.00000E+00
    0.00000E+00         0.00000E+00        -0.31872E+08
 
   -0.43209E+08        -0.12264E+07         0.00000E+00
   -0.12264E+07        -0.60013E+08         0.00000E+00
    0.00000E+00         0.00000E+00        -0.31548E+08
 
   -0.41647E+08        -0.16071E+07         0.00000E+00
   -0.16071E+07        -0.59979E+08         0.00000E+00
    0.00000E+00         0.00000E+00        -0.31236E+08
 
   -0.40228E+08        -0.17368E+07         0.00000E+00
   -0.17368E+07        -0.59885E+08         0.00000E+00
    0.00000E+00         0.00000E+00        -0.30943E+08
 
   -0.38960E+08        -0.16948E+07         0.00000E+00
   -0.16948E+07        -0.59740E+08         0.00000E+00
    0.00000E+00         0.00000E+00        -0.30671E+08
 
   -0.37820E+08        -0.15405E+07         0.00000E+00
   -0.15405E+07        -0.59564E+08         0.00000E+00
    0.00000E+00         0.00000E+00        -0.30420E+08
 
   -0.36767E+08        -0.13207E+07         0.00000E+00
   -0.13207E+07        -0.59384E+08         0.00000E+00
    0.00000E+00         0.00000E+00        -0.30187E+08
 
   -0.35793E+08        -0.10695E+07         0.00000E+00
   -0.10695E+07        -0.59232E+08         0.00000E+00
    0.00000E+00         0.00000E+00        -0.30034E+08
 
   -0.35082E+08        -0.76139E+06         0.00000E+00
   -0.76139E+06        -0.59112E+08         0.00000E+00
    0.00000E+00         0.00000E+00        -0.30243E+08
 
   -0.34492E+08        -0.38593E+06         0.00000E+00
   -0.38593E+06        -0.59066E+08         0.00000E+00
    0.00000E+00         0.00000E+00        -0.30578E+08
 
   -0.33986E+08         0.59174E+05         0.00000E+00
    0.59174E+05        -0.59089E+08         0.00000E+00
    0.00000E+00         0.00000E+00        -0.30981E+08
 
   -0.33579E+08         0.59175E+06         0.00000E+00
    0.59175E+06        -0.59188E+08         0.00000E+00
    0.00000E+00         0.00000E+00        -0.31460E+08
 
   -0.33300E+08         0.12301E+07         0.00000E+00
    0.12301E+07        -0.59358E+08         0.00000E+00
    0.00000E+00         0.00000E+00        -0.32010E+08
 
   -0.33185E+08         0.19843E+07         0.00000E+00
    0.19843E+07        -0.59577E+08         0.00000E+00
    0.00000E+00         0.00000E+00        -0.32599E+08
 
   -0.33300E+08         0.28584E+07         0.00000E+00
    0.28584E+07        -0.59815E+08         0.00000E+00
    0.00000E+00         0.00000E+00        -0.33156E+08
 
   -0.45769E+08        -0.51969E+06         0.00000E+00
   -0.51969E+06        -0.60005E+08         0.00000E+00
    0.00000E+00         0.00000E+00        -0.30955E+08
 
   -0.43718E+08        -0.12013E+07         0.00000E+00
   -0.12013E+07        -0.59986E+08         0.00000E+00
    0.00000E+00         0.00000E+00        -0.30546E+08
 
   -0.41854E+08        -0.15061E+07         0.00000E+00
   -0.15061E+07        -0.59886E+08         0.00000E+00
    0.00000E+00         0.00000E+00        -0.30162E+08
 
   -0.40235E+08        -0.15675E+07         0.00000E+00
   -0.15675E+07        -0.59699E+08         0.00000E+00
    0.00000E+00         0.00000E+00        -0.29811E+08
 
   -0.38842E+08        -0.14852E+07         0.00000E+00
   -0.14852E+07        -0.59458E+08         0.00000E+00
    0.00000E+00         0.00000E+00        -0.29496E+08
 
   -0.37627E+08        -0.13198E+07         0.00000E+00
   -0.13198E+07        -0.59200E+08         0.00000E+00
    0.00000E+00         0.00000E+00        -0.29214E+08
 
   -0.36542E+08        -0.11111E+07         0.00000E+00
   -0.11111E+07        -0.58951E+08         0.00000E+00
    0.00000E+00         0.00000E+00        -0.28962E+08
 
   -0.35558E+08        -0.89618E+06         0.00000E+00
   -0.89618E+06        -0.58736E+08         0.00000E+00
    0.00000E+00         0.00000E+00        -0.28758E+08
 
   -0.34764E+08        -0.65322E+06         0.00000E+00
   -0.65322E+06        -0.58555E+08         0.00000E+00
    0.00000E+00         0.00000E+00        -0.28814E+08
 
   -0.34121E+08        -0.34986E+06         0.00000E+00
   -0.34986E+06        -0.58449E+08         0.00000E+00
    0.00000E+00         0.00000E+00        -0.29094E+08
 
   -0.33541E+08         0.11837E+05         0.00000E+00
    0.11837E+05        -0.58431E+08         0.00000E+00
    0.00000E+00         0.00000E+00        -0.29469E+08
 
   -0.33035E+08         0.45280E+06         0.00000E+00
    0.45280E+06        -0.58510E+08         0.00000E+00
    0.00000E+00         0.00000E+00        -0.29956E+08
 
   -0.32631E+08         0.10093E+07         0.00000E+00
    0.10093E+07        -0.58698E+08         0.00000E+00
    0.00000E+00         0.00000E+00        -0.30572E+08
 
   -0.32375E+08         0.17138E+07         0.00000E+00
    0.17138E+07        -0.58976E+08         0.00000E+00
    0.00000E+00         0.00000E+00        -0.31297E+08
 
   -0.32348E+08         0.25806E+07         0.00000E+00
    0.25806E+07        -0.59302E+08         0.00000E+00
    0.00000E+00         0.00000E+00        -0.32046E+08
 
   -0.46671E+08        -0.52237E+06         0.00000E+00
   -0.52237E+06        -0.59998E+08         0.00000E+00
    0.00000E+00         0.00000E+00        -0.30035E+08
 
   -0.44137E+08        -0.11114E+07         0.00000E+00
   -0.11114E+07        -0.59925E+08         0.00000E+00
    0.00000E+00         0.00000E+00        -0.29519E+08
 
   -0.41971E+08        -0.12964E+07         0.00000E+00
   -0.12964E+07        -0.59707E+08         0.00000E+00
    0.00000E+00         0.00000E+00        -0.29051E+08
 
   -0.40190E+08        -0.12834E+07         0.00000E+00
   -0.12834E+07        -0.59383E+08         0.00000E+00
    0.00000E+00         0.00000E+00        -0.28640E+08
 
   -0.38710E+08        -0.11776E+07         0.00000E+00
   -0.11776E+07        -0.59026E+08         0.00000E+00
    0.00000E+00         0.00000E+00        -0.28284E+08
 
   -0.37446E+08        -0.10234E+07         0.00000E+00
   -0.10234E+07        -0.58678E+08         0.00000E+00
    0.00000E+00         0.00000E+00        -0.27974E+08
 
   -0.36342E+08        -0.84636E+06         0.00000E+00
   -0.84636E+06        -0.58366E+08         0.00000E+00
    0.00000E+00         0.00000E+00        -0.27704E+08
 
   -0.35373E+08        -0.66790E+06         0.00000E+00
   -0.66790E+06        -0.58105E+08         0.00000E+00
    0.00000E+00         0.00000E+00        -0.27471E+08
 
   -0.34524E+08        -0.48578E+06         0.00000E+00
   -0.48578E+06        -0.57910E+08         0.00000E+00
    0.00000E+00         0.00000E+00        -0.27338E+08
 
   -0.33830E+08        -0.26470E+06         0.00000E+00
   -0.26470E+06        -0.57739E+08         0.00000E+00
    0.00000E+00         0.00000E+00        -0.27490E+08
 
   -0.33196E+08        -0.30958E+03         0.00000E+00
   -0.30958E+03        -0.57677E+08         0.00000E+00
    0.00000E+00         0.00000E+00        -0.27815E+08
 
   -0.32601E+08         0.32374E+06         0.00000E+00
    0.32374E+06        -0.57731E+08         0.00000E+00
    0.00000E+00         0.00000E+00        -0.28282E+08
 
   -0.32054E+08         0.74667E+06         0.00000E+00
    0.74667E+06        -0.57922E+08         0.00000E+00
    0.00000E+00         0.00000E+00        -0.28937E+08
 
   -0.31614E+08         0.13466E+07         0.00000E+00
    0.13466E+07        -0.58280E+08         0.00000E+00
    0.00000E+00         0.00000E+00        -0.29821E+08
 
   -0.31379E+08         0.21728E+07         0.00000E+00
    0.21728E+07        -0.58747E+08         0.00000E+00
    0.00000E+00         0.00000E+00        -0.30852E+08
 
   -0.47500E+08        -0.49488E+06         0.00000E+00
   -0.49488E+06        -0.59975E+08         0.00000E+00
    0.00000E+00         0.00000E+00        -0.29104E+08
 
   -0.44396E+08        -0.87758E+06         0.00000E+00
   -0.87758E+06        -0.59758E+08         0.00000E+00
    0.00000E+00         0.00000E+00        -0.28445E+08
 
   -0.41989E+08        -0.91472E+06         0.00000E+00
   -0.91472E+06        -0.59326E+08         0.00000E+00
    0.00000E+00         0.00000E+00        -0.27884E+08
 
   -0.40116E+08        -0.85909E+06         0.00000E+00
   -0.85909E+06        -0.58835E+08         0.00000E+00
    0.00000E+00         0.00000E+00        -0.27420E+08
 
   -0.38589E+08        -0.76601E+06         0.00000E+00
   -0.76601E+06        -0.58358E+08         0.00000E+00
    0.00000E+00         0.00000E+00        -0.27027E+08
 
   -0.37303E+08        -0.65430E+06         0.00000E+00
   -0.65430E+06        -0.57927E+08         0.00000E+00
    0.00000E+00         0.00000E+00        -0.26693E+08
 
   -0.36192E+08        -0.53482E+06         0.00000E+00
   -0.53482E+06        -0.57560E+08         0.00000E+00
    0.00000E+00         0.00000E+00        -0.26407E+08
 
   -0.35222E+08        -0.41301E+06         0.00000E+00
   -0.41301E+06        -0.57262E+08         0.00000E+00
    0.00000E+00         0.00000E+00        -0.26163E+08
 
   -0.34380E+08        -0.29024E+06         0.00000E+00
   -0.29024E+06        -0.57043E+08         0.00000E+00
    0.00000E+00         0.00000E+00        -0.25962E+08
 
   -0.33623E+08        -0.15043E+06         0.00000E+00
   -0.15043E+06        -0.56917E+08         0.00000E+00
    0.00000E+00         0.00000E+00        -0.25854E+08
 
   -0.32955E+08         0.17311E+05         0.00000E+00
    0.17311E+05        -0.56824E+08         0.00000E+00
    0.00000E+00         0.00000E+00        -0.26041E+08
 
   -0.32309E+08         0.21469E+06         0.00000E+00
    0.21469E+06        -0.56852E+08         0.00000E+00
    0.00000E+00         0.00000E+00        -0.26454E+08
 
   -0.31647E+08         0.45792E+06         0.00000E+00
    0.45792E+06        -0.57051E+08         0.00000E+00
    0.00000E+00         0.00000E+00        -0.27109E+08
 
   -0.30957E+08         0.84783E+06         0.00000E+00
    0.84783E+06        -0.57453E+08         0.00000E+00
    0.00000E+00         0.00000E+00        -0.28117E+08
 
   -0.30414E+08         0.15725E+07         0.00000E+00
    0.15725E+07        -0.58136E+08         0.00000E+00
    0.00000E+00         0.00000E+00        -0.29553E+08
 
   -0.48089E+08        -0.30444E+06         0.00000E+00
   -0.30444E+06        -0.59778E+08         0.00000E+00
    0.00000E+00         0.00000E+00        -0.28106E+08
 
   -0.44445E+08        -0.35923E+06         0.00000E+00
   -0.35923E+06        -0.59207E+08         0.00000E+00
    0.00000E+00         0.00000E+00        -0.27266E+08
 
   -0.41963E+08        -0.33670E+06         0.00000E+00
   -0.33670E+06        -0.58555E+08         0.00000E+00
    0.00000E+00         0.00000E+00        -0.26642E+08
 
   -0.40058E+08        -0.30548E+06         0.00000E+00
   -0.30548E+06        -0.57933E+08         0.00000E+00
    0.00000E+00         0.00000E+00        -0.26139E+08
 
   -0.38517E+08        -0.26781E+06         0.00000E+00
   -0.26781E+06        -0.57372E+08         0.00000E+00
    0.00000E+00         0.00000E+00        -0.25722E+08
 
   -0.37223E+08        -0.22677E+06         0.00000E+00
   -0.22677E+06        -0.56886E+08         0.00000E+00
    0.00000E+00         0.00000E+00        -0.25370E+08
 
   -0.36110E+08        -0.18425E+06         0.00000E+00
   -0.18425E+06        -0.56481E+08         0.00000E+00
    0.00000E+00         0.00000E+00        -0.25070E+08
 
   -0.35140E+08        -0.14217E+06         0.00000E+00
   -0.14217E+06        -0.56159E+08         0.00000E+00
    0.00000E+00         0.00000E+00        -0.24815E+08
 
   -0.34289E+08        -0.96206E+05         0.00000E+00
   -0.96206E+05        -0.55921E+08         0.00000E+00
    0.00000E+00         0.00000E+00        -0.24602E+08
 
   -0.33541E+08        -0.45384E+05         0.00000E+00
   -0.45384E+05        -0.55783E+08         0.00000E+00
    0.00000E+00         0.00000E+00        -0.24428E+08
 
   -0.32820E+08         0.14266E+05         0.00000E+00
    0.14266E+05        -0.55785E+08         0.00000E+00
    0.00000E+00         0.00000E+00        -0.24296E+08
 
   -0.32161E+08         0.82534E+05         0.00000E+00
    0.82534E+05        -0.55898E+08         0.00000E+00
    0.00000E+00         0.00000E+00        -0.24536E+08
 
   -0.31456E+08         0.15523E+06         0.00000E+00
    0.15523E+06        -0.56139E+08         0.00000E+00
    0.00000E+00         0.00000E+00        -0.25174E+08
 
   -0.30580E+08         0.27939E+06         0.00000E+00
    0.27939E+06        -0.56581E+08         0.00000E+00
    0.00000E+00         0.00000E+00        -0.26219E+08
 
   -0.29489E+08         0.60831E+06         0.00000E+00
    0.60831E+06        -0.57383E+08         0.00000E+00
    0.00000E+00         0.00000E+00        -0.28057E+08
 
SCALARS stressS double 
LOOKUP_TABLE default
  -48643192.4494220     
  -48598021.8537358     
  -48526307.8313200     
  -48429183.2360743     
  -48348280.3692541     
  -48665505.8076791     
  -49025495.1364773     
  -49356947.3873316     
  -49661970.1994238     
  -49942656.5127514     
  -50200932.4725023     
  -50438534.8821936     
  -50657008.7052354     
  -50857705.9904084     
  -51041781.1103626     
  -48618384.8573648     
  -48573991.2365292     
  -48501644.3433135     
  -48403839.6610894     
  -48334277.0761022     
  -48658672.9097675     
  -49016118.3276514     
  -49344911.2294248     
  -49647503.8415272     
  -49926034.4802080     
  -50182428.9345059     
  -50418417.0341722     
  -50635538.7336117     
  -50835146.9952607     
  -51018404.6987681     
  -48567276.7767652     
  -48523205.5091318     
  -48451621.4905737     
  -48354067.2289158     
  -48308203.4771979     
  -48645524.4800270     
  -48997085.1839222     
  -49320463.4242096     
  -49618202.9505959     
  -49892445.6901695     
  -50145101.3566584     
  -50377879.0914208     
  -50592306.2878686     
  -50789736.4670879     
  -50971349.1844398     
  -48491502.1971039     
  -48447099.3522258     
  -48376998.7025551     
  -48282190.0230666     
  -48273640.8191572     
  -48625429.1081371     
  -48967599.2011192     
  -49282818.7782396     
  -49573326.2901568     
  -49841208.2278070     
  -50088319.9714398     
  -50316329.6968529     
  -50526740.1030746     
  -50720903.1024167     
  -50900022.4667147     
  -48389809.4561837     
  -48345815.3752378     
  -48276200.4836110     
  -48188300.0884358     
  -48237414.2440637     
  -48596237.9519492     
  -48926304.2938960     
  -49230748.5438002     
  -49511769.5169590     
  -49771320.6500402     
  -50011170.5398612     
  -50232915.2907344     
  -50438017.9511278     
  -50627824.6176109     
  -50803570.0800274     
  -48262538.5187011     
  -48219413.2115229     
  -48151746.0402063     
  -48068623.1625411     
  -48208117.8955856     
  -48556044.3901144     
  -48871302.1142742     
  -49162634.4133498     
  -49432083.4780744     
  -49681500.1908895     
  -49912494.1635432     
  -50126561.8358874     
  -50325108.7394308     
  -50509469.8109385     
  -50680916.6230770     
  -48109313.4985058     
  -48067105.0253858     
  -48004966.2794695     
  -47946571.2184955     
  -48184732.3386490     
  -48502399.8185448     
  -48800455.2263052     
  -49076438.1089279     
  -49332545.7015196     
  -49570237.8078745     
  -49790944.9368592     
  -49996031.0863356     
  -50186828.7910961     
  -50364654.8645182     
  -50530821.8718704     
  -47930798.0119823     
  -47888953.4765104     
  -47833254.6639609     
  -47846192.1114689     
  -48135872.1098262     
  -48433124.2637104     
  -48710707.4018174     
  -48969912.5387183     
  -49211230.6093077     
  -49435881.9244601     
  -49645061.4398295     
  -49839990.2412501     
  -50021911.3301545     
  -50192113.5573214     
  -50351951.3143105     
  -47726482.1104017     
  -47686846.3293147     
  -47648126.3814289     
  -47773531.7246908     
  -48066744.2300813     
  -48341336.3815182     
  -48599284.0244741     
  -48840629.0077259     
  -49066160.4477965     
  -49276727.4224219     
  -49473348.8437642     
  -49657090.8018954     
  -49829087.9134863     
  -49990581.3083571     
  -50142960.8054207     
  -47496806.3638208     
  -47461912.3904725     
  -47478041.2864654     
  -47705389.8028336     
  -47971992.9088765     
  -48225254.1379473     
  -48463197.0877448     
  -48686375.0638570     
  -48895404.5399552     
  -49091110.7222914     
  -49274357.1242024     
  -49446051.7459465     
  -49607180.8621606     
  -49758895.0207321     
  -49902596.8423196     
  -47242759.0146831     
  -47224964.7170466     
  -47352551.0727376     
  -47603936.5247962     
  -47850382.4989616     
  -48082416.1249529     
  -48300516.3316358     
  -48505156.9412776     
  -48697194.4594913     
  -48877465.5127847     
  -49046743.3627513     
  -49205739.3279358     
  -49355208.4093244     
  -49496116.0462786     
  -49629820.0292171     
  -46968427.7445420     
  -47019909.7558418     
  -47232484.9897769     
  -47473313.8978417     
  -47699972.9034373     
  -47911631.6567416     
  -48109648.9391518     
  -48295344.6574766     
  -48469910.0688565     
  -48634330.4968923     
  -48789293.6993591     
  -48935235.0069091     
  -49072507.7772714     
  -49201696.2533817     
  -49323973.6666142     
  -46699017.0187384     
  -46850403.0199991     
  -47089440.0869693     
  -47315037.9689297     
  -47521511.8634572     
  -47712232.5375783     
  -47889490.8770755     
  -48055492.5619871     
  -48212007.6509446     
  -48360263.9692432     
  -48500878.3863572     
  -48633867.7200361     
  -48758889.4135162     
  -48875728.8084685     
  -48985056.3207900     
  -46462262.0002269     
  -46691645.4184598     
  -46924220.2496106     
  -47130992.2616244     
  -47316167.1094016     
  -47484225.5367291     
  -47639159.0882796     
  -47784196.7009226     
  -47921827.4107718     
  -48053655.7094457     
  -48180268.3439154     
  -48301166.5580129     
  -48414801.4488780     
  -48519399.4822300     
  -48614232.3362997     
  -46268434.7889483     
  -46524112.3306990     
  -46740910.7573537     
  -46925230.4280526     
  -47085406.8320386     
  -47227790.2761889     
  -47357791.3062372     
  -47479844.1183740     
  -47597337.1877601     
  -47712409.5336173     
  -47825774.3464076     
  -47936444.4100382     
  -48041519.0954406     
  -48135719.0972521     
  -48215089.3096816     
  -46108959.5811110     
  -46353575.6090820     
  -46545161.5318739     
  -46700996.1037873     
  -46830877.3015716     
  -46943017.2241864     
  -47044255.5711609     
  -47140373.6505949     
  -47235788.8013049     
  -47333541.4436583     
  -47434665.9915901     
  -47538031.5913234     
  -47639679.4182582     
  -47731681.7828740     
  -47796661.4809073     
  -45980269.5556803     
  -46186336.5908866     
  -46342435.7635691     
  -46461146.0430986     
  -46553843.2922708     
  -46629755.9341175     
  -46697001.0914846     
  -46762839.2401099     
  -46833592.5209843     
  -46912610.2247365     
  -47002436.7271369     
  -47102234.1668530     
  -47207407.0995159     
  -47309834.2719351     
  -47397262.0450056     
  -45872584.3101233     
  -46027902.9495399     
  -46135607.7690212     
  -46207779.0402050     
  -46255176.4644380     
  -46287568.2777282     
  -46314121.6273175     
  -46343498.9957697     
  -46384368.8020374     
  -46445441.8115018     
  -46521772.8152984     
  -46623506.0657367     
  -46744646.9171792     
  -46872801.7211535     
  -47055953.0794011     
  -45785110.8143933     
  -45877628.7229340     
  -45926165.8817593     
  -45942002.7602513     
  -45935450.4864788     
  -45916139.9282477     
  -45893482.6069728     
  -45878388.6537975     
  -45880731.4334758     
  -45921197.0874716     
  -45996127.9933898     
  -46110055.6840218     
  -46253217.6431072     
  -46431507.0161380     
  -46644105.6541824     
  -45716302.2370713     
  -45734925.7351646     
  -45714081.6570277     
  -45664327.0780598     
  -45595228.8890283     
  -45515636.0462333     
  -45434673.6865926     
  -45361937.0636899     
  -45325485.8697102     
  -45353150.3017435     
  -45451898.7618527     
  -45579234.0636335     
  -45745789.3099457     
  -45944339.8467331     
  -46150166.2431905     
  -45664374.8874102     
  -45598578.1400833     
  -45498800.1563170     
  -45374823.6822865     
  -45235213.2352925     
  -45087588.0205716     
  -44938761.0388938     
  -44799744.8472479     
  -44730976.9293793     
  -44785234.7832726     
  -44885075.6690462     
  -45022837.8253269     
  -45195324.0457727     
  -45393063.3678474     
  -45601376.7936907     
  -45627118.8401179     
  -45466872.7244384     
  -45279152.7764129     
  -45073120.4974015     
  -44856263.8646983     
  -44634266.8948522     
  -44411857.7982533     
  -44200544.0995146     
  -44137481.5473408     
  -44191024.9650825     
  -44283873.2606410     
  -44417189.3291319     
  -44587544.7157600     
  -44785965.9865977     
  -45002018.7372511     
  -45602109.8242338     
  -45337490.8421996     
  -45053089.5415844     
  -44757962.1877951     
  -44458691.8754669     
  -44158915.8387263     
  -43859136.5033678     
  -43588839.7352030     
  -43529809.4978948     
  -43558882.4212367     
  -43634032.9046131     
  -43755499.0743117     
  -43920392.6640906     
  -44122781.9159354     
  -44351867.4351256     
  -45586963.0074448     
  -45207274.5558990     
  -44817096.9437020     
  -44426329.2986185     
  -44041215.3775138     
  -43663499.4549967     
  -43289510.6354855     
  -42972027.5195025     
  -42887006.5246207     
  -42881646.1214357     
  -42930135.1417188     
  -43034877.5974132     
  -43193685.4809326     
  -43401899.9679664     
  -43651207.8122266     
  -45579455.7116483     
  -45071663.5957948     
  -44565225.1590712     
  -44072234.6663634     
  -43599242.6220421     
  -43146785.3875428     
  -42708582.4223312     
  -42339523.6326286     
  -42204079.4442452     
  -42154788.4659866     
  -42169534.1610159     
  -42253552.5433738     
  -42406455.3158423     
  -42623004.8541079     
  -42897062.6613916     
  -45577211.0845675     
  -44923459.9279896     
  -44287512.7489194     
  -43685201.8112917     
  -43123435.9301546     
  -42601404.4026195     
  -42112546.3426108     
  -41686368.9136024     
  -41479045.4556729     
  -41378311.9865852     
  -41351735.4984948     
  -41409005.6858534     
  -41555609.0671390     
  -41786926.5951843     
  -42090016.2441325     
  -45576466.6371284     
  -44750063.5415132     
  -43967281.2561718     
  -43248570.6921239     
  -42598924.4875675     
  -42013681.5149077     
  -41484782.1678644     
  -41017462.2895886     
  -40711136.7646147     
  -40554608.0532119     
  -40480423.7102393     
  -40500483.4182007     
  -40633729.3519300     
  -40882590.5195697     
  -41232178.7998589     
  -45568150.8836956     
  -44527043.8884405     
  -43576197.1551748     
  -42737938.3327125     
  -42006353.6945783     
  -41365982.4519111     
  -40804139.6805206     
  -40316152.4131471     
  -39924191.5405630     
  -39686304.4520749     
  -39562607.2192581     
  -39537903.2922738     
  -39637657.2740381     
  -39905098.2648345     
  -40325832.3050992     
  -45526351.7401412     
  -44199509.5911312     
  -43066682.5841761     
  -42123601.6402675     
  -41324867.5842197     
  -40641029.1234512     
  -40053075.6280779     
  -39548901.0668532     
  -39128361.1120638     
  -38798044.9919137     
  -38606876.1508946     
  -38538422.5197925     
  -38602356.0967350     
  -38842105.8884435     
  -39367601.3077283     
  -45324442.8669219     
  -43639423.8295162     
  -42386362.9864143     
  -41376756.0934172     
  -40537077.3091875     
  -39826291.5452612     
  -39220154.2746126     
  -38704815.0567720     
  -38270678.0477991     
  -37917489.2865119     
  -37633563.3318115     
  -37532034.6229464     
  -37589895.1621223     
  -37793405.2670855     
  -38309682.0682418     
SCALARS 2waySource double 
LOOKUP_TABLE default
 -1.291605526378447E-004
 -1.294215515458031E-004
 -1.293148065505310E-004
 -1.287558693109960E-004
 -1.609753032838013E-004
 -1.686870786108301E-004
 -1.689814542487830E-004
 -1.696002692276357E-004
 -1.705274930284854E-004
 -1.716676307478149E-004
 -1.729359437067644E-004
 -1.742595408852077E-004
 -1.755754380840469E-004
 -1.768280286807017E-004
 -1.779669493549928E-004
 -1.289841590647756E-004
 -1.291887673645622E-004
 -1.294882102852437E-004
 -1.292721482201656E-004
 -1.626046837714506E-004
 -1.686546105486241E-004
 -1.687780441201081E-004
 -1.694204165093428E-004
 -1.703770636892501E-004
 -1.715435770226520E-004
 -1.728335143811325E-004
 -1.741749334720254E-004
 -1.755061139704296E-004
 -1.767727183766990E-004
 -1.779254769022065E-004
 -1.286062345906728E-004
 -1.289319959363264E-004
 -1.295053859419974E-004
 -1.305959979711845E-004
 -1.646067423585860E-004
 -1.679692302179554E-004
 -1.682400768916682E-004
 -1.689818444589193E-004
 -1.700229314760962E-004
 -1.712547068736676E-004
 -1.725957123042493E-004
 -1.739782487164253E-004
 -1.753446208267409E-004
 -1.766440031678471E-004
 -1.778299455182969E-004
 -1.281144613777012E-004
 -1.284904057170482E-004
 -1.283656816839907E-004
 -1.317555451709036E-004
 -1.649399110389624E-004
 -1.667998358383778E-004
 -1.673639898853949E-004
 -1.682855006751571E-004
 -1.694584420304678E-004
 -1.707909337662191E-004
 -1.722092217148683E-004
 -1.736531726855629E-004
 -1.750720989187161E-004
 -1.764210261825482E-004
 -1.776580697950086E-004
 -1.271088380651920E-004
 -1.274667979601337E-004
 -1.278071285225166E-004
 -1.361128187485366E-004
 -1.650867326915099E-004
 -1.652668510463547E-004
 -1.661686363445540E-004
 -1.673285315860152E-004
 -1.686770665088610E-004
 -1.701404778067478E-004
 -1.716563569635443E-004
 -1.731768454599345E-004
 -1.746614700583647E-004
 -1.760735779933644E-004
 -1.773775642974517E-004
 -1.259816169887242E-004
 -1.261841480414473E-004
 -1.274485113611537E-004
 -1.447706031915184E-004
 -1.642611222817561E-004
 -1.633672204112553E-004
 -1.646634193769998E-004
 -1.661109463916039E-004
 -1.676761862058358E-004
 -1.692901937172972E-004
 -1.709150241185809E-004
 -1.725195035958061E-004
 -1.740770515195863E-004
 -1.755617874696502E-004
 -1.769460494860769E-004
 -1.251349528863304E-004
 -1.256013661458969E-004
 -1.264480659348095E-004
 -1.492611245161712E-004
 -1.589665042435909E-004
 -1.612347410352858E-004
 -1.628573820649655E-004
 -1.646655147184396E-004
 -1.664572714373915E-004
 -1.682261972699513E-004
 -1.699579437152097E-004
 -1.716436779979420E-004
 -1.732737193395656E-004
 -1.748353818636587E-004
 -1.763105439795645E-004
 -1.237219588717011E-004
 -1.247506834380130E-004
 -1.308559235263173E-004
 -1.552932593279343E-004
 -1.557642605871188E-004
 -1.585449453636183E-004
 -1.608987030373109E-004
 -1.630176574529622E-004
 -1.650265424234372E-004
 -1.669307900972947E-004
 -1.687512323488590E-004
 -1.705027527745260E-004
 -1.721955189068234E-004
 -1.738323292258983E-004
 -1.754063003038356E-004
 -1.221240011012853E-004
 -1.239206703291411E-004
 -1.387635851044976E-004
 -1.510881453636493E-004
 -1.527682541195051E-004
 -1.559973779074982E-004
 -1.587797593603048E-004
 -1.612066649078535E-004
 -1.633815428670604E-004
 -1.653802552967317E-004
 -1.672520965448460E-004
 -1.690390992506883E-004
 -1.707736138581357E-004
 -1.724766339718035E-004
 -1.741546641949569E-004
 -1.207226450030204E-004
 -1.265188842465283E-004
 -1.411079136233058E-004
 -1.451092074840812E-004
 -1.500288205091774E-004
 -1.535711075312695E-004
 -1.566330680094177E-004
 -1.592446309600188E-004
 -1.615149778202546E-004
 -1.635414936526225E-004
 -1.654072220248587E-004
 -1.671819040780405E-004
 -1.689234931789528E-004
 -1.706748977949342E-004
 -1.724594405432764E-004
 -1.212942469718209E-004
 -1.289374643102017E-004
 -1.377668105107661E-004
 -1.422646639006871E-004
 -1.472550141369379E-004
 -1.512452881953359E-004
 -1.544686253577717E-004
 -1.571465019148049E-004
 -1.594077155817598E-004
 -1.613728102057410E-004
 -1.631517838423420E-004
 -1.648451456942495E-004
 -1.665411495948540E-004
 -1.683109493090302E-004
 -1.702007296780224E-004
 -1.169368159072191E-004
 -1.270884522400551E-004
 -1.336416588680718E-004
 -1.399000521056389E-004
 -1.449465261768182E-004
 -1.490286103224127E-004
 -1.522855899966442E-004
 -1.549015438647045E-004
 -1.570347396637827E-004
 -1.588254173457245E-004
 -1.604109365058581E-004
 -1.619259289256832E-004
 -1.634980078865411E-004
 -1.652369405878079E-004
 -1.672240986654231E-004
 -1.160933970242434E-004
 -1.255861231132566E-004
 -1.315502086905307E-004
 -1.379006295696310E-004
 -1.429659604544867E-004
 -1.469508215191679E-004
 -1.500742266492727E-004
 -1.524947019895551E-004
 -1.543688618479275E-004
 -1.558515482738915E-004
 -1.571048857090405E-004
 -1.583056573127562E-004
 -1.596332385255498E-004
 -1.612589360127545E-004
 -1.633192955454794E-004
 -1.152513472629040E-004
 -1.228344610658245E-004
 -1.303429921978794E-004
 -1.363764159052408E-004
 -1.412086581079027E-004
 -1.449719988189053E-004
 -1.478234708496215E-004
 -1.499154056303989E-004
 -1.513943904116370E-004
 -1.524176666836930E-004
 -1.531663878952448E-004
 -1.538548613975344E-004
 -1.547505982372520E-004
 -1.561054247805930E-004
 -1.581779566611869E-004
 -1.132228801294714E-004
 -1.223572958147708E-004
 -1.294546685551814E-004
 -1.351633388706322E-004
 -1.396355832974036E-004
 -1.430503938794244E-004
 -1.455218932618504E-004
 -1.471707809124823E-004
 -1.481211192731424E-004
 -1.485235918395454E-004
 -1.485662419432060E-004
 -1.484901620144507E-004
 -1.485965648684450E-004
 -1.494065555801791E-004
 -1.512613637591989E-004
 -1.155429725307129E-004
 -1.224654573144038E-004
 -1.289392970341701E-004
 -1.341025986572823E-004
 -1.381573363297377E-004
 -1.411578964124983E-004
 -1.431803217969894E-004
 -1.442939516700206E-004
 -1.446069813740915E-004
 -1.442176550897485E-004
 -1.433348725178063E-004
 -1.422286412759674E-004
 -1.411709670908315E-004
 -1.404325607354589E-004
 -1.415268414456646E-004
 -1.163820444538344E-004
 -1.227846420758884E-004
 -1.284129288196931E-004
 -1.330863492759516E-004
 -1.366925106461480E-004
 -1.392710208200380E-004
 -1.408418621166575E-004
 -1.414017385095403E-004
 -1.409283614728139E-004
 -1.396404344267378E-004
 -1.375704390861907E-004
 -1.351286366500160E-004
 -1.327559483472062E-004
 -1.305334755016232E-004
 -1.244097372120890E-004
 -1.165943479482180E-004
 -1.226602435088976E-004
 -1.278013411550283E-004
 -1.319729228758836E-004
 -1.351635466961621E-004
 -1.373702096016599E-004
 -1.385611891728762E-004
 -1.386860659950361E-004
 -1.375878044118233E-004
 -1.345434861222269E-004
 -1.313094231313989E-004
 -1.268726549971292E-004
 -1.228583317901783E-004
 -1.231502015558142E-004
 -1.292863704860855E-004
 -1.164020918325557E-004
 -1.222130761743485E-004
 -1.269325952464929E-004
 -1.306591136390373E-004
 -1.334627673541236E-004
 -1.353801110053872E-004
 -1.364018957860953E-004
 -1.363321663704051E-004
 -1.347023586917580E-004
 -1.307235925156820E-004
 -1.242297482130677E-004
 -1.215608012374759E-004
 -1.301183789097989E-004
 -1.381045500163233E-004
 -1.417034319717783E-004
 -1.160482765900409E-004
 -1.215202974318973E-004
 -1.257700261501953E-004
 -1.290168467381776E-004
 -1.314295072033584E-004
 -1.331310035506486E-004
 -1.341489512914449E-004
 -1.345017730592239E-004
 -1.320040387447963E-004
 -1.226734912529540E-004
 -1.196773751784847E-004
 -1.262845484360602E-004
 -1.306694717850166E-004
 -1.316355897614218E-004
 -1.344708020580264E-004
 -1.157573091751932E-004
 -1.206726066337091E-004
 -1.242792112689733E-004
 -1.269144688231193E-004
 -1.288492329056575E-004
 -1.302898643729020E-004
 -1.314364969306778E-004
 -1.319612418632193E-004
 -1.244626277732536E-004
 -1.124591785358036E-004
 -1.153081139477114E-004
 -1.173683390970983E-004
 -1.186983491511414E-004
 -1.212086639727624E-004
 -1.245710546606533E-004
 -1.157402387275208E-004
 -1.197459977714934E-004
 -1.224185596487313E-004
 -1.242036918326149E-004
 -1.254672327602450E-004
 -1.265040726262252E-004
 -1.275245283381103E-004
 -1.275231324889708E-004
 -1.124976654337114E-004
 -1.032078834567858E-004
 -1.042975221997684E-004
 -1.045194693830757E-004
 -1.061327661421047E-004
 -1.090741554595687E-004
 -1.129501542321174E-004
 -1.161716917069113E-004
 -1.187908052024298E-004
 -1.201316443344747E-004
 -1.207261790956589E-004
 -1.210222633890698E-004
 -1.213985825841618E-004
 -1.221281696230747E-004
 -1.200886448495283E-004
 -9.832973323026611E-005
 -9.136332531006961E-005
 -9.077209835836494E-005
 -9.103925250165387E-005
 -9.260360577411526E-005
 -9.551924721805270E-005
 -9.944913996498737E-005
 -1.171616447256100E-004
 -1.178179871014126E-004
 -1.173465029457275E-004
 -1.163302880557978E-004
 -1.152651643557618E-004
 -1.146039937712839E-004
 -1.147764332440717E-004
 -1.099259318188602E-004
 -8.526325640246993E-005
 -7.890642336911253E-005
 -7.693663141548870E-005
 -7.663527951823587E-005
 -7.789655978199288E-005
 -8.050041517689413E-005
 -8.431576553958780E-005
 -1.187293861132425E-004
 -1.167840461427740E-004
 -1.139717466175279E-004
 -1.108871473537428E-004
 -1.080197989496572E-004
 -1.058156284073011E-004
 -1.048230415773933E-004
 -9.902911878391003E-005
 -7.405437820913498E-005
 -6.548393895774418E-005
 -6.243565041019847E-005
 -6.140575535068231E-005
 -6.188659535984734E-005
 -6.399270221209451E-005
 -6.759828517557783E-005
 -1.207882091959174E-004
 -1.155686792224929E-004
 -1.098743902656141E-004
 -1.042906454696068E-004
 -9.923205828614519E-005
 -9.500621326987229E-005
 -9.200743668910256E-005
 -8.645915561415356E-005
 -6.448541663687938E-005
 -5.102106291079222E-005
 -4.755501913541131E-005
 -4.514297568462624E-005
 -4.456391559589538E-005
 -4.594145212330182E-005
 -4.929424454782448E-005
 -1.231435851624146E-004
 -1.139263744452302E-004
 -1.048175556469605E-004
 -9.641276342553190E-005
 -8.896517981482926E-005
 -8.248418633844090E-005
 -7.688216540122368E-005
 -7.090779997427078E-005
 -5.565966006385620E-005
 -3.836241812572091E-005
 -3.168568380593954E-005
 -2.793973949218933E-005
 -2.591640665735552E-005
 -2.632398023747630E-005
 -2.946324296534546E-005
 -1.254764841018297E-004
 -1.113590875284337E-004
 -9.832445746062366E-005
 -8.702198612449064E-005
 -7.733225709789530E-005
 -6.878729709363081E-005
 -6.085169320911006E-005
 -5.261002039288679E-005
 -4.098956839196674E-005
 -2.690377458075014E-005
 -1.548429078957962E-005
 -9.605025513730323E-006
 -5.969615649849355E-006
 -5.003453063935972E-006
 -8.800673357510521E-006
 -1.272235868750133E-004
 -1.066622230765781E-004
 -8.947836413618059E-005
 -7.580563581392424E-005
 -6.441695543950753E-005
 -5.440583690479001E-005
 -4.494618625312531E-005
 -3.519091535214824E-005
 -2.384597136925149E-005
 -1.050097419585265E-005
  4.134953042419019E-007
  9.435024428283303E-006
  1.670505620513246E-005
  1.677266644515934E-005
  1.125070995653672E-005
 -1.255813586920316E-004
 -9.688511367676824E-005
 -7.741095954830887E-005
 -6.250042773690398E-005
 -5.028563701887009E-005
 -3.959658554449038E-005
 -2.951330188612502E-005
 -1.921462289088603E-005
 -7.888449656087724E-006
  5.057590209716897E-006
  1.798392081939066E-005
  3.788547417972903E-005
  3.970345161301097E-005
  3.549682092868481E-005
  3.031130078428684E-005
SCALARS poroP double 
LOOKUP_TABLE default
  7.989358563188785E-006
  6.067956139221284E-006
  4.099108281311020E-006
  2.106414247033115E-006
  2.675800871210154E-007
  0.000000000000000E+000
  0.000000000000000E+000
  0.000000000000000E+000
  0.000000000000000E+000
  0.000000000000000E+000
  0.000000000000000E+000
  0.000000000000000E+000
  0.000000000000000E+000
  0.000000000000000E+000
  0.000000000000000E+000
  7.899639764124727E-006
  5.978448529734839E-006
  4.007567997618012E-006
  2.022518027054750E-006
  2.349709698874029E-007
  0.000000000000000E+000
  0.000000000000000E+000
  0.000000000000000E+000
  0.000000000000000E+000
  0.000000000000000E+000
  0.000000000000000E+000
  0.000000000000000E+000
  0.000000000000000E+000
  0.000000000000000E+000
  0.000000000000000E+000
  7.727363780070629E-006
  5.809811414604103E-006
  3.837660883221530E-006
  1.852241147510784E-006
  1.674054188416797E-007
  0.000000000000000E+000
  0.000000000000000E+000
  0.000000000000000E+000
  0.000000000000000E+000
  0.000000000000000E+000
  0.000000000000000E+000
  0.000000000000000E+000
  0.000000000000000E+000
  0.000000000000000E+000
  0.000000000000000E+000
  7.441698828424458E-006
  5.529891613166230E-006
  3.575479475444032E-006
  1.607111766210593E-006
  7.275620921558660E-008
  0.000000000000000E+000
  0.000000000000000E+000
  0.000000000000000E+000
  0.000000000000000E+000
  0.000000000000000E+000
  0.000000000000000E+000
  0.000000000000000E+000
  0.000000000000000E+000
  0.000000000000000E+000
  0.000000000000000E+000
  7.046834881912231E-006
  5.137715183433656E-006
  3.208527024658829E-006
  1.296998359646807E-006
  0.000000000000000E+000
  0.000000000000000E+000
  0.000000000000000E+000
  0.000000000000000E+000
  0.000000000000000E+000
  0.000000000000000E+000
  0.000000000000000E+000
  0.000000000000000E+000
  0.000000000000000E+000
  0.000000000000000E+000
  0.000000000000000E+000
  6.549996619293688E-006
  4.644803837312833E-006
  2.737645016840382E-006
  9.014646413307201E-007
  0.000000000000000E+000
  0.000000000000000E+000
  0.000000000000000E+000
  0.000000000000000E+000
  0.000000000000000E+000
  0.000000000000000E+000
  0.000000000000000E+000
  0.000000000000000E+000
  0.000000000000000E+000
  0.000000000000000E+000
  0.000000000000000E+000
  5.944378831880474E-006
  4.048969477420375E-006
  2.168072501279064E-006
  4.219489910456239E-007
  0.000000000000000E+000
  0.000000000000000E+000
  0.000000000000000E+000
  0.000000000000000E+000
  0.000000000000000E+000
  0.000000000000000E+000
  0.000000000000000E+000
  0.000000000000000E+000
  0.000000000000000E+000
  0.000000000000000E+000
  0.000000000000000E+000
  5.215483537215207E-006
  3.330038051856638E-006
  1.520974330074482E-006
  1.393222983271251E-007
  0.000000000000000E+000
  0.000000000000000E+000
  0.000000000000000E+000
  0.000000000000000E+000
  0.000000000000000E+000
  0.000000000000000E+000
  0.000000000000000E+000
  0.000000000000000E+000
  0.000000000000000E+000
  0.000000000000000E+000
  0.000000000000000E+000
  4.372811097550372E-006
  2.509977408748803E-006
  8.344624935494514E-007
  0.000000000000000E+000
  0.000000000000000E+000
  0.000000000000000E+000
  0.000000000000000E+000
  0.000000000000000E+000
  0.000000000000000E+000
  0.000000000000000E+000
  0.000000000000000E+000
  0.000000000000000E+000
  0.000000000000000E+000
  0.000000000000000E+000
  0.000000000000000E+000
  3.438188370735022E-006
  1.638868728878957E-006
  2.550181949750908E-007
  0.000000000000000E+000
  0.000000000000000E+000
  0.000000000000000E+000
  0.000000000000000E+000
  0.000000000000000E+000
  0.000000000000000E+000
  0.000000000000000E+000
  0.000000000000000E+000
  0.000000000000000E+000
  0.000000000000000E+000
  0.000000000000000E+000
  0.000000000000000E+000
  2.444045474001372E-006
  7.959655375814909E-007
  4.632389141627804E-008
  0.000000000000000E+000
  0.000000000000000E+000
  0.000000000000000E+000
  0.000000000000000E+000
  0.000000000000000E+000
  0.000000000000000E+000
  0.000000000000000E+000
  0.000000000000000E+000
  0.000000000000000E+000
  0.000000000000000E+000
  0.000000000000000E+000
  0.000000000000000E+000
  1.446260919404148E-006
  2.453697905503522E-007
  0.000000000000000E+000
  0.000000000000000E+000
  0.000000000000000E+000
  0.000000000000000E+000
  0.000000000000000E+000
  0.000000000000000E+000
  0.000000000000000E+000
  0.000000000000000E+000
  0.000000000000000E+000
  0.000000000000000E+000
  0.000000000000000E+000
  0.000000000000000E+000
  0.000000000000000E+000
  6.670740311867986E-007
  3.432632252426528E-008
  0.000000000000000E+000
  0.000000000000000E+000
  0.000000000000000E+000
  0.000000000000000E+000
  0.000000000000000E+000
  0.000000000000000E+000
  0.000000000000000E+000
  0.000000000000000E+000
  0.000000000000000E+000
  0.000000000000000E+000
  0.000000000000000E+000
  0.000000000000000E+000
  0.000000000000000E+000
  1.860843425018510E-007
  0.000000000000000E+000
  0.000000000000000E+000
  0.000000000000000E+000
  0.000000000000000E+000
  0.000000000000000E+000
  0.000000000000000E+000
  0.000000000000000E+000
  0.000000000000000E+000
  0.000000000000000E+000
  0.000000000000000E+000
  0.000000000000000E+000
  0.000000000000000E+000
  0.000000000000000E+000
  0.000000000000000E+000
  4.778696009122408E-009
  0.000000000000000E+000
  0.000000000000000E+000
  0.000000000000000E+000
  0.000000000000000E+000
  0.000000000000000E+000
  0.000000000000000E+000
  0.000000000000000E+000
  0.000000000000000E+000
  0.000000000000000E+000
  0.000000000000000E+000
  0.000000000000000E+000
  0.000000000000000E+000
  0.000000000000000E+000
  0.000000000000000E+000
  0.000000000000000E+000
  0.000000000000000E+000
  0.000000000000000E+000
  0.000000000000000E+000
  0.000000000000000E+000
  0.000000000000000E+000
  0.000000000000000E+000
  0.000000000000000E+000
  0.000000000000000E+000
  0.000000000000000E+000
  0.000000000000000E+000
  0.000000000000000E+000
  0.000000000000000E+000
  0.000000000000000E+000
  0.000000000000000E+000
  0.000000000000000E+000
  0.000000000000000E+000
  0.000000000000000E+000
  0.000000000000000E+000
  0.000000000000000E+000
  0.000000000000000E+000
  0.000000000000000E+000
  0.000000000000000E+000
  0.000000000000000E+000
  0.000000000000000E+000
  0.000000000000000E+000
  0.000000000000000E+000
  0.000000000000000E+000
  0.000000000000000E+000
  3.879135522653215E-008
  0.000000000000000E+000
  0.000000000000000E+000
  0.000000000000000E+000
  0.000000000000000E+000
  0.000000000000000E+000
  0.000000000000000E+000
  0.000000000000000E+000
  0.000000000000000E+000
  0.000000000000000E+000
  0.000000000000000E+000
  0.000000000000000E+000
  3.659569903108574E-008
  1.435726446202244E-007
  3.880446396988884E-007
  9.367466589984616E-007
  0.000000000000000E+000
  0.000000000000000E+000
  0.000000000000000E+000
  0.000000000000000E+000
  0.000000000000000E+000
  0.000000000000000E+000
  0.000000000000000E+000
  0.000000000000000E+000
  0.000000000000000E+000
  9.128992950608051E-008
  2.361717370853605E-007
  6.188020168701217E-007
  1.199527800095437E-006
  1.825637197502726E-006
  2.330424704302178E-006
  0.000000000000000E+000
  0.000000000000000E+000
  0.000000000000000E+000
  0.000000000000000E+000
  0.000000000000000E+000
  0.000000000000000E+000
  0.000000000000000E+000
  0.000000000000000E+000
  9.986083742628003E-008
  3.883596269590461E-007
  1.057464072073423E-006
  1.810068644449824E-006
  2.556767082244365E-006
  3.207913102606131E-006
  3.644577400266144E-006
  0.000000000000000E+000
  0.000000000000000E+000
  0.000000000000000E+000
  0.000000000000000E+000
  0.000000000000000E+000
  0.000000000000000E+000
  0.000000000000000E+000
  1.334909624023302E-008
  2.840654405729293E-007
  1.068409975632197E-006
  1.992426083736286E-006
  2.922454520741564E-006
  3.781481963285785E-006
  4.480581974730331E-006
  4.946881972954645E-006
  0.000000000000000E+000
  0.000000000000000E+000
  0.000000000000000E+000
  0.000000000000000E+000
  0.000000000000000E+000
  0.000000000000000E+000
  0.000000000000000E+000
  5.571193333352095E-008
  6.704442941240911E-007
  1.703076140964879E-006
  2.785581163232919E-006
  3.854715707047260E-006
  4.842283977198211E-006
  5.666258032800318E-006
  6.240669615843031E-006
  0.000000000000000E+000
  0.000000000000000E+000
  0.000000000000000E+000
  0.000000000000000E+000
  0.000000000000000E+000
  0.000000000000000E+000
  0.000000000000000E+000
  1.373916693085164E-007
  1.021675411943595E-006
  2.171369337687571E-006
  3.364990380215219E-006
  4.563638003708628E-006
  5.713317890418019E-006
  6.735338613833684E-006
  7.508296280206239E-006
  0.000000000000000E+000
  0.000000000000000E+000
  0.000000000000000E+000
  0.000000000000000E+000
  0.000000000000000E+000
  0.000000000000000E+000
  0.000000000000000E+000
  2.094229983109644E-007
  1.214532971279660E-006
  2.418361514431651E-006
  3.687546614428323E-006
  5.006930552933064E-006
  6.341922658839511E-006
  7.624920060679353E-006
  8.710276797685861E-006
  0.000000000000000E+000
  0.000000000000000E+000
  0.000000000000000E+000
  0.000000000000000E+000
  0.000000000000000E+000
  0.000000000000000E+000
  0.000000000000000E+000
  2.216894550028039E-007
  1.214869443122827E-006
  2.410978492994341E-006
  3.717429267542496E-006
  5.142429891142038E-006
  6.673575223406919E-006
  8.271633868487835E-006
  9.805526542437052E-006
  0.000000000000000E+000
  0.000000000000000E+000
  0.000000000000000E+000
  0.000000000000000E+000
  0.000000000000000E+000
  0.000000000000000E+000
  0.000000000000000E+000
  1.341697413184675E-007
  1.005395960345071E-006
  2.137599724302749E-006
  3.432983950184466E-006
  4.931526906489037E-006
  6.652263347699252E-006
  8.587451622311923E-006
  1.068876099823798E-005
  0.000000000000000E+000
  0.000000000000000E+000
  0.000000000000000E+000
  0.000000000000000E+000
  0.000000000000000E+000
  0.000000000000000E+000
  0.000000000000000E+000
  4.681869800559412E-008
  5.993393655383680E-007
  1.610772428024821E-006
  2.836538427570549E-006
  4.346576540394431E-006
  6.222497571280447E-006
  8.516466493450799E-006
  1.131045825132304E-005
  0.000000000000000E+000
  0.000000000000000E+000
  0.000000000000000E+000
  0.000000000000000E+000
  0.000000000000000E+000
  0.000000000000000E+000
  0.000000000000000E+000
  0.000000000000000E+000
  1.397743735135305E-007
  8.681971471209162E-007
  1.964118324531598E-006
  3.399328160547094E-006
  5.342670081332641E-006
  7.998772652615730E-006
  1.161935219166840E-005
  0.000000000000000E+000
  0.000000000000000E+000
  0.000000000000000E+000
  0.000000000000000E+000
  0.000000000000000E+000
  0.000000000000000E+000
  0.000000000000000E+000
  0.000000000000000E+000
  0.000000000000000E+000
  1.333146868821151E-007
  8.963976052271839E-007
  2.164385339035500E-006
  4.036570240149289E-006
  6.945895873327027E-006
  1.157669180105377E-005
  0.000000000000000E+000
  0.000000000000000E+000
  0.000000000000000E+000
  0.000000000000000E+000
  0.000000000000000E+000
  0.000000000000000E+000
  0.000000000000000E+000
  0.000000000000000E+000
  0.000000000000000E+000
  0.000000000000000E+000
  1.719121161568607E-008
  8.055241770483792E-007
  2.525408335580999E-006
  5.384472078613989E-006
  1.107860657899960E-005
SCALARS elementIsPlast double 
LOOKUP_TABLE default
   1.00000000000000     
   1.00000000000000     
   1.00000000000000     
   1.00000000000000     
   1.00000000000000     
  0.000000000000000E+000
  0.000000000000000E+000
  0.000000000000000E+000
  0.000000000000000E+000
  0.000000000000000E+000
  0.000000000000000E+000
  0.000000000000000E+000
  0.000000000000000E+000
  0.000000000000000E+000
  0.000000000000000E+000
   1.00000000000000     
   1.00000000000000     
   1.00000000000000     
   1.00000000000000     
   1.00000000000000     
  0.000000000000000E+000
  0.000000000000000E+000
  0.000000000000000E+000
  0.000000000000000E+000
  0.000000000000000E+000
  0.000000000000000E+000
  0.000000000000000E+000
  0.000000000000000E+000
  0.000000000000000E+000
  0.000000000000000E+000
   1.00000000000000     
   1.00000000000000     
   1.00000000000000     
   1.00000000000000     
   1.00000000000000     
  0.000000000000000E+000
  0.000000000000000E+000
  0.000000000000000E+000
  0.000000000000000E+000
  0.000000000000000E+000
  0.000000000000000E+000
  0.000000000000000E+000
  0.000000000000000E+000
  0.000000000000000E+000
  0.000000000000000E+000
   1.00000000000000     
   1.00000000000000     
   1.00000000000000     
   1.00000000000000     
   1.00000000000000     
  0.000000000000000E+000
  0.000000000000000E+000
  0.000000000000000E+000
  0.000000000000000E+000
  0.000000000000000E+000
  0.000000000000000E+000
  0.000000000000000E+000
  0.000000000000000E+000
  0.000000000000000E+000
  0.000000000000000E+000
   1.00000000000000     
   1.00000000000000     
   1.00000000000000     
   1.00000000000000     
  0.000000000000000E+000
  0.000000000000000E+000
  0.000000000000000E+000
  0.000000000000000E+000
  0.000000000000000E+000
  0.000000000000000E+000
  0.000000000000000E+000
  0.000000000000000E+000
  0.000000000000000E+000
  0.000000000000000E+000
  0.000000000000000E+000
   1.00000000000000     
   1.00000000000000     
   1.00000000000000     
   1.00000000000000     
  0.000000000000000E+000
  0.000000000000000E+000
  0.000000000000000E+000
  0.000000000000000E+000
  0.000000000000000E+000
  0.000000000000000E+000
  0.000000000000000E+000
  0.000000000000000E+000
  0.000000000000000E+000
  0.000000000000000E+000
  0.000000000000000E+000
   1.00000000000000     
   1.00000000000000     
   1.00000000000000     
   1.00000000000000     
  0.000000000000000E+000
  0.000000000000000E+000
  0.000000000000000E+000
  0.000000000000000E+000
  0.000000000000000E+000
  0.000000000000000E+000
  0.000000000000000E+000
  0.000000000000000E+000
  0.000000000000000E+000
  0.000000000000000E+000
  0.000000000000000E+000
   1.00000000000000     
   1.00000000000000     
   1.00000000000000     
   1.00000000000000     
  0.000000000000000E+000
  0.000000000000000E+000
  0.000000000000000E+000
  0.000000000000000E+000
  0.000000000000000E+000
  0.000000000000000E+000
  0.000000000000000E+000
  0.000000000000000E+000
  0.000000000000000E+000
  0.000000000000000E+000
  0.000000000000000E+000
   1.00000000000000     
   1.00000000000000     
   1.00000000000000     
  0.000000000000000E+000
  0.000000000000000E+000
  0.000000000000000E+000
  0.000000000000000E+000
  0.000000000000000E+000
  0.000000000000000E+000
  0.000000000000000E+000
  0.000000000000000E+000
  0.000000000000000E+000
  0.000000000000000E+000
  0.000000000000000E+000
  0.000000000000000E+000
   1.00000000000000     
   1.00000000000000     
   1.00000000000000     
  0.000000000000000E+000
  0.000000000000000E+000
  0.000000000000000E+000
  0.000000000000000E+000
  0.000000000000000E+000
  0.000000000000000E+000
  0.000000000000000E+000
  0.000000000000000E+000
  0.000000000000000E+000
  0.000000000000000E+000
  0.000000000000000E+000
  0.000000000000000E+000
   1.00000000000000     
   1.00000000000000     
   1.00000000000000     
  0.000000000000000E+000
  0.000000000000000E+000
  0.000000000000000E+000
  0.000000000000000E+000
  0.000000000000000E+000
  0.000000000000000E+000
  0.000000000000000E+000
  0.000000000000000E+000
  0.000000000000000E+000
  0.000000000000000E+000
  0.000000000000000E+000
  0.000000000000000E+000
   1.00000000000000     
   1.00000000000000     
  0.000000000000000E+000
  0.000000000000000E+000
  0.000000000000000E+000
  0.000000000000000E+000
  0.000000000000000E+000
  0.000000000000000E+000
  0.000000000000000E+000
  0.000000000000000E+000
  0.000000000000000E+000
  0.000000000000000E+000
  0.000000000000000E+000
  0.000000000000000E+000
  0.000000000000000E+000
   1.00000000000000     
   1.00000000000000     
  0.000000000000000E+000
  0.000000000000000E+000
  0.000000000000000E+000
  0.000000000000000E+000
  0.000000000000000E+000
  0.000000000000000E+000
  0.000000000000000E+000
  0.000000000000000E+000
  0.000000000000000E+000
  0.000000000000000E+000
  0.000000000000000E+000
  0.000000000000000E+000
  0.000000000000000E+000
   1.00000000000000     
  0.000000000000000E+000
  0.000000000000000E+000
  0.000000000000000E+000
  0.000000000000000E+000
  0.000000000000000E+000
  0.000000000000000E+000
  0.000000000000000E+000
  0.000000000000000E+000
  0.000000000000000E+000
  0.000000000000000E+000
  0.000000000000000E+000
  0.000000000000000E+000
  0.000000000000000E+000
  0.000000000000000E+000
   1.00000000000000     
  0.000000000000000E+000
  0.000000000000000E+000
  0.000000000000000E+000
  0.000000000000000E+000
  0.000000000000000E+000
  0.000000000000000E+000
  0.000000000000000E+000
  0.000000000000000E+000
  0.000000000000000E+000
  0.000000000000000E+000
  0.000000000000000E+000
  0.000000000000000E+000
  0.000000000000000E+000
  0.000000000000000E+000
  0.000000000000000E+000
  0.000000000000000E+000
  0.000000000000000E+000
  0.000000000000000E+000
  0.000000000000000E+000
  0.000000000000000E+000
  0.000000000000000E+000
  0.000000000000000E+000
  0.000000000000000E+000
  0.000000000000000E+000
  0.000000000000000E+000
  0.000000000000000E+000
  0.000000000000000E+000
  0.000000000000000E+000
  0.000000000000000E+000
  0.000000000000000E+000
  0.000000000000000E+000
  0.000000000000000E+000
  0.000000000000000E+000
  0.000000000000000E+000
  0.000000000000000E+000
  0.000000000000000E+000
  0.000000000000000E+000
  0.000000000000000E+000
  0.000000000000000E+000
  0.000000000000000E+000
  0.000000000000000E+000
  0.000000000000000E+000
  0.000000000000000E+000
   1.00000000000000     
  0.000000000000000E+000
  0.000000000000000E+000
  0.000000000000000E+000
  0.000000000000000E+000
  0.000000000000000E+000
  0.000000000000000E+000
  0.000000000000000E+000
  0.000000000000000E+000
  0.000000000000000E+000
  0.000000000000000E+000
  0.000000000000000E+000
   1.00000000000000     
   1.00000000000000     
   1.00000000000000     
   1.00000000000000     
  0.000000000000000E+000
  0.000000000000000E+000
  0.000000000000000E+000
  0.000000000000000E+000
  0.000000000000000E+000
  0.000000000000000E+000
  0.000000000000000E+000
  0.000000000000000E+000
  0.000000000000000E+000
   1.00000000000000     
   1.00000000000000     
   1.00000000000000     
   1.00000000000000     
   1.00000000000000     
   1.00000000000000     
  0.000000000000000E+000
  0.000000000000000E+000
  0.000000000000000E+000
  0.000000000000000E+000
  0.000000000000000E+000
  0.000000000000000E+000
  0.000000000000000E+000
  0.000000000000000E+000
   1.00000000000000     
   1.00000000000000     
   1.00000000000000     
   1.00000000000000     
   1.00000000000000     
   1.00000000000000     
   1.00000000000000     
  0.000000000000000E+000
  0.000000000000000E+000
  0.000000000000000E+000
  0.000000000000000E+000
  0.000000000000000E+000
  0.000000000000000E+000
  0.000000000000000E+000
   1.00000000000000     
   1.00000000000000     
   1.00000000000000     
   1.00000000000000     
   1.00000000000000     
   1.00000000000000     
   1.00000000000000     
   1.00000000000000     
  0.000000000000000E+000
  0.000000000000000E+000
  0.000000000000000E+000
  0.000000000000000E+000
  0.000000000000000E+000
  0.000000000000000E+000
  0.000000000000000E+000
   1.00000000000000     
   1.00000000000000     
   1.00000000000000     
   1.00000000000000     
   1.00000000000000     
   1.00000000000000     
   1.00000000000000     
   1.00000000000000     
  0.000000000000000E+000
  0.000000000000000E+000
  0.000000000000000E+000
  0.000000000000000E+000
  0.000000000000000E+000
  0.000000000000000E+000
  0.000000000000000E+000
   1.00000000000000     
   1.00000000000000     
   1.00000000000000     
   1.00000000000000     
   1.00000000000000     
   1.00000000000000     
   1.00000000000000     
   1.00000000000000     
  0.000000000000000E+000
  0.000000000000000E+000
  0.000000000000000E+000
  0.000000000000000E+000
  0.000000000000000E+000
  0.000000000000000E+000
  0.000000000000000E+000
   1.00000000000000     
   1.00000000000000     
   1.00000000000000     
   1.00000000000000     
   1.00000000000000     
   1.00000000000000     
   1.00000000000000     
   1.00000000000000     
  0.000000000000000E+000
  0.000000000000000E+000
  0.000000000000000E+000
  0.000000000000000E+000
  0.000000000000000E+000
  0.000000000000000E+000
  0.000000000000000E+000
   1.00000000000000     
   1.00000000000000     
   1.00000000000000     
   1.00000000000000     
   1.00000000000000     
   1.00000000000000     
   1.00000000000000     
   1.00000000000000     
  0.000000000000000E+000
  0.000000000000000E+000
  0.000000000000000E+000
  0.000000000000000E+000
  0.000000000000000E+000
  0.000000000000000E+000
  0.000000000000000E+000
   1.00000000000000     
   1.00000000000000     
   1.00000000000000     
   1.00000000000000     
   1.00000000000000     
   1.00000000000000     
   1.00000000000000     
   1.00000000000000     
  0.000000000000000E+000
  0.000000000000000E+000
  0.000000000000000E+000
  0.000000000000000E+000
  0.000000000000000E+000
  0.000000000000000E+000
  0.000000000000000E+000
   1.00000000000000     
   1.00000000000000     
   1.00000000000000     
   1.00000000000000     
   1.00000000000000     
   1.00000000000000     
   1.00000000000000     
   1.00000000000000     
  0.000000000000000E+000
  0.000000000000000E+000
  0.000000000000000E+000
  0.000000000000000E+000
  0.000000000000000E+000
  0.000000000000000E+000
  0.000000000000000E+000
  0.000000000000000E+000
   1.00000000000000     
   1.00000000000000     
   1.00000000000000     
   1.00000000000000     
   1.00000000000000     
   1.00000000000000     
   1.00000000000000     
  0.000000000000000E+000
  0.000000000000000E+000
  0.000000000000000E+000
  0.000000000000000E+000
  0.000000000000000E+000
  0.000000000000000E+000
  0.000000000000000E+000
  0.000000000000000E+000
  0.000000000000000E+000
   1.00000000000000     
   1.00000000000000     
   1.00000000000000     
   1.00000000000000     
   1.00000000000000     
   1.00000000000000     
  0.000000000000000E+000
  0.000000000000000E+000
  0.000000000000000E+000
  0.000000000000000E+000
  0.000000000000000E+000
  0.000000000000000E+000
  0.000000000000000E+000
  0.000000000000000E+000
  0.000000000000000E+000
  0.000000000000000E+000
   1.00000000000000     
   1.00000000000000     
   1.00000000000000     
   1.00000000000000     
   1.00000000000000     
SCALARS poroL double 
LOOKUP_TABLE default
  0.155974190700208     
  0.155972546786754     
  0.155970990552216     
  0.155969536137497     
  0.155968064306100     
  0.155965106784702     
  0.155962122721216     
  0.155959390821112     
  0.155956889035211     
  0.155954597516774     
  0.155952499346511     
  0.155950580366149     
  0.155948828950677     
  0.155947235835905     
  0.155945794017937     
  0.155973678759237     
  0.155972028325600     
  0.155970473584819     
  0.155969030651992     
  0.155967522477655     
  0.155964542988774     
  0.155961578633337     
  0.155958866402925     
  0.155956382006352     
  0.155954105549915     
  0.155952020321785     
  0.155950112358356     
  0.155948370175875     
  0.155946784585499     
  0.155945348592476     
  0.155972671724011     
  0.155971021109129     
  0.155969456887374     
  0.155968009280121     
  0.155966420985584     
  0.155963410626920     
  0.155960491533186     
  0.155957819280487     
  0.155955369627865     
  0.155953123190064     
  0.155951063752829     
  0.155949177774132     
  0.155947454060157     
  0.155945883574722     
  0.155944459339088     
  0.155971122722508     
  0.155969478566558     
  0.155967917275941     
  0.155966462692730     
  0.155964737887799     
  0.155961712342959     
  0.155958865161988     
  0.155956253112813     
  0.155953855335573     
  0.155951653591929     
  0.155949632588825     
  0.155947779453552     
  0.155946083445233     
  0.155944535757454     
  0.155943129430206     
  0.155969040398088     
  0.155967393428989     
  0.155965848898099     
  0.155964394769285     
  0.155962465356356     
  0.155959460933236     
  0.155956706288919     
  0.155954173850949     
  0.155951844366932     
  0.155949701497245     
  0.155947731209094     
  0.155945921594852     
  0.155944262524355     
  0.155942745494924     
  0.155941363561716     
  0.155966422846952     
  0.155964770511624     
  0.155963227870866     
  0.155961809575574     
  0.155959583845218     
  0.155956666594937     
  0.155954024918833     
  0.155951589555196     
  0.155949343840193     
  0.155947273166444     
  0.155945365347256     
  0.155943609665378     
  0.155941996749699     
  0.155940518461814     
  0.155939167862608     
  0.155963259124535     
  0.155961606693680     
  0.155960043274312     
  0.155958523857321     
  0.155956023647277     
  0.155953342804506     
  0.155950832173279     
  0.155948510908054     
  0.155946362503368     
  0.155944376259626     
  0.155942541951588     
  0.155940850269451     
  0.155939292696324     
  0.155937861506618     
  0.155936549754559     
  0.155959522734114     
  0.155957874150483     
  0.155956329611693     
  0.155954627579142     
  0.155952019899764     
  0.155949499947217     
  0.155947145712531     
  0.155944949933566     
  0.155942910570880     
  0.155941019568683     
  0.155939269002325     
  0.155937650970217     
  0.155936157877481     
  0.155934782455724     
  0.155933517750323     
  0.155955220489722     
  0.155953574457272     
  0.155952031498175     
  0.155950015914720     
  0.155947526890840     
  0.155945184702691     
  0.155942981107092     
  0.155940920288309     
  0.155938999028178     
  0.155937212770443     
  0.155935555294438     
  0.155934020079650     
  0.155932600502600     
  0.155931289843623     
  0.155930081175212     
  0.155950364734415     
  0.155948744082836     
  0.155947071972194     
  0.155944857907513     
  0.155942580117802     
  0.155940405220702     
  0.155938356364486     
  0.155936434806762     
  0.155934639395809     
  0.155932966170008     
  0.155931410272583     
  0.155929966429246     
  0.155928629160574     
  0.155927392530022     
  0.155926249776371     
  0.155944975771541     
  0.155943374510195     
  0.155941482303569     
  0.155939299070430     
  0.155937183217759     
  0.155935175953078     
  0.155933282745748     
  0.155931506085860     
  0.155929843382470     
  0.155928290748098     
  0.155926843978454     
  0.155925499148595     
  0.155924252383326     
  0.155923099116424     
  0.155922033131049     
  0.155939074065113     
  0.155937388090589     
  0.155935351274268     
  0.155933303486703     
  0.155931347568199     
  0.155929503652983     
  0.155927770999929     
  0.155926145960205     
  0.155924623509780     
  0.155923198546642     
  0.155921867264586     
  0.155920627479316     
  0.155919478008937     
  0.155918416967722     
  0.155917439644957     
  0.155932685495057     
  0.155930801948858     
  0.155928779487106     
  0.155926858315453     
  0.155925067257243     
  0.155923394058692     
  0.155921830917242     
  0.155920367465153     
  0.155918994149794     
  0.155917703722135     
  0.155916492450534     
  0.155915360764665     
  0.155914312188627     
  0.155913350461507     
  0.155912474631470     
  0.155925679181082     
  0.155923646668894     
  0.155921717054124     
  0.155919952031195     
  0.155918337135710     
  0.155916851464373     
  0.155915474032127     
  0.155914186482539     
  0.155912973462369     
  0.155911824345647     
  0.155910734962800     
  0.155909708910094     
  0.155908758121036     
  0.155907897483335     
  0.155907136352452     
  0.155917985397966     
  0.155915937842428     
  0.155914140420067     
  0.155912561594417     
  0.155911154416337     
  0.155909883176750     
  0.155908715736935     
  0.155907624193746     
  0.155906585826325     
  0.155905585203084     
  0.155904616297902     
  0.155903685524975     
  0.155902814285507     
  0.155902043377261     
  0.155901405935433     
  0.155909560714469     
  0.155907610398790     
  0.155906019568488     
  0.155904675786601     
  0.155903520137247     
  0.155902502064467     
  0.155901578062567     
  0.155900709465245     
  0.155899865010666     
  0.155899021355279     
  0.155898168789489     
  0.155897313721889     
  0.155896484971680     
  0.155895743162651     
  0.155895222945223     
  0.155900282030948     
  0.155898636208417     
  0.155897332267340     
  0.155896292209219     
  0.155895443883975     
  0.155894728225626     
  0.155894091397328     
  0.155893482840834     
  0.155892855822589     
  0.155892183228905     
  0.155891441916771     
  0.155890634507859     
  0.155889794031834     
  0.155888983521638     
  0.155888337433000     
  0.155890246164385     
  0.155888998939886     
  0.155888082270178     
  0.155887420276190     
  0.155886944190089     
  0.155886589835135     
  0.155886294643327     
  0.155885996666168     
  0.155885630073002     
  0.155885124386684     
  0.155884511310817     
  0.155883743752076     
  0.155882899683725     
  0.155882143834830     
  0.155881277337817     
  0.155879490211740     
  0.155878734900232     
  0.155878289675056     
  0.155878083033521     
  0.155878048051869     
  0.155878120420572     
  0.155878234928566     
  0.155878311741707     
  0.155878274512338     
  0.155878049177500     
  0.155877616663300     
  0.155877119104119     
  0.155876590766356     
  0.155875837115063     
  0.155874702421042     
  0.155868062683066     
  0.155867885597051     
  0.155867992096244     
  0.155868314198659     
  0.155868788841364     
  0.155869356372429     
  0.155869953071278     
  0.155870509048566     
  0.155870907092608     
  0.155871012196032     
  0.155870949057436     
  0.155870739350636     
  0.155870211236952     
  0.155869334042915     
  0.155868184628899     
  0.155856019993368     
  0.155856503418291     
  0.155857237245160     
  0.155858156953913     
  0.155859205038765     
  0.155860329877199     
  0.155861485144586     
  0.155862604325518     
  0.155863464607155     
  0.155863901179273     
  0.155864116906576     
  0.155864028281227     
  0.155863582875353     
  0.155862768182122     
  0.155861631684971     
  0.155843428221744     
  0.155844650854782     
  0.155846083657045     
  0.155847663796692     
  0.155849339579059     
  0.155851072823986     
  0.155852833349429     
  0.155854595111233     
  0.155855802486382     
  0.155856535079640     
  0.155856996097274     
  0.155857104790937     
  0.155856820057065     
  0.155856133806075     
  0.155855049705315     
  0.155830361649504     
  0.155832401397828     
  0.155834602617650     
  0.155836899502035     
  0.155839244504725     
  0.155841613675270     
  0.155844009737520     
  0.155846351751929     
  0.155847843695633     
  0.155848920930444     
  0.155849659375055     
  0.155850011328352     
  0.155849946624709     
  0.155849437935468     
  0.155848456939553     
  0.155816900870256     
  0.155819841280101     
  0.155822882362875     
  0.155825947324937     
  0.155828988093702     
  0.155831993562757     
  0.155834998597333     
  0.155837815643545     
  0.155839667231596     
  0.155841096264352     
  0.155842141481265     
  0.155842763648041     
  0.155842946701433     
  0.155842664630719     
  0.155841845702963     
  0.155803131838612     
  0.155807073672992     
  0.155811035200605     
  0.155814917615188     
  0.155818667170907     
  0.155822280141269     
  0.155825810522951     
  0.155829065966966     
  0.155831320173143     
  0.155833103112836     
  0.155834465789691     
  0.155835370401412     
  0.155835808835640     
  0.155835787345818     
  0.155835231547639     
  0.155789148284971     
  0.155794228036110     
  0.155799209235575     
  0.155803958861175     
  0.155808417290724     
  0.155812589362958     
  0.155816529485473     
  0.155820151166324     
  0.155822846852656     
  0.155824972799449     
  0.155826654427698     
  0.155827849630792     
  0.155828535847053     
  0.155828745111047     
  0.155828537362163     
  0.155775061262319     
  0.155781481255640     
  0.155787608739343     
  0.155793270017709     
  0.155798417964560     
  0.155803085951685     
  0.155807338242117     
  0.155811185412269     
  0.155814315264992     
  0.155816743695460     
  0.155818721146345     
  0.155820215826702     
  0.155821162687819     
  0.155821598486497     
  0.155821727656976     
  0.155761029703373     
  0.155769106998947     
  0.155776531437085     
  0.155783111521814     
  0.155788883721207     
  0.155793964629096     
  0.155798453267892     
  0.155802387830605     
  0.155805733602551     
  0.155808477550654     
  0.155810686757052     
  0.155812438615817     
  0.155813702563394     
  0.155814353002820     
  0.155814760109928     
  0.155747350310761     
  0.155757618729308     
  0.155766425190837     
  0.155773784683610     
  0.155780039986100     
  0.155785416528992     
  0.155790061871083     
  0.155794070487213     
  0.155797441502606     
  0.155800249036269     
  0.155802601546747     
  0.155804490961170     
  0.155805936489935     
  0.155807038468123     
  0.155807644293286     
  0.155735106451205     
  0.155748095318672     
  0.155757772528402     
  0.155765580625657     
  0.155772083011740     
  0.155777595179325     
  0.155782304290285     
  0.155786317442071     
  0.155789707916133     
  0.155792474974436     
  0.155794721715605     
  0.155796327761164     
  0.155797627304038     
  0.155798934246076     
  0.155800663691368     
