# vtk DataFile Version 3.0
vtk output
ASCII
DATASET UNSTRUCTURED_GRID
POINTS       496 double 
  0.00000000E+00  3.00000000E+02  0.00000000E+00
  0.00000000E+00  2.80000000E+02  0.00000000E+00
  0.00000000E+00  2.60000000E+02  0.00000000E+00
  0.00000000E+00  2.40000000E+02  0.00000000E+00
  0.00000000E+00  2.20000000E+02  0.00000000E+00
  0.00000000E+00  2.00000000E+02  0.00000000E+00
  0.00000000E+00  1.80000000E+02  0.00000000E+00
  0.00000000E+00  1.60000000E+02  0.00000000E+00
  0.00000000E+00  1.40000000E+02  0.00000000E+00
  0.00000000E+00  1.20000000E+02  0.00000000E+00
  0.00000000E+00  1.00000000E+02  0.00000000E+00
  0.00000000E+00  8.00000000E+01  0.00000000E+00
  0.00000000E+00  6.00000000E+01  0.00000000E+00
  0.00000000E+00  4.00000000E+01  0.00000000E+00
  0.00000000E+00  2.00000000E+01  0.00000000E+00
  0.00000000E+00  4.99600361E-14  0.00000000E+00
  2.00000000E+01  3.00000000E+02  0.00000000E+00
  2.00000000E+01  2.80000000E+02  0.00000000E+00
  2.00000000E+01  2.60000000E+02  0.00000000E+00
  2.00000000E+01  2.40000000E+02  0.00000000E+00
  2.00000000E+01  2.20000000E+02  0.00000000E+00
  2.00000000E+01  2.00000000E+02  0.00000000E+00
  2.00000000E+01  1.80000000E+02  0.00000000E+00
  2.00000000E+01  1.60000000E+02  0.00000000E+00
  2.00000000E+01  1.40000000E+02  0.00000000E+00
  2.00000000E+01  1.20000000E+02  0.00000000E+00
  2.00000000E+01  1.00000000E+02  0.00000000E+00
  2.00000000E+01  8.00000000E+01  0.00000000E+00
  2.00000000E+01  6.00000000E+01  0.00000000E+00
  2.00000000E+01  4.00000000E+01  0.00000000E+00
  2.00000000E+01  2.00000000E+01  0.00000000E+00
  2.00000000E+01  4.99600361E-14  0.00000000E+00
  4.00000000E+01  3.00000000E+02  0.00000000E+00
  4.00000000E+01  2.80000000E+02  0.00000000E+00
  4.00000000E+01  2.60000000E+02  0.00000000E+00
  4.00000000E+01  2.40000000E+02  0.00000000E+00
  4.00000000E+01  2.20000000E+02  0.00000000E+00
  4.00000000E+01  2.00000000E+02  0.00000000E+00
  4.00000000E+01  1.80000000E+02  0.00000000E+00
  4.00000000E+01  1.60000000E+02  0.00000000E+00
  4.00000000E+01  1.40000000E+02  0.00000000E+00
  4.00000000E+01  1.20000000E+02  0.00000000E+00
  4.00000000E+01  1.00000000E+02  0.00000000E+00
  4.00000000E+01  8.00000000E+01  0.00000000E+00
  4.00000000E+01  6.00000000E+01  0.00000000E+00
  4.00000000E+01  4.00000000E+01  0.00000000E+00
  4.00000000E+01  2.00000000E+01  0.00000000E+00
  4.00000000E+01  4.99600361E-14  0.00000000E+00
  6.00000000E+01  3.00000000E+02  0.00000000E+00
  6.00000000E+01  2.80000000E+02  0.00000000E+00
  6.00000000E+01  2.60000000E+02  0.00000000E+00
  6.00000000E+01  2.40000000E+02  0.00000000E+00
  6.00000000E+01  2.20000000E+02  0.00000000E+00
  6.00000000E+01  2.00000000E+02  0.00000000E+00
  6.00000000E+01  1.80000000E+02  0.00000000E+00
  6.00000000E+01  1.60000000E+02  0.00000000E+00
  6.00000000E+01  1.40000000E+02  0.00000000E+00
  6.00000000E+01  1.20000000E+02  0.00000000E+00
  6.00000000E+01  1.00000000E+02  0.00000000E+00
  6.00000000E+01  8.00000000E+01  0.00000000E+00
  6.00000000E+01  6.00000000E+01  0.00000000E+00
  6.00000000E+01  4.00000000E+01  0.00000000E+00
  6.00000000E+01  2.00000000E+01  0.00000000E+00
  6.00000000E+01  4.99600361E-14  0.00000000E+00
  8.00000000E+01  3.00000000E+02  0.00000000E+00
  8.00000000E+01  2.80000000E+02  0.00000000E+00
  8.00000000E+01  2.60000000E+02  0.00000000E+00
  8.00000000E+01  2.40000000E+02  0.00000000E+00
  8.00000000E+01  2.20000000E+02  0.00000000E+00
  8.00000000E+01  2.00000000E+02  0.00000000E+00
  8.00000000E+01  1.80000000E+02  0.00000000E+00
  8.00000000E+01  1.60000000E+02  0.00000000E+00
  8.00000000E+01  1.40000000E+02  0.00000000E+00
  8.00000000E+01  1.20000000E+02  0.00000000E+00
  8.00000000E+01  1.00000000E+02  0.00000000E+00
  8.00000000E+01  8.00000000E+01  0.00000000E+00
  8.00000000E+01  6.00000000E+01  0.00000000E+00
  8.00000000E+01  4.00000000E+01  0.00000000E+00
  8.00000000E+01  2.00000000E+01  0.00000000E+00
  8.00000000E+01  4.99600361E-14  0.00000000E+00
  1.00000000E+02  3.00000000E+02  0.00000000E+00
  1.00000000E+02  2.80000000E+02  0.00000000E+00
  1.00000000E+02  2.60000000E+02  0.00000000E+00
  1.00000000E+02  2.40000000E+02  0.00000000E+00
  1.00000000E+02  2.20000000E+02  0.00000000E+00
  1.00000000E+02  2.00000000E+02  0.00000000E+00
  1.00000000E+02  1.80000000E+02  0.00000000E+00
  1.00000000E+02  1.60000000E+02  0.00000000E+00
  1.00000000E+02  1.40000000E+02  0.00000000E+00
  1.00000000E+02  1.20000000E+02  0.00000000E+00
  1.00000000E+02  1.00000000E+02  0.00000000E+00
  1.00000000E+02  8.00000000E+01  0.00000000E+00
  1.00000000E+02  6.00000000E+01  0.00000000E+00
  1.00000000E+02  4.00000000E+01  0.00000000E+00
  1.00000000E+02  2.00000000E+01  0.00000000E+00
  1.00000000E+02  4.99600361E-14  0.00000000E+00
  1.20000000E+02  3.00000000E+02  0.00000000E+00
  1.20000000E+02  2.80000000E+02  0.00000000E+00
  1.20000000E+02  2.60000000E+02  0.00000000E+00
  1.20000000E+02  2.40000000E+02  0.00000000E+00
  1.20000000E+02  2.20000000E+02  0.00000000E+00
  1.20000000E+02  2.00000000E+02  0.00000000E+00
  1.20000000E+02  1.80000000E+02  0.00000000E+00
  1.20000000E+02  1.60000000E+02  0.00000000E+00
  1.20000000E+02  1.40000000E+02  0.00000000E+00
  1.20000000E+02  1.20000000E+02  0.00000000E+00
  1.20000000E+02  1.00000000E+02  0.00000000E+00
  1.20000000E+02  8.00000000E+01  0.00000000E+00
  1.20000000E+02  6.00000000E+01  0.00000000E+00
  1.20000000E+02  4.00000000E+01  0.00000000E+00
  1.20000000E+02  2.00000000E+01  0.00000000E+00
  1.20000000E+02  4.99600361E-14  0.00000000E+00
  1.40000000E+02  3.00000000E+02  0.00000000E+00
  1.40000000E+02  2.80000000E+02  0.00000000E+00
  1.40000000E+02  2.60000000E+02  0.00000000E+00
  1.40000000E+02  2.40000000E+02  0.00000000E+00
  1.40000000E+02  2.20000000E+02  0.00000000E+00
  1.40000000E+02  2.00000000E+02  0.00000000E+00
  1.40000000E+02  1.80000000E+02  0.00000000E+00
  1.40000000E+02  1.60000000E+02  0.00000000E+00
  1.40000000E+02  1.40000000E+02  0.00000000E+00
  1.40000000E+02  1.20000000E+02  0.00000000E+00
  1.40000000E+02  1.00000000E+02  0.00000000E+00
  1.40000000E+02  8.00000000E+01  0.00000000E+00
  1.40000000E+02  6.00000000E+01  0.00000000E+00
  1.40000000E+02  4.00000000E+01  0.00000000E+00
  1.40000000E+02  2.00000000E+01  0.00000000E+00
  1.40000000E+02  4.99600361E-14  0.00000000E+00
  1.60000000E+02  3.00000000E+02  0.00000000E+00
  1.60000000E+02  2.80000000E+02  0.00000000E+00
  1.60000000E+02  2.60000000E+02  0.00000000E+00
  1.60000000E+02  2.40000000E+02  0.00000000E+00
  1.60000000E+02  2.20000000E+02  0.00000000E+00
  1.60000000E+02  2.00000000E+02  0.00000000E+00
  1.60000000E+02  1.80000000E+02  0.00000000E+00
  1.60000000E+02  1.60000000E+02  0.00000000E+00
  1.60000000E+02  1.40000000E+02  0.00000000E+00
  1.60000000E+02  1.20000000E+02  0.00000000E+00
  1.60000000E+02  1.00000000E+02  0.00000000E+00
  1.60000000E+02  8.00000000E+01  0.00000000E+00
  1.60000000E+02  6.00000000E+01  0.00000000E+00
  1.60000000E+02  4.00000000E+01  0.00000000E+00
  1.60000000E+02  2.00000000E+01  0.00000000E+00
  1.60000000E+02  4.99600361E-14  0.00000000E+00
  1.80000000E+02  3.00000000E+02  0.00000000E+00
  1.80000000E+02  2.80000000E+02  0.00000000E+00
  1.80000000E+02  2.60000000E+02  0.00000000E+00
  1.80000000E+02  2.40000000E+02  0.00000000E+00
  1.80000000E+02  2.20000000E+02  0.00000000E+00
  1.80000000E+02  2.00000000E+02  0.00000000E+00
  1.80000000E+02  1.80000000E+02  0.00000000E+00
  1.80000000E+02  1.60000000E+02  0.00000000E+00
  1.80000000E+02  1.40000000E+02  0.00000000E+00
  1.80000000E+02  1.20000000E+02  0.00000000E+00
  1.80000000E+02  1.00000000E+02  0.00000000E+00
  1.80000000E+02  8.00000000E+01  0.00000000E+00
  1.80000000E+02  6.00000000E+01  0.00000000E+00
  1.80000000E+02  4.00000000E+01  0.00000000E+00
  1.80000000E+02  2.00000000E+01  0.00000000E+00
  1.80000000E+02  4.99600361E-14  0.00000000E+00
  2.00000000E+02  3.00000000E+02  0.00000000E+00
  2.00000000E+02  2.80000000E+02  0.00000000E+00
  2.00000000E+02  2.60000000E+02  0.00000000E+00
  2.00000000E+02  2.40000000E+02  0.00000000E+00
  2.00000000E+02  2.20000000E+02  0.00000000E+00
  2.00000000E+02  2.00000000E+02  0.00000000E+00
  2.00000000E+02  1.80000000E+02  0.00000000E+00
  2.00000000E+02  1.60000000E+02  0.00000000E+00
  2.00000000E+02  1.40000000E+02  0.00000000E+00
  2.00000000E+02  1.20000000E+02  0.00000000E+00
  2.00000000E+02  1.00000000E+02  0.00000000E+00
  2.00000000E+02  8.00000000E+01  0.00000000E+00
  2.00000000E+02  6.00000000E+01  0.00000000E+00
  2.00000000E+02  4.00000000E+01  0.00000000E+00
  2.00000000E+02  2.00000000E+01  0.00000000E+00
  2.00000000E+02  4.99600361E-14  0.00000000E+00
  2.20000000E+02  3.00000000E+02  0.00000000E+00
  2.20000000E+02  2.80000000E+02  0.00000000E+00
  2.20000000E+02  2.60000000E+02  0.00000000E+00
  2.20000000E+02  2.40000000E+02  0.00000000E+00
  2.20000000E+02  2.20000000E+02  0.00000000E+00
  2.20000000E+02  2.00000000E+02  0.00000000E+00
  2.20000000E+02  1.80000000E+02  0.00000000E+00
  2.20000000E+02  1.60000000E+02  0.00000000E+00
  2.20000000E+02  1.40000000E+02  0.00000000E+00
  2.20000000E+02  1.20000000E+02  0.00000000E+00
  2.20000000E+02  1.00000000E+02  0.00000000E+00
  2.20000000E+02  8.00000000E+01  0.00000000E+00
  2.20000000E+02  6.00000000E+01  0.00000000E+00
  2.20000000E+02  4.00000000E+01  0.00000000E+00
  2.20000000E+02  2.00000000E+01  0.00000000E+00
  2.20000000E+02  4.99600361E-14  0.00000000E+00
  2.40000000E+02  3.00000000E+02  0.00000000E+00
  2.40000000E+02  2.80000000E+02  0.00000000E+00
  2.40000000E+02  2.60000000E+02  0.00000000E+00
  2.40000000E+02  2.40000000E+02  0.00000000E+00
  2.40000000E+02  2.20000000E+02  0.00000000E+00
  2.40000000E+02  2.00000000E+02  0.00000000E+00
  2.40000000E+02  1.80000000E+02  0.00000000E+00
  2.40000000E+02  1.60000000E+02  0.00000000E+00
  2.40000000E+02  1.40000000E+02  0.00000000E+00
  2.40000000E+02  1.20000000E+02  0.00000000E+00
  2.40000000E+02  1.00000000E+02  0.00000000E+00
  2.40000000E+02  8.00000000E+01  0.00000000E+00
  2.40000000E+02  6.00000000E+01  0.00000000E+00
  2.40000000E+02  4.00000000E+01  0.00000000E+00
  2.40000000E+02  2.00000000E+01  0.00000000E+00
  2.40000000E+02  4.99600361E-14  0.00000000E+00
  2.60000000E+02  3.00000000E+02  0.00000000E+00
  2.60000000E+02  2.80000000E+02  0.00000000E+00
  2.60000000E+02  2.60000000E+02  0.00000000E+00
  2.60000000E+02  2.40000000E+02  0.00000000E+00
  2.60000000E+02  2.20000000E+02  0.00000000E+00
  2.60000000E+02  2.00000000E+02  0.00000000E+00
  2.60000000E+02  1.80000000E+02  0.00000000E+00
  2.60000000E+02  1.60000000E+02  0.00000000E+00
  2.60000000E+02  1.40000000E+02  0.00000000E+00
  2.60000000E+02  1.20000000E+02  0.00000000E+00
  2.60000000E+02  1.00000000E+02  0.00000000E+00
  2.60000000E+02  8.00000000E+01  0.00000000E+00
  2.60000000E+02  6.00000000E+01  0.00000000E+00
  2.60000000E+02  4.00000000E+01  0.00000000E+00
  2.60000000E+02  2.00000000E+01  0.00000000E+00
  2.60000000E+02  4.99600361E-14  0.00000000E+00
  2.80000000E+02  3.00000000E+02  0.00000000E+00
  2.80000000E+02  2.80000000E+02  0.00000000E+00
  2.80000000E+02  2.60000000E+02  0.00000000E+00
  2.80000000E+02  2.40000000E+02  0.00000000E+00
  2.80000000E+02  2.20000000E+02  0.00000000E+00
  2.80000000E+02  2.00000000E+02  0.00000000E+00
  2.80000000E+02  1.80000000E+02  0.00000000E+00
  2.80000000E+02  1.60000000E+02  0.00000000E+00
  2.80000000E+02  1.40000000E+02  0.00000000E+00
  2.80000000E+02  1.20000000E+02  0.00000000E+00
  2.80000000E+02  1.00000000E+02  0.00000000E+00
  2.80000000E+02  8.00000000E+01  0.00000000E+00
  2.80000000E+02  6.00000000E+01  0.00000000E+00
  2.80000000E+02  4.00000000E+01  0.00000000E+00
  2.80000000E+02  2.00000000E+01  0.00000000E+00
  2.80000000E+02  4.99600361E-14  0.00000000E+00
  3.00000000E+02  3.00000000E+02  0.00000000E+00
  3.00000000E+02  2.80000000E+02  0.00000000E+00
  3.00000000E+02  2.60000000E+02  0.00000000E+00
  3.00000000E+02  2.40000000E+02  0.00000000E+00
  3.00000000E+02  2.20000000E+02  0.00000000E+00
  3.00000000E+02  2.00000000E+02  0.00000000E+00
  3.00000000E+02  1.80000000E+02  0.00000000E+00
  3.00000000E+02  1.60000000E+02  0.00000000E+00
  3.00000000E+02  1.40000000E+02  0.00000000E+00
  3.00000000E+02  1.20000000E+02  0.00000000E+00
  3.00000000E+02  1.00000000E+02  0.00000000E+00
  3.00000000E+02  8.00000000E+01  0.00000000E+00
  3.00000000E+02  6.00000000E+01  0.00000000E+00
  3.00000000E+02  4.00000000E+01  0.00000000E+00
  3.00000000E+02  2.00000000E+01  0.00000000E+00
  3.00000000E+02  4.99600361E-14  0.00000000E+00
  3.20000000E+02  3.00000000E+02  0.00000000E+00
  3.20000000E+02  2.80000000E+02  0.00000000E+00
  3.20000000E+02  2.60000000E+02  0.00000000E+00
  3.20000000E+02  2.40000000E+02  0.00000000E+00
  3.20000000E+02  2.20000000E+02  0.00000000E+00
  3.20000000E+02  2.00000000E+02  0.00000000E+00
  3.20000000E+02  1.80000000E+02  0.00000000E+00
  3.20000000E+02  1.60000000E+02  0.00000000E+00
  3.20000000E+02  1.40000000E+02  0.00000000E+00
  3.20000000E+02  1.20000000E+02  0.00000000E+00
  3.20000000E+02  1.00000000E+02  0.00000000E+00
  3.20000000E+02  8.00000000E+01  0.00000000E+00
  3.20000000E+02  6.00000000E+01  0.00000000E+00
  3.20000000E+02  4.00000000E+01  0.00000000E+00
  3.20000000E+02  2.00000000E+01  0.00000000E+00
  3.20000000E+02  4.99600361E-14  0.00000000E+00
  3.40000000E+02  3.00000000E+02  0.00000000E+00
  3.40000000E+02  2.80000000E+02  0.00000000E+00
  3.40000000E+02  2.60000000E+02  0.00000000E+00
  3.40000000E+02  2.40000000E+02  0.00000000E+00
  3.40000000E+02  2.20000000E+02  0.00000000E+00
  3.40000000E+02  2.00000000E+02  0.00000000E+00
  3.40000000E+02  1.80000000E+02  0.00000000E+00
  3.40000000E+02  1.60000000E+02  0.00000000E+00
  3.40000000E+02  1.40000000E+02  0.00000000E+00
  3.40000000E+02  1.20000000E+02  0.00000000E+00
  3.40000000E+02  1.00000000E+02  0.00000000E+00
  3.40000000E+02  8.00000000E+01  0.00000000E+00
  3.40000000E+02  6.00000000E+01  0.00000000E+00
  3.40000000E+02  4.00000000E+01  0.00000000E+00
  3.40000000E+02  2.00000000E+01  0.00000000E+00
  3.40000000E+02  4.99600361E-14  0.00000000E+00
  3.60000000E+02  3.00000000E+02  0.00000000E+00
  3.60000000E+02  2.80000000E+02  0.00000000E+00
  3.60000000E+02  2.60000000E+02  0.00000000E+00
  3.60000000E+02  2.40000000E+02  0.00000000E+00
  3.60000000E+02  2.20000000E+02  0.00000000E+00
  3.60000000E+02  2.00000000E+02  0.00000000E+00
  3.60000000E+02  1.80000000E+02  0.00000000E+00
  3.60000000E+02  1.60000000E+02  0.00000000E+00
  3.60000000E+02  1.40000000E+02  0.00000000E+00
  3.60000000E+02  1.20000000E+02  0.00000000E+00
  3.60000000E+02  1.00000000E+02  0.00000000E+00
  3.60000000E+02  8.00000000E+01  0.00000000E+00
  3.60000000E+02  6.00000000E+01  0.00000000E+00
  3.60000000E+02  4.00000000E+01  0.00000000E+00
  3.60000000E+02  2.00000000E+01  0.00000000E+00
  3.60000000E+02  4.99600361E-14  0.00000000E+00
  3.80000000E+02  3.00000000E+02  0.00000000E+00
  3.80000000E+02  2.80000000E+02  0.00000000E+00
  3.80000000E+02  2.60000000E+02  0.00000000E+00
  3.80000000E+02  2.40000000E+02  0.00000000E+00
  3.80000000E+02  2.20000000E+02  0.00000000E+00
  3.80000000E+02  2.00000000E+02  0.00000000E+00
  3.80000000E+02  1.80000000E+02  0.00000000E+00
  3.80000000E+02  1.60000000E+02  0.00000000E+00
  3.80000000E+02  1.40000000E+02  0.00000000E+00
  3.80000000E+02  1.20000000E+02  0.00000000E+00
  3.80000000E+02  1.00000000E+02  0.00000000E+00
  3.80000000E+02  8.00000000E+01  0.00000000E+00
  3.80000000E+02  6.00000000E+01  0.00000000E+00
  3.80000000E+02  4.00000000E+01  0.00000000E+00
  3.80000000E+02  2.00000000E+01  0.00000000E+00
  3.80000000E+02  4.99600361E-14  0.00000000E+00
  4.00000000E+02  3.00000000E+02  0.00000000E+00
  4.00000000E+02  2.80000000E+02  0.00000000E+00
  4.00000000E+02  2.60000000E+02  0.00000000E+00
  4.00000000E+02  2.40000000E+02  0.00000000E+00
  4.00000000E+02  2.20000000E+02  0.00000000E+00
  4.00000000E+02  2.00000000E+02  0.00000000E+00
  4.00000000E+02  1.80000000E+02  0.00000000E+00
  4.00000000E+02  1.60000000E+02  0.00000000E+00
  4.00000000E+02  1.40000000E+02  0.00000000E+00
  4.00000000E+02  1.20000000E+02  0.00000000E+00
  4.00000000E+02  1.00000000E+02  0.00000000E+00
  4.00000000E+02  8.00000000E+01  0.00000000E+00
  4.00000000E+02  6.00000000E+01  0.00000000E+00
  4.00000000E+02  4.00000000E+01  0.00000000E+00
  4.00000000E+02  2.00000000E+01  0.00000000E+00
  4.00000000E+02  4.99600361E-14  0.00000000E+00
  4.20000000E+02  3.00000000E+02  0.00000000E+00
  4.20000000E+02  2.80000000E+02  0.00000000E+00
  4.20000000E+02  2.60000000E+02  0.00000000E+00
  4.20000000E+02  2.40000000E+02  0.00000000E+00
  4.20000000E+02  2.20000000E+02  0.00000000E+00
  4.20000000E+02  2.00000000E+02  0.00000000E+00
  4.20000000E+02  1.80000000E+02  0.00000000E+00
  4.20000000E+02  1.60000000E+02  0.00000000E+00
  4.20000000E+02  1.40000000E+02  0.00000000E+00
  4.20000000E+02  1.20000000E+02  0.00000000E+00
  4.20000000E+02  1.00000000E+02  0.00000000E+00
  4.20000000E+02  8.00000000E+01  0.00000000E+00
  4.20000000E+02  6.00000000E+01  0.00000000E+00
  4.20000000E+02  4.00000000E+01  0.00000000E+00
  4.20000000E+02  2.00000000E+01  0.00000000E+00
  4.20000000E+02  4.99600361E-14  0.00000000E+00
  4.40000000E+02  3.00000000E+02  0.00000000E+00
  4.40000000E+02  2.80000000E+02  0.00000000E+00
  4.40000000E+02  2.60000000E+02  0.00000000E+00
  4.40000000E+02  2.40000000E+02  0.00000000E+00
  4.40000000E+02  2.20000000E+02  0.00000000E+00
  4.40000000E+02  2.00000000E+02  0.00000000E+00
  4.40000000E+02  1.80000000E+02  0.00000000E+00
  4.40000000E+02  1.60000000E+02  0.00000000E+00
  4.40000000E+02  1.40000000E+02  0.00000000E+00
  4.40000000E+02  1.20000000E+02  0.00000000E+00
  4.40000000E+02  1.00000000E+02  0.00000000E+00
  4.40000000E+02  8.00000000E+01  0.00000000E+00
  4.40000000E+02  6.00000000E+01  0.00000000E+00
  4.40000000E+02  4.00000000E+01  0.00000000E+00
  4.40000000E+02  2.00000000E+01  0.00000000E+00
  4.40000000E+02  4.99600361E-14  0.00000000E+00
  4.60000000E+02  3.00000000E+02  0.00000000E+00
  4.60000000E+02  2.80000000E+02  0.00000000E+00
  4.60000000E+02  2.60000000E+02  0.00000000E+00
  4.60000000E+02  2.40000000E+02  0.00000000E+00
  4.60000000E+02  2.20000000E+02  0.00000000E+00
  4.60000000E+02  2.00000000E+02  0.00000000E+00
  4.60000000E+02  1.80000000E+02  0.00000000E+00
  4.60000000E+02  1.60000000E+02  0.00000000E+00
  4.60000000E+02  1.40000000E+02  0.00000000E+00
  4.60000000E+02  1.20000000E+02  0.00000000E+00
  4.60000000E+02  1.00000000E+02  0.00000000E+00
  4.60000000E+02  8.00000000E+01  0.00000000E+00
  4.60000000E+02  6.00000000E+01  0.00000000E+00
  4.60000000E+02  4.00000000E+01  0.00000000E+00
  4.60000000E+02  2.00000000E+01  0.00000000E+00
  4.60000000E+02  4.99600361E-14  0.00000000E+00
  4.80000000E+02  3.00000000E+02  0.00000000E+00
  4.80000000E+02  2.80000000E+02  0.00000000E+00
  4.80000000E+02  2.60000000E+02  0.00000000E+00
  4.80000000E+02  2.40000000E+02  0.00000000E+00
  4.80000000E+02  2.20000000E+02  0.00000000E+00
  4.80000000E+02  2.00000000E+02  0.00000000E+00
  4.80000000E+02  1.80000000E+02  0.00000000E+00
  4.80000000E+02  1.60000000E+02  0.00000000E+00
  4.80000000E+02  1.40000000E+02  0.00000000E+00
  4.80000000E+02  1.20000000E+02  0.00000000E+00
  4.80000000E+02  1.00000000E+02  0.00000000E+00
  4.80000000E+02  8.00000000E+01  0.00000000E+00
  4.80000000E+02  6.00000000E+01  0.00000000E+00
  4.80000000E+02  4.00000000E+01  0.00000000E+00
  4.80000000E+02  2.00000000E+01  0.00000000E+00
  4.80000000E+02  4.99600361E-14  0.00000000E+00
  5.00000000E+02  3.00000000E+02  0.00000000E+00
  5.00000000E+02  2.80000000E+02  0.00000000E+00
  5.00000000E+02  2.60000000E+02  0.00000000E+00
  5.00000000E+02  2.40000000E+02  0.00000000E+00
  5.00000000E+02  2.20000000E+02  0.00000000E+00
  5.00000000E+02  2.00000000E+02  0.00000000E+00
  5.00000000E+02  1.80000000E+02  0.00000000E+00
  5.00000000E+02  1.60000000E+02  0.00000000E+00
  5.00000000E+02  1.40000000E+02  0.00000000E+00
  5.00000000E+02  1.20000000E+02  0.00000000E+00
  5.00000000E+02  1.00000000E+02  0.00000000E+00
  5.00000000E+02  8.00000000E+01  0.00000000E+00
  5.00000000E+02  6.00000000E+01  0.00000000E+00
  5.00000000E+02  4.00000000E+01  0.00000000E+00
  5.00000000E+02  2.00000000E+01  0.00000000E+00
  5.00000000E+02  4.99600361E-14  0.00000000E+00
  5.20000000E+02  3.00000000E+02  0.00000000E+00
  5.20000000E+02  2.80000000E+02  0.00000000E+00
  5.20000000E+02  2.60000000E+02  0.00000000E+00
  5.20000000E+02  2.40000000E+02  0.00000000E+00
  5.20000000E+02  2.20000000E+02  0.00000000E+00
  5.20000000E+02  2.00000000E+02  0.00000000E+00
  5.20000000E+02  1.80000000E+02  0.00000000E+00
  5.20000000E+02  1.60000000E+02  0.00000000E+00
  5.20000000E+02  1.40000000E+02  0.00000000E+00
  5.20000000E+02  1.20000000E+02  0.00000000E+00
  5.20000000E+02  1.00000000E+02  0.00000000E+00
  5.20000000E+02  8.00000000E+01  0.00000000E+00
  5.20000000E+02  6.00000000E+01  0.00000000E+00
  5.20000000E+02  4.00000000E+01  0.00000000E+00
  5.20000000E+02  2.00000000E+01  0.00000000E+00
  5.20000000E+02  4.99600361E-14  0.00000000E+00
  5.40000000E+02  3.00000000E+02  0.00000000E+00
  5.40000000E+02  2.80000000E+02  0.00000000E+00
  5.40000000E+02  2.60000000E+02  0.00000000E+00
  5.40000000E+02  2.40000000E+02  0.00000000E+00
  5.40000000E+02  2.20000000E+02  0.00000000E+00
  5.40000000E+02  2.00000000E+02  0.00000000E+00
  5.40000000E+02  1.80000000E+02  0.00000000E+00
  5.40000000E+02  1.60000000E+02  0.00000000E+00
  5.40000000E+02  1.40000000E+02  0.00000000E+00
  5.40000000E+02  1.20000000E+02  0.00000000E+00
  5.40000000E+02  1.00000000E+02  0.00000000E+00
  5.40000000E+02  8.00000000E+01  0.00000000E+00
  5.40000000E+02  6.00000000E+01  0.00000000E+00
  5.40000000E+02  4.00000000E+01  0.00000000E+00
  5.40000000E+02  2.00000000E+01  0.00000000E+00
  5.40000000E+02  4.99600361E-14  0.00000000E+00
  5.60000000E+02  3.00000000E+02  0.00000000E+00
  5.60000000E+02  2.80000000E+02  0.00000000E+00
  5.60000000E+02  2.60000000E+02  0.00000000E+00
  5.60000000E+02  2.40000000E+02  0.00000000E+00
  5.60000000E+02  2.20000000E+02  0.00000000E+00
  5.60000000E+02  2.00000000E+02  0.00000000E+00
  5.60000000E+02  1.80000000E+02  0.00000000E+00
  5.60000000E+02  1.60000000E+02  0.00000000E+00
  5.60000000E+02  1.40000000E+02  0.00000000E+00
  5.60000000E+02  1.20000000E+02  0.00000000E+00
  5.60000000E+02  1.00000000E+02  0.00000000E+00
  5.60000000E+02  8.00000000E+01  0.00000000E+00
  5.60000000E+02  6.00000000E+01  0.00000000E+00
  5.60000000E+02  4.00000000E+01  0.00000000E+00
  5.60000000E+02  2.00000000E+01  0.00000000E+00
  5.60000000E+02  4.99600361E-14  0.00000000E+00
  5.80000000E+02  3.00000000E+02  0.00000000E+00
  5.80000000E+02  2.80000000E+02  0.00000000E+00
  5.80000000E+02  2.60000000E+02  0.00000000E+00
  5.80000000E+02  2.40000000E+02  0.00000000E+00
  5.80000000E+02  2.20000000E+02  0.00000000E+00
  5.80000000E+02  2.00000000E+02  0.00000000E+00
  5.80000000E+02  1.80000000E+02  0.00000000E+00
  5.80000000E+02  1.60000000E+02  0.00000000E+00
  5.80000000E+02  1.40000000E+02  0.00000000E+00
  5.80000000E+02  1.20000000E+02  0.00000000E+00
  5.80000000E+02  1.00000000E+02  0.00000000E+00
  5.80000000E+02  8.00000000E+01  0.00000000E+00
  5.80000000E+02  6.00000000E+01  0.00000000E+00
  5.80000000E+02  4.00000000E+01  0.00000000E+00
  5.80000000E+02  2.00000000E+01  0.00000000E+00
  5.80000000E+02  4.99600361E-14  0.00000000E+00
  6.00000000E+02  3.00000000E+02  0.00000000E+00
  6.00000000E+02  2.80000000E+02  0.00000000E+00
  6.00000000E+02  2.60000000E+02  0.00000000E+00
  6.00000000E+02  2.40000000E+02  0.00000000E+00
  6.00000000E+02  2.20000000E+02  0.00000000E+00
  6.00000000E+02  2.00000000E+02  0.00000000E+00
  6.00000000E+02  1.80000000E+02  0.00000000E+00
  6.00000000E+02  1.60000000E+02  0.00000000E+00
  6.00000000E+02  1.40000000E+02  0.00000000E+00
  6.00000000E+02  1.20000000E+02  0.00000000E+00
  6.00000000E+02  1.00000000E+02  0.00000000E+00
  6.00000000E+02  8.00000000E+01  0.00000000E+00
  6.00000000E+02  6.00000000E+01  0.00000000E+00
  6.00000000E+02  4.00000000E+01  0.00000000E+00
  6.00000000E+02  2.00000000E+01  0.00000000E+00
  6.00000000E+02  4.99600361E-14  0.00000000E+00
CELLS       450      2250
         4           0           1          17          16
         4           1           2          18          17
         4           2           3          19          18
         4           3           4          20          19
         4           4           5          21          20
         4           5           6          22          21
         4           6           7          23          22
         4           7           8          24          23
         4           8           9          25          24
         4           9          10          26          25
         4          10          11          27          26
         4          11          12          28          27
         4          12          13          29          28
         4          13          14          30          29
         4          14          15          31          30
         4          16          17          33          32
         4          17          18          34          33
         4          18          19          35          34
         4          19          20          36          35
         4          20          21          37          36
         4          21          22          38          37
         4          22          23          39          38
         4          23          24          40          39
         4          24          25          41          40
         4          25          26          42          41
         4          26          27          43          42
         4          27          28          44          43
         4          28          29          45          44
         4          29          30          46          45
         4          30          31          47          46
         4          32          33          49          48
         4          33          34          50          49
         4          34          35          51          50
         4          35          36          52          51
         4          36          37          53          52
         4          37          38          54          53
         4          38          39          55          54
         4          39          40          56          55
         4          40          41          57          56
         4          41          42          58          57
         4          42          43          59          58
         4          43          44          60          59
         4          44          45          61          60
         4          45          46          62          61
         4          46          47          63          62
         4          48          49          65          64
         4          49          50          66          65
         4          50          51          67          66
         4          51          52          68          67
         4          52          53          69          68
         4          53          54          70          69
         4          54          55          71          70
         4          55          56          72          71
         4          56          57          73          72
         4          57          58          74          73
         4          58          59          75          74
         4          59          60          76          75
         4          60          61          77          76
         4          61          62          78          77
         4          62          63          79          78
         4          64          65          81          80
         4          65          66          82          81
         4          66          67          83          82
         4          67          68          84          83
         4          68          69          85          84
         4          69          70          86          85
         4          70          71          87          86
         4          71          72          88          87
         4          72          73          89          88
         4          73          74          90          89
         4          74          75          91          90
         4          75          76          92          91
         4          76          77          93          92
         4          77          78          94          93
         4          78          79          95          94
         4          80          81          97          96
         4          81          82          98          97
         4          82          83          99          98
         4          83          84         100          99
         4          84          85         101         100
         4          85          86         102         101
         4          86          87         103         102
         4          87          88         104         103
         4          88          89         105         104
         4          89          90         106         105
         4          90          91         107         106
         4          91          92         108         107
         4          92          93         109         108
         4          93          94         110         109
         4          94          95         111         110
         4          96          97         113         112
         4          97          98         114         113
         4          98          99         115         114
         4          99         100         116         115
         4         100         101         117         116
         4         101         102         118         117
         4         102         103         119         118
         4         103         104         120         119
         4         104         105         121         120
         4         105         106         122         121
         4         106         107         123         122
         4         107         108         124         123
         4         108         109         125         124
         4         109         110         126         125
         4         110         111         127         126
         4         112         113         129         128
         4         113         114         130         129
         4         114         115         131         130
         4         115         116         132         131
         4         116         117         133         132
         4         117         118         134         133
         4         118         119         135         134
         4         119         120         136         135
         4         120         121         137         136
         4         121         122         138         137
         4         122         123         139         138
         4         123         124         140         139
         4         124         125         141         140
         4         125         126         142         141
         4         126         127         143         142
         4         128         129         145         144
         4         129         130         146         145
         4         130         131         147         146
         4         131         132         148         147
         4         132         133         149         148
         4         133         134         150         149
         4         134         135         151         150
         4         135         136         152         151
         4         136         137         153         152
         4         137         138         154         153
         4         138         139         155         154
         4         139         140         156         155
         4         140         141         157         156
         4         141         142         158         157
         4         142         143         159         158
         4         144         145         161         160
         4         145         146         162         161
         4         146         147         163         162
         4         147         148         164         163
         4         148         149         165         164
         4         149         150         166         165
         4         150         151         167         166
         4         151         152         168         167
         4         152         153         169         168
         4         153         154         170         169
         4         154         155         171         170
         4         155         156         172         171
         4         156         157         173         172
         4         157         158         174         173
         4         158         159         175         174
         4         160         161         177         176
         4         161         162         178         177
         4         162         163         179         178
         4         163         164         180         179
         4         164         165         181         180
         4         165         166         182         181
         4         166         167         183         182
         4         167         168         184         183
         4         168         169         185         184
         4         169         170         186         185
         4         170         171         187         186
         4         171         172         188         187
         4         172         173         189         188
         4         173         174         190         189
         4         174         175         191         190
         4         176         177         193         192
         4         177         178         194         193
         4         178         179         195         194
         4         179         180         196         195
         4         180         181         197         196
         4         181         182         198         197
         4         182         183         199         198
         4         183         184         200         199
         4         184         185         201         200
         4         185         186         202         201
         4         186         187         203         202
         4         187         188         204         203
         4         188         189         205         204
         4         189         190         206         205
         4         190         191         207         206
         4         192         193         209         208
         4         193         194         210         209
         4         194         195         211         210
         4         195         196         212         211
         4         196         197         213         212
         4         197         198         214         213
         4         198         199         215         214
         4         199         200         216         215
         4         200         201         217         216
         4         201         202         218         217
         4         202         203         219         218
         4         203         204         220         219
         4         204         205         221         220
         4         205         206         222         221
         4         206         207         223         222
         4         208         209         225         224
         4         209         210         226         225
         4         210         211         227         226
         4         211         212         228         227
         4         212         213         229         228
         4         213         214         230         229
         4         214         215         231         230
         4         215         216         232         231
         4         216         217         233         232
         4         217         218         234         233
         4         218         219         235         234
         4         219         220         236         235
         4         220         221         237         236
         4         221         222         238         237
         4         222         223         239         238
         4         224         225         241         240
         4         225         226         242         241
         4         226         227         243         242
         4         227         228         244         243
         4         228         229         245         244
         4         229         230         246         245
         4         230         231         247         246
         4         231         232         248         247
         4         232         233         249         248
         4         233         234         250         249
         4         234         235         251         250
         4         235         236         252         251
         4         236         237         253         252
         4         237         238         254         253
         4         238         239         255         254
         4         240         241         257         256
         4         241         242         258         257
         4         242         243         259         258
         4         243         244         260         259
         4         244         245         261         260
         4         245         246         262         261
         4         246         247         263         262
         4         247         248         264         263
         4         248         249         265         264
         4         249         250         266         265
         4         250         251         267         266
         4         251         252         268         267
         4         252         253         269         268
         4         253         254         270         269
         4         254         255         271         270
         4         256         257         273         272
         4         257         258         274         273
         4         258         259         275         274
         4         259         260         276         275
         4         260         261         277         276
         4         261         262         278         277
         4         262         263         279         278
         4         263         264         280         279
         4         264         265         281         280
         4         265         266         282         281
         4         266         267         283         282
         4         267         268         284         283
         4         268         269         285         284
         4         269         270         286         285
         4         270         271         287         286
         4         272         273         289         288
         4         273         274         290         289
         4         274         275         291         290
         4         275         276         292         291
         4         276         277         293         292
         4         277         278         294         293
         4         278         279         295         294
         4         279         280         296         295
         4         280         281         297         296
         4         281         282         298         297
         4         282         283         299         298
         4         283         284         300         299
         4         284         285         301         300
         4         285         286         302         301
         4         286         287         303         302
         4         288         289         305         304
         4         289         290         306         305
         4         290         291         307         306
         4         291         292         308         307
         4         292         293         309         308
         4         293         294         310         309
         4         294         295         311         310
         4         295         296         312         311
         4         296         297         313         312
         4         297         298         314         313
         4         298         299         315         314
         4         299         300         316         315
         4         300         301         317         316
         4         301         302         318         317
         4         302         303         319         318
         4         304         305         321         320
         4         305         306         322         321
         4         306         307         323         322
         4         307         308         324         323
         4         308         309         325         324
         4         309         310         326         325
         4         310         311         327         326
         4         311         312         328         327
         4         312         313         329         328
         4         313         314         330         329
         4         314         315         331         330
         4         315         316         332         331
         4         316         317         333         332
         4         317         318         334         333
         4         318         319         335         334
         4         320         321         337         336
         4         321         322         338         337
         4         322         323         339         338
         4         323         324         340         339
         4         324         325         341         340
         4         325         326         342         341
         4         326         327         343         342
         4         327         328         344         343
         4         328         329         345         344
         4         329         330         346         345
         4         330         331         347         346
         4         331         332         348         347
         4         332         333         349         348
         4         333         334         350         349
         4         334         335         351         350
         4         336         337         353         352
         4         337         338         354         353
         4         338         339         355         354
         4         339         340         356         355
         4         340         341         357         356
         4         341         342         358         357
         4         342         343         359         358
         4         343         344         360         359
         4         344         345         361         360
         4         345         346         362         361
         4         346         347         363         362
         4         347         348         364         363
         4         348         349         365         364
         4         349         350         366         365
         4         350         351         367         366
         4         352         353         369         368
         4         353         354         370         369
         4         354         355         371         370
         4         355         356         372         371
         4         356         357         373         372
         4         357         358         374         373
         4         358         359         375         374
         4         359         360         376         375
         4         360         361         377         376
         4         361         362         378         377
         4         362         363         379         378
         4         363         364         380         379
         4         364         365         381         380
         4         365         366         382         381
         4         366         367         383         382
         4         368         369         385         384
         4         369         370         386         385
         4         370         371         387         386
         4         371         372         388         387
         4         372         373         389         388
         4         373         374         390         389
         4         374         375         391         390
         4         375         376         392         391
         4         376         377         393         392
         4         377         378         394         393
         4         378         379         395         394
         4         379         380         396         395
         4         380         381         397         396
         4         381         382         398         397
         4         382         383         399         398
         4         384         385         401         400
         4         385         386         402         401
         4         386         387         403         402
         4         387         388         404         403
         4         388         389         405         404
         4         389         390         406         405
         4         390         391         407         406
         4         391         392         408         407
         4         392         393         409         408
         4         393         394         410         409
         4         394         395         411         410
         4         395         396         412         411
         4         396         397         413         412
         4         397         398         414         413
         4         398         399         415         414
         4         400         401         417         416
         4         401         402         418         417
         4         402         403         419         418
         4         403         404         420         419
         4         404         405         421         420
         4         405         406         422         421
         4         406         407         423         422
         4         407         408         424         423
         4         408         409         425         424
         4         409         410         426         425
         4         410         411         427         426
         4         411         412         428         427
         4         412         413         429         428
         4         413         414         430         429
         4         414         415         431         430
         4         416         417         433         432
         4         417         418         434         433
         4         418         419         435         434
         4         419         420         436         435
         4         420         421         437         436
         4         421         422         438         437
         4         422         423         439         438
         4         423         424         440         439
         4         424         425         441         440
         4         425         426         442         441
         4         426         427         443         442
         4         427         428         444         443
         4         428         429         445         444
         4         429         430         446         445
         4         430         431         447         446
         4         432         433         449         448
         4         433         434         450         449
         4         434         435         451         450
         4         435         436         452         451
         4         436         437         453         452
         4         437         438         454         453
         4         438         439         455         454
         4         439         440         456         455
         4         440         441         457         456
         4         441         442         458         457
         4         442         443         459         458
         4         443         444         460         459
         4         444         445         461         460
         4         445         446         462         461
         4         446         447         463         462
         4         448         449         465         464
         4         449         450         466         465
         4         450         451         467         466
         4         451         452         468         467
         4         452         453         469         468
         4         453         454         470         469
         4         454         455         471         470
         4         455         456         472         471
         4         456         457         473         472
         4         457         458         474         473
         4         458         459         475         474
         4         459         460         476         475
         4         460         461         477         476
         4         461         462         478         477
         4         462         463         479         478
         4         464         465         481         480
         4         465         466         482         481
         4         466         467         483         482
         4         467         468         484         483
         4         468         469         485         484
         4         469         470         486         485
         4         470         471         487         486
         4         471         472         488         487
         4         472         473         489         488
         4         473         474         490         489
         4         474         475         491         490
         4         475         476         492         491
         4         476         477         493         492
         4         477         478         494         493
         4         478         479         495         494
CELL_TYPES        450
9
9
9
9
9
9
9
9
9
9
9
9
9
9
9
9
9
9
9
9
9
9
9
9
9
9
9
9
9
9
9
9
9
9
9
9
9
9
9
9
9
9
9
9
9
9
9
9
9
9
9
9
9
9
9
9
9
9
9
9
9
9
9
9
9
9
9
9
9
9
9
9
9
9
9
9
9
9
9
9
9
9
9
9
9
9
9
9
9
9
9
9
9
9
9
9
9
9
9
9
9
9
9
9
9
9
9
9
9
9
9
9
9
9
9
9
9
9
9
9
9
9
9
9
9
9
9
9
9
9
9
9
9
9
9
9
9
9
9
9
9
9
9
9
9
9
9
9
9
9
9
9
9
9
9
9
9
9
9
9
9
9
9
9
9
9
9
9
9
9
9
9
9
9
9
9
9
9
9
9
9
9
9
9
9
9
9
9
9
9
9
9
9
9
9
9
9
9
9
9
9
9
9
9
9
9
9
9
9
9
9
9
9
9
9
9
9
9
9
9
9
9
9
9
9
9
9
9
9
9
9
9
9
9
9
9
9
9
9
9
9
9
9
9
9
9
9
9
9
9
9
9
9
9
9
9
9
9
9
9
9
9
9
9
9
9
9
9
9
9
9
9
9
9
9
9
9
9
9
9
9
9
9
9
9
9
9
9
9
9
9
9
9
9
9
9
9
9
9
9
9
9
9
9
9
9
9
9
9
9
9
9
9
9
9
9
9
9
9
9
9
9
9
9
9
9
9
9
9
9
9
9
9
9
9
9
9
9
9
9
9
9
9
9
9
9
9
9
9
9
9
9
9
9
9
9
9
9
9
9
9
9
9
9
9
9
9
9
9
9
9
9
9
9
9
9
9
9
9
9
9
9
9
9
9
9
9
9
9
9
9
9
9
9
9
9
9
9
9
9
9
9
9
9
9
9
9
9
9
9
9
9
9
9
9
9
9
9
9
9
9
9
9
9
9
9
9
9
9
9
9
9
9
9
9
9
9
9
9
9
9
9
9
9
9
9
9
9
9
9
POINT_DATA       496
SCALARS p double 
LOOKUP_TABLE default
   10000000.0005297     
   10000000.0005297     
   10000000.0005297     
   10000000.0005297     
   10000000.0005297     
   10000000.0005297     
   10000000.0005298     
   10000000.0005298     
   10000000.0005298     
   10000000.0005299     
   10000000.0005300     
   10000000.0005300     
   10000000.0005301     
   10000000.0005301     
   10000000.0005301     
   10000000.0005301     
   10000000.0005289     
   10000000.0005289     
   10000000.0005289     
   10000000.0005290     
   10000000.0005290     
   10000000.0005290     
   10000000.0005290     
   10000000.0005291     
   10000000.0005291     
   10000000.0005292     
   10000000.0005292     
   10000000.0005293     
   10000000.0005293     
   10000000.0005294     
   10000000.0005294     
   10000000.0005294     
   10000000.0005267     
   10000000.0005267     
   10000000.0005268     
   10000000.0005268     
   10000000.0005268     
   10000000.0005268     
   10000000.0005268     
   10000000.0005269     
   10000000.0005269     
   10000000.0005270     
   10000000.0005270     
   10000000.0005271     
   10000000.0005271     
   10000000.0005272     
   10000000.0005272     
   10000000.0005272     
   10000000.0005231     
   10000000.0005231     
   10000000.0005231     
   10000000.0005231     
   10000000.0005231     
   10000000.0005232     
   10000000.0005232     
   10000000.0005232     
   10000000.0005232     
   10000000.0005233     
   10000000.0005233     
   10000000.0005234     
   10000000.0005234     
   10000000.0005235     
   10000000.0005235     
   10000000.0005235     
   10000000.0005180     
   10000000.0005180     
   10000000.0005180     
   10000000.0005180     
   10000000.0005180     
   10000000.0005180     
   10000000.0005181     
   10000000.0005181     
   10000000.0005181     
   10000000.0005182     
   10000000.0005182     
   10000000.0005183     
   10000000.0005183     
   10000000.0005184     
   10000000.0005184     
   10000000.0005184     
   10000000.0005115     
   10000000.0005115     
   10000000.0005115     
   10000000.0005115     
   10000000.0005115     
   10000000.0005115     
   10000000.0005115     
   10000000.0005116     
   10000000.0005116     
   10000000.0005116     
   10000000.0005117     
   10000000.0005117     
   10000000.0005118     
   10000000.0005118     
   10000000.0005118     
   10000000.0005118     
   10000000.0005036     
   10000000.0005036     
   10000000.0005036     
   10000000.0005036     
   10000000.0005036     
   10000000.0005036     
   10000000.0005036     
   10000000.0005036     
   10000000.0005036     
   10000000.0005037     
   10000000.0005037     
   10000000.0005037     
   10000000.0005038     
   10000000.0005038     
   10000000.0005038     
   10000000.0005038     
   10000000.0004942     
   10000000.0004942     
   10000000.0004942     
   10000000.0004942     
   10000000.0004942     
   10000000.0004942     
   10000000.0004943     
   10000000.0004943     
   10000000.0004943     
   10000000.0004943     
   10000000.0004943     
   10000000.0004944     
   10000000.0004944     
   10000000.0004944     
   10000000.0004945     
   10000000.0004945     
   10000000.0004836     
   10000000.0004836     
   10000000.0004836     
   10000000.0004836     
   10000000.0004836     
   10000000.0004836     
   10000000.0004836     
   10000000.0004836     
   10000000.0004836     
   10000000.0004836     
   10000000.0004836     
   10000000.0004836     
   10000000.0004837     
   10000000.0004837     
   10000000.0004837     
   10000000.0004837     
   10000000.0004716     
   10000000.0004716     
   10000000.0004716     
   10000000.0004716     
   10000000.0004715     
   10000000.0004715     
   10000000.0004715     
   10000000.0004715     
   10000000.0004715     
   10000000.0004716     
   10000000.0004716     
   10000000.0004716     
   10000000.0004716     
   10000000.0004716     
   10000000.0004716     
   10000000.0004716     
   10000000.0004583     
   10000000.0004583     
   10000000.0004583     
   10000000.0004582     
   10000000.0004582     
   10000000.0004582     
   10000000.0004582     
   10000000.0004582     
   10000000.0004582     
   10000000.0004582     
   10000000.0004582     
   10000000.0004582     
   10000000.0004582     
   10000000.0004582     
   10000000.0004583     
   10000000.0004583     
   10000000.0004437     
   10000000.0004437     
   10000000.0004437     
   10000000.0004437     
   10000000.0004437     
   10000000.0004437     
   10000000.0004436     
   10000000.0004436     
   10000000.0004436     
   10000000.0004436     
   10000000.0004436     
   10000000.0004436     
   10000000.0004436     
   10000000.0004436     
   10000000.0004436     
   10000000.0004436     
   10000000.0004280     
   10000000.0004280     
   10000000.0004279     
   10000000.0004279     
   10000000.0004279     
   10000000.0004279     
   10000000.0004279     
   10000000.0004278     
   10000000.0004278     
   10000000.0004278     
   10000000.0004278     
   10000000.0004278     
   10000000.0004278     
   10000000.0004278     
   10000000.0004278     
   10000000.0004278     
   10000000.0004110     
   10000000.0004110     
   10000000.0004110     
   10000000.0004110     
   10000000.0004110     
   10000000.0004109     
   10000000.0004109     
   10000000.0004109     
   10000000.0004108     
   10000000.0004108     
   10000000.0004108     
   10000000.0004108     
   10000000.0004108     
   10000000.0004108     
   10000000.0004108     
   10000000.0004108     
   10000000.0003930     
   10000000.0003930     
   10000000.0003929     
   10000000.0003929     
   10000000.0003929     
   10000000.0003929     
   10000000.0003928     
   10000000.0003928     
   10000000.0003928     
   10000000.0003927     
   10000000.0003927     
   10000000.0003927     
   10000000.0003927     
   10000000.0003927     
   10000000.0003927     
   10000000.0003927     
   10000000.0003739     
   10000000.0003738     
   10000000.0003738     
   10000000.0003738     
   10000000.0003738     
   10000000.0003737     
   10000000.0003737     
   10000000.0003737     
   10000000.0003736     
   10000000.0003736     
   10000000.0003735     
   10000000.0003735     
   10000000.0003735     
   10000000.0003735     
   10000000.0003735     
   10000000.0003735     
   10000000.0003537     
   10000000.0003537     
   10000000.0003537     
   10000000.0003537     
   10000000.0003536     
   10000000.0003536     
   10000000.0003535     
   10000000.0003535     
   10000000.0003534     
   10000000.0003534     
   10000000.0003534     
   10000000.0003533     
   10000000.0003533     
   10000000.0003533     
   10000000.0003533     
   10000000.0003533     
   10000000.0003326     
   10000000.0003326     
   10000000.0003326     
   10000000.0003326     
   10000000.0003325     
   10000000.0003325     
   10000000.0003324     
   10000000.0003324     
   10000000.0003323     
   10000000.0003323     
   10000000.0003322     
   10000000.0003322     
   10000000.0003322     
   10000000.0003322     
   10000000.0003321     
   10000000.0003321     
   10000000.0003106     
   10000000.0003106     
   10000000.0003106     
   10000000.0003106     
   10000000.0003105     
   10000000.0003105     
   10000000.0003104     
   10000000.0003104     
   10000000.0003103     
   10000000.0003103     
   10000000.0003102     
   10000000.0003102     
   10000000.0003102     
   10000000.0003101     
   10000000.0003101     
   10000000.0003101     
   10000000.0002878     
   10000000.0002878     
   10000000.0002878     
   10000000.0002877     
   10000000.0002877     
   10000000.0002877     
   10000000.0002876     
   10000000.0002876     
   10000000.0002875     
   10000000.0002874     
   10000000.0002874     
   10000000.0002874     
   10000000.0002873     
   10000000.0002873     
   10000000.0002873     
   10000000.0002873     
   10000000.0002642     
   10000000.0002642     
   10000000.0002642     
   10000000.0002641     
   10000000.0002641     
   10000000.0002641     
   10000000.0002640     
   10000000.0002640     
   10000000.0002639     
   10000000.0002639     
   10000000.0002638     
   10000000.0002638     
   10000000.0002637     
   10000000.0002637     
   10000000.0002637     
   10000000.0002637     
   10000000.0002399     
   10000000.0002399     
   10000000.0002398     
   10000000.0002398     
   10000000.0002398     
   10000000.0002398     
   10000000.0002397     
   10000000.0002397     
   10000000.0002396     
   10000000.0002396     
   10000000.0002395     
   10000000.0002395     
   10000000.0002394     
   10000000.0002394     
   10000000.0002394     
   10000000.0002394     
   10000000.0002149     
   10000000.0002149     
   10000000.0002149     
   10000000.0002149     
   10000000.0002148     
   10000000.0002148     
   10000000.0002148     
   10000000.0002147     
   10000000.0002147     
   10000000.0002146     
   10000000.0002146     
   10000000.0002145     
   10000000.0002145     
   10000000.0002145     
   10000000.0002145     
   10000000.0002145     
   10000000.0001894     
   10000000.0001893     
   10000000.0001893     
   10000000.0001893     
   10000000.0001893     
   10000000.0001893     
   10000000.0001893     
   10000000.0001892     
   10000000.0001892     
   10000000.0001891     
   10000000.0001891     
   10000000.0001891     
   10000000.0001890     
   10000000.0001890     
   10000000.0001890     
   10000000.0001890     
   10000000.0001633     
   10000000.0001633     
   10000000.0001633     
   10000000.0001633     
   10000000.0001633     
   10000000.0001633     
   10000000.0001632     
   10000000.0001632     
   10000000.0001632     
   10000000.0001631     
   10000000.0001631     
   10000000.0001631     
   10000000.0001630     
   10000000.0001630     
   10000000.0001630     
   10000000.0001630     
   10000000.0001368     
   10000000.0001368     
   10000000.0001368     
   10000000.0001368     
   10000000.0001368     
   10000000.0001368     
   10000000.0001368     
   10000000.0001368     
   10000000.0001367     
   10000000.0001367     
   10000000.0001367     
   10000000.0001366     
   10000000.0001366     
   10000000.0001366     
   10000000.0001365     
   10000000.0001365     
   10000000.0001099     
   10000000.0001099     
   10000000.0001099     
   10000000.0001099     
   10000000.0001099     
   10000000.0001099     
   10000000.0001099     
   10000000.0001099     
   10000000.0001099     
   10000000.0001099     
   10000000.0001099     
   10000000.0001098     
   10000000.0001098     
   10000000.0001098     
   10000000.0001097     
   10000000.0001097     
   10000000.0000827     
   10000000.0000827     
   10000000.0000827     
   10000000.0000827     
   10000000.0000827     
   10000000.0000828     
   10000000.0000828     
   10000000.0000828     
   10000000.0000828     
   10000000.0000828     
   10000000.0000827     
   10000000.0000827     
   10000000.0000827     
   10000000.0000826     
   10000000.0000826     
   10000000.0000826     
   10000000.0000553     
   10000000.0000553     
   10000000.0000553     
   10000000.0000553     
   10000000.0000553     
   10000000.0000553     
   10000000.0000554     
   10000000.0000554     
   10000000.0000554     
   10000000.0000554     
   10000000.0000554     
   10000000.0000553     
   10000000.0000553     
   10000000.0000553     
   10000000.0000552     
   10000000.0000552     
   10000000.0000277     
   10000000.0000277     
   10000000.0000277     
   10000000.0000277     
   10000000.0000277     
   10000000.0000277     
   10000000.0000277     
   10000000.0000278     
   10000000.0000278     
   10000000.0000278     
   10000000.0000278     
   10000000.0000277     
   10000000.0000277     
   10000000.0000277     
   10000000.0000277     
   10000000.0000277     
   10000000.0000000     
   10000000.0000000     
   10000000.0000000     
   10000000.0000000     
   10000000.0000000     
   10000000.0000000     
   10000000.0000000     
   10000000.0000000     
   10000000.0000000     
   10000000.0000000     
   10000000.0000000     
   10000000.0000000     
   10000000.0000000     
  10000000.00000000     
   10000000.0000000     
   10000000.0000000     
VECTORS u double 
    0.00000E+00        -0.64174E-01         0.00000E+00
    0.00000E+00        -0.59892E-01         0.00000E+00
    0.00000E+00        -0.55609E-01         0.00000E+00
    0.00000E+00        -0.51326E-01         0.00000E+00
    0.00000E+00        -0.47043E-01         0.00000E+00
    0.00000E+00        -0.42761E-01         0.00000E+00
    0.00000E+00        -0.38479E-01         0.00000E+00
    0.00000E+00        -0.34198E-01         0.00000E+00
    0.00000E+00        -0.29917E-01         0.00000E+00
    0.00000E+00        -0.25638E-01         0.00000E+00
    0.00000E+00        -0.21360E-01         0.00000E+00
    0.00000E+00        -0.17084E-01         0.00000E+00
    0.00000E+00        -0.12810E-01         0.00000E+00
    0.00000E+00        -0.85377E-02         0.00000E+00
    0.00000E+00        -0.42676E-02         0.00000E+00
    0.00000E+00         0.00000E+00         0.00000E+00
    0.17255E-04        -0.64174E-01         0.00000E+00
    0.18008E-04        -0.59892E-01         0.00000E+00
    0.18505E-04        -0.55609E-01         0.00000E+00
    0.18744E-04        -0.51326E-01         0.00000E+00
    0.18721E-04        -0.47043E-01         0.00000E+00
    0.18431E-04        -0.42761E-01         0.00000E+00
    0.17868E-04        -0.38479E-01         0.00000E+00
    0.17025E-04        -0.34197E-01         0.00000E+00
    0.15899E-04        -0.29917E-01         0.00000E+00
    0.14484E-04        -0.25638E-01         0.00000E+00
    0.12780E-04        -0.21360E-01         0.00000E+00
    0.10786E-04        -0.17084E-01         0.00000E+00
    0.85042E-05        -0.12810E-01         0.00000E+00
    0.59401E-05        -0.85376E-02         0.00000E+00
    0.31017E-05        -0.42676E-02         0.00000E+00
    0.00000E+00         0.00000E+00         0.00000E+00
    0.34419E-04        -0.64173E-01         0.00000E+00
    0.35924E-04        -0.59890E-01         0.00000E+00
    0.36918E-04        -0.55608E-01         0.00000E+00
    0.37397E-04        -0.51325E-01         0.00000E+00
    0.37353E-04        -0.47042E-01         0.00000E+00
    0.36776E-04        -0.42760E-01         0.00000E+00
    0.35653E-04        -0.38478E-01         0.00000E+00
    0.33974E-04        -0.34197E-01         0.00000E+00
    0.31727E-04        -0.29917E-01         0.00000E+00
    0.28905E-04        -0.25638E-01         0.00000E+00
    0.25505E-04        -0.21360E-01         0.00000E+00
    0.21527E-04        -0.17084E-01         0.00000E+00
    0.16974E-04        -0.12810E-01         0.00000E+00
    0.11856E-04        -0.85376E-02         0.00000E+00
    0.61912E-05        -0.42676E-02         0.00000E+00
    0.00000E+00         0.00000E+00         0.00000E+00
    0.51401E-04        -0.64170E-01         0.00000E+00
    0.53656E-04        -0.59888E-01         0.00000E+00
    0.55146E-04        -0.55606E-01         0.00000E+00
    0.55867E-04        -0.51323E-01         0.00000E+00
    0.55805E-04        -0.47041E-01         0.00000E+00
    0.54947E-04        -0.42758E-01         0.00000E+00
    0.53273E-04        -0.38477E-01         0.00000E+00
    0.50767E-04        -0.34196E-01         0.00000E+00
    0.47413E-04        -0.29916E-01         0.00000E+00
    0.43200E-04        -0.25637E-01         0.00000E+00
    0.38121E-04        -0.21359E-01         0.00000E+00
    0.32177E-04        -0.17084E-01         0.00000E+00
    0.25373E-04        -0.12809E-01         0.00000E+00
    0.17725E-04        -0.85374E-02         0.00000E+00
    0.92564E-05        -0.42675E-02         0.00000E+00
    0.00000E+00         0.00000E+00         0.00000E+00
    0.68106E-04        -0.64167E-01         0.00000E+00
    0.71106E-04        -0.59885E-01         0.00000E+00
    0.73093E-04        -0.55603E-01         0.00000E+00
    0.74058E-04        -0.51321E-01         0.00000E+00
    0.73985E-04        -0.47038E-01         0.00000E+00
    0.72854E-04        -0.42756E-01         0.00000E+00
    0.70642E-04        -0.38475E-01         0.00000E+00
    0.67326E-04        -0.34194E-01         0.00000E+00
    0.62884E-04        -0.29915E-01         0.00000E+00
    0.57302E-04        -0.25636E-01         0.00000E+00
    0.50572E-04        -0.21359E-01         0.00000E+00
    0.42691E-04        -0.17083E-01         0.00000E+00
    0.33668E-04        -0.12809E-01         0.00000E+00
    0.23523E-04        -0.85372E-02         0.00000E+00
    0.12285E-04        -0.42674E-02         0.00000E+00
    0.00000E+00         0.00000E+00         0.00000E+00
    0.84436E-04        -0.64163E-01         0.00000E+00
    0.88177E-04        -0.59882E-01         0.00000E+00
    0.90659E-04        -0.55600E-01         0.00000E+00
    0.91872E-04        -0.51318E-01         0.00000E+00
    0.91796E-04        -0.47036E-01         0.00000E+00
    0.90406E-04        -0.42754E-01         0.00000E+00
    0.87673E-04        -0.38473E-01         0.00000E+00
    0.83568E-04        -0.34192E-01         0.00000E+00
    0.78067E-04        -0.29913E-01         0.00000E+00
    0.71148E-04        -0.25635E-01         0.00000E+00
    0.62801E-04        -0.21358E-01         0.00000E+00
    0.53023E-04        -0.17082E-01         0.00000E+00
    0.41823E-04        -0.12809E-01         0.00000E+00
    0.29225E-04        -0.85369E-02         0.00000E+00
    0.15266E-04        -0.42673E-02         0.00000E+00
    0.00000E+00         0.00000E+00         0.00000E+00
    0.10029E-03        -0.64159E-01         0.00000E+00
    0.10476E-03        -0.59877E-01         0.00000E+00
    0.10774E-03        -0.55596E-01         0.00000E+00
    0.10921E-03        -0.51314E-01         0.00000E+00
    0.10914E-03        -0.47032E-01         0.00000E+00
    0.10751E-03        -0.42751E-01         0.00000E+00
    0.10427E-03        -0.38470E-01         0.00000E+00
    0.99412E-04        -0.34190E-01         0.00000E+00
    0.92885E-04        -0.29911E-01         0.00000E+00
    0.84670E-04        -0.25633E-01         0.00000E+00
    0.74751E-04        -0.21357E-01         0.00000E+00
    0.63126E-04        -0.17082E-01         0.00000E+00
    0.49802E-04        -0.12808E-01         0.00000E+00
    0.34807E-04        -0.85366E-02         0.00000E+00
    0.18185E-04        -0.42672E-02         0.00000E+00
    0.00000E+00         0.00000E+00         0.00000E+00
    0.11555E-03        -0.64153E-01         0.00000E+00
    0.12075E-03        -0.59872E-01         0.00000E+00
    0.12422E-03        -0.55591E-01         0.00000E+00
    0.12595E-03        -0.51310E-01         0.00000E+00
    0.12590E-03        -0.47028E-01         0.00000E+00
    0.12405E-03        -0.42748E-01         0.00000E+00
    0.12035E-03        -0.38467E-01         0.00000E+00
    0.11477E-03        -0.34188E-01         0.00000E+00
    0.10726E-03        -0.29909E-01         0.00000E+00
    0.97799E-04        -0.25632E-01         0.00000E+00
    0.86365E-04        -0.21355E-01         0.00000E+00
    0.72952E-04        -0.17081E-01         0.00000E+00
    0.57570E-04        -0.12808E-01         0.00000E+00
    0.40246E-04        -0.85363E-02         0.00000E+00
    0.21032E-04        -0.42671E-02         0.00000E+00
    0.00000E+00         0.00000E+00         0.00000E+00
    0.13011E-03        -0.64146E-01         0.00000E+00
    0.13603E-03        -0.59866E-01         0.00000E+00
    0.13999E-03        -0.55585E-01         0.00000E+00
    0.14199E-03        -0.51305E-01         0.00000E+00
    0.14198E-03        -0.47024E-01         0.00000E+00
    0.13994E-03        -0.42744E-01         0.00000E+00
    0.13581E-03        -0.38464E-01         0.00000E+00
    0.12955E-03        -0.34185E-01         0.00000E+00
    0.12111E-03        -0.29907E-01         0.00000E+00
    0.11046E-03        -0.25630E-01         0.00000E+00
    0.97582E-04        -0.21354E-01         0.00000E+00
    0.82454E-04        -0.17080E-01         0.00000E+00
    0.65089E-04        -0.12807E-01         0.00000E+00
    0.45516E-04        -0.85360E-02         0.00000E+00
    0.23793E-04        -0.42670E-02         0.00000E+00
    0.00000E+00         0.00000E+00         0.00000E+00
    0.14384E-03        -0.64139E-01         0.00000E+00
    0.15045E-03        -0.59859E-01         0.00000E+00
    0.15491E-03        -0.55579E-01         0.00000E+00
    0.15719E-03        -0.51299E-01         0.00000E+00
    0.15725E-03        -0.47019E-01         0.00000E+00
    0.15505E-03        -0.42740E-01         0.00000E+00
    0.15053E-03        -0.38460E-01         0.00000E+00
    0.14365E-03        -0.34182E-01         0.00000E+00
    0.13435E-03        -0.29904E-01         0.00000E+00
    0.12259E-03        -0.25628E-01         0.00000E+00
    0.10834E-03        -0.21353E-01         0.00000E+00
    0.91580E-04        -0.17079E-01         0.00000E+00
    0.72321E-04        -0.12806E-01         0.00000E+00
    0.50592E-04        -0.85357E-02         0.00000E+00
    0.26455E-04        -0.42669E-02         0.00000E+00
    0.00000E+00         0.00000E+00         0.00000E+00
    0.15659E-03        -0.64131E-01         0.00000E+00
    0.16389E-03        -0.59852E-01         0.00000E+00
    0.16884E-03        -0.55573E-01         0.00000E+00
    0.17142E-03        -0.51293E-01         0.00000E+00
    0.17158E-03        -0.47014E-01         0.00000E+00
    0.16927E-03        -0.42735E-01         0.00000E+00
    0.16442E-03        -0.38457E-01         0.00000E+00
    0.15698E-03        -0.34179E-01         0.00000E+00
    0.14689E-03        -0.29902E-01         0.00000E+00
    0.13410E-03        -0.25626E-01         0.00000E+00
    0.11857E-03        -0.21351E-01         0.00000E+00
    0.10028E-03        -0.17078E-01         0.00000E+00
    0.79226E-04        -0.12806E-01         0.00000E+00
    0.55447E-04        -0.85354E-02         0.00000E+00
    0.29005E-04        -0.42668E-02         0.00000E+00
    0.00000E+00         0.00000E+00         0.00000E+00
    0.16823E-03        -0.64122E-01         0.00000E+00
    0.17619E-03        -0.59844E-01         0.00000E+00
    0.18165E-03        -0.55565E-01         0.00000E+00
    0.18454E-03        -0.51287E-01         0.00000E+00
    0.18484E-03        -0.47008E-01         0.00000E+00
    0.18246E-03        -0.42730E-01         0.00000E+00
    0.17735E-03        -0.38452E-01         0.00000E+00
    0.16943E-03        -0.34175E-01         0.00000E+00
    0.15864E-03        -0.29899E-01         0.00000E+00
    0.14492E-03        -0.25624E-01         0.00000E+00
    0.12821E-03        -0.21350E-01         0.00000E+00
    0.10849E-03        -0.17077E-01         0.00000E+00
    0.85762E-04        -0.12805E-01         0.00000E+00
    0.60051E-04        -0.85352E-02         0.00000E+00
    0.31428E-04        -0.42667E-02         0.00000E+00
    0.00000E+00         0.00000E+00         0.00000E+00
    0.17858E-03        -0.64113E-01         0.00000E+00
    0.18719E-03        -0.59835E-01         0.00000E+00
    0.19315E-03        -0.55558E-01         0.00000E+00
    0.19639E-03        -0.51280E-01         0.00000E+00
    0.19687E-03        -0.47002E-01         0.00000E+00
    0.19449E-03        -0.42725E-01         0.00000E+00
    0.18920E-03        -0.38448E-01         0.00000E+00
    0.18089E-03        -0.34172E-01         0.00000E+00
    0.16950E-03        -0.29897E-01         0.00000E+00
    0.15495E-03        -0.25622E-01         0.00000E+00
    0.13718E-03        -0.21348E-01         0.00000E+00
    0.11616E-03        -0.17076E-01         0.00000E+00
    0.91881E-04        -0.12805E-01         0.00000E+00
    0.64374E-04        -0.85351E-02         0.00000E+00
    0.33708E-04        -0.42667E-02         0.00000E+00
    0.00000E+00         0.00000E+00         0.00000E+00
    0.18748E-03        -0.64102E-01         0.00000E+00
    0.19672E-03        -0.59826E-01         0.00000E+00
    0.20318E-03        -0.55549E-01         0.00000E+00
    0.20681E-03        -0.51273E-01         0.00000E+00
    0.20752E-03        -0.46996E-01         0.00000E+00
    0.20522E-03        -0.42720E-01         0.00000E+00
    0.19983E-03        -0.38444E-01         0.00000E+00
    0.19123E-03        -0.34169E-01         0.00000E+00
    0.17935E-03        -0.29894E-01         0.00000E+00
    0.16410E-03        -0.25620E-01         0.00000E+00
    0.14540E-03        -0.21347E-01         0.00000E+00
    0.12322E-03        -0.17075E-01         0.00000E+00
    0.97533E-04        -0.12805E-01         0.00000E+00
    0.68380E-04        -0.85350E-02         0.00000E+00
    0.35827E-04        -0.42668E-02         0.00000E+00
    0.00000E+00         0.00000E+00         0.00000E+00
    0.19474E-03        -0.64092E-01         0.00000E+00
    0.20458E-03        -0.59816E-01         0.00000E+00
    0.21157E-03        -0.55541E-01         0.00000E+00
    0.21561E-03        -0.51265E-01         0.00000E+00
    0.21662E-03        -0.46990E-01         0.00000E+00
    0.21449E-03        -0.42714E-01         0.00000E+00
    0.20909E-03        -0.38440E-01         0.00000E+00
    0.20033E-03        -0.34165E-01         0.00000E+00
    0.18808E-03        -0.29891E-01         0.00000E+00
    0.17226E-03        -0.25618E-01         0.00000E+00
    0.15278E-03        -0.21346E-01         0.00000E+00
    0.12958E-03        -0.17075E-01         0.00000E+00
    0.10266E-03        -0.12804E-01         0.00000E+00
    0.72030E-04        -0.85351E-02         0.00000E+00
    0.37767E-04        -0.42669E-02         0.00000E+00
    0.00000E+00         0.00000E+00         0.00000E+00
    0.20018E-03        -0.64080E-01         0.00000E+00
    0.21059E-03        -0.59806E-01         0.00000E+00
    0.21811E-03        -0.55532E-01         0.00000E+00
    0.22263E-03        -0.51257E-01         0.00000E+00
    0.22401E-03        -0.46983E-01         0.00000E+00
    0.22212E-03        -0.42709E-01         0.00000E+00
    0.21684E-03        -0.38435E-01         0.00000E+00
    0.20803E-03        -0.34162E-01         0.00000E+00
    0.19556E-03        -0.29889E-01         0.00000E+00
    0.17931E-03        -0.25617E-01         0.00000E+00
    0.15921E-03        -0.21345E-01         0.00000E+00
    0.13518E-03        -0.17075E-01         0.00000E+00
    0.10719E-03        -0.12805E-01         0.00000E+00
    0.75281E-04        -0.85354E-02         0.00000E+00
    0.39506E-04        -0.42672E-02         0.00000E+00
    0.00000E+00         0.00000E+00         0.00000E+00
    0.20360E-03        -0.64068E-01         0.00000E+00
    0.21456E-03        -0.59795E-01         0.00000E+00
    0.22263E-03        -0.55522E-01         0.00000E+00
    0.22765E-03        -0.51250E-01         0.00000E+00
    0.22948E-03        -0.46977E-01         0.00000E+00
    0.22795E-03        -0.42704E-01         0.00000E+00
    0.22290E-03        -0.38431E-01         0.00000E+00
    0.21417E-03        -0.34159E-01         0.00000E+00
    0.20162E-03        -0.29887E-01         0.00000E+00
    0.18512E-03        -0.25616E-01         0.00000E+00
    0.16457E-03        -0.21345E-01         0.00000E+00
    0.13989E-03        -0.17075E-01         0.00000E+00
    0.11106E-03        -0.12805E-01         0.00000E+00
    0.78083E-04        -0.85359E-02         0.00000E+00
    0.41020E-04        -0.42676E-02         0.00000E+00
    0.00000E+00         0.00000E+00         0.00000E+00
    0.20484E-03        -0.64055E-01         0.00000E+00
    0.21630E-03        -0.59784E-01         0.00000E+00
    0.22492E-03        -0.55513E-01         0.00000E+00
    0.23051E-03        -0.51241E-01         0.00000E+00
    0.23286E-03        -0.46970E-01         0.00000E+00
    0.23177E-03        -0.42699E-01         0.00000E+00
    0.22707E-03        -0.38427E-01         0.00000E+00
    0.21856E-03        -0.34156E-01         0.00000E+00
    0.20610E-03        -0.29885E-01         0.00000E+00
    0.18952E-03        -0.25615E-01         0.00000E+00
    0.16873E-03        -0.21345E-01         0.00000E+00
    0.14363E-03        -0.17075E-01         0.00000E+00
    0.11418E-03        -0.12806E-01         0.00000E+00
    0.80381E-04        -0.85366E-02         0.00000E+00
    0.42284E-04        -0.42681E-02         0.00000E+00
    0.00000E+00         0.00000E+00         0.00000E+00
    0.20374E-03        -0.64042E-01         0.00000E+00
    0.21565E-03        -0.59773E-01         0.00000E+00
    0.22482E-03        -0.55503E-01         0.00000E+00
    0.23100E-03        -0.51233E-01         0.00000E+00
    0.23393E-03        -0.46963E-01         0.00000E+00
    0.23339E-03        -0.42693E-01         0.00000E+00
    0.22915E-03        -0.38423E-01         0.00000E+00
    0.22101E-03        -0.34154E-01         0.00000E+00
    0.20879E-03        -0.29884E-01         0.00000E+00
    0.19233E-03        -0.25614E-01         0.00000E+00
    0.17151E-03        -0.21345E-01         0.00000E+00
    0.14623E-03        -0.17076E-01         0.00000E+00
    0.11644E-03        -0.12807E-01         0.00000E+00
    0.82112E-04        -0.85376E-02         0.00000E+00
    0.43269E-04        -0.42687E-02         0.00000E+00
    0.00000E+00         0.00000E+00         0.00000E+00
    0.20016E-03        -0.64029E-01         0.00000E+00
    0.21246E-03        -0.59761E-01         0.00000E+00
    0.22216E-03        -0.55493E-01         0.00000E+00
    0.22894E-03        -0.51225E-01         0.00000E+00
    0.23250E-03        -0.46957E-01         0.00000E+00
    0.23257E-03        -0.42688E-01         0.00000E+00
    0.22890E-03        -0.38420E-01         0.00000E+00
    0.22126E-03        -0.34152E-01         0.00000E+00
    0.20945E-03        -0.29883E-01         0.00000E+00
    0.19332E-03        -0.25615E-01         0.00000E+00
    0.17273E-03        -0.21346E-01         0.00000E+00
    0.14756E-03        -0.17077E-01         0.00000E+00
    0.11774E-03        -0.12808E-01         0.00000E+00
    0.83207E-04        -0.85389E-02         0.00000E+00
    0.43946E-04        -0.42695E-02         0.00000E+00
    0.00000E+00         0.00000E+00         0.00000E+00
    0.19401E-03        -0.64015E-01         0.00000E+00
    0.20663E-03        -0.59749E-01         0.00000E+00
    0.21680E-03        -0.55483E-01         0.00000E+00
    0.22416E-03        -0.51217E-01         0.00000E+00
    0.22837E-03        -0.46950E-01         0.00000E+00
    0.22909E-03        -0.42684E-01         0.00000E+00
    0.22607E-03        -0.38417E-01         0.00000E+00
    0.21904E-03        -0.34150E-01         0.00000E+00
    0.20782E-03        -0.29883E-01         0.00000E+00
    0.19224E-03        -0.25615E-01         0.00000E+00
    0.17216E-03        -0.21347E-01         0.00000E+00
    0.14743E-03        -0.17079E-01         0.00000E+00
    0.11794E-03        -0.12810E-01         0.00000E+00
    0.83583E-04        -0.85405E-02         0.00000E+00
    0.44277E-04        -0.42705E-02         0.00000E+00
    0.00000E+00         0.00000E+00         0.00000E+00
    0.18525E-03        -0.64002E-01         0.00000E+00
    0.19806E-03        -0.59737E-01         0.00000E+00
    0.20863E-03        -0.55473E-01         0.00000E+00
    0.21652E-03        -0.51209E-01         0.00000E+00
    0.22133E-03        -0.46944E-01         0.00000E+00
    0.22271E-03        -0.42679E-01         0.00000E+00
    0.22036E-03        -0.38414E-01         0.00000E+00
    0.21406E-03        -0.34149E-01         0.00000E+00
    0.20359E-03        -0.29883E-01         0.00000E+00
    0.18881E-03        -0.25616E-01         0.00000E+00
    0.16954E-03        -0.21349E-01         0.00000E+00
    0.14563E-03        -0.17081E-01         0.00000E+00
    0.11689E-03        -0.12812E-01         0.00000E+00
    0.83140E-04        -0.85424E-02         0.00000E+00
    0.44217E-04        -0.42716E-02         0.00000E+00
    0.00000E+00         0.00000E+00         0.00000E+00
    0.17388E-03        -0.63988E-01         0.00000E+00
    0.18675E-03        -0.59725E-01         0.00000E+00
    0.19758E-03        -0.55463E-01         0.00000E+00
    0.20587E-03        -0.51200E-01         0.00000E+00
    0.21119E-03        -0.46938E-01         0.00000E+00
    0.21316E-03        -0.42675E-01         0.00000E+00
    0.21150E-03        -0.38412E-01         0.00000E+00
    0.20598E-03        -0.34148E-01         0.00000E+00
    0.19643E-03        -0.29883E-01         0.00000E+00
    0.18270E-03        -0.25618E-01         0.00000E+00
    0.16460E-03        -0.21352E-01         0.00000E+00
    0.14192E-03        -0.17084E-01         0.00000E+00
    0.11440E-03        -0.12815E-01         0.00000E+00
    0.81758E-04        -0.85446E-02         0.00000E+00
    0.43710E-04        -0.42729E-02         0.00000E+00
    0.00000E+00         0.00000E+00         0.00000E+00
    0.15994E-03        -0.63974E-01         0.00000E+00
    0.17268E-03        -0.59714E-01         0.00000E+00
    0.18359E-03        -0.55453E-01         0.00000E+00
    0.19211E-03        -0.51192E-01         0.00000E+00
    0.19777E-03        -0.46932E-01         0.00000E+00
    0.20020E-03        -0.42671E-01         0.00000E+00
    0.19915E-03        -0.38410E-01         0.00000E+00
    0.19446E-03        -0.34147E-01         0.00000E+00
    0.18599E-03        -0.29884E-01         0.00000E+00
    0.17358E-03        -0.25620E-01         0.00000E+00
    0.15701E-03        -0.21354E-01         0.00000E+00
    0.13602E-03        -0.17087E-01         0.00000E+00
    0.11024E-03        -0.12818E-01         0.00000E+00
    0.79276E-04        -0.85471E-02         0.00000E+00
    0.42676E-04        -0.42744E-02         0.00000E+00
    0.00000E+00         0.00000E+00         0.00000E+00
    0.14352E-03        -0.63961E-01         0.00000E+00
    0.15590E-03        -0.59702E-01         0.00000E+00
    0.16665E-03        -0.55443E-01         0.00000E+00
    0.17514E-03        -0.51185E-01         0.00000E+00
    0.18089E-03        -0.46926E-01         0.00000E+00
    0.18358E-03        -0.42667E-01         0.00000E+00
    0.18305E-03        -0.38408E-01         0.00000E+00
    0.17920E-03        -0.34148E-01         0.00000E+00
    0.17193E-03        -0.29886E-01         0.00000E+00
    0.16109E-03        -0.25623E-01         0.00000E+00
    0.14642E-03        -0.21358E-01         0.00000E+00
    0.12759E-03        -0.17091E-01         0.00000E+00
    0.10413E-03        -0.12821E-01         0.00000E+00
    0.75484E-04        -0.85497E-02         0.00000E+00
    0.41003E-04        -0.42759E-02         0.00000E+00
    0.00000E+00         0.00000E+00         0.00000E+00
    0.12474E-03        -0.63949E-01         0.00000E+00
    0.13648E-03        -0.59691E-01         0.00000E+00
    0.14674E-03        -0.55434E-01         0.00000E+00
    0.15485E-03        -0.51178E-01         0.00000E+00
    0.16037E-03        -0.46921E-01         0.00000E+00
    0.16308E-03        -0.42664E-01         0.00000E+00
    0.16294E-03        -0.38407E-01         0.00000E+00
    0.15992E-03        -0.34148E-01         0.00000E+00
    0.15395E-03        -0.29888E-01         0.00000E+00
    0.14489E-03        -0.25625E-01         0.00000E+00
    0.13245E-03        -0.21361E-01         0.00000E+00
    0.11624E-03        -0.17094E-01         0.00000E+00
    0.95699E-04        -0.12825E-01         0.00000E+00
    0.70094E-04        -0.85525E-02         0.00000E+00
    0.38534E-04        -0.42775E-02         0.00000E+00
    0.00000E+00         0.00000E+00         0.00000E+00
    0.10375E-03        -0.63937E-01         0.00000E+00
    0.11447E-03        -0.59681E-01         0.00000E+00
    0.12382E-03        -0.55426E-01         0.00000E+00
    0.13112E-03        -0.51171E-01         0.00000E+00
    0.13605E-03        -0.46917E-01         0.00000E+00
    0.13855E-03        -0.42662E-01         0.00000E+00
    0.13868E-03        -0.38406E-01         0.00000E+00
    0.13645E-03        -0.34148E-01         0.00000E+00
    0.13183E-03        -0.29889E-01         0.00000E+00
    0.12466E-03        -0.25628E-01         0.00000E+00
    0.11469E-03        -0.21364E-01         0.00000E+00
    0.10151E-03        -0.17097E-01         0.00000E+00
    0.84475E-04        -0.12828E-01         0.00000E+00
    0.62713E-04        -0.85552E-02         0.00000E+00
    0.35041E-04        -0.42792E-02         0.00000E+00
    0.00000E+00         0.00000E+00         0.00000E+00
    0.80701E-04        -0.63926E-01         0.00000E+00
    0.89895E-04        -0.59672E-01         0.00000E+00
    0.97800E-04        -0.55419E-01         0.00000E+00
    0.10381E-03        -0.51166E-01         0.00000E+00
    0.10782E-03        -0.46914E-01         0.00000E+00
    0.10992E-03        -0.42660E-01         0.00000E+00
    0.11021E-03        -0.38405E-01         0.00000E+00
    0.10871E-03        -0.34149E-01         0.00000E+00
    0.10540E-03        -0.29890E-01         0.00000E+00
    0.10017E-03        -0.25630E-01         0.00000E+00
    0.92785E-04        -0.21367E-01         0.00000E+00
    0.82893E-04        -0.17100E-01         0.00000E+00
    0.69887E-04        -0.12831E-01         0.00000E+00
    0.52804E-04        -0.85579E-02         0.00000E+00
    0.30185E-04        -0.42809E-02         0.00000E+00
    0.00000E+00         0.00000E+00         0.00000E+00
    0.55728E-04        -0.63918E-01         0.00000E+00
    0.62713E-04        -0.59665E-01         0.00000E+00
    0.68525E-04        -0.55414E-01         0.00000E+00
    0.72817E-04        -0.51163E-01         0.00000E+00
    0.75678E-04        -0.46911E-01         0.00000E+00
    0.77237E-04        -0.42659E-01         0.00000E+00
    0.77568E-04        -0.38405E-01         0.00000E+00
    0.76697E-04        -0.34149E-01         0.00000E+00
    0.74611E-04        -0.29891E-01         0.00000E+00
    0.71238E-04        -0.25631E-01         0.00000E+00
    0.66435E-04        -0.21368E-01         0.00000E+00
    0.59936E-04        -0.17103E-01         0.00000E+00
    0.51277E-04        -0.12833E-01         0.00000E+00
    0.39639E-04        -0.85603E-02         0.00000E+00
    0.23448E-04        -0.42826E-02         0.00000E+00
    0.00000E+00         0.00000E+00         0.00000E+00
    0.28851E-04        -0.63912E-01         0.00000E+00
    0.32730E-04        -0.59661E-01         0.00000E+00
    0.35909E-04        -0.55411E-01         0.00000E+00
    0.38188E-04        -0.51161E-01         0.00000E+00
    0.39717E-04        -0.46910E-01         0.00000E+00
    0.40576E-04        -0.42658E-01         0.00000E+00
    0.40810E-04        -0.38404E-01         0.00000E+00
    0.40438E-04        -0.34149E-01         0.00000E+00
    0.39455E-04        -0.29892E-01         0.00000E+00
    0.37833E-04        -0.25632E-01         0.00000E+00
    0.35501E-04        -0.21369E-01         0.00000E+00
    0.32328E-04        -0.17104E-01         0.00000E+00
    0.28072E-04        -0.12835E-01         0.00000E+00
    0.22261E-04        -0.85621E-02         0.00000E+00
    0.13941E-04        -0.42842E-02         0.00000E+00
    0.00000E+00         0.00000E+00         0.00000E+00
    0.00000E+00        -0.63911E-01         0.00000E+00
    0.00000E+00        -0.59660E-01         0.00000E+00
    0.00000E+00        -0.55410E-01         0.00000E+00
    0.00000E+00        -0.51160E-01         0.00000E+00
    0.00000E+00        -0.46909E-01         0.00000E+00
    0.00000E+00        -0.42657E-01         0.00000E+00
    0.00000E+00        -0.38404E-01         0.00000E+00
    0.00000E+00        -0.34149E-01         0.00000E+00
    0.00000E+00        -0.29892E-01         0.00000E+00
    0.00000E+00        -0.25632E-01         0.00000E+00
    0.00000E+00        -0.21370E-01         0.00000E+00
    0.00000E+00        -0.17104E-01         0.00000E+00
    0.00000E+00        -0.12836E-01         0.00000E+00
    0.00000E+00        -0.85628E-02         0.00000E+00
    0.00000E+00        -0.42850E-02         0.00000E+00
    0.00000E+00         0.00000E+00         0.00000E+00
CELL_DATA        450
VECTORS vDarcy double 
    0.41737E-18        -0.37288E-21         0.00000E+00
    0.41671E-18         0.29830E-20         0.00000E+00
    0.41584E-18         0.60489E-20         0.00000E+00
    0.41592E-18         0.85347E-20         0.00000E+00
    0.41700E-18         0.13755E-19         0.00000E+00
    0.41725E-18         0.19182E-19         0.00000E+00
    0.41675E-18         0.21875E-19         0.00000E+00
    0.41928E-18         0.27593E-19         0.00000E+00
    0.41866E-18         0.29582E-19         0.00000E+00
    0.41887E-18         0.29747E-19         0.00000E+00
    0.42019E-18         0.28670E-19         0.00000E+00
    0.41928E-18         0.29996E-19         0.00000E+00
    0.41920E-18         0.24113E-19         0.00000E+00
    0.41733E-18         0.16821E-19         0.00000E+00
    0.41779E-18         0.48474E-20         0.00000E+00
    0.12481E-17        -0.66289E-21         0.00000E+00
    0.12471E-17         0.42259E-20         0.00000E+00
    0.12476E-17         0.66289E-20         0.00000E+00
    0.12476E-17         0.85347E-20         0.00000E+00
    0.12484E-17         0.12512E-19         0.00000E+00
    0.12509E-17         0.17401E-19         0.00000E+00
    0.12520E-17         0.22290E-19         0.00000E+00
    0.12521E-17         0.24693E-19         0.00000E+00
    0.12546E-17         0.30327E-19         0.00000E+00
    0.12547E-17         0.28670E-19         0.00000E+00
    0.12547E-17         0.28422E-19         0.00000E+00
    0.12559E-17         0.29333E-19         0.00000E+00
    0.12559E-17         0.24444E-19         0.00000E+00
    0.12586E-17         0.15661E-19         0.00000E+00
    0.12606E-17         0.46817E-20         0.00000E+00
    0.20753E-17         0.62146E-21         0.00000E+00
    0.20760E-17         0.31902E-20         0.00000E+00
    0.20779E-17         0.53860E-20         0.00000E+00
    0.20795E-17         0.74575E-20         0.00000E+00
    0.20791E-17         0.13755E-19         0.00000E+00
    0.20790E-17         0.13796E-19         0.00000E+00
    0.20826E-17         0.21544E-19         0.00000E+00
    0.20847E-17         0.23864E-19         0.00000E+00
    0.20863E-17         0.27676E-19         0.00000E+00
    0.20891E-17         0.29084E-19         0.00000E+00
    0.20876E-17         0.29084E-19         0.00000E+00
    0.20878E-17         0.29084E-19         0.00000E+00
    0.20905E-17         0.22373E-19         0.00000E+00
    0.20922E-17         0.13341E-19         0.00000E+00
    0.20923E-17         0.50960E-20         0.00000E+00
    0.28987E-17         0.53860E-21         0.00000E+00
    0.28997E-17         0.20301E-20         0.00000E+00
    0.28999E-17         0.42259E-20         0.00000E+00
    0.29011E-17         0.52617E-20         0.00000E+00
    0.29039E-17         0.14004E-19         0.00000E+00
    0.29054E-17         0.13299E-19         0.00000E+00
    0.29057E-17         0.16655E-19         0.00000E+00
    0.29103E-17         0.22787E-19         0.00000E+00
    0.29123E-17         0.24776E-19         0.00000E+00
    0.29120E-17         0.29416E-19         0.00000E+00
    0.29135E-17         0.29002E-19         0.00000E+00
    0.29180E-17         0.25356E-19         0.00000E+00
    0.29194E-17         0.20798E-19         0.00000E+00
    0.29189E-17         0.12926E-19         0.00000E+00
    0.29201E-17         0.39359E-20         0.00000E+00
    0.37117E-17        -0.19058E-20         0.00000E+00
    0.37111E-17         0.36459E-20         0.00000E+00
    0.37126E-17         0.15744E-20         0.00000E+00
    0.37139E-17         0.59660E-20         0.00000E+00
    0.37164E-17         0.80376E-20         0.00000E+00
    0.37208E-17         0.13175E-19         0.00000E+00
    0.37230E-17         0.13589E-19         0.00000E+00
    0.37244E-17         0.19887E-19         0.00000E+00
    0.37267E-17         0.23118E-19         0.00000E+00
    0.37311E-17         0.26599E-19         0.00000E+00
    0.37351E-17         0.25936E-19         0.00000E+00
    0.37347E-17         0.24693E-19         0.00000E+00
    0.37355E-17         0.19224E-19         0.00000E+00
    0.37367E-17         0.13175E-19         0.00000E+00
    0.37351E-17         0.55517E-20         0.00000E+00
    0.45142E-17        -0.99434E-21         0.00000E+00
    0.45153E-17         0.15744E-20         0.00000E+00
    0.45174E-17         0.49717E-21         0.00000E+00
    0.45177E-17         0.47231E-20         0.00000E+00
    0.45198E-17         0.45574E-20         0.00000E+00
    0.45225E-17         0.88662E-20         0.00000E+00
    0.45258E-17         0.13755E-19         0.00000E+00
    0.45278E-17         0.16365E-19         0.00000E+00
    0.45325E-17         0.19970E-19         0.00000E+00
    0.45346E-17         0.22745E-19         0.00000E+00
    0.45377E-17         0.23036E-19         0.00000E+00
    0.45420E-17         0.24071E-19         0.00000E+00
    0.45436E-17         0.16987E-19         0.00000E+00
    0.45455E-17         0.12346E-19         0.00000E+00
    0.45485E-17         0.63803E-20         0.00000E+00
    0.53040E-17        -0.37288E-21         0.00000E+00
    0.53057E-17        -0.23201E-20         0.00000E+00
    0.53082E-17         0.17401E-20         0.00000E+00
    0.53091E-17         0.15744E-20         0.00000E+00
    0.53113E-17         0.36873E-20         0.00000E+00
    0.53128E-17         0.48888E-20         0.00000E+00
    0.53159E-17         0.10689E-19         0.00000E+00
    0.53198E-17         0.12761E-19         0.00000E+00
    0.53229E-17         0.15247E-19         0.00000E+00
    0.53283E-17         0.19721E-19         0.00000E+00
    0.53323E-17         0.19182E-19         0.00000E+00
    0.53358E-17         0.20135E-19         0.00000E+00
    0.53396E-17         0.15744E-19         0.00000E+00
    0.53400E-17         0.11269E-19         0.00000E+00
    0.53406E-17         0.40188E-20         0.00000E+00
    0.60804E-17        -0.12429E-21         0.00000E+00
    0.60790E-17        -0.23616E-20         0.00000E+00
    0.60792E-17        -0.99434E-21         0.00000E+00
    0.60830E-17        -0.19472E-20         0.00000E+00
    0.60862E-17         0.17401E-20         0.00000E+00
    0.60887E-17         0.36045E-20         0.00000E+00
    0.60935E-17         0.53860E-20         0.00000E+00
    0.60980E-17         0.99434E-20         0.00000E+00
    0.61025E-17         0.10938E-19         0.00000E+00
    0.61056E-17         0.15329E-19         0.00000E+00
    0.61081E-17         0.15744E-19         0.00000E+00
    0.61118E-17         0.15412E-19         0.00000E+00
    0.61163E-17         0.12761E-19         0.00000E+00
    0.61201E-17         0.10565E-19         0.00000E+00
    0.61206E-17         0.35630E-20         0.00000E+00
    0.68363E-17        -0.78718E-21         0.00000E+00
    0.68380E-17        -0.16572E-20         0.00000E+00
    0.68400E-17        -0.34388E-20         0.00000E+00
    0.68404E-17        -0.36459E-20         0.00000E+00
    0.68422E-17        -0.10772E-20         0.00000E+00
    0.68456E-17        -0.58003E-21         0.00000E+00
    0.68490E-17         0.16572E-20         0.00000E+00
    0.68530E-17         0.48060E-20         0.00000E+00
    0.68572E-17         0.87833E-20         0.00000E+00
    0.68623E-17         0.95291E-20         0.00000E+00
    0.68693E-17         0.11849E-19         0.00000E+00
    0.68732E-17         0.12181E-19         0.00000E+00
    0.68745E-17         0.10109E-19         0.00000E+00
    0.68773E-17         0.62560E-20         0.00000E+00
    0.68796E-17         0.36459E-20         0.00000E+00
    0.75696E-17        -0.20715E-20         0.00000E+00
    0.75710E-17        -0.36459E-20         0.00000E+00
    0.75731E-17        -0.60075E-20         0.00000E+00
    0.75751E-17        -0.33973E-20         0.00000E+00
    0.75778E-17        -0.50131E-20         0.00000E+00
    0.75821E-17        -0.48888E-20         0.00000E+00
    0.75864E-17        -0.14915E-20         0.00000E+00
    0.75892E-17         0.13258E-20         0.00000E+00
    0.75944E-17         0.30659E-20         0.00000E+00
    0.76009E-17         0.34388E-20         0.00000E+00
    0.76059E-17         0.52203E-20         0.00000E+00
    0.76099E-17         0.10606E-19         0.00000E+00
    0.76124E-17         0.82033E-20         0.00000E+00
    0.76126E-17         0.50546E-20         0.00000E+00
    0.76122E-17         0.16572E-20         0.00000E+00
    0.82839E-17        -0.25273E-20         0.00000E+00
    0.82850E-17        -0.56760E-20         0.00000E+00
    0.82881E-17        -0.85347E-20         0.00000E+00
    0.82903E-17        -0.60075E-20         0.00000E+00
    0.82947E-17        -0.91976E-20         0.00000E+00
    0.82982E-17        -0.75404E-20         0.00000E+00
    0.83004E-17        -0.53031E-20         0.00000E+00
    0.83055E-17        -0.25273E-20         0.00000E+00
    0.83101E-17        -0.31487E-20         0.00000E+00
    0.83161E-17        -0.29830E-20         0.00000E+00
    0.83198E-17         0.25687E-20         0.00000E+00
    0.83237E-17         0.50960E-20         0.00000E+00
    0.83286E-17         0.65046E-20         0.00000E+00
    0.83305E-17         0.44745E-20         0.00000E+00
    0.83317E-17         0.41431E-21         0.00000E+00
    0.89794E-17        -0.26516E-20         0.00000E+00
    0.89796E-17        -0.66289E-20         0.00000E+00
    0.89788E-17        -0.91976E-20         0.00000E+00
    0.89803E-17        -0.87004E-20         0.00000E+00
    0.89834E-17        -0.14749E-19         0.00000E+00
    0.89865E-17        -0.84933E-20         0.00000E+00
    0.89912E-17        -0.10109E-19         0.00000E+00
    0.89953E-17        -0.70018E-20         0.00000E+00
    0.90010E-17        -0.94876E-20         0.00000E+00
    0.90049E-17        -0.62975E-20         0.00000E+00
    0.90081E-17        -0.13258E-20         0.00000E+00
    0.90134E-17        -0.41431E-22         0.00000E+00
    0.90171E-17         0.29830E-20         0.00000E+00
    0.90213E-17         0.24858E-20         0.00000E+00
    0.90218E-17         0.33145E-21         0.00000E+00
    0.96426E-17        -0.38116E-20         0.00000E+00
    0.96436E-17        -0.70432E-20         0.00000E+00
    0.96456E-17        -0.94462E-20         0.00000E+00
    0.96483E-17        -0.12926E-19         0.00000E+00
    0.96508E-17        -0.15578E-19         0.00000E+00
    0.96524E-17        -0.12098E-19         0.00000E+00
    0.96556E-17        -0.13838E-19         0.00000E+00
    0.96601E-17        -0.12926E-19         0.00000E+00
    0.96648E-17        -0.12139E-19         0.00000E+00
    0.96680E-17        -0.93219E-20         0.00000E+00
    0.96724E-17        -0.68775E-20         0.00000E+00
    0.96759E-17        -0.28173E-20         0.00000E+00
    0.96800E-17        -0.16572E-20         0.00000E+00
    0.96825E-17         0.99434E-21         0.00000E+00
    0.96829E-17         0.82861E-21         0.00000E+00
    0.10279E-16        -0.39773E-20         0.00000E+00
    0.10280E-16        -0.89076E-20         0.00000E+00
    0.10282E-16        -0.10772E-19         0.00000E+00
    0.10282E-16        -0.16531E-19         0.00000E+00
    0.10285E-16        -0.17318E-19         0.00000E+00
    0.10289E-16        -0.16572E-19         0.00000E+00
    0.10294E-16        -0.17401E-19         0.00000E+00
    0.10297E-16        -0.16987E-19         0.00000E+00
    0.10300E-16        -0.16407E-19         0.00000E+00
    0.10306E-16        -0.15164E-19         0.00000E+00
    0.10310E-16        -0.10275E-19         0.00000E+00
    0.10313E-16        -0.64632E-20         0.00000E+00
    0.10315E-16        -0.38116E-20         0.00000E+00
    0.10316E-16        -0.16572E-21         0.00000E+00
    0.10317E-16        -0.16572E-21         0.00000E+00
    0.10886E-16        -0.34387E-20         0.00000E+00
    0.10887E-16        -0.11311E-19         0.00000E+00
    0.10891E-16        -0.14501E-19         0.00000E+00
    0.10893E-16        -0.14998E-19         0.00000E+00
    0.10893E-16        -0.20135E-19         0.00000E+00
    0.10895E-16        -0.21337E-19         0.00000E+00
    0.10899E-16        -0.20798E-19         0.00000E+00
    0.10903E-16        -0.21337E-19         0.00000E+00
    0.10909E-16        -0.20550E-19         0.00000E+00
    0.10911E-16        -0.17774E-19         0.00000E+00
    0.10912E-16        -0.14915E-19         0.00000E+00
    0.10917E-16        -0.96948E-20         0.00000E+00
    0.10920E-16        -0.45574E-20         0.00000E+00
    0.10921E-16        -0.10772E-20         0.00000E+00
    0.10922E-16        -0.22373E-20         0.00000E+00
    0.11465E-16        -0.60903E-20         0.00000E+00
    0.11466E-16        -0.12098E-19         0.00000E+00
    0.11466E-16        -0.16241E-19         0.00000E+00
    0.11468E-16        -0.17567E-19         0.00000E+00
    0.11473E-16        -0.22621E-19         0.00000E+00
    0.11475E-16        -0.23823E-19         0.00000E+00
    0.11478E-16        -0.24030E-19         0.00000E+00
    0.11479E-16        -0.24651E-19         0.00000E+00
    0.11481E-16        -0.24361E-19         0.00000E+00
    0.11487E-16        -0.21461E-19         0.00000E+00
    0.11489E-16        -0.16241E-19         0.00000E+00
    0.11489E-16        -0.11973E-19         0.00000E+00
    0.11492E-16        -0.76233E-20         0.00000E+00
    0.11495E-16        -0.33973E-20         0.00000E+00
    0.11496E-16        -0.14501E-20         0.00000E+00
    0.12012E-16        -0.55931E-20         0.00000E+00
    0.12010E-16        -0.13921E-19         0.00000E+00
    0.12012E-16        -0.15536E-19         0.00000E+00
    0.12012E-16        -0.20632E-19         0.00000E+00
    0.12013E-16        -0.25024E-19         0.00000E+00
    0.12016E-16        -0.26018E-19         0.00000E+00
    0.12020E-16        -0.27841E-19         0.00000E+00
    0.12022E-16        -0.25687E-19         0.00000E+00
    0.12025E-16        -0.28421E-19         0.00000E+00
    0.12027E-16        -0.23616E-19         0.00000E+00
    0.12028E-16        -0.17567E-19         0.00000E+00
    0.12032E-16        -0.14335E-19         0.00000E+00
    0.12033E-16        -0.92805E-20         0.00000E+00
    0.12035E-16        -0.57174E-20         0.00000E+00
    0.12036E-16        -0.99434E-21         0.00000E+00
    0.12526E-16        -0.36873E-20         0.00000E+00
    0.12523E-16        -0.11766E-19         0.00000E+00
    0.12522E-16        -0.17898E-19         0.00000E+00
    0.12524E-16        -0.20591E-19         0.00000E+00
    0.12525E-16        -0.27096E-19         0.00000E+00
    0.12526E-16        -0.27344E-19         0.00000E+00
    0.12527E-16        -0.31653E-19         0.00000E+00
    0.12529E-16        -0.26681E-19         0.00000E+00
    0.12530E-16        -0.31570E-19         0.00000E+00
    0.12532E-16        -0.25024E-19         0.00000E+00
    0.12534E-16        -0.20135E-19         0.00000E+00
    0.12537E-16        -0.16821E-19         0.00000E+00
    0.12537E-16        -0.90319E-20         0.00000E+00
    0.12537E-16        -0.83690E-20         0.00000E+00
    0.12538E-16        -0.13672E-20         0.00000E+00
    0.13001E-16        -0.33144E-20         0.00000E+00
    0.13002E-16        -0.10772E-19         0.00000E+00
    0.13001E-16        -0.16034E-19         0.00000E+00
    0.12998E-16        -0.21958E-19         0.00000E+00
    0.12998E-16        -0.27013E-19         0.00000E+00
    0.12998E-16        -0.27593E-19         0.00000E+00
    0.13000E-16        -0.32150E-19         0.00000E+00
    0.13001E-16        -0.30659E-19         0.00000E+00
    0.13002E-16        -0.29001E-19         0.00000E+00
    0.13000E-16        -0.28007E-19         0.00000E+00
    0.13002E-16        -0.21461E-19         0.00000E+00
    0.13003E-16        -0.18561E-19         0.00000E+00
    0.13005E-16        -0.10938E-19         0.00000E+00
    0.13008E-16        -0.89076E-20         0.00000E+00
    0.13008E-16        -0.16987E-20         0.00000E+00
    0.13444E-16        -0.49717E-20         0.00000E+00
    0.13443E-16        -0.94047E-20         0.00000E+00
    0.13442E-16        -0.14501E-19         0.00000E+00
    0.13440E-16        -0.19970E-19         0.00000E+00
    0.13437E-16        -0.26226E-19         0.00000E+00
    0.13436E-16        -0.28090E-19         0.00000E+00
    0.13436E-16        -0.31984E-19         0.00000E+00
    0.13436E-16        -0.31736E-19         0.00000E+00
    0.13436E-16        -0.27427E-19         0.00000E+00
    0.13434E-16        -0.28007E-19         0.00000E+00
    0.13434E-16        -0.22787E-19         0.00000E+00
    0.13436E-16        -0.18975E-19         0.00000E+00
    0.13437E-16        -0.13838E-19         0.00000E+00
    0.13437E-16        -0.84518E-20         0.00000E+00
    0.13437E-16        -0.38116E-20         0.00000E+00
    0.13851E-16        -0.52617E-20         0.00000E+00
    0.13849E-16        -0.71260E-20         0.00000E+00
    0.13847E-16        -0.13092E-19         0.00000E+00
    0.13844E-16        -0.16738E-19         0.00000E+00
    0.13841E-16        -0.24030E-19         0.00000E+00
    0.13838E-16        -0.26598E-19         0.00000E+00
    0.13836E-16        -0.32067E-19         0.00000E+00
    0.13835E-16        -0.31073E-19         0.00000E+00
    0.13834E-16        -0.26930E-19         0.00000E+00
    0.13833E-16        -0.25107E-19         0.00000E+00
    0.13832E-16        -0.25190E-19         0.00000E+00
    0.13833E-16        -0.19390E-19         0.00000E+00
    0.13834E-16        -0.15164E-19         0.00000E+00
    0.13834E-16        -0.82032E-20         0.00000E+00
    0.13834E-16        -0.41431E-20         0.00000E+00
    0.14215E-16        -0.30659E-20         0.00000E+00
    0.14213E-16        -0.66289E-20         0.00000E+00
    0.14214E-16        -0.11186E-19         0.00000E+00
    0.14211E-16        -0.13216E-19         0.00000E+00
    0.14207E-16        -0.19969E-19         0.00000E+00
    0.14203E-16        -0.23615E-19         0.00000E+00
    0.14200E-16        -0.28670E-19         0.00000E+00
    0.14196E-16        -0.28753E-19         0.00000E+00
    0.14193E-16        -0.25770E-19         0.00000E+00
    0.14193E-16        -0.25273E-19         0.00000E+00
    0.14193E-16        -0.24610E-19         0.00000E+00
    0.14193E-16        -0.21544E-19         0.00000E+00
    0.14193E-16        -0.13921E-19         0.00000E+00
    0.14194E-16        -0.10026E-19         0.00000E+00
    0.14194E-16        -0.22372E-20         0.00000E+00
    0.14544E-16        -0.95290E-21         0.00000E+00
    0.14544E-16        -0.69189E-20         0.00000E+00
    0.14542E-16        -0.88247E-20         0.00000E+00
    0.14539E-16        -0.10896E-19         0.00000E+00
    0.14537E-16        -0.16614E-19         0.00000E+00
    0.14532E-16        -0.18644E-19         0.00000E+00
    0.14525E-16        -0.22704E-19         0.00000E+00
    0.14520E-16        -0.26557E-19         0.00000E+00
    0.14517E-16        -0.22994E-19         0.00000E+00
    0.14515E-16        -0.23532E-19         0.00000E+00
    0.14513E-16        -0.25107E-19         0.00000E+00
    0.14513E-16        -0.22000E-19         0.00000E+00
    0.14516E-16        -0.15081E-19         0.00000E+00
    0.14517E-16        -0.11062E-19         0.00000E+00
    0.14519E-16        -0.38945E-20         0.00000E+00
    0.14841E-16         0.58002E-21         0.00000E+00
    0.14837E-16        -0.53031E-20         0.00000E+00
    0.14834E-16        -0.47231E-20         0.00000E+00
    0.14832E-16        -0.90318E-20         0.00000E+00
    0.14827E-16        -0.10440E-19         0.00000E+00
    0.14821E-16        -0.13341E-19         0.00000E+00
    0.14816E-16        -0.15495E-19         0.00000E+00
    0.14807E-16        -0.20549E-19         0.00000E+00
    0.14802E-16        -0.20922E-19         0.00000E+00
    0.14803E-16        -0.23284E-19         0.00000E+00
    0.14802E-16        -0.23408E-19         0.00000E+00
    0.14800E-16        -0.22207E-19         0.00000E+00
    0.14801E-16        -0.18229E-19         0.00000E+00
    0.14803E-16        -0.11269E-19         0.00000E+00
    0.14803E-16        -0.50545E-20         0.00000E+00
    0.15092E-16         0.18229E-20         0.00000E+00
    0.15091E-16        -0.20715E-20         0.00000E+00
    0.15089E-16        -0.27344E-20         0.00000E+00
    0.15086E-16        -0.53859E-20         0.00000E+00
    0.15081E-16        -0.40602E-20         0.00000E+00
    0.15074E-16        -0.60074E-20         0.00000E+00
    0.15066E-16        -0.92389E-20         0.00000E+00
    0.15060E-16        -0.12802E-19         0.00000E+00
    0.15055E-16        -0.18892E-19         0.00000E+00
    0.15051E-16        -0.23118E-19         0.00000E+00
    0.15049E-16        -0.20798E-19         0.00000E+00
    0.15050E-16        -0.23201E-19         0.00000E+00
    0.15049E-16        -0.18064E-19         0.00000E+00
    0.15051E-16        -0.15495E-19         0.00000E+00
    0.15055E-16        -0.61317E-20         0.00000E+00
    0.15310E-16         0.11600E-20         0.00000E+00
    0.15307E-16         0.14086E-20         0.00000E+00
    0.15304E-16        -0.33144E-21         0.00000E+00
    0.15299E-16         0.41430E-21         0.00000E+00
    0.15292E-16         0.13258E-20         0.00000E+00
    0.15289E-16         0.82860E-21         0.00000E+00
    0.15282E-16        -0.32316E-20         0.00000E+00
    0.15276E-16        -0.83275E-20         0.00000E+00
    0.15272E-16        -0.12760E-19         0.00000E+00
    0.15267E-16        -0.19058E-19         0.00000E+00
    0.15262E-16        -0.19389E-19         0.00000E+00
    0.15260E-16        -0.23201E-19         0.00000E+00
    0.15262E-16        -0.18809E-19         0.00000E+00
    0.15263E-16        -0.17815E-19         0.00000E+00
    0.15265E-16        -0.90732E-20         0.00000E+00
    0.15486E-16         0.23201E-20         0.00000E+00
    0.15484E-16         0.49302E-20         0.00000E+00
    0.15480E-16         0.41430E-20         0.00000E+00
    0.15475E-16         0.52202E-20         0.00000E+00
    0.15472E-16         0.64217E-20         0.00000E+00
    0.15466E-16         0.48059E-20         0.00000E+00
    0.15464E-16         0.19058E-20         0.00000E+00
    0.15460E-16        -0.36044E-20         0.00000E+00
    0.15454E-16        -0.79546E-20         0.00000E+00
    0.15449E-16        -0.14086E-19         0.00000E+00
    0.15444E-16        -0.15412E-19         0.00000E+00
    0.15442E-16        -0.21916E-19         0.00000E+00
    0.15441E-16        -0.21461E-19         0.00000E+00
    0.15442E-16        -0.17608E-19         0.00000E+00
    0.15439E-16        -0.86175E-20         0.00000E+00
    0.15618E-16         0.32316E-20         0.00000E+00
    0.15617E-16         0.67946E-20         0.00000E+00
    0.15616E-16         0.87003E-20         0.00000E+00
    0.15615E-16         0.77060E-20         0.00000E+00
    0.15611E-16         0.10275E-19         0.00000E+00
    0.15610E-16         0.79546E-20         0.00000E+00
    0.15607E-16         0.43501E-20         0.00000E+00
    0.15604E-16         0.99432E-21         0.00000E+00
    0.15601E-16        -0.38115E-20         0.00000E+00
    0.15598E-16        -0.87003E-20         0.00000E+00
    0.15594E-16        -0.11518E-19         0.00000E+00
    0.15588E-16        -0.17401E-19         0.00000E+00
    0.15583E-16        -0.20466E-19         0.00000E+00
    0.15581E-16        -0.17193E-19         0.00000E+00
    0.15582E-16        -0.74574E-20         0.00000E+00
    0.15711E-16         0.41430E-20         0.00000E+00
    0.15711E-16         0.58831E-20         0.00000E+00
    0.15714E-16         0.72917E-20         0.00000E+00
    0.15715E-16         0.93632E-20         0.00000E+00
    0.15716E-16         0.10192E-19         0.00000E+00
    0.15720E-16         0.72088E-20         0.00000E+00
    0.15720E-16         0.75402E-20         0.00000E+00
    0.15718E-16         0.33972E-20         0.00000E+00
    0.15718E-16        -0.24444E-20         0.00000E+00
    0.15715E-16        -0.47644E-20         0.00000E+00
    0.15712E-16        -0.87831E-20         0.00000E+00
    0.15707E-16        -0.96117E-20         0.00000E+00
    0.15700E-16        -0.15909E-19         0.00000E+00
    0.15695E-16        -0.14998E-19         0.00000E+00
    0.15691E-16        -0.69602E-20         0.00000E+00
    0.15761E-16         0.26515E-20         0.00000E+00
    0.15765E-16         0.20715E-20         0.00000E+00
    0.15770E-16         0.33973E-20         0.00000E+00
    0.15779E-16         0.47230E-20         0.00000E+00
    0.15787E-16         0.43087E-20         0.00000E+00
    0.15794E-16         0.23201E-20         0.00000E+00
    0.15801E-16         0.43087E-20         0.00000E+00
    0.15807E-16         0.22372E-20         0.00000E+00
    0.15808E-16        -0.15743E-20         0.00000E+00
    0.15805E-16        -0.11600E-20         0.00000E+00
    0.15800E-16        -0.35629E-20         0.00000E+00
    0.15793E-16        -0.32315E-20         0.00000E+00
    0.15785E-16        -0.71673E-20         0.00000E+00
    0.15772E-16        -0.58830E-20         0.00000E+00
    0.15762E-16        -0.26515E-20         0.00000E+00
POINT_DATA        496
VECTORS vDarcyNodal double 
    0.41696E-18         0.00000E+00         0.00000E+00
    0.41762E-18         0.99434E-21         0.00000E+00
    0.41563E-18         0.39774E-20         0.00000E+00
    0.41563E-18         0.79547E-20         0.00000E+00
    0.41696E-18         0.11601E-19         0.00000E+00
    0.41696E-18         0.16241E-19         0.00000E+00
    0.41696E-18         0.20550E-19         0.00000E+00
    0.41696E-18         0.26184E-19         0.00000E+00
    0.42127E-18         0.28173E-19         0.00000E+00
    0.41563E-18         0.29499E-19         0.00000E+00
    0.42094E-18         0.30162E-19         0.00000E+00
    0.41895E-18         0.29167E-19         0.00000E+00
    0.42027E-18         0.26847E-19         0.00000E+00
    0.41895E-18         0.18892E-19         0.00000E+00
    0.41630E-18         0.11269E-19         0.00000E+00
    0.41961E-18         0.72918E-20         0.00000E+00
    0.83259E-18        -0.14829E-20         0.00000E+00
    0.83259E-18         0.16572E-20         0.00000E+00
    0.83160E-18         0.51374E-20         0.00000E+00
    0.83163E-18         0.71261E-20         0.00000E+00
    0.83173E-18         0.11348E-19         0.00000E+00
    0.83322E-18         0.16494E-19         0.00000E+00
    0.83458E-18         0.20305E-19         0.00000E+00
    0.83425E-18         0.23533E-19         0.00000E+00
    0.83736E-18         0.28504E-19         0.00000E+00
    0.83574E-18         0.29830E-19         0.00000E+00
    0.83722E-18         0.28836E-19         0.00000E+00
    0.83758E-18         0.29830E-19         0.00000E+00
    0.83790E-18         0.27179E-19         0.00000E+00
    0.83723E-18         0.21213E-19         0.00000E+00
    0.83856E-18         0.10685E-19         0.00000E+00
    0.83922E-18         0.34716E-20         0.00000E+00
    0.16619E-17         0.34860E-21         0.00000E+00
    0.16611E-17         0.18230E-20         0.00000E+00
    0.16622E-17         0.53031E-20         0.00000E+00
    0.16632E-17         0.74575E-20         0.00000E+00
    0.16639E-17         0.97691E-20         0.00000E+00
    0.16631E-17         0.13432E-19         0.00000E+00
    0.16665E-17         0.19730E-19         0.00000E+00
    0.16682E-17         0.23367E-19         0.00000E+00
    0.16689E-17         0.26516E-19         0.00000E+00
    0.16721E-17         0.29830E-19         0.00000E+00
    0.16715E-17         0.28836E-19         0.00000E+00
    0.16713E-17         0.28836E-19         0.00000E+00
    0.16720E-17         0.27179E-19         0.00000E+00
    0.16741E-17         0.18561E-19         0.00000E+00
    0.16761E-17         0.91062E-20         0.00000E+00
    0.16755E-17         0.49545E-20         0.00000E+00
    0.24868E-17         0.99434E-21         0.00000E+00
    0.24871E-17         0.13258E-20         0.00000E+00
    0.24882E-17         0.33145E-20         0.00000E+00
    0.24895E-17         0.53031E-20         0.00000E+00
    0.24913E-17         0.10929E-19         0.00000E+00
    0.24913E-17         0.13921E-19         0.00000E+00
    0.24918E-17         0.15587E-19         0.00000E+00
    0.24965E-17         0.21875E-19         0.00000E+00
    0.24977E-17         0.25033E-19         0.00000E+00
    0.25006E-17         0.27179E-19         0.00000E+00
    0.25004E-17         0.29987E-19         0.00000E+00
    0.25011E-17         0.29167E-19         0.00000E+00
    0.25044E-17         0.23864E-19         0.00000E+00
    0.25057E-17         0.17235E-19         0.00000E+00
    0.25057E-17         0.91233E-20         0.00000E+00
    0.25057E-17         0.39945E-20         0.00000E+00
    0.33045E-17        -0.96003E-21         0.00000E+00
    0.33058E-17         0.66289E-21         0.00000E+00
    0.33048E-17         0.29830E-20         0.00000E+00
    0.33075E-17         0.44745E-20         0.00000E+00
    0.33069E-17         0.79376E-20         0.00000E+00
    0.33129E-17         0.13441E-19         0.00000E+00
    0.33128E-17         0.14601E-19         0.00000E+00
    0.33155E-17         0.17567E-19         0.00000E+00
    0.33184E-17         0.22538E-19         0.00000E+00
    0.33202E-17         0.27013E-19         0.00000E+00
    0.33227E-17         0.28173E-19         0.00000E+00
    0.33256E-17         0.24858E-19         0.00000E+00
    0.33267E-17         0.22207E-19         0.00000E+00
    0.33284E-17         0.16904E-19         0.00000E+00
    0.33280E-17         0.82690E-20         0.00000E+00
    0.33264E-17         0.39430E-20         0.00000E+00
    0.41129E-17        -0.19887E-20         0.00000E+00
    0.41126E-17         0.97718E-21         0.00000E+00
    0.41142E-17         0.16572E-20         0.00000E+00
    0.41153E-17         0.33145E-20         0.00000E+00
    0.41162E-17         0.56346E-20         0.00000E+00
    0.41193E-17         0.79719E-20         0.00000E+00
    0.41242E-17         0.12926E-19         0.00000E+00
    0.41245E-17         0.16241E-19         0.00000E+00
    0.41283E-17         0.19887E-19         0.00000E+00
    0.41310E-17         0.22538E-19         0.00000E+00
    0.41348E-17         0.24527E-19         0.00000E+00
    0.41381E-17         0.25190E-19         0.00000E+00
    0.41384E-17         0.21213E-19         0.00000E+00
    0.41406E-17         0.15578E-19         0.00000E+00
    0.41416E-17         0.10606E-19         0.00000E+00
    0.41414E-17         0.72918E-20         0.00000E+00
    0.49097E-17         0.00000E+00         0.00000E+00
    0.49087E-17        -0.66289E-21         0.00000E+00
    0.49127E-17         0.33145E-21         0.00000E+00
    0.49120E-17         0.23201E-20         0.00000E+00
    0.49150E-17         0.39602E-20         0.00000E+00
    0.49160E-17         0.53031E-20         0.00000E+00
    0.49193E-17         0.92976E-20         0.00000E+00
    0.49226E-17         0.13589E-19         0.00000E+00
    0.49253E-17         0.15927E-19         0.00000E+00
    0.49296E-17         0.20218E-19         0.00000E+00
    0.49332E-17         0.21195E-19         0.00000E+00
    0.49372E-17         0.21213E-19         0.00000E+00
    0.49410E-17         0.19887E-19         0.00000E+00
    0.49425E-17         0.13921E-19         0.00000E+00
    0.49433E-17         0.79719E-20         0.00000E+00
    0.49458E-17         0.53374E-20         0.00000E+00
    0.56926E-17         0.68620E-22         0.00000E+00
    0.56926E-17        -0.19887E-20         0.00000E+00
    0.56923E-17        -0.16915E-20         0.00000E+00
    0.56942E-17         0.10286E-20         0.00000E+00
    0.56979E-17         0.16915E-20         0.00000E+00
    0.56998E-17         0.36116E-20         0.00000E+00
    0.57022E-17         0.62632E-20         0.00000E+00
    0.57072E-17         0.10143E-19         0.00000E+00
    0.57105E-17         0.12961E-19         0.00000E+00
    0.57145E-17         0.14584E-19         0.00000E+00
    0.57188E-17         0.16704E-19         0.00000E+00
    0.57214E-17         0.17864E-19         0.00000E+00
    0.57262E-17         0.15909E-19         0.00000E+00
    0.57294E-17         0.12961E-19         0.00000E+00
    0.57306E-17         0.76233E-20         0.00000E+00
    0.57314E-17         0.25829E-20         0.00000E+00
    0.64582E-17        -0.26283E-21         0.00000E+00
    0.64586E-17        -0.33145E-21         0.00000E+00
    0.64582E-17        -0.13258E-20         0.00000E+00
    0.64605E-17        -0.33145E-20         0.00000E+00
    0.64629E-17        -0.16915E-20         0.00000E+00
    0.64655E-17         0.10286E-20         0.00000E+00
    0.64692E-17         0.20230E-20         0.00000E+00
    0.64728E-17         0.53031E-20         0.00000E+00
    0.64786E-17         0.86176E-20         0.00000E+00
    0.64811E-17         0.11932E-19         0.00000E+00
    0.64867E-17         0.14252E-19         0.00000E+00
    0.64910E-17         0.13589E-19         0.00000E+00
    0.64940E-17         0.11601E-19         0.00000E+00
    0.64963E-17         0.96119E-20         0.00000E+00
    0.65006E-17         0.65946E-20         0.00000E+00
    0.65000E-17         0.45716E-20         0.00000E+00
    0.72020E-17        -0.92572E-21         0.00000E+00
    0.72036E-17        -0.19887E-20         0.00000E+00
    0.72053E-17        -0.36459E-20         0.00000E+00
    0.72083E-17        -0.36116E-20         0.00000E+00
    0.72079E-17        -0.33145E-20         0.00000E+00
    0.72120E-17        -0.26516E-20         0.00000E+00
    0.72159E-17        -0.99434E-21         0.00000E+00
    0.72193E-17         0.99434E-21         0.00000E+00
    0.72228E-17         0.46402E-20         0.00000E+00
    0.72282E-17         0.62975E-20         0.00000E+00
    0.72348E-17         0.69604E-20         0.00000E+00
    0.72409E-17         0.10275E-19         0.00000E+00
    0.72424E-17         0.10572E-19         0.00000E+00
    0.72441E-17         0.71261E-20         0.00000E+00
    0.72451E-17         0.36802E-20         0.00000E+00
    0.72471E-17         0.26516E-20         0.00000E+00
    0.79265E-17        -0.33145E-20         0.00000E+00
    0.79272E-17        -0.36802E-20         0.00000E+00
    0.79292E-17        -0.59660E-20         0.00000E+00
    0.79322E-17        -0.59660E-20         0.00000E+00
    0.79342E-17        -0.53031E-20         0.00000E+00
    0.79388E-17        -0.69261E-20         0.00000E+00
    0.79414E-17        -0.53031E-20         0.00000E+00
    0.79449E-17        -0.16572E-20         0.00000E+00
    0.79487E-17        -0.33145E-21         0.00000E+00
    0.79550E-17         0.13389E-28         0.00000E+00
    0.79610E-17         0.16572E-20         0.00000E+00
    0.79643E-17         0.59660E-20         0.00000E+00
    0.79696E-17         0.82862E-20         0.00000E+00
    0.79713E-17         0.69604E-20         0.00000E+00
    0.79714E-17         0.33145E-20         0.00000E+00
    0.79726E-17         0.00000E+00         0.00000E+00
    0.86318E-17        -0.19887E-20         0.00000E+00
    0.86318E-17        -0.46402E-20         0.00000E+00
    0.86332E-17        -0.86176E-20         0.00000E+00
    0.86335E-17        -0.86176E-20         0.00000E+00
    0.86368E-17        -0.99434E-20         0.00000E+00
    0.86418E-17        -0.99434E-20         0.00000E+00
    0.86431E-17        -0.72918E-20         0.00000E+00
    0.86481E-17        -0.62975E-20         0.00000E+00
    0.86524E-17        -0.53031E-20         0.00000E+00
    0.86584E-17        -0.59660E-20         0.00000E+00
    0.86620E-17        -0.23544E-20         0.00000E+00
    0.86660E-17         0.13258E-20         0.00000E+00
    0.86714E-17         0.36802E-20         0.00000E+00
    0.86749E-17         0.49717E-20         0.00000E+00
    0.86772E-17         0.19887E-20         0.00000E+00
    0.86773E-17         0.66289E-21         0.00000E+00
    0.93106E-17        -0.33145E-20         0.00000E+00
    0.93116E-17        -0.49717E-20         0.00000E+00
    0.93120E-17        -0.76232E-20         0.00000E+00
    0.93123E-17        -0.96119E-20         0.00000E+00
    0.93164E-17        -0.13624E-19         0.00000E+00
    0.93176E-17        -0.13258E-19         0.00000E+00
    0.93211E-17        -0.11401E-19         0.00000E+00
    0.93252E-17        -0.10938E-19         0.00000E+00
    0.93309E-17        -0.10572E-19         0.00000E+00
    0.93348E-17        -0.96119E-20         0.00000E+00
    0.93378E-17        -0.60003E-20         0.00000E+00
    0.93431E-17        -0.29830E-20         0.00000E+00
    0.93466E-17        -0.33145E-21         0.00000E+00
    0.93511E-17         0.99434E-21         0.00000E+00
    0.93527E-17         0.10286E-20         0.00000E+00
    0.93527E-17         0.68620E-22         0.00000E+00
    0.99609E-17        -0.39773E-20         0.00000E+00
    0.99609E-17        -0.59660E-20         0.00000E+00
    0.99629E-17        -0.92805E-20         0.00000E+00
    0.99639E-17        -0.13258E-19         0.00000E+00
    0.99672E-17        -0.15246E-19         0.00000E+00
    0.99682E-17        -0.14584E-19         0.00000E+00
    0.99729E-17        -0.14915E-19         0.00000E+00
    0.99765E-17        -0.15841E-19         0.00000E+00
    0.99806E-17        -0.14915E-19         0.00000E+00
    0.99838E-17        -0.12829E-19         0.00000E+00
    0.99895E-17        -0.10606E-19         0.00000E+00
    0.99931E-17        -0.69604E-20         0.00000E+00
    0.99963E-17        -0.39774E-20         0.00000E+00
    0.99984E-17        -0.13258E-20         0.00000E+00
    0.99996E-17         0.66289E-21         0.00000E+00
    0.10001E-16         0.13258E-20         0.00000E+00
    0.10582E-16        -0.31772E-20         0.00000E+00
    0.10582E-16        -0.69603E-20         0.00000E+00
    0.10584E-16        -0.10675E-19         0.00000E+00
    0.10588E-16        -0.13852E-19         0.00000E+00
    0.10587E-16        -0.17664E-19         0.00000E+00
    0.10590E-16        -0.18961E-19         0.00000E+00
    0.10595E-16        -0.19955E-19         0.00000E+00
    0.10598E-16        -0.18658E-19         0.00000E+00
    0.10602E-16        -0.17829E-19         0.00000E+00
    0.10607E-16        -0.18561E-19         0.00000E+00
    0.10609E-16        -0.15315E-19         0.00000E+00
    0.10614E-16        -0.10343E-19         0.00000E+00
    0.10617E-16        -0.59660E-20         0.00000E+00
    0.10618E-16        -0.20858E-20         0.00000E+00
    0.10619E-16        -0.99434E-21         0.00000E+00
    0.10621E-16        -0.21259E-20         0.00000E+00
    0.11174E-16        -0.39773E-20         0.00000E+00
    0.11176E-16        -0.79547E-20         0.00000E+00
    0.11177E-16        -0.14846E-19         0.00000E+00
    0.11180E-16        -0.15909E-19         0.00000E+00
    0.11182E-16        -0.17635E-19         0.00000E+00
    0.11184E-16        -0.22207E-19         0.00000E+00
    0.11187E-16        -0.22207E-19         0.00000E+00
    0.11190E-16        -0.23464E-19         0.00000E+00
    0.11193E-16        -0.23630E-19         0.00000E+00
    0.11197E-16        -0.19955E-19         0.00000E+00
    0.11200E-16        -0.17635E-19         0.00000E+00
    0.11202E-16        -0.14515E-19         0.00000E+00
    0.11204E-16        -0.86176E-20         0.00000E+00
    0.11207E-16        -0.38802E-20         0.00000E+00
    0.11209E-16        -0.23201E-20         0.00000E+00
    0.11209E-16        -0.19887E-20         0.00000E+00
    0.11738E-16        -0.71545E-20         0.00000E+00
    0.11738E-16        -0.99433E-20         0.00000E+00
    0.11739E-16        -0.13921E-19         0.00000E+00
    0.11738E-16        -0.18229E-19         0.00000E+00
    0.11742E-16        -0.22110E-19         0.00000E+00
    0.11744E-16        -0.23795E-19         0.00000E+00
    0.11746E-16        -0.25287E-19         0.00000E+00
    0.11751E-16        -0.25190E-19         0.00000E+00
    0.11751E-16        -0.25190E-19         0.00000E+00
    0.11755E-16        -0.25521E-19         0.00000E+00
    0.11758E-16        -0.20218E-19         0.00000E+00
    0.11759E-16        -0.14252E-19         0.00000E+00
    0.11761E-16        -0.11269E-19         0.00000E+00
    0.11763E-16        -0.69604E-20         0.00000E+00
    0.11766E-16        -0.27202E-20         0.00000E+00
    0.11766E-16        -0.11316E-20         0.00000E+00
    0.12269E-16        -0.31772E-20         0.00000E+00
    0.12268E-16        -0.88804E-20         0.00000E+00
    0.12266E-16        -0.15246E-19         0.00000E+00
    0.12268E-16        -0.18298E-19         0.00000E+00
    0.12268E-16        -0.23533E-19         0.00000E+00
    0.12271E-16        -0.26613E-19         0.00000E+00
    0.12271E-16        -0.28573E-19         0.00000E+00
    0.12274E-16        -0.28173E-19         0.00000E+00
    0.12276E-16        -0.28436E-19         0.00000E+00
    0.12279E-16        -0.27179E-19         0.00000E+00
    0.12280E-16        -0.21213E-19         0.00000E+00
    0.12283E-16        -0.17235E-19         0.00000E+00
    0.12285E-16        -0.12595E-19         0.00000E+00
    0.12285E-16        -0.82861E-20         0.00000E+00
    0.12287E-16        -0.40460E-20         0.00000E+00
    0.12287E-16        -0.80013E-21         0.00000E+00
    0.12764E-16        -0.45030E-20         0.00000E+00
    0.12764E-16        -0.69603E-20         0.00000E+00
    0.12762E-16        -0.14252E-19         0.00000E+00
    0.12761E-16        -0.20149E-19         0.00000E+00
    0.12762E-16        -0.24527E-19         0.00000E+00
    0.12762E-16        -0.27178E-19         0.00000E+00
    0.12763E-16        -0.29499E-19         0.00000E+00
    0.12764E-16        -0.30161E-19         0.00000E+00
    0.12767E-16        -0.29830E-19         0.00000E+00
    0.12765E-16        -0.29167E-19         0.00000E+00
    0.12768E-16        -0.23864E-19         0.00000E+00
    0.12769E-16        -0.19887E-19         0.00000E+00
    0.12770E-16        -0.13492E-19         0.00000E+00
    0.12772E-16        -0.82861E-20         0.00000E+00
    0.12773E-16        -0.52345E-20         0.00000E+00
    0.12774E-16        -0.26516E-20         0.00000E+00
    0.13222E-16        -0.33144E-20         0.00000E+00
    0.13223E-16        -0.73889E-20         0.00000E+00
    0.13222E-16        -0.12526E-19         0.00000E+00
    0.13220E-16        -0.18229E-19         0.00000E+00
    0.13219E-16        -0.24527E-19         0.00000E+00
    0.13217E-16        -0.27510E-19         0.00000E+00
    0.13218E-16        -0.30161E-19         0.00000E+00
    0.13218E-16        -0.32150E-19         0.00000E+00
    0.13220E-16        -0.29499E-19         0.00000E+00
    0.13217E-16        -0.28173E-19         0.00000E+00
    0.13217E-16        -0.25521E-19         0.00000E+00
    0.13219E-16        -0.20218E-19         0.00000E+00
    0.13220E-16        -0.15909E-19         0.00000E+00
    0.13223E-16        -0.10869E-19         0.00000E+00
    0.13222E-16        -0.59660E-20         0.00000E+00
    0.13224E-16        -0.24574E-20         0.00000E+00
    0.13647E-16        -0.66289E-20         0.00000E+00
    0.13648E-16        -0.70289E-20         0.00000E+00
    0.13645E-16        -0.10938E-19         0.00000E+00
    0.13644E-16        -0.16406E-19         0.00000E+00
    0.13640E-16        -0.21875E-19         0.00000E+00
    0.13638E-16        -0.26447E-19         0.00000E+00
    0.13636E-16        -0.30161E-19         0.00000E+00
    0.13636E-16        -0.31819E-19         0.00000E+00
    0.13635E-16        -0.29167E-19         0.00000E+00
    0.13635E-16        -0.26847E-19         0.00000E+00
    0.13632E-16        -0.25521E-19         0.00000E+00
    0.13634E-16        -0.21544E-19         0.00000E+00
    0.13635E-16        -0.16904E-19         0.00000E+00
    0.13636E-16        -0.11269E-19         0.00000E+00
    0.13635E-16        -0.62974E-20         0.00000E+00
    0.13636E-16        -0.53031E-20         0.00000E+00
    0.14034E-16        -0.47774E-20         0.00000E+00
    0.14031E-16        -0.52060E-20         0.00000E+00
    0.14031E-16        -0.88804E-20         0.00000E+00
    0.14029E-16        -0.13258E-19         0.00000E+00
    0.14025E-16        -0.18561E-19         0.00000E+00
    0.14022E-16        -0.23795E-19         0.00000E+00
    0.14019E-16        -0.28173E-19         0.00000E+00
    0.14016E-16        -0.30824E-19         0.00000E+00
    0.14014E-16        -0.28504E-19         0.00000E+00
    0.14013E-16        -0.25521E-19         0.00000E+00
    0.14012E-16        -0.24858E-19         0.00000E+00
    0.14012E-16        -0.22538E-19         0.00000E+00
    0.14014E-16        -0.17567E-19         0.00000E+00
    0.14013E-16        -0.11863E-19         0.00000E+00
    0.14015E-16        -0.56346E-20         0.00000E+00
    0.14013E-16        -0.27888E-20         0.00000E+00
    0.14380E-16        -0.66289E-21         0.00000E+00
    0.14379E-16        -0.36459E-20         0.00000E+00
    0.14379E-16        -0.89490E-20         0.00000E+00
    0.14376E-16        -0.10938E-19         0.00000E+00
    0.14374E-16        -0.14584E-19         0.00000E+00
    0.14370E-16        -0.20218E-19         0.00000E+00
    0.14365E-16        -0.24195E-19         0.00000E+00
    0.14359E-16        -0.27178E-19         0.00000E+00
    0.14356E-16        -0.26184E-19         0.00000E+00
    0.14354E-16        -0.24858E-19         0.00000E+00
    0.14353E-16        -0.24927E-19         0.00000E+00
    0.14353E-16        -0.23533E-19         0.00000E+00
    0.14354E-16        -0.17498E-19         0.00000E+00
    0.14355E-16        -0.12263E-19         0.00000E+00
    0.14356E-16        -0.66289E-20         0.00000E+00
    0.14357E-16        -0.13258E-20         0.00000E+00
    0.14693E-16        -0.14630E-20         0.00000E+00
    0.14692E-16        -0.43088E-20         0.00000E+00
    0.14690E-16        -0.62974E-20         0.00000E+00
    0.14687E-16        -0.79546E-20         0.00000E+00
    0.14685E-16        -0.12926E-19         0.00000E+00
    0.14679E-16        -0.14915E-19         0.00000E+00
    0.14674E-16        -0.16904E-19         0.00000E+00
    0.14666E-16        -0.22207E-19         0.00000E+00
    0.14660E-16        -0.23064E-19         0.00000E+00
    0.14659E-16        -0.21807E-19         0.00000E+00
    0.14658E-16        -0.23835E-19         0.00000E+00
    0.14657E-16        -0.23435E-19         0.00000E+00
    0.14657E-16        -0.19487E-19         0.00000E+00
    0.14660E-16        -0.13989E-19         0.00000E+00
    0.14660E-16        -0.87146E-20         0.00000E+00
    0.14662E-16        -0.66858E-20         0.00000E+00
    0.14967E-16         0.19887E-20         0.00000E+00
    0.14966E-16        -0.33144E-21         0.00000E+00
    0.14963E-16        -0.36459E-20         0.00000E+00
    0.14961E-16        -0.59660E-20         0.00000E+00
    0.14957E-16        -0.70289E-20         0.00000E+00
    0.14951E-16        -0.89489E-20         0.00000E+00
    0.14943E-16        -0.11532E-19         0.00000E+00
    0.14938E-16        -0.13921E-19         0.00000E+00
    0.14930E-16        -0.18492E-19         0.00000E+00
    0.14927E-16        -0.22870E-19         0.00000E+00
    0.14926E-16        -0.22938E-19         0.00000E+00
    0.14925E-16        -0.21544E-19         0.00000E+00
    0.14925E-16        -0.20549E-19         0.00000E+00
    0.14925E-16        -0.15909E-19         0.00000E+00
    0.14929E-16        -0.82174E-20         0.00000E+00
    0.14930E-16        -0.38401E-20         0.00000E+00
    0.15201E-16         0.66288E-21         0.00000E+00
    0.15201E-16         0.74738E-28         0.00000E+00
    0.15198E-16        -0.99433E-21         0.00000E+00
    0.15195E-16        -0.27202E-20         0.00000E+00
    0.15189E-16        -0.27202E-20         0.00000E+00
    0.15184E-16        -0.10228E-20         0.00000E+00
    0.15177E-16        -0.45716E-20         0.00000E+00
    0.15170E-16        -0.86175E-20         0.00000E+00
    0.15166E-16        -0.12526E-19         0.00000E+00
    0.15160E-16        -0.18561E-19         0.00000E+00
    0.15157E-16        -0.21281E-19         0.00000E+00
    0.15155E-16        -0.22372E-19         0.00000E+00
    0.15155E-16        -0.19887E-19         0.00000E+00
    0.15156E-16        -0.17304E-19         0.00000E+00
    0.15158E-16        -0.12526E-19         0.00000E+00
    0.15161E-16        -0.71545E-20         0.00000E+00
    0.15398E-16         0.66288E-21         0.00000E+00
    0.15397E-16         0.26515E-20         0.00000E+00
    0.15394E-16         0.23201E-20         0.00000E+00
    0.15389E-16         0.26515E-20         0.00000E+00
    0.15385E-16         0.43087E-20         0.00000E+00
    0.15379E-16         0.26515E-20         0.00000E+00
    0.15375E-16         0.19886E-20         0.00000E+00
    0.15370E-16        -0.26800E-20         0.00000E+00
    0.15366E-16        -0.86175E-20         0.00000E+00
    0.15360E-16        -0.13063E-19         0.00000E+00
    0.15355E-16        -0.16903E-19         0.00000E+00
    0.15351E-16        -0.20384E-19         0.00000E+00
    0.15350E-16        -0.21875E-19         0.00000E+00
    0.15353E-16        -0.18892E-19         0.00000E+00
    0.15352E-16        -0.14252E-19         0.00000E+00
    0.15352E-16        -0.10606E-19         0.00000E+00
    0.15553E-16         0.26515E-20         0.00000E+00
    0.15552E-16         0.37831E-20         0.00000E+00
    0.15550E-16         0.69603E-20         0.00000E+00
    0.15546E-16         0.69888E-20         0.00000E+00
    0.15544E-16         0.75947E-20         0.00000E+00
    0.15539E-16         0.85890E-20         0.00000E+00
    0.15536E-16         0.46402E-20         0.00000E+00
    0.15534E-16         0.10228E-20         0.00000E+00
    0.15530E-16        -0.26515E-20         0.00000E+00
    0.15526E-16        -0.79830E-20         0.00000E+00
    0.15521E-16        -0.12235E-19         0.00000E+00
    0.15517E-16        -0.17566E-19         0.00000E+00
    0.15512E-16        -0.21875E-19         0.00000E+00
    0.15512E-16        -0.19721E-19         0.00000E+00
    0.15511E-16        -0.11297E-19         0.00000E+00
    0.15510E-16        -0.59659E-20         0.00000E+00
    0.15665E-16         0.32575E-20         0.00000E+00
    0.15664E-16         0.53031E-20         0.00000E+00
    0.15665E-16         0.79831E-20         0.00000E+00
    0.15666E-16         0.89204E-20         0.00000E+00
    0.15664E-16         0.10578E-19         0.00000E+00
    0.15664E-16         0.10303E-19         0.00000E+00
    0.15665E-16         0.73201E-20         0.00000E+00
    0.15662E-16         0.39488E-20         0.00000E+00
    0.15660E-16        -0.28482E-22         0.00000E+00
    0.15659E-16        -0.46401E-20         0.00000E+00
    0.15654E-16        -0.82575E-20         0.00000E+00
    0.15651E-16        -0.11572E-19         0.00000E+00
    0.15644E-16        -0.16572E-19         0.00000E+00
    0.15639E-16        -0.17926E-19         0.00000E+00
    0.15637E-16        -0.12595E-19         0.00000E+00
    0.15636E-16        -0.85605E-20         0.00000E+00
    0.15735E-16         0.53031E-20         0.00000E+00
    0.15737E-16         0.46687E-20         0.00000E+00
    0.15740E-16         0.53315E-20         0.00000E+00
    0.15744E-16         0.79546E-20         0.00000E+00
    0.15749E-16         0.89489E-20         0.00000E+00
    0.15755E-16         0.69602E-20         0.00000E+00
    0.15759E-16         0.69602E-20         0.00000E+00
    0.15762E-16         0.62973E-20         0.00000E+00
    0.15764E-16         0.30296E-21         0.00000E+00
    0.15762E-16        -0.26515E-20         0.00000E+00
    0.15759E-16        -0.46401E-20         0.00000E+00
    0.15754E-16        -0.69887E-20         0.00000E+00
    0.15747E-16        -0.96117E-20         0.00000E+00
    0.15738E-16        -0.12595E-19         0.00000E+00
    0.15729E-16        -0.89488E-20         0.00000E+00
    0.15724E-16        -0.53030E-20         0.00000E+00
    0.15758E-16         0.00000E+00         0.00000E+00
    0.15763E-16         0.00000E+00         0.00000E+00
    0.15767E-16         0.00000E+00         0.00000E+00
    0.15773E-16         0.00000E+00         0.00000E+00
    0.15783E-16         0.33144E-21         0.00000E+00
    0.15792E-16         0.00000E+00         0.00000E+00
    0.15797E-16         0.00000E+00         0.00000E+00
    0.15806E-16         0.00000E+00         0.00000E+00
    0.15809E-16         0.00000E+00         0.00000E+00
    0.15806E-16         0.00000E+00         0.00000E+00
    0.15804E-16         0.33144E-21         0.00000E+00
    0.15797E-16        -0.33144E-21         0.00000E+00
    0.15790E-16        -0.33144E-21         0.00000E+00
    0.15778E-16         0.33144E-21         0.00000E+00
    0.15765E-16         0.66287E-21         0.00000E+00
    0.15760E-16         0.00000E+00         0.00000E+00
CELL_DATA        450
TENSORS stressef double 
   -0.20275E+08         0.15415E+03         0.00000E+00
    0.15415E+03        -0.50000E+08         0.00000E+00
    0.00000E+00         0.00000E+00        -0.19962E+08
 
   -0.20248E+08         0.44209E+03         0.00000E+00
    0.44209E+03        -0.49999E+08         0.00000E+00
    0.00000E+00         0.00000E+00        -0.19987E+08
 
   -0.20223E+08         0.70500E+03         0.00000E+00
    0.70500E+03        -0.49998E+08         0.00000E+00
    0.00000E+00         0.00000E+00        -0.20010E+08
 
   -0.20201E+08         0.94420E+03         0.00000E+00
    0.94420E+03        -0.49996E+08         0.00000E+00
    0.00000E+00         0.00000E+00        -0.20030E+08
 
   -0.20180E+08         0.11610E+04         0.00000E+00
    0.11610E+04        -0.49994E+08         0.00000E+00
    0.00000E+00         0.00000E+00        -0.20048E+08
 
   -0.20162E+08         0.13567E+04         0.00000E+00
    0.13567E+04        -0.49992E+08         0.00000E+00
    0.00000E+00         0.00000E+00        -0.20063E+08
 
   -0.20145E+08         0.15327E+04         0.00000E+00
    0.15327E+04        -0.49989E+08         0.00000E+00
    0.00000E+00         0.00000E+00        -0.20076E+08
 
   -0.20131E+08         0.16902E+04         0.00000E+00
    0.16902E+04        -0.49986E+08         0.00000E+00
    0.00000E+00         0.00000E+00        -0.20086E+08
 
   -0.20118E+08         0.18305E+04         0.00000E+00
    0.18305E+04        -0.49982E+08         0.00000E+00
    0.00000E+00         0.00000E+00        -0.20093E+08
 
   -0.20108E+08         0.19550E+04         0.00000E+00
    0.19550E+04        -0.49978E+08         0.00000E+00
    0.00000E+00         0.00000E+00        -0.20099E+08
 
   -0.20100E+08         0.20652E+04         0.00000E+00
    0.20652E+04        -0.49974E+08         0.00000E+00
    0.00000E+00         0.00000E+00        -0.20101E+08
 
   -0.20094E+08         0.21627E+04         0.00000E+00
    0.21627E+04        -0.49970E+08         0.00000E+00
    0.00000E+00         0.00000E+00        -0.20102E+08
 
   -0.20089E+08         0.22494E+04         0.00000E+00
    0.22494E+04        -0.49966E+08         0.00000E+00
    0.00000E+00         0.00000E+00        -0.20101E+08
 
   -0.20087E+08         0.23274E+04         0.00000E+00
    0.23274E+04        -0.49961E+08         0.00000E+00
    0.00000E+00         0.00000E+00        -0.20097E+08
 
   -0.20087E+08         0.23988E+04         0.00000E+00
    0.23988E+04        -0.49956E+08         0.00000E+00
    0.00000E+00         0.00000E+00        -0.20091E+08
 
   -0.20274E+08         0.46635E+03         0.00000E+00
    0.46635E+03        -0.50000E+08         0.00000E+00
    0.00000E+00         0.00000E+00        -0.19962E+08
 
   -0.20248E+08         0.13364E+04         0.00000E+00
    0.13364E+04        -0.49999E+08         0.00000E+00
    0.00000E+00         0.00000E+00        -0.19988E+08
 
   -0.20223E+08         0.21295E+04         0.00000E+00
    0.21295E+04        -0.49998E+08         0.00000E+00
    0.00000E+00         0.00000E+00        -0.20011E+08
 
   -0.20200E+08         0.28498E+04         0.00000E+00
    0.28498E+04        -0.49996E+08         0.00000E+00
    0.00000E+00         0.00000E+00        -0.20031E+08
 
   -0.20180E+08         0.35013E+04         0.00000E+00
    0.35013E+04        -0.49994E+08         0.00000E+00
    0.00000E+00         0.00000E+00        -0.20048E+08
 
   -0.20161E+08         0.40881E+04         0.00000E+00
    0.40881E+04        -0.49991E+08         0.00000E+00
    0.00000E+00         0.00000E+00        -0.20063E+08
 
   -0.20145E+08         0.46149E+04         0.00000E+00
    0.46149E+04        -0.49989E+08         0.00000E+00
    0.00000E+00         0.00000E+00        -0.20076E+08
 
   -0.20130E+08         0.50850E+04         0.00000E+00
    0.50850E+04        -0.49985E+08         0.00000E+00
    0.00000E+00         0.00000E+00        -0.20086E+08
 
   -0.20118E+08         0.55027E+04         0.00000E+00
    0.55027E+04        -0.49982E+08         0.00000E+00
    0.00000E+00         0.00000E+00        -0.20093E+08
 
   -0.20108E+08         0.58724E+04         0.00000E+00
    0.58724E+04        -0.49978E+08         0.00000E+00
    0.00000E+00         0.00000E+00        -0.20098E+08
 
   -0.20100E+08         0.61988E+04         0.00000E+00
    0.61988E+04        -0.49974E+08         0.00000E+00
    0.00000E+00         0.00000E+00        -0.20101E+08
 
   -0.20094E+08         0.64870E+04         0.00000E+00
    0.64870E+04        -0.49970E+08         0.00000E+00
    0.00000E+00         0.00000E+00        -0.20102E+08
 
   -0.20089E+08         0.67427E+04         0.00000E+00
    0.67427E+04        -0.49965E+08         0.00000E+00
    0.00000E+00         0.00000E+00        -0.20100E+08
 
   -0.20087E+08         0.69720E+04         0.00000E+00
    0.69720E+04        -0.49961E+08         0.00000E+00
    0.00000E+00         0.00000E+00        -0.20097E+08
 
   -0.20087E+08         0.71819E+04         0.00000E+00
    0.71819E+04        -0.49956E+08         0.00000E+00
    0.00000E+00         0.00000E+00        -0.20091E+08
 
   -0.20273E+08         0.79020E+03         0.00000E+00
    0.79020E+03        -0.50000E+08         0.00000E+00
    0.00000E+00         0.00000E+00        -0.19964E+08
 
   -0.20246E+08         0.22609E+04         0.00000E+00
    0.22609E+04        -0.49999E+08         0.00000E+00
    0.00000E+00         0.00000E+00        -0.19989E+08
 
   -0.20222E+08         0.35973E+04         0.00000E+00
    0.35973E+04        -0.49998E+08         0.00000E+00
    0.00000E+00         0.00000E+00        -0.20011E+08
 
   -0.20199E+08         0.48067E+04         0.00000E+00
    0.48067E+04        -0.49996E+08         0.00000E+00
    0.00000E+00         0.00000E+00        -0.20031E+08
 
   -0.20179E+08         0.58963E+04         0.00000E+00
    0.58963E+04        -0.49994E+08         0.00000E+00
    0.00000E+00         0.00000E+00        -0.20049E+08
 
   -0.20160E+08         0.68736E+04         0.00000E+00
    0.68736E+04        -0.49991E+08         0.00000E+00
    0.00000E+00         0.00000E+00        -0.20064E+08
 
   -0.20144E+08         0.77466E+04         0.00000E+00
    0.77466E+04        -0.49988E+08         0.00000E+00
    0.00000E+00         0.00000E+00        -0.20076E+08
 
   -0.20130E+08         0.85223E+04         0.00000E+00
    0.85223E+04        -0.49985E+08         0.00000E+00
    0.00000E+00         0.00000E+00        -0.20086E+08
 
   -0.20118E+08         0.92079E+04         0.00000E+00
    0.92079E+04        -0.49981E+08         0.00000E+00
    0.00000E+00         0.00000E+00        -0.20093E+08
 
   -0.20107E+08         0.98115E+04         0.00000E+00
    0.98115E+04        -0.49977E+08         0.00000E+00
    0.00000E+00         0.00000E+00        -0.20098E+08
 
   -0.20099E+08         0.10342E+05         0.00000E+00
    0.10342E+05        -0.49973E+08         0.00000E+00
    0.00000E+00         0.00000E+00        -0.20101E+08
 
   -0.20093E+08         0.10808E+05         0.00000E+00
    0.10808E+05        -0.49969E+08         0.00000E+00
    0.00000E+00         0.00000E+00        -0.20102E+08
 
   -0.20089E+08         0.11219E+05         0.00000E+00
    0.11219E+05        -0.49965E+08         0.00000E+00
    0.00000E+00         0.00000E+00        -0.20100E+08
 
   -0.20087E+08         0.11586E+05         0.00000E+00
    0.11586E+05        -0.49960E+08         0.00000E+00
    0.00000E+00         0.00000E+00        -0.20096E+08
 
   -0.20087E+08         0.11921E+05         0.00000E+00
    0.11921E+05        -0.49956E+08         0.00000E+00
    0.00000E+00         0.00000E+00        -0.20090E+08
 
   -0.20271E+08         0.11333E+04         0.00000E+00
    0.11333E+04        -0.50000E+08         0.00000E+00
    0.00000E+00         0.00000E+00        -0.19965E+08
 
   -0.20245E+08         0.32352E+04         0.00000E+00
    0.32352E+04        -0.49999E+08         0.00000E+00
    0.00000E+00         0.00000E+00        -0.19990E+08
 
   -0.20220E+08         0.51363E+04         0.00000E+00
    0.51363E+04        -0.49998E+08         0.00000E+00
    0.00000E+00         0.00000E+00        -0.20013E+08
 
   -0.20198E+08         0.68479E+04         0.00000E+00
    0.68479E+04        -0.49996E+08         0.00000E+00
    0.00000E+00         0.00000E+00        -0.20032E+08
 
   -0.20178E+08         0.83811E+04         0.00000E+00
    0.83811E+04        -0.49994E+08         0.00000E+00
    0.00000E+00         0.00000E+00        -0.20050E+08
 
   -0.20159E+08         0.97474E+04         0.00000E+00
    0.97474E+04        -0.49991E+08         0.00000E+00
    0.00000E+00         0.00000E+00        -0.20064E+08
 
   -0.20143E+08         0.10959E+05         0.00000E+00
    0.10959E+05        -0.49988E+08         0.00000E+00
    0.00000E+00         0.00000E+00        -0.20076E+08
 
   -0.20129E+08         0.12029E+05         0.00000E+00
    0.12029E+05        -0.49984E+08         0.00000E+00
    0.00000E+00         0.00000E+00        -0.20086E+08
 
   -0.20117E+08         0.12966E+05         0.00000E+00
    0.12966E+05        -0.49981E+08         0.00000E+00
    0.00000E+00         0.00000E+00        -0.20093E+08
 
   -0.20107E+08         0.13785E+05         0.00000E+00
    0.13785E+05        -0.49977E+08         0.00000E+00
    0.00000E+00         0.00000E+00        -0.20098E+08
 
   -0.20099E+08         0.14499E+05         0.00000E+00
    0.14499E+05        -0.49973E+08         0.00000E+00
    0.00000E+00         0.00000E+00        -0.20101E+08
 
   -0.20093E+08         0.15120E+05         0.00000E+00
    0.15120E+05        -0.49968E+08         0.00000E+00
    0.00000E+00         0.00000E+00        -0.20101E+08
 
   -0.20089E+08         0.15664E+05         0.00000E+00
    0.15664E+05        -0.49964E+08         0.00000E+00
    0.00000E+00         0.00000E+00        -0.20099E+08
 
   -0.20086E+08         0.16146E+05         0.00000E+00
    0.16146E+05        -0.49960E+08         0.00000E+00
    0.00000E+00         0.00000E+00        -0.20096E+08
 
   -0.20086E+08         0.16585E+05         0.00000E+00
    0.16585E+05        -0.49955E+08         0.00000E+00
    0.00000E+00         0.00000E+00        -0.20090E+08
 
   -0.20269E+08         0.15029E+04         0.00000E+00
    0.15029E+04        -0.50000E+08         0.00000E+00
    0.00000E+00         0.00000E+00        -0.19968E+08
 
   -0.20242E+08         0.42780E+04         0.00000E+00
    0.42780E+04        -0.49999E+08         0.00000E+00
    0.00000E+00         0.00000E+00        -0.19993E+08
 
   -0.20218E+08         0.67733E+04         0.00000E+00
    0.67733E+04        -0.49998E+08         0.00000E+00
    0.00000E+00         0.00000E+00        -0.20015E+08
 
   -0.20196E+08         0.90048E+04         0.00000E+00
    0.90048E+04        -0.49996E+08         0.00000E+00
    0.00000E+00         0.00000E+00        -0.20034E+08
 
   -0.20176E+08         0.10989E+05         0.00000E+00
    0.10989E+05        -0.49993E+08         0.00000E+00
    0.00000E+00         0.00000E+00        -0.20051E+08
 
   -0.20158E+08         0.12742E+05         0.00000E+00
    0.12742E+05        -0.49990E+08         0.00000E+00
    0.00000E+00         0.00000E+00        -0.20065E+08
 
   -0.20142E+08         0.14282E+05         0.00000E+00
    0.14282E+05        -0.49987E+08         0.00000E+00
    0.00000E+00         0.00000E+00        -0.20076E+08
 
   -0.20128E+08         0.15628E+05         0.00000E+00
    0.15628E+05        -0.49983E+08         0.00000E+00
    0.00000E+00         0.00000E+00        -0.20086E+08
 
   -0.20116E+08         0.16796E+05         0.00000E+00
    0.16796E+05        -0.49980E+08         0.00000E+00
    0.00000E+00         0.00000E+00        -0.20093E+08
 
   -0.20106E+08         0.17804E+05         0.00000E+00
    0.17804E+05        -0.49976E+08         0.00000E+00
    0.00000E+00         0.00000E+00        -0.20098E+08
 
   -0.20098E+08         0.18671E+05         0.00000E+00
    0.18671E+05        -0.49972E+08         0.00000E+00
    0.00000E+00         0.00000E+00        -0.20100E+08
 
   -0.20092E+08         0.19418E+05         0.00000E+00
    0.19418E+05        -0.49967E+08         0.00000E+00
    0.00000E+00         0.00000E+00        -0.20100E+08
 
   -0.20088E+08         0.20063E+05         0.00000E+00
    0.20063E+05        -0.49963E+08         0.00000E+00
    0.00000E+00         0.00000E+00        -0.20099E+08
 
   -0.20086E+08         0.20629E+05         0.00000E+00
    0.20629E+05        -0.49959E+08         0.00000E+00
    0.00000E+00         0.00000E+00        -0.20095E+08
 
   -0.20086E+08         0.21139E+05         0.00000E+00
    0.21139E+05        -0.49954E+08         0.00000E+00
    0.00000E+00         0.00000E+00        -0.20089E+08
 
   -0.20265E+08         0.19058E+04         0.00000E+00
    0.19058E+04        -0.50000E+08         0.00000E+00
    0.00000E+00         0.00000E+00        -0.19971E+08
 
   -0.20239E+08         0.54068E+04         0.00000E+00
    0.54068E+04        -0.49999E+08         0.00000E+00
    0.00000E+00         0.00000E+00        -0.19995E+08
 
   -0.20216E+08         0.85329E+04         0.00000E+00
    0.85329E+04        -0.49997E+08         0.00000E+00
    0.00000E+00         0.00000E+00        -0.20017E+08
 
   -0.20194E+08         0.11306E+05         0.00000E+00
    0.11306E+05        -0.49995E+08         0.00000E+00
    0.00000E+00         0.00000E+00        -0.20036E+08
 
   -0.20174E+08         0.13749E+05         0.00000E+00
    0.13749E+05        -0.49993E+08         0.00000E+00
    0.00000E+00         0.00000E+00        -0.20052E+08
 
   -0.20156E+08         0.15886E+05         0.00000E+00
    0.15886E+05        -0.49990E+08         0.00000E+00
    0.00000E+00         0.00000E+00        -0.20066E+08
 
   -0.20140E+08         0.17741E+05         0.00000E+00
    0.17741E+05        -0.49986E+08         0.00000E+00
    0.00000E+00         0.00000E+00        -0.20077E+08
 
   -0.20126E+08         0.19342E+05         0.00000E+00
    0.19342E+05        -0.49983E+08         0.00000E+00
    0.00000E+00         0.00000E+00        -0.20086E+08
 
   -0.20115E+08         0.20711E+05         0.00000E+00
    0.20711E+05        -0.49979E+08         0.00000E+00
    0.00000E+00         0.00000E+00        -0.20093E+08
 
   -0.20105E+08         0.21874E+05         0.00000E+00
    0.21874E+05        -0.49975E+08         0.00000E+00
    0.00000E+00         0.00000E+00        -0.20097E+08
 
   -0.20097E+08         0.22859E+05         0.00000E+00
    0.22859E+05        -0.49970E+08         0.00000E+00
    0.00000E+00         0.00000E+00        -0.20099E+08
 
   -0.20091E+08         0.23690E+05         0.00000E+00
    0.23690E+05        -0.49966E+08         0.00000E+00
    0.00000E+00         0.00000E+00        -0.20100E+08
 
   -0.20087E+08         0.24395E+05         0.00000E+00
    0.24395E+05        -0.49962E+08         0.00000E+00
    0.00000E+00         0.00000E+00        -0.20098E+08
 
   -0.20085E+08         0.25004E+05         0.00000E+00
    0.25004E+05        -0.49958E+08         0.00000E+00
    0.00000E+00         0.00000E+00        -0.20094E+08
 
   -0.20085E+08         0.25547E+05         0.00000E+00
    0.25547E+05        -0.49953E+08         0.00000E+00
    0.00000E+00         0.00000E+00        -0.20089E+08
 
   -0.20261E+08         0.23482E+04         0.00000E+00
    0.23482E+04        -0.50000E+08         0.00000E+00
    0.00000E+00         0.00000E+00        -0.19975E+08
 
   -0.20236E+08         0.66370E+04         0.00000E+00
    0.66370E+04        -0.49999E+08         0.00000E+00
    0.00000E+00         0.00000E+00        -0.19999E+08
 
   -0.20212E+08         0.10437E+05         0.00000E+00
    0.10437E+05        -0.49997E+08         0.00000E+00
    0.00000E+00         0.00000E+00        -0.20020E+08
 
   -0.20191E+08         0.13777E+05         0.00000E+00
    0.13777E+05        -0.49995E+08         0.00000E+00
    0.00000E+00         0.00000E+00        -0.20038E+08
 
   -0.20171E+08         0.16688E+05         0.00000E+00
    0.16688E+05        -0.49992E+08         0.00000E+00
    0.00000E+00         0.00000E+00        -0.20054E+08
 
   -0.20154E+08         0.19204E+05         0.00000E+00
    0.19204E+05        -0.49989E+08         0.00000E+00
    0.00000E+00         0.00000E+00        -0.20067E+08
 
   -0.20138E+08         0.21357E+05         0.00000E+00
    0.21357E+05        -0.49985E+08         0.00000E+00
    0.00000E+00         0.00000E+00        -0.20078E+08
 
   -0.20125E+08         0.23185E+05         0.00000E+00
    0.23185E+05        -0.49981E+08         0.00000E+00
    0.00000E+00         0.00000E+00        -0.20086E+08
 
   -0.20113E+08         0.24721E+05         0.00000E+00
    0.24721E+05        -0.49977E+08         0.00000E+00
    0.00000E+00         0.00000E+00        -0.20092E+08
 
   -0.20104E+08         0.25999E+05         0.00000E+00
    0.25999E+05        -0.49973E+08         0.00000E+00
    0.00000E+00         0.00000E+00        -0.20096E+08
 
   -0.20096E+08         0.27054E+05         0.00000E+00
    0.27054E+05        -0.49969E+08         0.00000E+00
    0.00000E+00         0.00000E+00        -0.20099E+08
 
   -0.20090E+08         0.27922E+05         0.00000E+00
    0.27922E+05        -0.49965E+08         0.00000E+00
    0.00000E+00         0.00000E+00        -0.20099E+08
 
   -0.20087E+08         0.28637E+05         0.00000E+00
    0.28637E+05        -0.49961E+08         0.00000E+00
    0.00000E+00         0.00000E+00        -0.20097E+08
 
   -0.20085E+08         0.29237E+05         0.00000E+00
    0.29237E+05        -0.49957E+08         0.00000E+00
    0.00000E+00         0.00000E+00        -0.20094E+08
 
   -0.20085E+08         0.29764E+05         0.00000E+00
    0.29764E+05        -0.49953E+08         0.00000E+00
    0.00000E+00         0.00000E+00        -0.20088E+08
 
   -0.20256E+08         0.28351E+04         0.00000E+00
    0.28351E+04        -0.50000E+08         0.00000E+00
    0.00000E+00         0.00000E+00        -0.19980E+08
 
   -0.20231E+08         0.79817E+04         0.00000E+00
    0.79817E+04        -0.49999E+08         0.00000E+00
    0.00000E+00         0.00000E+00        -0.20003E+08
 
   -0.20208E+08         0.12503E+05         0.00000E+00
    0.12503E+05        -0.49997E+08         0.00000E+00
    0.00000E+00         0.00000E+00        -0.20023E+08
 
   -0.20187E+08         0.16438E+05         0.00000E+00
    0.16438E+05        -0.49994E+08         0.00000E+00
    0.00000E+00         0.00000E+00        -0.20041E+08
 
   -0.20168E+08         0.19827E+05         0.00000E+00
    0.19827E+05        -0.49991E+08         0.00000E+00
    0.00000E+00         0.00000E+00        -0.20056E+08
 
   -0.20151E+08         0.22715E+05         0.00000E+00
    0.22715E+05        -0.49988E+08         0.00000E+00
    0.00000E+00         0.00000E+00        -0.20068E+08
 
   -0.20136E+08         0.25147E+05         0.00000E+00
    0.25147E+05        -0.49984E+08         0.00000E+00
    0.00000E+00         0.00000E+00        -0.20078E+08
 
   -0.20123E+08         0.27170E+05         0.00000E+00
    0.27170E+05        -0.49980E+08         0.00000E+00
    0.00000E+00         0.00000E+00        -0.20086E+08
 
   -0.20112E+08         0.28832E+05         0.00000E+00
    0.28832E+05        -0.49976E+08         0.00000E+00
    0.00000E+00         0.00000E+00        -0.20092E+08
 
   -0.20103E+08         0.30176E+05         0.00000E+00
    0.30176E+05        -0.49972E+08         0.00000E+00
    0.00000E+00         0.00000E+00        -0.20096E+08
 
   -0.20095E+08         0.31248E+05         0.00000E+00
    0.31248E+05        -0.49968E+08         0.00000E+00
    0.00000E+00         0.00000E+00        -0.20098E+08
 
   -0.20090E+08         0.32093E+05         0.00000E+00
    0.32093E+05        -0.49964E+08         0.00000E+00
    0.00000E+00         0.00000E+00        -0.20098E+08
 
   -0.20086E+08         0.32758E+05         0.00000E+00
    0.32758E+05        -0.49960E+08         0.00000E+00
    0.00000E+00         0.00000E+00        -0.20096E+08
 
   -0.20084E+08         0.33290E+05         0.00000E+00
    0.33290E+05        -0.49956E+08         0.00000E+00
    0.00000E+00         0.00000E+00        -0.20093E+08
 
   -0.20084E+08         0.33741E+05         0.00000E+00
    0.33741E+05        -0.49952E+08         0.00000E+00
    0.00000E+00         0.00000E+00        -0.20088E+08
 
   -0.20250E+08         0.33703E+04         0.00000E+00
    0.33703E+04        -0.50000E+08         0.00000E+00
    0.00000E+00         0.00000E+00        -0.19986E+08
 
   -0.20226E+08         0.94501E+04         0.00000E+00
    0.94501E+04        -0.49999E+08         0.00000E+00
    0.00000E+00         0.00000E+00        -0.20008E+08
 
   -0.20204E+08         0.14745E+05         0.00000E+00
    0.14745E+05        -0.49997E+08         0.00000E+00
    0.00000E+00         0.00000E+00        -0.20028E+08
 
   -0.20183E+08         0.19303E+05         0.00000E+00
    0.19303E+05        -0.49994E+08         0.00000E+00
    0.00000E+00         0.00000E+00        -0.20044E+08
 
   -0.20165E+08         0.23180E+05         0.00000E+00
    0.23180E+05        -0.49991E+08         0.00000E+00
    0.00000E+00         0.00000E+00        -0.20058E+08
 
   -0.20149E+08         0.26432E+05         0.00000E+00
    0.26432E+05        -0.49987E+08         0.00000E+00
    0.00000E+00         0.00000E+00        -0.20070E+08
 
   -0.20134E+08         0.29119E+05         0.00000E+00
    0.29119E+05        -0.49983E+08         0.00000E+00
    0.00000E+00         0.00000E+00        -0.20079E+08
 
   -0.20121E+08         0.31302E+05         0.00000E+00
    0.31302E+05        -0.49979E+08         0.00000E+00
    0.00000E+00         0.00000E+00        -0.20087E+08
 
   -0.20110E+08         0.33041E+05         0.00000E+00
    0.33041E+05        -0.49975E+08         0.00000E+00
    0.00000E+00         0.00000E+00        -0.20092E+08
 
   -0.20101E+08         0.34395E+05         0.00000E+00
    0.34395E+05        -0.49970E+08         0.00000E+00
    0.00000E+00         0.00000E+00        -0.20095E+08
 
   -0.20094E+08         0.35422E+05         0.00000E+00
    0.35422E+05        -0.49966E+08         0.00000E+00
    0.00000E+00         0.00000E+00        -0.20097E+08
 
   -0.20089E+08         0.36178E+05         0.00000E+00
    0.36178E+05        -0.49962E+08         0.00000E+00
    0.00000E+00         0.00000E+00        -0.20097E+08
 
   -0.20086E+08         0.36723E+05         0.00000E+00
    0.36723E+05        -0.49958E+08         0.00000E+00
    0.00000E+00         0.00000E+00        -0.20095E+08
 
   -0.20084E+08         0.37116E+05         0.00000E+00
    0.37116E+05        -0.49955E+08         0.00000E+00
    0.00000E+00         0.00000E+00        -0.20092E+08
 
   -0.20084E+08         0.37421E+05         0.00000E+00
    0.37421E+05        -0.49951E+08         0.00000E+00
    0.00000E+00         0.00000E+00        -0.20087E+08
 
   -0.20243E+08         0.39559E+04         0.00000E+00
    0.39559E+04        -0.50000E+08         0.00000E+00
    0.00000E+00         0.00000E+00        -0.19993E+08
 
   -0.20220E+08         0.11047E+05         0.00000E+00
    0.11047E+05        -0.49998E+08         0.00000E+00
    0.00000E+00         0.00000E+00        -0.20014E+08
 
   -0.20199E+08         0.17168E+05         0.00000E+00
    0.17168E+05        -0.49996E+08         0.00000E+00
    0.00000E+00         0.00000E+00        -0.20032E+08
 
   -0.20179E+08         0.22381E+05         0.00000E+00
    0.22381E+05        -0.49993E+08         0.00000E+00
    0.00000E+00         0.00000E+00        -0.20048E+08
 
   -0.20161E+08         0.26755E+05         0.00000E+00
    0.26755E+05        -0.49990E+08         0.00000E+00
    0.00000E+00         0.00000E+00        -0.20061E+08
 
   -0.20145E+08         0.30361E+05         0.00000E+00
    0.30361E+05        -0.49986E+08         0.00000E+00
    0.00000E+00         0.00000E+00        -0.20072E+08
 
   -0.20131E+08         0.33277E+05         0.00000E+00
    0.33277E+05        -0.49982E+08         0.00000E+00
    0.00000E+00         0.00000E+00        -0.20080E+08
 
   -0.20119E+08         0.35578E+05         0.00000E+00
    0.35578E+05        -0.49978E+08         0.00000E+00
    0.00000E+00         0.00000E+00        -0.20087E+08
 
   -0.20109E+08         0.37343E+05         0.00000E+00
    0.37343E+05        -0.49973E+08         0.00000E+00
    0.00000E+00         0.00000E+00        -0.20092E+08
 
   -0.20100E+08         0.38643E+05         0.00000E+00
    0.38643E+05        -0.49969E+08         0.00000E+00
    0.00000E+00         0.00000E+00        -0.20094E+08
 
   -0.20093E+08         0.39553E+05         0.00000E+00
    0.39553E+05        -0.49965E+08         0.00000E+00
    0.00000E+00         0.00000E+00        -0.20096E+08
 
   -0.20088E+08         0.40143E+05         0.00000E+00
    0.40143E+05        -0.49961E+08         0.00000E+00
    0.00000E+00         0.00000E+00        -0.20096E+08
 
   -0.20085E+08         0.40487E+05         0.00000E+00
    0.40487E+05        -0.49957E+08         0.00000E+00
    0.00000E+00         0.00000E+00        -0.20094E+08
 
   -0.20084E+08         0.40659E+05         0.00000E+00
    0.40659E+05        -0.49954E+08         0.00000E+00
    0.00000E+00         0.00000E+00        -0.20091E+08
 
   -0.20084E+08         0.40740E+05         0.00000E+00
    0.40740E+05        -0.49950E+08         0.00000E+00
    0.00000E+00         0.00000E+00        -0.20087E+08
 
   -0.20235E+08         0.45916E+04         0.00000E+00
    0.45916E+04        -0.50000E+08         0.00000E+00
    0.00000E+00         0.00000E+00        -0.20001E+08
 
   -0.20213E+08         0.12773E+05         0.00000E+00
    0.12773E+05        -0.49998E+08         0.00000E+00
    0.00000E+00         0.00000E+00        -0.20021E+08
 
   -0.20192E+08         0.19773E+05         0.00000E+00
    0.19773E+05        -0.49996E+08         0.00000E+00
    0.00000E+00         0.00000E+00        -0.20038E+08
 
   -0.20174E+08         0.25670E+05         0.00000E+00
    0.25670E+05        -0.49993E+08         0.00000E+00
    0.00000E+00         0.00000E+00        -0.20053E+08
 
   -0.20157E+08         0.30548E+05         0.00000E+00
    0.30548E+05        -0.49989E+08         0.00000E+00
    0.00000E+00         0.00000E+00        -0.20064E+08
 
   -0.20142E+08         0.34499E+05         0.00000E+00
    0.34499E+05        -0.49985E+08         0.00000E+00
    0.00000E+00         0.00000E+00        -0.20074E+08
 
   -0.20129E+08         0.37614E+05         0.00000E+00
    0.37614E+05        -0.49981E+08         0.00000E+00
    0.00000E+00         0.00000E+00        -0.20082E+08
 
   -0.20117E+08         0.39990E+05         0.00000E+00
    0.39990E+05        -0.49976E+08         0.00000E+00
    0.00000E+00         0.00000E+00        -0.20087E+08
 
   -0.20107E+08         0.41720E+05         0.00000E+00
    0.41720E+05        -0.49972E+08         0.00000E+00
    0.00000E+00         0.00000E+00        -0.20091E+08
 
   -0.20099E+08         0.42897E+05         0.00000E+00
    0.42897E+05        -0.49968E+08         0.00000E+00
    0.00000E+00         0.00000E+00        -0.20094E+08
 
   -0.20093E+08         0.43609E+05         0.00000E+00
    0.43609E+05        -0.49964E+08         0.00000E+00
    0.00000E+00         0.00000E+00        -0.20095E+08
 
   -0.20088E+08         0.43945E+05         0.00000E+00
    0.43945E+05        -0.49960E+08         0.00000E+00
    0.00000E+00         0.00000E+00        -0.20094E+08
 
   -0.20085E+08         0.43997E+05         0.00000E+00
    0.43997E+05        -0.49956E+08         0.00000E+00
    0.00000E+00         0.00000E+00        -0.20093E+08
 
   -0.20084E+08         0.43856E+05         0.00000E+00
    0.43856E+05        -0.49953E+08         0.00000E+00
    0.00000E+00         0.00000E+00        -0.20090E+08
 
   -0.20084E+08         0.43621E+05         0.00000E+00
    0.43621E+05        -0.49950E+08         0.00000E+00
    0.00000E+00         0.00000E+00        -0.20086E+08
 
   -0.20226E+08         0.52745E+04         0.00000E+00
    0.52745E+04        -0.49999E+08         0.00000E+00
    0.00000E+00         0.00000E+00        -0.20010E+08
 
   -0.20205E+08         0.14619E+05         0.00000E+00
    0.14619E+05        -0.49998E+08         0.00000E+00
    0.00000E+00         0.00000E+00        -0.20029E+08
 
   -0.20186E+08         0.22549E+05         0.00000E+00
    0.22549E+05        -0.49996E+08         0.00000E+00
    0.00000E+00         0.00000E+00        -0.20045E+08
 
   -0.20168E+08         0.29159E+05         0.00000E+00
    0.29159E+05        -0.49993E+08         0.00000E+00
    0.00000E+00         0.00000E+00        -0.20058E+08
 
   -0.20152E+08         0.34550E+05         0.00000E+00
    0.34550E+05        -0.49989E+08         0.00000E+00
    0.00000E+00         0.00000E+00        -0.20068E+08
 
   -0.20138E+08         0.38832E+05         0.00000E+00
    0.38832E+05        -0.49984E+08         0.00000E+00
    0.00000E+00         0.00000E+00        -0.20077E+08
 
   -0.20126E+08         0.42117E+05         0.00000E+00
    0.42117E+05        -0.49980E+08         0.00000E+00
    0.00000E+00         0.00000E+00        -0.20083E+08
 
   -0.20115E+08         0.44518E+05         0.00000E+00
    0.44518E+05        -0.49975E+08         0.00000E+00
    0.00000E+00         0.00000E+00        -0.20088E+08
 
   -0.20106E+08         0.46150E+05         0.00000E+00
    0.46150E+05        -0.49971E+08         0.00000E+00
    0.00000E+00         0.00000E+00        -0.20091E+08
 
   -0.20098E+08         0.47124E+05         0.00000E+00
    0.47124E+05        -0.49967E+08         0.00000E+00
    0.00000E+00         0.00000E+00        -0.20093E+08
 
   -0.20092E+08         0.47549E+05         0.00000E+00
    0.47549E+05        -0.49963E+08         0.00000E+00
    0.00000E+00         0.00000E+00        -0.20094E+08
 
   -0.20088E+08         0.47534E+05         0.00000E+00
    0.47534E+05        -0.49959E+08         0.00000E+00
    0.00000E+00         0.00000E+00        -0.20093E+08
 
   -0.20085E+08         0.47190E+05         0.00000E+00
    0.47190E+05        -0.49956E+08         0.00000E+00
    0.00000E+00         0.00000E+00        -0.20092E+08
 
   -0.20084E+08         0.46633E+05         0.00000E+00
    0.46633E+05        -0.49953E+08         0.00000E+00
    0.00000E+00         0.00000E+00        -0.20090E+08
 
   -0.20084E+08         0.45983E+05         0.00000E+00
    0.45983E+05        -0.49951E+08         0.00000E+00
    0.00000E+00         0.00000E+00        -0.20086E+08
 
   -0.20215E+08         0.59983E+04         0.00000E+00
    0.59983E+04        -0.49999E+08         0.00000E+00
    0.00000E+00         0.00000E+00        -0.20020E+08
 
   -0.20196E+08         0.16570E+05         0.00000E+00
    0.16570E+05        -0.49998E+08         0.00000E+00
    0.00000E+00         0.00000E+00        -0.20038E+08
 
   -0.20178E+08         0.25477E+05         0.00000E+00
    0.25477E+05        -0.49996E+08         0.00000E+00
    0.00000E+00         0.00000E+00        -0.20052E+08
 
   -0.20162E+08         0.32827E+05         0.00000E+00
    0.32827E+05        -0.49992E+08         0.00000E+00
    0.00000E+00         0.00000E+00        -0.20063E+08
 
   -0.20147E+08         0.38738E+05         0.00000E+00
    0.38738E+05        -0.49988E+08         0.00000E+00
    0.00000E+00         0.00000E+00        -0.20073E+08
 
   -0.20134E+08         0.43338E+05         0.00000E+00
    0.43338E+05        -0.49984E+08         0.00000E+00
    0.00000E+00         0.00000E+00        -0.20080E+08
 
   -0.20123E+08         0.46759E+05         0.00000E+00
    0.46759E+05        -0.49979E+08         0.00000E+00
    0.00000E+00         0.00000E+00        -0.20085E+08
 
   -0.20113E+08         0.49135E+05         0.00000E+00
    0.49135E+05        -0.49974E+08         0.00000E+00
    0.00000E+00         0.00000E+00        -0.20089E+08
 
   -0.20105E+08         0.50598E+05         0.00000E+00
    0.50598E+05        -0.49970E+08         0.00000E+00
    0.00000E+00         0.00000E+00        -0.20091E+08
 
   -0.20098E+08         0.51283E+05         0.00000E+00
    0.51283E+05        -0.49966E+08         0.00000E+00
    0.00000E+00         0.00000E+00        -0.20092E+08
 
   -0.20092E+08         0.51320E+05         0.00000E+00
    0.51320E+05        -0.49962E+08         0.00000E+00
    0.00000E+00         0.00000E+00        -0.20093E+08
 
   -0.20089E+08         0.50845E+05         0.00000E+00
    0.50845E+05        -0.49958E+08         0.00000E+00
    0.00000E+00         0.00000E+00        -0.20092E+08
 
   -0.20086E+08         0.49994E+05         0.00000E+00
    0.49994E+05        -0.49956E+08         0.00000E+00
    0.00000E+00         0.00000E+00        -0.20091E+08
 
   -0.20085E+08         0.48908E+05         0.00000E+00
    0.48908E+05        -0.49953E+08         0.00000E+00
    0.00000E+00         0.00000E+00        -0.20089E+08
 
   -0.20085E+08         0.47731E+05         0.00000E+00
    0.47731E+05        -0.49952E+08         0.00000E+00
    0.00000E+00         0.00000E+00        -0.20087E+08
 
   -0.20203E+08         0.67536E+04         0.00000E+00
    0.67536E+04        -0.49999E+08         0.00000E+00
    0.00000E+00         0.00000E+00        -0.20032E+08
 
   -0.20185E+08         0.18604E+05         0.00000E+00
    0.18604E+05        -0.49998E+08         0.00000E+00
    0.00000E+00         0.00000E+00        -0.20048E+08
 
   -0.20169E+08         0.28525E+05         0.00000E+00
    0.28525E+05        -0.49995E+08         0.00000E+00
    0.00000E+00         0.00000E+00        -0.20060E+08
 
   -0.20155E+08         0.36638E+05         0.00000E+00
    0.36638E+05        -0.49992E+08         0.00000E+00
    0.00000E+00         0.00000E+00        -0.20070E+08
 
   -0.20142E+08         0.43076E+05         0.00000E+00
    0.43076E+05        -0.49988E+08         0.00000E+00
    0.00000E+00         0.00000E+00        -0.20078E+08
 
   -0.20130E+08         0.47982E+05         0.00000E+00
    0.47982E+05        -0.49983E+08         0.00000E+00
    0.00000E+00         0.00000E+00        -0.20083E+08
 
   -0.20120E+08         0.51505E+05         0.00000E+00
    0.51505E+05        -0.49979E+08         0.00000E+00
    0.00000E+00         0.00000E+00        -0.20087E+08
 
   -0.20111E+08         0.53798E+05         0.00000E+00
    0.53798E+05        -0.49974E+08         0.00000E+00
    0.00000E+00         0.00000E+00        -0.20090E+08
 
   -0.20104E+08         0.55016E+05         0.00000E+00
    0.55016E+05        -0.49969E+08         0.00000E+00
    0.00000E+00         0.00000E+00        -0.20091E+08
 
   -0.20098E+08         0.55316E+05         0.00000E+00
    0.55316E+05        -0.49965E+08         0.00000E+00
    0.00000E+00         0.00000E+00        -0.20092E+08
 
   -0.20093E+08         0.54858E+05         0.00000E+00
    0.54858E+05        -0.49961E+08         0.00000E+00
    0.00000E+00         0.00000E+00        -0.20092E+08
 
   -0.20089E+08         0.53804E+05         0.00000E+00
    0.53804E+05        -0.49958E+08         0.00000E+00
    0.00000E+00         0.00000E+00        -0.20091E+08
 
   -0.20087E+08         0.52323E+05         0.00000E+00
    0.52323E+05        -0.49956E+08         0.00000E+00
    0.00000E+00         0.00000E+00        -0.20090E+08
 
   -0.20086E+08         0.50586E+05         0.00000E+00
    0.50586E+05        -0.49954E+08         0.00000E+00
    0.00000E+00         0.00000E+00        -0.20089E+08
 
   -0.20086E+08         0.48767E+05         0.00000E+00
    0.48767E+05        -0.49953E+08         0.00000E+00
    0.00000E+00         0.00000E+00        -0.20088E+08
 
   -0.20189E+08         0.75273E+04         0.00000E+00
    0.75273E+04        -0.49999E+08         0.00000E+00
    0.00000E+00         0.00000E+00        -0.20046E+08
 
   -0.20174E+08         0.20687E+05         0.00000E+00
    0.20687E+05        -0.49998E+08         0.00000E+00
    0.00000E+00         0.00000E+00        -0.20059E+08
 
   -0.20160E+08         0.31651E+05         0.00000E+00
    0.31651E+05        -0.49995E+08         0.00000E+00
    0.00000E+00         0.00000E+00        -0.20070E+08
 
   -0.20147E+08         0.40547E+05         0.00000E+00
    0.40547E+05        -0.49992E+08         0.00000E+00
    0.00000E+00         0.00000E+00        -0.20077E+08
 
   -0.20136E+08         0.47517E+05         0.00000E+00
    0.47517E+05        -0.49988E+08         0.00000E+00
    0.00000E+00         0.00000E+00        -0.20083E+08
 
   -0.20126E+08         0.52715E+05         0.00000E+00
    0.52715E+05        -0.49983E+08         0.00000E+00
    0.00000E+00         0.00000E+00        -0.20087E+08
 
   -0.20117E+08         0.56304E+05         0.00000E+00
    0.56304E+05        -0.49978E+08         0.00000E+00
    0.00000E+00         0.00000E+00        -0.20090E+08
 
   -0.20110E+08         0.58453E+05         0.00000E+00
    0.58453E+05        -0.49973E+08         0.00000E+00
    0.00000E+00         0.00000E+00        -0.20091E+08
 
   -0.20103E+08         0.59342E+05         0.00000E+00
    0.59342E+05        -0.49969E+08         0.00000E+00
    0.00000E+00         0.00000E+00        -0.20092E+08
 
   -0.20098E+08         0.59153E+05         0.00000E+00
    0.59153E+05        -0.49965E+08         0.00000E+00
    0.00000E+00         0.00000E+00        -0.20092E+08
 
   -0.20094E+08         0.58080E+05         0.00000E+00
    0.58080E+05        -0.49962E+08         0.00000E+00
    0.00000E+00         0.00000E+00        -0.20091E+08
 
   -0.20091E+08         0.56321E+05         0.00000E+00
    0.56321E+05        -0.49959E+08         0.00000E+00
    0.00000E+00         0.00000E+00        -0.20091E+08
 
   -0.20089E+08         0.54082E+05         0.00000E+00
    0.54082E+05        -0.49957E+08         0.00000E+00
    0.00000E+00         0.00000E+00        -0.20090E+08
 
   -0.20088E+08         0.51570E+05         0.00000E+00
    0.51570E+05        -0.49956E+08         0.00000E+00
    0.00000E+00         0.00000E+00        -0.20090E+08
 
   -0.20089E+08         0.48988E+05         0.00000E+00
    0.48988E+05        -0.49956E+08         0.00000E+00
    0.00000E+00         0.00000E+00        -0.20089E+08
 
   -0.20174E+08         0.83037E+04         0.00000E+00
    0.83037E+04        -0.49999E+08         0.00000E+00
    0.00000E+00         0.00000E+00        -0.20061E+08
 
   -0.20161E+08         0.22782E+05         0.00000E+00
    0.22782E+05        -0.49998E+08         0.00000E+00
    0.00000E+00         0.00000E+00        -0.20072E+08
 
   -0.20150E+08         0.34802E+05         0.00000E+00
    0.34802E+05        -0.49995E+08         0.00000E+00
    0.00000E+00         0.00000E+00        -0.20080E+08
 
   -0.20139E+08         0.44493E+05         0.00000E+00
    0.44493E+05        -0.49992E+08         0.00000E+00
    0.00000E+00         0.00000E+00        -0.20086E+08
 
   -0.20130E+08         0.51997E+05         0.00000E+00
    0.51997E+05        -0.49988E+08         0.00000E+00
    0.00000E+00         0.00000E+00        -0.20089E+08
 
   -0.20122E+08         0.57472E+05         0.00000E+00
    0.57472E+05        -0.49983E+08         0.00000E+00
    0.00000E+00         0.00000E+00        -0.20092E+08
 
   -0.20114E+08         0.61086E+05         0.00000E+00
    0.61086E+05        -0.49978E+08         0.00000E+00
    0.00000E+00         0.00000E+00        -0.20093E+08
 
   -0.20108E+08         0.63026E+05         0.00000E+00
    0.63026E+05        -0.49974E+08         0.00000E+00
    0.00000E+00         0.00000E+00        -0.20093E+08
 
   -0.20103E+08         0.63492E+05         0.00000E+00
    0.63492E+05        -0.49969E+08         0.00000E+00
    0.00000E+00         0.00000E+00        -0.20092E+08
 
   -0.20099E+08         0.62702E+05         0.00000E+00
    0.62702E+05        -0.49966E+08         0.00000E+00
    0.00000E+00         0.00000E+00        -0.20091E+08
 
   -0.20096E+08         0.60887E+05         0.00000E+00
    0.60887E+05        -0.49963E+08         0.00000E+00
    0.00000E+00         0.00000E+00        -0.20091E+08
 
   -0.20094E+08         0.58293E+05         0.00000E+00
    0.58293E+05        -0.49961E+08         0.00000E+00
    0.00000E+00         0.00000E+00        -0.20090E+08
 
   -0.20092E+08         0.55168E+05         0.00000E+00
    0.55168E+05        -0.49959E+08         0.00000E+00
    0.00000E+00         0.00000E+00        -0.20090E+08
 
   -0.20091E+08         0.51759E+05         0.00000E+00
    0.51759E+05        -0.49959E+08         0.00000E+00
    0.00000E+00         0.00000E+00        -0.20091E+08
 
   -0.20092E+08         0.48298E+05         0.00000E+00
    0.48298E+05        -0.49960E+08         0.00000E+00
    0.00000E+00         0.00000E+00        -0.20091E+08
 
   -0.20158E+08         0.90652E+04         0.00000E+00
    0.90652E+04        -0.50000E+08         0.00000E+00
    0.00000E+00         0.00000E+00        -0.20077E+08
 
   -0.20147E+08         0.24844E+05         0.00000E+00
    0.24844E+05        -0.49998E+08         0.00000E+00
    0.00000E+00         0.00000E+00        -0.20086E+08
 
   -0.20138E+08         0.37915E+05         0.00000E+00
    0.37915E+05        -0.49996E+08         0.00000E+00
    0.00000E+00         0.00000E+00        -0.20091E+08
 
   -0.20130E+08         0.48401E+05         0.00000E+00
    0.48401E+05        -0.49992E+08         0.00000E+00
    0.00000E+00         0.00000E+00        -0.20095E+08
 
   -0.20123E+08         0.56436E+05         0.00000E+00
    0.56436E+05        -0.49988E+08         0.00000E+00
    0.00000E+00         0.00000E+00        -0.20097E+08
 
   -0.20117E+08         0.62166E+05         0.00000E+00
    0.62166E+05        -0.49983E+08         0.00000E+00
    0.00000E+00         0.00000E+00        -0.20097E+08
 
   -0.20112E+08         0.65761E+05         0.00000E+00
    0.65761E+05        -0.49979E+08         0.00000E+00
    0.00000E+00         0.00000E+00        -0.20096E+08
 
   -0.20107E+08         0.67417E+05         0.00000E+00
    0.67417E+05        -0.49974E+08         0.00000E+00
    0.00000E+00         0.00000E+00        -0.20095E+08
 
   -0.20104E+08         0.67360E+05         0.00000E+00
    0.67360E+05        -0.49970E+08         0.00000E+00
    0.00000E+00         0.00000E+00        -0.20093E+08
 
   -0.20101E+08         0.65848E+05         0.00000E+00
    0.65848E+05        -0.49967E+08         0.00000E+00
    0.00000E+00         0.00000E+00        -0.20092E+08
 
   -0.20098E+08         0.63162E+05         0.00000E+00
    0.63162E+05        -0.49965E+08         0.00000E+00
    0.00000E+00         0.00000E+00        -0.20091E+08
 
   -0.20097E+08         0.59603E+05         0.00000E+00
    0.59603E+05        -0.49963E+08         0.00000E+00
    0.00000E+00         0.00000E+00        -0.20090E+08
 
   -0.20096E+08         0.55474E+05         0.00000E+00
    0.55474E+05        -0.49963E+08         0.00000E+00
    0.00000E+00         0.00000E+00        -0.20091E+08
 
   -0.20095E+08         0.51058E+05         0.00000E+00
    0.51058E+05        -0.49964E+08         0.00000E+00
    0.00000E+00         0.00000E+00        -0.20092E+08
 
   -0.20095E+08         0.46615E+05         0.00000E+00
    0.46615E+05        -0.49965E+08         0.00000E+00
    0.00000E+00         0.00000E+00        -0.20094E+08
 
   -0.20140E+08         0.97946E+04         0.00000E+00
    0.97946E+04        -0.50000E+08         0.00000E+00
    0.00000E+00         0.00000E+00        -0.20095E+08
 
   -0.20132E+08         0.26825E+05         0.00000E+00
    0.26825E+05        -0.49998E+08         0.00000E+00
    0.00000E+00         0.00000E+00        -0.20101E+08
 
   -0.20126E+08         0.40920E+05         0.00000E+00
    0.40920E+05        -0.49996E+08         0.00000E+00
    0.00000E+00         0.00000E+00        -0.20104E+08
 
   -0.20121E+08         0.52185E+05         0.00000E+00
    0.52185E+05        -0.49992E+08         0.00000E+00
    0.00000E+00         0.00000E+00        -0.20105E+08
 
   -0.20116E+08         0.60731E+05         0.00000E+00
    0.60731E+05        -0.49988E+08         0.00000E+00
    0.00000E+00         0.00000E+00        -0.20104E+08
 
   -0.20112E+08         0.66684E+05         0.00000E+00
    0.66684E+05        -0.49984E+08         0.00000E+00
    0.00000E+00         0.00000E+00        -0.20103E+08
 
   -0.20109E+08         0.70205E+05         0.00000E+00
    0.70205E+05        -0.49980E+08         0.00000E+00
    0.00000E+00         0.00000E+00        -0.20100E+08
 
   -0.20107E+08         0.71494E+05         0.00000E+00
    0.71494E+05        -0.49976E+08         0.00000E+00
    0.00000E+00         0.00000E+00        -0.20097E+08
 
   -0.20105E+08         0.70807E+05         0.00000E+00
    0.70807E+05        -0.49972E+08         0.00000E+00
    0.00000E+00         0.00000E+00        -0.20094E+08
 
   -0.20103E+08         0.68450E+05         0.00000E+00
    0.68450E+05        -0.49970E+08         0.00000E+00
    0.00000E+00         0.00000E+00        -0.20092E+08
 
   -0.20102E+08         0.64770E+05         0.00000E+00
    0.64770E+05        -0.49968E+08         0.00000E+00
    0.00000E+00         0.00000E+00        -0.20091E+08
 
   -0.20101E+08         0.60133E+05         0.00000E+00
    0.60133E+05        -0.49967E+08         0.00000E+00
    0.00000E+00         0.00000E+00        -0.20091E+08
 
   -0.20101E+08         0.54898E+05         0.00000E+00
    0.54898E+05        -0.49968E+08         0.00000E+00
    0.00000E+00         0.00000E+00        -0.20092E+08
 
   -0.20100E+08         0.49392E+05         0.00000E+00
    0.49392E+05        -0.49969E+08         0.00000E+00
    0.00000E+00         0.00000E+00        -0.20095E+08
 
   -0.20100E+08         0.43886E+05         0.00000E+00
    0.43886E+05        -0.49972E+08         0.00000E+00
    0.00000E+00         0.00000E+00        -0.20098E+08
 
   -0.20121E+08         0.10476E+05         0.00000E+00
    0.10476E+05        -0.50000E+08         0.00000E+00
    0.00000E+00         0.00000E+00        -0.20114E+08
 
   -0.20116E+08         0.28681E+05         0.00000E+00
    0.28681E+05        -0.49998E+08         0.00000E+00
    0.00000E+00         0.00000E+00        -0.20117E+08
 
   -0.20113E+08         0.43744E+05         0.00000E+00
    0.43744E+05        -0.49996E+08         0.00000E+00
    0.00000E+00         0.00000E+00        -0.20117E+08
 
   -0.20110E+08         0.55742E+05         0.00000E+00
    0.55742E+05        -0.49993E+08         0.00000E+00
    0.00000E+00         0.00000E+00        -0.20116E+08
 
   -0.20109E+08         0.64755E+05         0.00000E+00
    0.64755E+05        -0.49989E+08         0.00000E+00
    0.00000E+00         0.00000E+00        -0.20113E+08
 
   -0.20108E+08         0.70880E+05         0.00000E+00
    0.70880E+05        -0.49985E+08         0.00000E+00
    0.00000E+00         0.00000E+00        -0.20109E+08
 
   -0.20107E+08         0.74254E+05         0.00000E+00
    0.74254E+05        -0.49982E+08         0.00000E+00
    0.00000E+00         0.00000E+00        -0.20104E+08
 
   -0.20107E+08         0.75084E+05         0.00000E+00
    0.75084E+05        -0.49978E+08         0.00000E+00
    0.00000E+00         0.00000E+00        -0.20100E+08
 
   -0.20107E+08         0.73656E+05         0.00000E+00
    0.73656E+05        -0.49975E+08         0.00000E+00
    0.00000E+00         0.00000E+00        -0.20096E+08
 
   -0.20107E+08         0.70342E+05         0.00000E+00
    0.70342E+05        -0.49973E+08         0.00000E+00
    0.00000E+00         0.00000E+00        -0.20094E+08
 
   -0.20107E+08         0.65565E+05         0.00000E+00
    0.65565E+05        -0.49972E+08         0.00000E+00
    0.00000E+00         0.00000E+00        -0.20092E+08
 
   -0.20107E+08         0.59767E+05         0.00000E+00
    0.59767E+05        -0.49973E+08         0.00000E+00
    0.00000E+00         0.00000E+00        -0.20093E+08
 
   -0.20107E+08         0.53364E+05         0.00000E+00
    0.53364E+05        -0.49974E+08         0.00000E+00
    0.00000E+00         0.00000E+00        -0.20095E+08
 
   -0.20106E+08         0.46716E+05         0.00000E+00
    0.46716E+05        -0.49977E+08         0.00000E+00
    0.00000E+00         0.00000E+00        -0.20098E+08
 
   -0.20106E+08         0.40098E+05         0.00000E+00
    0.40098E+05        -0.49980E+08         0.00000E+00
    0.00000E+00         0.00000E+00        -0.20103E+08
 
   -0.20100E+08         0.11100E+05         0.00000E+00
    0.11100E+05        -0.50000E+08         0.00000E+00
    0.00000E+00         0.00000E+00        -0.20135E+08
 
   -0.20099E+08         0.30373E+05         0.00000E+00
    0.30373E+05        -0.49999E+08         0.00000E+00
    0.00000E+00         0.00000E+00        -0.20134E+08
 
   -0.20099E+08         0.46311E+05         0.00000E+00
    0.46311E+05        -0.49996E+08         0.00000E+00
    0.00000E+00         0.00000E+00        -0.20132E+08
 
   -0.20100E+08         0.58957E+05         0.00000E+00
    0.58957E+05        -0.49994E+08         0.00000E+00
    0.00000E+00         0.00000E+00        -0.20128E+08
 
   -0.20101E+08         0.68353E+05         0.00000E+00
    0.68353E+05        -0.49991E+08         0.00000E+00
    0.00000E+00         0.00000E+00        -0.20122E+08
 
   -0.20103E+08         0.74558E+05         0.00000E+00
    0.74558E+05        -0.49987E+08         0.00000E+00
    0.00000E+00         0.00000E+00        -0.20116E+08
 
   -0.20105E+08         0.77689E+05         0.00000E+00
    0.77689E+05        -0.49984E+08         0.00000E+00
    0.00000E+00         0.00000E+00        -0.20110E+08
 
   -0.20107E+08         0.77956E+05         0.00000E+00
    0.77956E+05        -0.49981E+08         0.00000E+00
    0.00000E+00         0.00000E+00        -0.20104E+08
 
   -0.20110E+08         0.75690E+05         0.00000E+00
    0.75690E+05        -0.49979E+08         0.00000E+00
    0.00000E+00         0.00000E+00        -0.20099E+08
 
   -0.20111E+08         0.71336E+05         0.00000E+00
    0.71336E+05        -0.49978E+08         0.00000E+00
    0.00000E+00         0.00000E+00        -0.20096E+08
 
   -0.20113E+08         0.65404E+05         0.00000E+00
    0.65404E+05        -0.49978E+08         0.00000E+00
    0.00000E+00         0.00000E+00        -0.20095E+08
 
   -0.20114E+08         0.58413E+05         0.00000E+00
    0.58413E+05        -0.49980E+08         0.00000E+00
    0.00000E+00         0.00000E+00        -0.20095E+08
 
   -0.20114E+08         0.50830E+05         0.00000E+00
    0.50830E+05        -0.49982E+08         0.00000E+00
    0.00000E+00         0.00000E+00        -0.20098E+08
 
   -0.20114E+08         0.43034E+05         0.00000E+00
    0.43034E+05        -0.49986E+08         0.00000E+00
    0.00000E+00         0.00000E+00        -0.20103E+08
 
   -0.20113E+08         0.35293E+05         0.00000E+00
    0.35293E+05        -0.49991E+08         0.00000E+00
    0.00000E+00         0.00000E+00        -0.20110E+08
 
   -0.20079E+08         0.11662E+05         0.00000E+00
    0.11662E+05        -0.50000E+08         0.00000E+00
    0.00000E+00         0.00000E+00        -0.20156E+08
 
   -0.20081E+08         0.31868E+05         0.00000E+00
    0.31868E+05        -0.49999E+08         0.00000E+00
    0.00000E+00         0.00000E+00        -0.20153E+08
 
   -0.20084E+08         0.48546E+05         0.00000E+00
    0.48546E+05        -0.49997E+08         0.00000E+00
    0.00000E+00         0.00000E+00        -0.20147E+08
 
   -0.20088E+08         0.61699E+05         0.00000E+00
    0.61699E+05        -0.49995E+08         0.00000E+00
    0.00000E+00         0.00000E+00        -0.20140E+08
 
   -0.20093E+08         0.71328E+05         0.00000E+00
    0.71328E+05        -0.49992E+08         0.00000E+00
    0.00000E+00         0.00000E+00        -0.20132E+08
 
   -0.20098E+08         0.77465E+05         0.00000E+00
    0.77465E+05        -0.49990E+08         0.00000E+00
    0.00000E+00         0.00000E+00        -0.20124E+08
 
   -0.20104E+08         0.80216E+05         0.00000E+00
    0.80216E+05        -0.49987E+08         0.00000E+00
    0.00000E+00         0.00000E+00        -0.20116E+08
 
   -0.20109E+08         0.79814E+05         0.00000E+00
    0.79814E+05        -0.49986E+08         0.00000E+00
    0.00000E+00         0.00000E+00        -0.20108E+08
 
   -0.20113E+08         0.76647E+05         0.00000E+00
    0.76647E+05        -0.49985E+08         0.00000E+00
    0.00000E+00         0.00000E+00        -0.20103E+08
 
   -0.20117E+08         0.71235E+05         0.00000E+00
    0.71235E+05        -0.49985E+08         0.00000E+00
    0.00000E+00         0.00000E+00        -0.20099E+08
 
   -0.20120E+08         0.64169E+05         0.00000E+00
    0.64169E+05        -0.49987E+08         0.00000E+00
    0.00000E+00         0.00000E+00        -0.20098E+08
 
   -0.20121E+08         0.56027E+05         0.00000E+00
    0.56027E+05        -0.49989E+08         0.00000E+00
    0.00000E+00         0.00000E+00        -0.20100E+08
 
   -0.20122E+08         0.47312E+05         0.00000E+00
    0.47312E+05        -0.49992E+08         0.00000E+00
    0.00000E+00         0.00000E+00        -0.20103E+08
 
   -0.20122E+08         0.38410E+05         0.00000E+00
    0.38410E+05        -0.49997E+08         0.00000E+00
    0.00000E+00         0.00000E+00        -0.20109E+08
 
   -0.20122E+08         0.29575E+05         0.00000E+00
    0.29575E+05        -0.50003E+08         0.00000E+00
    0.00000E+00         0.00000E+00        -0.20117E+08
 
   -0.20056E+08         0.12155E+05         0.00000E+00
    0.12155E+05        -0.50000E+08         0.00000E+00
    0.00000E+00         0.00000E+00        -0.20179E+08
 
   -0.20062E+08         0.33141E+05         0.00000E+00
    0.33141E+05        -0.49999E+08         0.00000E+00
    0.00000E+00         0.00000E+00        -0.20172E+08
 
   -0.20069E+08         0.50372E+05         0.00000E+00
    0.50372E+05        -0.49998E+08         0.00000E+00
    0.00000E+00         0.00000E+00        -0.20163E+08
 
   -0.20077E+08         0.63813E+05         0.00000E+00
    0.63813E+05        -0.49996E+08         0.00000E+00
    0.00000E+00         0.00000E+00        -0.20153E+08
 
   -0.20085E+08         0.73439E+05         0.00000E+00
    0.73439E+05        -0.49994E+08         0.00000E+00
    0.00000E+00         0.00000E+00        -0.20143E+08
 
   -0.20094E+08         0.79272E+05         0.00000E+00
    0.79272E+05        -0.49993E+08         0.00000E+00
    0.00000E+00         0.00000E+00        -0.20132E+08
 
   -0.20103E+08         0.81455E+05         0.00000E+00
    0.81455E+05        -0.49992E+08         0.00000E+00
    0.00000E+00         0.00000E+00        -0.20123E+08
 
   -0.20111E+08         0.80290E+05         0.00000E+00
    0.80290E+05        -0.49992E+08         0.00000E+00
    0.00000E+00         0.00000E+00        -0.20114E+08
 
   -0.20118E+08         0.76235E+05         0.00000E+00
    0.76235E+05        -0.49993E+08         0.00000E+00
    0.00000E+00         0.00000E+00        -0.20108E+08
 
   -0.20124E+08         0.69860E+05         0.00000E+00
    0.69860E+05        -0.49994E+08         0.00000E+00
    0.00000E+00         0.00000E+00        -0.20104E+08
 
   -0.20128E+08         0.61790E+05         0.00000E+00
    0.61790E+05        -0.49997E+08         0.00000E+00
    0.00000E+00         0.00000E+00        -0.20104E+08
 
   -0.20130E+08         0.52630E+05         0.00000E+00
    0.52630E+05        -0.50000E+08         0.00000E+00
    0.00000E+00         0.00000E+00        -0.20106E+08
 
   -0.20131E+08         0.42898E+05         0.00000E+00
    0.42898E+05        -0.50005E+08         0.00000E+00
    0.00000E+00         0.00000E+00        -0.20110E+08
 
   -0.20131E+08         0.32980E+05         0.00000E+00
    0.32980E+05        -0.50010E+08         0.00000E+00
    0.00000E+00         0.00000E+00        -0.20117E+08
 
   -0.20131E+08         0.23114E+05         0.00000E+00
    0.23114E+05        -0.50016E+08         0.00000E+00
    0.00000E+00         0.00000E+00        -0.20126E+08
 
   -0.20033E+08         0.12579E+05         0.00000E+00
    0.12579E+05        -0.50000E+08         0.00000E+00
    0.00000E+00         0.00000E+00        -0.20203E+08
 
   -0.20043E+08         0.34156E+05         0.00000E+00
    0.34156E+05        -0.49999E+08         0.00000E+00
    0.00000E+00         0.00000E+00        -0.20192E+08
 
   -0.20054E+08         0.51698E+05         0.00000E+00
    0.51698E+05        -0.49998E+08         0.00000E+00
    0.00000E+00         0.00000E+00        -0.20180E+08
 
   -0.20065E+08         0.65117E+05         0.00000E+00
    0.65117E+05        -0.49997E+08         0.00000E+00
    0.00000E+00         0.00000E+00        -0.20167E+08
 
   -0.20078E+08         0.74372E+05         0.00000E+00
    0.74372E+05        -0.49997E+08         0.00000E+00
    0.00000E+00         0.00000E+00        -0.20154E+08
 
   -0.20090E+08         0.79558E+05         0.00000E+00
    0.79558E+05        -0.49997E+08         0.00000E+00
    0.00000E+00         0.00000E+00        -0.20141E+08
 
   -0.20103E+08         0.80943E+05         0.00000E+00
    0.80943E+05        -0.49998E+08         0.00000E+00
    0.00000E+00         0.00000E+00        -0.20131E+08
 
   -0.20114E+08         0.78967E+05         0.00000E+00
    0.78967E+05        -0.50000E+08         0.00000E+00
    0.00000E+00         0.00000E+00        -0.20122E+08
 
   -0.20124E+08         0.74159E+05         0.00000E+00
    0.74159E+05        -0.50003E+08         0.00000E+00
    0.00000E+00         0.00000E+00        -0.20115E+08
 
   -0.20132E+08         0.67072E+05         0.00000E+00
    0.67072E+05        -0.50006E+08         0.00000E+00
    0.00000E+00         0.00000E+00        -0.20112E+08
 
   -0.20137E+08         0.58274E+05         0.00000E+00
    0.58274E+05        -0.50010E+08         0.00000E+00
    0.00000E+00         0.00000E+00        -0.20111E+08
 
   -0.20140E+08         0.48330E+05         0.00000E+00
    0.48330E+05        -0.50014E+08         0.00000E+00
    0.00000E+00         0.00000E+00        -0.20114E+08
 
   -0.20142E+08         0.37757E+05         0.00000E+00
    0.37757E+05        -0.50019E+08         0.00000E+00
    0.00000E+00         0.00000E+00        -0.20119E+08
 
   -0.20142E+08         0.26950E+05         0.00000E+00
    0.26950E+05        -0.50025E+08         0.00000E+00
    0.00000E+00         0.00000E+00        -0.20127E+08
 
   -0.20141E+08         0.16148E+05         0.00000E+00
    0.16148E+05        -0.50032E+08         0.00000E+00
    0.00000E+00         0.00000E+00        -0.20136E+08
 
   -0.20009E+08         0.12932E+05         0.00000E+00
    0.12932E+05        -0.50000E+08         0.00000E+00
    0.00000E+00         0.00000E+00        -0.20227E+08
 
   -0.20023E+08         0.34870E+05         0.00000E+00
    0.34870E+05        -0.49999E+08         0.00000E+00
    0.00000E+00         0.00000E+00        -0.20212E+08
 
   -0.20038E+08         0.52385E+05         0.00000E+00
    0.52385E+05        -0.49999E+08         0.00000E+00
    0.00000E+00         0.00000E+00        -0.20196E+08
 
   -0.20054E+08         0.65332E+05         0.00000E+00
    0.65332E+05        -0.49999E+08         0.00000E+00
    0.00000E+00         0.00000E+00        -0.20180E+08
 
   -0.20071E+08         0.73717E+05         0.00000E+00
    0.73717E+05        -0.50000E+08         0.00000E+00
    0.00000E+00         0.00000E+00        -0.20165E+08
 
   -0.20088E+08         0.77815E+05         0.00000E+00
    0.77815E+05        -0.50002E+08         0.00000E+00
    0.00000E+00         0.00000E+00        -0.20151E+08
 
   -0.20103E+08         0.78177E+05         0.00000E+00
    0.78177E+05        -0.50006E+08         0.00000E+00
    0.00000E+00         0.00000E+00        -0.20140E+08
 
   -0.20118E+08         0.75440E+05         0.00000E+00
    0.75440E+05        -0.50010E+08         0.00000E+00
    0.00000E+00         0.00000E+00        -0.20132E+08
 
   -0.20130E+08         0.70167E+05         0.00000E+00
    0.70167E+05        -0.50015E+08         0.00000E+00
    0.00000E+00         0.00000E+00        -0.20126E+08
 
   -0.20140E+08         0.62790E+05         0.00000E+00
    0.62790E+05        -0.50020E+08         0.00000E+00
    0.00000E+00         0.00000E+00        -0.20123E+08
 
   -0.20147E+08         0.53695E+05         0.00000E+00
    0.53695E+05        -0.50025E+08         0.00000E+00
    0.00000E+00         0.00000E+00        -0.20122E+08
 
   -0.20151E+08         0.43317E+05         0.00000E+00
    0.43317E+05        -0.50030E+08         0.00000E+00
    0.00000E+00         0.00000E+00        -0.20125E+08
 
   -0.20153E+08         0.32141E+05         0.00000E+00
    0.32141E+05        -0.50036E+08         0.00000E+00
    0.00000E+00         0.00000E+00        -0.20130E+08
 
   -0.20153E+08         0.20602E+05         0.00000E+00
    0.20602E+05        -0.50042E+08         0.00000E+00
    0.00000E+00         0.00000E+00        -0.20138E+08
 
   -0.20152E+08         0.89748E+04         0.00000E+00
    0.89748E+04        -0.50049E+08         0.00000E+00
    0.00000E+00         0.00000E+00        -0.20147E+08
 
   -0.19985E+08         0.13212E+05         0.00000E+00
    0.13212E+05        -0.50000E+08         0.00000E+00
    0.00000E+00         0.00000E+00        -0.20252E+08
 
   -0.20003E+08         0.35208E+05         0.00000E+00
    0.35208E+05        -0.50000E+08         0.00000E+00
    0.00000E+00         0.00000E+00        -0.20233E+08
 
   -0.20023E+08         0.52201E+05         0.00000E+00
    0.52201E+05        -0.50000E+08         0.00000E+00
    0.00000E+00         0.00000E+00        -0.20213E+08
 
   -0.20044E+08         0.64023E+05         0.00000E+00
    0.64023E+05        -0.50001E+08         0.00000E+00
    0.00000E+00         0.00000E+00        -0.20194E+08
 
   -0.20065E+08         0.70887E+05         0.00000E+00
    0.70887E+05        -0.50005E+08         0.00000E+00
    0.00000E+00         0.00000E+00        -0.20177E+08
 
   -0.20086E+08         0.73482E+05         0.00000E+00
    0.73482E+05        -0.50010E+08         0.00000E+00
    0.00000E+00         0.00000E+00        -0.20163E+08
 
   -0.20105E+08         0.72730E+05         0.00000E+00
    0.72730E+05        -0.50016E+08         0.00000E+00
    0.00000E+00         0.00000E+00        -0.20152E+08
 
   -0.20122E+08         0.69435E+05         0.00000E+00
    0.69435E+05        -0.50023E+08         0.00000E+00
    0.00000E+00         0.00000E+00        -0.20144E+08
 
   -0.20136E+08         0.64105E+05         0.00000E+00
    0.64105E+05        -0.50030E+08         0.00000E+00
    0.00000E+00         0.00000E+00        -0.20139E+08
 
   -0.20148E+08         0.56979E+05         0.00000E+00
    0.56979E+05        -0.50037E+08         0.00000E+00
    0.00000E+00         0.00000E+00        -0.20137E+08
 
   -0.20156E+08         0.48163E+05         0.00000E+00
    0.48163E+05        -0.50044E+08         0.00000E+00
    0.00000E+00         0.00000E+00        -0.20136E+08
 
   -0.20162E+08         0.37834E+05         0.00000E+00
    0.37834E+05        -0.50049E+08         0.00000E+00
    0.00000E+00         0.00000E+00        -0.20139E+08
 
   -0.20164E+08         0.26377E+05         0.00000E+00
    0.26377E+05        -0.50055E+08         0.00000E+00
    0.00000E+00         0.00000E+00        -0.20143E+08
 
   -0.20165E+08         0.14292E+05         0.00000E+00
    0.14292E+05        -0.50061E+08         0.00000E+00
    0.00000E+00         0.00000E+00        -0.20150E+08
 
   -0.20165E+08         0.19613E+04         0.00000E+00
    0.19613E+04        -0.50067E+08         0.00000E+00
    0.00000E+00         0.00000E+00        -0.20159E+08
 
   -0.19960E+08         0.13407E+05         0.00000E+00
    0.13407E+05        -0.50000E+08         0.00000E+00
    0.00000E+00         0.00000E+00        -0.20277E+08
 
   -0.19984E+08         0.35009E+05         0.00000E+00
    0.35009E+05        -0.50000E+08         0.00000E+00
    0.00000E+00         0.00000E+00        -0.20253E+08
 
   -0.20010E+08         0.50703E+05         0.00000E+00
    0.50703E+05        -0.50002E+08         0.00000E+00
    0.00000E+00         0.00000E+00        -0.20229E+08
 
   -0.20036E+08         0.60479E+05         0.00000E+00
    0.60479E+05        -0.50005E+08         0.00000E+00
    0.00000E+00         0.00000E+00        -0.20207E+08
 
   -0.20062E+08         0.65153E+05         0.00000E+00
    0.65153E+05        -0.50012E+08         0.00000E+00
    0.00000E+00         0.00000E+00        -0.20190E+08
 
   -0.20086E+08         0.66066E+05         0.00000E+00
    0.66066E+05        -0.50020E+08         0.00000E+00
    0.00000E+00         0.00000E+00        -0.20176E+08
 
   -0.20107E+08         0.64408E+05         0.00000E+00
    0.64408E+05        -0.50029E+08         0.00000E+00
    0.00000E+00         0.00000E+00        -0.20167E+08
 
   -0.20126E+08         0.60924E+05         0.00000E+00
    0.60924E+05        -0.50039E+08         0.00000E+00
    0.00000E+00         0.00000E+00        -0.20161E+08
 
   -0.20142E+08         0.55971E+05         0.00000E+00
    0.55971E+05        -0.50048E+08         0.00000E+00
    0.00000E+00         0.00000E+00        -0.20157E+08
 
   -0.20155E+08         0.49620E+05         0.00000E+00
    0.49620E+05        -0.50057E+08         0.00000E+00
    0.00000E+00         0.00000E+00        -0.20155E+08
 
   -0.20166E+08         0.41726E+05         0.00000E+00
    0.41726E+05        -0.50065E+08         0.00000E+00
    0.00000E+00         0.00000E+00        -0.20155E+08
 
   -0.20172E+08         0.32107E+05         0.00000E+00
    0.32107E+05        -0.50071E+08         0.00000E+00
    0.00000E+00         0.00000E+00        -0.20156E+08
 
   -0.20176E+08         0.20848E+05         0.00000E+00
    0.20848E+05        -0.50076E+08         0.00000E+00
    0.00000E+00         0.00000E+00        -0.20160E+08
 
   -0.20177E+08         0.84662E+04         0.00000E+00
    0.84662E+04        -0.50082E+08         0.00000E+00
    0.00000E+00         0.00000E+00        -0.20165E+08
 
   -0.20177E+08        -0.44425E+04         0.00000E+00
   -0.44425E+04        -0.50087E+08         0.00000E+00
    0.00000E+00         0.00000E+00        -0.20173E+08
 
   -0.19936E+08         0.13489E+05         0.00000E+00
    0.13489E+05        -0.50000E+08         0.00000E+00
    0.00000E+00         0.00000E+00        -0.20302E+08
 
   -0.19966E+08         0.33899E+05         0.00000E+00
    0.33899E+05        -0.50001E+08         0.00000E+00
    0.00000E+00         0.00000E+00        -0.20272E+08
 
   -0.19998E+08         0.47015E+05         0.00000E+00
    0.47015E+05        -0.50004E+08         0.00000E+00
    0.00000E+00         0.00000E+00        -0.20244E+08
 
   -0.20030E+08         0.53658E+05         0.00000E+00
    0.53658E+05        -0.50012E+08         0.00000E+00
    0.00000E+00         0.00000E+00        -0.20222E+08
 
   -0.20060E+08         0.55859E+05         0.00000E+00
    0.55859E+05        -0.50022E+08         0.00000E+00
    0.00000E+00         0.00000E+00        -0.20205E+08
 
   -0.20087E+08         0.55420E+05         0.00000E+00
    0.55420E+05        -0.50034E+08         0.00000E+00
    0.00000E+00         0.00000E+00        -0.20193E+08
 
   -0.20110E+08         0.53352E+05         0.00000E+00
    0.53352E+05        -0.50046E+08         0.00000E+00
    0.00000E+00         0.00000E+00        -0.20186E+08
 
   -0.20130E+08         0.50133E+05         0.00000E+00
    0.50133E+05        -0.50058E+08         0.00000E+00
    0.00000E+00         0.00000E+00        -0.20181E+08
 
   -0.20147E+08         0.45939E+05         0.00000E+00
    0.45939E+05        -0.50069E+08         0.00000E+00
    0.00000E+00         0.00000E+00        -0.20179E+08
 
   -0.20162E+08         0.40737E+05         0.00000E+00
    0.40737E+05        -0.50079E+08         0.00000E+00
    0.00000E+00         0.00000E+00        -0.20178E+08
 
   -0.20174E+08         0.34299E+05         0.00000E+00
    0.34299E+05        -0.50088E+08         0.00000E+00
    0.00000E+00         0.00000E+00        -0.20178E+08
 
   -0.20182E+08         0.26184E+05         0.00000E+00
    0.26184E+05        -0.50095E+08         0.00000E+00
    0.00000E+00         0.00000E+00        -0.20178E+08
 
   -0.20188E+08         0.15930E+05         0.00000E+00
    0.15930E+05        -0.50100E+08         0.00000E+00
    0.00000E+00         0.00000E+00        -0.20179E+08
 
   -0.20190E+08         0.36888E+04         0.00000E+00
    0.36888E+04        -0.50104E+08         0.00000E+00
    0.00000E+00         0.00000E+00        -0.20183E+08
 
   -0.20191E+08        -0.96612E+04         0.00000E+00
   -0.96612E+04        -0.50109E+08         0.00000E+00
    0.00000E+00         0.00000E+00        -0.20188E+08
 
   -0.19913E+08         0.13337E+05         0.00000E+00
    0.13337E+05        -0.50000E+08         0.00000E+00
    0.00000E+00         0.00000E+00        -0.20326E+08
 
   -0.19951E+08         0.30893E+05         0.00000E+00
    0.30893E+05        -0.50003E+08         0.00000E+00
    0.00000E+00         0.00000E+00        -0.20290E+08
 
   -0.19990E+08         0.39539E+05         0.00000E+00
    0.39539E+05        -0.50010E+08         0.00000E+00
    0.00000E+00         0.00000E+00        -0.20260E+08
 
   -0.20027E+08         0.42567E+05         0.00000E+00
    0.42567E+05        -0.50022E+08         0.00000E+00
    0.00000E+00         0.00000E+00        -0.20238E+08
 
   -0.20060E+08         0.42925E+05         0.00000E+00
    0.42925E+05        -0.50036E+08         0.00000E+00
    0.00000E+00         0.00000E+00        -0.20224E+08
 
   -0.20088E+08         0.41894E+05         0.00000E+00
    0.41894E+05        -0.50051E+08         0.00000E+00
    0.00000E+00         0.00000E+00        -0.20214E+08
 
   -0.20113E+08         0.39996E+05         0.00000E+00
    0.39996E+05        -0.50065E+08         0.00000E+00
    0.00000E+00         0.00000E+00        -0.20209E+08
 
   -0.20134E+08         0.37442E+05         0.00000E+00
    0.37442E+05        -0.50079E+08         0.00000E+00
    0.00000E+00         0.00000E+00        -0.20206E+08
 
   -0.20152E+08         0.34284E+05         0.00000E+00
    0.34284E+05        -0.50092E+08         0.00000E+00
    0.00000E+00         0.00000E+00        -0.20205E+08
 
   -0.20167E+08         0.30457E+05         0.00000E+00
    0.30457E+05        -0.50104E+08         0.00000E+00
    0.00000E+00         0.00000E+00        -0.20205E+08
 
   -0.20180E+08         0.25761E+05         0.00000E+00
    0.25761E+05        -0.50113E+08         0.00000E+00
    0.00000E+00         0.00000E+00        -0.20205E+08
 
   -0.20190E+08         0.19776E+05         0.00000E+00
    0.19776E+05        -0.50121E+08         0.00000E+00
    0.00000E+00         0.00000E+00        -0.20205E+08
 
   -0.20198E+08         0.11721E+05         0.00000E+00
    0.11721E+05        -0.50127E+08         0.00000E+00
    0.00000E+00         0.00000E+00        -0.20204E+08
 
   -0.20203E+08         0.66421E+03         0.00000E+00
    0.66421E+03        -0.50130E+08         0.00000E+00
    0.00000E+00         0.00000E+00        -0.20203E+08
 
   -0.20204E+08        -0.12854E+05         0.00000E+00
   -0.12854E+05        -0.50131E+08         0.00000E+00
    0.00000E+00         0.00000E+00        -0.20204E+08
 
   -0.19892E+08         0.12286E+05         0.00000E+00
    0.12286E+05        -0.50001E+08         0.00000E+00
    0.00000E+00         0.00000E+00        -0.20348E+08
 
   -0.19941E+08         0.23441E+05         0.00000E+00
    0.23441E+05        -0.50008E+08         0.00000E+00
    0.00000E+00         0.00000E+00        -0.20308E+08
 
   -0.19987E+08         0.26626E+05         0.00000E+00
    0.26626E+05        -0.50022E+08         0.00000E+00
    0.00000E+00         0.00000E+00        -0.20279E+08
 
   -0.20026E+08         0.27363E+05         0.00000E+00
    0.27363E+05        -0.50038E+08         0.00000E+00
    0.00000E+00         0.00000E+00        -0.20260E+08
 
   -0.20060E+08         0.27060E+05         0.00000E+00
    0.27060E+05        -0.50055E+08         0.00000E+00
    0.00000E+00         0.00000E+00        -0.20248E+08
 
   -0.20089E+08         0.26168E+05         0.00000E+00
    0.26168E+05        -0.50071E+08         0.00000E+00
    0.00000E+00         0.00000E+00        -0.20240E+08
 
   -0.20114E+08         0.24875E+05         0.00000E+00
    0.24875E+05        -0.50088E+08         0.00000E+00
    0.00000E+00         0.00000E+00        -0.20236E+08
 
   -0.20136E+08         0.23253E+05         0.00000E+00
    0.23253E+05        -0.50103E+08         0.00000E+00
    0.00000E+00         0.00000E+00        -0.20235E+08
 
   -0.20154E+08         0.21306E+05         0.00000E+00
    0.21306E+05        -0.50117E+08         0.00000E+00
    0.00000E+00         0.00000E+00        -0.20235E+08
 
   -0.20170E+08         0.18978E+05         0.00000E+00
    0.18978E+05        -0.50130E+08         0.00000E+00
    0.00000E+00         0.00000E+00        -0.20236E+08
 
   -0.20184E+08         0.16133E+05         0.00000E+00
    0.16133E+05        -0.50141E+08         0.00000E+00
    0.00000E+00         0.00000E+00        -0.20237E+08
 
   -0.20196E+08         0.12510E+05         0.00000E+00
    0.12510E+05        -0.50150E+08         0.00000E+00
    0.00000E+00         0.00000E+00        -0.20236E+08
 
   -0.20206E+08         0.75444E+04         0.00000E+00
    0.75444E+04        -0.50156E+08         0.00000E+00
    0.00000E+00         0.00000E+00        -0.20234E+08
 
   -0.20214E+08        -0.97116E+02         0.00000E+00
   -0.97116E+02        -0.50157E+08         0.00000E+00
    0.00000E+00         0.00000E+00        -0.20229E+08
 
   -0.20218E+08        -0.12673E+05         0.00000E+00
   -0.12673E+05        -0.50157E+08         0.00000E+00
    0.00000E+00         0.00000E+00        -0.20223E+08
 
   -0.19878E+08         0.63007E+04         0.00000E+00
    0.63007E+04        -0.50009E+08         0.00000E+00
    0.00000E+00         0.00000E+00        -0.20373E+08
 
   -0.19937E+08         0.85065E+04         0.00000E+00
    0.85065E+04        -0.50022E+08         0.00000E+00
    0.00000E+00         0.00000E+00        -0.20331E+08
 
   -0.19986E+08         0.92888E+04         0.00000E+00
    0.92888E+04        -0.50040E+08         0.00000E+00
    0.00000E+00         0.00000E+00        -0.20304E+08
 
   -0.20026E+08         0.94326E+04         0.00000E+00
    0.94326E+04        -0.50059E+08         0.00000E+00
    0.00000E+00         0.00000E+00        -0.20287E+08
 
   -0.20061E+08         0.92626E+04         0.00000E+00
    0.92626E+04        -0.50077E+08         0.00000E+00
    0.00000E+00         0.00000E+00        -0.20277E+08
 
   -0.20090E+08         0.89240E+04         0.00000E+00
    0.89240E+04        -0.50095E+08         0.00000E+00
    0.00000E+00         0.00000E+00        -0.20271E+08
 
   -0.20115E+08         0.84689E+04         0.00000E+00
    0.84689E+04        -0.50112E+08         0.00000E+00
    0.00000E+00         0.00000E+00        -0.20268E+08
 
   -0.20137E+08         0.79151E+04         0.00000E+00
    0.79151E+04        -0.50129E+08         0.00000E+00
    0.00000E+00         0.00000E+00        -0.20268E+08
 
   -0.20156E+08         0.72601E+04         0.00000E+00
    0.72601E+04        -0.50144E+08         0.00000E+00
    0.00000E+00         0.00000E+00        -0.20269E+08
 
   -0.20172E+08         0.64818E+04         0.00000E+00
    0.64818E+04        -0.50158E+08         0.00000E+00
    0.00000E+00         0.00000E+00        -0.20271E+08
 
   -0.20186E+08         0.55307E+04         0.00000E+00
    0.55307E+04        -0.50170E+08         0.00000E+00
    0.00000E+00         0.00000E+00        -0.20272E+08
 
   -0.20199E+08         0.43130E+04         0.00000E+00
    0.43130E+04        -0.50180E+08         0.00000E+00
    0.00000E+00         0.00000E+00        -0.20273E+08
 
   -0.20210E+08         0.26522E+04         0.00000E+00
    0.26522E+04        -0.50186E+08         0.00000E+00
    0.00000E+00         0.00000E+00        -0.20271E+08
 
   -0.20220E+08         0.54569E+02         0.00000E+00
    0.54569E+02        -0.50189E+08         0.00000E+00
    0.00000E+00         0.00000E+00        -0.20264E+08
 
   -0.20229E+08        -0.57073E+04         0.00000E+00
   -0.57073E+04        -0.50183E+08         0.00000E+00
    0.00000E+00         0.00000E+00        -0.20247E+08
 
TENSORS stresstot double 
   -0.30275E+08         0.15415E+03         0.00000E+00
    0.15415E+03        -0.60000E+08         0.00000E+00
    0.00000E+00         0.00000E+00        -0.29962E+08
 
   -0.30248E+08         0.44209E+03         0.00000E+00
    0.44209E+03        -0.59999E+08         0.00000E+00
    0.00000E+00         0.00000E+00        -0.29987E+08
 
   -0.30223E+08         0.70500E+03         0.00000E+00
    0.70500E+03        -0.59998E+08         0.00000E+00
    0.00000E+00         0.00000E+00        -0.30010E+08
 
   -0.30201E+08         0.94420E+03         0.00000E+00
    0.94420E+03        -0.59996E+08         0.00000E+00
    0.00000E+00         0.00000E+00        -0.30030E+08
 
   -0.30180E+08         0.11610E+04         0.00000E+00
    0.11610E+04        -0.59994E+08         0.00000E+00
    0.00000E+00         0.00000E+00        -0.30048E+08
 
   -0.30162E+08         0.13567E+04         0.00000E+00
    0.13567E+04        -0.59992E+08         0.00000E+00
    0.00000E+00         0.00000E+00        -0.30063E+08
 
   -0.30145E+08         0.15327E+04         0.00000E+00
    0.15327E+04        -0.59989E+08         0.00000E+00
    0.00000E+00         0.00000E+00        -0.30076E+08
 
   -0.30131E+08         0.16902E+04         0.00000E+00
    0.16902E+04        -0.59986E+08         0.00000E+00
    0.00000E+00         0.00000E+00        -0.30086E+08
 
   -0.30118E+08         0.18305E+04         0.00000E+00
    0.18305E+04        -0.59982E+08         0.00000E+00
    0.00000E+00         0.00000E+00        -0.30093E+08
 
   -0.30108E+08         0.19550E+04         0.00000E+00
    0.19550E+04        -0.59978E+08         0.00000E+00
    0.00000E+00         0.00000E+00        -0.30099E+08
 
   -0.30100E+08         0.20652E+04         0.00000E+00
    0.20652E+04        -0.59974E+08         0.00000E+00
    0.00000E+00         0.00000E+00        -0.30101E+08
 
   -0.30094E+08         0.21627E+04         0.00000E+00
    0.21627E+04        -0.59970E+08         0.00000E+00
    0.00000E+00         0.00000E+00        -0.30102E+08
 
   -0.30089E+08         0.22494E+04         0.00000E+00
    0.22494E+04        -0.59966E+08         0.00000E+00
    0.00000E+00         0.00000E+00        -0.30101E+08
 
   -0.30087E+08         0.23274E+04         0.00000E+00
    0.23274E+04        -0.59961E+08         0.00000E+00
    0.00000E+00         0.00000E+00        -0.30097E+08
 
   -0.30087E+08         0.23988E+04         0.00000E+00
    0.23988E+04        -0.59956E+08         0.00000E+00
    0.00000E+00         0.00000E+00        -0.30091E+08
 
   -0.30274E+08         0.46635E+03         0.00000E+00
    0.46635E+03        -0.60000E+08         0.00000E+00
    0.00000E+00         0.00000E+00        -0.29962E+08
 
   -0.30248E+08         0.13364E+04         0.00000E+00
    0.13364E+04        -0.59999E+08         0.00000E+00
    0.00000E+00         0.00000E+00        -0.29988E+08
 
   -0.30223E+08         0.21295E+04         0.00000E+00
    0.21295E+04        -0.59998E+08         0.00000E+00
    0.00000E+00         0.00000E+00        -0.30011E+08
 
   -0.30200E+08         0.28498E+04         0.00000E+00
    0.28498E+04        -0.59996E+08         0.00000E+00
    0.00000E+00         0.00000E+00        -0.30031E+08
 
   -0.30180E+08         0.35013E+04         0.00000E+00
    0.35013E+04        -0.59994E+08         0.00000E+00
    0.00000E+00         0.00000E+00        -0.30048E+08
 
   -0.30161E+08         0.40881E+04         0.00000E+00
    0.40881E+04        -0.59991E+08         0.00000E+00
    0.00000E+00         0.00000E+00        -0.30063E+08
 
   -0.30145E+08         0.46149E+04         0.00000E+00
    0.46149E+04        -0.59989E+08         0.00000E+00
    0.00000E+00         0.00000E+00        -0.30076E+08
 
   -0.30130E+08         0.50850E+04         0.00000E+00
    0.50850E+04        -0.59985E+08         0.00000E+00
    0.00000E+00         0.00000E+00        -0.30086E+08
 
   -0.30118E+08         0.55027E+04         0.00000E+00
    0.55027E+04        -0.59982E+08         0.00000E+00
    0.00000E+00         0.00000E+00        -0.30093E+08
 
   -0.30108E+08         0.58724E+04         0.00000E+00
    0.58724E+04        -0.59978E+08         0.00000E+00
    0.00000E+00         0.00000E+00        -0.30098E+08
 
   -0.30100E+08         0.61988E+04         0.00000E+00
    0.61988E+04        -0.59974E+08         0.00000E+00
    0.00000E+00         0.00000E+00        -0.30101E+08
 
   -0.30094E+08         0.64870E+04         0.00000E+00
    0.64870E+04        -0.59970E+08         0.00000E+00
    0.00000E+00         0.00000E+00        -0.30102E+08
 
   -0.30089E+08         0.67427E+04         0.00000E+00
    0.67427E+04        -0.59965E+08         0.00000E+00
    0.00000E+00         0.00000E+00        -0.30100E+08
 
   -0.30087E+08         0.69720E+04         0.00000E+00
    0.69720E+04        -0.59961E+08         0.00000E+00
    0.00000E+00         0.00000E+00        -0.30097E+08
 
   -0.30087E+08         0.71819E+04         0.00000E+00
    0.71819E+04        -0.59956E+08         0.00000E+00
    0.00000E+00         0.00000E+00        -0.30091E+08
 
   -0.30273E+08         0.79020E+03         0.00000E+00
    0.79020E+03        -0.60000E+08         0.00000E+00
    0.00000E+00         0.00000E+00        -0.29964E+08
 
   -0.30246E+08         0.22609E+04         0.00000E+00
    0.22609E+04        -0.59999E+08         0.00000E+00
    0.00000E+00         0.00000E+00        -0.29989E+08
 
   -0.30222E+08         0.35973E+04         0.00000E+00
    0.35973E+04        -0.59998E+08         0.00000E+00
    0.00000E+00         0.00000E+00        -0.30011E+08
 
   -0.30199E+08         0.48067E+04         0.00000E+00
    0.48067E+04        -0.59996E+08         0.00000E+00
    0.00000E+00         0.00000E+00        -0.30031E+08
 
   -0.30179E+08         0.58963E+04         0.00000E+00
    0.58963E+04        -0.59994E+08         0.00000E+00
    0.00000E+00         0.00000E+00        -0.30049E+08
 
   -0.30160E+08         0.68736E+04         0.00000E+00
    0.68736E+04        -0.59991E+08         0.00000E+00
    0.00000E+00         0.00000E+00        -0.30064E+08
 
   -0.30144E+08         0.77466E+04         0.00000E+00
    0.77466E+04        -0.59988E+08         0.00000E+00
    0.00000E+00         0.00000E+00        -0.30076E+08
 
   -0.30130E+08         0.85223E+04         0.00000E+00
    0.85223E+04        -0.59985E+08         0.00000E+00
    0.00000E+00         0.00000E+00        -0.30086E+08
 
   -0.30118E+08         0.92079E+04         0.00000E+00
    0.92079E+04        -0.59981E+08         0.00000E+00
    0.00000E+00         0.00000E+00        -0.30093E+08
 
   -0.30107E+08         0.98115E+04         0.00000E+00
    0.98115E+04        -0.59977E+08         0.00000E+00
    0.00000E+00         0.00000E+00        -0.30098E+08
 
   -0.30099E+08         0.10342E+05         0.00000E+00
    0.10342E+05        -0.59973E+08         0.00000E+00
    0.00000E+00         0.00000E+00        -0.30101E+08
 
   -0.30093E+08         0.10808E+05         0.00000E+00
    0.10808E+05        -0.59969E+08         0.00000E+00
    0.00000E+00         0.00000E+00        -0.30102E+08
 
   -0.30089E+08         0.11219E+05         0.00000E+00
    0.11219E+05        -0.59965E+08         0.00000E+00
    0.00000E+00         0.00000E+00        -0.30100E+08
 
   -0.30087E+08         0.11586E+05         0.00000E+00
    0.11586E+05        -0.59960E+08         0.00000E+00
    0.00000E+00         0.00000E+00        -0.30096E+08
 
   -0.30087E+08         0.11921E+05         0.00000E+00
    0.11921E+05        -0.59956E+08         0.00000E+00
    0.00000E+00         0.00000E+00        -0.30090E+08
 
   -0.30271E+08         0.11333E+04         0.00000E+00
    0.11333E+04        -0.60000E+08         0.00000E+00
    0.00000E+00         0.00000E+00        -0.29965E+08
 
   -0.30245E+08         0.32352E+04         0.00000E+00
    0.32352E+04        -0.59999E+08         0.00000E+00
    0.00000E+00         0.00000E+00        -0.29990E+08
 
   -0.30220E+08         0.51363E+04         0.00000E+00
    0.51363E+04        -0.59998E+08         0.00000E+00
    0.00000E+00         0.00000E+00        -0.30013E+08
 
   -0.30198E+08         0.68479E+04         0.00000E+00
    0.68479E+04        -0.59996E+08         0.00000E+00
    0.00000E+00         0.00000E+00        -0.30032E+08
 
   -0.30178E+08         0.83811E+04         0.00000E+00
    0.83811E+04        -0.59994E+08         0.00000E+00
    0.00000E+00         0.00000E+00        -0.30050E+08
 
   -0.30159E+08         0.97474E+04         0.00000E+00
    0.97474E+04        -0.59991E+08         0.00000E+00
    0.00000E+00         0.00000E+00        -0.30064E+08
 
   -0.30143E+08         0.10959E+05         0.00000E+00
    0.10959E+05        -0.59988E+08         0.00000E+00
    0.00000E+00         0.00000E+00        -0.30076E+08
 
   -0.30129E+08         0.12029E+05         0.00000E+00
    0.12029E+05        -0.59984E+08         0.00000E+00
    0.00000E+00         0.00000E+00        -0.30086E+08
 
   -0.30117E+08         0.12966E+05         0.00000E+00
    0.12966E+05        -0.59981E+08         0.00000E+00
    0.00000E+00         0.00000E+00        -0.30093E+08
 
   -0.30107E+08         0.13785E+05         0.00000E+00
    0.13785E+05        -0.59977E+08         0.00000E+00
    0.00000E+00         0.00000E+00        -0.30098E+08
 
   -0.30099E+08         0.14499E+05         0.00000E+00
    0.14499E+05        -0.59973E+08         0.00000E+00
    0.00000E+00         0.00000E+00        -0.30101E+08
 
   -0.30093E+08         0.15120E+05         0.00000E+00
    0.15120E+05        -0.59968E+08         0.00000E+00
    0.00000E+00         0.00000E+00        -0.30101E+08
 
   -0.30089E+08         0.15664E+05         0.00000E+00
    0.15664E+05        -0.59964E+08         0.00000E+00
    0.00000E+00         0.00000E+00        -0.30099E+08
 
   -0.30086E+08         0.16146E+05         0.00000E+00
    0.16146E+05        -0.59960E+08         0.00000E+00
    0.00000E+00         0.00000E+00        -0.30096E+08
 
   -0.30086E+08         0.16585E+05         0.00000E+00
    0.16585E+05        -0.59955E+08         0.00000E+00
    0.00000E+00         0.00000E+00        -0.30090E+08
 
   -0.30269E+08         0.15029E+04         0.00000E+00
    0.15029E+04        -0.60000E+08         0.00000E+00
    0.00000E+00         0.00000E+00        -0.29968E+08
 
   -0.30242E+08         0.42780E+04         0.00000E+00
    0.42780E+04        -0.59999E+08         0.00000E+00
    0.00000E+00         0.00000E+00        -0.29993E+08
 
   -0.30218E+08         0.67733E+04         0.00000E+00
    0.67733E+04        -0.59998E+08         0.00000E+00
    0.00000E+00         0.00000E+00        -0.30015E+08
 
   -0.30196E+08         0.90048E+04         0.00000E+00
    0.90048E+04        -0.59996E+08         0.00000E+00
    0.00000E+00         0.00000E+00        -0.30034E+08
 
   -0.30176E+08         0.10989E+05         0.00000E+00
    0.10989E+05        -0.59993E+08         0.00000E+00
    0.00000E+00         0.00000E+00        -0.30051E+08
 
   -0.30158E+08         0.12742E+05         0.00000E+00
    0.12742E+05        -0.59990E+08         0.00000E+00
    0.00000E+00         0.00000E+00        -0.30065E+08
 
   -0.30142E+08         0.14282E+05         0.00000E+00
    0.14282E+05        -0.59987E+08         0.00000E+00
    0.00000E+00         0.00000E+00        -0.30076E+08
 
   -0.30128E+08         0.15628E+05         0.00000E+00
    0.15628E+05        -0.59983E+08         0.00000E+00
    0.00000E+00         0.00000E+00        -0.30086E+08
 
   -0.30116E+08         0.16796E+05         0.00000E+00
    0.16796E+05        -0.59980E+08         0.00000E+00
    0.00000E+00         0.00000E+00        -0.30093E+08
 
   -0.30106E+08         0.17804E+05         0.00000E+00
    0.17804E+05        -0.59976E+08         0.00000E+00
    0.00000E+00         0.00000E+00        -0.30098E+08
 
   -0.30098E+08         0.18671E+05         0.00000E+00
    0.18671E+05        -0.59972E+08         0.00000E+00
    0.00000E+00         0.00000E+00        -0.30100E+08
 
   -0.30092E+08         0.19418E+05         0.00000E+00
    0.19418E+05        -0.59967E+08         0.00000E+00
    0.00000E+00         0.00000E+00        -0.30100E+08
 
   -0.30088E+08         0.20063E+05         0.00000E+00
    0.20063E+05        -0.59963E+08         0.00000E+00
    0.00000E+00         0.00000E+00        -0.30099E+08
 
   -0.30086E+08         0.20629E+05         0.00000E+00
    0.20629E+05        -0.59959E+08         0.00000E+00
    0.00000E+00         0.00000E+00        -0.30095E+08
 
   -0.30086E+08         0.21139E+05         0.00000E+00
    0.21139E+05        -0.59954E+08         0.00000E+00
    0.00000E+00         0.00000E+00        -0.30089E+08
 
   -0.30265E+08         0.19058E+04         0.00000E+00
    0.19058E+04        -0.60000E+08         0.00000E+00
    0.00000E+00         0.00000E+00        -0.29971E+08
 
   -0.30239E+08         0.54068E+04         0.00000E+00
    0.54068E+04        -0.59999E+08         0.00000E+00
    0.00000E+00         0.00000E+00        -0.29995E+08
 
   -0.30216E+08         0.85329E+04         0.00000E+00
    0.85329E+04        -0.59997E+08         0.00000E+00
    0.00000E+00         0.00000E+00        -0.30017E+08
 
   -0.30194E+08         0.11306E+05         0.00000E+00
    0.11306E+05        -0.59995E+08         0.00000E+00
    0.00000E+00         0.00000E+00        -0.30036E+08
 
   -0.30174E+08         0.13749E+05         0.00000E+00
    0.13749E+05        -0.59993E+08         0.00000E+00
    0.00000E+00         0.00000E+00        -0.30052E+08
 
   -0.30156E+08         0.15886E+05         0.00000E+00
    0.15886E+05        -0.59990E+08         0.00000E+00
    0.00000E+00         0.00000E+00        -0.30066E+08
 
   -0.30140E+08         0.17741E+05         0.00000E+00
    0.17741E+05        -0.59986E+08         0.00000E+00
    0.00000E+00         0.00000E+00        -0.30077E+08
 
   -0.30126E+08         0.19342E+05         0.00000E+00
    0.19342E+05        -0.59983E+08         0.00000E+00
    0.00000E+00         0.00000E+00        -0.30086E+08
 
   -0.30115E+08         0.20711E+05         0.00000E+00
    0.20711E+05        -0.59979E+08         0.00000E+00
    0.00000E+00         0.00000E+00        -0.30093E+08
 
   -0.30105E+08         0.21874E+05         0.00000E+00
    0.21874E+05        -0.59975E+08         0.00000E+00
    0.00000E+00         0.00000E+00        -0.30097E+08
 
   -0.30097E+08         0.22859E+05         0.00000E+00
    0.22859E+05        -0.59970E+08         0.00000E+00
    0.00000E+00         0.00000E+00        -0.30099E+08
 
   -0.30091E+08         0.23690E+05         0.00000E+00
    0.23690E+05        -0.59966E+08         0.00000E+00
    0.00000E+00         0.00000E+00        -0.30100E+08
 
   -0.30087E+08         0.24395E+05         0.00000E+00
    0.24395E+05        -0.59962E+08         0.00000E+00
    0.00000E+00         0.00000E+00        -0.30098E+08
 
   -0.30085E+08         0.25004E+05         0.00000E+00
    0.25004E+05        -0.59958E+08         0.00000E+00
    0.00000E+00         0.00000E+00        -0.30094E+08
 
   -0.30085E+08         0.25547E+05         0.00000E+00
    0.25547E+05        -0.59953E+08         0.00000E+00
    0.00000E+00         0.00000E+00        -0.30089E+08
 
   -0.30261E+08         0.23482E+04         0.00000E+00
    0.23482E+04        -0.60000E+08         0.00000E+00
    0.00000E+00         0.00000E+00        -0.29975E+08
 
   -0.30236E+08         0.66370E+04         0.00000E+00
    0.66370E+04        -0.59999E+08         0.00000E+00
    0.00000E+00         0.00000E+00        -0.29999E+08
 
   -0.30212E+08         0.10437E+05         0.00000E+00
    0.10437E+05        -0.59997E+08         0.00000E+00
    0.00000E+00         0.00000E+00        -0.30020E+08
 
   -0.30191E+08         0.13777E+05         0.00000E+00
    0.13777E+05        -0.59995E+08         0.00000E+00
    0.00000E+00         0.00000E+00        -0.30038E+08
 
   -0.30171E+08         0.16688E+05         0.00000E+00
    0.16688E+05        -0.59992E+08         0.00000E+00
    0.00000E+00         0.00000E+00        -0.30054E+08
 
   -0.30154E+08         0.19204E+05         0.00000E+00
    0.19204E+05        -0.59989E+08         0.00000E+00
    0.00000E+00         0.00000E+00        -0.30067E+08
 
   -0.30138E+08         0.21357E+05         0.00000E+00
    0.21357E+05        -0.59985E+08         0.00000E+00
    0.00000E+00         0.00000E+00        -0.30078E+08
 
   -0.30125E+08         0.23185E+05         0.00000E+00
    0.23185E+05        -0.59981E+08         0.00000E+00
    0.00000E+00         0.00000E+00        -0.30086E+08
 
   -0.30113E+08         0.24721E+05         0.00000E+00
    0.24721E+05        -0.59977E+08         0.00000E+00
    0.00000E+00         0.00000E+00        -0.30092E+08
 
   -0.30104E+08         0.25999E+05         0.00000E+00
    0.25999E+05        -0.59973E+08         0.00000E+00
    0.00000E+00         0.00000E+00        -0.30096E+08
 
   -0.30096E+08         0.27054E+05         0.00000E+00
    0.27054E+05        -0.59969E+08         0.00000E+00
    0.00000E+00         0.00000E+00        -0.30099E+08
 
   -0.30090E+08         0.27922E+05         0.00000E+00
    0.27922E+05        -0.59965E+08         0.00000E+00
    0.00000E+00         0.00000E+00        -0.30099E+08
 
   -0.30087E+08         0.28637E+05         0.00000E+00
    0.28637E+05        -0.59961E+08         0.00000E+00
    0.00000E+00         0.00000E+00        -0.30097E+08
 
   -0.30085E+08         0.29237E+05         0.00000E+00
    0.29237E+05        -0.59957E+08         0.00000E+00
    0.00000E+00         0.00000E+00        -0.30094E+08
 
   -0.30085E+08         0.29764E+05         0.00000E+00
    0.29764E+05        -0.59953E+08         0.00000E+00
    0.00000E+00         0.00000E+00        -0.30088E+08
 
   -0.30256E+08         0.28351E+04         0.00000E+00
    0.28351E+04        -0.60000E+08         0.00000E+00
    0.00000E+00         0.00000E+00        -0.29980E+08
 
   -0.30231E+08         0.79817E+04         0.00000E+00
    0.79817E+04        -0.59999E+08         0.00000E+00
    0.00000E+00         0.00000E+00        -0.30003E+08
 
   -0.30208E+08         0.12503E+05         0.00000E+00
    0.12503E+05        -0.59997E+08         0.00000E+00
    0.00000E+00         0.00000E+00        -0.30023E+08
 
   -0.30187E+08         0.16438E+05         0.00000E+00
    0.16438E+05        -0.59994E+08         0.00000E+00
    0.00000E+00         0.00000E+00        -0.30041E+08
 
   -0.30168E+08         0.19827E+05         0.00000E+00
    0.19827E+05        -0.59991E+08         0.00000E+00
    0.00000E+00         0.00000E+00        -0.30056E+08
 
   -0.30151E+08         0.22715E+05         0.00000E+00
    0.22715E+05        -0.59988E+08         0.00000E+00
    0.00000E+00         0.00000E+00        -0.30068E+08
 
   -0.30136E+08         0.25147E+05         0.00000E+00
    0.25147E+05        -0.59984E+08         0.00000E+00
    0.00000E+00         0.00000E+00        -0.30078E+08
 
   -0.30123E+08         0.27170E+05         0.00000E+00
    0.27170E+05        -0.59980E+08         0.00000E+00
    0.00000E+00         0.00000E+00        -0.30086E+08
 
   -0.30112E+08         0.28832E+05         0.00000E+00
    0.28832E+05        -0.59976E+08         0.00000E+00
    0.00000E+00         0.00000E+00        -0.30092E+08
 
   -0.30103E+08         0.30176E+05         0.00000E+00
    0.30176E+05        -0.59972E+08         0.00000E+00
    0.00000E+00         0.00000E+00        -0.30096E+08
 
   -0.30095E+08         0.31248E+05         0.00000E+00
    0.31248E+05        -0.59968E+08         0.00000E+00
    0.00000E+00         0.00000E+00        -0.30098E+08
 
   -0.30090E+08         0.32093E+05         0.00000E+00
    0.32093E+05        -0.59964E+08         0.00000E+00
    0.00000E+00         0.00000E+00        -0.30098E+08
 
   -0.30086E+08         0.32758E+05         0.00000E+00
    0.32758E+05        -0.59960E+08         0.00000E+00
    0.00000E+00         0.00000E+00        -0.30096E+08
 
   -0.30084E+08         0.33290E+05         0.00000E+00
    0.33290E+05        -0.59956E+08         0.00000E+00
    0.00000E+00         0.00000E+00        -0.30093E+08
 
   -0.30084E+08         0.33741E+05         0.00000E+00
    0.33741E+05        -0.59952E+08         0.00000E+00
    0.00000E+00         0.00000E+00        -0.30088E+08
 
   -0.30250E+08         0.33703E+04         0.00000E+00
    0.33703E+04        -0.60000E+08         0.00000E+00
    0.00000E+00         0.00000E+00        -0.29986E+08
 
   -0.30226E+08         0.94501E+04         0.00000E+00
    0.94501E+04        -0.59999E+08         0.00000E+00
    0.00000E+00         0.00000E+00        -0.30008E+08
 
   -0.30204E+08         0.14745E+05         0.00000E+00
    0.14745E+05        -0.59997E+08         0.00000E+00
    0.00000E+00         0.00000E+00        -0.30028E+08
 
   -0.30183E+08         0.19303E+05         0.00000E+00
    0.19303E+05        -0.59994E+08         0.00000E+00
    0.00000E+00         0.00000E+00        -0.30044E+08
 
   -0.30165E+08         0.23180E+05         0.00000E+00
    0.23180E+05        -0.59991E+08         0.00000E+00
    0.00000E+00         0.00000E+00        -0.30058E+08
 
   -0.30149E+08         0.26432E+05         0.00000E+00
    0.26432E+05        -0.59987E+08         0.00000E+00
    0.00000E+00         0.00000E+00        -0.30070E+08
 
   -0.30134E+08         0.29119E+05         0.00000E+00
    0.29119E+05        -0.59983E+08         0.00000E+00
    0.00000E+00         0.00000E+00        -0.30079E+08
 
   -0.30121E+08         0.31302E+05         0.00000E+00
    0.31302E+05        -0.59979E+08         0.00000E+00
    0.00000E+00         0.00000E+00        -0.30087E+08
 
   -0.30110E+08         0.33041E+05         0.00000E+00
    0.33041E+05        -0.59975E+08         0.00000E+00
    0.00000E+00         0.00000E+00        -0.30092E+08
 
   -0.30101E+08         0.34395E+05         0.00000E+00
    0.34395E+05        -0.59970E+08         0.00000E+00
    0.00000E+00         0.00000E+00        -0.30095E+08
 
   -0.30094E+08         0.35422E+05         0.00000E+00
    0.35422E+05        -0.59966E+08         0.00000E+00
    0.00000E+00         0.00000E+00        -0.30097E+08
 
   -0.30089E+08         0.36178E+05         0.00000E+00
    0.36178E+05        -0.59962E+08         0.00000E+00
    0.00000E+00         0.00000E+00        -0.30097E+08
 
   -0.30086E+08         0.36723E+05         0.00000E+00
    0.36723E+05        -0.59958E+08         0.00000E+00
    0.00000E+00         0.00000E+00        -0.30095E+08
 
   -0.30084E+08         0.37116E+05         0.00000E+00
    0.37116E+05        -0.59955E+08         0.00000E+00
    0.00000E+00         0.00000E+00        -0.30092E+08
 
   -0.30084E+08         0.37421E+05         0.00000E+00
    0.37421E+05        -0.59951E+08         0.00000E+00
    0.00000E+00         0.00000E+00        -0.30087E+08
 
   -0.30243E+08         0.39559E+04         0.00000E+00
    0.39559E+04        -0.60000E+08         0.00000E+00
    0.00000E+00         0.00000E+00        -0.29993E+08
 
   -0.30220E+08         0.11047E+05         0.00000E+00
    0.11047E+05        -0.59998E+08         0.00000E+00
    0.00000E+00         0.00000E+00        -0.30014E+08
 
   -0.30199E+08         0.17168E+05         0.00000E+00
    0.17168E+05        -0.59996E+08         0.00000E+00
    0.00000E+00         0.00000E+00        -0.30032E+08
 
   -0.30179E+08         0.22381E+05         0.00000E+00
    0.22381E+05        -0.59993E+08         0.00000E+00
    0.00000E+00         0.00000E+00        -0.30048E+08
 
   -0.30161E+08         0.26755E+05         0.00000E+00
    0.26755E+05        -0.59990E+08         0.00000E+00
    0.00000E+00         0.00000E+00        -0.30061E+08
 
   -0.30145E+08         0.30361E+05         0.00000E+00
    0.30361E+05        -0.59986E+08         0.00000E+00
    0.00000E+00         0.00000E+00        -0.30072E+08
 
   -0.30131E+08         0.33277E+05         0.00000E+00
    0.33277E+05        -0.59982E+08         0.00000E+00
    0.00000E+00         0.00000E+00        -0.30080E+08
 
   -0.30119E+08         0.35578E+05         0.00000E+00
    0.35578E+05        -0.59978E+08         0.00000E+00
    0.00000E+00         0.00000E+00        -0.30087E+08
 
   -0.30109E+08         0.37343E+05         0.00000E+00
    0.37343E+05        -0.59973E+08         0.00000E+00
    0.00000E+00         0.00000E+00        -0.30092E+08
 
   -0.30100E+08         0.38643E+05         0.00000E+00
    0.38643E+05        -0.59969E+08         0.00000E+00
    0.00000E+00         0.00000E+00        -0.30094E+08
 
   -0.30093E+08         0.39553E+05         0.00000E+00
    0.39553E+05        -0.59965E+08         0.00000E+00
    0.00000E+00         0.00000E+00        -0.30096E+08
 
   -0.30088E+08         0.40143E+05         0.00000E+00
    0.40143E+05        -0.59961E+08         0.00000E+00
    0.00000E+00         0.00000E+00        -0.30096E+08
 
   -0.30085E+08         0.40487E+05         0.00000E+00
    0.40487E+05        -0.59957E+08         0.00000E+00
    0.00000E+00         0.00000E+00        -0.30094E+08
 
   -0.30084E+08         0.40659E+05         0.00000E+00
    0.40659E+05        -0.59954E+08         0.00000E+00
    0.00000E+00         0.00000E+00        -0.30091E+08
 
   -0.30084E+08         0.40740E+05         0.00000E+00
    0.40740E+05        -0.59950E+08         0.00000E+00
    0.00000E+00         0.00000E+00        -0.30087E+08
 
   -0.30235E+08         0.45916E+04         0.00000E+00
    0.45916E+04        -0.60000E+08         0.00000E+00
    0.00000E+00         0.00000E+00        -0.30001E+08
 
   -0.30213E+08         0.12773E+05         0.00000E+00
    0.12773E+05        -0.59998E+08         0.00000E+00
    0.00000E+00         0.00000E+00        -0.30021E+08
 
   -0.30192E+08         0.19773E+05         0.00000E+00
    0.19773E+05        -0.59996E+08         0.00000E+00
    0.00000E+00         0.00000E+00        -0.30038E+08
 
   -0.30174E+08         0.25670E+05         0.00000E+00
    0.25670E+05        -0.59993E+08         0.00000E+00
    0.00000E+00         0.00000E+00        -0.30053E+08
 
   -0.30157E+08         0.30548E+05         0.00000E+00
    0.30548E+05        -0.59989E+08         0.00000E+00
    0.00000E+00         0.00000E+00        -0.30064E+08
 
   -0.30142E+08         0.34499E+05         0.00000E+00
    0.34499E+05        -0.59985E+08         0.00000E+00
    0.00000E+00         0.00000E+00        -0.30074E+08
 
   -0.30129E+08         0.37614E+05         0.00000E+00
    0.37614E+05        -0.59981E+08         0.00000E+00
    0.00000E+00         0.00000E+00        -0.30082E+08
 
   -0.30117E+08         0.39990E+05         0.00000E+00
    0.39990E+05        -0.59976E+08         0.00000E+00
    0.00000E+00         0.00000E+00        -0.30087E+08
 
   -0.30107E+08         0.41720E+05         0.00000E+00
    0.41720E+05        -0.59972E+08         0.00000E+00
    0.00000E+00         0.00000E+00        -0.30091E+08
 
   -0.30099E+08         0.42897E+05         0.00000E+00
    0.42897E+05        -0.59968E+08         0.00000E+00
    0.00000E+00         0.00000E+00        -0.30094E+08
 
   -0.30093E+08         0.43609E+05         0.00000E+00
    0.43609E+05        -0.59964E+08         0.00000E+00
    0.00000E+00         0.00000E+00        -0.30095E+08
 
   -0.30088E+08         0.43945E+05         0.00000E+00
    0.43945E+05        -0.59960E+08         0.00000E+00
    0.00000E+00         0.00000E+00        -0.30094E+08
 
   -0.30085E+08         0.43997E+05         0.00000E+00
    0.43997E+05        -0.59956E+08         0.00000E+00
    0.00000E+00         0.00000E+00        -0.30093E+08
 
   -0.30084E+08         0.43856E+05         0.00000E+00
    0.43856E+05        -0.59953E+08         0.00000E+00
    0.00000E+00         0.00000E+00        -0.30090E+08
 
   -0.30084E+08         0.43621E+05         0.00000E+00
    0.43621E+05        -0.59950E+08         0.00000E+00
    0.00000E+00         0.00000E+00        -0.30086E+08
 
   -0.30226E+08         0.52745E+04         0.00000E+00
    0.52745E+04        -0.59999E+08         0.00000E+00
    0.00000E+00         0.00000E+00        -0.30010E+08
 
   -0.30205E+08         0.14619E+05         0.00000E+00
    0.14619E+05        -0.59998E+08         0.00000E+00
    0.00000E+00         0.00000E+00        -0.30029E+08
 
   -0.30186E+08         0.22549E+05         0.00000E+00
    0.22549E+05        -0.59996E+08         0.00000E+00
    0.00000E+00         0.00000E+00        -0.30045E+08
 
   -0.30168E+08         0.29159E+05         0.00000E+00
    0.29159E+05        -0.59993E+08         0.00000E+00
    0.00000E+00         0.00000E+00        -0.30058E+08
 
   -0.30152E+08         0.34550E+05         0.00000E+00
    0.34550E+05        -0.59989E+08         0.00000E+00
    0.00000E+00         0.00000E+00        -0.30068E+08
 
   -0.30138E+08         0.38832E+05         0.00000E+00
    0.38832E+05        -0.59984E+08         0.00000E+00
    0.00000E+00         0.00000E+00        -0.30077E+08
 
   -0.30126E+08         0.42117E+05         0.00000E+00
    0.42117E+05        -0.59980E+08         0.00000E+00
    0.00000E+00         0.00000E+00        -0.30083E+08
 
   -0.30115E+08         0.44518E+05         0.00000E+00
    0.44518E+05        -0.59975E+08         0.00000E+00
    0.00000E+00         0.00000E+00        -0.30088E+08
 
   -0.30106E+08         0.46150E+05         0.00000E+00
    0.46150E+05        -0.59971E+08         0.00000E+00
    0.00000E+00         0.00000E+00        -0.30091E+08
 
   -0.30098E+08         0.47124E+05         0.00000E+00
    0.47124E+05        -0.59967E+08         0.00000E+00
    0.00000E+00         0.00000E+00        -0.30093E+08
 
   -0.30092E+08         0.47549E+05         0.00000E+00
    0.47549E+05        -0.59963E+08         0.00000E+00
    0.00000E+00         0.00000E+00        -0.30094E+08
 
   -0.30088E+08         0.47534E+05         0.00000E+00
    0.47534E+05        -0.59959E+08         0.00000E+00
    0.00000E+00         0.00000E+00        -0.30093E+08
 
   -0.30085E+08         0.47190E+05         0.00000E+00
    0.47190E+05        -0.59956E+08         0.00000E+00
    0.00000E+00         0.00000E+00        -0.30092E+08
 
   -0.30084E+08         0.46633E+05         0.00000E+00
    0.46633E+05        -0.59953E+08         0.00000E+00
    0.00000E+00         0.00000E+00        -0.30090E+08
 
   -0.30084E+08         0.45983E+05         0.00000E+00
    0.45983E+05        -0.59951E+08         0.00000E+00
    0.00000E+00         0.00000E+00        -0.30086E+08
 
   -0.30215E+08         0.59983E+04         0.00000E+00
    0.59983E+04        -0.59999E+08         0.00000E+00
    0.00000E+00         0.00000E+00        -0.30020E+08
 
   -0.30196E+08         0.16570E+05         0.00000E+00
    0.16570E+05        -0.59998E+08         0.00000E+00
    0.00000E+00         0.00000E+00        -0.30038E+08
 
   -0.30178E+08         0.25477E+05         0.00000E+00
    0.25477E+05        -0.59996E+08         0.00000E+00
    0.00000E+00         0.00000E+00        -0.30052E+08
 
   -0.30162E+08         0.32827E+05         0.00000E+00
    0.32827E+05        -0.59992E+08         0.00000E+00
    0.00000E+00         0.00000E+00        -0.30063E+08
 
   -0.30147E+08         0.38738E+05         0.00000E+00
    0.38738E+05        -0.59988E+08         0.00000E+00
    0.00000E+00         0.00000E+00        -0.30073E+08
 
   -0.30134E+08         0.43338E+05         0.00000E+00
    0.43338E+05        -0.59984E+08         0.00000E+00
    0.00000E+00         0.00000E+00        -0.30080E+08
 
   -0.30123E+08         0.46759E+05         0.00000E+00
    0.46759E+05        -0.59979E+08         0.00000E+00
    0.00000E+00         0.00000E+00        -0.30085E+08
 
   -0.30113E+08         0.49135E+05         0.00000E+00
    0.49135E+05        -0.59974E+08         0.00000E+00
    0.00000E+00         0.00000E+00        -0.30089E+08
 
   -0.30105E+08         0.50598E+05         0.00000E+00
    0.50598E+05        -0.59970E+08         0.00000E+00
    0.00000E+00         0.00000E+00        -0.30091E+08
 
   -0.30098E+08         0.51283E+05         0.00000E+00
    0.51283E+05        -0.59966E+08         0.00000E+00
    0.00000E+00         0.00000E+00        -0.30092E+08
 
   -0.30092E+08         0.51320E+05         0.00000E+00
    0.51320E+05        -0.59962E+08         0.00000E+00
    0.00000E+00         0.00000E+00        -0.30093E+08
 
   -0.30089E+08         0.50845E+05         0.00000E+00
    0.50845E+05        -0.59958E+08         0.00000E+00
    0.00000E+00         0.00000E+00        -0.30092E+08
 
   -0.30086E+08         0.49994E+05         0.00000E+00
    0.49994E+05        -0.59956E+08         0.00000E+00
    0.00000E+00         0.00000E+00        -0.30091E+08
 
   -0.30085E+08         0.48908E+05         0.00000E+00
    0.48908E+05        -0.59953E+08         0.00000E+00
    0.00000E+00         0.00000E+00        -0.30089E+08
 
   -0.30085E+08         0.47731E+05         0.00000E+00
    0.47731E+05        -0.59952E+08         0.00000E+00
    0.00000E+00         0.00000E+00        -0.30087E+08
 
   -0.30203E+08         0.67536E+04         0.00000E+00
    0.67536E+04        -0.59999E+08         0.00000E+00
    0.00000E+00         0.00000E+00        -0.30032E+08
 
   -0.30185E+08         0.18604E+05         0.00000E+00
    0.18604E+05        -0.59998E+08         0.00000E+00
    0.00000E+00         0.00000E+00        -0.30048E+08
 
   -0.30169E+08         0.28525E+05         0.00000E+00
    0.28525E+05        -0.59995E+08         0.00000E+00
    0.00000E+00         0.00000E+00        -0.30060E+08
 
   -0.30155E+08         0.36638E+05         0.00000E+00
    0.36638E+05        -0.59992E+08         0.00000E+00
    0.00000E+00         0.00000E+00        -0.30070E+08
 
   -0.30142E+08         0.43076E+05         0.00000E+00
    0.43076E+05        -0.59988E+08         0.00000E+00
    0.00000E+00         0.00000E+00        -0.30078E+08
 
   -0.30130E+08         0.47982E+05         0.00000E+00
    0.47982E+05        -0.59983E+08         0.00000E+00
    0.00000E+00         0.00000E+00        -0.30083E+08
 
   -0.30120E+08         0.51505E+05         0.00000E+00
    0.51505E+05        -0.59979E+08         0.00000E+00
    0.00000E+00         0.00000E+00        -0.30087E+08
 
   -0.30111E+08         0.53798E+05         0.00000E+00
    0.53798E+05        -0.59974E+08         0.00000E+00
    0.00000E+00         0.00000E+00        -0.30090E+08
 
   -0.30104E+08         0.55016E+05         0.00000E+00
    0.55016E+05        -0.59969E+08         0.00000E+00
    0.00000E+00         0.00000E+00        -0.30091E+08
 
   -0.30098E+08         0.55316E+05         0.00000E+00
    0.55316E+05        -0.59965E+08         0.00000E+00
    0.00000E+00         0.00000E+00        -0.30092E+08
 
   -0.30093E+08         0.54858E+05         0.00000E+00
    0.54858E+05        -0.59961E+08         0.00000E+00
    0.00000E+00         0.00000E+00        -0.30092E+08
 
   -0.30089E+08         0.53804E+05         0.00000E+00
    0.53804E+05        -0.59958E+08         0.00000E+00
    0.00000E+00         0.00000E+00        -0.30091E+08
 
   -0.30087E+08         0.52323E+05         0.00000E+00
    0.52323E+05        -0.59956E+08         0.00000E+00
    0.00000E+00         0.00000E+00        -0.30090E+08
 
   -0.30086E+08         0.50586E+05         0.00000E+00
    0.50586E+05        -0.59954E+08         0.00000E+00
    0.00000E+00         0.00000E+00        -0.30089E+08
 
   -0.30086E+08         0.48767E+05         0.00000E+00
    0.48767E+05        -0.59953E+08         0.00000E+00
    0.00000E+00         0.00000E+00        -0.30088E+08
 
   -0.30189E+08         0.75273E+04         0.00000E+00
    0.75273E+04        -0.59999E+08         0.00000E+00
    0.00000E+00         0.00000E+00        -0.30046E+08
 
   -0.30174E+08         0.20687E+05         0.00000E+00
    0.20687E+05        -0.59998E+08         0.00000E+00
    0.00000E+00         0.00000E+00        -0.30059E+08
 
   -0.30160E+08         0.31651E+05         0.00000E+00
    0.31651E+05        -0.59995E+08         0.00000E+00
    0.00000E+00         0.00000E+00        -0.30070E+08
 
   -0.30147E+08         0.40547E+05         0.00000E+00
    0.40547E+05        -0.59992E+08         0.00000E+00
    0.00000E+00         0.00000E+00        -0.30077E+08
 
   -0.30136E+08         0.47517E+05         0.00000E+00
    0.47517E+05        -0.59988E+08         0.00000E+00
    0.00000E+00         0.00000E+00        -0.30083E+08
 
   -0.30126E+08         0.52715E+05         0.00000E+00
    0.52715E+05        -0.59983E+08         0.00000E+00
    0.00000E+00         0.00000E+00        -0.30087E+08
 
   -0.30117E+08         0.56304E+05         0.00000E+00
    0.56304E+05        -0.59978E+08         0.00000E+00
    0.00000E+00         0.00000E+00        -0.30090E+08
 
   -0.30110E+08         0.58453E+05         0.00000E+00
    0.58453E+05        -0.59973E+08         0.00000E+00
    0.00000E+00         0.00000E+00        -0.30091E+08
 
   -0.30103E+08         0.59342E+05         0.00000E+00
    0.59342E+05        -0.59969E+08         0.00000E+00
    0.00000E+00         0.00000E+00        -0.30092E+08
 
   -0.30098E+08         0.59153E+05         0.00000E+00
    0.59153E+05        -0.59965E+08         0.00000E+00
    0.00000E+00         0.00000E+00        -0.30092E+08
 
   -0.30094E+08         0.58080E+05         0.00000E+00
    0.58080E+05        -0.59962E+08         0.00000E+00
    0.00000E+00         0.00000E+00        -0.30091E+08
 
   -0.30091E+08         0.56321E+05         0.00000E+00
    0.56321E+05        -0.59959E+08         0.00000E+00
    0.00000E+00         0.00000E+00        -0.30091E+08
 
   -0.30089E+08         0.54082E+05         0.00000E+00
    0.54082E+05        -0.59957E+08         0.00000E+00
    0.00000E+00         0.00000E+00        -0.30090E+08
 
   -0.30088E+08         0.51570E+05         0.00000E+00
    0.51570E+05        -0.59956E+08         0.00000E+00
    0.00000E+00         0.00000E+00        -0.30090E+08
 
   -0.30089E+08         0.48988E+05         0.00000E+00
    0.48988E+05        -0.59956E+08         0.00000E+00
    0.00000E+00         0.00000E+00        -0.30089E+08
 
   -0.30174E+08         0.83037E+04         0.00000E+00
    0.83037E+04        -0.59999E+08         0.00000E+00
    0.00000E+00         0.00000E+00        -0.30061E+08
 
   -0.30161E+08         0.22782E+05         0.00000E+00
    0.22782E+05        -0.59998E+08         0.00000E+00
    0.00000E+00         0.00000E+00        -0.30072E+08
 
   -0.30150E+08         0.34802E+05         0.00000E+00
    0.34802E+05        -0.59995E+08         0.00000E+00
    0.00000E+00         0.00000E+00        -0.30080E+08
 
   -0.30139E+08         0.44493E+05         0.00000E+00
    0.44493E+05        -0.59992E+08         0.00000E+00
    0.00000E+00         0.00000E+00        -0.30086E+08
 
   -0.30130E+08         0.51997E+05         0.00000E+00
    0.51997E+05        -0.59988E+08         0.00000E+00
    0.00000E+00         0.00000E+00        -0.30089E+08
 
   -0.30122E+08         0.57472E+05         0.00000E+00
    0.57472E+05        -0.59983E+08         0.00000E+00
    0.00000E+00         0.00000E+00        -0.30092E+08
 
   -0.30114E+08         0.61086E+05         0.00000E+00
    0.61086E+05        -0.59978E+08         0.00000E+00
    0.00000E+00         0.00000E+00        -0.30093E+08
 
   -0.30108E+08         0.63026E+05         0.00000E+00
    0.63026E+05        -0.59974E+08         0.00000E+00
    0.00000E+00         0.00000E+00        -0.30093E+08
 
   -0.30103E+08         0.63492E+05         0.00000E+00
    0.63492E+05        -0.59969E+08         0.00000E+00
    0.00000E+00         0.00000E+00        -0.30092E+08
 
   -0.30099E+08         0.62702E+05         0.00000E+00
    0.62702E+05        -0.59966E+08         0.00000E+00
    0.00000E+00         0.00000E+00        -0.30091E+08
 
   -0.30096E+08         0.60887E+05         0.00000E+00
    0.60887E+05        -0.59963E+08         0.00000E+00
    0.00000E+00         0.00000E+00        -0.30091E+08
 
   -0.30094E+08         0.58293E+05         0.00000E+00
    0.58293E+05        -0.59961E+08         0.00000E+00
    0.00000E+00         0.00000E+00        -0.30090E+08
 
   -0.30092E+08         0.55168E+05         0.00000E+00
    0.55168E+05        -0.59959E+08         0.00000E+00
    0.00000E+00         0.00000E+00        -0.30090E+08
 
   -0.30091E+08         0.51759E+05         0.00000E+00
    0.51759E+05        -0.59959E+08         0.00000E+00
    0.00000E+00         0.00000E+00        -0.30091E+08
 
   -0.30092E+08         0.48298E+05         0.00000E+00
    0.48298E+05        -0.59960E+08         0.00000E+00
    0.00000E+00         0.00000E+00        -0.30091E+08
 
   -0.30158E+08         0.90652E+04         0.00000E+00
    0.90652E+04        -0.60000E+08         0.00000E+00
    0.00000E+00         0.00000E+00        -0.30077E+08
 
   -0.30147E+08         0.24844E+05         0.00000E+00
    0.24844E+05        -0.59998E+08         0.00000E+00
    0.00000E+00         0.00000E+00        -0.30086E+08
 
   -0.30138E+08         0.37915E+05         0.00000E+00
    0.37915E+05        -0.59996E+08         0.00000E+00
    0.00000E+00         0.00000E+00        -0.30091E+08
 
   -0.30130E+08         0.48401E+05         0.00000E+00
    0.48401E+05        -0.59992E+08         0.00000E+00
    0.00000E+00         0.00000E+00        -0.30095E+08
 
   -0.30123E+08         0.56436E+05         0.00000E+00
    0.56436E+05        -0.59988E+08         0.00000E+00
    0.00000E+00         0.00000E+00        -0.30097E+08
 
   -0.30117E+08         0.62166E+05         0.00000E+00
    0.62166E+05        -0.59983E+08         0.00000E+00
    0.00000E+00         0.00000E+00        -0.30097E+08
 
   -0.30112E+08         0.65761E+05         0.00000E+00
    0.65761E+05        -0.59979E+08         0.00000E+00
    0.00000E+00         0.00000E+00        -0.30096E+08
 
   -0.30107E+08         0.67417E+05         0.00000E+00
    0.67417E+05        -0.59974E+08         0.00000E+00
    0.00000E+00         0.00000E+00        -0.30095E+08
 
   -0.30104E+08         0.67360E+05         0.00000E+00
    0.67360E+05        -0.59970E+08         0.00000E+00
    0.00000E+00         0.00000E+00        -0.30093E+08
 
   -0.30101E+08         0.65848E+05         0.00000E+00
    0.65848E+05        -0.59967E+08         0.00000E+00
    0.00000E+00         0.00000E+00        -0.30092E+08
 
   -0.30098E+08         0.63162E+05         0.00000E+00
    0.63162E+05        -0.59965E+08         0.00000E+00
    0.00000E+00         0.00000E+00        -0.30091E+08
 
   -0.30097E+08         0.59603E+05         0.00000E+00
    0.59603E+05        -0.59963E+08         0.00000E+00
    0.00000E+00         0.00000E+00        -0.30090E+08
 
   -0.30096E+08         0.55474E+05         0.00000E+00
    0.55474E+05        -0.59963E+08         0.00000E+00
    0.00000E+00         0.00000E+00        -0.30091E+08
 
   -0.30095E+08         0.51058E+05         0.00000E+00
    0.51058E+05        -0.59964E+08         0.00000E+00
    0.00000E+00         0.00000E+00        -0.30092E+08
 
   -0.30095E+08         0.46615E+05         0.00000E+00
    0.46615E+05        -0.59965E+08         0.00000E+00
    0.00000E+00         0.00000E+00        -0.30094E+08
 
   -0.30140E+08         0.97946E+04         0.00000E+00
    0.97946E+04        -0.60000E+08         0.00000E+00
    0.00000E+00         0.00000E+00        -0.30095E+08
 
   -0.30132E+08         0.26825E+05         0.00000E+00
    0.26825E+05        -0.59998E+08         0.00000E+00
    0.00000E+00         0.00000E+00        -0.30101E+08
 
   -0.30126E+08         0.40920E+05         0.00000E+00
    0.40920E+05        -0.59996E+08         0.00000E+00
    0.00000E+00         0.00000E+00        -0.30104E+08
 
   -0.30121E+08         0.52185E+05         0.00000E+00
    0.52185E+05        -0.59992E+08         0.00000E+00
    0.00000E+00         0.00000E+00        -0.30105E+08
 
   -0.30116E+08         0.60731E+05         0.00000E+00
    0.60731E+05        -0.59988E+08         0.00000E+00
    0.00000E+00         0.00000E+00        -0.30104E+08
 
   -0.30112E+08         0.66684E+05         0.00000E+00
    0.66684E+05        -0.59984E+08         0.00000E+00
    0.00000E+00         0.00000E+00        -0.30103E+08
 
   -0.30109E+08         0.70205E+05         0.00000E+00
    0.70205E+05        -0.59980E+08         0.00000E+00
    0.00000E+00         0.00000E+00        -0.30100E+08
 
   -0.30107E+08         0.71494E+05         0.00000E+00
    0.71494E+05        -0.59976E+08         0.00000E+00
    0.00000E+00         0.00000E+00        -0.30097E+08
 
   -0.30105E+08         0.70807E+05         0.00000E+00
    0.70807E+05        -0.59972E+08         0.00000E+00
    0.00000E+00         0.00000E+00        -0.30094E+08
 
   -0.30103E+08         0.68450E+05         0.00000E+00
    0.68450E+05        -0.59970E+08         0.00000E+00
    0.00000E+00         0.00000E+00        -0.30092E+08
 
   -0.30102E+08         0.64770E+05         0.00000E+00
    0.64770E+05        -0.59968E+08         0.00000E+00
    0.00000E+00         0.00000E+00        -0.30091E+08
 
   -0.30101E+08         0.60133E+05         0.00000E+00
    0.60133E+05        -0.59967E+08         0.00000E+00
    0.00000E+00         0.00000E+00        -0.30091E+08
 
   -0.30101E+08         0.54898E+05         0.00000E+00
    0.54898E+05        -0.59968E+08         0.00000E+00
    0.00000E+00         0.00000E+00        -0.30092E+08
 
   -0.30100E+08         0.49392E+05         0.00000E+00
    0.49392E+05        -0.59969E+08         0.00000E+00
    0.00000E+00         0.00000E+00        -0.30095E+08
 
   -0.30100E+08         0.43886E+05         0.00000E+00
    0.43886E+05        -0.59972E+08         0.00000E+00
    0.00000E+00         0.00000E+00        -0.30098E+08
 
   -0.30121E+08         0.10476E+05         0.00000E+00
    0.10476E+05        -0.60000E+08         0.00000E+00
    0.00000E+00         0.00000E+00        -0.30114E+08
 
   -0.30116E+08         0.28681E+05         0.00000E+00
    0.28681E+05        -0.59998E+08         0.00000E+00
    0.00000E+00         0.00000E+00        -0.30117E+08
 
   -0.30113E+08         0.43744E+05         0.00000E+00
    0.43744E+05        -0.59996E+08         0.00000E+00
    0.00000E+00         0.00000E+00        -0.30117E+08
 
   -0.30110E+08         0.55742E+05         0.00000E+00
    0.55742E+05        -0.59993E+08         0.00000E+00
    0.00000E+00         0.00000E+00        -0.30116E+08
 
   -0.30109E+08         0.64755E+05         0.00000E+00
    0.64755E+05        -0.59989E+08         0.00000E+00
    0.00000E+00         0.00000E+00        -0.30113E+08
 
   -0.30108E+08         0.70880E+05         0.00000E+00
    0.70880E+05        -0.59985E+08         0.00000E+00
    0.00000E+00         0.00000E+00        -0.30109E+08
 
   -0.30107E+08         0.74254E+05         0.00000E+00
    0.74254E+05        -0.59982E+08         0.00000E+00
    0.00000E+00         0.00000E+00        -0.30104E+08
 
   -0.30107E+08         0.75084E+05         0.00000E+00
    0.75084E+05        -0.59978E+08         0.00000E+00
    0.00000E+00         0.00000E+00        -0.30100E+08
 
   -0.30107E+08         0.73656E+05         0.00000E+00
    0.73656E+05        -0.59975E+08         0.00000E+00
    0.00000E+00         0.00000E+00        -0.30096E+08
 
   -0.30107E+08         0.70342E+05         0.00000E+00
    0.70342E+05        -0.59973E+08         0.00000E+00
    0.00000E+00         0.00000E+00        -0.30094E+08
 
   -0.30107E+08         0.65565E+05         0.00000E+00
    0.65565E+05        -0.59972E+08         0.00000E+00
    0.00000E+00         0.00000E+00        -0.30092E+08
 
   -0.30107E+08         0.59767E+05         0.00000E+00
    0.59767E+05        -0.59973E+08         0.00000E+00
    0.00000E+00         0.00000E+00        -0.30093E+08
 
   -0.30107E+08         0.53364E+05         0.00000E+00
    0.53364E+05        -0.59974E+08         0.00000E+00
    0.00000E+00         0.00000E+00        -0.30095E+08
 
   -0.30106E+08         0.46716E+05         0.00000E+00
    0.46716E+05        -0.59977E+08         0.00000E+00
    0.00000E+00         0.00000E+00        -0.30098E+08
 
   -0.30106E+08         0.40098E+05         0.00000E+00
    0.40098E+05        -0.59980E+08         0.00000E+00
    0.00000E+00         0.00000E+00        -0.30103E+08
 
   -0.30100E+08         0.11100E+05         0.00000E+00
    0.11100E+05        -0.60000E+08         0.00000E+00
    0.00000E+00         0.00000E+00        -0.30135E+08
 
   -0.30099E+08         0.30373E+05         0.00000E+00
    0.30373E+05        -0.59999E+08         0.00000E+00
    0.00000E+00         0.00000E+00        -0.30134E+08
 
   -0.30099E+08         0.46311E+05         0.00000E+00
    0.46311E+05        -0.59996E+08         0.00000E+00
    0.00000E+00         0.00000E+00        -0.30132E+08
 
   -0.30100E+08         0.58957E+05         0.00000E+00
    0.58957E+05        -0.59994E+08         0.00000E+00
    0.00000E+00         0.00000E+00        -0.30128E+08
 
   -0.30101E+08         0.68353E+05         0.00000E+00
    0.68353E+05        -0.59991E+08         0.00000E+00
    0.00000E+00         0.00000E+00        -0.30122E+08
 
   -0.30103E+08         0.74558E+05         0.00000E+00
    0.74558E+05        -0.59987E+08         0.00000E+00
    0.00000E+00         0.00000E+00        -0.30116E+08
 
   -0.30105E+08         0.77689E+05         0.00000E+00
    0.77689E+05        -0.59984E+08         0.00000E+00
    0.00000E+00         0.00000E+00        -0.30110E+08
 
   -0.30107E+08         0.77956E+05         0.00000E+00
    0.77956E+05        -0.59981E+08         0.00000E+00
    0.00000E+00         0.00000E+00        -0.30104E+08
 
   -0.30110E+08         0.75690E+05         0.00000E+00
    0.75690E+05        -0.59979E+08         0.00000E+00
    0.00000E+00         0.00000E+00        -0.30099E+08
 
   -0.30111E+08         0.71336E+05         0.00000E+00
    0.71336E+05        -0.59978E+08         0.00000E+00
    0.00000E+00         0.00000E+00        -0.30096E+08
 
   -0.30113E+08         0.65404E+05         0.00000E+00
    0.65404E+05        -0.59978E+08         0.00000E+00
    0.00000E+00         0.00000E+00        -0.30095E+08
 
   -0.30114E+08         0.58413E+05         0.00000E+00
    0.58413E+05        -0.59980E+08         0.00000E+00
    0.00000E+00         0.00000E+00        -0.30095E+08
 
   -0.30114E+08         0.50830E+05         0.00000E+00
    0.50830E+05        -0.59982E+08         0.00000E+00
    0.00000E+00         0.00000E+00        -0.30098E+08
 
   -0.30114E+08         0.43034E+05         0.00000E+00
    0.43034E+05        -0.59986E+08         0.00000E+00
    0.00000E+00         0.00000E+00        -0.30103E+08
 
   -0.30113E+08         0.35293E+05         0.00000E+00
    0.35293E+05        -0.59991E+08         0.00000E+00
    0.00000E+00         0.00000E+00        -0.30110E+08
 
   -0.30079E+08         0.11662E+05         0.00000E+00
    0.11662E+05        -0.60000E+08         0.00000E+00
    0.00000E+00         0.00000E+00        -0.30156E+08
 
   -0.30081E+08         0.31868E+05         0.00000E+00
    0.31868E+05        -0.59999E+08         0.00000E+00
    0.00000E+00         0.00000E+00        -0.30153E+08
 
   -0.30084E+08         0.48546E+05         0.00000E+00
    0.48546E+05        -0.59997E+08         0.00000E+00
    0.00000E+00         0.00000E+00        -0.30147E+08
 
   -0.30088E+08         0.61699E+05         0.00000E+00
    0.61699E+05        -0.59995E+08         0.00000E+00
    0.00000E+00         0.00000E+00        -0.30140E+08
 
   -0.30093E+08         0.71328E+05         0.00000E+00
    0.71328E+05        -0.59992E+08         0.00000E+00
    0.00000E+00         0.00000E+00        -0.30132E+08
 
   -0.30098E+08         0.77465E+05         0.00000E+00
    0.77465E+05        -0.59990E+08         0.00000E+00
    0.00000E+00         0.00000E+00        -0.30124E+08
 
   -0.30104E+08         0.80216E+05         0.00000E+00
    0.80216E+05        -0.59987E+08         0.00000E+00
    0.00000E+00         0.00000E+00        -0.30116E+08
 
   -0.30109E+08         0.79814E+05         0.00000E+00
    0.79814E+05        -0.59986E+08         0.00000E+00
    0.00000E+00         0.00000E+00        -0.30108E+08
 
   -0.30113E+08         0.76647E+05         0.00000E+00
    0.76647E+05        -0.59985E+08         0.00000E+00
    0.00000E+00         0.00000E+00        -0.30103E+08
 
   -0.30117E+08         0.71235E+05         0.00000E+00
    0.71235E+05        -0.59985E+08         0.00000E+00
    0.00000E+00         0.00000E+00        -0.30099E+08
 
   -0.30120E+08         0.64169E+05         0.00000E+00
    0.64169E+05        -0.59987E+08         0.00000E+00
    0.00000E+00         0.00000E+00        -0.30098E+08
 
   -0.30121E+08         0.56027E+05         0.00000E+00
    0.56027E+05        -0.59989E+08         0.00000E+00
    0.00000E+00         0.00000E+00        -0.30100E+08
 
   -0.30122E+08         0.47312E+05         0.00000E+00
    0.47312E+05        -0.59992E+08         0.00000E+00
    0.00000E+00         0.00000E+00        -0.30103E+08
 
   -0.30122E+08         0.38410E+05         0.00000E+00
    0.38410E+05        -0.59997E+08         0.00000E+00
    0.00000E+00         0.00000E+00        -0.30109E+08
 
   -0.30122E+08         0.29575E+05         0.00000E+00
    0.29575E+05        -0.60003E+08         0.00000E+00
    0.00000E+00         0.00000E+00        -0.30117E+08
 
   -0.30056E+08         0.12155E+05         0.00000E+00
    0.12155E+05        -0.60000E+08         0.00000E+00
    0.00000E+00         0.00000E+00        -0.30179E+08
 
   -0.30062E+08         0.33141E+05         0.00000E+00
    0.33141E+05        -0.59999E+08         0.00000E+00
    0.00000E+00         0.00000E+00        -0.30172E+08
 
   -0.30069E+08         0.50372E+05         0.00000E+00
    0.50372E+05        -0.59998E+08         0.00000E+00
    0.00000E+00         0.00000E+00        -0.30163E+08
 
   -0.30077E+08         0.63813E+05         0.00000E+00
    0.63813E+05        -0.59996E+08         0.00000E+00
    0.00000E+00         0.00000E+00        -0.30153E+08
 
   -0.30085E+08         0.73439E+05         0.00000E+00
    0.73439E+05        -0.59994E+08         0.00000E+00
    0.00000E+00         0.00000E+00        -0.30143E+08
 
   -0.30094E+08         0.79272E+05         0.00000E+00
    0.79272E+05        -0.59993E+08         0.00000E+00
    0.00000E+00         0.00000E+00        -0.30132E+08
 
   -0.30103E+08         0.81455E+05         0.00000E+00
    0.81455E+05        -0.59992E+08         0.00000E+00
    0.00000E+00         0.00000E+00        -0.30123E+08
 
   -0.30111E+08         0.80290E+05         0.00000E+00
    0.80290E+05        -0.59992E+08         0.00000E+00
    0.00000E+00         0.00000E+00        -0.30114E+08
 
   -0.30118E+08         0.76235E+05         0.00000E+00
    0.76235E+05        -0.59993E+08         0.00000E+00
    0.00000E+00         0.00000E+00        -0.30108E+08
 
   -0.30124E+08         0.69860E+05         0.00000E+00
    0.69860E+05        -0.59994E+08         0.00000E+00
    0.00000E+00         0.00000E+00        -0.30104E+08
 
   -0.30128E+08         0.61790E+05         0.00000E+00
    0.61790E+05        -0.59997E+08         0.00000E+00
    0.00000E+00         0.00000E+00        -0.30104E+08
 
   -0.30130E+08         0.52630E+05         0.00000E+00
    0.52630E+05        -0.60000E+08         0.00000E+00
    0.00000E+00         0.00000E+00        -0.30106E+08
 
   -0.30131E+08         0.42898E+05         0.00000E+00
    0.42898E+05        -0.60005E+08         0.00000E+00
    0.00000E+00         0.00000E+00        -0.30110E+08
 
   -0.30131E+08         0.32980E+05         0.00000E+00
    0.32980E+05        -0.60010E+08         0.00000E+00
    0.00000E+00         0.00000E+00        -0.30117E+08
 
   -0.30131E+08         0.23114E+05         0.00000E+00
    0.23114E+05        -0.60016E+08         0.00000E+00
    0.00000E+00         0.00000E+00        -0.30126E+08
 
   -0.30033E+08         0.12579E+05         0.00000E+00
    0.12579E+05        -0.60000E+08         0.00000E+00
    0.00000E+00         0.00000E+00        -0.30203E+08
 
   -0.30043E+08         0.34156E+05         0.00000E+00
    0.34156E+05        -0.59999E+08         0.00000E+00
    0.00000E+00         0.00000E+00        -0.30192E+08
 
   -0.30054E+08         0.51698E+05         0.00000E+00
    0.51698E+05        -0.59998E+08         0.00000E+00
    0.00000E+00         0.00000E+00        -0.30180E+08
 
   -0.30065E+08         0.65117E+05         0.00000E+00
    0.65117E+05        -0.59997E+08         0.00000E+00
    0.00000E+00         0.00000E+00        -0.30167E+08
 
   -0.30078E+08         0.74372E+05         0.00000E+00
    0.74372E+05        -0.59997E+08         0.00000E+00
    0.00000E+00         0.00000E+00        -0.30154E+08
 
   -0.30090E+08         0.79558E+05         0.00000E+00
    0.79558E+05        -0.59997E+08         0.00000E+00
    0.00000E+00         0.00000E+00        -0.30141E+08
 
   -0.30103E+08         0.80943E+05         0.00000E+00
    0.80943E+05        -0.59998E+08         0.00000E+00
    0.00000E+00         0.00000E+00        -0.30131E+08
 
   -0.30114E+08         0.78967E+05         0.00000E+00
    0.78967E+05        -0.60000E+08         0.00000E+00
    0.00000E+00         0.00000E+00        -0.30122E+08
 
   -0.30124E+08         0.74159E+05         0.00000E+00
    0.74159E+05        -0.60003E+08         0.00000E+00
    0.00000E+00         0.00000E+00        -0.30115E+08
 
   -0.30132E+08         0.67072E+05         0.00000E+00
    0.67072E+05        -0.60006E+08         0.00000E+00
    0.00000E+00         0.00000E+00        -0.30112E+08
 
   -0.30137E+08         0.58274E+05         0.00000E+00
    0.58274E+05        -0.60010E+08         0.00000E+00
    0.00000E+00         0.00000E+00        -0.30111E+08
 
   -0.30140E+08         0.48330E+05         0.00000E+00
    0.48330E+05        -0.60014E+08         0.00000E+00
    0.00000E+00         0.00000E+00        -0.30114E+08
 
   -0.30142E+08         0.37757E+05         0.00000E+00
    0.37757E+05        -0.60019E+08         0.00000E+00
    0.00000E+00         0.00000E+00        -0.30119E+08
 
   -0.30142E+08         0.26950E+05         0.00000E+00
    0.26950E+05        -0.60025E+08         0.00000E+00
    0.00000E+00         0.00000E+00        -0.30127E+08
 
   -0.30141E+08         0.16148E+05         0.00000E+00
    0.16148E+05        -0.60032E+08         0.00000E+00
    0.00000E+00         0.00000E+00        -0.30136E+08
 
   -0.30009E+08         0.12932E+05         0.00000E+00
    0.12932E+05        -0.60000E+08         0.00000E+00
    0.00000E+00         0.00000E+00        -0.30227E+08
 
   -0.30023E+08         0.34870E+05         0.00000E+00
    0.34870E+05        -0.59999E+08         0.00000E+00
    0.00000E+00         0.00000E+00        -0.30212E+08
 
   -0.30038E+08         0.52385E+05         0.00000E+00
    0.52385E+05        -0.59999E+08         0.00000E+00
    0.00000E+00         0.00000E+00        -0.30196E+08
 
   -0.30054E+08         0.65332E+05         0.00000E+00
    0.65332E+05        -0.59999E+08         0.00000E+00
    0.00000E+00         0.00000E+00        -0.30180E+08
 
   -0.30071E+08         0.73717E+05         0.00000E+00
    0.73717E+05        -0.60000E+08         0.00000E+00
    0.00000E+00         0.00000E+00        -0.30165E+08
 
   -0.30088E+08         0.77815E+05         0.00000E+00
    0.77815E+05        -0.60002E+08         0.00000E+00
    0.00000E+00         0.00000E+00        -0.30151E+08
 
   -0.30103E+08         0.78177E+05         0.00000E+00
    0.78177E+05        -0.60006E+08         0.00000E+00
    0.00000E+00         0.00000E+00        -0.30140E+08
 
   -0.30118E+08         0.75440E+05         0.00000E+00
    0.75440E+05        -0.60010E+08         0.00000E+00
    0.00000E+00         0.00000E+00        -0.30132E+08
 
   -0.30130E+08         0.70167E+05         0.00000E+00
    0.70167E+05        -0.60015E+08         0.00000E+00
    0.00000E+00         0.00000E+00        -0.30126E+08
 
   -0.30140E+08         0.62790E+05         0.00000E+00
    0.62790E+05        -0.60020E+08         0.00000E+00
    0.00000E+00         0.00000E+00        -0.30123E+08
 
   -0.30147E+08         0.53695E+05         0.00000E+00
    0.53695E+05        -0.60025E+08         0.00000E+00
    0.00000E+00         0.00000E+00        -0.30122E+08
 
   -0.30151E+08         0.43317E+05         0.00000E+00
    0.43317E+05        -0.60030E+08         0.00000E+00
    0.00000E+00         0.00000E+00        -0.30125E+08
 
   -0.30153E+08         0.32141E+05         0.00000E+00
    0.32141E+05        -0.60036E+08         0.00000E+00
    0.00000E+00         0.00000E+00        -0.30130E+08
 
   -0.30153E+08         0.20602E+05         0.00000E+00
    0.20602E+05        -0.60042E+08         0.00000E+00
    0.00000E+00         0.00000E+00        -0.30138E+08
 
   -0.30152E+08         0.89748E+04         0.00000E+00
    0.89748E+04        -0.60049E+08         0.00000E+00
    0.00000E+00         0.00000E+00        -0.30147E+08
 
   -0.29985E+08         0.13212E+05         0.00000E+00
    0.13212E+05        -0.60000E+08         0.00000E+00
    0.00000E+00         0.00000E+00        -0.30252E+08
 
   -0.30003E+08         0.35208E+05         0.00000E+00
    0.35208E+05        -0.60000E+08         0.00000E+00
    0.00000E+00         0.00000E+00        -0.30233E+08
 
   -0.30023E+08         0.52201E+05         0.00000E+00
    0.52201E+05        -0.60000E+08         0.00000E+00
    0.00000E+00         0.00000E+00        -0.30213E+08
 
   -0.30044E+08         0.64023E+05         0.00000E+00
    0.64023E+05        -0.60001E+08         0.00000E+00
    0.00000E+00         0.00000E+00        -0.30194E+08
 
   -0.30065E+08         0.70887E+05         0.00000E+00
    0.70887E+05        -0.60005E+08         0.00000E+00
    0.00000E+00         0.00000E+00        -0.30177E+08
 
   -0.30086E+08         0.73482E+05         0.00000E+00
    0.73482E+05        -0.60010E+08         0.00000E+00
    0.00000E+00         0.00000E+00        -0.30163E+08
 
   -0.30105E+08         0.72730E+05         0.00000E+00
    0.72730E+05        -0.60016E+08         0.00000E+00
    0.00000E+00         0.00000E+00        -0.30152E+08
 
   -0.30122E+08         0.69435E+05         0.00000E+00
    0.69435E+05        -0.60023E+08         0.00000E+00
    0.00000E+00         0.00000E+00        -0.30144E+08
 
   -0.30136E+08         0.64105E+05         0.00000E+00
    0.64105E+05        -0.60030E+08         0.00000E+00
    0.00000E+00         0.00000E+00        -0.30139E+08
 
   -0.30148E+08         0.56979E+05         0.00000E+00
    0.56979E+05        -0.60037E+08         0.00000E+00
    0.00000E+00         0.00000E+00        -0.30137E+08
 
   -0.30156E+08         0.48163E+05         0.00000E+00
    0.48163E+05        -0.60044E+08         0.00000E+00
    0.00000E+00         0.00000E+00        -0.30136E+08
 
   -0.30162E+08         0.37834E+05         0.00000E+00
    0.37834E+05        -0.60049E+08         0.00000E+00
    0.00000E+00         0.00000E+00        -0.30139E+08
 
   -0.30164E+08         0.26377E+05         0.00000E+00
    0.26377E+05        -0.60055E+08         0.00000E+00
    0.00000E+00         0.00000E+00        -0.30143E+08
 
   -0.30165E+08         0.14292E+05         0.00000E+00
    0.14292E+05        -0.60061E+08         0.00000E+00
    0.00000E+00         0.00000E+00        -0.30150E+08
 
   -0.30165E+08         0.19613E+04         0.00000E+00
    0.19613E+04        -0.60067E+08         0.00000E+00
    0.00000E+00         0.00000E+00        -0.30159E+08
 
   -0.29960E+08         0.13407E+05         0.00000E+00
    0.13407E+05        -0.60000E+08         0.00000E+00
    0.00000E+00         0.00000E+00        -0.30277E+08
 
   -0.29984E+08         0.35009E+05         0.00000E+00
    0.35009E+05        -0.60000E+08         0.00000E+00
    0.00000E+00         0.00000E+00        -0.30253E+08
 
   -0.30010E+08         0.50703E+05         0.00000E+00
    0.50703E+05        -0.60002E+08         0.00000E+00
    0.00000E+00         0.00000E+00        -0.30229E+08
 
   -0.30036E+08         0.60479E+05         0.00000E+00
    0.60479E+05        -0.60005E+08         0.00000E+00
    0.00000E+00         0.00000E+00        -0.30207E+08
 
   -0.30062E+08         0.65153E+05         0.00000E+00
    0.65153E+05        -0.60012E+08         0.00000E+00
    0.00000E+00         0.00000E+00        -0.30190E+08
 
   -0.30086E+08         0.66066E+05         0.00000E+00
    0.66066E+05        -0.60020E+08         0.00000E+00
    0.00000E+00         0.00000E+00        -0.30176E+08
 
   -0.30107E+08         0.64408E+05         0.00000E+00
    0.64408E+05        -0.60029E+08         0.00000E+00
    0.00000E+00         0.00000E+00        -0.30167E+08
 
   -0.30126E+08         0.60924E+05         0.00000E+00
    0.60924E+05        -0.60039E+08         0.00000E+00
    0.00000E+00         0.00000E+00        -0.30161E+08
 
   -0.30142E+08         0.55971E+05         0.00000E+00
    0.55971E+05        -0.60048E+08         0.00000E+00
    0.00000E+00         0.00000E+00        -0.30157E+08
 
   -0.30155E+08         0.49620E+05         0.00000E+00
    0.49620E+05        -0.60057E+08         0.00000E+00
    0.00000E+00         0.00000E+00        -0.30155E+08
 
   -0.30166E+08         0.41726E+05         0.00000E+00
    0.41726E+05        -0.60065E+08         0.00000E+00
    0.00000E+00         0.00000E+00        -0.30155E+08
 
   -0.30172E+08         0.32107E+05         0.00000E+00
    0.32107E+05        -0.60071E+08         0.00000E+00
    0.00000E+00         0.00000E+00        -0.30156E+08
 
   -0.30176E+08         0.20848E+05         0.00000E+00
    0.20848E+05        -0.60076E+08         0.00000E+00
    0.00000E+00         0.00000E+00        -0.30160E+08
 
   -0.30177E+08         0.84662E+04         0.00000E+00
    0.84662E+04        -0.60082E+08         0.00000E+00
    0.00000E+00         0.00000E+00        -0.30165E+08
 
   -0.30177E+08        -0.44425E+04         0.00000E+00
   -0.44425E+04        -0.60087E+08         0.00000E+00
    0.00000E+00         0.00000E+00        -0.30173E+08
 
   -0.29936E+08         0.13489E+05         0.00000E+00
    0.13489E+05        -0.60000E+08         0.00000E+00
    0.00000E+00         0.00000E+00        -0.30302E+08
 
   -0.29966E+08         0.33899E+05         0.00000E+00
    0.33899E+05        -0.60001E+08         0.00000E+00
    0.00000E+00         0.00000E+00        -0.30272E+08
 
   -0.29998E+08         0.47015E+05         0.00000E+00
    0.47015E+05        -0.60004E+08         0.00000E+00
    0.00000E+00         0.00000E+00        -0.30244E+08
 
   -0.30030E+08         0.53658E+05         0.00000E+00
    0.53658E+05        -0.60012E+08         0.00000E+00
    0.00000E+00         0.00000E+00        -0.30222E+08
 
   -0.30060E+08         0.55859E+05         0.00000E+00
    0.55859E+05        -0.60022E+08         0.00000E+00
    0.00000E+00         0.00000E+00        -0.30205E+08
 
   -0.30087E+08         0.55420E+05         0.00000E+00
    0.55420E+05        -0.60034E+08         0.00000E+00
    0.00000E+00         0.00000E+00        -0.30193E+08
 
   -0.30110E+08         0.53352E+05         0.00000E+00
    0.53352E+05        -0.60046E+08         0.00000E+00
    0.00000E+00         0.00000E+00        -0.30186E+08
 
   -0.30130E+08         0.50133E+05         0.00000E+00
    0.50133E+05        -0.60058E+08         0.00000E+00
    0.00000E+00         0.00000E+00        -0.30181E+08
 
   -0.30147E+08         0.45939E+05         0.00000E+00
    0.45939E+05        -0.60069E+08         0.00000E+00
    0.00000E+00         0.00000E+00        -0.30179E+08
 
   -0.30162E+08         0.40737E+05         0.00000E+00
    0.40737E+05        -0.60079E+08         0.00000E+00
    0.00000E+00         0.00000E+00        -0.30178E+08
 
   -0.30174E+08         0.34299E+05         0.00000E+00
    0.34299E+05        -0.60088E+08         0.00000E+00
    0.00000E+00         0.00000E+00        -0.30178E+08
 
   -0.30182E+08         0.26184E+05         0.00000E+00
    0.26184E+05        -0.60095E+08         0.00000E+00
    0.00000E+00         0.00000E+00        -0.30178E+08
 
   -0.30188E+08         0.15930E+05         0.00000E+00
    0.15930E+05        -0.60100E+08         0.00000E+00
    0.00000E+00         0.00000E+00        -0.30179E+08
 
   -0.30190E+08         0.36888E+04         0.00000E+00
    0.36888E+04        -0.60104E+08         0.00000E+00
    0.00000E+00         0.00000E+00        -0.30183E+08
 
   -0.30191E+08        -0.96612E+04         0.00000E+00
   -0.96612E+04        -0.60109E+08         0.00000E+00
    0.00000E+00         0.00000E+00        -0.30188E+08
 
   -0.29913E+08         0.13337E+05         0.00000E+00
    0.13337E+05        -0.60000E+08         0.00000E+00
    0.00000E+00         0.00000E+00        -0.30326E+08
 
   -0.29951E+08         0.30893E+05         0.00000E+00
    0.30893E+05        -0.60003E+08         0.00000E+00
    0.00000E+00         0.00000E+00        -0.30290E+08
 
   -0.29990E+08         0.39539E+05         0.00000E+00
    0.39539E+05        -0.60010E+08         0.00000E+00
    0.00000E+00         0.00000E+00        -0.30260E+08
 
   -0.30027E+08         0.42567E+05         0.00000E+00
    0.42567E+05        -0.60022E+08         0.00000E+00
    0.00000E+00         0.00000E+00        -0.30238E+08
 
   -0.30060E+08         0.42925E+05         0.00000E+00
    0.42925E+05        -0.60036E+08         0.00000E+00
    0.00000E+00         0.00000E+00        -0.30224E+08
 
   -0.30088E+08         0.41894E+05         0.00000E+00
    0.41894E+05        -0.60051E+08         0.00000E+00
    0.00000E+00         0.00000E+00        -0.30214E+08
 
   -0.30113E+08         0.39996E+05         0.00000E+00
    0.39996E+05        -0.60065E+08         0.00000E+00
    0.00000E+00         0.00000E+00        -0.30209E+08
 
   -0.30134E+08         0.37442E+05         0.00000E+00
    0.37442E+05        -0.60079E+08         0.00000E+00
    0.00000E+00         0.00000E+00        -0.30206E+08
 
   -0.30152E+08         0.34284E+05         0.00000E+00
    0.34284E+05        -0.60092E+08         0.00000E+00
    0.00000E+00         0.00000E+00        -0.30205E+08
 
   -0.30167E+08         0.30457E+05         0.00000E+00
    0.30457E+05        -0.60104E+08         0.00000E+00
    0.00000E+00         0.00000E+00        -0.30205E+08
 
   -0.30180E+08         0.25761E+05         0.00000E+00
    0.25761E+05        -0.60113E+08         0.00000E+00
    0.00000E+00         0.00000E+00        -0.30205E+08
 
   -0.30190E+08         0.19776E+05         0.00000E+00
    0.19776E+05        -0.60121E+08         0.00000E+00
    0.00000E+00         0.00000E+00        -0.30205E+08
 
   -0.30198E+08         0.11721E+05         0.00000E+00
    0.11721E+05        -0.60127E+08         0.00000E+00
    0.00000E+00         0.00000E+00        -0.30204E+08
 
   -0.30203E+08         0.66421E+03         0.00000E+00
    0.66421E+03        -0.60130E+08         0.00000E+00
    0.00000E+00         0.00000E+00        -0.30203E+08
 
   -0.30204E+08        -0.12854E+05         0.00000E+00
   -0.12854E+05        -0.60131E+08         0.00000E+00
    0.00000E+00         0.00000E+00        -0.30204E+08
 
   -0.29892E+08         0.12286E+05         0.00000E+00
    0.12286E+05        -0.60001E+08         0.00000E+00
    0.00000E+00         0.00000E+00        -0.30348E+08
 
   -0.29941E+08         0.23441E+05         0.00000E+00
    0.23441E+05        -0.60008E+08         0.00000E+00
    0.00000E+00         0.00000E+00        -0.30308E+08
 
   -0.29987E+08         0.26626E+05         0.00000E+00
    0.26626E+05        -0.60022E+08         0.00000E+00
    0.00000E+00         0.00000E+00        -0.30279E+08
 
   -0.30026E+08         0.27363E+05         0.00000E+00
    0.27363E+05        -0.60038E+08         0.00000E+00
    0.00000E+00         0.00000E+00        -0.30260E+08
 
   -0.30060E+08         0.27060E+05         0.00000E+00
    0.27060E+05        -0.60055E+08         0.00000E+00
    0.00000E+00         0.00000E+00        -0.30248E+08
 
   -0.30089E+08         0.26168E+05         0.00000E+00
    0.26168E+05        -0.60071E+08         0.00000E+00
    0.00000E+00         0.00000E+00        -0.30240E+08
 
   -0.30114E+08         0.24875E+05         0.00000E+00
    0.24875E+05        -0.60088E+08         0.00000E+00
    0.00000E+00         0.00000E+00        -0.30236E+08
 
   -0.30136E+08         0.23253E+05         0.00000E+00
    0.23253E+05        -0.60103E+08         0.00000E+00
    0.00000E+00         0.00000E+00        -0.30235E+08
 
   -0.30154E+08         0.21306E+05         0.00000E+00
    0.21306E+05        -0.60117E+08         0.00000E+00
    0.00000E+00         0.00000E+00        -0.30235E+08
 
   -0.30170E+08         0.18978E+05         0.00000E+00
    0.18978E+05        -0.60130E+08         0.00000E+00
    0.00000E+00         0.00000E+00        -0.30236E+08
 
   -0.30184E+08         0.16133E+05         0.00000E+00
    0.16133E+05        -0.60141E+08         0.00000E+00
    0.00000E+00         0.00000E+00        -0.30237E+08
 
   -0.30196E+08         0.12510E+05         0.00000E+00
    0.12510E+05        -0.60150E+08         0.00000E+00
    0.00000E+00         0.00000E+00        -0.30236E+08
 
   -0.30206E+08         0.75444E+04         0.00000E+00
    0.75444E+04        -0.60156E+08         0.00000E+00
    0.00000E+00         0.00000E+00        -0.30234E+08
 
   -0.30214E+08        -0.97116E+02         0.00000E+00
   -0.97116E+02        -0.60157E+08         0.00000E+00
    0.00000E+00         0.00000E+00        -0.30229E+08
 
   -0.30218E+08        -0.12673E+05         0.00000E+00
   -0.12673E+05        -0.60157E+08         0.00000E+00
    0.00000E+00         0.00000E+00        -0.30223E+08
 
   -0.29878E+08         0.63007E+04         0.00000E+00
    0.63007E+04        -0.60009E+08         0.00000E+00
    0.00000E+00         0.00000E+00        -0.30373E+08
 
   -0.29937E+08         0.85065E+04         0.00000E+00
    0.85065E+04        -0.60022E+08         0.00000E+00
    0.00000E+00         0.00000E+00        -0.30331E+08
 
   -0.29986E+08         0.92888E+04         0.00000E+00
    0.92888E+04        -0.60040E+08         0.00000E+00
    0.00000E+00         0.00000E+00        -0.30304E+08
 
   -0.30026E+08         0.94326E+04         0.00000E+00
    0.94326E+04        -0.60059E+08         0.00000E+00
    0.00000E+00         0.00000E+00        -0.30287E+08
 
   -0.30061E+08         0.92626E+04         0.00000E+00
    0.92626E+04        -0.60077E+08         0.00000E+00
    0.00000E+00         0.00000E+00        -0.30277E+08
 
   -0.30090E+08         0.89240E+04         0.00000E+00
    0.89240E+04        -0.60095E+08         0.00000E+00
    0.00000E+00         0.00000E+00        -0.30271E+08
 
   -0.30115E+08         0.84689E+04         0.00000E+00
    0.84689E+04        -0.60112E+08         0.00000E+00
    0.00000E+00         0.00000E+00        -0.30268E+08
 
   -0.30137E+08         0.79151E+04         0.00000E+00
    0.79151E+04        -0.60129E+08         0.00000E+00
    0.00000E+00         0.00000E+00        -0.30268E+08
 
   -0.30156E+08         0.72601E+04         0.00000E+00
    0.72601E+04        -0.60144E+08         0.00000E+00
    0.00000E+00         0.00000E+00        -0.30269E+08
 
   -0.30172E+08         0.64818E+04         0.00000E+00
    0.64818E+04        -0.60158E+08         0.00000E+00
    0.00000E+00         0.00000E+00        -0.30271E+08
 
   -0.30186E+08         0.55307E+04         0.00000E+00
    0.55307E+04        -0.60170E+08         0.00000E+00
    0.00000E+00         0.00000E+00        -0.30272E+08
 
   -0.30199E+08         0.43130E+04         0.00000E+00
    0.43130E+04        -0.60180E+08         0.00000E+00
    0.00000E+00         0.00000E+00        -0.30273E+08
 
   -0.30210E+08         0.26522E+04         0.00000E+00
    0.26522E+04        -0.60186E+08         0.00000E+00
    0.00000E+00         0.00000E+00        -0.30271E+08
 
   -0.30220E+08         0.54569E+02         0.00000E+00
    0.54569E+02        -0.60189E+08         0.00000E+00
    0.00000E+00         0.00000E+00        -0.30264E+08
 
   -0.30229E+08        -0.57073E+04         0.00000E+00
   -0.57073E+04        -0.60183E+08         0.00000E+00
    0.00000E+00         0.00000E+00        -0.30247E+08
 
SCALARS stressS double 
LOOKUP_TABLE default
  -40078833.2430532     
  -40078175.5239737     
  -40077140.2387129     
  -40075756.4087186     
  -40074052.1294437     
  -40072054.4617758     
  -40069789.1715524     
  -40067280.8370055     
  -40064552.9741623     
  -40061627.7785831     
  -40058525.9275804     
  -40055266.3771109     
  -40051866.1040129     
  -40048339.7686881     
  -40044699.4139348     
  -40078825.3493757     
  -40078157.9123060     
  -40077104.6110069     
  -40075697.1754770     
  -40073966.1971932     
  -40071940.9586984     
  -40069649.3086933     
  -40067117.4452392     
  -40064370.2227323     
  -40061430.9435672     
  -40058321.0577876     
  -40055060.0270036     
  -40051665.1265331     
  -40048151.2053899     
  -40044530.2007781     
  -40078809.5310321     
  -40078122.8613874     
  -40077033.8684598     
  -40075579.6741607     
  -40073795.8558933     
  -40071716.2195911     
  -40069372.5326114     
  -40066794.3042364     
  -40064009.1879204     
  -40061042.5467331     
  -40057917.3906938     
  -40054654.2208682     
  -40051270.8991939     
  -40047782.4475106     
  -40044200.6114907     
  -40078785.7446872     
  -40078070.7514818     
  -40076929.1087755     
  -40075405.9832531     
  -40073544.3419262     
  -40071384.6524527     
  -40068964.7066307     
  -40066318.9734208     
  -40063478.9751413     
  -40060473.2562914     
  -40057327.1509111     
  -40054062.7522863     
  -40050698.8299712     
  -40047250.6080658     
  -40043729.6726649     
  -40078753.9675401     
  -40078002.2368077     
  -40076792.1395359     
  -40075179.4573629     
  -40073216.9508538     
  -40070953.8058093     
  -40068435.4999153     
  -40065703.1963224     
  -40062793.5860204     
  -40059739.3325366     
  -40056568.8641144     
  -40053306.4415690     
  -40049972.1040947     
  -40046581.6098719     
  -40043146.1661684     
  -40078714.2457416     
  -40077918.3537682     
  -40076625.6417090     
  -40074904.9630569     
  -40072821.0511979     
  -40070433.9399079     
  -40067798.1939606     
  -40064963.1754398     
  -40061972.2030481     
  -40058862.8660348     
  -40055667.5934235     
  -40052413.3702585     
  -40049121.9276491     
  -40045809.7051113     
  -40042487.4825104     
  -40078666.8314884     
  -40077820.6246048     
  -40076433.3928415     
  -40074589.1749665     
  -40072366.6863995     
  -40069838.3262545     
  -40067069.9532951     
  -40064120.0824858     
  -40061039.4265174     
  -40057872.1529298     
  -40054655.2423823     
  -40051419.1161143     
  -40048187.6408113     
  -40044978.1011597     
  -40041800.9187519     
  -40078612.0704083     
  -40077711.2271012     
  -40076220.4951044     
  -40074240.9984184     
  -40071866.9990117     
  -40069185.0021029     
  -40066272.8296393     
  -40063199.8894227     
  -40060026.0123620     
  -40056802.0737808     
  -40053570.8864959     
  -40050367.0313002     
  -40047217.1000635     
  -40044139.5586793     
  -40041144.5200613     
  -40078550.6178157     
  -40077593.0970530     
  -40075993.7243491     
  -40073871.8966900     
  -40071338.7367609     
  -40068495.8211843     
  -40065434.6020199     
  -40062235.5505529     
  -40058969.0309770     
  -40055694.4764475     
  -40052461.1046923     
  -40049308.7210001     
  -40046267.2493791     
  -40043356.7132042     
  -40040586.9028569     
  -40078483.8940693     
  -40077470.2736208     
  -40075761.6926988     
  -40073496.2003107     
  -40070802.2449236     
  -40067797.3134631     
  -40064586.9375940     
  -40061264.7638833     
  -40057912.2832260     
  -40054598.3043138     
  -40051380.5448898     
  -40048304.6705850     
  -40045404.7237360     
  -40042702.6376189     
  -40040207.8049522     
  -40078413.6417673     
  -40077347.9176473     
  -40075535.0448199     
  -40073131.1325170     
  -40070281.7875704     
  -40067120.5613896     
  -40063768.1367062     
  -40060331.8755211     
  -40056905.7817811     
  -40053570.4618638     
  -40050392.5393077     
  -40047424.9716145     
  -40044706.6761641     
  -40042261.6611892     
  -40040098.7807299     
  -40078342.3187308     
  -40077232.2125010     
  -40075326.2972655     
  -40072796.7807112     
  -40069805.2929355     
  -40066501.3489055     
  -40063021.2228266     
  -40059487.4022676     
  -40056007.8769359     
  -40052676.1136821     
  -40049569.7517087     
  -40046750.3526108     
  -40044261.8232385     
  -40042130.3026258     
  -40040363.7078237     
  -40078273.1173553     
  -40077130.3487059     
  -40075149.5043358     
  -40072515.4745753     
  -40069403.8207532     
  -40065979.2075951     
  -40062394.0213700     
  -40058787.0755591     
  -40055282.8037204     
  -40051988.9419027     
  -40048995.5677071     
  -40046373.3369855     
  -40044171.6529191     
  -40042418.0294389     
  -40041118.7378841     
  -40078209.9009256     
  -40077050.1867300     
  -40075019.5524346     
  -40072310.8212788     
  -40069110.3332185     
  -40065596.6728696     
  -40061938.7689256     
  -40058293.5496966     
  -40054803.2452099     
  -40051592.7149263     
  -40048765.0755564     
  -40046399.8554790     
  -40044551.5529155     
  -40043247.5609199     
  -40042491.3422462     
  -40078157.0355333     
  -40076999.5669142     
  -40074950.9830654     
  -40072206.1191148     
  -40068958.2609644     
  -40065398.1487806     
  -40061711.5294249     
  -40058075.0660526     
  -40054651.1072313     
  -40051582.3987310     
  -40048986.6947387     
  -40046951.0214139     
  -40045531.4680587     
  -40044754.3210564     
  -40044618.1542307     
  -40078119.0638633     
  -40076985.3821886     
  -40074956.2813878     
  -40072222.3475816     
  -40068979.5293489     
  -40065428.6283298     
  -40061771.9868935     
  -40058207.2173527     
  -40054918.6656411     
  -40052067.7451282     
  -40049784.7905796     
  -40048163.1812973     
  -40047256.3174000     
  -40047084.0992475     
  -40047640.6039344     
  -40078100.2424909     
  -40077012.4925496     
  -40075043.9634747     
  -40072375.7791500     
  -40069202.5427448     
  -40065732.5179067     
  -40062183.7449169     
  -40058775.0293985     
  -40055712.6484776     
  -40053175.7248901     
  -40051303.7080830     
  -40050189.9969706     
  -40049882.2340540     
  -40050389.2320397     
  -40051697.4015193     
  -40078104.1402334     
  -40077082.6128694     
  -40075216.9167420     
  -40072676.0253512     
  -40069650.4954418     
  -40066353.3222544     
  -40063015.8806717     
  -40059875.9276649     
  -40057158.6756286     
  -40055055.7297610     
  -40053708.8310914     
  -40053203.5200135     
  -40053574.8243832     
  -40054819.9212984     
  -40056916.9182570     
  -40078132.6092364     
  -40077193.9360616     
  -40075471.8298941     
  -40073125.4028028     
  -40070341.0955583     
  -40067334.7266580     
  -40064346.5485382     
  -40061626.0891465     
  -40059407.6781324     
  -40057883.8699777     
  -40057187.2295990     
  -40057387.2441997     
  -40058501.4392024     
  -40060515.9166975     
  -40063405.3945133     
  -40078187.0875487     
  -40077340.9407099     
  -40075800.6928823     
  -40073720.8575728     
  -40071289.1931535     
  -40068724.9442958     
  -40066269.7706045     
  -40064168.9805697     
  -40062644.0804718     
  -40061867.0951947     
  -40061946.4052542     
  -40062929.4494912     
  -40064819.0198406     
  -40067595.3340418     
  -40071236.9248216     
  -40078266.2703211     
  -40077519.5122461     
  -40076194.2853470     
  -40074459.6173663     
  -40072515.2685485     
  -40070587.1262702     
  -40068907.2793950     
  -40067685.8905309     
  -40067091.6373552     
  -40067242.1565150     
  -40068206.3217478     
  -40070012.6483299     
  -40072661.8996416     
  -40076142.6197699     
  -40080447.2492000     
  -40078374.0332979     
  -40077728.6297009     
  -40076652.9683005     
  -40075352.0270637     
  -40074062.3377573     
  -40073021.4598889     
  -40072426.8223739     
  -40072404.7849650     
  -40073010.2110037     
  -40074263.7439797     
  -40076184.6771656     
  -40078799.2810002     
  -40082132.5562957     
  -40086203.0547461     
  -40091029.0995877     
  -40078508.5339623     
  -40077969.0297247     
  -40077191.0289810     
  -40076446.3863069     
  -40076033.3340982     
  -40076200.9060227     
  -40077067.1684451     
  -40078598.4568705     
  -40080672.6789947     
  -40083176.1533300     
  -40086075.7002918     
  -40089420.8881476     
  -40093297.5639151     
  -40097783.6770856     
  -40102936.6916146     
  -40078670.1432680     
  -40078243.8930086     
  -40077842.3587368     
  -40077853.3859629     
  -40078646.3055518     
  -40080429.7055040     
  -40083155.1545559     
  -40086559.7612978     
  -40090314.4706035     
  -40094166.9225315     
  -40098026.1601757     
  -40101974.9790678     
  -40106194.8506237     
  -40110862.0958837     
  -40116095.0776189     
  -40078858.0361818     
  -40078570.2775805     
  -40078698.3214890     
  -40079807.9456338     
  -40082297.7380811     
  -40086177.4954345     
  -40091093.0345144     
  -40096546.2471802     
  -40102068.4199476     
  -40107310.9147515     
  -40112108.3777540     
  -40116530.3537721     
  -40120855.5926027     
  -40125408.8795872     
  -40130415.9976217     
  -40079070.8875316     
  -40078994.2134343     
  -40079986.2512435     
  -40082803.9765434     
  -40087638.3779472     
  -40094023.0601260     
  -40101257.2157108     
  -40108718.2457649     
  -40115929.6190194     
  -40122531.4725397     
  -40128279.7017758     
  -40133128.3379415     
  -40137337.9294491     
  -40141426.2576605     
  -40145819.4077968     
  -40079305.9821680     
  -40079676.6439288     
  -40082273.2987318     
  -40087761.5566729     
  -40095505.7056806     
  -40104475.2220378     
  -40113854.8394532     
  -40123088.8018962     
  -40131783.5608645     
  -40139629.6824452     
  -40146350.6035092     
  -40151719.4076132     
  -40155768.2905738     
  -40159002.4920306     
  -40162281.5583300     
  -40079631.6942955     
  -40081183.6629177     
  -40086921.7241880     
  -40095918.5906436     
  -40106553.3392010     
  -40117744.5406739     
  -40128870.5487632     
  -40139537.6241369     
  -40149458.6591701     
  -40158380.6480500     
  -40166034.9049771     
  -40172096.2879260     
  -40176192.6327268     
  -40178479.1133894     
  -40179862.2054384     
  -40080391.5707368     
  -40085783.3635854     
  -40095879.9470849     
  -40108066.4614770     
  -40120897.2518756     
  -40133711.9807139     
  -40146128.4950550     
  -40157889.3266719     
  -40168784.3011075     
  -40178605.0090677     
  -40187102.1283161     
  -40193925.7537169     
  -40198539.0905093     
  -40200007.6966800     
  -40199245.1916254     
  -40086680.3372222     
  -40096744.7161919     
  -40109980.9335875     
  -40124075.0748810     
  -40138257.3510119     
  -40152122.7231394     
  -40165424.4393810     
  -40177979.7915045     
  -40189625.8223450     
  -40200186.0095125     
  -40209433.2099129     
  -40217032.2313625     
  -40222413.9589188     
  -40224481.1409009     
  -40219707.1336730     
SCALARS 2waySource double 
LOOKUP_TABLE default
 -7.782987533128456E-014
 -7.800984743555547E-014
 -7.810877243337688E-014
 -7.817829525378709E-014
 -7.815984115458293E-014
 -7.805660026992682E-014
 -7.786036305777324E-014
 -7.755770647676940E-014
 -7.704564681899895E-014
 -7.650585199441846E-014
 -7.583003907022391E-014
 -7.501599026001011E-014
 -7.405391473671042E-014
 -7.294096403751905E-014
 -7.166626415984080E-014
 -7.752446676189431E-014
 -7.771277974415515E-014
 -7.783062479253285E-014
 -7.789126514718918E-014
 -7.789292969586228E-014
 -7.780778163201032E-014
 -7.763760338802589E-014
 -7.734202510124670E-014
 -7.686459949627525E-014
 -7.632136777979646E-014
 -7.566317466910560E-014
 -7.486879660166078E-014
 -7.392114280062663E-014
 -7.282127470239593E-014
 -7.156300063492055E-014
 -7.701487903404939E-014
 -7.721398029332519E-014
 -7.735054547585141E-014
 -7.739731824710265E-014
 -7.744944167858895E-014
 -7.738582792145927E-014
 -7.723489425427174E-014
 -7.697274346589464E-014
 -7.650429860335302E-014
 -7.600825909798545E-014
 -7.537042343583209E-014
 -7.460218546811653E-014
 -7.367656072024093E-014
 -7.260620562719377E-014
 -7.137095010574958E-014
 -7.631569153911529E-014
 -7.651118109227651E-014
 -7.666396421152147E-014
 -7.666822464028051E-014
 -7.685596051358082E-014
 -7.677157569303717E-014
 -7.665921231100309E-014
 -7.644210912181584E-014
 -7.602380320986739E-014
 -7.554894042571378E-014
 -7.494969219382992E-014
 -7.421725258600206E-014
 -7.333195085946113E-014
 -7.229088711605331E-014
 -7.108694417730190E-014
 -7.537836958161961E-014
 -7.558762384749000E-014
 -7.577604642655860E-014
 -7.579504850980349E-014
 -7.601289500541947E-014
 -7.599163805377371E-014
 -7.592820706793592E-014
 -7.574236502609338E-014
 -7.540858199674471E-014
 -7.493938184797098E-014
 -7.440331292033284E-014
 -7.371653107992316E-014
 -7.287096394562449E-014
 -7.187552367940285E-014
 -7.071424492725957E-014
 -7.425311027361586E-014
 -7.446662866113700E-014
 -7.470272564665703E-014
 -7.474626021145420E-014
 -7.499573462796307E-014
 -7.503363165957260E-014
 -7.501619092446911E-014
 -7.489558371015761E-014
 -7.462552616683923E-014
 -7.421797883569411E-014
 -7.372891934787514E-014
 -7.309565855155279E-014
 -7.230759094100419E-014
 -7.135854198929719E-014
 -7.024476742340924E-014
 -7.291790293802528E-014
 -7.316592281143720E-014
 -7.339691130043802E-014
 -7.348907547432730E-014
 -7.380104248931351E-014
 -7.390844306412472E-014
 -7.393718453908797E-014
 -7.389408926265167E-014
 -7.372766201780185E-014
 -7.335178149180157E-014
 -7.293612289528711E-014
 -7.235689503460456E-014
 -7.162898804529971E-014
 -7.073920849863985E-014
 -6.967992732459597E-014
 -7.139527014347888E-014
 -7.166650052225429E-014
 -7.192021732127798E-014
 -7.205873392542981E-014
 -7.240943808271005E-014
 -7.260206875406138E-014
 -7.271565181288056E-014
 -7.274007313682493E-014
 -7.266518308235576E-014
 -7.238277984822925E-014
 -7.200125719502133E-014
 -7.150315297832823E-014
 -7.084037458280246E-014
 -7.000755756614826E-014
 -6.902117457989668E-014
 -6.969592945443573E-014
 -6.996413196216908E-014
 -7.027803448462878E-014
 -7.050799000248494E-014
 -7.080166304929509E-014
 -7.115362855937610E-014
 -7.133014416470490E-014
 -7.143401752801801E-014
 -7.144454952942097E-014
 -7.129766505445218E-014
 -7.094763898619303E-014
 -7.053295273743518E-014
 -6.993229680378243E-014
 -6.916495800933957E-014
 -6.824322265249048E-014
 -6.778209433722272E-014
 -6.805782304428915E-014
 -6.841754896034315E-014
 -6.877484462248755E-014
 -6.902699605064237E-014
 -6.952170832612967E-014
 -6.979921487156919E-014
 -6.998488143952427E-014
 -7.008112573280784E-014
 -7.003761224747546E-014
 -6.978007397821745E-014
 -6.943383443028878E-014
 -6.889502327359691E-014
 -6.821379783481482E-014
 -6.732156752607339E-014
 -6.568599032986543E-014
 -6.599295385112046E-014
 -6.640425611574848E-014
 -6.678849859920262E-014
 -6.715525137413329E-014
 -6.771811552042174E-014
 -6.809548758313526E-014
 -6.839123666140308E-014
 -6.857540643895278E-014
 -6.862414654598136E-014
 -6.850151350459654E-014
 -6.819472290692201E-014
 -6.774979929392408E-014
 -6.711155001689445E-014
 -6.627700659721507E-014
 -6.342252471302547E-014
 -6.373845183159444E-014
 -6.418995373868910E-014
 -6.461522982047442E-014
 -6.515626819306827E-014
 -6.571303558092865E-014
 -6.625173278824882E-014
 -6.664512164030904E-014
 -6.692377534772129E-014
 -6.706844933368927E-014
 -6.705055609945762E-014
 -6.684417260682127E-014
 -6.645324763923126E-014
 -6.588678367825305E-014
 -6.509302956109650E-014
 -6.096244961533561E-014
 -6.134524428180480E-014
 -6.176361228956157E-014
 -6.234028675892303E-014
 -6.296739623986968E-014
 -6.357909450567832E-014
 -6.424607114577537E-014
 -6.474172607280722E-014
 -6.513310624290994E-014
 -6.536364223278268E-014
 -6.544118813105412E-014
 -6.531705493620820E-014
 -6.499846146645385E-014
 -6.447947658953900E-014
 -6.373502623614717E-014
 -5.835791603240227E-014
 -5.871174846949218E-014
 -5.921848740469560E-014
 -5.988513033051246E-014
 -6.059477911429362E-014
 -6.131516137668603E-014
 -6.201316495748768E-014
 -6.266933617545384E-014
 -6.316232204791557E-014
 -6.349601532895623E-014
 -6.365967917690865E-014
 -6.362503224317802E-014
 -6.337425020383247E-014
 -6.290238223145268E-014
 -6.220061780380490E-014
 -5.557154555028079E-014
 -5.592016875224758E-014
 -5.654339097425970E-014
 -5.726229695441907E-014
 -5.805634860498837E-014
 -5.885881430803109E-014
 -5.964784778168060E-014
 -6.036032452009588E-014
 -6.101589935189313E-014
 -6.144098134225440E-014
 -6.168978619811113E-014
 -6.173387153871220E-014
 -6.154710981542483E-014
 -6.111985531918672E-014
 -6.045285414819007E-014
 -5.261296763404546E-014
 -5.304151128866103E-014
 -5.367272139717456E-014
 -5.446231573579680E-014
 -5.531105273754203E-014
 -5.621296574896240E-014
 -5.708274354195736E-014
 -5.790742689443475E-014
 -5.859492111409722E-014
 -5.916336799516921E-014
 -5.951567181355007E-014
 -5.961758579816156E-014
 -5.949271233010721E-014
 -5.910615681679170E-014
 -5.846669089619720E-014
 -4.951724955841561E-014
 -4.999134015267725E-014
 -5.065194325056213E-014
 -5.147140941084015E-014
 -5.237321495754448E-014
 -5.335652470384663E-014
 -5.431955813317150E-014
 -5.522091823669550E-014
 -5.599793637076104E-014
 -5.661643434475402E-014
 -5.707811805352727E-014
 -5.724624840146648E-014
 -5.718267475955251E-014
 -5.682421322951966E-014
 -5.622039718775267E-014
 -4.635027856645889E-014
 -4.679951674694806E-014
 -4.744940810535802E-014
 -4.829416539647657E-014
 -4.925119328810142E-014
 -5.026584990732831E-014
 -5.128970556147315E-014
 -5.227296969741141E-014
 -5.313894964994375E-014
 -5.382264939219981E-014
 -5.430887477056525E-014
 -5.455593854020856E-014
 -5.454635099260632E-014
 -5.426059569103360E-014
 -5.368525295719323E-014
 -4.302538716365355E-014
 -4.345527912761406E-014
 -4.410202259916973E-014
 -4.490769771358275E-014
 -4.590267776505668E-014
 -4.693414411315068E-014
 -4.799538064316823E-014
 -4.903315991008654E-014
 -4.996060195187942E-014
 -5.069776793981879E-014
 -5.124384319524778E-014
 -5.153742625229384E-014
 -5.156041510211299E-014
 -5.135943403489597E-014
 -5.082959599339392E-014
 -3.956933021197750E-014
 -3.995703099663017E-014
 -4.062742828463776E-014
 -4.139047227171033E-014
 -4.232823507836657E-014
 -4.333293065033069E-014
 -4.439856386890713E-014
 -4.544862484018953E-014
 -4.638883078168682E-014
 -4.717658026227162E-014
 -4.779899519141103E-014
 -4.814164780558151E-014
 -4.821905350970465E-014
 -4.801821542839985E-014
 -4.762690227796125E-014
 -3.594131963987208E-014
 -3.638142277188743E-014
 -3.694746540236982E-014
 -3.769123511643369E-014
 -3.855452517638870E-014
 -3.943824832129282E-014
 -4.045735429539069E-014
 -4.145669248100730E-014
 -4.239421222281900E-014
 -4.380553079877421E-014
 -4.385755387318220E-014
 -4.424735768211979E-014
 -4.444012920729120E-014
 -4.431696869003775E-014
 -4.400665244166456E-014
 -3.226942208277362E-014
 -3.267233752921210E-014
 -3.315433947243514E-014
 -3.380549800862980E-014
 -3.455379025204866E-014
 -3.528963516492730E-014
 -3.614794839414276E-014
 -3.698959028638306E-014
 -3.791905479219347E-014
 -3.868849562141397E-014
 -3.933916343390000E-014
 -3.983858929694611E-014
 -4.014726027385402E-014
 -4.023541077672036E-014
 -4.002121913565489E-014
 -2.848448731880463E-014
 -2.883049167058560E-014
 -2.923328037510019E-014
 -2.975978496669247E-014
 -3.032160818476013E-014
 -3.089734369546879E-014
 -3.141555581119939E-014
 -3.204963768245446E-014
 -3.284089050330937E-014
 -3.353371520487116E-014
 -3.421233524569170E-014
 -3.484290491847242E-014
 -3.533830882358391E-014
 -3.565199338339137E-014
 -3.574390284246816E-014
 -2.461202230936540E-014
 -2.491117029640748E-014
 -2.526412956354513E-014
 -2.557725965465635E-014
 -2.589710249740794E-014
 -2.613559454547772E-014
 -2.633282092066806E-014
 -2.656008843658216E-014
 -2.710252934563258E-014
 -2.768049552367868E-014
 -2.840505437988552E-014
 -2.919977715190665E-014
 -2.995510577207791E-014
 -3.060127156338110E-014
 -3.108302248468365E-014
 -2.068099387785603E-014
 -2.095673940020266E-014
 -2.119864963425484E-014
 -2.129888832135341E-014
 -2.122422361532016E-014
 -2.100073712458843E-014
 -2.075007206783452E-014
 -2.050112086300991E-014
 -2.066503885448210E-014
 -2.109351581926923E-014
 -2.184015852703874E-014
 -2.283882838296689E-014
 -2.394629642630692E-014
 -2.504228366187953E-014
 -2.603870234229838E-014
 -1.666110526761166E-014
 -1.695064519887944E-014
 -1.703799201338546E-014
 -1.681691157549947E-014
 -1.619508630641636E-014
 -1.544273658386698E-014
 -1.463623177777378E-014
 -1.398372247030630E-014
 -1.357250683238635E-014
 -1.385132313275472E-014
 -1.449626645550902E-014
 -1.569957805818842E-014
 -1.724560503051847E-014
 -1.893557154059166E-014
 -2.062473009812045E-014
 -1.264120500739964E-014
 -1.289132568462541E-014
 -1.272291149695420E-014
 -1.194468557752779E-014
 -1.073149192705368E-014
 -9.337553740960006E-015
 -8.017266566963133E-015
 -6.930614296272750E-015
 -6.156760864341318E-015
 -5.981543034137371E-015
 -6.461205372886493E-015
 -7.731882632958570E-015
 -9.759362333506901E-015
 -1.219140677468675E-014
 -1.487650641131396E-014
 -8.958602362633957E-015
 -8.744649508153436E-015
 -8.019360797742001E-015
 -6.432514255384674E-015
 -4.541524760622384E-015
 -2.647210102862091E-015
 -9.217376010014752E-016
  5.285453196291687E-016
  1.579738769695980E-015
  2.177030656098697E-015
  2.022246811972336E-015
  9.741911595914422E-016
 -1.320469727513602E-015
 -4.681337579099407E-015
 -8.938055314237932E-015
 -4.598584730874083E-015
 -4.247748907814207E-015
 -2.375702407186506E-015
  4.772918117445112E-017
  2.393050098464988E-015
  4.603277521442075E-015
  6.591645678908358E-015
  8.276841099634249E-015
  9.588417588873130E-015
  1.038782851642542E-014
  1.064392356271855E-014
  9.947137856445761E-015
  8.095201743305445E-015
  4.223465204029884E-015
 -3.655457876456370E-015
 -7.270913211409466E-016
  2.194369356936066E-015
  4.947250068088491E-015
  7.486812967799365E-015
  1.003420058976330E-014
  1.240234169747664E-014
  1.447570697580702E-014
  1.631655481659167E-014
  1.772396018198170E-014
  1.864383870098961E-014
  1.899638870581450E-014
  1.871763212770611E-014
  1.725818266013308E-014
  1.422454128293495E-014
  2.267085456788836E-015
SCALARS poroP double 
LOOKUP_TABLE default
  1.813884369312545E-005
  1.814644526127846E-005
  1.814954163286938E-005
  1.814807388695635E-005
  1.814195558149946E-005
  1.813108737160190E-005
  1.811536585831728E-005
  1.809469631389039E-005
  1.806900727077860E-005
  1.803825438978627E-005
  1.800242647147050E-005
  1.796155152732308E-005
  1.791570225620450E-005
  1.786500079562757E-005
  1.780962177341861E-005
  1.813717132685914E-005
  1.814476480278011E-005
  1.814785905494799E-005
  1.814639829734645E-005
  1.814029953099996E-005
  1.812946714503762E-005
  1.811380241339514E-005
  1.809321288224546E-005
  1.806762763101369E-005
  1.803700329705412E-005
  1.800132860631837E-005
  1.796063073408200E-005
  1.791498109857592E-005
  1.786450019838297E-005
  1.780936154595103E-005
  1.813380507828870E-005
  1.814138219811154E-005
  1.814447309567657E-005
  1.814302813119138E-005
  1.813697130315346E-005
  1.812621419287748E-005
  1.811066625806480E-005
  1.809023981848032E-005
  1.806486563714583E-005
  1.803450184434806E-005
  1.799913667251330E-005
  1.795879556382906E-005
  1.791354735094871E-005
  1.786350952812262E-005
  1.780885207390467E-005
  1.812870144728568E-005
  1.813625381612177E-005
  1.813934221447797E-005
  1.813792580147981E-005
  1.813193885837033E-005
  1.812130366564053E-005
  1.810593907334745E-005
  1.808576519529010E-005
  1.806071659095846E-005
  1.803075189918364E-005
  1.799585827563338E-005
  1.795605839272277E-005
  1.791141718934337E-005
  1.786204781774867E-005
  1.780811510753235E-005
  1.812179416461135E-005
  1.812931363546168E-005
  1.813240407955293E-005
  1.813103553151979E-005
  1.812515490513640E-005
  1.811469674343530E-005
  1.809959267931342E-005
  1.807977283473390E-005
  1.805517459954258E-005
  1.802575687471299E-005
  1.799150490941318E-005
  1.795243749181192E-005
  1.790861443829294E-005
  1.786014304369957E-005
  1.780718295380916E-005
  1.811299331753361E-005
  1.812047281082932E-005
  1.812357550423136E-005
  1.812228335285404E-005
  1.811655753687429E-005
  1.810634561138695E-005
  1.809159333910513E-005
  1.807224266680845E-005
  1.804823292019846E-005
  1.801952177729713E-005
  1.798609189889818E-005
  1.794795707847840E-005
  1.790517078906817E-005
  1.785783355037350E-005
  1.780609911379996E-005
  1.810218504483162E-005
  1.810961961944328E-005
  1.811275293833387E-005
  1.811157834493001E-005
  1.810607147733680E-005
  1.809619465860776E-005
  1.808190370018715E-005
  1.806315215028042E-005
  1.803988416123048E-005
  1.801205305305234E-005
  1.797963794768174E-005
  1.794264631964755E-005
  1.790112452294335E-005
  1.785516604846369E-005
  1.780491781871026E-005
  1.808923304195048E-005
  1.809662066056281E-005
  1.809981402783219E-005
  1.809881481522997E-005
  1.809361118144403E-005
  1.808417815484351E-005
  1.807048033874352E-005
  1.805247789355664E-005
  1.803012048361009E-005
  1.800335853830369E-005
  1.797216408502925E-005
  1.793653785194403E-005
  1.789651905588088E-005
  1.785219435488365E-005
  1.780370408501026E-005
  1.807397883699405E-005
  1.808132394959813E-005
  1.808462048858754E-005
  1.808387470500674E-005
  1.807908190487538E-005
  1.807022536507858E-005
  1.805727370450069E-005
  1.804019146865078E-005
  1.801893374259855E-005
  1.799344571422472E-005
  1.796369159479308E-005
  1.792966606058496E-005
  1.789140192246592E-005
  1.784897967693616E-005
  1.780253412779743E-005
  1.805624454602349E-005
  1.806356156217852E-005
  1.806702274913711E-005
  1.806663077151995E-005
  1.806238191849890E-005
  1.805426000596970E-005
  1.804223441564374E-005
  1.802626562249558E-005
  1.800631185368844E-005
  1.798231791742788E-005
  1.795423889184277E-005
  1.792206484573559E-005
  1.788582335882995E-005
  1.784559013880860E-005
  1.780149570528221E-005
  1.803584437463185E-005
  1.804315645362463E-005
  1.804686438033534E-005
  1.804695164506758E-005
  1.804340525218321E-005
  1.803620188922147E-005
  1.802530434390077E-005
  1.801066426230913E-005
  1.799223598772813E-005
  1.796997006071061E-005
  1.794381823617547E-005
  1.791376469542820E-005
  1.787983466018772E-005
  1.784210041190600E-005
  1.780068862616475E-005
  1.801259764655109E-005
  1.801993563598991E-005
  1.802398998019136E-005
  1.802470601415614E-005
  1.802204438339676E-005
  1.801596436093986E-005
  1.800641481816068E-005
  1.799333562937411E-005
  1.797667246111847E-005
  1.795638469370310E-005
  1.793243029725840E-005
  1.790478934066087E-005
  1.787348680732096E-005
  1.783859166716309E-005
  1.780022511017139E-005
  1.798634669839390E-005
  1.799374575772577E-005
  1.799825774192282E-005
  1.799976759715689E-005
  1.799818985669424E-005
  1.799345134917996E-005
  1.798548089756503E-005
  1.797420762836047E-005
  1.795956821899951E-005
  1.794152539650592E-005
  1.792005821311259E-005
  1.789515265049021E-005
  1.786682946938069E-005
  1.783515205501266E-005
  1.780022990347654E-005
  1.795698105204002E-005
  1.796447197139086E-005
  1.796955300758789E-005
  1.797202268315998E-005
  1.797172952919828E-005
  1.796855294093823E-005
  1.796239443820516E-005
  1.795317388786156E-005
  1.794082975841646E-005
  1.792532717657612E-005
  1.790666603013023E-005
  1.788485556777609E-005
  1.785991081100497E-005
  1.783187733626704E-005
  1.780083958941592E-005
  1.792446645286063E-005
  1.793206087588677E-005
  1.793780260342092E-005
  1.794137784895191E-005
  1.794254923331465E-005
  1.794113767044066E-005
  1.793701288631574E-005
  1.793008839653126E-005
  1.792031647233204E-005
  1.790768085127280E-005
  1.789219392740893E-005
  1.787388723793344E-005
  1.785277723900275E-005
  1.782887063294104E-005
  1.780220033713037E-005
  1.788887638611947E-005
  1.789654539783642E-005
  1.790299104000046E-005
  1.790776657316772E-005
  1.791053340877160E-005
  1.791104699689449E-005
  1.790914797158365E-005
  1.790475259410512E-005
  1.789783857861502E-005
  1.788842456327920E-005
  1.787654466070311E-005
  1.786222731632646E-005
  1.784547513780633E-005
  1.782624091357812E-005
  1.780446277825214E-005
  1.785042161744334E-005
  1.785806882211020E-005
  1.786517684093113E-005
  1.787115735201911E-005
  1.787556542957149E-005
  1.787809266036626E-005
  1.787856061007515E-005
  1.787690525214377E-005
  1.787314786095076E-005
  1.786735294392030E-005
  1.785957903061854E-005
  1.784983381190884E-005
  1.783805345811520E-005
  1.782409881338318E-005
  1.780777342173285E-005
  1.780947188031749E-005
  1.781690335420805E-005
  1.782450741309757E-005
  1.783156377078836E-005
  1.783753230941934E-005
  1.784205623429442E-005
  1.784495991081562E-005
  1.784622508727903E-005
  1.784593864134101E-005
  1.784421819205709E-005
  1.784113218882724E-005
  1.783663615964878E-005
  1.783054318423543E-005
  1.782254716857432E-005
  1.781226073889669E-005
  1.776655920029388E-005
  1.777345810941039E-005
  1.778123025144246E-005
  1.778905654992379E-005
  1.779633537717511E-005
  1.780269787986132E-005
  1.780801173858192E-005
  1.781234206085261E-005
  1.781586361403082E-005
  1.781874229447266E-005
  1.782102133813369E-005
  1.782254546641850E-005
  1.782294043352188E-005
  1.782165121026891E-005
  1.781802000514077E-005
  1.772237279380174E-005
  1.772827063612341E-005
  1.773569481402560E-005
  1.774377554090443E-005
  1.775190735724563E-005
  1.775977836506589E-005
  1.776736701176004E-005
  1.777487143642525E-005
  1.778256758178317E-005
  1.779064013452610E-005
  1.779904447624814E-005
  1.780743813469407E-005
  1.781518369116703E-005
  1.782140474260964E-005
  1.782508724086968E-005
  1.767772190774541E-005
  1.768198952392925E-005
  1.768834293875892E-005
  1.769593399309386E-005
  1.770423559297168E-005
  1.771310039543053E-005
  1.772272125315348E-005
  1.773348257481460E-005
  1.774574673448825E-005
  1.775964976251638E-005
  1.777497392349168E-005
  1.779111340996210E-005
  1.780710483668098E-005
  1.782169040527491E-005
  1.783341496368635E-005
  1.763340762251633E-005
  1.763530367510296E-005
  1.763968627032856E-005
  1.764581526127090E-005
  1.765338821526290E-005
  1.766258110959783E-005
  1.767392232732603E-005
  1.768801228286533E-005
  1.770523063256992E-005
  1.772555948498743E-005
  1.774852975568151E-005
  1.777323419757586E-005
  1.779836055837189E-005
  1.782222844635060E-005
  1.784285218363175E-005
  1.759020284785815E-005
  1.758883261641570E-005
  1.759019791611631E-005
  1.759374173787921E-005
  1.759956214043417E-005
  1.760837371563382E-005
  1.762114190829941E-005
  1.763861992683671E-005
  1.766106883467944E-005
  1.768821792636890E-005
  1.771933405951752E-005
  1.775325416110858E-005
  1.778835658275466E-005
  1.782251943609756E-005
  1.785312441124590E-005
  1.754879078465011E-005
  1.754307449654130E-005
  1.754021135019950E-005
  1.753998427896369E-005
  1.754313709623506E-005
  1.755106657663153E-005
  1.756510010391661E-005
  1.758594193833458E-005
  1.761359021514366E-005
  1.764752678263625E-005
  1.768687003213390E-005
  1.773035706578286E-005
  1.777617836852141E-005
  1.782179050825465E-005
  1.786382049611261E-005
  1.750966608958336E-005
  1.749828644086176E-005
  1.748984314802237E-005
  1.748478794375364E-005
  1.748481906804249E-005
  1.749189415012214E-005
  1.750723320628281E-005
  1.753115771477375E-005
  1.756341416651162E-005
  1.760345231283640E-005
  1.765050089205273E-005
  1.770345236408327E-005
  1.776054900334867E-005
  1.781893699050581E-005
  1.787436998717136E-005
  1.747304005621984E-005
  1.745432737243562E-005
  1.743895379157876E-005
  1.742862154045435E-005
  1.742600895874311E-005
  1.743285163460427E-005
  1.744954410908278E-005
  1.747584640913733E-005
  1.751145559490639E-005
  1.755613878899098E-005
  1.760961162344192E-005
  1.767128379035617E-005
  1.773982798706732E-005
  1.781245386652149E-005
  1.788401233628821E-005
  1.743867823437577E-005
  1.741056175059243E-005
  1.738748157396802E-005
  1.737286175895644E-005
  1.736908457976978E-005
  1.737637609460265E-005
  1.739407031070898E-005
  1.742162537465614E-005
  1.745891631915076E-005
  1.750620368118831E-005
  1.756397475282943E-005
  1.763267384077192E-005
  1.771211552165648E-005
  1.780030501683981E-005
  1.789172661222650E-005
  1.740571336772050E-005
  1.736619486185766E-005
  1.733687316007795E-005
  1.732047000449479E-005
  1.731677357362075E-005
  1.732439441592720E-005
  1.734224225444920E-005
  1.736983003513058E-005
  1.740722454919222E-005
  1.745503471708195E-005
  1.751443969089756E-005
  1.758716610233360E-005
  1.767534105796729E-005
  1.777986811199147E-005
  1.789602732788427E-005
  1.737225081669378E-005
  1.732335376312232E-005
  1.729140673918374E-005
  1.727454529181463E-005
  1.727052778129226E-005
  1.727756498715836E-005
  1.729466550389088E-005
  1.732140661353161E-005
  1.735787502613461E-005
  1.740473569419537E-005
  1.746343569555965E-005
  1.753658141808102E-005
  1.762847507399246E-005
  1.774652975875662E-005
  1.789472642927322E-005
  1.734554515266957E-005
  1.728934111292290E-005
  1.725406346080369E-005
  1.723548211348649E-005
  1.723001325936481E-005
  1.723573720600580E-005
  1.725159335004639E-005
  1.727708651872782E-005
  1.731220899270840E-005
  1.735751714500379E-005
  1.741438206116591E-005
  1.748554685968268E-005
  1.757639293942734E-005
  1.769785290724071E-005
  1.788091927227820E-005
SCALARS elementIsPlast double 
LOOKUP_TABLE default
   1.00000000000000     
   1.00000000000000     
   1.00000000000000     
   1.00000000000000     
   1.00000000000000     
   1.00000000000000     
   1.00000000000000     
   1.00000000000000     
   1.00000000000000     
   1.00000000000000     
   1.00000000000000     
   1.00000000000000     
   1.00000000000000     
   1.00000000000000     
   1.00000000000000     
   1.00000000000000     
   1.00000000000000     
   1.00000000000000     
   1.00000000000000     
   1.00000000000000     
   1.00000000000000     
   1.00000000000000     
   1.00000000000000     
   1.00000000000000     
   1.00000000000000     
   1.00000000000000     
   1.00000000000000     
   1.00000000000000     
   1.00000000000000     
   1.00000000000000     
   1.00000000000000     
   1.00000000000000     
   1.00000000000000     
   1.00000000000000     
   1.00000000000000     
   1.00000000000000     
   1.00000000000000     
   1.00000000000000     
   1.00000000000000     
   1.00000000000000     
   1.00000000000000     
   1.00000000000000     
   1.00000000000000     
   1.00000000000000     
   1.00000000000000     
   1.00000000000000     
   1.00000000000000     
   1.00000000000000     
   1.00000000000000     
   1.00000000000000     
   1.00000000000000     
   1.00000000000000     
   1.00000000000000     
   1.00000000000000     
   1.00000000000000     
   1.00000000000000     
   1.00000000000000     
   1.00000000000000     
   1.00000000000000     
   1.00000000000000     
   1.00000000000000     
   1.00000000000000     
   1.00000000000000     
   1.00000000000000     
   1.00000000000000     
   1.00000000000000     
   1.00000000000000     
   1.00000000000000     
   1.00000000000000     
   1.00000000000000     
   1.00000000000000     
   1.00000000000000     
   1.00000000000000     
   1.00000000000000     
   1.00000000000000     
   1.00000000000000     
   1.00000000000000     
   1.00000000000000     
   1.00000000000000     
   1.00000000000000     
   1.00000000000000     
   1.00000000000000     
   1.00000000000000     
   1.00000000000000     
   1.00000000000000     
   1.00000000000000     
   1.00000000000000     
   1.00000000000000     
   1.00000000000000     
   1.00000000000000     
   1.00000000000000     
   1.00000000000000     
   1.00000000000000     
   1.00000000000000     
   1.00000000000000     
   1.00000000000000     
   1.00000000000000     
   1.00000000000000     
   1.00000000000000     
   1.00000000000000     
   1.00000000000000     
   1.00000000000000     
   1.00000000000000     
   1.00000000000000     
   1.00000000000000     
   1.00000000000000     
   1.00000000000000     
   1.00000000000000     
   1.00000000000000     
   1.00000000000000     
   1.00000000000000     
   1.00000000000000     
   1.00000000000000     
   1.00000000000000     
   1.00000000000000     
   1.00000000000000     
   1.00000000000000     
   1.00000000000000     
   1.00000000000000     
   1.00000000000000     
   1.00000000000000     
   1.00000000000000     
   1.00000000000000     
   1.00000000000000     
   1.00000000000000     
   1.00000000000000     
   1.00000000000000     
   1.00000000000000     
   1.00000000000000     
   1.00000000000000     
   1.00000000000000     
   1.00000000000000     
   1.00000000000000     
   1.00000000000000     
   1.00000000000000     
   1.00000000000000     
   1.00000000000000     
   1.00000000000000     
   1.00000000000000     
   1.00000000000000     
   1.00000000000000     
   1.00000000000000     
   1.00000000000000     
   1.00000000000000     
   1.00000000000000     
   1.00000000000000     
   1.00000000000000     
   1.00000000000000     
   1.00000000000000     
   1.00000000000000     
   1.00000000000000     
   1.00000000000000     
   1.00000000000000     
   1.00000000000000     
   1.00000000000000     
   1.00000000000000     
   1.00000000000000     
   1.00000000000000     
   1.00000000000000     
   1.00000000000000     
   1.00000000000000     
   1.00000000000000     
   1.00000000000000     
   1.00000000000000     
   1.00000000000000     
   1.00000000000000     
   1.00000000000000     
   1.00000000000000     
   1.00000000000000     
   1.00000000000000     
   1.00000000000000     
   1.00000000000000     
   1.00000000000000     
   1.00000000000000     
   1.00000000000000     
   1.00000000000000     
   1.00000000000000     
   1.00000000000000     
   1.00000000000000     
   1.00000000000000     
   1.00000000000000     
   1.00000000000000     
   1.00000000000000     
   1.00000000000000     
   1.00000000000000     
   1.00000000000000     
   1.00000000000000     
   1.00000000000000     
   1.00000000000000     
   1.00000000000000     
   1.00000000000000     
   1.00000000000000     
   1.00000000000000     
   1.00000000000000     
   1.00000000000000     
   1.00000000000000     
   1.00000000000000     
   1.00000000000000     
   1.00000000000000     
   1.00000000000000     
   1.00000000000000     
   1.00000000000000     
   1.00000000000000     
   1.00000000000000     
   1.00000000000000     
   1.00000000000000     
   1.00000000000000     
   1.00000000000000     
   1.00000000000000     
   1.00000000000000     
   1.00000000000000     
   1.00000000000000     
   1.00000000000000     
   1.00000000000000     
   1.00000000000000     
   1.00000000000000     
   1.00000000000000     
   1.00000000000000     
   1.00000000000000     
   1.00000000000000     
   1.00000000000000     
   1.00000000000000     
   1.00000000000000     
   1.00000000000000     
   1.00000000000000     
   1.00000000000000     
   1.00000000000000     
   1.00000000000000     
   1.00000000000000     
   1.00000000000000     
   1.00000000000000     
   1.00000000000000     
   1.00000000000000     
   1.00000000000000     
   1.00000000000000     
   1.00000000000000     
   1.00000000000000     
   1.00000000000000     
   1.00000000000000     
   1.00000000000000     
   1.00000000000000     
   1.00000000000000     
   1.00000000000000     
   1.00000000000000     
   1.00000000000000     
   1.00000000000000     
   1.00000000000000     
   1.00000000000000     
   1.00000000000000     
   1.00000000000000     
   1.00000000000000     
   1.00000000000000     
   1.00000000000000     
   1.00000000000000     
   1.00000000000000     
   1.00000000000000     
   1.00000000000000     
   1.00000000000000     
   1.00000000000000     
   1.00000000000000     
   1.00000000000000     
   1.00000000000000     
   1.00000000000000     
   1.00000000000000     
   1.00000000000000     
   1.00000000000000     
   1.00000000000000     
   1.00000000000000     
   1.00000000000000     
   1.00000000000000     
   1.00000000000000     
   1.00000000000000     
   1.00000000000000     
   1.00000000000000     
   1.00000000000000     
   1.00000000000000     
   1.00000000000000     
   1.00000000000000     
   1.00000000000000     
   1.00000000000000     
   1.00000000000000     
   1.00000000000000     
   1.00000000000000     
   1.00000000000000     
   1.00000000000000     
   1.00000000000000     
   1.00000000000000     
   1.00000000000000     
   1.00000000000000     
   1.00000000000000     
   1.00000000000000     
   1.00000000000000     
   1.00000000000000     
   1.00000000000000     
   1.00000000000000     
   1.00000000000000     
   1.00000000000000     
   1.00000000000000     
   1.00000000000000     
   1.00000000000000     
   1.00000000000000     
   1.00000000000000     
   1.00000000000000     
   1.00000000000000     
   1.00000000000000     
   1.00000000000000     
   1.00000000000000     
   1.00000000000000     
   1.00000000000000     
   1.00000000000000     
   1.00000000000000     
   1.00000000000000     
   1.00000000000000     
   1.00000000000000     
   1.00000000000000     
   1.00000000000000     
   1.00000000000000     
   1.00000000000000     
   1.00000000000000     
   1.00000000000000     
   1.00000000000000     
   1.00000000000000     
   1.00000000000000     
   1.00000000000000     
   1.00000000000000     
   1.00000000000000     
   1.00000000000000     
   1.00000000000000     
   1.00000000000000     
   1.00000000000000     
   1.00000000000000     
   1.00000000000000     
   1.00000000000000     
   1.00000000000000     
   1.00000000000000     
   1.00000000000000     
   1.00000000000000     
   1.00000000000000     
   1.00000000000000     
   1.00000000000000     
   1.00000000000000     
   1.00000000000000     
   1.00000000000000     
   1.00000000000000     
   1.00000000000000     
   1.00000000000000     
   1.00000000000000     
   1.00000000000000     
   1.00000000000000     
   1.00000000000000     
   1.00000000000000     
   1.00000000000000     
   1.00000000000000     
   1.00000000000000     
   1.00000000000000     
   1.00000000000000     
   1.00000000000000     
   1.00000000000000     
   1.00000000000000     
   1.00000000000000     
   1.00000000000000     
   1.00000000000000     
   1.00000000000000     
   1.00000000000000     
   1.00000000000000     
   1.00000000000000     
   1.00000000000000     
   1.00000000000000     
   1.00000000000000     
   1.00000000000000     
   1.00000000000000     
   1.00000000000000     
   1.00000000000000     
   1.00000000000000     
   1.00000000000000     
   1.00000000000000     
   1.00000000000000     
   1.00000000000000     
   1.00000000000000     
   1.00000000000000     
   1.00000000000000     
   1.00000000000000     
   1.00000000000000     
   1.00000000000000     
   1.00000000000000     
   1.00000000000000     
   1.00000000000000     
   1.00000000000000     
   1.00000000000000     
   1.00000000000000     
   1.00000000000000     
   1.00000000000000     
   1.00000000000000     
   1.00000000000000     
   1.00000000000000     
   1.00000000000000     
   1.00000000000000     
   1.00000000000000     
   1.00000000000000     
   1.00000000000000     
   1.00000000000000     
   1.00000000000000     
   1.00000000000000     
   1.00000000000000     
   1.00000000000000     
   1.00000000000000     
   1.00000000000000     
   1.00000000000000     
   1.00000000000000     
   1.00000000000000     
   1.00000000000000     
   1.00000000000000     
   1.00000000000000     
   1.00000000000000     
   1.00000000000000     
   1.00000000000000     
   1.00000000000000     
   1.00000000000000     
   1.00000000000000     
   1.00000000000000     
   1.00000000000000     
   1.00000000000000     
   1.00000000000000     
   1.00000000000000     
   1.00000000000000     
   1.00000000000000     
   1.00000000000000     
   1.00000000000000     
   1.00000000000000     
   1.00000000000000     
   1.00000000000000     
   1.00000000000000     
   1.00000000000000     
   1.00000000000000     
   1.00000000000000     
   1.00000000000000     
   1.00000000000000     
   1.00000000000000     
   1.00000000000000     
   1.00000000000000     
   1.00000000000000     
   1.00000000000000     
   1.00000000000000     
   1.00000000000000     
   1.00000000000000     
   1.00000000000000     
   1.00000000000000     
   1.00000000000000     
   1.00000000000000     
   1.00000000000000     
SCALARS poroL double 
LOOKUP_TABLE default
  0.155786763203366     
  0.155786775864312     
  0.155786786924416     
  0.155786796101516     
  0.155786803093051     
  0.155786807591516     
  0.155786809295312     
  0.155786807920649     
  0.155786803215166     
  0.155786794963789     
  0.155786782996263     
  0.155786767194784     
  0.155786747501460     
  0.155786723925656     
  0.155786696549363     
  0.155786761591720     
  0.155786774319328     
  0.155786785515897     
  0.155786794881567     
  0.155786802098018     
  0.155786806844390     
  0.155786808807735     
  0.155786807694077     
  0.155786803241306     
  0.155786795226812     
  0.155786783474320     
  0.155786767861300     
  0.155786748326283     
  0.155786724875546     
  0.155786697590775     
  0.155786758347151     
  0.155786771206345     
  0.155786782674112     
  0.155786792415257     
  0.155786800080108     
  0.155786805320200     
  0.155786807800627     
  0.155786807206713     
  0.155786803256503     
  0.155786795713027     
  0.155786784387517     
  0.155786769147715     
  0.155786749925054     
  0.155786726721474     
  0.155786699616605     
  0.155786753426492     
  0.155786766478809     
  0.155786778349074     
  0.155786788649011     
  0.155786796982386     
  0.155786802960189     
  0.155786806210565     
  0.155786806388481     
  0.155786803186017     
  0.155786796342239     
  0.155786785649426     
  0.155786770960302     
  0.155786752195424     
  0.155786729350837     
  0.155786702502245     
  0.155786746763649     
  0.155786760065664     
  0.155786772464549     
  0.155786783501248     
  0.155786792716826     
  0.155786799667472     
  0.155786803934992     
  0.155786805132867     
  0.155786802916249     
  0.155786796992782     
  0.155786787129036     
  0.155786773157176     
  0.155786754982872     
  0.155786732592202     
  0.155786706058603     
  0.155786738268354     
  0.155786751870093     
  0.155786764916726     
  0.155786776860564     
  0.155786787164839     
  0.155786795315308     
  0.155786800838005     
  0.155786803295167     
  0.155786802292901     
  0.155786797499735     
  0.155786788648876     
  0.155786775546542     
  0.155786758079042     
  0.155786736220438     
  0.155786710041560     
  0.155786727824806     
  0.155786741768665     
  0.155786755572997     
  0.155786768584695     
  0.155786780173893     
  0.155786789745999     
  0.155786796750217     
  0.155786800689981     
  0.155786801119346     
  0.155786797651880     
  0.155786789982241     
  0.155786777883892     
  0.155786761219597     
  0.155786739949890     
  0.155786714141524     
  0.155786715294043     
  0.155786729611225     
  0.155786744271762     
  0.155786758499447     
  0.155786771557347     
  0.155786782755066     
  0.155786791458576     
  0.155786797094133     
  0.155786799151162     
  0.155786797188744     
  0.155786790849577     
  0.155786779868384     
  0.155786764079828     
  0.155786743428523     
  0.155786717977011     
  0.155786700512550     
  0.155786715223207     
  0.155786730822613     
  0.155786746398580     
  0.155786761091626     
  0.155786774103667     
  0.155786784699846     
  0.155786792225699     
  0.155786796095046     
  0.155786795795899     
  0.155786790913870     
  0.155786781137441     
  0.155786766269239     
  0.155786746235733     
  0.155786721096417     
  0.155786683291518     
  0.155786698405615     
  0.155786715009732     
  0.155786732044619     
  0.155786748518500     
  0.155786763511444     
  0.155786776181053     
  0.155786785767442     
  0.155786791601986     
  0.155786793100195     
  0.155786789773165     
  0.155786781259691     
  0.155786767325488     
  0.155786747877545     
  0.155786722974132     
  0.155786663431749     
  0.155786678941706     
  0.155786696594808     
  0.155786715173706     
  0.155786733545351     
  0.155786750659113     
  0.155786765549450     
  0.155786777342146     
  0.155786785268439     
  0.155786788658819     
  0.155786786952553     
  0.155786779726456     
  0.155786766706385     
  0.155786747779945     
  0.155786723005701     
  0.155786640733660     
  0.155786656610928     
  0.155786675326158     
  0.155786695500012     
  0.155786715849826     
  0.155786735184757     
  0.155786752405415     
  0.155786766509461     
  0.155786776611873     
  0.155786781953053     
  0.155786781893749     
  0.155786775940478     
  0.155786763780478     
  0.155786745281650     
  0.155786720504284     
  0.155786615015030     
  0.155786631204617     
  0.155786650953866     
  0.155786672725488     
  0.155786695083546     
  0.155786716688217     
  0.155786736296121     
  0.155786752768589     
  0.155786765085117     
  0.155786772379693     
  0.155786773938465     
  0.155786769203908     
  0.155786757816758     
  0.155786739628755     
  0.155786714701154     
  0.155786586135663     
  0.155786602547461     
  0.155786623248761     
  0.155786646554830     
  0.155786670880815     
  0.155786694732384     
  0.155786716711603     
  0.155786735531201     
  0.155786750035568     
  0.155786759229373     
  0.155786762319298     
  0.155786758702836     
  0.155786747975792     
  0.155786729973025     
  0.155786704752344     
  0.155786554027721     
  0.155786570525749     
  0.155786592025814     
  0.155786616715397     
  0.155786642870306     
  0.155786668844221     
  0.155786693078048     
  0.155786714126353     
  0.155786730692573     
  0.155786741662402     
  0.155786746142432     
  0.155786743494768     
  0.155786733304411     
  0.155786715375859     
  0.155786689753000     
  0.155786518729744     
  0.155786535119384     
  0.155786557173494     
  0.155786582979287     
  0.155786610690878     
  0.155786638519089     
  0.155786664748075     
  0.155786687774002     
  0.155786706156538     
  0.155786718672680     
  0.155786724353967     
  0.155786722510540     
  0.155786712734238     
  0.155786694824768     
  0.155786668765828     
  0.155786480419755     
  0.155786496434267     
  0.155786518684817     
  0.155786545189823     
  0.155786574007411     
  0.155786603227141     
  0.155786630993344     
  0.155786655558875     
  0.155786675358260     
  0.155786689078140     
  0.155786695704356     
  0.155786694526146     
  0.155786685113199     
  0.155786667258570     
  0.155786640870336     
  0.155786439440035     
  0.155786454729412     
  0.155786476684979     
  0.155786503286655     
  0.155786532528501     
  0.155786562415296     
  0.155786590991600     
  0.155786616410262     
  0.155786637025754     
  0.155786651481812     
  0.155786658756568     
  0.155786658147547     
  0.155786649198384     
  0.155786631624699     
  0.155786605207524     
  0.155786396308362     
  0.155786410427834     
  0.155786431446947     
  0.155786457322685     
  0.155786486019260     
  0.155786515507677     
  0.155786543807521     
  0.155786569064454     
  0.155786589650708     
  0.155786604250989     
  0.155786611888805     
  0.155786611874359     
  0.155786603698596     
  0.155786586913392     
  0.155786561055434     
  0.155786351702892     
  0.155786364109556     
  0.155786383381794     
  0.155786407461254     
  0.155786434298181     
  0.155786461894180     
  0.155786488368778     
  0.155786512033126     
  0.155786531459273     
  0.155786545508635     
  0.155786553302899     
  0.155786554134679     
  0.155786547345079     
  0.155786532209867     
  0.155786507880129     
  0.155786306442907     
  0.155786316454816     
  0.155786333002284     
  0.155786353936938     
  0.155786377195068     
  0.155786400891734     
  0.155786423434491     
  0.155786443591111     
  0.155786460426449     
  0.155786473171637     
  0.155786481079143     
  0.155786483323809     
  0.155786478936380     
  0.155786466747178     
  0.155786445359203     
  0.155786261299676     
  0.155786268160371     
  0.155786280817285     
  0.155786296953516     
  0.155786314447157     
  0.155786331646805     
  0.155786347562157     
  0.155786361821631     
  0.155786374382857     
  0.155786385069148     
  0.155786393263010     
  0.155786397855115     
  0.155786397340896     
  0.155786389897258     
  0.155786373397573     
  0.155786217060280     
  0.155786219840082     
  0.155786227190002     
  0.155786236461845     
  0.155786245459572     
  0.155786252982132     
  0.155786259086768     
  0.155786264785645     
  0.155786271278998     
  0.155786279170595     
  0.155786287982520     
  0.155786296170408     
  0.155786301452247     
  0.155786301106537     
  0.155786292072939     
  0.155786174405069     
  0.155786171967629     
  0.155786172193207     
  0.155786171881311     
  0.155786168934747     
  0.155786163145766     
  0.155786156214301     
  0.155786150866853     
  0.155786149632750     
  0.155786153935072     
  0.155786163591878     
  0.155786176703382     
  0.155786190064134     
  0.155786199774387     
  0.155786201550670     
  0.155786133835043     
  0.155786124668922     
  0.155786115240676     
  0.155786101649902     
  0.155786082528776     
  0.155786059759571     
  0.155786037286788     
  0.155786019263507     
  0.155786009041707     
  0.155786008752970     
  0.155786018897987     
  0.155786037834259     
  0.155786061659831     
  0.155786085022533     
  0.155786101939237     
  0.155786095571692     
  0.155786077448809     
  0.155786054444168     
  0.155786022437106     
  0.155785982636822     
  0.155785940366558     
  0.155785901411681     
  0.155785870321443     
  0.155785850458526     
  0.155785844358232     
  0.155785853613918     
  0.155785877988884     
  0.155785914151608     
  0.155785955328809     
  0.155785993093816     
  0.155786059401449     
  0.155786028433721     
  0.155785985379277     
  0.155785928542093     
  0.155785865194537     
  0.155785803489772     
  0.155785749033085     
  0.155785705557669     
  0.155785675965852     
  0.155785662898432     
  0.155785668970111     
  0.155785696370706     
  0.155785744667133     
  0.155785807978156     
  0.155785874176164     
  0.155786023931104     
  0.155785972474378     
  0.155785899013744     
  0.155785813403923     
  0.155785727901734     
  0.155785649436411     
  0.155785581699572     
  0.155785527232927     
  0.155785488311787     
  0.155785467491271     
  0.155785468017345     
  0.155785494117734     
  0.155785550782345     
  0.155785637721086     
  0.155785743241133     
  0.155785984623350     
  0.155785894250967     
  0.155785784637916     
  0.155785674034050     
  0.155785571318152     
  0.155785479780520     
  0.155785401369388     
  0.155785337642563     
  0.155785290303479     
  0.155785261620240     
  0.155785254957786     
  0.155785275614082     
  0.155785332020532     
  0.155785438778246     
  0.155785592840340     
  0.155785909542559     
  0.155785775920219     
  0.155785638825510     
  0.155785511827691     
  0.155785397264406     
  0.155785296331643     
  0.155785209866893     
  0.155785138780430     
  0.155785084318052     
  0.155785048393995     
  0.155785034126600     
  0.155785046837388     
  0.155785096285563     
  0.155785201844131     
  0.155785421633629     
