# vtk DataFile Version 3.0
vtk output
ASCII
DATASET UNSTRUCTURED_GRID
POINTS       496 double 
  0.00000000E+00  3.00000000E+02  0.00000000E+00
  0.00000000E+00  2.80000000E+02  0.00000000E+00
  0.00000000E+00  2.60000000E+02  0.00000000E+00
  0.00000000E+00  2.40000000E+02  0.00000000E+00
  0.00000000E+00  2.20000000E+02  0.00000000E+00
  0.00000000E+00  2.00000000E+02  0.00000000E+00
  0.00000000E+00  1.80000000E+02  0.00000000E+00
  0.00000000E+00  1.60000000E+02  0.00000000E+00
  0.00000000E+00  1.40000000E+02  0.00000000E+00
  0.00000000E+00  1.20000000E+02  0.00000000E+00
  0.00000000E+00  1.00000000E+02  0.00000000E+00
  0.00000000E+00  8.00000000E+01  0.00000000E+00
  0.00000000E+00  6.00000000E+01  0.00000000E+00
  0.00000000E+00  4.00000000E+01  0.00000000E+00
  0.00000000E+00  2.00000000E+01  0.00000000E+00
  0.00000000E+00  4.99600361E-14  0.00000000E+00
  2.00000000E+01  3.00000000E+02  0.00000000E+00
  2.00000000E+01  2.80000000E+02  0.00000000E+00
  2.00000000E+01  2.60000000E+02  0.00000000E+00
  2.00000000E+01  2.40000000E+02  0.00000000E+00
  2.00000000E+01  2.20000000E+02  0.00000000E+00
  2.00000000E+01  2.00000000E+02  0.00000000E+00
  2.00000000E+01  1.80000000E+02  0.00000000E+00
  2.00000000E+01  1.60000000E+02  0.00000000E+00
  2.00000000E+01  1.40000000E+02  0.00000000E+00
  2.00000000E+01  1.20000000E+02  0.00000000E+00
  2.00000000E+01  1.00000000E+02  0.00000000E+00
  2.00000000E+01  8.00000000E+01  0.00000000E+00
  2.00000000E+01  6.00000000E+01  0.00000000E+00
  2.00000000E+01  4.00000000E+01  0.00000000E+00
  2.00000000E+01  2.00000000E+01  0.00000000E+00
  2.00000000E+01  4.99600361E-14  0.00000000E+00
  4.00000000E+01  3.00000000E+02  0.00000000E+00
  4.00000000E+01  2.80000000E+02  0.00000000E+00
  4.00000000E+01  2.60000000E+02  0.00000000E+00
  4.00000000E+01  2.40000000E+02  0.00000000E+00
  4.00000000E+01  2.20000000E+02  0.00000000E+00
  4.00000000E+01  2.00000000E+02  0.00000000E+00
  4.00000000E+01  1.80000000E+02  0.00000000E+00
  4.00000000E+01  1.60000000E+02  0.00000000E+00
  4.00000000E+01  1.40000000E+02  0.00000000E+00
  4.00000000E+01  1.20000000E+02  0.00000000E+00
  4.00000000E+01  1.00000000E+02  0.00000000E+00
  4.00000000E+01  8.00000000E+01  0.00000000E+00
  4.00000000E+01  6.00000000E+01  0.00000000E+00
  4.00000000E+01  4.00000000E+01  0.00000000E+00
  4.00000000E+01  2.00000000E+01  0.00000000E+00
  4.00000000E+01  4.99600361E-14  0.00000000E+00
  6.00000000E+01  3.00000000E+02  0.00000000E+00
  6.00000000E+01  2.80000000E+02  0.00000000E+00
  6.00000000E+01  2.60000000E+02  0.00000000E+00
  6.00000000E+01  2.40000000E+02  0.00000000E+00
  6.00000000E+01  2.20000000E+02  0.00000000E+00
  6.00000000E+01  2.00000000E+02  0.00000000E+00
  6.00000000E+01  1.80000000E+02  0.00000000E+00
  6.00000000E+01  1.60000000E+02  0.00000000E+00
  6.00000000E+01  1.40000000E+02  0.00000000E+00
  6.00000000E+01  1.20000000E+02  0.00000000E+00
  6.00000000E+01  1.00000000E+02  0.00000000E+00
  6.00000000E+01  8.00000000E+01  0.00000000E+00
  6.00000000E+01  6.00000000E+01  0.00000000E+00
  6.00000000E+01  4.00000000E+01  0.00000000E+00
  6.00000000E+01  2.00000000E+01  0.00000000E+00
  6.00000000E+01  4.99600361E-14  0.00000000E+00
  8.00000000E+01  3.00000000E+02  0.00000000E+00
  8.00000000E+01  2.80000000E+02  0.00000000E+00
  8.00000000E+01  2.60000000E+02  0.00000000E+00
  8.00000000E+01  2.40000000E+02  0.00000000E+00
  8.00000000E+01  2.20000000E+02  0.00000000E+00
  8.00000000E+01  2.00000000E+02  0.00000000E+00
  8.00000000E+01  1.80000000E+02  0.00000000E+00
  8.00000000E+01  1.60000000E+02  0.00000000E+00
  8.00000000E+01  1.40000000E+02  0.00000000E+00
  8.00000000E+01  1.20000000E+02  0.00000000E+00
  8.00000000E+01  1.00000000E+02  0.00000000E+00
  8.00000000E+01  8.00000000E+01  0.00000000E+00
  8.00000000E+01  6.00000000E+01  0.00000000E+00
  8.00000000E+01  4.00000000E+01  0.00000000E+00
  8.00000000E+01  2.00000000E+01  0.00000000E+00
  8.00000000E+01  4.99600361E-14  0.00000000E+00
  1.00000000E+02  3.00000000E+02  0.00000000E+00
  1.00000000E+02  2.80000000E+02  0.00000000E+00
  1.00000000E+02  2.60000000E+02  0.00000000E+00
  1.00000000E+02  2.40000000E+02  0.00000000E+00
  1.00000000E+02  2.20000000E+02  0.00000000E+00
  1.00000000E+02  2.00000000E+02  0.00000000E+00
  1.00000000E+02  1.80000000E+02  0.00000000E+00
  1.00000000E+02  1.60000000E+02  0.00000000E+00
  1.00000000E+02  1.40000000E+02  0.00000000E+00
  1.00000000E+02  1.20000000E+02  0.00000000E+00
  1.00000000E+02  1.00000000E+02  0.00000000E+00
  1.00000000E+02  8.00000000E+01  0.00000000E+00
  1.00000000E+02  6.00000000E+01  0.00000000E+00
  1.00000000E+02  4.00000000E+01  0.00000000E+00
  1.00000000E+02  2.00000000E+01  0.00000000E+00
  1.00000000E+02  4.99600361E-14  0.00000000E+00
  1.20000000E+02  3.00000000E+02  0.00000000E+00
  1.20000000E+02  2.80000000E+02  0.00000000E+00
  1.20000000E+02  2.60000000E+02  0.00000000E+00
  1.20000000E+02  2.40000000E+02  0.00000000E+00
  1.20000000E+02  2.20000000E+02  0.00000000E+00
  1.20000000E+02  2.00000000E+02  0.00000000E+00
  1.20000000E+02  1.80000000E+02  0.00000000E+00
  1.20000000E+02  1.60000000E+02  0.00000000E+00
  1.20000000E+02  1.40000000E+02  0.00000000E+00
  1.20000000E+02  1.20000000E+02  0.00000000E+00
  1.20000000E+02  1.00000000E+02  0.00000000E+00
  1.20000000E+02  8.00000000E+01  0.00000000E+00
  1.20000000E+02  6.00000000E+01  0.00000000E+00
  1.20000000E+02  4.00000000E+01  0.00000000E+00
  1.20000000E+02  2.00000000E+01  0.00000000E+00
  1.20000000E+02  4.99600361E-14  0.00000000E+00
  1.40000000E+02  3.00000000E+02  0.00000000E+00
  1.40000000E+02  2.80000000E+02  0.00000000E+00
  1.40000000E+02  2.60000000E+02  0.00000000E+00
  1.40000000E+02  2.40000000E+02  0.00000000E+00
  1.40000000E+02  2.20000000E+02  0.00000000E+00
  1.40000000E+02  2.00000000E+02  0.00000000E+00
  1.40000000E+02  1.80000000E+02  0.00000000E+00
  1.40000000E+02  1.60000000E+02  0.00000000E+00
  1.40000000E+02  1.40000000E+02  0.00000000E+00
  1.40000000E+02  1.20000000E+02  0.00000000E+00
  1.40000000E+02  1.00000000E+02  0.00000000E+00
  1.40000000E+02  8.00000000E+01  0.00000000E+00
  1.40000000E+02  6.00000000E+01  0.00000000E+00
  1.40000000E+02  4.00000000E+01  0.00000000E+00
  1.40000000E+02  2.00000000E+01  0.00000000E+00
  1.40000000E+02  4.99600361E-14  0.00000000E+00
  1.60000000E+02  3.00000000E+02  0.00000000E+00
  1.60000000E+02  2.80000000E+02  0.00000000E+00
  1.60000000E+02  2.60000000E+02  0.00000000E+00
  1.60000000E+02  2.40000000E+02  0.00000000E+00
  1.60000000E+02  2.20000000E+02  0.00000000E+00
  1.60000000E+02  2.00000000E+02  0.00000000E+00
  1.60000000E+02  1.80000000E+02  0.00000000E+00
  1.60000000E+02  1.60000000E+02  0.00000000E+00
  1.60000000E+02  1.40000000E+02  0.00000000E+00
  1.60000000E+02  1.20000000E+02  0.00000000E+00
  1.60000000E+02  1.00000000E+02  0.00000000E+00
  1.60000000E+02  8.00000000E+01  0.00000000E+00
  1.60000000E+02  6.00000000E+01  0.00000000E+00
  1.60000000E+02  4.00000000E+01  0.00000000E+00
  1.60000000E+02  2.00000000E+01  0.00000000E+00
  1.60000000E+02  4.99600361E-14  0.00000000E+00
  1.80000000E+02  3.00000000E+02  0.00000000E+00
  1.80000000E+02  2.80000000E+02  0.00000000E+00
  1.80000000E+02  2.60000000E+02  0.00000000E+00
  1.80000000E+02  2.40000000E+02  0.00000000E+00
  1.80000000E+02  2.20000000E+02  0.00000000E+00
  1.80000000E+02  2.00000000E+02  0.00000000E+00
  1.80000000E+02  1.80000000E+02  0.00000000E+00
  1.80000000E+02  1.60000000E+02  0.00000000E+00
  1.80000000E+02  1.40000000E+02  0.00000000E+00
  1.80000000E+02  1.20000000E+02  0.00000000E+00
  1.80000000E+02  1.00000000E+02  0.00000000E+00
  1.80000000E+02  8.00000000E+01  0.00000000E+00
  1.80000000E+02  6.00000000E+01  0.00000000E+00
  1.80000000E+02  4.00000000E+01  0.00000000E+00
  1.80000000E+02  2.00000000E+01  0.00000000E+00
  1.80000000E+02  4.99600361E-14  0.00000000E+00
  2.00000000E+02  3.00000000E+02  0.00000000E+00
  2.00000000E+02  2.80000000E+02  0.00000000E+00
  2.00000000E+02  2.60000000E+02  0.00000000E+00
  2.00000000E+02  2.40000000E+02  0.00000000E+00
  2.00000000E+02  2.20000000E+02  0.00000000E+00
  2.00000000E+02  2.00000000E+02  0.00000000E+00
  2.00000000E+02  1.80000000E+02  0.00000000E+00
  2.00000000E+02  1.60000000E+02  0.00000000E+00
  2.00000000E+02  1.40000000E+02  0.00000000E+00
  2.00000000E+02  1.20000000E+02  0.00000000E+00
  2.00000000E+02  1.00000000E+02  0.00000000E+00
  2.00000000E+02  8.00000000E+01  0.00000000E+00
  2.00000000E+02  6.00000000E+01  0.00000000E+00
  2.00000000E+02  4.00000000E+01  0.00000000E+00
  2.00000000E+02  2.00000000E+01  0.00000000E+00
  2.00000000E+02  4.99600361E-14  0.00000000E+00
  2.20000000E+02  3.00000000E+02  0.00000000E+00
  2.20000000E+02  2.80000000E+02  0.00000000E+00
  2.20000000E+02  2.60000000E+02  0.00000000E+00
  2.20000000E+02  2.40000000E+02  0.00000000E+00
  2.20000000E+02  2.20000000E+02  0.00000000E+00
  2.20000000E+02  2.00000000E+02  0.00000000E+00
  2.20000000E+02  1.80000000E+02  0.00000000E+00
  2.20000000E+02  1.60000000E+02  0.00000000E+00
  2.20000000E+02  1.40000000E+02  0.00000000E+00
  2.20000000E+02  1.20000000E+02  0.00000000E+00
  2.20000000E+02  1.00000000E+02  0.00000000E+00
  2.20000000E+02  8.00000000E+01  0.00000000E+00
  2.20000000E+02  6.00000000E+01  0.00000000E+00
  2.20000000E+02  4.00000000E+01  0.00000000E+00
  2.20000000E+02  2.00000000E+01  0.00000000E+00
  2.20000000E+02  4.99600361E-14  0.00000000E+00
  2.40000000E+02  3.00000000E+02  0.00000000E+00
  2.40000000E+02  2.80000000E+02  0.00000000E+00
  2.40000000E+02  2.60000000E+02  0.00000000E+00
  2.40000000E+02  2.40000000E+02  0.00000000E+00
  2.40000000E+02  2.20000000E+02  0.00000000E+00
  2.40000000E+02  2.00000000E+02  0.00000000E+00
  2.40000000E+02  1.80000000E+02  0.00000000E+00
  2.40000000E+02  1.60000000E+02  0.00000000E+00
  2.40000000E+02  1.40000000E+02  0.00000000E+00
  2.40000000E+02  1.20000000E+02  0.00000000E+00
  2.40000000E+02  1.00000000E+02  0.00000000E+00
  2.40000000E+02  8.00000000E+01  0.00000000E+00
  2.40000000E+02  6.00000000E+01  0.00000000E+00
  2.40000000E+02  4.00000000E+01  0.00000000E+00
  2.40000000E+02  2.00000000E+01  0.00000000E+00
  2.40000000E+02  4.99600361E-14  0.00000000E+00
  2.60000000E+02  3.00000000E+02  0.00000000E+00
  2.60000000E+02  2.80000000E+02  0.00000000E+00
  2.60000000E+02  2.60000000E+02  0.00000000E+00
  2.60000000E+02  2.40000000E+02  0.00000000E+00
  2.60000000E+02  2.20000000E+02  0.00000000E+00
  2.60000000E+02  2.00000000E+02  0.00000000E+00
  2.60000000E+02  1.80000000E+02  0.00000000E+00
  2.60000000E+02  1.60000000E+02  0.00000000E+00
  2.60000000E+02  1.40000000E+02  0.00000000E+00
  2.60000000E+02  1.20000000E+02  0.00000000E+00
  2.60000000E+02  1.00000000E+02  0.00000000E+00
  2.60000000E+02  8.00000000E+01  0.00000000E+00
  2.60000000E+02  6.00000000E+01  0.00000000E+00
  2.60000000E+02  4.00000000E+01  0.00000000E+00
  2.60000000E+02  2.00000000E+01  0.00000000E+00
  2.60000000E+02  4.99600361E-14  0.00000000E+00
  2.80000000E+02  3.00000000E+02  0.00000000E+00
  2.80000000E+02  2.80000000E+02  0.00000000E+00
  2.80000000E+02  2.60000000E+02  0.00000000E+00
  2.80000000E+02  2.40000000E+02  0.00000000E+00
  2.80000000E+02  2.20000000E+02  0.00000000E+00
  2.80000000E+02  2.00000000E+02  0.00000000E+00
  2.80000000E+02  1.80000000E+02  0.00000000E+00
  2.80000000E+02  1.60000000E+02  0.00000000E+00
  2.80000000E+02  1.40000000E+02  0.00000000E+00
  2.80000000E+02  1.20000000E+02  0.00000000E+00
  2.80000000E+02  1.00000000E+02  0.00000000E+00
  2.80000000E+02  8.00000000E+01  0.00000000E+00
  2.80000000E+02  6.00000000E+01  0.00000000E+00
  2.80000000E+02  4.00000000E+01  0.00000000E+00
  2.80000000E+02  2.00000000E+01  0.00000000E+00
  2.80000000E+02  4.99600361E-14  0.00000000E+00
  3.00000000E+02  3.00000000E+02  0.00000000E+00
  3.00000000E+02  2.80000000E+02  0.00000000E+00
  3.00000000E+02  2.60000000E+02  0.00000000E+00
  3.00000000E+02  2.40000000E+02  0.00000000E+00
  3.00000000E+02  2.20000000E+02  0.00000000E+00
  3.00000000E+02  2.00000000E+02  0.00000000E+00
  3.00000000E+02  1.80000000E+02  0.00000000E+00
  3.00000000E+02  1.60000000E+02  0.00000000E+00
  3.00000000E+02  1.40000000E+02  0.00000000E+00
  3.00000000E+02  1.20000000E+02  0.00000000E+00
  3.00000000E+02  1.00000000E+02  0.00000000E+00
  3.00000000E+02  8.00000000E+01  0.00000000E+00
  3.00000000E+02  6.00000000E+01  0.00000000E+00
  3.00000000E+02  4.00000000E+01  0.00000000E+00
  3.00000000E+02  2.00000000E+01  0.00000000E+00
  3.00000000E+02  4.99600361E-14  0.00000000E+00
  3.20000000E+02  3.00000000E+02  0.00000000E+00
  3.20000000E+02  2.80000000E+02  0.00000000E+00
  3.20000000E+02  2.60000000E+02  0.00000000E+00
  3.20000000E+02  2.40000000E+02  0.00000000E+00
  3.20000000E+02  2.20000000E+02  0.00000000E+00
  3.20000000E+02  2.00000000E+02  0.00000000E+00
  3.20000000E+02  1.80000000E+02  0.00000000E+00
  3.20000000E+02  1.60000000E+02  0.00000000E+00
  3.20000000E+02  1.40000000E+02  0.00000000E+00
  3.20000000E+02  1.20000000E+02  0.00000000E+00
  3.20000000E+02  1.00000000E+02  0.00000000E+00
  3.20000000E+02  8.00000000E+01  0.00000000E+00
  3.20000000E+02  6.00000000E+01  0.00000000E+00
  3.20000000E+02  4.00000000E+01  0.00000000E+00
  3.20000000E+02  2.00000000E+01  0.00000000E+00
  3.20000000E+02  4.99600361E-14  0.00000000E+00
  3.40000000E+02  3.00000000E+02  0.00000000E+00
  3.40000000E+02  2.80000000E+02  0.00000000E+00
  3.40000000E+02  2.60000000E+02  0.00000000E+00
  3.40000000E+02  2.40000000E+02  0.00000000E+00
  3.40000000E+02  2.20000000E+02  0.00000000E+00
  3.40000000E+02  2.00000000E+02  0.00000000E+00
  3.40000000E+02  1.80000000E+02  0.00000000E+00
  3.40000000E+02  1.60000000E+02  0.00000000E+00
  3.40000000E+02  1.40000000E+02  0.00000000E+00
  3.40000000E+02  1.20000000E+02  0.00000000E+00
  3.40000000E+02  1.00000000E+02  0.00000000E+00
  3.40000000E+02  8.00000000E+01  0.00000000E+00
  3.40000000E+02  6.00000000E+01  0.00000000E+00
  3.40000000E+02  4.00000000E+01  0.00000000E+00
  3.40000000E+02  2.00000000E+01  0.00000000E+00
  3.40000000E+02  4.99600361E-14  0.00000000E+00
  3.60000000E+02  3.00000000E+02  0.00000000E+00
  3.60000000E+02  2.80000000E+02  0.00000000E+00
  3.60000000E+02  2.60000000E+02  0.00000000E+00
  3.60000000E+02  2.40000000E+02  0.00000000E+00
  3.60000000E+02  2.20000000E+02  0.00000000E+00
  3.60000000E+02  2.00000000E+02  0.00000000E+00
  3.60000000E+02  1.80000000E+02  0.00000000E+00
  3.60000000E+02  1.60000000E+02  0.00000000E+00
  3.60000000E+02  1.40000000E+02  0.00000000E+00
  3.60000000E+02  1.20000000E+02  0.00000000E+00
  3.60000000E+02  1.00000000E+02  0.00000000E+00
  3.60000000E+02  8.00000000E+01  0.00000000E+00
  3.60000000E+02  6.00000000E+01  0.00000000E+00
  3.60000000E+02  4.00000000E+01  0.00000000E+00
  3.60000000E+02  2.00000000E+01  0.00000000E+00
  3.60000000E+02  4.99600361E-14  0.00000000E+00
  3.80000000E+02  3.00000000E+02  0.00000000E+00
  3.80000000E+02  2.80000000E+02  0.00000000E+00
  3.80000000E+02  2.60000000E+02  0.00000000E+00
  3.80000000E+02  2.40000000E+02  0.00000000E+00
  3.80000000E+02  2.20000000E+02  0.00000000E+00
  3.80000000E+02  2.00000000E+02  0.00000000E+00
  3.80000000E+02  1.80000000E+02  0.00000000E+00
  3.80000000E+02  1.60000000E+02  0.00000000E+00
  3.80000000E+02  1.40000000E+02  0.00000000E+00
  3.80000000E+02  1.20000000E+02  0.00000000E+00
  3.80000000E+02  1.00000000E+02  0.00000000E+00
  3.80000000E+02  8.00000000E+01  0.00000000E+00
  3.80000000E+02  6.00000000E+01  0.00000000E+00
  3.80000000E+02  4.00000000E+01  0.00000000E+00
  3.80000000E+02  2.00000000E+01  0.00000000E+00
  3.80000000E+02  4.99600361E-14  0.00000000E+00
  4.00000000E+02  3.00000000E+02  0.00000000E+00
  4.00000000E+02  2.80000000E+02  0.00000000E+00
  4.00000000E+02  2.60000000E+02  0.00000000E+00
  4.00000000E+02  2.40000000E+02  0.00000000E+00
  4.00000000E+02  2.20000000E+02  0.00000000E+00
  4.00000000E+02  2.00000000E+02  0.00000000E+00
  4.00000000E+02  1.80000000E+02  0.00000000E+00
  4.00000000E+02  1.60000000E+02  0.00000000E+00
  4.00000000E+02  1.40000000E+02  0.00000000E+00
  4.00000000E+02  1.20000000E+02  0.00000000E+00
  4.00000000E+02  1.00000000E+02  0.00000000E+00
  4.00000000E+02  8.00000000E+01  0.00000000E+00
  4.00000000E+02  6.00000000E+01  0.00000000E+00
  4.00000000E+02  4.00000000E+01  0.00000000E+00
  4.00000000E+02  2.00000000E+01  0.00000000E+00
  4.00000000E+02  4.99600361E-14  0.00000000E+00
  4.20000000E+02  3.00000000E+02  0.00000000E+00
  4.20000000E+02  2.80000000E+02  0.00000000E+00
  4.20000000E+02  2.60000000E+02  0.00000000E+00
  4.20000000E+02  2.40000000E+02  0.00000000E+00
  4.20000000E+02  2.20000000E+02  0.00000000E+00
  4.20000000E+02  2.00000000E+02  0.00000000E+00
  4.20000000E+02  1.80000000E+02  0.00000000E+00
  4.20000000E+02  1.60000000E+02  0.00000000E+00
  4.20000000E+02  1.40000000E+02  0.00000000E+00
  4.20000000E+02  1.20000000E+02  0.00000000E+00
  4.20000000E+02  1.00000000E+02  0.00000000E+00
  4.20000000E+02  8.00000000E+01  0.00000000E+00
  4.20000000E+02  6.00000000E+01  0.00000000E+00
  4.20000000E+02  4.00000000E+01  0.00000000E+00
  4.20000000E+02  2.00000000E+01  0.00000000E+00
  4.20000000E+02  4.99600361E-14  0.00000000E+00
  4.40000000E+02  3.00000000E+02  0.00000000E+00
  4.40000000E+02  2.80000000E+02  0.00000000E+00
  4.40000000E+02  2.60000000E+02  0.00000000E+00
  4.40000000E+02  2.40000000E+02  0.00000000E+00
  4.40000000E+02  2.20000000E+02  0.00000000E+00
  4.40000000E+02  2.00000000E+02  0.00000000E+00
  4.40000000E+02  1.80000000E+02  0.00000000E+00
  4.40000000E+02  1.60000000E+02  0.00000000E+00
  4.40000000E+02  1.40000000E+02  0.00000000E+00
  4.40000000E+02  1.20000000E+02  0.00000000E+00
  4.40000000E+02  1.00000000E+02  0.00000000E+00
  4.40000000E+02  8.00000000E+01  0.00000000E+00
  4.40000000E+02  6.00000000E+01  0.00000000E+00
  4.40000000E+02  4.00000000E+01  0.00000000E+00
  4.40000000E+02  2.00000000E+01  0.00000000E+00
  4.40000000E+02  4.99600361E-14  0.00000000E+00
  4.60000000E+02  3.00000000E+02  0.00000000E+00
  4.60000000E+02  2.80000000E+02  0.00000000E+00
  4.60000000E+02  2.60000000E+02  0.00000000E+00
  4.60000000E+02  2.40000000E+02  0.00000000E+00
  4.60000000E+02  2.20000000E+02  0.00000000E+00
  4.60000000E+02  2.00000000E+02  0.00000000E+00
  4.60000000E+02  1.80000000E+02  0.00000000E+00
  4.60000000E+02  1.60000000E+02  0.00000000E+00
  4.60000000E+02  1.40000000E+02  0.00000000E+00
  4.60000000E+02  1.20000000E+02  0.00000000E+00
  4.60000000E+02  1.00000000E+02  0.00000000E+00
  4.60000000E+02  8.00000000E+01  0.00000000E+00
  4.60000000E+02  6.00000000E+01  0.00000000E+00
  4.60000000E+02  4.00000000E+01  0.00000000E+00
  4.60000000E+02  2.00000000E+01  0.00000000E+00
  4.60000000E+02  4.99600361E-14  0.00000000E+00
  4.80000000E+02  3.00000000E+02  0.00000000E+00
  4.80000000E+02  2.80000000E+02  0.00000000E+00
  4.80000000E+02  2.60000000E+02  0.00000000E+00
  4.80000000E+02  2.40000000E+02  0.00000000E+00
  4.80000000E+02  2.20000000E+02  0.00000000E+00
  4.80000000E+02  2.00000000E+02  0.00000000E+00
  4.80000000E+02  1.80000000E+02  0.00000000E+00
  4.80000000E+02  1.60000000E+02  0.00000000E+00
  4.80000000E+02  1.40000000E+02  0.00000000E+00
  4.80000000E+02  1.20000000E+02  0.00000000E+00
  4.80000000E+02  1.00000000E+02  0.00000000E+00
  4.80000000E+02  8.00000000E+01  0.00000000E+00
  4.80000000E+02  6.00000000E+01  0.00000000E+00
  4.80000000E+02  4.00000000E+01  0.00000000E+00
  4.80000000E+02  2.00000000E+01  0.00000000E+00
  4.80000000E+02  4.99600361E-14  0.00000000E+00
  5.00000000E+02  3.00000000E+02  0.00000000E+00
  5.00000000E+02  2.80000000E+02  0.00000000E+00
  5.00000000E+02  2.60000000E+02  0.00000000E+00
  5.00000000E+02  2.40000000E+02  0.00000000E+00
  5.00000000E+02  2.20000000E+02  0.00000000E+00
  5.00000000E+02  2.00000000E+02  0.00000000E+00
  5.00000000E+02  1.80000000E+02  0.00000000E+00
  5.00000000E+02  1.60000000E+02  0.00000000E+00
  5.00000000E+02  1.40000000E+02  0.00000000E+00
  5.00000000E+02  1.20000000E+02  0.00000000E+00
  5.00000000E+02  1.00000000E+02  0.00000000E+00
  5.00000000E+02  8.00000000E+01  0.00000000E+00
  5.00000000E+02  6.00000000E+01  0.00000000E+00
  5.00000000E+02  4.00000000E+01  0.00000000E+00
  5.00000000E+02  2.00000000E+01  0.00000000E+00
  5.00000000E+02  4.99600361E-14  0.00000000E+00
  5.20000000E+02  3.00000000E+02  0.00000000E+00
  5.20000000E+02  2.80000000E+02  0.00000000E+00
  5.20000000E+02  2.60000000E+02  0.00000000E+00
  5.20000000E+02  2.40000000E+02  0.00000000E+00
  5.20000000E+02  2.20000000E+02  0.00000000E+00
  5.20000000E+02  2.00000000E+02  0.00000000E+00
  5.20000000E+02  1.80000000E+02  0.00000000E+00
  5.20000000E+02  1.60000000E+02  0.00000000E+00
  5.20000000E+02  1.40000000E+02  0.00000000E+00
  5.20000000E+02  1.20000000E+02  0.00000000E+00
  5.20000000E+02  1.00000000E+02  0.00000000E+00
  5.20000000E+02  8.00000000E+01  0.00000000E+00
  5.20000000E+02  6.00000000E+01  0.00000000E+00
  5.20000000E+02  4.00000000E+01  0.00000000E+00
  5.20000000E+02  2.00000000E+01  0.00000000E+00
  5.20000000E+02  4.99600361E-14  0.00000000E+00
  5.40000000E+02  3.00000000E+02  0.00000000E+00
  5.40000000E+02  2.80000000E+02  0.00000000E+00
  5.40000000E+02  2.60000000E+02  0.00000000E+00
  5.40000000E+02  2.40000000E+02  0.00000000E+00
  5.40000000E+02  2.20000000E+02  0.00000000E+00
  5.40000000E+02  2.00000000E+02  0.00000000E+00
  5.40000000E+02  1.80000000E+02  0.00000000E+00
  5.40000000E+02  1.60000000E+02  0.00000000E+00
  5.40000000E+02  1.40000000E+02  0.00000000E+00
  5.40000000E+02  1.20000000E+02  0.00000000E+00
  5.40000000E+02  1.00000000E+02  0.00000000E+00
  5.40000000E+02  8.00000000E+01  0.00000000E+00
  5.40000000E+02  6.00000000E+01  0.00000000E+00
  5.40000000E+02  4.00000000E+01  0.00000000E+00
  5.40000000E+02  2.00000000E+01  0.00000000E+00
  5.40000000E+02  4.99600361E-14  0.00000000E+00
  5.60000000E+02  3.00000000E+02  0.00000000E+00
  5.60000000E+02  2.80000000E+02  0.00000000E+00
  5.60000000E+02  2.60000000E+02  0.00000000E+00
  5.60000000E+02  2.40000000E+02  0.00000000E+00
  5.60000000E+02  2.20000000E+02  0.00000000E+00
  5.60000000E+02  2.00000000E+02  0.00000000E+00
  5.60000000E+02  1.80000000E+02  0.00000000E+00
  5.60000000E+02  1.60000000E+02  0.00000000E+00
  5.60000000E+02  1.40000000E+02  0.00000000E+00
  5.60000000E+02  1.20000000E+02  0.00000000E+00
  5.60000000E+02  1.00000000E+02  0.00000000E+00
  5.60000000E+02  8.00000000E+01  0.00000000E+00
  5.60000000E+02  6.00000000E+01  0.00000000E+00
  5.60000000E+02  4.00000000E+01  0.00000000E+00
  5.60000000E+02  2.00000000E+01  0.00000000E+00
  5.60000000E+02  4.99600361E-14  0.00000000E+00
  5.80000000E+02  3.00000000E+02  0.00000000E+00
  5.80000000E+02  2.80000000E+02  0.00000000E+00
  5.80000000E+02  2.60000000E+02  0.00000000E+00
  5.80000000E+02  2.40000000E+02  0.00000000E+00
  5.80000000E+02  2.20000000E+02  0.00000000E+00
  5.80000000E+02  2.00000000E+02  0.00000000E+00
  5.80000000E+02  1.80000000E+02  0.00000000E+00
  5.80000000E+02  1.60000000E+02  0.00000000E+00
  5.80000000E+02  1.40000000E+02  0.00000000E+00
  5.80000000E+02  1.20000000E+02  0.00000000E+00
  5.80000000E+02  1.00000000E+02  0.00000000E+00
  5.80000000E+02  8.00000000E+01  0.00000000E+00
  5.80000000E+02  6.00000000E+01  0.00000000E+00
  5.80000000E+02  4.00000000E+01  0.00000000E+00
  5.80000000E+02  2.00000000E+01  0.00000000E+00
  5.80000000E+02  4.99600361E-14  0.00000000E+00
  6.00000000E+02  3.00000000E+02  0.00000000E+00
  6.00000000E+02  2.80000000E+02  0.00000000E+00
  6.00000000E+02  2.60000000E+02  0.00000000E+00
  6.00000000E+02  2.40000000E+02  0.00000000E+00
  6.00000000E+02  2.20000000E+02  0.00000000E+00
  6.00000000E+02  2.00000000E+02  0.00000000E+00
  6.00000000E+02  1.80000000E+02  0.00000000E+00
  6.00000000E+02  1.60000000E+02  0.00000000E+00
  6.00000000E+02  1.40000000E+02  0.00000000E+00
  6.00000000E+02  1.20000000E+02  0.00000000E+00
  6.00000000E+02  1.00000000E+02  0.00000000E+00
  6.00000000E+02  8.00000000E+01  0.00000000E+00
  6.00000000E+02  6.00000000E+01  0.00000000E+00
  6.00000000E+02  4.00000000E+01  0.00000000E+00
  6.00000000E+02  2.00000000E+01  0.00000000E+00
  6.00000000E+02  4.99600361E-14  0.00000000E+00
CELLS       450      2250
         4           0           1          17          16
         4           1           2          18          17
         4           2           3          19          18
         4           3           4          20          19
         4           4           5          21          20
         4           5           6          22          21
         4           6           7          23          22
         4           7           8          24          23
         4           8           9          25          24
         4           9          10          26          25
         4          10          11          27          26
         4          11          12          28          27
         4          12          13          29          28
         4          13          14          30          29
         4          14          15          31          30
         4          16          17          33          32
         4          17          18          34          33
         4          18          19          35          34
         4          19          20          36          35
         4          20          21          37          36
         4          21          22          38          37
         4          22          23          39          38
         4          23          24          40          39
         4          24          25          41          40
         4          25          26          42          41
         4          26          27          43          42
         4          27          28          44          43
         4          28          29          45          44
         4          29          30          46          45
         4          30          31          47          46
         4          32          33          49          48
         4          33          34          50          49
         4          34          35          51          50
         4          35          36          52          51
         4          36          37          53          52
         4          37          38          54          53
         4          38          39          55          54
         4          39          40          56          55
         4          40          41          57          56
         4          41          42          58          57
         4          42          43          59          58
         4          43          44          60          59
         4          44          45          61          60
         4          45          46          62          61
         4          46          47          63          62
         4          48          49          65          64
         4          49          50          66          65
         4          50          51          67          66
         4          51          52          68          67
         4          52          53          69          68
         4          53          54          70          69
         4          54          55          71          70
         4          55          56          72          71
         4          56          57          73          72
         4          57          58          74          73
         4          58          59          75          74
         4          59          60          76          75
         4          60          61          77          76
         4          61          62          78          77
         4          62          63          79          78
         4          64          65          81          80
         4          65          66          82          81
         4          66          67          83          82
         4          67          68          84          83
         4          68          69          85          84
         4          69          70          86          85
         4          70          71          87          86
         4          71          72          88          87
         4          72          73          89          88
         4          73          74          90          89
         4          74          75          91          90
         4          75          76          92          91
         4          76          77          93          92
         4          77          78          94          93
         4          78          79          95          94
         4          80          81          97          96
         4          81          82          98          97
         4          82          83          99          98
         4          83          84         100          99
         4          84          85         101         100
         4          85          86         102         101
         4          86          87         103         102
         4          87          88         104         103
         4          88          89         105         104
         4          89          90         106         105
         4          90          91         107         106
         4          91          92         108         107
         4          92          93         109         108
         4          93          94         110         109
         4          94          95         111         110
         4          96          97         113         112
         4          97          98         114         113
         4          98          99         115         114
         4          99         100         116         115
         4         100         101         117         116
         4         101         102         118         117
         4         102         103         119         118
         4         103         104         120         119
         4         104         105         121         120
         4         105         106         122         121
         4         106         107         123         122
         4         107         108         124         123
         4         108         109         125         124
         4         109         110         126         125
         4         110         111         127         126
         4         112         113         129         128
         4         113         114         130         129
         4         114         115         131         130
         4         115         116         132         131
         4         116         117         133         132
         4         117         118         134         133
         4         118         119         135         134
         4         119         120         136         135
         4         120         121         137         136
         4         121         122         138         137
         4         122         123         139         138
         4         123         124         140         139
         4         124         125         141         140
         4         125         126         142         141
         4         126         127         143         142
         4         128         129         145         144
         4         129         130         146         145
         4         130         131         147         146
         4         131         132         148         147
         4         132         133         149         148
         4         133         134         150         149
         4         134         135         151         150
         4         135         136         152         151
         4         136         137         153         152
         4         137         138         154         153
         4         138         139         155         154
         4         139         140         156         155
         4         140         141         157         156
         4         141         142         158         157
         4         142         143         159         158
         4         144         145         161         160
         4         145         146         162         161
         4         146         147         163         162
         4         147         148         164         163
         4         148         149         165         164
         4         149         150         166         165
         4         150         151         167         166
         4         151         152         168         167
         4         152         153         169         168
         4         153         154         170         169
         4         154         155         171         170
         4         155         156         172         171
         4         156         157         173         172
         4         157         158         174         173
         4         158         159         175         174
         4         160         161         177         176
         4         161         162         178         177
         4         162         163         179         178
         4         163         164         180         179
         4         164         165         181         180
         4         165         166         182         181
         4         166         167         183         182
         4         167         168         184         183
         4         168         169         185         184
         4         169         170         186         185
         4         170         171         187         186
         4         171         172         188         187
         4         172         173         189         188
         4         173         174         190         189
         4         174         175         191         190
         4         176         177         193         192
         4         177         178         194         193
         4         178         179         195         194
         4         179         180         196         195
         4         180         181         197         196
         4         181         182         198         197
         4         182         183         199         198
         4         183         184         200         199
         4         184         185         201         200
         4         185         186         202         201
         4         186         187         203         202
         4         187         188         204         203
         4         188         189         205         204
         4         189         190         206         205
         4         190         191         207         206
         4         192         193         209         208
         4         193         194         210         209
         4         194         195         211         210
         4         195         196         212         211
         4         196         197         213         212
         4         197         198         214         213
         4         198         199         215         214
         4         199         200         216         215
         4         200         201         217         216
         4         201         202         218         217
         4         202         203         219         218
         4         203         204         220         219
         4         204         205         221         220
         4         205         206         222         221
         4         206         207         223         222
         4         208         209         225         224
         4         209         210         226         225
         4         210         211         227         226
         4         211         212         228         227
         4         212         213         229         228
         4         213         214         230         229
         4         214         215         231         230
         4         215         216         232         231
         4         216         217         233         232
         4         217         218         234         233
         4         218         219         235         234
         4         219         220         236         235
         4         220         221         237         236
         4         221         222         238         237
         4         222         223         239         238
         4         224         225         241         240
         4         225         226         242         241
         4         226         227         243         242
         4         227         228         244         243
         4         228         229         245         244
         4         229         230         246         245
         4         230         231         247         246
         4         231         232         248         247
         4         232         233         249         248
         4         233         234         250         249
         4         234         235         251         250
         4         235         236         252         251
         4         236         237         253         252
         4         237         238         254         253
         4         238         239         255         254
         4         240         241         257         256
         4         241         242         258         257
         4         242         243         259         258
         4         243         244         260         259
         4         244         245         261         260
         4         245         246         262         261
         4         246         247         263         262
         4         247         248         264         263
         4         248         249         265         264
         4         249         250         266         265
         4         250         251         267         266
         4         251         252         268         267
         4         252         253         269         268
         4         253         254         270         269
         4         254         255         271         270
         4         256         257         273         272
         4         257         258         274         273
         4         258         259         275         274
         4         259         260         276         275
         4         260         261         277         276
         4         261         262         278         277
         4         262         263         279         278
         4         263         264         280         279
         4         264         265         281         280
         4         265         266         282         281
         4         266         267         283         282
         4         267         268         284         283
         4         268         269         285         284
         4         269         270         286         285
         4         270         271         287         286
         4         272         273         289         288
         4         273         274         290         289
         4         274         275         291         290
         4         275         276         292         291
         4         276         277         293         292
         4         277         278         294         293
         4         278         279         295         294
         4         279         280         296         295
         4         280         281         297         296
         4         281         282         298         297
         4         282         283         299         298
         4         283         284         300         299
         4         284         285         301         300
         4         285         286         302         301
         4         286         287         303         302
         4         288         289         305         304
         4         289         290         306         305
         4         290         291         307         306
         4         291         292         308         307
         4         292         293         309         308
         4         293         294         310         309
         4         294         295         311         310
         4         295         296         312         311
         4         296         297         313         312
         4         297         298         314         313
         4         298         299         315         314
         4         299         300         316         315
         4         300         301         317         316
         4         301         302         318         317
         4         302         303         319         318
         4         304         305         321         320
         4         305         306         322         321
         4         306         307         323         322
         4         307         308         324         323
         4         308         309         325         324
         4         309         310         326         325
         4         310         311         327         326
         4         311         312         328         327
         4         312         313         329         328
         4         313         314         330         329
         4         314         315         331         330
         4         315         316         332         331
         4         316         317         333         332
         4         317         318         334         333
         4         318         319         335         334
         4         320         321         337         336
         4         321         322         338         337
         4         322         323         339         338
         4         323         324         340         339
         4         324         325         341         340
         4         325         326         342         341
         4         326         327         343         342
         4         327         328         344         343
         4         328         329         345         344
         4         329         330         346         345
         4         330         331         347         346
         4         331         332         348         347
         4         332         333         349         348
         4         333         334         350         349
         4         334         335         351         350
         4         336         337         353         352
         4         337         338         354         353
         4         338         339         355         354
         4         339         340         356         355
         4         340         341         357         356
         4         341         342         358         357
         4         342         343         359         358
         4         343         344         360         359
         4         344         345         361         360
         4         345         346         362         361
         4         346         347         363         362
         4         347         348         364         363
         4         348         349         365         364
         4         349         350         366         365
         4         350         351         367         366
         4         352         353         369         368
         4         353         354         370         369
         4         354         355         371         370
         4         355         356         372         371
         4         356         357         373         372
         4         357         358         374         373
         4         358         359         375         374
         4         359         360         376         375
         4         360         361         377         376
         4         361         362         378         377
         4         362         363         379         378
         4         363         364         380         379
         4         364         365         381         380
         4         365         366         382         381
         4         366         367         383         382
         4         368         369         385         384
         4         369         370         386         385
         4         370         371         387         386
         4         371         372         388         387
         4         372         373         389         388
         4         373         374         390         389
         4         374         375         391         390
         4         375         376         392         391
         4         376         377         393         392
         4         377         378         394         393
         4         378         379         395         394
         4         379         380         396         395
         4         380         381         397         396
         4         381         382         398         397
         4         382         383         399         398
         4         384         385         401         400
         4         385         386         402         401
         4         386         387         403         402
         4         387         388         404         403
         4         388         389         405         404
         4         389         390         406         405
         4         390         391         407         406
         4         391         392         408         407
         4         392         393         409         408
         4         393         394         410         409
         4         394         395         411         410
         4         395         396         412         411
         4         396         397         413         412
         4         397         398         414         413
         4         398         399         415         414
         4         400         401         417         416
         4         401         402         418         417
         4         402         403         419         418
         4         403         404         420         419
         4         404         405         421         420
         4         405         406         422         421
         4         406         407         423         422
         4         407         408         424         423
         4         408         409         425         424
         4         409         410         426         425
         4         410         411         427         426
         4         411         412         428         427
         4         412         413         429         428
         4         413         414         430         429
         4         414         415         431         430
         4         416         417         433         432
         4         417         418         434         433
         4         418         419         435         434
         4         419         420         436         435
         4         420         421         437         436
         4         421         422         438         437
         4         422         423         439         438
         4         423         424         440         439
         4         424         425         441         440
         4         425         426         442         441
         4         426         427         443         442
         4         427         428         444         443
         4         428         429         445         444
         4         429         430         446         445
         4         430         431         447         446
         4         432         433         449         448
         4         433         434         450         449
         4         434         435         451         450
         4         435         436         452         451
         4         436         437         453         452
         4         437         438         454         453
         4         438         439         455         454
         4         439         440         456         455
         4         440         441         457         456
         4         441         442         458         457
         4         442         443         459         458
         4         443         444         460         459
         4         444         445         461         460
         4         445         446         462         461
         4         446         447         463         462
         4         448         449         465         464
         4         449         450         466         465
         4         450         451         467         466
         4         451         452         468         467
         4         452         453         469         468
         4         453         454         470         469
         4         454         455         471         470
         4         455         456         472         471
         4         456         457         473         472
         4         457         458         474         473
         4         458         459         475         474
         4         459         460         476         475
         4         460         461         477         476
         4         461         462         478         477
         4         462         463         479         478
         4         464         465         481         480
         4         465         466         482         481
         4         466         467         483         482
         4         467         468         484         483
         4         468         469         485         484
         4         469         470         486         485
         4         470         471         487         486
         4         471         472         488         487
         4         472         473         489         488
         4         473         474         490         489
         4         474         475         491         490
         4         475         476         492         491
         4         476         477         493         492
         4         477         478         494         493
         4         478         479         495         494
CELL_TYPES        450
9
9
9
9
9
9
9
9
9
9
9
9
9
9
9
9
9
9
9
9
9
9
9
9
9
9
9
9
9
9
9
9
9
9
9
9
9
9
9
9
9
9
9
9
9
9
9
9
9
9
9
9
9
9
9
9
9
9
9
9
9
9
9
9
9
9
9
9
9
9
9
9
9
9
9
9
9
9
9
9
9
9
9
9
9
9
9
9
9
9
9
9
9
9
9
9
9
9
9
9
9
9
9
9
9
9
9
9
9
9
9
9
9
9
9
9
9
9
9
9
9
9
9
9
9
9
9
9
9
9
9
9
9
9
9
9
9
9
9
9
9
9
9
9
9
9
9
9
9
9
9
9
9
9
9
9
9
9
9
9
9
9
9
9
9
9
9
9
9
9
9
9
9
9
9
9
9
9
9
9
9
9
9
9
9
9
9
9
9
9
9
9
9
9
9
9
9
9
9
9
9
9
9
9
9
9
9
9
9
9
9
9
9
9
9
9
9
9
9
9
9
9
9
9
9
9
9
9
9
9
9
9
9
9
9
9
9
9
9
9
9
9
9
9
9
9
9
9
9
9
9
9
9
9
9
9
9
9
9
9
9
9
9
9
9
9
9
9
9
9
9
9
9
9
9
9
9
9
9
9
9
9
9
9
9
9
9
9
9
9
9
9
9
9
9
9
9
9
9
9
9
9
9
9
9
9
9
9
9
9
9
9
9
9
9
9
9
9
9
9
9
9
9
9
9
9
9
9
9
9
9
9
9
9
9
9
9
9
9
9
9
9
9
9
9
9
9
9
9
9
9
9
9
9
9
9
9
9
9
9
9
9
9
9
9
9
9
9
9
9
9
9
9
9
9
9
9
9
9
9
9
9
9
9
9
9
9
9
9
9
9
9
9
9
9
9
9
9
9
9
9
9
9
9
9
9
9
9
9
9
9
9
9
9
9
9
9
9
9
9
9
9
9
9
9
9
9
9
9
9
9
9
9
9
9
9
9
9
9
9
9
9
9
9
9
9
9
9
9
9
POINT_DATA       496
SCALARS p double 
LOOKUP_TABLE default
   30431402.7019634     
   30429186.4929490     
   30423138.6179692     
   30413750.0378763     
   30401420.8403837     
   30386445.4920675     
   30368998.0708196     
   30349125.7752647     
   30326760.0763143     
   30301753.0423303     
   30273934.6861073     
   30243634.1730049     
   30215209.9455556     
   30193540.5599179     
   30179852.4727828     
   30175021.2278265     
   30402844.2925891     
   30400626.8516032     
   30394564.9640162     
   30385143.3539186     
   30372760.3765967     
   30357715.8801676     
   30340199.6819865     
   30320285.6772833     
   30297937.7615834     
   30273034.3004673     
   30245411.0873302     
   30215316.3338450     
   30187001.0405949     
   30165355.3628530     
   30151675.8857905     
   30146846.4369154     
   30317238.6849647     
   30315016.8063169     
   30308914.3779040     
   30299400.2995544     
   30286869.2057438     
   30271635.4790377     
   30253929.6657132     
   30233895.8022023     
   30211586.7060016     
   30186961.5904646     
   30159895.0435702     
   30130422.2095931     
   30102458.4872116     
   30080882.1907105     
   30067235.2259724     
   30062412.9634770     
   30174796.6358413     
   30172565.6169875     
   30166400.9127941     
   30156752.9618731     
   30144014.2045852     
   30128519.4720682     
   30110550.7036310     
   30090340.3587564     
   30068063.7442609     
   30043811.4720826     
   30017561.6175623     
   29989160.5123847     
   29961831.3496480     
   29940377.4092036     
   29926806.6203291     
   29922000.6441313     
   29975875.3157944     
   29973629.8455965     
   29967389.7636044     
   29957591.6719483     
   29944630.8723466     
   29928866.1494567     
   29910629.4491235     
   29890234.7463832     
   29867977.1526051     
   29844109.1508826     
   29818767.9865574     
   29791840.5225463     
   29765551.1651825     
   29744316.0936597     
   29730865.7830219     
   29726079.0698023     
   29720985.9017046     
   29718722.3133505     
   29712406.2780710     
   29702469.5920349     
   29689317.2884249     
   29673334.5526963     
   29654897.4001710     
   29634382.9356521     
   29612174.9004320     
   29588656.7513905     
   29564174.5767186     
   29538886.7064678     
   29514065.3118351     
   29493372.6366212     
   29480072.2344330     
   29475307.2937050     
   29410801.9024583     
   29408520.7584824     
   29402143.7079705     
   29392107.4421790     
   29378833.1854776     
   29362734.3061159     
   29344225.5215917     
   29323730.7065609     
   29301689.6671113     
   29278566.4431096     
   29254858.5313325     
   29231084.0553067     
   29207974.7004201     
   29188344.6659590     
   29175297.3132498     
   29170573.8616525     
   29046166.6082489     
   29043874.5890407     
   29037468.3860159     
   29027397.1409756     
   29014102.7004279     
   28998027.4913070     
   28979621.0119321     
   28959344.4583891     
   28937677.1594535     
   28915130.4327958     
   28892274.3280093     
   28869775.4908548     
   28848395.7756622     
   28830113.1016786     
   28817663.8058688     
   28812974.9474113     
   28628098.3808968     
   28625809.0858769     
   28619422.3199210     
   28609403.7330971     
   28596217.8661706     
   28580335.4815457     
   28562237.3554293     
   28542417.0201303     
   28521386.5821437     
   28499688.8641258     
   28477916.7308916     
   28456748.2730444     
   28437039.8617357     
   28420199.3640734     
   28408621.7294487     
   28404299.4090148     
   28157793.0198251     
   28155526.7346762     
   28149223.3576834     
   28139365.7407539     
   28126440.4686950     
   28110943.7351101     
   28093382.8267909     
   28074277.8884142     
   28054166.7274353     
   28033614.1251870     
   28013229.0321797     
   27993695.4504759     
   27975840.6710595     
   27960786.1945266     
   27950432.1396809     
   27947036.2536867     
   27636623.0372755     
   27634405.9086983     
   27628263.5185233     
   27618693.4688504     
   27606200.7556737     
   27591301.0925170     
   27574520.5619194     
   27556396.6316130     
   27537482.3597844     
   27518355.5505033     
   27499634.6895344     
   27482006.9672579     
   27466270.2212825     
   27453414.3966286     
   27444745.2550125     
   27442015.8277662     
   27066134.3148076     
   27063997.4599328     
   27058105.2832419     
   27048964.7652942     
   27037092.3119560     
   27023013.6752626     
   27007262.2907377     
   26990379.8473480     
   26972920.5160872     
   26955459.5152780     
   26938606.6805868     
   26923023.4253364     
   26909441.0197617     
   26898673.4969523     
   26891650.4049041     
   26889350.8654544     
   26448039.6574853     
   26446018.5480689     
   26440475.0986567     
   26431917.7388748     
   26420863.6361876     
   26407835.4765154     
   26393358.9503809     
   26377963.2306611     
   26362184.7836525     
   26346573.8972269     
   26331701.7387498     
   26318164.3910719     
   26306579.6757090     
   26297581.2518806     
   26291809.9044582     
   26289883.1669458     
   25784210.0116480     
   25782343.5435770     
   25777254.2205175     
   25769441.0792482     
   25759407.8615241     
   25747657.6479413     
   25734690.0561247     
   25721001.6736997     
   25707088.8740848     
   25693451.0652469     
   25680591.6781855     
   25669014.6742156     
   25659218.2682134     
   25651690.0030626     
   25646902.9936845     
   25645282.1607374     
   25076664.4471834     
   25074993.9758697     
   25070468.6226301     
   25063563.7731993     
   25054752.2575432     
   25044498.1159233     
   25033254.0767904     
   25021462.1875127     
   25009555.8748729     
   24997961.4035197     
   24987097.2566538     
   24977372.0203736     
   24969183.3246126     
   24962918.5157118     
   24958947.2359400     
   24957586.7244744     
   24327561.1721799     
   24326129.5617804     
   24322279.7816970     
   24316445.7746764     
   24309049.1543135     
   24300493.3662726     
   24291162.3146758     
   24281422.0922797     
   24271624.0999422     
   24262108.0412269     
   24253204.3588494     
   24245236.9628731     
   24238526.4956279     
   24233390.1351716     
   24230129.4211269     
   24228998.0726945     
   23539190.3682129     
   23538040.9051997     
   23534977.3443676     
   23530371.0108044     
   23524569.7706727     
   23517893.8556739     
   23510636.9128003     
   23503070.7798422     
   23495452.2715581     
   23488030.3812935     
   23481053.0778799     
   23474773.2514183     
   23469451.8948651     
   23465354.4252909     
   23462735.7780348     
   23461812.2313599     
   22713969.2705729     
   22713144.6798132     
   22710974.7464216     
   22707743.8615352     
   22703701.8334119     
   22699062.8248065     
   22694010.8177934     
   22688709.9676209     
   22683316.9543728     
   22677992.5085755     
   22672910.6432677     
   22668264.5313599     
   22664267.1784232     
   22661144.5511290     
   22659119.7631133     
   22658388.5809605     
   21854440.1258004     
   21853982.0639262     
   21852808.6350532     
   21851089.6285257     
   21848950.5053789     
   21846476.5622782     
   21843726.0358428     
   21840748.2171324     
   21837600.5915198     
   21834361.9331885     
   21831140.8086779     
   21828079.2347519     
   21825350.5333949     
   21823150.4370952     
   21821681.2816261     
   21821130.1827414     
   20963271.2219337     
   20963220.6357822     
   20963142.3484428     
   20963058.8081985     
   20962941.0932690     
   20962723.1356415     
   20962327.3917183     
   20961689.1273797     
   20960773.4446444     
   20959585.5622229     
   20958176.2884980     
   20956643.1100157     
   20955126.1240807     
   20953798.2032027     
   20952849.5329673     
   20952467.3724180     
   20043260.0803030     
   20043659.2896052     
   20044773.3834536     
   20046434.3373183     
   20048420.5307553     
   20050496.8823700     
   20052451.3530146     
   20054115.6263394     
   20055373.9204430     
   20056167.1429129     
   20056495.2239246     
   20056416.6338219     
   20056043.5696224     
   20055532.0260875     
   20055066.7893292     
   20054842.0359938     
   19097338.3540192     
   19098234.6333269     
   19100647.1116616     
   19104138.4806564     
   19108253.3694232     
   19112587.3177972     
   19116811.7883026     
   19120673.5930788     
   19123989.9231871     
   19126646.9825418     
   19128600.5107966     
   19129874.9913726     
   19130559.1805260     
   19130796.8127181     
   19130772.3307199     
   19130692.0012152     
   18128568.7820344     
   18130038.6307479     
   18133873.8663901     
   18139231.7090661     
   18145408.2777580     
   18151863.8241043     
   18158185.6086788     
   18164056.6246113     
   18169241.7243836     
   18173583.2783926     
   18177000.5604415     
   18179489.1692737     
   18181117.9034281     
   18182021.2127078     
   18182386.3509010     
   18182435.2373974     
   17140169.5408949     
   17142350.0054675     
   17147740.7273061     
   17154891.0750906     
   17162934.9262539     
   17171260.4091675     
   17179399.5397363     
   17186991.2766536     
   17193765.1495681     
   17199533.9557666     
   17204190.6276004     
   17207707.5101493     
   17210135.6392990     
   17211600.8185699     
   17212293.9020200     
   17212454.1335268     
   16135653.5262812     
   16138650.7893651     
   16145651.6542624     
   16154355.5346473     
   16163942.3315725     
   16173762.1185403     
   16183315.2586992     
   16192219.9840950     
   16200193.5265723     
   16207038.3867732     
   16212634.5646478     
   16216937.7427732     
   16219981.8890775     
   16221881.6854417     
   16222828.9561891     
   16223079.7419518     
   15118697.2468465     
   15122501.3218137     
   15130949.4442450     
   15140895.7826192     
   15151586.8617529     
   15162388.2471780     
   15172807.2510383     
   15182478.4625117     
   15191137.1511611     
   15198599.0780473     
   15204747.6533638     
   15209530.1391505     
   15212963.2010396     
   15215144.3116255     
   15216259.3851145     
   15216577.4634335     
   14093013.1199471     
   14097540.0450095     
   14107113.0297028     
   14117863.8410210     
   14129070.4591776     
   14140163.8000331     
   14150729.0090424     
   14160465.2478069     
   14169159.2825182     
   14176663.6600224     
   14182882.0226508     
   14187763.3085280     
   14191308.2661458     
   14193588.5963444     
   14194771.8234872     
   14195131.5261610     
   13063101.3201605     
   13067961.5626159     
   13077976.3400595     
   13088787.0300839     
   13099621.5046599     
   13110073.4822821     
   13119865.4671458     
   13128802.6748003     
   13136748.1716970     
   13143607.2842362     
   13149316.2120819     
   13153836.1443138     
   13157157.1240648     
   13159320.9453617     
   13160458.8202189     
   13160834.0355053     
   12033673.6093715     
   12038379.9896727     
   12047727.3718138     
   12057272.4901109     
   12066415.5461724     
   12074985.5350466     
   12082871.0591295     
   12089990.4843856     
   12096285.5055156     
   12101714.9326136     
   12106249.7003184     
   12109869.5112113     
   12112563.7166033     
   12114345.1669323     
   12115308.2086363     
   12115673.7833077     
   11010123.7423844     
   11013879.7118173     
   11020571.9975375     
   11026752.6390100     
   11032389.0889445     
   11037537.3825116     
   11042194.6686617     
   11046355.1241853     
   11050012.9831439     
   11053163.0084535     
   11055800.3975788     
   11057920.4007561     
   11059518.5659976     
   11060595.0182414     
   11061179.8727910     
   11061551.2817860     
   10000000.0000000     
   10000000.0000000     
   10000000.0000000     
   10000000.0000000     
   10000000.0000000     
   10000000.0000000     
   10000000.0000000     
   10000000.0000000     
   10000000.0000000     
   10000000.0000000     
   10000000.0000000     
   10000000.0000000     
   10000000.0000000     
  10000000.00000000     
   10000000.0000000     
   10000000.0000000     
VECTORS u double 
    0.00000E+00        -0.36889E-01         0.00000E+00
    0.00000E+00        -0.34107E-01         0.00000E+00
    0.00000E+00        -0.31370E-01         0.00000E+00
    0.00000E+00        -0.28681E-01         0.00000E+00
    0.00000E+00        -0.26043E-01         0.00000E+00
    0.00000E+00        -0.23457E-01         0.00000E+00
    0.00000E+00        -0.20925E-01         0.00000E+00
    0.00000E+00        -0.18445E-01         0.00000E+00
    0.00000E+00        -0.16016E-01         0.00000E+00
    0.00000E+00        -0.13634E-01         0.00000E+00
    0.00000E+00        -0.11295E-01         0.00000E+00
    0.00000E+00        -0.89929E-02         0.00000E+00
    0.00000E+00        -0.67213E-02         0.00000E+00
    0.00000E+00        -0.44649E-02         0.00000E+00
    0.00000E+00        -0.22236E-02         0.00000E+00
    0.00000E+00         0.00000E+00         0.00000E+00
    0.87660E-03        -0.36925E-01         0.00000E+00
    0.80380E-03        -0.34142E-01         0.00000E+00
    0.72864E-03        -0.31404E-01         0.00000E+00
    0.65199E-03        -0.28714E-01         0.00000E+00
    0.57497E-03        -0.26074E-01         0.00000E+00
    0.49892E-03        -0.23487E-01         0.00000E+00
    0.42529E-03        -0.20952E-01         0.00000E+00
    0.35546E-03        -0.18470E-01         0.00000E+00
    0.29076E-03        -0.16038E-01         0.00000E+00
    0.23234E-03        -0.13653E-01         0.00000E+00
    0.18105E-03        -0.11310E-01         0.00000E+00
    0.13738E-03        -0.90047E-02         0.00000E+00
    0.10036E-03        -0.67302E-02         0.00000E+00
    0.66143E-04        -0.44710E-02         0.00000E+00
    0.33051E-04        -0.22267E-02         0.00000E+00
    0.00000E+00         0.00000E+00         0.00000E+00
    0.17466E-02        -0.37032E-01         0.00000E+00
    0.16015E-02        -0.34247E-01         0.00000E+00
    0.14517E-02        -0.31506E-01         0.00000E+00
    0.12990E-02        -0.28812E-01         0.00000E+00
    0.11456E-02        -0.26168E-01         0.00000E+00
    0.99422E-03        -0.23576E-01         0.00000E+00
    0.84782E-03        -0.21035E-01         0.00000E+00
    0.70900E-03        -0.18545E-01         0.00000E+00
    0.58023E-03        -0.16104E-01         0.00000E+00
    0.46364E-03        -0.13709E-01         0.00000E+00
    0.36088E-03        -0.11356E-01         0.00000E+00
    0.27298E-03        -0.90403E-02         0.00000E+00
    0.19886E-03        -0.67569E-02         0.00000E+00
    0.13120E-03        -0.44892E-02         0.00000E+00
    0.65554E-04        -0.22361E-02         0.00000E+00
    0.00000E+00         0.00000E+00         0.00000E+00
    0.26035E-02        -0.37210E-01         0.00000E+00
    0.23870E-02        -0.34420E-01         0.00000E+00
    0.21636E-02        -0.31674E-01         0.00000E+00
    0.19357E-02        -0.28975E-01         0.00000E+00
    0.17072E-02        -0.26324E-01         0.00000E+00
    0.14822E-02        -0.23723E-01         0.00000E+00
    0.12647E-02        -0.21173E-01         0.00000E+00
    0.10585E-02        -0.18670E-01         0.00000E+00
    0.86707E-03        -0.16215E-01         0.00000E+00
    0.69299E-03        -0.13804E-01         0.00000E+00
    0.53859E-03        -0.11433E-01         0.00000E+00
    0.40555E-03        -0.91002E-02         0.00000E+00
    0.29393E-03        -0.68007E-02         0.00000E+00
    0.19403E-03        -0.45192E-02         0.00000E+00
    0.96866E-04        -0.22515E-02         0.00000E+00
    0.00000E+00         0.00000E+00         0.00000E+00
    0.34403E-02        -0.37456E-01         0.00000E+00
    0.31539E-02        -0.34661E-01         0.00000E+00
    0.28582E-02        -0.31909E-01         0.00000E+00
    0.25569E-02        -0.29202E-01         0.00000E+00
    0.22552E-02        -0.26542E-01         0.00000E+00
    0.19588E-02        -0.23930E-01         0.00000E+00
    0.16727E-02        -0.21365E-01         0.00000E+00
    0.14018E-02        -0.18846E-01         0.00000E+00
    0.11497E-02        -0.16371E-01         0.00000E+00
    0.91957E-03        -0.13937E-01         0.00000E+00
    0.71386E-03        -0.11543E-01         0.00000E+00
    0.53489E-03        -0.91851E-02         0.00000E+00
    0.38480E-03        -0.68616E-02         0.00000E+00
    0.25318E-03        -0.45608E-02         0.00000E+00
    0.12630E-03        -0.22730E-02         0.00000E+00
    0.00000E+00         0.00000E+00         0.00000E+00
    0.42501E-02        -0.37771E-01         0.00000E+00
    0.38953E-02        -0.34970E-01         0.00000E+00
    0.35291E-02        -0.32209E-01         0.00000E+00
    0.31568E-02        -0.29493E-01         0.00000E+00
    0.27848E-02        -0.26821E-01         0.00000E+00
    0.24201E-02        -0.24195E-01         0.00000E+00
    0.20688E-02        -0.21612E-01         0.00000E+00
    0.17362E-02        -0.19072E-01         0.00000E+00
    0.14264E-02        -0.16572E-01         0.00000E+00
    0.11424E-02        -0.14111E-01         0.00000E+00
    0.88679E-03        -0.11686E-01         0.00000E+00
    0.66185E-03        -0.92962E-02         0.00000E+00
    0.47026E-03        -0.69404E-02         0.00000E+00
    0.30698E-03        -0.46138E-02         0.00000E+00
    0.15316E-03        -0.23003E-02         0.00000E+00
    0.00000E+00         0.00000E+00         0.00000E+00
    0.50254E-02        -0.38152E-01         0.00000E+00
    0.46041E-02        -0.35343E-01         0.00000E+00
    0.41699E-02        -0.32574E-01         0.00000E+00
    0.37295E-02        -0.29846E-01         0.00000E+00
    0.32910E-02        -0.27161E-01         0.00000E+00
    0.28622E-02        -0.24517E-01         0.00000E+00
    0.24498E-02        -0.21913E-01         0.00000E+00
    0.20593E-02        -0.19347E-01         0.00000E+00
    0.16951E-02        -0.16818E-01         0.00000E+00
    0.13602E-02        -0.14324E-01         0.00000E+00
    0.10569E-02        -0.11864E-01         0.00000E+00
    0.78719E-03        -0.94361E-02         0.00000E+00
    0.55263E-03        -0.70405E-02         0.00000E+00
    0.35434E-03        -0.46768E-02         0.00000E+00
    0.17632E-03        -0.23329E-02         0.00000E+00
    0.00000E+00         0.00000E+00         0.00000E+00
    0.57584E-02        -0.38597E-01         0.00000E+00
    0.52728E-02        -0.35780E-01         0.00000E+00
    0.47736E-02        -0.33001E-01         0.00000E+00
    0.42694E-02        -0.30261E-01         0.00000E+00
    0.37691E-02        -0.27559E-01         0.00000E+00
    0.32812E-02        -0.24894E-01         0.00000E+00
    0.28125E-02        -0.22265E-01         0.00000E+00
    0.23687E-02        -0.19669E-01         0.00000E+00
    0.19539E-02        -0.17107E-01         0.00000E+00
    0.15712E-02        -0.14576E-01         0.00000E+00
    0.12230E-02        -0.12076E-01         0.00000E+00
    0.91070E-03        -0.96053E-02         0.00000E+00
    0.63543E-03        -0.71646E-02         0.00000E+00
    0.39807E-03        -0.47537E-02         0.00000E+00
    0.19350E-03        -0.23704E-02         0.00000E+00
    0.00000E+00         0.00000E+00         0.00000E+00
    0.64415E-02        -0.39105E-01         0.00000E+00
    0.58941E-02        -0.36280E-01         0.00000E+00
    0.53340E-02        -0.33490E-01         0.00000E+00
    0.47710E-02        -0.30736E-01         0.00000E+00
    0.42148E-02        -0.28015E-01         0.00000E+00
    0.36736E-02        -0.25326E-01         0.00000E+00
    0.31541E-02        -0.22667E-01         0.00000E+00
    0.26618E-02        -0.20038E-01         0.00000E+00
    0.22007E-02        -0.17438E-01         0.00000E+00
    0.17739E-02        -0.14865E-01         0.00000E+00
    0.13837E-02        -0.12320E-01         0.00000E+00
    0.10315E-02        -0.98025E-02         0.00000E+00
    0.71826E-03        -0.73125E-02         0.00000E+00
    0.44408E-03        -0.48504E-02         0.00000E+00
    0.20749E-03        -0.24152E-02         0.00000E+00
    0.00000E+00         0.00000E+00         0.00000E+00
    0.70670E-02        -0.39673E-01         0.00000E+00
    0.64611E-02        -0.36839E-01         0.00000E+00
    0.58450E-02        -0.34037E-01         0.00000E+00
    0.52296E-02        -0.31266E-01         0.00000E+00
    0.46241E-02        -0.28524E-01         0.00000E+00
    0.40360E-02        -0.25808E-01         0.00000E+00
    0.34718E-02        -0.23117E-01         0.00000E+00
    0.29363E-02        -0.20451E-01         0.00000E+00
    0.24337E-02        -0.17808E-01         0.00000E+00
    0.19669E-02        -0.15190E-01         0.00000E+00
    0.15381E-02        -0.12595E-01         0.00000E+00
    0.11488E-02        -0.10026E-01         0.00000E+00
    0.80007E-03        -0.74817E-02         0.00000E+00
    0.49253E-03        -0.49635E-02         0.00000E+00
    0.22630E-03        -0.24706E-02         0.00000E+00
    0.00000E+00         0.00000E+00         0.00000E+00
    0.76278E-02        -0.40299E-01         0.00000E+00
    0.69676E-02        -0.37454E-01         0.00000E+00
    0.63018E-02        -0.34639E-01         0.00000E+00
    0.56409E-02        -0.31850E-01         0.00000E+00
    0.49931E-02        -0.29084E-01         0.00000E+00
    0.43651E-02        -0.26338E-01         0.00000E+00
    0.37626E-02        -0.23612E-01         0.00000E+00
    0.31901E-02        -0.20905E-01         0.00000E+00
    0.26513E-02        -0.18216E-01         0.00000E+00
    0.21491E-02        -0.15547E-01         0.00000E+00
    0.16855E-02        -0.12899E-01         0.00000E+00
    0.12623E-02        -0.10273E-01         0.00000E+00
    0.88097E-03        -0.76689E-02         0.00000E+00
    0.54272E-03        -0.50890E-02         0.00000E+00
    0.24887E-03        -0.25329E-02         0.00000E+00
    0.00000E+00         0.00000E+00         0.00000E+00
    0.81182E-02        -0.40979E-01         0.00000E+00
    0.74090E-02        -0.38123E-01         0.00000E+00
    0.67003E-02        -0.35292E-01         0.00000E+00
    0.60010E-02        -0.32482E-01         0.00000E+00
    0.53182E-02        -0.29690E-01         0.00000E+00
    0.46576E-02        -0.26912E-01         0.00000E+00
    0.40238E-02        -0.24147E-01         0.00000E+00
    0.34209E-02        -0.21396E-01         0.00000E+00
    0.28519E-02        -0.18659E-01         0.00000E+00
    0.23195E-02        -0.15936E-01         0.00000E+00
    0.18257E-02        -0.13229E-01         0.00000E+00
    0.13724E-02        -0.10540E-01         0.00000E+00
    0.96143E-03        -0.78719E-02         0.00000E+00
    0.59458E-03        -0.52248E-02         0.00000E+00
    0.27366E-03        -0.26005E-02         0.00000E+00
    0.00000E+00         0.00000E+00         0.00000E+00
    0.85339E-02        -0.41709E-01         0.00000E+00
    0.77815E-02        -0.38839E-01         0.00000E+00
    0.70366E-02        -0.35991E-01         0.00000E+00
    0.63062E-02        -0.33159E-01         0.00000E+00
    0.55960E-02        -0.30337E-01         0.00000E+00
    0.49103E-02        -0.27525E-01         0.00000E+00
    0.42528E-02        -0.24720E-01         0.00000E+00
    0.36265E-02        -0.21922E-01         0.00000E+00
    0.30340E-02        -0.19132E-01         0.00000E+00
    0.24774E-02        -0.16351E-01         0.00000E+00
    0.19585E-02        -0.13582E-01         0.00000E+00
    0.14793E-02        -0.10827E-01         0.00000E+00
    0.10417E-02        -0.80889E-02         0.00000E+00
    0.64790E-03        -0.53701E-02         0.00000E+00
    0.30004E-03        -0.26730E-02         0.00000E+00
    0.00000E+00         0.00000E+00         0.00000E+00
    0.88715E-02        -0.42484E-01         0.00000E+00
    0.80819E-02        -0.39599E-01         0.00000E+00
    0.73073E-02        -0.36731E-01         0.00000E+00
    0.65531E-02        -0.33874E-01         0.00000E+00
    0.58231E-02        -0.31022E-01         0.00000E+00
    0.51202E-02        -0.28173E-01         0.00000E+00
    0.44468E-02        -0.25325E-01         0.00000E+00
    0.38050E-02        -0.22477E-01         0.00000E+00
    0.31962E-02        -0.19632E-01         0.00000E+00
    0.26218E-02        -0.16790E-01         0.00000E+00
    0.20835E-02        -0.13955E-01         0.00000E+00
    0.15828E-02        -0.11130E-01         0.00000E+00
    0.11217E-02        -0.83184E-02         0.00000E+00
    0.70256E-03        -0.55237E-02         0.00000E+00
    0.32783E-03        -0.27498E-02         0.00000E+00
    0.00000E+00         0.00000E+00         0.00000E+00
    0.91279E-02        -0.43298E-01         0.00000E+00
    0.83069E-02        -0.40396E-01         0.00000E+00
    0.75094E-02        -0.37506E-01         0.00000E+00
    0.67385E-02        -0.34622E-01         0.00000E+00
    0.59964E-02        -0.31738E-01         0.00000E+00
    0.52844E-02        -0.28850E-01         0.00000E+00
    0.46034E-02        -0.25956E-01         0.00000E+00
    0.39541E-02        -0.23058E-01         0.00000E+00
    0.33367E-02        -0.20155E-01         0.00000E+00
    0.27517E-02        -0.17250E-01         0.00000E+00
    0.22000E-02        -0.14346E-01         0.00000E+00
    0.16826E-02        -0.11447E-01         0.00000E+00
    0.12013E-02        -0.85587E-02         0.00000E+00
    0.75854E-03        -0.56848E-02         0.00000E+00
    0.35706E-03        -0.28303E-02         0.00000E+00
    0.00000E+00         0.00000E+00         0.00000E+00
    0.92994E-02        -0.44146E-01         0.00000E+00
    0.84535E-02        -0.41224E-01         0.00000E+00
    0.76398E-02        -0.38311E-01         0.00000E+00
    0.68597E-02        -0.35397E-01         0.00000E+00
    0.61133E-02        -0.32478E-01         0.00000E+00
    0.54004E-02        -0.29549E-01         0.00000E+00
    0.47202E-02        -0.26609E-01         0.00000E+00
    0.40716E-02        -0.23657E-01         0.00000E+00
    0.34537E-02        -0.20695E-01         0.00000E+00
    0.28656E-02        -0.17724E-01         0.00000E+00
    0.23069E-02        -0.14750E-01         0.00000E+00
    0.17781E-02        -0.11776E-01         0.00000E+00
    0.12803E-02        -0.88079E-02         0.00000E+00
    0.81585E-03        -0.58519E-02         0.00000E+00
    0.38784E-03        -0.29140E-02         0.00000E+00
    0.00000E+00         0.00000E+00         0.00000E+00
    0.93826E-02        -0.45021E-01         0.00000E+00
    0.85187E-02        -0.42078E-01         0.00000E+00
    0.76962E-02        -0.39138E-01         0.00000E+00
    0.69142E-02        -0.36192E-01         0.00000E+00
    0.61714E-02        -0.33236E-01         0.00000E+00
    0.54657E-02        -0.30264E-01         0.00000E+00
    0.47945E-02        -0.27276E-01         0.00000E+00
    0.41552E-02        -0.24270E-01         0.00000E+00
    0.35451E-02        -0.21247E-01         0.00000E+00
    0.29615E-02        -0.18210E-01         0.00000E+00
    0.24029E-02        -0.15164E-01         0.00000E+00
    0.18682E-02        -0.12113E-01         0.00000E+00
    0.13581E-02        -0.90637E-02         0.00000E+00
    0.87437E-03        -0.60237E-02         0.00000E+00
    0.42022E-03        -0.30000E-02         0.00000E+00
    0.00000E+00         0.00000E+00         0.00000E+00
    0.93744E-02        -0.45915E-01         0.00000E+00
    0.85000E-02        -0.42948E-01         0.00000E+00
    0.76761E-02        -0.39979E-01         0.00000E+00
    0.69000E-02        -0.37000E-01         0.00000E+00
    0.61685E-02        -0.34004E-01         0.00000E+00
    0.54779E-02        -0.30989E-01         0.00000E+00
    0.48241E-02        -0.27950E-01         0.00000E+00
    0.42025E-02        -0.24889E-01         0.00000E+00
    0.36083E-02        -0.21805E-01         0.00000E+00
    0.30373E-02        -0.18702E-01         0.00000E+00
    0.24859E-02        -0.15583E-01         0.00000E+00
    0.19516E-02        -0.12455E-01         0.00000E+00
    0.14339E-02        -0.93240E-02         0.00000E+00
    0.93371E-03        -0.61989E-02         0.00000E+00
    0.45415E-03        -0.30879E-02         0.00000E+00
    0.00000E+00         0.00000E+00         0.00000E+00
    0.92720E-02        -0.46821E-01         0.00000E+00
    0.83949E-02        -0.43828E-01         0.00000E+00
    0.75773E-02        -0.40827E-01         0.00000E+00
    0.68148E-02        -0.37812E-01         0.00000E+00
    0.61025E-02        -0.34775E-01         0.00000E+00
    0.54350E-02        -0.31714E-01         0.00000E+00
    0.48065E-02        -0.28624E-01         0.00000E+00
    0.42106E-02        -0.25507E-01         0.00000E+00
    0.36406E-02        -0.22363E-01         0.00000E+00
    0.30901E-02        -0.19193E-01         0.00000E+00
    0.25534E-02        -0.16003E-01         0.00000E+00
    0.20262E-02        -0.12798E-01         0.00000E+00
    0.15062E-02        -0.95864E-02         0.00000E+00
    0.99310E-03        -0.63759E-02         0.00000E+00
    0.48941E-03        -0.31769E-02         0.00000E+00
    0.00000E+00         0.00000E+00         0.00000E+00
    0.90726E-02        -0.47730E-01         0.00000E+00
    0.82012E-02        -0.44709E-01         0.00000E+00
    0.73979E-02        -0.41674E-01         0.00000E+00
    0.66569E-02        -0.38620E-01         0.00000E+00
    0.59715E-02        -0.35541E-01         0.00000E+00
    0.53349E-02        -0.32431E-01         0.00000E+00
    0.47394E-02        -0.29291E-01         0.00000E+00
    0.41769E-02        -0.26118E-01         0.00000E+00
    0.36388E-02        -0.22913E-01         0.00000E+00
    0.31164E-02        -0.19679E-01         0.00000E+00
    0.26020E-02        -0.16420E-01         0.00000E+00
    0.20890E-02        -0.13140E-01         0.00000E+00
    0.15728E-02        -0.98483E-02         0.00000E+00
    0.10514E-02        -0.65532E-02         0.00000E+00
    0.52561E-03        -0.32663E-02         0.00000E+00
    0.00000E+00         0.00000E+00         0.00000E+00
    0.87739E-02        -0.48635E-01         0.00000E+00
    0.79167E-02        -0.45582E-01         0.00000E+00
    0.71362E-02        -0.42511E-01         0.00000E+00
    0.64246E-02        -0.39416E-01         0.00000E+00
    0.57739E-02        -0.36292E-01         0.00000E+00
    0.51757E-02        -0.33134E-01         0.00000E+00
    0.46205E-02        -0.29941E-01         0.00000E+00
    0.40985E-02        -0.26712E-01         0.00000E+00
    0.35993E-02        -0.23449E-01         0.00000E+00
    0.31123E-02        -0.20153E-01         0.00000E+00
    0.26276E-02        -0.16827E-01         0.00000E+00
    0.21362E-02        -0.13476E-01         0.00000E+00
    0.16309E-02        -0.10107E-01         0.00000E+00
    0.11067E-02        -0.67295E-02         0.00000E+00
    0.56211E-03        -0.33556E-02         0.00000E+00
    0.00000E+00         0.00000E+00         0.00000E+00
    0.83736E-02        -0.49525E-01         0.00000E+00
    0.75398E-02        -0.46438E-01         0.00000E+00
    0.67907E-02        -0.43329E-01         0.00000E+00
    0.61168E-02        -0.40191E-01         0.00000E+00
    0.55086E-02        -0.37019E-01         0.00000E+00
    0.49558E-02        -0.33811E-01         0.00000E+00
    0.44475E-02        -0.30566E-01         0.00000E+00
    0.39723E-02        -0.27283E-01         0.00000E+00
    0.35181E-02        -0.23963E-01         0.00000E+00
    0.30728E-02        -0.20607E-01         0.00000E+00
    0.26246E-02        -0.17219E-01         0.00000E+00
    0.21624E-02        -0.13801E-01         0.00000E+00
    0.16759E-02        -0.10359E-01         0.00000E+00
    0.11564E-02        -0.69028E-02         0.00000E+00
    0.59802E-03        -0.34440E-02         0.00000E+00
    0.00000E+00         0.00000E+00         0.00000E+00
    0.78697E-02        -0.50392E-01         0.00000E+00
    0.70691E-02        -0.47268E-01         0.00000E+00
    0.63605E-02        -0.44118E-01         0.00000E+00
    0.57328E-02        -0.40934E-01         0.00000E+00
    0.51746E-02        -0.37713E-01         0.00000E+00
    0.46739E-02        -0.34454E-01         0.00000E+00
    0.42183E-02        -0.31156E-01         0.00000E+00
    0.37950E-02        -0.27820E-01         0.00000E+00
    0.33907E-02        -0.24446E-01         0.00000E+00
    0.29923E-02        -0.21035E-01         0.00000E+00
    0.25867E-02        -0.17589E-01         0.00000E+00
    0.21610E-02        -0.14110E-01         0.00000E+00
    0.17021E-02        -0.10602E-01         0.00000E+00
    0.11966E-02        -0.70714E-02         0.00000E+00
    0.63192E-03        -0.35309E-02         0.00000E+00
    0.00000E+00         0.00000E+00         0.00000E+00
    0.72606E-02        -0.51224E-01         0.00000E+00
    0.65036E-02        -0.48062E-01         0.00000E+00
    0.58454E-02        -0.44867E-01         0.00000E+00
    0.52726E-02        -0.41635E-01         0.00000E+00
    0.47716E-02        -0.38363E-01         0.00000E+00
    0.43289E-02        -0.35052E-01         0.00000E+00
    0.39306E-02        -0.31702E-01         0.00000E+00
    0.35629E-02        -0.28315E-01         0.00000E+00
    0.32120E-02        -0.24890E-01         0.00000E+00
    0.28643E-02        -0.21429E-01         0.00000E+00
    0.25063E-02        -0.17932E-01         0.00000E+00
    0.21238E-02        -0.14399E-01         0.00000E+00
    0.17015E-02        -0.10831E-01         0.00000E+00
    0.12213E-02        -0.72330E-02         0.00000E+00
    0.66142E-03        -0.36152E-02         0.00000E+00
    0.00000E+00         0.00000E+00         0.00000E+00
    0.65447E-02        -0.52011E-01         0.00000E+00
    0.58427E-02        -0.48808E-01         0.00000E+00
    0.52457E-02        -0.45566E-01         0.00000E+00
    0.47367E-02        -0.42283E-01         0.00000E+00
    0.42999E-02        -0.38959E-01         0.00000E+00
    0.39198E-02        -0.35596E-01         0.00000E+00
    0.35819E-02        -0.32195E-01         0.00000E+00
    0.32719E-02        -0.28759E-01         0.00000E+00
    0.29762E-02        -0.25288E-01         0.00000E+00
    0.26816E-02        -0.21783E-01         0.00000E+00
    0.23747E-02        -0.18241E-01         0.00000E+00
    0.20412E-02        -0.14661E-01         0.00000E+00
    0.16643E-02        -0.11042E-01         0.00000E+00
    0.12219E-02        -0.73850E-02         0.00000E+00
    0.68214E-03        -0.36966E-02         0.00000E+00
    0.00000E+00         0.00000E+00         0.00000E+00
    0.57205E-02        -0.52743E-01         0.00000E+00
    0.50870E-02        -0.49494E-01         0.00000E+00
    0.45629E-02        -0.46203E-01         0.00000E+00
    0.41264E-02        -0.42867E-01         0.00000E+00
    0.37597E-02        -0.39489E-01         0.00000E+00
    0.34459E-02        -0.36074E-01         0.00000E+00
    0.31696E-02        -0.32625E-01         0.00000E+00
    0.29175E-02        -0.29144E-01         0.00000E+00
    0.26770E-02        -0.25633E-01         0.00000E+00
    0.24363E-02        -0.22089E-01         0.00000E+00
    0.21829E-02        -0.18510E-01         0.00000E+00
    0.19029E-02        -0.14892E-01         0.00000E+00
    0.15791E-02        -0.11231E-01         0.00000E+00
    0.11873E-02        -0.75244E-02         0.00000E+00
    0.68711E-03        -0.37732E-02         0.00000E+00
    0.00000E+00         0.00000E+00         0.00000E+00
    0.47896E-02        -0.53404E-01         0.00000E+00
    0.42383E-02        -0.50106E-01         0.00000E+00
    0.37989E-02        -0.46762E-01         0.00000E+00
    0.34436E-02        -0.43373E-01         0.00000E+00
    0.31517E-02        -0.39942E-01         0.00000E+00
    0.29054E-02        -0.36478E-01         0.00000E+00
    0.26903E-02        -0.32984E-01         0.00000E+00
    0.24946E-02        -0.29464E-01         0.00000E+00
    0.23078E-02        -0.25917E-01         0.00000E+00
    0.21201E-02        -0.22342E-01         0.00000E+00
    0.19211E-02        -0.18734E-01         0.00000E+00
    0.16979E-02        -0.15088E-01         0.00000E+00
    0.14340E-02        -0.11395E-01         0.00000E+00
    0.11044E-02        -0.76491E-02         0.00000E+00
    0.66415E-03        -0.38454E-02         0.00000E+00
    0.00000E+00         0.00000E+00         0.00000E+00
    0.37535E-02        -0.53980E-01         0.00000E+00
    0.32999E-02        -0.50628E-01         0.00000E+00
    0.29572E-02        -0.47231E-01         0.00000E+00
    0.26903E-02        -0.43787E-01         0.00000E+00
    0.24755E-02        -0.40307E-01         0.00000E+00
    0.22959E-02        -0.36798E-01         0.00000E+00
    0.21397E-02        -0.33266E-01         0.00000E+00
    0.19976E-02        -0.29713E-01         0.00000E+00
    0.18619E-02        -0.26137E-01         0.00000E+00
    0.17252E-02        -0.22538E-01         0.00000E+00
    0.15796E-02        -0.18909E-01         0.00000E+00
    0.14148E-02        -0.15243E-01         0.00000E+00
    0.12161E-02        -0.11530E-01         0.00000E+00
    0.95952E-03        -0.77579E-02         0.00000E+00
    0.59980E-03        -0.39137E-02         0.00000E+00
    0.00000E+00         0.00000E+00         0.00000E+00
    0.26099E-02        -0.54449E-01         0.00000E+00
    0.22756E-02        -0.51043E-01         0.00000E+00
    0.20425E-02        -0.47591E-01         0.00000E+00
    0.18678E-02        -0.44096E-01         0.00000E+00
    0.17288E-02        -0.40573E-01         0.00000E+00
    0.16130E-02        -0.37029E-01         0.00000E+00
    0.15122E-02        -0.33467E-01         0.00000E+00
    0.14204E-02        -0.29889E-01         0.00000E+00
    0.13327E-02        -0.26292E-01         0.00000E+00
    0.12443E-02        -0.22675E-01         0.00000E+00
    0.11499E-02        -0.19031E-01         0.00000E+00
    0.10426E-02        -0.15354E-01         0.00000E+00
    0.91193E-03        -0.11632E-01         0.00000E+00
    0.73836E-03        -0.78479E-02         0.00000E+00
    0.47983E-03        -0.39776E-02         0.00000E+00
    0.00000E+00         0.00000E+00         0.00000E+00
    0.13572E-02        -0.54783E-01         0.00000E+00
    0.11729E-02        -0.51322E-01         0.00000E+00
    0.10585E-02        -0.47818E-01         0.00000E+00
    0.97378E-03        -0.44285E-01         0.00000E+00
    0.90642E-03        -0.40733E-01         0.00000E+00
    0.85022E-03        -0.37166E-01         0.00000E+00
    0.80127E-03        -0.33586E-01         0.00000E+00
    0.75668E-03        -0.29992E-01         0.00000E+00
    0.71403E-03        -0.26383E-01         0.00000E+00
    0.67101E-03        -0.22755E-01         0.00000E+00
    0.62508E-03        -0.19103E-01         0.00000E+00
    0.57293E-03        -0.15420E-01         0.00000E+00
    0.50918E-03        -0.11695E-01         0.00000E+00
    0.42335E-03        -0.79107E-02         0.00000E+00
    0.28953E-03        -0.40348E-02         0.00000E+00
    0.00000E+00         0.00000E+00         0.00000E+00
    0.00000E+00        -0.54927E-01         0.00000E+00
    0.00000E+00        -0.51423E-01         0.00000E+00
    0.00000E+00        -0.47896E-01         0.00000E+00
    0.00000E+00        -0.44349E-01         0.00000E+00
    0.00000E+00        -0.40786E-01         0.00000E+00
    0.00000E+00        -0.37211E-01         0.00000E+00
    0.00000E+00        -0.33625E-01         0.00000E+00
    0.00000E+00        -0.30025E-01         0.00000E+00
    0.00000E+00        -0.26412E-01         0.00000E+00
    0.00000E+00        -0.22780E-01         0.00000E+00
    0.00000E+00        -0.19126E-01         0.00000E+00
    0.00000E+00        -0.15441E-01         0.00000E+00
    0.00000E+00        -0.11716E-01         0.00000E+00
    0.00000E+00        -0.79341E-02         0.00000E+00
    0.00000E+00        -0.40627E-02         0.00000E+00
    0.00000E+00         0.00000E+00         0.00000E+00
CELL_DATA        450
VECTORS vDarcy double 
    0.20367E-09        -0.15809E-10         0.00000E+00
    0.20372E-09        -0.43179E-10         0.00000E+00
    0.20388E-09        -0.67068E-10         0.00000E+00
    0.20418E-09        -0.88110E-10         0.00000E+00
    0.20462E-09        -0.10703E-09         0.00000E+00
    0.20511E-09        -0.12466E-09         0.00000E+00
    0.20550E-09        -0.14185E-09         0.00000E+00
    0.20558E-09        -0.15941E-09         0.00000E+00
    0.20514E-09        -0.17794E-09         0.00000E+00
    0.20408E-09        -0.19766E-09         0.00000E+00
    0.20265E-09        -0.21532E-09         0.00000E+00
    0.20152E-09        -0.20228E-09         0.00000E+00
    0.20105E-09        -0.15442E-09         0.00000E+00
    0.20093E-09        -0.97565E-10         0.00000E+00
    0.20089E-09        -0.34440E-10         0.00000E+00
    0.61050E-09        -0.15829E-10         0.00000E+00
    0.61065E-09        -0.43373E-10         0.00000E+00
    0.61111E-09        -0.67516E-10         0.00000E+00
    0.61195E-09        -0.88830E-10         0.00000E+00
    0.61314E-09        -0.10795E-09         0.00000E+00
    0.61448E-09        -0.12558E-09         0.00000E+00
    0.61558E-09        -0.14242E-09         0.00000E+00
    0.61586E-09        -0.15921E-09         0.00000E+00
    0.61472E-09        -0.17658E-09         0.00000E+00
    0.61173E-09        -0.19498E-09         0.00000E+00
    0.60753E-09        -0.21236E-09         0.00000E+00
    0.60405E-09        -0.20064E-09         0.00000E+00
    0.60254E-09        -0.15409E-09         0.00000E+00
    0.60217E-09        -0.97417E-10         0.00000E+00
    0.60202E-09        -0.34407E-10         0.00000E+00
    0.10158E-08        -0.15877E-10         0.00000E+00
    0.10161E-08        -0.43739E-10         0.00000E+00
    0.10167E-08        -0.68322E-10         0.00000E+00
    0.10179E-08        -0.90097E-10         0.00000E+00
    0.10196E-08        -0.10956E-09         0.00000E+00
    0.10214E-08        -0.12719E-09         0.00000E+00
    0.10230E-08        -0.14348E-09         0.00000E+00
    0.10235E-08        -0.15895E-09         0.00000E+00
    0.10220E-08        -0.17425E-09         0.00000E+00
    0.10178E-08        -0.19008E-09         0.00000E+00
    0.10110E-08        -0.20632E-09         0.00000E+00
    0.10049E-08        -0.19712E-09         0.00000E+00
    0.10022E-08        -0.15340E-09         0.00000E+00
    0.10015E-08        -0.97029E-10         0.00000E+00
    0.10012E-08        -0.34323E-10         0.00000E+00
    0.14186E-08        -0.15961E-10         0.00000E+00
    0.14189E-08        -0.44229E-10         0.00000E+00
    0.14196E-08        -0.69333E-10         0.00000E+00
    0.14209E-08        -0.91627E-10         0.00000E+00
    0.14227E-08        -0.11145E-09         0.00000E+00
    0.14246E-08        -0.12908E-09         0.00000E+00
    0.14262E-08        -0.14476E-09         0.00000E+00
    0.14267E-08        -0.15877E-09         0.00000E+00
    0.14253E-08        -0.17155E-09         0.00000E+00
    0.14206E-08        -0.18392E-09         0.00000E+00
    0.14121E-08        -0.19724E-09         0.00000E+00
    0.14032E-08        -0.19115E-09         0.00000E+00
    0.13987E-08        -0.15218E-09         0.00000E+00
    0.13974E-08        -0.96326E-10         0.00000E+00
    0.13969E-08        -0.34196E-10         0.00000E+00
    0.18177E-08        -0.16077E-10         0.00000E+00
    0.18180E-08        -0.44767E-10         0.00000E+00
    0.18187E-08        -0.70361E-10         0.00000E+00
    0.18198E-08        -0.93100E-10         0.00000E+00
    0.18213E-08        -0.11319E-09         0.00000E+00
    0.18227E-08        -0.13075E-09         0.00000E+00
    0.18238E-08        -0.14584E-09         0.00000E+00
    0.18240E-08        -0.15852E-09         0.00000E+00
    0.18226E-08        -0.16893E-09         0.00000E+00
    0.18183E-08        -0.17762E-09         0.00000E+00
    0.18093E-08        -0.18614E-09         0.00000E+00
    0.17983E-08        -0.18220E-09         0.00000E+00
    0.17911E-08        -0.14946E-09         0.00000E+00
    0.17886E-08        -0.95360E-10         0.00000E+00
    0.17879E-08        -0.34049E-10         0.00000E+00
    0.22119E-08        -0.16204E-10         0.00000E+00
    0.22121E-08        -0.45254E-10         0.00000E+00
    0.22127E-08        -0.71208E-10         0.00000E+00
    0.22134E-08        -0.94214E-10         0.00000E+00
    0.22142E-08        -0.11437E-09         0.00000E+00
    0.22148E-08        -0.13171E-09         0.00000E+00
    0.22150E-08        -0.14620E-09         0.00000E+00
    0.22143E-08        -0.15774E-09         0.00000E+00
    0.22123E-08        -0.16627E-09         0.00000E+00
    0.22081E-08        -0.17179E-09         0.00000E+00
    0.21999E-08        -0.17490E-09         0.00000E+00
    0.21884E-08        -0.17086E-09         0.00000E+00
    0.21785E-08        -0.14374E-09         0.00000E+00
    0.21737E-08        -0.93921E-10         0.00000E+00
    0.21727E-08        -0.33823E-10         0.00000E+00
    0.26000E-08        -0.16304E-10         0.00000E+00
    0.26001E-08        -0.45574E-10         0.00000E+00
    0.26003E-08        -0.71685E-10         0.00000E+00
    0.26005E-08        -0.94717E-10         0.00000E+00
    0.26004E-08        -0.11470E-09         0.00000E+00
    0.25999E-08        -0.13160E-09         0.00000E+00
    0.25987E-08        -0.14534E-09         0.00000E+00
    0.25966E-08        -0.15581E-09         0.00000E+00
    0.25932E-08        -0.16280E-09         0.00000E+00
    0.25880E-08        -0.16599E-09         0.00000E+00
    0.25804E-08        -0.16495E-09         0.00000E+00
    0.25697E-08        -0.15859E-09         0.00000E+00
    0.25587E-08        -0.13514E-09         0.00000E+00
    0.25517E-08        -0.90884E-10         0.00000E+00
    0.25495E-08        -0.33550E-10         0.00000E+00
    0.29809E-08        -0.16333E-10         0.00000E+00
    0.29807E-08        -0.45607E-10         0.00000E+00
    0.29804E-08        -0.71618E-10         0.00000E+00
    0.29798E-08        -0.94398E-10         0.00000E+00
    0.29786E-08        -0.11392E-09         0.00000E+00
    0.29768E-08        -0.13013E-09         0.00000E+00
    0.29740E-08        -0.14293E-09         0.00000E+00
    0.29701E-08        -0.15220E-09         0.00000E+00
    0.29648E-08        -0.15771E-09         0.00000E+00
    0.29578E-08        -0.15908E-09         0.00000E+00
    0.29492E-08        -0.15565E-09         0.00000E+00
    0.29385E-08        -0.14646E-09         0.00000E+00
    0.29274E-08        -0.12519E-09         0.00000E+00
    0.29191E-08        -0.85642E-10         0.00000E+00
    0.29147E-08        -0.32119E-10         0.00000E+00
    0.33531E-08        -0.16240E-10         0.00000E+00
    0.33526E-08        -0.45238E-10         0.00000E+00
    0.33517E-08        -0.70853E-10         0.00000E+00
    0.33501E-08        -0.93077E-10         0.00000E+00
    0.33478E-08        -0.11185E-09         0.00000E+00
    0.33444E-08        -0.12711E-09         0.00000E+00
    0.33399E-08        -0.13875E-09         0.00000E+00
    0.33340E-08        -0.14665E-09         0.00000E+00
    0.33266E-08        -0.15060E-09         0.00000E+00
    0.33176E-08        -0.15026E-09         0.00000E+00
    0.33068E-08        -0.14508E-09         0.00000E+00
    0.32943E-08        -0.13389E-09         0.00000E+00
    0.32813E-08        -0.11368E-09         0.00000E+00
    0.32706E-08        -0.78170E-10         0.00000E+00
    0.32629E-08        -0.27510E-10         0.00000E+00
    0.37154E-08        -0.15982E-10         0.00000E+00
    0.37146E-08        -0.44364E-10         0.00000E+00
    0.37129E-08        -0.69250E-10         0.00000E+00
    0.37103E-08        -0.90602E-10         0.00000E+00
    0.37066E-08        -0.10835E-09         0.00000E+00
    0.37016E-08        -0.12241E-09         0.00000E+00
    0.36953E-08        -0.13270E-09         0.00000E+00
    0.36875E-08        -0.13910E-09         0.00000E+00
    0.36781E-08        -0.14143E-09         0.00000E+00
    0.36670E-08        -0.13938E-09         0.00000E+00
    0.36543E-08        -0.13245E-09         0.00000E+00
    0.36399E-08        -0.11972E-09         0.00000E+00
    0.36245E-08        -0.99476E-10         0.00000E+00
    0.36106E-08        -0.67801E-10         0.00000E+00
    0.36023E-08        -0.21831E-10         0.00000E+00
    0.40666E-08        -0.15519E-10         0.00000E+00
    0.40654E-08        -0.42895E-10         0.00000E+00
    0.40629E-08        -0.66690E-10         0.00000E+00
    0.40591E-08        -0.86844E-10         0.00000E+00
    0.40539E-08        -0.10328E-09         0.00000E+00
    0.40473E-08        -0.11595E-09         0.00000E+00
    0.40391E-08        -0.12477E-09         0.00000E+00
    0.40295E-08        -0.12964E-09         0.00000E+00
    0.40183E-08        -0.13040E-09         0.00000E+00
    0.40057E-08        -0.12678E-09         0.00000E+00
    0.39917E-08        -0.11836E-09         0.00000E+00
    0.39767E-08        -0.10449E-09         0.00000E+00
    0.39616E-08        -0.84192E-10         0.00000E+00
    0.39482E-08        -0.55926E-10         0.00000E+00
    0.39408E-08        -0.17923E-10         0.00000E+00
    0.44056E-08        -0.14820E-10         0.00000E+00
    0.44038E-08        -0.40758E-10         0.00000E+00
    0.44005E-08        -0.63076E-10         0.00000E+00
    0.43954E-08        -0.81711E-10         0.00000E+00
    0.43887E-08        -0.96608E-10         0.00000E+00
    0.43804E-08        -0.10773E-09         0.00000E+00
    0.43705E-08        -0.11504E-09         0.00000E+00
    0.43591E-08        -0.11845E-09         0.00000E+00
    0.43465E-08        -0.11786E-09         0.00000E+00
    0.43328E-08        -0.11306E-09         0.00000E+00
    0.43184E-08        -0.10378E-09         0.00000E+00
    0.43040E-08        -0.89689E-10         0.00000E+00
    0.42906E-08        -0.70440E-10         0.00000E+00
    0.42798E-08        -0.45596E-10         0.00000E+00
    0.42740E-08        -0.15061E-10         0.00000E+00
    0.47311E-08        -0.13855E-10         0.00000E+00
    0.47289E-08        -0.37894E-10         0.00000E+00
    0.47245E-08        -0.58341E-10         0.00000E+00
    0.47182E-08        -0.75150E-10         0.00000E+00
    0.47100E-08        -0.88304E-10         0.00000E+00
    0.47000E-08        -0.97803E-10         0.00000E+00
    0.46885E-08        -0.10365E-09         0.00000E+00
    0.46757E-08        -0.10581E-09         0.00000E+00
    0.46620E-08        -0.10423E-09         0.00000E+00
    0.46477E-08        -0.98823E-10         0.00000E+00
    0.46335E-08        -0.89496E-10         0.00000E+00
    0.46202E-08        -0.76192E-10         0.00000E+00
    0.46085E-08        -0.58893E-10         0.00000E+00
    0.45998E-08        -0.37625E-10         0.00000E+00
    0.45951E-08        -0.12642E-10         0.00000E+00
    0.50421E-08        -0.12604E-10         0.00000E+00
    0.50394E-08        -0.34263E-10         0.00000E+00
    0.50341E-08        -0.52448E-10         0.00000E+00
    0.50264E-08        -0.67153E-10         0.00000E+00
    0.50167E-08        -0.78412E-10         0.00000E+00
    0.50052E-08        -0.86277E-10         0.00000E+00
    0.49923E-08        -0.90797E-10         0.00000E+00
    0.49783E-08        -0.92004E-10         0.00000E+00
    0.49638E-08        -0.89912E-10         0.00000E+00
    0.49494E-08        -0.84535E-10         0.00000E+00
    0.49357E-08        -0.75907E-10         0.00000E+00
    0.49233E-08        -0.64086E-10         0.00000E+00
    0.49131E-08        -0.49149E-10         0.00000E+00
    0.49056E-08        -0.31208E-10         0.00000E+00
    0.49018E-08        -0.10623E-10         0.00000E+00
    0.53377E-08        -0.11054E-10         0.00000E+00
    0.53344E-08        -0.29843E-10         0.00000E+00
    0.53282E-08        -0.45392E-10         0.00000E+00
    0.53193E-08        -0.57753E-10         0.00000E+00
    0.53081E-08        -0.67024E-10         0.00000E+00
    0.52952E-08        -0.73313E-10         0.00000E+00
    0.52811E-08        -0.76722E-10         0.00000E+00
    0.52662E-08        -0.77335E-10         0.00000E+00
    0.52513E-08        -0.75219E-10         0.00000E+00
    0.52369E-08        -0.70435E-10         0.00000E+00
    0.52236E-08        -0.63040E-10         0.00000E+00
    0.52120E-08        -0.53087E-10         0.00000E+00
    0.52027E-08        -0.40623E-10         0.00000E+00
    0.51961E-08        -0.25768E-10         0.00000E+00
    0.51928E-08        -0.88785E-11         0.00000E+00
    0.56169E-08        -0.91964E-11         0.00000E+00
    0.56131E-08        -0.24632E-10         0.00000E+00
    0.56059E-08        -0.37199E-10         0.00000E+00
    0.55958E-08        -0.47023E-10         0.00000E+00
    0.55834E-08        -0.54269E-10         0.00000E+00
    0.55693E-08        -0.59101E-10         0.00000E+00
    0.55541E-08        -0.61661E-10         0.00000E+00
    0.55386E-08        -0.62053E-10         0.00000E+00
    0.55233E-08        -0.60348E-10         0.00000E+00
    0.55090E-08        -0.56582E-10         0.00000E+00
    0.54961E-08        -0.50760E-10         0.00000E+00
    0.54851E-08        -0.42867E-10         0.00000E+00
    0.54764E-08        -0.32898E-10         0.00000E+00
    0.54704E-08        -0.20947E-10         0.00000E+00
    0.54674E-08        -0.73211E-11         0.00000E+00
    0.58789E-08        -0.70329E-11         0.00000E+00
    0.58745E-08        -0.18645E-10         0.00000E+00
    0.58664E-08        -0.27921E-10         0.00000E+00
    0.58552E-08        -0.35068E-10         0.00000E+00
    0.58416E-08        -0.40311E-10         0.00000E+00
    0.58265E-08        -0.43852E-10         0.00000E+00
    0.58106E-08        -0.45840E-10         0.00000E+00
    0.57946E-08        -0.46355E-10         0.00000E+00
    0.57791E-08        -0.45410E-10         0.00000E+00
    0.57649E-08        -0.42962E-10         0.00000E+00
    0.57523E-08        -0.38924E-10         0.00000E+00
    0.57418E-08        -0.33199E-10         0.00000E+00
    0.57335E-08        -0.25722E-10         0.00000E+00
    0.57279E-08        -0.16542E-10         0.00000E+00
    0.57251E-08        -0.58950E-11         0.00000E+00
    0.61226E-08        -0.45693E-11         0.00000E+00
    0.61177E-08        -0.11910E-10         0.00000E+00
    0.61088E-08        -0.17633E-10         0.00000E+00
    0.60966E-08        -0.22019E-10         0.00000E+00
    0.60821E-08        -0.25339E-10         0.00000E+00
    0.60662E-08        -0.27795E-10         0.00000E+00
    0.60497E-08        -0.29491E-10         0.00000E+00
    0.60334E-08        -0.30424E-10         0.00000E+00
    0.60180E-08        -0.30505E-10         0.00000E+00
    0.60039E-08        -0.29578E-10         0.00000E+00
    0.59917E-08        -0.27457E-10         0.00000E+00
    0.59815E-08        -0.23960E-10         0.00000E+00
    0.59737E-08        -0.18961E-10         0.00000E+00
    0.59684E-08        -0.12446E-10         0.00000E+00
    0.59657E-08        -0.45678E-11         0.00000E+00
    0.63472E-08        -0.18118E-11         0.00000E+00
    0.63419E-08        -0.44586E-11         0.00000E+00
    0.63322E-08        -0.64207E-11         0.00000E+00
    0.63191E-08        -0.80389E-11         0.00000E+00
    0.63039E-08        -0.95886E-11         0.00000E+00
    0.62875E-08        -0.11207E-10         0.00000E+00
    0.62708E-08        -0.12881E-10         0.00000E+00
    0.62545E-08        -0.14474E-10         0.00000E+00
    0.62393E-08        -0.15768E-10         0.00000E+00
    0.62255E-08        -0.16494E-10         0.00000E+00
    0.62136E-08        -0.16367E-10         0.00000E+00
    0.62039E-08        -0.15123E-10         0.00000E+00
    0.61964E-08        -0.12567E-10         0.00000E+00
    0.61914E-08        -0.86123E-11         0.00000E+00
    0.61889E-08        -0.33243E-11         0.00000E+00
    0.65519E-08         0.12417E-11         0.00000E+00
    0.65460E-08         0.36892E-11         0.00000E+00
    0.65356E-08         0.56182E-11         0.00000E+00
    0.65219E-08         0.66549E-11         0.00000E+00
    0.65063E-08         0.66190E-11         0.00000E+00
    0.64898E-08         0.55517E-11         0.00000E+00
    0.64732E-08         0.36544E-11         0.00000E+00
    0.64573E-08         0.12203E-11         0.00000E+00
    0.64426E-08        -0.14057E-11         0.00000E+00
    0.64293E-08        -0.38510E-11         0.00000E+00
    0.64180E-08        -0.57408E-11         0.00000E+00
    0.64087E-08        -0.67319E-11         0.00000E+00
    0.64017E-08        -0.65518E-11         0.00000E+00
    0.63971E-08        -0.50360E-11         0.00000E+00
    0.63948E-08        -0.21617E-11         0.00000E+00
    0.67355E-08         0.46136E-11         0.00000E+00
    0.67292E-08         0.12559E-10         0.00000E+00
    0.67181E-08         0.18349E-10         0.00000E+00
    0.67040E-08         0.21728E-10         0.00000E+00
    0.66885E-08         0.22829E-10         0.00000E+00
    0.66724E-08         0.22006E-10         0.00000E+00
    0.66566E-08         0.19681E-10         0.00000E+00
    0.66415E-08         0.16292E-10         0.00000E+00
    0.66275E-08         0.12288E-10         0.00000E+00
    0.66151E-08         0.81259E-11         0.00000E+00
    0.66046E-08         0.42592E-11         0.00000E+00
    0.65960E-08         0.11081E-11         0.00000E+00
    0.65896E-08        -0.97554E-12         0.00000E+00
    0.65853E-08        -0.17441E-11         0.00000E+00
    0.65832E-08        -0.10865E-11         0.00000E+00
    0.68972E-08         0.84254E-11         0.00000E+00
    0.68902E-08         0.22247E-10         0.00000E+00
    0.68786E-08         0.31511E-10         0.00000E+00
    0.68647E-08         0.36647E-10         0.00000E+00
    0.68498E-08         0.38421E-10         0.00000E+00
    0.68349E-08         0.37556E-10         0.00000E+00
    0.68203E-08         0.34659E-10         0.00000E+00
    0.68066E-08         0.30275E-10         0.00000E+00
    0.67940E-08         0.24923E-10         0.00000E+00
    0.67829E-08         0.19126E-10         0.00000E+00
    0.67734E-08         0.13401E-10         0.00000E+00
    0.67657E-08         0.82369E-11         0.00000E+00
    0.67600E-08         0.40632E-11         0.00000E+00
    0.67562E-08         0.12132E-11         0.00000E+00
    0.67543E-08        -0.11198E-12         0.00000E+00
    0.70358E-08         0.12997E-10         0.00000E+00
    0.70278E-08         0.32849E-10         0.00000E+00
    0.70160E-08         0.44536E-10         0.00000E+00
    0.70030E-08         0.50633E-10         0.00000E+00
    0.69898E-08         0.52630E-10         0.00000E+00
    0.69768E-08         0.51491E-10         0.00000E+00
    0.69643E-08         0.47938E-10         0.00000E+00
    0.69526E-08         0.42584E-10         0.00000E+00
    0.69420E-08         0.36002E-10         0.00000E+00
    0.69326E-08         0.28751E-10         0.00000E+00
    0.69246E-08         0.21385E-10         0.00000E+00
    0.69181E-08         0.14446E-10         0.00000E+00
    0.69133E-08         0.84341E-11         0.00000E+00
    0.69101E-08         0.37683E-11         0.00000E+00
    0.69085E-08         0.74466E-12         0.00000E+00
    0.71493E-08         0.18433E-10         0.00000E+00
    0.71408E-08         0.44115E-10         0.00000E+00
    0.71297E-08         0.56444E-10         0.00000E+00
    0.71188E-08         0.62769E-10         0.00000E+00
    0.71081E-08         0.64603E-10         0.00000E+00
    0.70979E-08         0.62991E-10         0.00000E+00
    0.70883E-08         0.58735E-10         0.00000E+00
    0.70795E-08         0.52508E-10         0.00000E+00
    0.70715E-08         0.44912E-10         0.00000E+00
    0.70644E-08         0.36506E-10         0.00000E+00
    0.70584E-08         0.27844E-10         0.00000E+00
    0.70534E-08         0.19485E-10         0.00000E+00
    0.70497E-08         0.11982E-10         0.00000E+00
    0.70473E-08         0.58408E-11         0.00000E+00
    0.70460E-08         0.14635E-11         0.00000E+00
    0.72371E-08         0.24210E-10         0.00000E+00
    0.72292E-08         0.54994E-10         0.00000E+00
    0.72198E-08         0.66391E-10         0.00000E+00
    0.72116E-08         0.72187E-10         0.00000E+00
    0.72044E-08         0.73411E-10         0.00000E+00
    0.71980E-08         0.71102E-10         0.00000E+00
    0.71923E-08         0.66133E-10         0.00000E+00
    0.71873E-08         0.59214E-10         0.00000E+00
    0.71828E-08         0.50936E-10         0.00000E+00
    0.71787E-08         0.41815E-10         0.00000E+00
    0.71751E-08         0.32348E-10         0.00000E+00
    0.71721E-08         0.23061E-10         0.00000E+00
    0.71698E-08         0.14530E-10         0.00000E+00
    0.71682E-08         0.73428E-11         0.00000E+00
    0.71674E-08         0.20254E-11         0.00000E+00
    0.72986E-08         0.29651E-10         0.00000E+00
    0.72923E-08         0.64142E-10         0.00000E+00
    0.72856E-08         0.73669E-10         0.00000E+00
    0.72811E-08         0.77945E-10         0.00000E+00
    0.72785E-08         0.77937E-10         0.00000E+00
    0.72771E-08         0.74698E-10         0.00000E+00
    0.72765E-08         0.69087E-10         0.00000E+00
    0.72763E-08         0.61773E-10         0.00000E+00
    0.72762E-08         0.53279E-10         0.00000E+00
    0.72759E-08         0.44026E-10         0.00000E+00
    0.72754E-08         0.34403E-10         0.00000E+00
    0.72748E-08         0.24842E-10         0.00000E+00
    0.72741E-08         0.15883E-10         0.00000E+00
    0.72735E-08         0.81823E-11         0.00000E+00
    0.72732E-08         0.24130E-11         0.00000E+00
    0.73292E-08         0.33406E-10         0.00000E+00
    0.73267E-08         0.69711E-10         0.00000E+00
    0.73252E-08         0.76738E-10         0.00000E+00
    0.73266E-08         0.78448E-10         0.00000E+00
    0.73305E-08         0.76686E-10         0.00000E+00
    0.73357E-08         0.72459E-10         0.00000E+00
    0.73415E-08         0.66468E-10         0.00000E+00
    0.73472E-08         0.59229E-10         0.00000E+00
    0.73523E-08         0.51129E-10         0.00000E+00
    0.73565E-08         0.42457E-10         0.00000E+00
    0.73598E-08         0.33466E-10         0.00000E+00
    0.73619E-08         0.24441E-10         0.00000E+00
    0.73632E-08         0.15820E-10         0.00000E+00
    0.73639E-08         0.82628E-11         0.00000E+00
    0.73641E-08         0.26162E-11         0.00000E+00
    0.73266E-08         0.34041E-10         0.00000E+00
    0.73299E-08         0.68900E-10         0.00000E+00
    0.73371E-08         0.72439E-10         0.00000E+00
    0.73480E-08         0.71096E-10         0.00000E+00
    0.73609E-08         0.67698E-10         0.00000E+00
    0.73747E-08         0.62915E-10         0.00000E+00
    0.73881E-08         0.57148E-10         0.00000E+00
    0.74006E-08         0.50685E-10         0.00000E+00
    0.74118E-08         0.43739E-10         0.00000E+00
    0.74212E-08         0.36461E-10         0.00000E+00
    0.74287E-08         0.28973E-10         0.00000E+00
    0.74342E-08         0.21411E-10         0.00000E+00
    0.74379E-08         0.14043E-10         0.00000E+00
    0.74400E-08         0.74784E-11         0.00000E+00
    0.74407E-08         0.26369E-11         0.00000E+00
    0.72867E-08         0.30108E-10         0.00000E+00
    0.73000E-08         0.57071E-10         0.00000E+00
    0.73219E-08         0.55957E-10         0.00000E+00
    0.73467E-08         0.52593E-10         0.00000E+00
    0.73716E-08         0.48818E-10         0.00000E+00
    0.73955E-08         0.44637E-10         0.00000E+00
    0.74178E-08         0.40143E-10         0.00000E+00
    0.74378E-08         0.35422E-10         0.00000E+00
    0.74555E-08         0.30534E-10         0.00000E+00
    0.74705E-08         0.25526E-10         0.00000E+00
    0.74827E-08         0.20429E-10         0.00000E+00
    0.74921E-08         0.15277E-10         0.00000E+00
    0.74986E-08         0.10172E-10         0.00000E+00
    0.75025E-08         0.55094E-11         0.00000E+00
    0.75040E-08         0.26232E-11         0.00000E+00
    0.72003E-08         0.13362E-10         0.00000E+00
    0.72382E-08         0.23810E-10         0.00000E+00
    0.72844E-08         0.21991E-10         0.00000E+00
    0.73268E-08         0.20056E-10         0.00000E+00
    0.73655E-08         0.18319E-10         0.00000E+00
    0.74006E-08         0.16573E-10         0.00000E+00
    0.74322E-08         0.14805E-10         0.00000E+00
    0.74602E-08         0.13017E-10         0.00000E+00
    0.74846E-08         0.11210E-10         0.00000E+00
    0.75053E-08         0.93859E-11         0.00000E+00
    0.75224E-08         0.75447E-11         0.00000E+00
    0.75357E-08         0.56877E-11         0.00000E+00
    0.75453E-08         0.38310E-11         0.00000E+00
    0.75513E-08         0.20815E-11         0.00000E+00
    0.75550E-08         0.13219E-11         0.00000E+00
POINT_DATA        496
VECTORS vDarcyNodal double 
    0.20366E-09        -0.15805E-10         0.00000E+00
    0.20367E-09        -0.29467E-10         0.00000E+00
    0.20376E-09        -0.55040E-10         0.00000E+00
    0.20399E-09        -0.77435E-10         0.00000E+00
    0.20437E-09        -0.97352E-10         0.00000E+00
    0.20486E-09        -0.11560E-09         0.00000E+00
    0.20535E-09        -0.13306E-09         0.00000E+00
    0.20564E-09        -0.15059E-09         0.00000E+00
    0.20551E-09        -0.16889E-09         0.00000E+00
    0.20477E-09        -0.18833E-09         0.00000E+00
    0.20338E-09        -0.20720E-09         0.00000E+00
    0.20191E-09        -0.20936E-09         0.00000E+00
    0.20113E-09        -0.17859E-09         0.00000E+00
    0.20096E-09        -0.12605E-09         0.00000E+00
    0.20090E-09        -0.66021E-10         0.00000E+00
    0.20088E-09        -0.34446E-10         0.00000E+00
    0.40707E-09        -0.15813E-10         0.00000E+00
    0.40709E-09        -0.29521E-10         0.00000E+00
    0.40727E-09        -0.55207E-10         0.00000E+00
    0.40771E-09        -0.77744E-10         0.00000E+00
    0.40842E-09        -0.97790E-10         0.00000E+00
    0.40934E-09        -0.11609E-09         0.00000E+00
    0.41025E-09        -0.13345E-09         0.00000E+00
    0.41082E-09        -0.15067E-09         0.00000E+00
    0.41061E-09        -0.16846E-09         0.00000E+00
    0.40925E-09        -0.18727E-09         0.00000E+00
    0.40656E-09        -0.20577E-09         0.00000E+00
    0.40361E-09        -0.20824E-09         0.00000E+00
    0.40196E-09        -0.17811E-09         0.00000E+00
    0.40163E-09        -0.12593E-09         0.00000E+00
    0.40147E-09        -0.65983E-10         0.00000E+00
    0.40144E-09        -0.34433E-10         0.00000E+00
    0.81314E-09        -0.15845E-10         0.00000E+00
    0.81318E-09        -0.29681E-10         0.00000E+00
    0.81353E-09        -0.55681E-10         0.00000E+00
    0.81431E-09        -0.78601E-10         0.00000E+00
    0.81557E-09        -0.98992E-10         0.00000E+00
    0.81716E-09        -0.11744E-09         0.00000E+00
    0.81876E-09        -0.13455E-09         0.00000E+00
    0.81980E-09        -0.15096E-09         0.00000E+00
    0.81954E-09        -0.16733E-09         0.00000E+00
    0.81720E-09        -0.18429E-09         0.00000E+00
    0.81230E-09        -0.20157E-09         0.00000E+00
    0.80626E-09        -0.20476E-09         0.00000E+00
    0.80273E-09        -0.17661E-09         0.00000E+00
    0.80204E-09        -0.12557E-09         0.00000E+00
    0.80164E-09        -0.65841E-10         0.00000E+00
    0.80155E-09        -0.34382E-10         0.00000E+00
    0.12172E-08        -0.15910E-10         0.00000E+00
    0.12172E-08        -0.29935E-10         0.00000E+00
    0.12177E-08        -0.56380E-10         0.00000E+00
    0.12187E-08        -0.79817E-10         0.00000E+00
    0.12202E-08        -0.10066E-09         0.00000E+00
    0.12221E-08        -0.11931E-09         0.00000E+00
    0.12239E-08        -0.13612E-09         0.00000E+00
    0.12252E-08        -0.15147E-09         0.00000E+00
    0.12250E-08        -0.16588E-09         0.00000E+00
    0.12223E-08        -0.18004E-09         0.00000E+00
    0.12161E-08        -0.19483E-09         0.00000E+00
    0.12070E-08        -0.19868E-09         0.00000E+00
    0.12011E-08        -0.17391E-09         0.00000E+00
    0.11998E-08        -0.12486E-09         0.00000E+00
    0.11991E-08        -0.65511E-10         0.00000E+00
    0.11990E-08        -0.34265E-10         0.00000E+00
    0.16181E-08        -0.16013E-10         0.00000E+00
    0.16182E-08        -0.30255E-10         0.00000E+00
    0.16187E-08        -0.57182E-10         0.00000E+00
    0.16197E-08        -0.81143E-10         0.00000E+00
    0.16211E-08        -0.10241E-09         0.00000E+00
    0.16228E-08        -0.12122E-09         0.00000E+00
    0.16245E-08        -0.13773E-09         0.00000E+00
    0.16255E-08        -0.15206E-09         0.00000E+00
    0.16253E-08        -0.16444E-09         0.00000E+00
    0.16226E-08        -0.17543E-09         0.00000E+00
    0.16163E-08        -0.18633E-09         0.00000E+00
    0.16052E-08        -0.18971E-09         0.00000E+00
    0.15962E-08        -0.16942E-09         0.00000E+00
    0.15935E-08        -0.12365E-09         0.00000E+00
    0.15925E-08        -0.65011E-10         0.00000E+00
    0.15924E-08        -0.34127E-10         0.00000E+00
    0.20147E-08        -0.16141E-10         0.00000E+00
    0.20148E-08        -0.30589E-10         0.00000E+00
    0.20153E-08        -0.57946E-10         0.00000E+00
    0.20161E-08        -0.82317E-10         0.00000E+00
    0.20172E-08        -0.10387E-09         0.00000E+00
    0.20183E-08        -0.12271E-09         0.00000E+00
    0.20192E-08        -0.13886E-09         0.00000E+00
    0.20196E-08        -0.15230E-09         0.00000E+00
    0.20188E-08        -0.16301E-09         0.00000E+00
    0.20161E-08        -0.17112E-09         0.00000E+00
    0.20102E-08        -0.17742E-09         0.00000E+00
    0.19990E-08        -0.17863E-09         0.00000E+00
    0.19876E-08        -0.16225E-09         0.00000E+00
    0.19819E-08        -0.12118E-09         0.00000E+00
    0.19804E-08        -0.64398E-10         0.00000E+00
    0.19802E-08        -0.33971E-10         0.00000E+00
    0.24059E-08        -0.16266E-10         0.00000E+00
    0.24060E-08        -0.30868E-10         0.00000E+00
    0.24063E-08        -0.58516E-10         0.00000E+00
    0.24067E-08        -0.83104E-10         0.00000E+00
    0.24072E-08        -0.10472E-09         0.00000E+00
    0.24074E-08        -0.12338E-09         0.00000E+00
    0.24073E-08        -0.13904E-09         0.00000E+00
    0.24064E-08        -0.15163E-09         0.00000E+00
    0.24045E-08        -0.16100E-09         0.00000E+00
    0.24010E-08        -0.16694E-09         0.00000E+00
    0.23951E-08        -0.16926E-09         0.00000E+00
    0.23852E-08        -0.16713E-09         0.00000E+00
    0.23729E-08        -0.15235E-09         0.00000E+00
    0.23643E-08        -0.11648E-09         0.00000E+00
    0.23612E-08        -0.63346E-10         0.00000E+00
    0.23609E-08        -0.33674E-10         0.00000E+00
    0.27904E-08        -0.16343E-10         0.00000E+00
    0.27904E-08        -0.31010E-10         0.00000E+00
    0.27904E-08        -0.58742E-10         0.00000E+00
    0.27903E-08        -0.83297E-10         0.00000E+00
    0.27899E-08        -0.10470E-09         0.00000E+00
    0.27891E-08        -0.12292E-09         0.00000E+00
    0.27876E-08        -0.13790E-09         0.00000E+00
    0.27852E-08        -0.14952E-09         0.00000E+00
    0.27815E-08        -0.15761E-09         0.00000E+00
    0.27764E-08        -0.16184E-09         0.00000E+00
    0.27695E-08        -0.16167E-09         0.00000E+00
    0.27602E-08        -0.15641E-09         0.00000E+00
    0.27480E-08        -0.14138E-09         0.00000E+00
    0.27381E-08        -0.10954E-09         0.00000E+00
    0.27328E-08        -0.61089E-10         0.00000E+00
    0.27314E-08        -0.33427E-10         0.00000E+00
    0.31670E-08        -0.16322E-10         0.00000E+00
    0.31669E-08        -0.30929E-10         0.00000E+00
    0.31664E-08        -0.58482E-10         0.00000E+00
    0.31656E-08        -0.82719E-10         0.00000E+00
    0.31643E-08        -0.10362E-09         0.00000E+00
    0.31622E-08        -0.12113E-09         0.00000E+00
    0.31591E-08        -0.13516E-09         0.00000E+00
    0.31549E-08        -0.14562E-09         0.00000E+00
    0.31493E-08        -0.15231E-09         0.00000E+00
    0.31421E-08        -0.15495E-09         0.00000E+00
    0.31333E-08        -0.15306E-09         0.00000E+00
    0.31227E-08        -0.14570E-09         0.00000E+00
    0.31101E-08        -0.13027E-09         0.00000E+00
    0.30986E-08        -0.10129E-09         0.00000E+00
    0.30911E-08        -0.56673E-10         0.00000E+00
    0.30865E-08        -0.30812E-10         0.00000E+00
    0.35344E-08        -0.16157E-10         0.00000E+00
    0.35341E-08        -0.30548E-10         0.00000E+00
    0.35331E-08        -0.57608E-10         0.00000E+00
    0.35315E-08        -0.81212E-10         0.00000E+00
    0.35289E-08        -0.10131E-09         0.00000E+00
    0.35254E-08        -0.11783E-09         0.00000E+00
    0.35206E-08        -0.13069E-09         0.00000E+00
    0.35146E-08        -0.13978E-09         0.00000E+00
    0.35070E-08        -0.14494E-09         0.00000E+00
    0.34978E-08        -0.14591E-09         0.00000E+00
    0.34869E-08        -0.14228E-09         0.00000E+00
    0.34742E-08        -0.13326E-09         0.00000E+00
    0.34600E-08        -0.11730E-09         0.00000E+00
    0.34458E-08        -0.90561E-10         0.00000E+00
    0.34354E-08        -0.49007E-10         0.00000E+00
    0.34297E-08        -0.24207E-10         0.00000E+00
    0.38912E-08        -0.15806E-10         0.00000E+00
    0.38907E-08        -0.29797E-10         0.00000E+00
    0.38892E-08        -0.56006E-10         0.00000E+00
    0.38866E-08        -0.78640E-10         0.00000E+00
    0.38828E-08        -0.97636E-10         0.00000E+00
    0.38777E-08        -0.11292E-09         0.00000E+00
    0.38712E-08        -0.12441E-09         0.00000E+00
    0.38632E-08        -0.13201E-09         0.00000E+00
    0.38537E-08        -0.13558E-09         0.00000E+00
    0.38427E-08        -0.13489E-09         0.00000E+00
    0.38300E-08        -0.12955E-09         0.00000E+00
    0.38159E-08        -0.11891E-09         0.00000E+00
    0.38007E-08        -0.10190E-09         0.00000E+00
    0.37854E-08        -0.76715E-10         0.00000E+00
    0.37735E-08        -0.40625E-10         0.00000E+00
    0.37696E-08        -0.19455E-10         0.00000E+00
    0.42364E-08        -0.15233E-10         0.00000E+00
    0.42357E-08        -0.28617E-10         0.00000E+00
    0.42335E-08        -0.53580E-10         0.00000E+00
    0.42299E-08        -0.74894E-10         0.00000E+00
    0.42247E-08        -0.92493E-10         0.00000E+00
    0.42179E-08        -0.10632E-09         0.00000E+00
    0.42097E-08        -0.11631E-09         0.00000E+00
    0.41999E-08        -0.12239E-09         0.00000E+00
    0.41887E-08        -0.12445E-09         0.00000E+00
    0.41761E-08        -0.12229E-09         0.00000E+00
    0.41624E-08        -0.11560E-09         0.00000E+00
    0.41478E-08        -0.10394E-09         0.00000E+00
    0.41329E-08        -0.86779E-10         0.00000E+00
    0.41192E-08        -0.63403E-10         0.00000E+00
    0.41088E-08        -0.33224E-10         0.00000E+00
    0.41060E-08        -0.16390E-10         0.00000E+00
    0.45688E-08        -0.14407E-10         0.00000E+00
    0.45678E-08        -0.26960E-10         0.00000E+00
    0.45649E-08        -0.50255E-10         0.00000E+00
    0.45601E-08        -0.69894E-10         0.00000E+00
    0.45535E-08        -0.85826E-10         0.00000E+00
    0.45452E-08        -0.98022E-10         0.00000E+00
    0.45352E-08        -0.10646E-09         0.00000E+00
    0.45238E-08        -0.11110E-09         0.00000E+00
    0.45111E-08        -0.11186E-09         0.00000E+00
    0.44974E-08        -0.10863E-09         0.00000E+00
    0.44831E-08        -0.10124E-09         0.00000E+00
    0.44688E-08        -0.89526E-10         0.00000E+00
    0.44553E-08        -0.73351E-10         0.00000E+00
    0.44438E-08        -0.52634E-10         0.00000E+00
    0.44358E-08        -0.27433E-10         0.00000E+00
    0.44334E-08        -0.13732E-10         0.00000E+00
    0.48872E-08        -0.13303E-10         0.00000E+00
    0.48860E-08        -0.24789E-10         0.00000E+00
    0.48823E-08        -0.45980E-10         0.00000E+00
    0.48763E-08        -0.63598E-10         0.00000E+00
    0.48683E-08        -0.77628E-10         0.00000E+00
    0.48584E-08        -0.88084E-10         0.00000E+00
    0.48468E-08        -0.94990E-10         0.00000E+00
    0.48339E-08        -0.98358E-10         0.00000E+00
    0.48201E-08        -0.98177E-10         0.00000E+00
    0.48057E-08        -0.94422E-10         0.00000E+00
    0.47914E-08        -0.87078E-10         0.00000E+00
    0.47778E-08        -0.76163E-10         0.00000E+00
    0.47657E-08        -0.61735E-10         0.00000E+00
    0.47559E-08        -0.43884E-10         0.00000E+00
    0.47495E-08        -0.22834E-10         0.00000E+00
    0.47475E-08        -0.11551E-10         0.00000E+00
    0.51907E-08        -0.11905E-10         0.00000E+00
    0.51891E-08        -0.22078E-10         0.00000E+00
    0.51847E-08        -0.40731E-10         0.00000E+00
    0.51776E-08        -0.56003E-10         0.00000E+00
    0.51681E-08        -0.67938E-10         0.00000E+00
    0.51567E-08        -0.76605E-10         0.00000E+00
    0.51437E-08        -0.82084E-10         0.00000E+00
    0.51296E-08        -0.84443E-10         0.00000E+00
    0.51149E-08        -0.83739E-10         0.00000E+00
    0.51002E-08        -0.80025E-10         0.00000E+00
    0.50861E-08        -0.73364E-10         0.00000E+00
    0.50732E-08        -0.63831E-10         0.00000E+00
    0.50622E-08        -0.51500E-10         0.00000E+00
    0.50536E-08        -0.36473E-10         0.00000E+00
    0.50482E-08        -0.18998E-10         0.00000E+00
    0.50464E-08        -0.96954E-11         0.00000E+00
    0.54783E-08        -0.10202E-10         0.00000E+00
    0.54764E-08        -0.18818E-10         0.00000E+00
    0.54711E-08        -0.34505E-10         0.00000E+00
    0.54629E-08        -0.47142E-10         0.00000E+00
    0.54522E-08        -0.56840E-10         0.00000E+00
    0.54394E-08        -0.63732E-10         0.00000E+00
    0.54251E-08        -0.67952E-10         0.00000E+00
    0.54100E-08        -0.69615E-10         0.00000E+00
    0.53947E-08        -0.68816E-10         0.00000E+00
    0.53799E-08        -0.65629E-10         0.00000E+00
    0.53660E-08        -0.60111E-10         0.00000E+00
    0.53537E-08        -0.52296E-10         0.00000E+00
    0.53434E-08        -0.42209E-10         0.00000E+00
    0.53357E-08        -0.29918E-10         0.00000E+00
    0.53308E-08        -0.15648E-10         0.00000E+00
    0.53293E-08        -0.80617E-11         0.00000E+00
    0.57490E-08        -0.81907E-11         0.00000E+00
    0.57468E-08        -0.15010E-10         0.00000E+00
    0.57408E-08        -0.27326E-10         0.00000E+00
    0.57315E-08        -0.37080E-10         0.00000E+00
    0.57195E-08        -0.44453E-10         0.00000E+00
    0.57055E-08        -0.49640E-10         0.00000E+00
    0.56903E-08        -0.52811E-10         0.00000E+00
    0.56744E-08        -0.54099E-10         0.00000E+00
    0.56587E-08        -0.53585E-10         0.00000E+00
    0.56438E-08        -0.51300E-10         0.00000E+00
    0.56301E-08        -0.47231E-10         0.00000E+00
    0.56183E-08        -0.41332E-10         0.00000E+00
    0.56086E-08        -0.33556E-10         0.00000E+00
    0.56014E-08        -0.23927E-10         0.00000E+00
    0.55970E-08        -0.12620E-10         0.00000E+00
    0.55955E-08        -0.65805E-11         0.00000E+00
    0.60019E-08        -0.58752E-11         0.00000E+00
    0.59995E-08        -0.10668E-10         0.00000E+00
    0.59927E-08        -0.19240E-10         0.00000E+00
    0.59824E-08        -0.25910E-10         0.00000E+00
    0.59694E-08        -0.30926E-10         0.00000E+00
    0.59544E-08        -0.34524E-10         0.00000E+00
    0.59383E-08        -0.36882E-10         0.00000E+00
    0.59220E-08        -0.38096E-10         0.00000E+00
    0.59060E-08        -0.38180E-10         0.00000E+00
    0.58911E-08        -0.37072E-10         0.00000E+00
    0.58777E-08        -0.34655E-10         0.00000E+00
    0.58662E-08        -0.30792E-10         0.00000E+00
    0.58570E-08        -0.25364E-10         0.00000E+00
    0.58502E-08        -0.18337E-10         0.00000E+00
    0.58461E-08        -0.98179E-11         0.00000E+00
    0.58447E-08        -0.52095E-11         0.00000E+00
    0.62363E-08        -0.32634E-11         0.00000E+00
    0.62335E-08        -0.58116E-11         0.00000E+00
    0.62261E-08        -0.10303E-10         0.00000E+00
    0.62148E-08        -0.13743E-10         0.00000E+00
    0.62009E-08        -0.16432E-10         0.00000E+00
    0.61851E-08        -0.18610E-10         0.00000E+00
    0.61685E-08        -0.20405E-10         0.00000E+00
    0.61519E-08        -0.21820E-10         0.00000E+00
    0.61360E-08        -0.22749E-10         0.00000E+00
    0.61213E-08        -0.23011E-10         0.00000E+00
    0.61082E-08        -0.22380E-10         0.00000E+00
    0.60971E-08        -0.20626E-10         0.00000E+00
    0.60882E-08        -0.17557E-10         0.00000E+00
    0.60818E-08        -0.13070E-10         0.00000E+00
    0.60780E-08        -0.71964E-11         0.00000E+00
    0.60767E-08        -0.39262E-11         0.00000E+00
    0.64511E-08        -0.36036E-12         0.00000E+00
    0.64480E-08        -0.45902E-12         0.00000E+00
    0.64399E-08        -0.57640E-12         0.00000E+00
    0.64279E-08        -0.71684E-12         0.00000E+00
    0.64132E-08        -0.11956E-11         0.00000E+00
    0.63970E-08        -0.21859E-11         0.00000E+00
    0.63803E-08        -0.36830E-11         0.00000E+00
    0.63638E-08        -0.55350E-11         0.00000E+00
    0.63481E-08        -0.74927E-11         0.00000E+00
    0.63337E-08        -0.92508E-11         0.00000E+00
    0.63211E-08        -0.10481E-10         0.00000E+00
    0.63105E-08        -0.10864E-10         0.00000E+00
    0.63021E-08        -0.10133E-10         0.00000E+00
    0.62961E-08        -0.81090E-11         0.00000E+00
    0.62925E-08        -0.47403E-11         0.00000E+00
    0.62913E-08        -0.27224E-11         0.00000E+00
    0.66454E-08         0.28435E-11         0.00000E+00
    0.66420E-08         0.53896E-11         0.00000E+00
    0.66332E-08         0.98832E-11         0.00000E+00
    0.66205E-08         0.12989E-10         0.00000E+00
    0.66055E-08         0.14469E-10         0.00000E+00
    0.65893E-08         0.14356E-10         0.00000E+00
    0.65729E-08         0.12888E-10         0.00000E+00
    0.65569E-08         0.10409E-10         0.00000E+00
    0.65419E-08         0.73067E-11         0.00000E+00
    0.65282E-08         0.39936E-11         0.00000E+00
    0.65163E-08         0.88859E-12         0.00000E+00
    0.65063E-08        -0.16086E-11         0.00000E+00
    0.64984E-08        -0.31507E-11         0.00000E+00
    0.64929E-08        -0.34789E-11         0.00000E+00
    0.64895E-08        -0.24575E-11         0.00000E+00
    0.64884E-08        -0.16010E-11         0.00000E+00
    0.68183E-08         0.63834E-11         0.00000E+00
    0.68145E-08         0.11783E-10         0.00000E+00
    0.68049E-08         0.21024E-10         0.00000E+00
    0.67918E-08         0.27087E-10         0.00000E+00
    0.67769E-08         0.30088E-10         0.00000E+00
    0.67614E-08         0.30478E-10         0.00000E+00
    0.67459E-08         0.28797E-10         0.00000E+00
    0.67310E-08         0.25563E-10         0.00000E+00
    0.67171E-08         0.21273E-10         0.00000E+00
    0.67045E-08         0.16420E-10         0.00000E+00
    0.66935E-08         0.11496E-10         0.00000E+00
    0.66844E-08         0.69755E-11         0.00000E+00
    0.66773E-08         0.32829E-11         0.00000E+00
    0.66723E-08         0.75911E-12         0.00000E+00
    0.66693E-08        -0.37327E-12         0.00000E+00
    0.66683E-08        -0.57216E-12         0.00000E+00
    0.69688E-08         0.10467E-10         0.00000E+00
    0.69643E-08         0.18890E-10         0.00000E+00
    0.69537E-08         0.32734E-10         0.00000E+00
    0.69408E-08         0.41071E-10         0.00000E+00
    0.69269E-08         0.44981E-10         0.00000E+00
    0.69128E-08         0.45498E-10         0.00000E+00
    0.68989E-08         0.43417E-10         0.00000E+00
    0.68857E-08         0.39370E-10         0.00000E+00
    0.68735E-08         0.33924E-10         0.00000E+00
    0.68625E-08         0.27629E-10         0.00000E+00
    0.68529E-08         0.21031E-10         0.00000E+00
    0.68450E-08         0.14662E-10         0.00000E+00
    0.68388E-08         0.90169E-11         0.00000E+00
    0.68345E-08         0.45171E-11         0.00000E+00
    0.68319E-08         0.14744E-11         0.00000E+00
    0.68310E-08         0.34818E-12         0.00000E+00
    0.70953E-08         0.15526E-10         0.00000E+00
    0.70899E-08         0.26956E-10         0.00000E+00
    0.70787E-08         0.44650E-10         0.00000E+00
    0.70669E-08         0.54097E-10         0.00000E+00
    0.70549E-08         0.58282E-10         0.00000E+00
    0.70431E-08         0.58622E-10         0.00000E+00
    0.70317E-08         0.56011E-10         0.00000E+00
    0.70210E-08         0.51151E-10         0.00000E+00
    0.70112E-08         0.44660E-10         0.00000E+00
    0.70023E-08         0.37122E-10         0.00000E+00
    0.69947E-08         0.29104E-10         0.00000E+00
    0.69883E-08         0.21169E-10         0.00000E+00
    0.69833E-08         0.13863E-10         0.00000E+00
    0.69797E-08         0.76852E-11         0.00000E+00
    0.69777E-08         0.30385E-11         0.00000E+00
    0.69769E-08         0.11411E-11         0.00000E+00
    0.71961E-08         0.21339E-10         0.00000E+00
    0.71904E-08         0.35592E-10         0.00000E+00
    0.71796E-08         0.55908E-10         0.00000E+00
    0.71698E-08         0.65115E-10         0.00000E+00
    0.71606E-08         0.69089E-10         0.00000E+00
    0.71519E-08         0.68971E-10         0.00000E+00
    0.71440E-08         0.65714E-10         0.00000E+00
    0.71367E-08         0.60092E-10         0.00000E+00
    0.71301E-08         0.52759E-10         0.00000E+00
    0.71242E-08         0.44295E-10         0.00000E+00
    0.71190E-08         0.35246E-10         0.00000E+00
    0.71145E-08         0.26160E-10         0.00000E+00
    0.71110E-08         0.17603E-10         0.00000E+00
    0.71085E-08         0.10137E-10         0.00000E+00
    0.71070E-08         0.42658E-11         0.00000E+00
    0.71065E-08         0.17859E-11         0.00000E+00
    0.72706E-08         0.27080E-10         0.00000E+00
    0.72652E-08         0.43611E-10         0.00000E+00
    0.72563E-08         0.65476E-10         0.00000E+00
    0.72492E-08         0.73462E-10         0.00000E+00
    0.72436E-08         0.76508E-10         0.00000E+00
    0.72393E-08         0.75541E-10         0.00000E+00
    0.72358E-08         0.71519E-10         0.00000E+00
    0.72330E-08         0.65254E-10         0.00000E+00
    0.72306E-08         0.57390E-10         0.00000E+00
    0.72284E-08         0.48455E-10         0.00000E+00
    0.72263E-08         0.38916E-10         0.00000E+00
    0.72243E-08         0.29249E-10         0.00000E+00
    0.72226E-08         0.19988E-10         0.00000E+00
    0.72213E-08         0.11735E-10         0.00000E+00
    0.72205E-08         0.51024E-11         0.00000E+00
    0.72201E-08         0.22649E-11         0.00000E+00
    0.73158E-08         0.32222E-10         0.00000E+00
    0.73121E-08         0.50182E-10         0.00000E+00
    0.73068E-08         0.72336E-10         0.00000E+00
    0.73040E-08         0.78152E-10         0.00000E+00
    0.73037E-08         0.79374E-10         0.00000E+00
    0.73052E-08         0.77093E-10         0.00000E+00
    0.73076E-08         0.72265E-10         0.00000E+00
    0.73104E-08         0.65606E-10         0.00000E+00
    0.73131E-08         0.57662E-10         0.00000E+00
    0.73154E-08         0.48850E-10         0.00000E+00
    0.73171E-08         0.39513E-10         0.00000E+00
    0.73181E-08         0.29997E-10         0.00000E+00
    0.73186E-08         0.20738E-10         0.00000E+00
    0.73187E-08         0.12330E-10         0.00000E+00
    0.73187E-08         0.54929E-11         0.00000E+00
    0.73185E-08         0.25611E-11         0.00000E+00
    0.73282E-08         0.34590E-10         0.00000E+00
    0.73277E-08         0.52935E-10         0.00000E+00
    0.73289E-08         0.74113E-10         0.00000E+00
    0.73335E-08         0.77033E-10         0.00000E+00
    0.73411E-08         0.75759E-10         0.00000E+00
    0.73503E-08         0.72052E-10         0.00000E+00
    0.73601E-08         0.66662E-10         0.00000E+00
    0.73696E-08         0.60092E-10         0.00000E+00
    0.73783E-08         0.52696E-10         0.00000E+00
    0.73858E-08         0.44736E-10         0.00000E+00
    0.73919E-08         0.36410E-10         0.00000E+00
    0.73965E-08         0.27911E-10         0.00000E+00
    0.73996E-08         0.19524E-10         0.00000E+00
    0.74015E-08         0.11753E-10         0.00000E+00
    0.74024E-08         0.53862E-11         0.00000E+00
    0.74024E-08         0.26714E-11         0.00000E+00
    0.73046E-08         0.33491E-10         0.00000E+00
    0.73088E-08         0.50007E-10         0.00000E+00
    0.73211E-08         0.67227E-10         0.00000E+00
    0.73379E-08         0.66503E-10         0.00000E+00
    0.73567E-08         0.63036E-10         0.00000E+00
    0.73758E-08         0.58563E-10         0.00000E+00
    0.73943E-08         0.53402E-10         0.00000E+00
    0.74115E-08         0.47743E-10         0.00000E+00
    0.74270E-08         0.41729E-10         0.00000E+00
    0.74403E-08         0.35465E-10         0.00000E+00
    0.74514E-08         0.29024E-10         0.00000E+00
    0.74600E-08         0.22474E-10         0.00000E+00
    0.74662E-08         0.15930E-10         0.00000E+00
    0.74702E-08         0.97687E-11         0.00000E+00
    0.74723E-08         0.47291E-11         0.00000E+00
    0.74724E-08         0.26025E-11         0.00000E+00
    0.72351E-08         0.26725E-10         0.00000E+00
    0.72522E-08         0.37173E-10         0.00000E+00
    0.72859E-08         0.45803E-10         0.00000E+00
    0.73203E-08         0.42048E-10         0.00000E+00
    0.73532E-08         0.38377E-10         0.00000E+00
    0.73839E-08         0.34894E-10         0.00000E+00
    0.74122E-08         0.31379E-10         0.00000E+00
    0.74377E-08         0.27823E-10         0.00000E+00
    0.74603E-08         0.24228E-10         0.00000E+00
    0.74798E-08         0.20597E-10         0.00000E+00
    0.74960E-08         0.16931E-10         0.00000E+00
    0.75090E-08         0.13233E-10         0.00000E+00
    0.75187E-08         0.95191E-11         0.00000E+00
    0.75252E-08         0.59127E-11         0.00000E+00
    0.75288E-08         0.34035E-11         0.00000E+00
    0.75301E-08         0.26439E-11         0.00000E+00
    0.71869E-08         0.00000E+00         0.00000E+00
    0.72140E-08         0.00000E+00         0.00000E+00
    0.72622E-08        -0.20710E-22         0.00000E+00
    0.73066E-08         0.10079E-26         0.00000E+00
    0.73470E-08         0.24854E-22         0.00000E+00
    0.73839E-08         0.00000E+00         0.00000E+00
    0.74173E-08         0.00000E+00         0.00000E+00
    0.74471E-08        -0.20714E-22         0.00000E+00
    0.74733E-08        -0.20714E-22         0.00000E+00
    0.74959E-08         0.20715E-22         0.00000E+00
    0.75148E-08         0.24858E-22         0.00000E+00
    0.75300E-08        -0.24858E-22         0.00000E+00
    0.75414E-08        -0.41428E-23         0.00000E+00
    0.75492E-08         0.24859E-22         0.00000E+00
    0.75535E-08         0.82864E-23         0.00000E+00
    0.75563E-08         0.00000E+00         0.00000E+00
CELL_DATA        450
TENSORS stressef double 
   -0.48340E+07         0.28136E+04         0.00000E+00
    0.28136E+04        -0.29578E+08         0.00000E+00
    0.00000E+00         0.00000E+00        -0.89689E+07
 
   -0.48305E+07         0.90534E+04         0.00000E+00
    0.90534E+04        -0.29571E+08         0.00000E+00
    0.00000E+00         0.00000E+00        -0.89624E+07
 
   -0.48397E+07         0.15503E+05         0.00000E+00
    0.15503E+05        -0.29555E+08         0.00000E+00
    0.00000E+00         0.00000E+00        -0.89215E+07
 
   -0.48683E+07         0.21757E+05         0.00000E+00
    0.21757E+05        -0.29529E+08         0.00000E+00
    0.00000E+00         0.00000E+00        -0.88360E+07
 
   -0.49230E+07         0.27337E+05         0.00000E+00
    0.27337E+05        -0.29494E+08         0.00000E+00
    0.00000E+00         0.00000E+00        -0.86981E+07
 
   -0.50070E+07         0.31939E+05         0.00000E+00
    0.31939E+05        -0.29452E+08         0.00000E+00
    0.00000E+00         0.00000E+00        -0.85085E+07
 
   -0.51193E+07         0.35640E+05         0.00000E+00
    0.35640E+05        -0.29404E+08         0.00000E+00
    0.00000E+00         0.00000E+00        -0.82751E+07
 
   -0.52544E+07         0.38407E+05         0.00000E+00
    0.38407E+05        -0.29352E+08         0.00000E+00
    0.00000E+00         0.00000E+00        -0.80122E+07
 
   -0.54034E+07         0.40136E+05         0.00000E+00
    0.40136E+05        -0.29298E+08         0.00000E+00
    0.00000E+00         0.00000E+00        -0.77373E+07
 
   -0.55559E+07         0.40654E+05         0.00000E+00
    0.40654E+05        -0.29244E+08         0.00000E+00
    0.00000E+00         0.00000E+00        -0.74681E+07
 
   -0.57024E+07         0.39754E+05         0.00000E+00
    0.39754E+05        -0.29193E+08         0.00000E+00
    0.00000E+00         0.00000E+00        -0.72188E+07
 
   -0.58668E+07         0.39578E+05         0.00000E+00
    0.39578E+05        -0.29142E+08         0.00000E+00
    0.00000E+00         0.00000E+00        -0.70233E+07
 
   -0.62558E+07         0.46768E+05         0.00000E+00
    0.46768E+05        -0.29081E+08         0.00000E+00
    0.00000E+00         0.00000E+00        -0.70674E+07
 
   -0.66442E+07         0.58137E+05         0.00000E+00
    0.58137E+05        -0.28995E+08         0.00000E+00
    0.00000E+00         0.00000E+00        -0.71278E+07
 
   -0.70169E+07         0.72935E+05         0.00000E+00
    0.72935E+05        -0.28873E+08         0.00000E+00
    0.00000E+00         0.00000E+00        -0.71781E+07
 
   -0.48791E+07         0.84427E+04         0.00000E+00
    0.84427E+04        -0.29635E+08         0.00000E+00
    0.00000E+00         0.00000E+00        -0.89944E+07
 
   -0.48748E+07         0.27118E+05         0.00000E+00
    0.27118E+05        -0.29628E+08         0.00000E+00
    0.00000E+00         0.00000E+00        -0.89892E+07
 
   -0.48841E+07         0.46311E+05         0.00000E+00
    0.46311E+05        -0.29612E+08         0.00000E+00
    0.00000E+00         0.00000E+00        -0.89490E+07
 
   -0.49136E+07         0.64738E+05         0.00000E+00
    0.64738E+05        -0.29587E+08         0.00000E+00
    0.00000E+00         0.00000E+00        -0.88637E+07
 
   -0.49702E+07         0.80959E+05         0.00000E+00
    0.80959E+05        -0.29554E+08         0.00000E+00
    0.00000E+00         0.00000E+00        -0.87262E+07
 
   -0.50563E+07         0.94204E+05         0.00000E+00
    0.94204E+05        -0.29515E+08         0.00000E+00
    0.00000E+00         0.00000E+00        -0.85387E+07
 
   -0.51706E+07         0.10486E+06         0.00000E+00
    0.10486E+06        -0.29471E+08         0.00000E+00
    0.00000E+00         0.00000E+00        -0.83089E+07
 
   -0.53077E+07         0.11302E+06         0.00000E+00
    0.11302E+06        -0.29423E+08         0.00000E+00
    0.00000E+00         0.00000E+00        -0.80506E+07
 
   -0.54587E+07         0.11855E+06         0.00000E+00
    0.11855E+06        -0.29373E+08         0.00000E+00
    0.00000E+00         0.00000E+00        -0.77797E+07
 
   -0.56133E+07         0.12093E+06         0.00000E+00
    0.12093E+06        -0.29322E+08         0.00000E+00
    0.00000E+00         0.00000E+00        -0.75124E+07
 
   -0.57620E+07         0.11965E+06         0.00000E+00
    0.11965E+06        -0.29271E+08         0.00000E+00
    0.00000E+00         0.00000E+00        -0.72620E+07
 
   -0.59165E+07         0.11890E+06         0.00000E+00
    0.11890E+06        -0.29220E+08         0.00000E+00
    0.00000E+00         0.00000E+00        -0.70546E+07
 
   -0.62932E+07         0.13894E+06         0.00000E+00
    0.13894E+06        -0.29159E+08         0.00000E+00
    0.00000E+00         0.00000E+00        -0.70905E+07
 
   -0.66742E+07         0.17354E+06         0.00000E+00
    0.17354E+06        -0.29075E+08         0.00000E+00
    0.00000E+00         0.00000E+00        -0.71497E+07
 
   -0.70407E+07         0.21761E+06         0.00000E+00
    0.21761E+06        -0.28955E+08         0.00000E+00
    0.00000E+00         0.00000E+00        -0.71992E+07
 
   -0.49691E+07         0.14088E+05         0.00000E+00
    0.14088E+05        -0.29749E+08         0.00000E+00
    0.00000E+00         0.00000E+00        -0.90453E+07
 
   -0.49635E+07         0.44988E+05         0.00000E+00
    0.44988E+05        -0.29742E+08         0.00000E+00
    0.00000E+00         0.00000E+00        -0.90426E+07
 
   -0.49730E+07         0.76450E+05         0.00000E+00
    0.76450E+05        -0.29727E+08         0.00000E+00
    0.00000E+00         0.00000E+00        -0.90035E+07
 
   -0.50048E+07         0.10600E+06         0.00000E+00
    0.10600E+06        -0.29703E+08         0.00000E+00
    0.00000E+00         0.00000E+00        -0.89185E+07
 
   -0.50656E+07         0.13138E+06         0.00000E+00
    0.13138E+06        -0.29674E+08         0.00000E+00
    0.00000E+00         0.00000E+00        -0.87818E+07
 
   -0.51556E+07         0.15187E+06         0.00000E+00
    0.15187E+06        -0.29640E+08         0.00000E+00
    0.00000E+00         0.00000E+00        -0.85981E+07
 
   -0.52735E+07         0.16828E+06         0.00000E+00
    0.16828E+06        -0.29603E+08         0.00000E+00
    0.00000E+00         0.00000E+00        -0.83754E+07
 
   -0.54138E+07         0.18137E+06         0.00000E+00
    0.18137E+06        -0.29563E+08         0.00000E+00
    0.00000E+00         0.00000E+00        -0.81259E+07
 
   -0.55679E+07         0.19151E+06         0.00000E+00
    0.19151E+06        -0.29520E+08         0.00000E+00
    0.00000E+00         0.00000E+00        -0.78633E+07
 
   -0.57261E+07         0.19796E+06         0.00000E+00
    0.19796E+06        -0.29475E+08         0.00000E+00
    0.00000E+00         0.00000E+00        -0.76009E+07
 
   -0.58787E+07         0.19925E+06         0.00000E+00
    0.19925E+06        -0.29426E+08         0.00000E+00
    0.00000E+00         0.00000E+00        -0.73498E+07
 
   -0.60204E+07         0.19894E+06         0.00000E+00
    0.19894E+06        -0.29375E+08         0.00000E+00
    0.00000E+00         0.00000E+00        -0.71251E+07
 
   -0.63662E+07         0.22851E+06         0.00000E+00
    0.22851E+06        -0.29314E+08         0.00000E+00
    0.00000E+00         0.00000E+00        -0.71360E+07
 
   -0.67344E+07         0.28616E+06         0.00000E+00
    0.28616E+06        -0.29232E+08         0.00000E+00
    0.00000E+00         0.00000E+00        -0.71933E+07
 
   -0.70887E+07         0.35828E+06         0.00000E+00
    0.35828E+06        -0.29118E+08         0.00000E+00
    0.00000E+00         0.00000E+00        -0.72414E+07
 
   -0.51039E+07         0.19724E+05         0.00000E+00
    0.19724E+05        -0.29920E+08         0.00000E+00
    0.00000E+00         0.00000E+00        -0.91218E+07
 
   -0.50966E+07         0.62413E+05         0.00000E+00
    0.62413E+05        -0.29913E+08         0.00000E+00
    0.00000E+00         0.00000E+00        -0.91223E+07
 
   -0.51073E+07         0.10509E+06         0.00000E+00
    0.10509E+06        -0.29899E+08         0.00000E+00
    0.00000E+00         0.00000E+00        -0.90845E+07
 
   -0.51437E+07         0.14407E+06         0.00000E+00
    0.14407E+06        -0.29879E+08         0.00000E+00
    0.00000E+00         0.00000E+00        -0.89990E+07
 
   -0.52102E+07         0.17650E+06         0.00000E+00
    0.17650E+06        -0.29855E+08         0.00000E+00
    0.00000E+00         0.00000E+00        -0.88640E+07
 
   -0.53063E+07         0.20243E+06         0.00000E+00
    0.20243E+06        -0.29829E+08         0.00000E+00
    0.00000E+00         0.00000E+00        -0.86855E+07
 
   -0.54286E+07         0.22316E+06         0.00000E+00
    0.22316E+06        -0.29800E+08         0.00000E+00
    0.00000E+00         0.00000E+00        -0.84726E+07
 
   -0.55720E+07         0.24054E+06         0.00000E+00
    0.24054E+06        -0.29770E+08         0.00000E+00
    0.00000E+00         0.00000E+00        -0.82356E+07
 
   -0.57289E+07         0.25587E+06         0.00000E+00
    0.25587E+06        -0.29737E+08         0.00000E+00
    0.00000E+00         0.00000E+00        -0.79860E+07
 
   -0.58905E+07         0.26904E+06         0.00000E+00
    0.26904E+06        -0.29700E+08         0.00000E+00
    0.00000E+00         0.00000E+00        -0.77331E+07
 
   -0.60475E+07         0.27803E+06         0.00000E+00
    0.27803E+06        -0.29656E+08         0.00000E+00
    0.00000E+00         0.00000E+00        -0.74848E+07
 
   -0.61869E+07         0.28058E+06         0.00000E+00
    0.28058E+06        -0.29602E+08         0.00000E+00
    0.00000E+00         0.00000E+00        -0.72510E+07
 
   -0.64713E+07         0.31462E+06         0.00000E+00
    0.31462E+06        -0.29542E+08         0.00000E+00
    0.00000E+00         0.00000E+00        -0.72026E+07
 
   -0.68269E+07         0.39223E+06         0.00000E+00
    0.39223E+06        -0.29467E+08         0.00000E+00
    0.00000E+00         0.00000E+00        -0.72587E+07
 
   -0.71610E+07         0.49157E+06         0.00000E+00
    0.49157E+06        -0.29361E+08         0.00000E+00
    0.00000E+00         0.00000E+00        -0.73044E+07
 
   -0.52835E+07         0.25226E+05         0.00000E+00
    0.25226E+05        -0.30146E+08         0.00000E+00
    0.00000E+00         0.00000E+00        -0.92236E+07
 
   -0.52748E+07         0.78917E+05         0.00000E+00
    0.78917E+05        -0.30140E+08         0.00000E+00
    0.00000E+00         0.00000E+00        -0.92278E+07
 
   -0.52881E+07         0.13112E+06         0.00000E+00
    0.13112E+06        -0.30129E+08         0.00000E+00
    0.00000E+00         0.00000E+00        -0.91905E+07
 
   -0.53316E+07         0.17709E+06         0.00000E+00
    0.17709E+06        -0.30114E+08         0.00000E+00
    0.00000E+00         0.00000E+00        -0.91038E+07
 
   -0.54060E+07         0.21438E+06         0.00000E+00
    0.21438E+06        -0.30097E+08         0.00000E+00
    0.00000E+00         0.00000E+00        -0.89710E+07
 
   -0.55092E+07         0.24387E+06         0.00000E+00
    0.24387E+06        -0.30080E+08         0.00000E+00
    0.00000E+00         0.00000E+00        -0.87994E+07
 
   -0.56361E+07         0.26786E+06         0.00000E+00
    0.26786E+06        -0.30062E+08         0.00000E+00
    0.00000E+00         0.00000E+00        -0.85988E+07
 
   -0.57819E+07         0.28917E+06         0.00000E+00
    0.28917E+06        -0.30043E+08         0.00000E+00
    0.00000E+00         0.00000E+00        -0.83773E+07
 
   -0.59396E+07         0.30983E+06         0.00000E+00
    0.30983E+06        -0.30020E+08         0.00000E+00
    0.00000E+00         0.00000E+00        -0.81442E+07
 
   -0.61022E+07         0.33091E+06         0.00000E+00
    0.33091E+06        -0.29993E+08         0.00000E+00
    0.00000E+00         0.00000E+00        -0.79064E+07
 
   -0.62628E+07         0.35124E+06         0.00000E+00
    0.35124E+06        -0.29958E+08         0.00000E+00
    0.00000E+00         0.00000E+00        -0.76683E+07
 
   -0.64129E+07         0.36456E+06         0.00000E+00
    0.36456E+06        -0.29910E+08         0.00000E+00
    0.00000E+00         0.00000E+00        -0.74327E+07
 
   -0.66176E+07         0.39745E+06         0.00000E+00
    0.39745E+06        -0.29849E+08         0.00000E+00
    0.00000E+00         0.00000E+00        -0.72963E+07
 
   -0.69528E+07         0.48853E+06         0.00000E+00
    0.48853E+06        -0.29778E+08         0.00000E+00
    0.00000E+00         0.00000E+00        -0.73461E+07
 
   -0.72569E+07         0.61470E+06         0.00000E+00
    0.61470E+06        -0.29682E+08         0.00000E+00
    0.00000E+00         0.00000E+00        -0.73879E+07
 
   -0.55080E+07         0.30403E+05         0.00000E+00
    0.30403E+05        -0.30429E+08         0.00000E+00
    0.00000E+00         0.00000E+00        -0.93502E+07
 
   -0.54986E+07         0.93665E+05         0.00000E+00
    0.93665E+05        -0.30424E+08         0.00000E+00
    0.00000E+00         0.00000E+00        -0.93576E+07
 
   -0.55177E+07         0.15306E+06         0.00000E+00
    0.15306E+06        -0.30417E+08         0.00000E+00
    0.00000E+00         0.00000E+00        -0.93188E+07
 
   -0.55701E+07         0.20322E+06         0.00000E+00
    0.20322E+06        -0.30408E+08         0.00000E+00
    0.00000E+00         0.00000E+00        -0.92313E+07
 
   -0.56544E+07         0.24304E+06         0.00000E+00
    0.24304E+06        -0.30401E+08         0.00000E+00
    0.00000E+00         0.00000E+00        -0.91010E+07
 
   -0.57648E+07         0.27477E+06         0.00000E+00
    0.27477E+06        -0.30395E+08         0.00000E+00
    0.00000E+00         0.00000E+00        -0.89387E+07
 
   -0.58955E+07         0.30172E+06         0.00000E+00
    0.30172E+06        -0.30388E+08         0.00000E+00
    0.00000E+00         0.00000E+00        -0.87527E+07
 
   -0.60423E+07         0.32706E+06         0.00000E+00
    0.32706E+06        -0.30379E+08         0.00000E+00
    0.00000E+00         0.00000E+00        -0.85490E+07
 
   -0.61989E+07         0.35321E+06         0.00000E+00
    0.35321E+06        -0.30367E+08         0.00000E+00
    0.00000E+00         0.00000E+00        -0.83348E+07
 
   -0.63596E+07         0.38169E+06         0.00000E+00
    0.38169E+06        -0.30349E+08         0.00000E+00
    0.00000E+00         0.00000E+00        -0.81157E+07
 
   -0.65202E+07         0.41243E+06         0.00000E+00
    0.41243E+06        -0.30323E+08         0.00000E+00
    0.00000E+00         0.00000E+00        -0.78938E+07
 
   -0.66781E+07         0.44334E+06         0.00000E+00
    0.44334E+06        -0.30286E+08         0.00000E+00
    0.00000E+00         0.00000E+00        -0.76666E+07
 
   -0.68298E+07         0.48170E+06         0.00000E+00
    0.48170E+06        -0.30232E+08         0.00000E+00
    0.00000E+00         0.00000E+00        -0.74595E+07
 
   -0.71099E+07         0.57553E+06         0.00000E+00
    0.57553E+06        -0.30158E+08         0.00000E+00
    0.00000E+00         0.00000E+00        -0.74537E+07
 
   -0.73785E+07         0.72344E+06         0.00000E+00
    0.72344E+06        -0.30078E+08         0.00000E+00
    0.00000E+00         0.00000E+00        -0.74913E+07
 
   -0.57776E+07         0.34924E+05         0.00000E+00
    0.34924E+05        -0.30767E+08         0.00000E+00
    0.00000E+00         0.00000E+00        -0.95005E+07
 
   -0.57699E+07         0.10567E+06         0.00000E+00
    0.10567E+06        -0.30764E+08         0.00000E+00
    0.00000E+00         0.00000E+00        -0.95091E+07
 
   -0.57974E+07         0.16903E+06         0.00000E+00
    0.16903E+06        -0.30762E+08         0.00000E+00
    0.00000E+00         0.00000E+00        -0.94675E+07
 
   -0.58618E+07         0.22041E+06         0.00000E+00
    0.22041E+06        -0.30762E+08         0.00000E+00
    0.00000E+00         0.00000E+00        -0.93781E+07
 
   -0.59562E+07         0.26092E+06         0.00000E+00
    0.26092E+06        -0.30766E+08         0.00000E+00
    0.00000E+00         0.00000E+00        -0.92528E+07
 
   -0.60724E+07         0.29439E+06         0.00000E+00
    0.29439E+06        -0.30770E+08         0.00000E+00
    0.00000E+00         0.00000E+00        -0.91028E+07
 
   -0.62058E+07         0.32453E+06         0.00000E+00
    0.32453E+06        -0.30775E+08         0.00000E+00
    0.00000E+00         0.00000E+00        -0.89337E+07
 
   -0.63521E+07         0.35449E+06         0.00000E+00
    0.35449E+06        -0.30776E+08         0.00000E+00
    0.00000E+00         0.00000E+00        -0.87495E+07
 
   -0.65058E+07         0.38670E+06         0.00000E+00
    0.38670E+06        -0.30773E+08         0.00000E+00
    0.00000E+00         0.00000E+00        -0.85559E+07
 
   -0.66625E+07         0.42264E+06         0.00000E+00
    0.42264E+06        -0.30764E+08         0.00000E+00
    0.00000E+00         0.00000E+00        -0.83564E+07
 
   -0.68185E+07         0.46317E+06         0.00000E+00
    0.46317E+06        -0.30745E+08         0.00000E+00
    0.00000E+00         0.00000E+00        -0.81525E+07
 
   -0.69712E+07         0.50967E+06         0.00000E+00
    0.50967E+06        -0.30715E+08         0.00000E+00
    0.00000E+00         0.00000E+00        -0.79430E+07
 
   -0.71199E+07         0.56369E+06         0.00000E+00
    0.56369E+06        -0.30670E+08         0.00000E+00
    0.00000E+00         0.00000E+00        -0.77278E+07
 
   -0.72966E+07         0.65316E+06         0.00000E+00
    0.65316E+06        -0.30618E+08         0.00000E+00
    0.00000E+00         0.00000E+00        -0.75933E+07
 
   -0.75313E+07         0.81007E+06         0.00000E+00
    0.81007E+06        -0.30544E+08         0.00000E+00
    0.00000E+00         0.00000E+00        -0.76151E+07
 
   -0.60934E+07         0.38416E+05         0.00000E+00
    0.38416E+05        -0.31159E+08         0.00000E+00
    0.00000E+00         0.00000E+00        -0.96726E+07
 
   -0.60904E+07         0.11348E+06         0.00000E+00
    0.11348E+06        -0.31159E+08         0.00000E+00
    0.00000E+00         0.00000E+00        -0.96794E+07
 
   -0.61306E+07         0.17703E+06         0.00000E+00
    0.17703E+06        -0.31164E+08         0.00000E+00
    0.00000E+00         0.00000E+00        -0.96320E+07
 
   -0.62079E+07         0.22690E+06         0.00000E+00
    0.22690E+06        -0.31175E+08         0.00000E+00
    0.00000E+00         0.00000E+00        -0.95421E+07
 
   -0.63105E+07         0.26725E+06         0.00000E+00
    0.26725E+06        -0.31189E+08         0.00000E+00
    0.00000E+00         0.00000E+00        -0.94256E+07
 
   -0.64311E+07         0.30248E+06         0.00000E+00
    0.30248E+06        -0.31205E+08         0.00000E+00
    0.00000E+00         0.00000E+00        -0.92905E+07
 
   -0.65651E+07         0.33629E+06         0.00000E+00
    0.33629E+06        -0.31221E+08         0.00000E+00
    0.00000E+00         0.00000E+00        -0.91406E+07
 
   -0.67090E+07         0.37179E+06         0.00000E+00
    0.37179E+06        -0.31233E+08         0.00000E+00
    0.00000E+00         0.00000E+00        -0.89781E+07
 
   -0.68583E+07         0.41125E+06         0.00000E+00
    0.41125E+06        -0.31238E+08         0.00000E+00
    0.00000E+00         0.00000E+00        -0.88061E+07
 
   -0.70089E+07         0.45609E+06         0.00000E+00
    0.45609E+06        -0.31236E+08         0.00000E+00
    0.00000E+00         0.00000E+00        -0.86267E+07
 
   -0.71575E+07         0.50729E+06         0.00000E+00
    0.50729E+06        -0.31222E+08         0.00000E+00
    0.00000E+00         0.00000E+00        -0.84413E+07
 
   -0.73014E+07         0.56544E+06         0.00000E+00
    0.56544E+06        -0.31196E+08         0.00000E+00
    0.00000E+00         0.00000E+00        -0.82503E+07
 
   -0.74406E+07         0.63239E+06         0.00000E+00
    0.63239E+06        -0.31155E+08         0.00000E+00
    0.00000E+00         0.00000E+00        -0.80524E+07
 
   -0.75724E+07         0.72276E+06         0.00000E+00
    0.72276E+06        -0.31107E+08         0.00000E+00
    0.00000E+00         0.00000E+00        -0.78619E+07
 
   -0.77056E+07         0.86684E+06         0.00000E+00
    0.86684E+06        -0.31067E+08         0.00000E+00
    0.00000E+00         0.00000E+00        -0.77737E+07
 
   -0.64568E+07         0.40271E+05         0.00000E+00
    0.40271E+05        -0.31604E+08         0.00000E+00
    0.00000E+00         0.00000E+00        -0.98634E+07
 
   -0.64635E+07         0.11544E+06         0.00000E+00
    0.11544E+06        -0.31610E+08         0.00000E+00
    0.00000E+00         0.00000E+00        -0.98640E+07
 
   -0.65195E+07         0.17509E+06         0.00000E+00
    0.17509E+06        -0.31623E+08         0.00000E+00
    0.00000E+00         0.00000E+00        -0.98090E+07
 
   -0.66079E+07         0.22203E+06         0.00000E+00
    0.22203E+06        -0.31644E+08         0.00000E+00
    0.00000E+00         0.00000E+00        -0.97222E+07
 
   -0.67167E+07         0.26181E+06         0.00000E+00
    0.26181E+06        -0.31670E+08         0.00000E+00
    0.00000E+00         0.00000E+00        -0.96175E+07
 
   -0.68391E+07         0.29900E+06         0.00000E+00
    0.29900E+06        -0.31697E+08         0.00000E+00
    0.00000E+00         0.00000E+00        -0.95005E+07
 
   -0.69714E+07         0.33712E+06         0.00000E+00
    0.33712E+06        -0.31723E+08         0.00000E+00
    0.00000E+00         0.00000E+00        -0.93724E+07
 
   -0.71106E+07         0.37923E+06         0.00000E+00
    0.37923E+06        -0.31744E+08         0.00000E+00
    0.00000E+00         0.00000E+00        -0.92335E+07
 
   -0.72532E+07         0.42747E+06         0.00000E+00
    0.42747E+06        -0.31758E+08         0.00000E+00
    0.00000E+00         0.00000E+00        -0.90849E+07
 
   -0.73959E+07         0.48306E+06         0.00000E+00
    0.48306E+06        -0.31762E+08         0.00000E+00
    0.00000E+00         0.00000E+00        -0.89272E+07
 
   -0.75357E+07         0.54650E+06         0.00000E+00
    0.54650E+06        -0.31753E+08         0.00000E+00
    0.00000E+00         0.00000E+00        -0.87610E+07
 
   -0.76699E+07         0.61795E+06         0.00000E+00
    0.61795E+06        -0.31728E+08         0.00000E+00
    0.00000E+00         0.00000E+00        -0.85868E+07
 
   -0.77947E+07         0.69877E+06         0.00000E+00
    0.69877E+06        -0.31687E+08         0.00000E+00
    0.00000E+00         0.00000E+00        -0.84059E+07
 
   -0.79059E+07         0.79290E+06         0.00000E+00
    0.79290E+06        -0.31629E+08         0.00000E+00
    0.00000E+00         0.00000E+00        -0.82267E+07
 
   -0.79924E+07         0.90869E+06         0.00000E+00
    0.90869E+06        -0.31573E+08         0.00000E+00
    0.00000E+00         0.00000E+00        -0.80832E+07
 
   -0.68705E+07         0.39680E+05         0.00000E+00
    0.39680E+05        -0.32102E+08         0.00000E+00
    0.00000E+00         0.00000E+00        -0.10070E+08
 
   -0.68935E+07         0.10959E+06         0.00000E+00
    0.10959E+06        -0.32113E+08         0.00000E+00
    0.00000E+00         0.00000E+00        -0.10056E+08
 
   -0.69647E+07         0.16267E+06         0.00000E+00
    0.16267E+06        -0.32135E+08         0.00000E+00
    0.00000E+00         0.00000E+00        -0.99956E+07
 
   -0.70616E+07         0.20573E+06         0.00000E+00
    0.20573E+06        -0.32167E+08         0.00000E+00
    0.00000E+00         0.00000E+00        -0.99161E+07
 
   -0.71733E+07         0.24471E+06         0.00000E+00
    0.24471E+06        -0.32203E+08         0.00000E+00
    0.00000E+00         0.00000E+00        -0.98272E+07
 
   -0.72946E+07         0.28401E+06         0.00000E+00
    0.28401E+06        -0.32242E+08         0.00000E+00
    0.00000E+00         0.00000E+00        -0.97313E+07
 
   -0.74224E+07         0.32715E+06         0.00000E+00
    0.32715E+06        -0.32278E+08         0.00000E+00
    0.00000E+00         0.00000E+00        -0.96277E+07
 
   -0.75542E+07         0.37698E+06         0.00000E+00
    0.37698E+06        -0.32309E+08         0.00000E+00
    0.00000E+00         0.00000E+00        -0.95150E+07
 
   -0.76876E+07         0.43547E+06         0.00000E+00
    0.43547E+06        -0.32331E+08         0.00000E+00
    0.00000E+00         0.00000E+00        -0.93921E+07
 
   -0.78202E+07         0.50353E+06         0.00000E+00
    0.50353E+06        -0.32340E+08         0.00000E+00
    0.00000E+00         0.00000E+00        -0.92583E+07
 
   -0.79496E+07         0.58124E+06         0.00000E+00
    0.58124E+06        -0.32335E+08         0.00000E+00
    0.00000E+00         0.00000E+00        -0.91132E+07
 
   -0.80727E+07         0.66840E+06         0.00000E+00
    0.66840E+06        -0.32313E+08         0.00000E+00
    0.00000E+00         0.00000E+00        -0.89575E+07
 
   -0.81861E+07         0.76424E+06         0.00000E+00
    0.76424E+06        -0.32272E+08         0.00000E+00
    0.00000E+00         0.00000E+00        -0.87940E+07
 
   -0.82857E+07         0.86721E+06         0.00000E+00
    0.86721E+06        -0.32215E+08         0.00000E+00
    0.00000E+00         0.00000E+00        -0.86290E+07
 
   -0.83678E+07         0.97392E+06         0.00000E+00
    0.97392E+06        -0.32148E+08         0.00000E+00
    0.00000E+00         0.00000E+00        -0.84757E+07
 
   -0.73391E+07         0.35558E+05         0.00000E+00
    0.35558E+05        -0.32651E+08         0.00000E+00
    0.00000E+00         0.00000E+00        -0.10282E+08
 
   -0.73827E+07         0.95180E+05         0.00000E+00
    0.95180E+05        -0.32668E+08         0.00000E+00
    0.00000E+00         0.00000E+00        -0.10251E+08
 
   -0.74660E+07         0.13986E+06         0.00000E+00
    0.13986E+06        -0.32699E+08         0.00000E+00
    0.00000E+00         0.00000E+00        -0.10190E+08
 
   -0.75675E+07         0.17826E+06         0.00000E+00
    0.17826E+06        -0.32740E+08         0.00000E+00
    0.00000E+00         0.00000E+00        -0.10122E+08
 
   -0.76788E+07         0.21610E+06         0.00000E+00
    0.21610E+06        -0.32787E+08         0.00000E+00
    0.00000E+00         0.00000E+00        -0.10053E+08
 
   -0.77956E+07         0.25766E+06         0.00000E+00
    0.25766E+06        -0.32836E+08         0.00000E+00
    0.00000E+00         0.00000E+00        -0.99814E+07
 
   -0.79155E+07         0.30641E+06         0.00000E+00
    0.30641E+06        -0.32882E+08         0.00000E+00
    0.00000E+00         0.00000E+00        -0.99053E+07
 
   -0.80369E+07         0.36499E+06         0.00000E+00
    0.36499E+06        -0.32922E+08         0.00000E+00
    0.00000E+00         0.00000E+00        -0.98214E+07
 
   -0.81584E+07         0.43499E+06         0.00000E+00
    0.43499E+06        -0.32952E+08         0.00000E+00
    0.00000E+00         0.00000E+00        -0.97269E+07
 
   -0.82786E+07         0.51696E+06         0.00000E+00
    0.51696E+06        -0.32968E+08         0.00000E+00
    0.00000E+00         0.00000E+00        -0.96196E+07
 
   -0.83957E+07         0.61047E+06         0.00000E+00
    0.61047E+06        -0.32968E+08         0.00000E+00
    0.00000E+00         0.00000E+00        -0.94986E+07
 
   -0.85078E+07         0.71401E+06         0.00000E+00
    0.71401E+06        -0.32950E+08         0.00000E+00
    0.00000E+00         0.00000E+00        -0.93641E+07
 
   -0.86126E+07         0.82488E+06         0.00000E+00
    0.82488E+06        -0.32913E+08         0.00000E+00
    0.00000E+00         0.00000E+00        -0.92187E+07
 
   -0.87081E+07         0.93877E+06         0.00000E+00
    0.93877E+06        -0.32859E+08         0.00000E+00
    0.00000E+00         0.00000E+00        -0.90656E+07
 
   -0.87919E+07         0.10513E+07         0.00000E+00
    0.10513E+07        -0.32789E+08         0.00000E+00
    0.00000E+00         0.00000E+00        -0.89092E+07
 
   -0.78684E+07         0.27305E+05         0.00000E+00
    0.27305E+05        -0.33248E+08         0.00000E+00
    0.00000E+00         0.00000E+00        -0.10494E+08
 
   -0.79317E+07         0.72525E+05         0.00000E+00
    0.72525E+05        -0.33270E+08         0.00000E+00
    0.00000E+00         0.00000E+00        -0.10447E+08
 
   -0.80226E+07         0.10723E+06         0.00000E+00
    0.10723E+06        -0.33309E+08         0.00000E+00
    0.00000E+00         0.00000E+00        -0.10391E+08
 
   -0.81247E+07         0.13988E+06         0.00000E+00
    0.13988E+06        -0.33360E+08         0.00000E+00
    0.00000E+00         0.00000E+00        -0.10339E+08
 
   -0.82316E+07         0.17611E+06         0.00000E+00
    0.17611E+06        -0.33417E+08         0.00000E+00
    0.00000E+00         0.00000E+00        -0.10293E+08
 
   -0.83400E+07         0.22003E+06         0.00000E+00
    0.22003E+06        -0.33476E+08         0.00000E+00
    0.00000E+00         0.00000E+00        -0.10250E+08
 
   -0.84484E+07         0.27492E+06         0.00000E+00
    0.27492E+06        -0.33532E+08         0.00000E+00
    0.00000E+00         0.00000E+00        -0.10204E+08
 
   -0.85561E+07         0.34307E+06         0.00000E+00
    0.34307E+06        -0.33581E+08         0.00000E+00
    0.00000E+00         0.00000E+00        -0.10151E+08
 
   -0.86628E+07         0.42558E+06         0.00000E+00
    0.42558E+06        -0.33619E+08         0.00000E+00
    0.00000E+00         0.00000E+00        -0.10088E+08
 
   -0.87683E+07         0.52243E+06         0.00000E+00
    0.52243E+06        -0.33642E+08         0.00000E+00
    0.00000E+00         0.00000E+00        -0.10010E+08
 
   -0.88721E+07         0.63230E+06         0.00000E+00
    0.63230E+06        -0.33648E+08         0.00000E+00
    0.00000E+00         0.00000E+00        -0.99155E+07
 
   -0.89736E+07         0.75252E+06         0.00000E+00
    0.75252E+06        -0.33635E+08         0.00000E+00
    0.00000E+00         0.00000E+00        -0.98041E+07
 
   -0.90720E+07         0.87902E+06         0.00000E+00
    0.87902E+06        -0.33604E+08         0.00000E+00
    0.00000E+00         0.00000E+00        -0.96764E+07
 
   -0.91660E+07         0.10072E+07         0.00000E+00
    0.10072E+07        -0.33553E+08         0.00000E+00
    0.00000E+00         0.00000E+00        -0.95334E+07
 
   -0.92534E+07         0.11325E+07         0.00000E+00
    0.11325E+07        -0.33483E+08         0.00000E+00
    0.00000E+00         0.00000E+00        -0.93769E+07
 
   -0.84635E+07         0.15305E+05         0.00000E+00
    0.15305E+05        -0.33890E+08         0.00000E+00
    0.00000E+00         0.00000E+00        -0.10697E+08
 
   -0.85409E+07         0.42627E+05         0.00000E+00
    0.42627E+05        -0.33918E+08         0.00000E+00
    0.00000E+00         0.00000E+00        -0.10642E+08
 
   -0.86343E+07         0.65225E+05         0.00000E+00
    0.65225E+05        -0.33964E+08         0.00000E+00
    0.00000E+00         0.00000E+00        -0.10597E+08
 
   -0.87322E+07         0.90880E+05         0.00000E+00
    0.90880E+05        -0.34024E+08         0.00000E+00
    0.00000E+00         0.00000E+00        -0.10566E+08
 
   -0.88301E+07         0.12493E+06         0.00000E+00
    0.12493E+06        -0.34091E+08         0.00000E+00
    0.00000E+00         0.00000E+00        -0.10547E+08
 
   -0.89258E+07         0.17129E+06         0.00000E+00
    0.17129E+06        -0.34160E+08         0.00000E+00
    0.00000E+00         0.00000E+00        -0.10535E+08
 
   -0.90186E+07         0.23274E+06         0.00000E+00
    0.23274E+06        -0.34225E+08         0.00000E+00
    0.00000E+00         0.00000E+00        -0.10522E+08
 
   -0.91091E+07         0.31105E+06         0.00000E+00
    0.31105E+06        -0.34282E+08         0.00000E+00
    0.00000E+00         0.00000E+00        -0.10503E+08
 
   -0.91983E+07         0.40667E+06         0.00000E+00
    0.40667E+06        -0.34327E+08         0.00000E+00
    0.00000E+00         0.00000E+00        -0.10473E+08
 
   -0.92872E+07         0.51890E+06         0.00000E+00
    0.51890E+06        -0.34358E+08         0.00000E+00
    0.00000E+00         0.00000E+00        -0.10426E+08
 
   -0.93768E+07         0.64549E+06         0.00000E+00
    0.64549E+06        -0.34371E+08         0.00000E+00
    0.00000E+00         0.00000E+00        -0.10360E+08
 
   -0.94679E+07         0.78298E+06         0.00000E+00
    0.78298E+06        -0.34365E+08         0.00000E+00
    0.00000E+00         0.00000E+00        -0.10273E+08
 
   -0.95606E+07         0.92688E+06         0.00000E+00
    0.92688E+06        -0.34339E+08         0.00000E+00
    0.00000E+00         0.00000E+00        -0.10163E+08
 
   -0.96541E+07         0.10723E+07         0.00000E+00
    0.10723E+07        -0.34292E+08         0.00000E+00
    0.00000E+00         0.00000E+00        -0.10030E+08
 
   -0.97464E+07         0.12140E+07         0.00000E+00
    0.12140E+07        -0.34224E+08         0.00000E+00
    0.00000E+00         0.00000E+00        -0.98751E+07
 
   -0.91278E+07         0.80070E+03         0.00000E+00
    0.80070E+03        -0.34577E+08         0.00000E+00
    0.00000E+00         0.00000E+00        -0.10891E+08
 
   -0.92110E+07         0.64150E+04         0.00000E+00
    0.64150E+04        -0.34608E+08         0.00000E+00
    0.00000E+00         0.00000E+00        -0.10838E+08
 
   -0.93008E+07         0.14441E+05         0.00000E+00
    0.14441E+05        -0.34661E+08         0.00000E+00
    0.00000E+00         0.00000E+00        -0.10809E+08
 
   -0.93891E+07         0.31787E+05         0.00000E+00
    0.31787E+05        -0.34729E+08         0.00000E+00
    0.00000E+00         0.00000E+00        -0.10803E+08
 
   -0.94726E+07         0.63161E+05         0.00000E+00
    0.63161E+05        -0.34804E+08         0.00000E+00
    0.00000E+00         0.00000E+00        -0.10815E+08
 
   -0.95507E+07         0.11191E+06         0.00000E+00
    0.11191E+06        -0.34881E+08         0.00000E+00
    0.00000E+00         0.00000E+00        -0.10835E+08
 
   -0.96238E+07         0.18015E+06         0.00000E+00
    0.18015E+06        -0.34955E+08         0.00000E+00
    0.00000E+00         0.00000E+00        -0.10858E+08
 
   -0.96937E+07         0.26886E+06         0.00000E+00
    0.26886E+06        -0.35020E+08         0.00000E+00
    0.00000E+00         0.00000E+00        -0.10874E+08
 
   -0.97626E+07         0.37792E+06         0.00000E+00
    0.37792E+06        -0.35074E+08         0.00000E+00
    0.00000E+00         0.00000E+00        -0.10879E+08
 
   -0.98330E+07         0.50574E+06         0.00000E+00
    0.50574E+06        -0.35112E+08         0.00000E+00
    0.00000E+00         0.00000E+00        -0.10865E+08
 
   -0.99074E+07         0.64958E+06         0.00000E+00
    0.64958E+06        -0.35132E+08         0.00000E+00
    0.00000E+00         0.00000E+00        -0.10828E+08
 
   -0.99876E+07         0.80543E+06         0.00000E+00
    0.80543E+06        -0.35133E+08         0.00000E+00
    0.00000E+00         0.00000E+00        -0.10765E+08
 
   -0.10075E+08         0.96848E+06         0.00000E+00
    0.96848E+06        -0.35113E+08         0.00000E+00
    0.00000E+00         0.00000E+00        -0.10673E+08
 
   -0.10168E+08         0.11333E+07         0.00000E+00
    0.11333E+07        -0.35070E+08         0.00000E+00
    0.00000E+00         0.00000E+00        -0.10551E+08
 
   -0.10266E+08         0.12938E+07         0.00000E+00
    0.12938E+07        -0.35005E+08         0.00000E+00
    0.00000E+00         0.00000E+00        -0.10400E+08
 
   -0.98628E+07        -0.15435E+05         0.00000E+00
   -0.15435E+05        -0.35306E+08         0.00000E+00
    0.00000E+00         0.00000E+00        -0.11077E+08
 
   -0.99432E+07        -0.35014E+05         0.00000E+00
   -0.35014E+05        -0.35340E+08         0.00000E+00
    0.00000E+00         0.00000E+00        -0.11034E+08
 
   -0.10022E+08        -0.43919E+05         0.00000E+00
   -0.43919E+05        -0.35398E+08         0.00000E+00
    0.00000E+00         0.00000E+00        -0.11027E+08
 
   -0.10094E+08        -0.36214E+05         0.00000E+00
   -0.36214E+05        -0.35472E+08         0.00000E+00
    0.00000E+00         0.00000E+00        -0.11050E+08
 
   -0.10157E+08        -0.81149E+04         0.00000E+00
   -0.81149E+04        -0.35554E+08         0.00000E+00
    0.00000E+00         0.00000E+00        -0.11094E+08
 
   -0.10213E+08         0.42745E+05         0.00000E+00
    0.42745E+05        -0.35639E+08         0.00000E+00
    0.00000E+00         0.00000E+00        -0.11150E+08
 
   -0.10262E+08         0.11766E+06         0.00000E+00
    0.11766E+06        -0.35719E+08         0.00000E+00
    0.00000E+00         0.00000E+00        -0.11209E+08
 
   -0.10308E+08         0.21685E+06         0.00000E+00
    0.21685E+06        -0.35792E+08         0.00000E+00
    0.00000E+00         0.00000E+00        -0.11262E+08
 
   -0.10354E+08         0.33934E+06         0.00000E+00
    0.33934E+06        -0.35853E+08         0.00000E+00
    0.00000E+00         0.00000E+00        -0.11302E+08
 
   -0.10404E+08         0.48305E+06         0.00000E+00
    0.48305E+06        -0.35898E+08         0.00000E+00
    0.00000E+00         0.00000E+00        -0.11321E+08
 
   -0.10461E+08         0.64467E+06         0.00000E+00
    0.64467E+06        -0.35926E+08         0.00000E+00
    0.00000E+00         0.00000E+00        -0.11315E+08
 
   -0.10529E+08         0.81988E+06         0.00000E+00
    0.81988E+06        -0.35934E+08         0.00000E+00
    0.00000E+00         0.00000E+00        -0.11277E+08
 
   -0.10610E+08         0.10034E+07         0.00000E+00
    0.10034E+07        -0.35920E+08         0.00000E+00
    0.00000E+00         0.00000E+00        -0.11204E+08
 
   -0.10704E+08         0.11892E+07         0.00000E+00
    0.11892E+07        -0.35882E+08         0.00000E+00
    0.00000E+00         0.00000E+00        -0.11094E+08
 
   -0.10809E+08         0.13703E+07         0.00000E+00
    0.13703E+07        -0.35821E+08         0.00000E+00
    0.00000E+00         0.00000E+00        -0.10948E+08
 
   -0.10669E+08        -0.33094E+05         0.00000E+00
   -0.33094E+05        -0.36076E+08         0.00000E+00
    0.00000E+00         0.00000E+00        -0.11256E+08
 
   -0.10738E+08        -0.80450E+05         0.00000E+00
   -0.80450E+05        -0.36111E+08         0.00000E+00
    0.00000E+00         0.00000E+00        -0.11232E+08
 
   -0.10798E+08        -0.10809E+06         0.00000E+00
   -0.10809E+06        -0.36173E+08         0.00000E+00
    0.00000E+00         0.00000E+00        -0.11253E+08
 
   -0.10846E+08        -0.11128E+06         0.00000E+00
   -0.11128E+06        -0.36251E+08         0.00000E+00
    0.00000E+00         0.00000E+00        -0.11307E+08
 
   -0.10883E+08        -0.87332E+05         0.00000E+00
   -0.87332E+05        -0.36338E+08         0.00000E+00
    0.00000E+00         0.00000E+00        -0.11386E+08
 
   -0.10910E+08        -0.34893E+05         0.00000E+00
   -0.34893E+05        -0.36427E+08         0.00000E+00
    0.00000E+00         0.00000E+00        -0.11477E+08
 
   -0.10931E+08         0.46361E+05         0.00000E+00
    0.46361E+05        -0.36514E+08         0.00000E+00
    0.00000E+00         0.00000E+00        -0.11572E+08
 
   -0.10949E+08         0.15576E+06         0.00000E+00
    0.15576E+06        -0.36592E+08         0.00000E+00
    0.00000E+00         0.00000E+00        -0.11662E+08
 
   -0.10969E+08         0.29163E+06         0.00000E+00
    0.29163E+06        -0.36659E+08         0.00000E+00
    0.00000E+00         0.00000E+00        -0.11737E+08
 
   -0.10996E+08         0.45132E+06         0.00000E+00
    0.45132E+06        -0.36711E+08         0.00000E+00
    0.00000E+00         0.00000E+00        -0.11790E+08
 
   -0.11035E+08         0.63110E+06         0.00000E+00
    0.63110E+06        -0.36746E+08         0.00000E+00
    0.00000E+00         0.00000E+00        -0.11814E+08
 
   -0.11090E+08         0.82626E+06         0.00000E+00
    0.82626E+06        -0.36760E+08         0.00000E+00
    0.00000E+00         0.00000E+00        -0.11802E+08
 
   -0.11164E+08         0.10311E+07         0.00000E+00
    0.10311E+07        -0.36753E+08         0.00000E+00
    0.00000E+00         0.00000E+00        -0.11750E+08
 
   -0.11258E+08         0.12390E+07         0.00000E+00
    0.12390E+07        -0.36722E+08         0.00000E+00
    0.00000E+00         0.00000E+00        -0.11654E+08
 
   -0.11371E+08         0.14423E+07         0.00000E+00
    0.14423E+07        -0.36666E+08         0.00000E+00
    0.00000E+00         0.00000E+00        -0.11515E+08
 
   -0.11548E+08        -0.51806E+05         0.00000E+00
   -0.51806E+05        -0.36884E+08         0.00000E+00
    0.00000E+00         0.00000E+00        -0.11432E+08
 
   -0.11595E+08        -0.12851E+06         0.00000E+00
   -0.12851E+06        -0.36920E+08         0.00000E+00
    0.00000E+00         0.00000E+00        -0.11435E+08
 
   -0.11626E+08        -0.17620E+06         0.00000E+00
   -0.17620E+06        -0.36982E+08         0.00000E+00
    0.00000E+00         0.00000E+00        -0.11486E+08
 
   -0.11643E+08        -0.19136E+06         0.00000E+00
   -0.19136E+06        -0.37062E+08         0.00000E+00
    0.00000E+00         0.00000E+00        -0.11575E+08
 
   -0.11647E+08        -0.17246E+06         0.00000E+00
   -0.17246E+06        -0.37152E+08         0.00000E+00
    0.00000E+00         0.00000E+00        -0.11688E+08
 
   -0.11641E+08        -0.11915E+06         0.00000E+00
   -0.11915E+06        -0.37244E+08         0.00000E+00
    0.00000E+00         0.00000E+00        -0.11815E+08
 
   -0.11629E+08        -0.32097E+05         0.00000E+00
   -0.32097E+05        -0.37334E+08         0.00000E+00
    0.00000E+00         0.00000E+00        -0.11946E+08
 
   -0.11615E+08         0.87076E+05         0.00000E+00
    0.87076E+05        -0.37416E+08         0.00000E+00
    0.00000E+00         0.00000E+00        -0.12071E+08
 
   -0.11607E+08         0.23597E+06         0.00000E+00
    0.23597E+06        -0.37488E+08         0.00000E+00
    0.00000E+00         0.00000E+00        -0.12181E+08
 
   -0.11609E+08         0.41138E+06         0.00000E+00
    0.41138E+06        -0.37545E+08         0.00000E+00
    0.00000E+00         0.00000E+00        -0.12267E+08
 
   -0.11627E+08         0.60920E+06         0.00000E+00
    0.60920E+06        -0.37586E+08         0.00000E+00
    0.00000E+00         0.00000E+00        -0.12321E+08
 
   -0.11668E+08         0.82438E+06         0.00000E+00
    0.82438E+06        -0.37607E+08         0.00000E+00
    0.00000E+00         0.00000E+00        -0.12336E+08
 
   -0.11733E+08         0.10509E+07         0.00000E+00
    0.10509E+07        -0.37607E+08         0.00000E+00
    0.00000E+00         0.00000E+00        -0.12306E+08
 
   -0.11826E+08         0.12817E+07         0.00000E+00
    0.12817E+07        -0.37583E+08         0.00000E+00
    0.00000E+00         0.00000E+00        -0.12227E+08
 
   -0.11947E+08         0.15087E+07         0.00000E+00
    0.15087E+07        -0.37534E+08         0.00000E+00
    0.00000E+00         0.00000E+00        -0.12096E+08
 
   -0.12498E+08        -0.70985E+05         0.00000E+00
   -0.70985E+05        -0.37726E+08         0.00000E+00
    0.00000E+00         0.00000E+00        -0.11609E+08
 
   -0.12512E+08        -0.17792E+06         0.00000E+00
   -0.17792E+06        -0.37762E+08         0.00000E+00
    0.00000E+00         0.00000E+00        -0.11643E+08
 
   -0.12507E+08        -0.24631E+06         0.00000E+00
   -0.24631E+06        -0.37824E+08         0.00000E+00
    0.00000E+00         0.00000E+00        -0.11729E+08
 
   -0.12485E+08        -0.27422E+06         0.00000E+00
   -0.27422E+06        -0.37904E+08         0.00000E+00
    0.00000E+00         0.00000E+00        -0.11853E+08
 
   -0.12449E+08        -0.26100E+06         0.00000E+00
   -0.26100E+06        -0.37993E+08         0.00000E+00
    0.00000E+00         0.00000E+00        -0.12001E+08
 
   -0.12404E+08        -0.20746E+06         0.00000E+00
   -0.20746E+06        -0.38086E+08         0.00000E+00
    0.00000E+00         0.00000E+00        -0.12163E+08
 
   -0.12354E+08        -0.11526E+06         0.00000E+00
   -0.11526E+06        -0.38176E+08         0.00000E+00
    0.00000E+00         0.00000E+00        -0.12328E+08
 
   -0.12306E+08         0.12974E+05         0.00000E+00
    0.12974E+05        -0.38260E+08         0.00000E+00
    0.00000E+00         0.00000E+00        -0.12486E+08
 
   -0.12265E+08         0.17413E+06         0.00000E+00
    0.17413E+06        -0.38333E+08         0.00000E+00
    0.00000E+00         0.00000E+00        -0.12628E+08
 
   -0.12240E+08         0.36440E+06         0.00000E+00
    0.36440E+06        -0.38394E+08         0.00000E+00
    0.00000E+00         0.00000E+00        -0.12746E+08
 
   -0.12236E+08         0.57939E+06         0.00000E+00
    0.57939E+06        -0.38440E+08         0.00000E+00
    0.00000E+00         0.00000E+00        -0.12830E+08
 
   -0.12259E+08         0.81401E+06         0.00000E+00
    0.81401E+06        -0.38468E+08         0.00000E+00
    0.00000E+00         0.00000E+00        -0.12873E+08
 
   -0.12314E+08         0.10621E+07         0.00000E+00
    0.10621E+07        -0.38475E+08         0.00000E+00
    0.00000E+00         0.00000E+00        -0.12868E+08
 
   -0.12406E+08         0.13162E+07         0.00000E+00
    0.13162E+07        -0.38460E+08         0.00000E+00
    0.00000E+00         0.00000E+00        -0.12807E+08
 
   -0.12535E+08         0.15674E+07         0.00000E+00
    0.15674E+07        -0.38419E+08         0.00000E+00
    0.00000E+00         0.00000E+00        -0.12686E+08
 
   -0.13516E+08        -0.90130E+05         0.00000E+00
   -0.90130E+05        -0.38602E+08         0.00000E+00
    0.00000E+00         0.00000E+00        -0.11791E+08
 
   -0.13487E+08        -0.22739E+06         0.00000E+00
   -0.22739E+06        -0.38636E+08         0.00000E+00
    0.00000E+00         0.00000E+00        -0.11862E+08
 
   -0.13437E+08        -0.31668E+06         0.00000E+00
   -0.31668E+06        -0.38696E+08         0.00000E+00
    0.00000E+00         0.00000E+00        -0.11984E+08
 
   -0.13368E+08        -0.35729E+06         0.00000E+00
   -0.35729E+06        -0.38773E+08         0.00000E+00
    0.00000E+00         0.00000E+00        -0.12143E+08
 
   -0.13286E+08        -0.35001E+06         0.00000E+00
   -0.35001E+06        -0.38859E+08         0.00000E+00
    0.00000E+00         0.00000E+00        -0.12324E+08
 
   -0.13196E+08        -0.29661E+06         0.00000E+00
   -0.29661E+06        -0.38948E+08         0.00000E+00
    0.00000E+00         0.00000E+00        -0.12518E+08
 
   -0.13105E+08        -0.19992E+06         0.00000E+00
   -0.19992E+06        -0.39036E+08         0.00000E+00
    0.00000E+00         0.00000E+00        -0.12714E+08
 
   -0.13018E+08        -0.63523E+05         0.00000E+00
   -0.63523E+05        -0.39117E+08         0.00000E+00
    0.00000E+00         0.00000E+00        -0.12901E+08
 
   -0.12943E+08         0.10852E+06         0.00000E+00
    0.10852E+06        -0.39190E+08         0.00000E+00
    0.00000E+00         0.00000E+00        -0.13073E+08
 
   -0.12887E+08         0.31194E+06         0.00000E+00
    0.31194E+06        -0.39252E+08         0.00000E+00
    0.00000E+00         0.00000E+00        -0.13220E+08
 
   -0.12858E+08         0.54238E+06         0.00000E+00
    0.54238E+06        -0.39301E+08         0.00000E+00
    0.00000E+00         0.00000E+00        -0.13334E+08
 
   -0.12862E+08         0.79485E+06         0.00000E+00
    0.79485E+06        -0.39336E+08         0.00000E+00
    0.00000E+00         0.00000E+00        -0.13406E+08
 
   -0.12906E+08         0.10635E+07         0.00000E+00
    0.10635E+07        -0.39352E+08         0.00000E+00
    0.00000E+00         0.00000E+00        -0.13428E+08
 
   -0.12994E+08         0.13408E+07         0.00000E+00
    0.13408E+07        -0.39346E+08         0.00000E+00
    0.00000E+00         0.00000E+00        -0.13389E+08
 
   -0.13130E+08         0.16169E+07         0.00000E+00
    0.16169E+07        -0.39317E+08         0.00000E+00
    0.00000E+00         0.00000E+00        -0.13283E+08
 
   -0.14600E+08        -0.10889E+06         0.00000E+00
   -0.10889E+06        -0.39507E+08         0.00000E+00
    0.00000E+00         0.00000E+00        -0.11984E+08
 
   -0.14518E+08        -0.27586E+06         0.00000E+00
   -0.27586E+06        -0.39540E+08         0.00000E+00
    0.00000E+00         0.00000E+00        -0.12093E+08
 
   -0.14413E+08        -0.38523E+06         0.00000E+00
   -0.38523E+06        -0.39596E+08         0.00000E+00
    0.00000E+00         0.00000E+00        -0.12252E+08
 
   -0.14291E+08        -0.43797E+06         0.00000E+00
   -0.43797E+06        -0.39668E+08         0.00000E+00
    0.00000E+00         0.00000E+00        -0.12445E+08
 
   -0.14156E+08        -0.43610E+06         0.00000E+00
   -0.43610E+06        -0.39747E+08         0.00000E+00
    0.00000E+00         0.00000E+00        -0.12658E+08
 
   -0.14017E+08        -0.38275E+06         0.00000E+00
   -0.38275E+06        -0.39829E+08         0.00000E+00
    0.00000E+00         0.00000E+00        -0.12880E+08
 
   -0.13879E+08        -0.28208E+06         0.00000E+00
   -0.28208E+06        -0.39909E+08         0.00000E+00
    0.00000E+00         0.00000E+00        -0.13101E+08
 
   -0.13751E+08        -0.13875E+06         0.00000E+00
   -0.13875E+06        -0.39984E+08         0.00000E+00
    0.00000E+00         0.00000E+00        -0.13314E+08
 
   -0.13639E+08         0.42185E+05         0.00000E+00
    0.42185E+05        -0.40052E+08         0.00000E+00
    0.00000E+00         0.00000E+00        -0.13510E+08
 
   -0.13552E+08         0.25623E+06         0.00000E+00
    0.25623E+06        -0.40113E+08         0.00000E+00
    0.00000E+00         0.00000E+00        -0.13683E+08
 
   -0.13495E+08         0.49908E+06         0.00000E+00
    0.49908E+06        -0.40164E+08         0.00000E+00
    0.00000E+00         0.00000E+00        -0.13825E+08
 
   -0.13478E+08         0.76663E+06         0.00000E+00
    0.76663E+06        -0.40204E+08         0.00000E+00
    0.00000E+00         0.00000E+00        -0.13927E+08
 
   -0.13506E+08         0.10537E+07         0.00000E+00
    0.10537E+07        -0.40230E+08         0.00000E+00
    0.00000E+00         0.00000E+00        -0.13979E+08
 
   -0.13588E+08         0.13532E+07         0.00000E+00
    0.13532E+07        -0.40237E+08         0.00000E+00
    0.00000E+00         0.00000E+00        -0.13967E+08
 
   -0.13730E+08         0.16547E+07         0.00000E+00
    0.16547E+07        -0.40221E+08         0.00000E+00
    0.00000E+00         0.00000E+00        -0.13881E+08
 
   -0.15745E+08        -0.12703E+06         0.00000E+00
   -0.12703E+06        -0.40440E+08         0.00000E+00
    0.00000E+00         0.00000E+00        -0.12190E+08
 
   -0.15600E+08        -0.32229E+06         0.00000E+00
   -0.32229E+06        -0.40470E+08         0.00000E+00
    0.00000E+00         0.00000E+00        -0.12339E+08
 
   -0.15432E+08        -0.45016E+06         0.00000E+00
   -0.45016E+06        -0.40522E+08         0.00000E+00
    0.00000E+00         0.00000E+00        -0.12535E+08
 
   -0.15248E+08        -0.51329E+06         0.00000E+00
   -0.51329E+06        -0.40585E+08         0.00000E+00
    0.00000E+00         0.00000E+00        -0.12760E+08
 
   -0.15056E+08        -0.51539E+06         0.00000E+00
   -0.51539E+06        -0.40655E+08         0.00000E+00
    0.00000E+00         0.00000E+00        -0.13001E+08
 
   -0.14862E+08        -0.46141E+06         0.00000E+00
   -0.46141E+06        -0.40725E+08         0.00000E+00
    0.00000E+00         0.00000E+00        -0.13247E+08
 
   -0.14676E+08        -0.35710E+06         0.00000E+00
   -0.35710E+06        -0.40792E+08         0.00000E+00
    0.00000E+00         0.00000E+00        -0.13488E+08
 
   -0.14505E+08        -0.20849E+06         0.00000E+00
   -0.20849E+06        -0.40856E+08         0.00000E+00
    0.00000E+00         0.00000E+00        -0.13719E+08
 
   -0.14355E+08        -0.21227E+05         0.00000E+00
   -0.21227E+05        -0.40916E+08         0.00000E+00
    0.00000E+00         0.00000E+00        -0.13934E+08
 
   -0.14234E+08         0.19979E+06         0.00000E+00
    0.19979E+06        -0.40972E+08         0.00000E+00
    0.00000E+00         0.00000E+00        -0.14128E+08
 
   -0.14148E+08         0.45094E+06         0.00000E+00
    0.45094E+06        -0.41023E+08         0.00000E+00
    0.00000E+00         0.00000E+00        -0.14296E+08
 
   -0.14105E+08         0.72917E+06         0.00000E+00
    0.72917E+06        -0.41068E+08         0.00000E+00
    0.00000E+00         0.00000E+00        -0.14428E+08
 
   -0.14115E+08         0.10310E+07         0.00000E+00
    0.10310E+07        -0.41105E+08         0.00000E+00
    0.00000E+00         0.00000E+00        -0.14514E+08
 
   -0.14187E+08         0.13505E+07         0.00000E+00
    0.13505E+07        -0.41126E+08         0.00000E+00
    0.00000E+00         0.00000E+00        -0.14535E+08
 
   -0.14331E+08         0.16774E+07         0.00000E+00
    0.16774E+07        -0.41127E+08         0.00000E+00
    0.00000E+00         0.00000E+00        -0.14475E+08
 
   -0.16949E+08        -0.14443E+06         0.00000E+00
   -0.14443E+06        -0.41397E+08         0.00000E+00
    0.00000E+00         0.00000E+00        -0.12414E+08
 
   -0.16728E+08        -0.36591E+06         0.00000E+00
   -0.36591E+06        -0.41424E+08         0.00000E+00
    0.00000E+00         0.00000E+00        -0.12603E+08
 
   -0.16488E+08        -0.50952E+06         0.00000E+00
   -0.50952E+06        -0.41469E+08         0.00000E+00
    0.00000E+00         0.00000E+00        -0.12835E+08
 
   -0.16235E+08        -0.57995E+06         0.00000E+00
   -0.57995E+06        -0.41523E+08         0.00000E+00
    0.00000E+00         0.00000E+00        -0.13090E+08
 
   -0.15980E+08        -0.58344E+06         0.00000E+00
   -0.58344E+06        -0.41577E+08         0.00000E+00
    0.00000E+00         0.00000E+00        -0.13354E+08
 
   -0.15730E+08        -0.52750E+06         0.00000E+00
   -0.52750E+06        -0.41630E+08         0.00000E+00
    0.00000E+00         0.00000E+00        -0.13616E+08
 
   -0.15493E+08        -0.41995E+06         0.00000E+00
   -0.41995E+06        -0.41681E+08         0.00000E+00
    0.00000E+00         0.00000E+00        -0.13870E+08
 
   -0.15278E+08        -0.26808E+06         0.00000E+00
   -0.26808E+06        -0.41729E+08         0.00000E+00
    0.00000E+00         0.00000E+00        -0.14112E+08
 
   -0.15090E+08        -0.78040E+05         0.00000E+00
   -0.78040E+05        -0.41776E+08         0.00000E+00
    0.00000E+00         0.00000E+00        -0.14339E+08
 
   -0.14935E+08         0.14551E+06         0.00000E+00
    0.14551E+06        -0.41824E+08         0.00000E+00
    0.00000E+00         0.00000E+00        -0.14550E+08
 
   -0.14819E+08         0.39960E+06         0.00000E+00
    0.39960E+06        -0.41873E+08         0.00000E+00
    0.00000E+00         0.00000E+00        -0.14740E+08
 
   -0.14748E+08         0.68280E+06         0.00000E+00
    0.68280E+06        -0.41923E+08         0.00000E+00
    0.00000E+00         0.00000E+00        -0.14902E+08
 
   -0.14733E+08         0.99402E+06         0.00000E+00
    0.99402E+06        -0.41970E+08         0.00000E+00
    0.00000E+00         0.00000E+00        -0.15024E+08
 
   -0.14789E+08         0.13299E+07         0.00000E+00
    0.13299E+07        -0.42008E+08         0.00000E+00
    0.00000E+00         0.00000E+00        -0.15086E+08
 
   -0.14930E+08         0.16811E+07         0.00000E+00
    0.16811E+07        -0.42030E+08         0.00000E+00
    0.00000E+00         0.00000E+00        -0.15062E+08
 
   -0.18204E+08        -0.16111E+06         0.00000E+00
   -0.16111E+06        -0.42375E+08         0.00000E+00
    0.00000E+00         0.00000E+00        -0.12658E+08
 
   -0.17897E+08        -0.40622E+06         0.00000E+00
   -0.40622E+06        -0.42399E+08         0.00000E+00
    0.00000E+00         0.00000E+00        -0.12888E+08
 
   -0.17574E+08        -0.56122E+06         0.00000E+00
   -0.56122E+06        -0.42437E+08         0.00000E+00
    0.00000E+00         0.00000E+00        -0.13155E+08
 
   -0.17246E+08        -0.63397E+06         0.00000E+00
   -0.63397E+06        -0.42476E+08         0.00000E+00
    0.00000E+00         0.00000E+00        -0.13435E+08
 
   -0.16923E+08        -0.63509E+06         0.00000E+00
   -0.63509E+06        -0.42511E+08         0.00000E+00
    0.00000E+00         0.00000E+00        -0.13714E+08
 
   -0.16615E+08        -0.57544E+06         0.00000E+00
   -0.57544E+06        -0.42542E+08         0.00000E+00
    0.00000E+00         0.00000E+00        -0.13985E+08
 
   -0.16330E+08        -0.46523E+06         0.00000E+00
   -0.46523E+06        -0.42570E+08         0.00000E+00
    0.00000E+00         0.00000E+00        -0.14242E+08
 
   -0.16072E+08        -0.31294E+06         0.00000E+00
   -0.31294E+06        -0.42597E+08         0.00000E+00
    0.00000E+00         0.00000E+00        -0.14486E+08
 
   -0.15848E+08        -0.12467E+06         0.00000E+00
   -0.12467E+06        -0.42629E+08         0.00000E+00
    0.00000E+00         0.00000E+00        -0.14719E+08
 
   -0.15660E+08         0.95834E+05         0.00000E+00
    0.95834E+05        -0.42666E+08         0.00000E+00
    0.00000E+00         0.00000E+00        -0.14940E+08
 
   -0.15512E+08         0.34679E+06         0.00000E+00
    0.34679E+06        -0.42712E+08         0.00000E+00
    0.00000E+00         0.00000E+00        -0.15149E+08
 
   -0.15409E+08         0.62826E+06         0.00000E+00
    0.62826E+06        -0.42764E+08         0.00000E+00
    0.00000E+00         0.00000E+00        -0.15341E+08
 
   -0.15364E+08         0.94168E+06         0.00000E+00
    0.94168E+06        -0.42822E+08         0.00000E+00
    0.00000E+00         0.00000E+00        -0.15503E+08
 
   -0.15395E+08         0.12877E+07         0.00000E+00
    0.12877E+07        -0.42879E+08         0.00000E+00
    0.00000E+00         0.00000E+00        -0.15613E+08
 
   -0.15526E+08         0.16605E+07         0.00000E+00
    0.16605E+07        -0.42925E+08         0.00000E+00
    0.00000E+00         0.00000E+00        -0.15634E+08
 
   -0.19507E+08        -0.17746E+06         0.00000E+00
   -0.17746E+06        -0.43371E+08         0.00000E+00
    0.00000E+00         0.00000E+00        -0.12925E+08
 
   -0.19098E+08        -0.44303E+06         0.00000E+00
   -0.44303E+06        -0.43393E+08         0.00000E+00
    0.00000E+00         0.00000E+00        -0.13197E+08
 
   -0.18681E+08        -0.60182E+06         0.00000E+00
   -0.60182E+06        -0.43420E+08         0.00000E+00
    0.00000E+00         0.00000E+00        -0.13495E+08
 
   -0.18271E+08        -0.67040E+06         0.00000E+00
   -0.67040E+06        -0.43440E+08         0.00000E+00
    0.00000E+00         0.00000E+00        -0.13795E+08
 
   -0.17880E+08        -0.66459E+06         0.00000E+00
   -0.66459E+06        -0.43451E+08         0.00000E+00
    0.00000E+00         0.00000E+00        -0.14081E+08
 
   -0.17516E+08        -0.59933E+06         0.00000E+00
   -0.59933E+06        -0.43454E+08         0.00000E+00
    0.00000E+00         0.00000E+00        -0.14349E+08
 
   -0.17185E+08        -0.48758E+06         0.00000E+00
   -0.48758E+06        -0.43453E+08         0.00000E+00
    0.00000E+00         0.00000E+00        -0.14599E+08
 
   -0.16889E+08        -0.33873E+06         0.00000E+00
   -0.33873E+06        -0.43456E+08         0.00000E+00
    0.00000E+00         0.00000E+00        -0.14836E+08
 
   -0.16631E+08        -0.15807E+06         0.00000E+00
   -0.15807E+06        -0.43468E+08         0.00000E+00
    0.00000E+00         0.00000E+00        -0.15066E+08
 
   -0.16410E+08         0.52569E+05         0.00000E+00
    0.52569E+05        -0.43494E+08         0.00000E+00
    0.00000E+00         0.00000E+00        -0.15293E+08
 
   -0.16230E+08         0.29343E+06         0.00000E+00
    0.29343E+06        -0.43536E+08         0.00000E+00
    0.00000E+00         0.00000E+00        -0.15519E+08
 
   -0.16095E+08         0.56599E+06         0.00000E+00
    0.56599E+06        -0.43591E+08         0.00000E+00
    0.00000E+00         0.00000E+00        -0.15739E+08
 
   -0.16013E+08         0.87355E+06         0.00000E+00
    0.87355E+06        -0.43659E+08         0.00000E+00
    0.00000E+00         0.00000E+00        -0.15945E+08
 
   -0.16008E+08         0.12215E+07         0.00000E+00
    0.12215E+07        -0.43735E+08         0.00000E+00
    0.00000E+00         0.00000E+00        -0.16111E+08
 
   -0.16119E+08         0.16117E+07         0.00000E+00
    0.16117E+07        -0.43810E+08         0.00000E+00
    0.00000E+00         0.00000E+00        -0.16191E+08
 
   -0.20853E+08        -0.19641E+06         0.00000E+00
   -0.19641E+06        -0.44389E+08         0.00000E+00
    0.00000E+00         0.00000E+00        -0.13221E+08
 
   -0.20319E+08        -0.47270E+06         0.00000E+00
   -0.47270E+06        -0.44401E+08         0.00000E+00
    0.00000E+00         0.00000E+00        -0.13531E+08
 
   -0.19797E+08        -0.62639E+06         0.00000E+00
   -0.62639E+06        -0.44412E+08         0.00000E+00
    0.00000E+00         0.00000E+00        -0.13856E+08
 
   -0.19302E+08        -0.68329E+06         0.00000E+00
   -0.68329E+06        -0.44408E+08         0.00000E+00
    0.00000E+00         0.00000E+00        -0.14165E+08
 
   -0.18844E+08        -0.66561E+06         0.00000E+00
   -0.66561E+06        -0.44388E+08         0.00000E+00
    0.00000E+00         0.00000E+00        -0.14448E+08
 
   -0.18429E+08        -0.59344E+06         0.00000E+00
   -0.59344E+06        -0.44357E+08         0.00000E+00
    0.00000E+00         0.00000E+00        -0.14702E+08
 
   -0.18058E+08        -0.48237E+06         0.00000E+00
   -0.48237E+06        -0.44325E+08         0.00000E+00
    0.00000E+00         0.00000E+00        -0.14934E+08
 
   -0.17731E+08        -0.34183E+06         0.00000E+00
   -0.34183E+06        -0.44300E+08         0.00000E+00
    0.00000E+00         0.00000E+00        -0.15154E+08
 
   -0.17443E+08        -0.17556E+06         0.00000E+00
   -0.17556E+06        -0.44291E+08         0.00000E+00
    0.00000E+00         0.00000E+00        -0.15374E+08
 
   -0.17193E+08         0.17091E+05         0.00000E+00
    0.17091E+05        -0.44303E+08         0.00000E+00
    0.00000E+00         0.00000E+00        -0.15602E+08
 
   -0.16980E+08         0.23937E+06         0.00000E+00
    0.23937E+06        -0.44340E+08         0.00000E+00
    0.00000E+00         0.00000E+00        -0.15841E+08
 
   -0.16809E+08         0.49546E+06         0.00000E+00
    0.49546E+06        -0.44401E+08         0.00000E+00
    0.00000E+00         0.00000E+00        -0.16091E+08
 
   -0.16687E+08         0.78992E+06         0.00000E+00
    0.78992E+06        -0.44481E+08         0.00000E+00
    0.00000E+00         0.00000E+00        -0.16343E+08
 
   -0.16633E+08         0.11299E+07         0.00000E+00
    0.11299E+07        -0.44576E+08         0.00000E+00
    0.00000E+00         0.00000E+00        -0.16573E+08
 
   -0.16707E+08         0.15240E+07         0.00000E+00
    0.15240E+07        -0.44682E+08         0.00000E+00
    0.00000E+00         0.00000E+00        -0.16724E+08
 
   -0.22237E+08        -0.21501E+06         0.00000E+00
   -0.21501E+06        -0.45413E+08         0.00000E+00
    0.00000E+00         0.00000E+00        -0.13586E+08
 
   -0.21544E+08        -0.49317E+06         0.00000E+00
   -0.49317E+06        -0.45413E+08         0.00000E+00
    0.00000E+00         0.00000E+00        -0.13887E+08
 
   -0.20910E+08        -0.62917E+06         0.00000E+00
   -0.62917E+06        -0.45404E+08         0.00000E+00
    0.00000E+00         0.00000E+00        -0.14231E+08
 
   -0.20329E+08        -0.66521E+06         0.00000E+00
   -0.66521E+06        -0.45368E+08         0.00000E+00
    0.00000E+00         0.00000E+00        -0.14540E+08
 
   -0.19809E+08        -0.63135E+06         0.00000E+00
   -0.63135E+06        -0.45309E+08         0.00000E+00
    0.00000E+00         0.00000E+00        -0.14805E+08
 
   -0.19352E+08        -0.55315E+06         0.00000E+00
   -0.55315E+06        -0.45241E+08         0.00000E+00
    0.00000E+00         0.00000E+00        -0.15032E+08
 
   -0.18952E+08        -0.44684E+06         0.00000E+00
   -0.44684E+06        -0.45175E+08         0.00000E+00
    0.00000E+00         0.00000E+00        -0.15237E+08
 
   -0.18601E+08        -0.32021E+06         0.00000E+00
   -0.32021E+06        -0.45123E+08         0.00000E+00
    0.00000E+00         0.00000E+00        -0.15433E+08
 
   -0.18290E+08        -0.17505E+06         0.00000E+00
   -0.17505E+06        -0.45092E+08         0.00000E+00
    0.00000E+00         0.00000E+00        -0.15636E+08
 
   -0.18013E+08        -0.88394E+04         0.00000E+00
   -0.88394E+04        -0.45089E+08         0.00000E+00
    0.00000E+00         0.00000E+00        -0.15858E+08
 
   -0.17769E+08         0.18468E+06         0.00000E+00
    0.18468E+06        -0.45120E+08         0.00000E+00
    0.00000E+00         0.00000E+00        -0.16107E+08
 
   -0.17559E+08         0.41402E+06         0.00000E+00
    0.41402E+06        -0.45186E+08         0.00000E+00
    0.00000E+00         0.00000E+00        -0.16386E+08
 
   -0.17391E+08         0.68702E+06         0.00000E+00
    0.68702E+06        -0.45284E+08         0.00000E+00
    0.00000E+00         0.00000E+00        -0.16689E+08
 
   -0.17282E+08         0.10112E+07         0.00000E+00
    0.10112E+07        -0.45405E+08         0.00000E+00
    0.00000E+00         0.00000E+00        -0.16994E+08
 
   -0.17295E+08         0.14010E+07         0.00000E+00
    0.14010E+07        -0.45540E+08         0.00000E+00
    0.00000E+00         0.00000E+00        -0.17234E+08
 
   -0.23652E+08        -0.22868E+06         0.00000E+00
   -0.22868E+06        -0.46428E+08         0.00000E+00
    0.00000E+00         0.00000E+00        -0.14035E+08
 
   -0.22755E+08        -0.49822E+06         0.00000E+00
   -0.49822E+06        -0.46422E+08         0.00000E+00
    0.00000E+00         0.00000E+00        -0.14267E+08
 
   -0.22004E+08        -0.60118E+06         0.00000E+00
   -0.60118E+06        -0.46383E+08         0.00000E+00
    0.00000E+00         0.00000E+00        -0.14616E+08
 
   -0.21341E+08        -0.60599E+06         0.00000E+00
   -0.60599E+06        -0.46303E+08         0.00000E+00
    0.00000E+00         0.00000E+00        -0.14905E+08
 
   -0.20772E+08        -0.55552E+06         0.00000E+00
   -0.55552E+06        -0.46199E+08         0.00000E+00
    0.00000E+00         0.00000E+00        -0.15135E+08
 
   -0.20287E+08        -0.47648E+06         0.00000E+00
   -0.47648E+06        -0.46091E+08         0.00000E+00
    0.00000E+00         0.00000E+00        -0.15326E+08
 
   -0.19869E+08        -0.38123E+06         0.00000E+00
   -0.38123E+06        -0.45994E+08         0.00000E+00
    0.00000E+00         0.00000E+00        -0.15497E+08
 
   -0.19504E+08        -0.27429E+06         0.00000E+00
   -0.27429E+06        -0.45916E+08         0.00000E+00
    0.00000E+00         0.00000E+00        -0.15666E+08
 
   -0.19177E+08        -0.15587E+06         0.00000E+00
   -0.15587E+06        -0.45866E+08         0.00000E+00
    0.00000E+00         0.00000E+00        -0.15848E+08
 
   -0.18879E+08        -0.22827E+05         0.00000E+00
   -0.22827E+05        -0.45848E+08         0.00000E+00
    0.00000E+00         0.00000E+00        -0.16057E+08
 
   -0.18605E+08         0.13195E+06         0.00000E+00
    0.13195E+06        -0.45870E+08         0.00000E+00
    0.00000E+00         0.00000E+00        -0.16308E+08
 
   -0.18353E+08         0.32054E+06         0.00000E+00
    0.32054E+06        -0.45939E+08         0.00000E+00
    0.00000E+00         0.00000E+00        -0.16610E+08
 
   -0.18133E+08         0.55902E+06         0.00000E+00
    0.55902E+06        -0.46055E+08         0.00000E+00
    0.00000E+00         0.00000E+00        -0.16966E+08
 
   -0.17957E+08         0.86072E+06         0.00000E+00
    0.86072E+06        -0.46209E+08         0.00000E+00
    0.00000E+00         0.00000E+00        -0.17359E+08
 
   -0.17881E+08         0.12434E+07         0.00000E+00
    0.12434E+07        -0.46381E+08         0.00000E+00
    0.00000E+00         0.00000E+00        -0.17720E+08
 
   -0.25074E+08        -0.23389E+06         0.00000E+00
   -0.23389E+06        -0.47454E+08         0.00000E+00
    0.00000E+00         0.00000E+00        -0.14506E+08
 
   -0.23935E+08        -0.47369E+06         0.00000E+00
   -0.47369E+06        -0.47422E+08         0.00000E+00
    0.00000E+00         0.00000E+00        -0.14666E+08
 
   -0.23061E+08        -0.52285E+06         0.00000E+00
   -0.52285E+06        -0.47326E+08         0.00000E+00
    0.00000E+00         0.00000E+00        -0.14993E+08
 
   -0.22334E+08        -0.49374E+06         0.00000E+00
   -0.49374E+06        -0.47184E+08         0.00000E+00
    0.00000E+00         0.00000E+00        -0.15234E+08
 
   -0.21737E+08        -0.43566E+06         0.00000E+00
   -0.43566E+06        -0.47032E+08         0.00000E+00
    0.00000E+00         0.00000E+00        -0.15416E+08
 
   -0.21238E+08        -0.36575E+06         0.00000E+00
   -0.36575E+06        -0.46890E+08         0.00000E+00
    0.00000E+00         0.00000E+00        -0.15566E+08
 
   -0.20813E+08        -0.28936E+06         0.00000E+00
   -0.28936E+06        -0.46768E+08         0.00000E+00
    0.00000E+00         0.00000E+00        -0.15704E+08
 
   -0.20441E+08        -0.20774E+06         0.00000E+00
   -0.20774E+06        -0.46672E+08         0.00000E+00
    0.00000E+00         0.00000E+00        -0.15847E+08
 
   -0.20106E+08        -0.12008E+06         0.00000E+00
   -0.12008E+06        -0.46607E+08         0.00000E+00
    0.00000E+00         0.00000E+00        -0.16007E+08
 
   -0.19794E+08        -0.23825E+05         0.00000E+00
   -0.23825E+05        -0.46578E+08         0.00000E+00
    0.00000E+00         0.00000E+00        -0.16200E+08
 
   -0.19497E+08         0.86358E+05         0.00000E+00
    0.86358E+05        -0.46590E+08         0.00000E+00
    0.00000E+00         0.00000E+00        -0.16442E+08
 
   -0.19206E+08         0.22153E+06         0.00000E+00
    0.22153E+06        -0.46654E+08         0.00000E+00
    0.00000E+00         0.00000E+00        -0.16753E+08
 
   -0.18923E+08         0.40380E+06         0.00000E+00
    0.40380E+06        -0.46779E+08         0.00000E+00
    0.00000E+00         0.00000E+00        -0.17152E+08
 
   -0.18667E+08         0.66715E+06         0.00000E+00
    0.66715E+06        -0.46975E+08         0.00000E+00
    0.00000E+00         0.00000E+00        -0.17647E+08
 
   -0.18467E+08         0.10324E+07         0.00000E+00
    0.10324E+07        -0.47205E+08         0.00000E+00
    0.00000E+00         0.00000E+00        -0.18180E+08
 
   -0.26471E+08        -0.22758E+06         0.00000E+00
   -0.22758E+06        -0.48469E+08         0.00000E+00
    0.00000E+00         0.00000E+00        -0.14988E+08
 
   -0.25048E+08        -0.37952E+06         0.00000E+00
   -0.37952E+06        -0.48372E+08         0.00000E+00
    0.00000E+00         0.00000E+00        -0.15057E+08
 
   -0.24072E+08        -0.36644E+06         0.00000E+00
   -0.36644E+06        -0.48180E+08         0.00000E+00
    0.00000E+00         0.00000E+00        -0.15315E+08
 
   -0.23318E+08        -0.32444E+06         0.00000E+00
   -0.32444E+06        -0.47976E+08         0.00000E+00
    0.00000E+00         0.00000E+00        -0.15489E+08
 
   -0.22714E+08        -0.27714E+06         0.00000E+00
   -0.27714E+06        -0.47786E+08         0.00000E+00
    0.00000E+00         0.00000E+00        -0.15622E+08
 
   -0.22214E+08        -0.22849E+06         0.00000E+00
   -0.22849E+06        -0.47620E+08         0.00000E+00
    0.00000E+00         0.00000E+00        -0.15736E+08
 
   -0.21788E+08        -0.17877E+06         0.00000E+00
   -0.17877E+06        -0.47484E+08         0.00000E+00
    0.00000E+00         0.00000E+00        -0.15847E+08
 
   -0.21414E+08        -0.12736E+06         0.00000E+00
   -0.12736E+06        -0.47379E+08         0.00000E+00
    0.00000E+00         0.00000E+00        -0.15969E+08
 
   -0.21076E+08        -0.73272E+05         0.00000E+00
   -0.73272E+05        -0.47308E+08         0.00000E+00
    0.00000E+00         0.00000E+00        -0.16113E+08
 
   -0.20759E+08        -0.14990E+05         0.00000E+00
   -0.14990E+05        -0.47274E+08         0.00000E+00
    0.00000E+00         0.00000E+00        -0.16291E+08
 
   -0.20449E+08         0.50225E+05         0.00000E+00
    0.50225E+05        -0.47282E+08         0.00000E+00
    0.00000E+00         0.00000E+00        -0.16521E+08
 
   -0.20132E+08         0.12861E+06         0.00000E+00
    0.12861E+06        -0.47340E+08         0.00000E+00
    0.00000E+00         0.00000E+00        -0.16825E+08
 
   -0.19792E+08         0.23570E+06         0.00000E+00
    0.23570E+06        -0.47461E+08         0.00000E+00
    0.00000E+00         0.00000E+00        -0.17240E+08
 
   -0.19420E+08         0.41351E+06         0.00000E+00
    0.41351E+06        -0.47670E+08         0.00000E+00
    0.00000E+00         0.00000E+00        -0.17818E+08
 
   -0.19059E+08         0.74884E+06         0.00000E+00
    0.74884E+06        -0.48005E+08         0.00000E+00
    0.00000E+00         0.00000E+00        -0.18604E+08
 
   -0.27764E+08        -0.14957E+06         0.00000E+00
   -0.14957E+06        -0.49387E+08         0.00000E+00
    0.00000E+00         0.00000E+00        -0.15432E+08
 
   -0.26065E+08        -0.15690E+06         0.00000E+00
   -0.15690E+06        -0.49144E+08         0.00000E+00
    0.00000E+00         0.00000E+00        -0.15335E+08
 
   -0.25067E+08        -0.13300E+06         0.00000E+00
   -0.13300E+06        -0.48877E+08         0.00000E+00
    0.00000E+00         0.00000E+00        -0.15507E+08
 
   -0.24315E+08        -0.11330E+06         0.00000E+00
   -0.11330E+06        -0.48639E+08         0.00000E+00
    0.00000E+00         0.00000E+00        -0.15630E+08
 
   -0.23715E+08        -0.94999E+05         0.00000E+00
   -0.94999E+05        -0.48435E+08         0.00000E+00
    0.00000E+00         0.00000E+00        -0.15730E+08
 
   -0.23220E+08        -0.77505E+05         0.00000E+00
   -0.77505E+05        -0.48265E+08         0.00000E+00
    0.00000E+00         0.00000E+00        -0.15822E+08
 
   -0.22797E+08        -0.60177E+05         0.00000E+00
   -0.60177E+05        -0.48128E+08         0.00000E+00
    0.00000E+00         0.00000E+00        -0.15919E+08
 
   -0.22426E+08        -0.42562E+05         0.00000E+00
   -0.42562E+05        -0.48027E+08         0.00000E+00
    0.00000E+00         0.00000E+00        -0.16029E+08
 
   -0.22088E+08        -0.24186E+05         0.00000E+00
   -0.24186E+05        -0.47961E+08         0.00000E+00
    0.00000E+00         0.00000E+00        -0.16164E+08
 
   -0.21770E+08        -0.45674E+04         0.00000E+00
   -0.45674E+04        -0.47933E+08         0.00000E+00
    0.00000E+00         0.00000E+00        -0.16335E+08
 
   -0.21457E+08         0.17041E+05         0.00000E+00
    0.17041E+05        -0.47947E+08         0.00000E+00
    0.00000E+00         0.00000E+00        -0.16557E+08
 
   -0.21129E+08         0.42336E+05         0.00000E+00
    0.42336E+05        -0.48010E+08         0.00000E+00
    0.00000E+00         0.00000E+00        -0.16852E+08
 
   -0.20759E+08         0.75858E+05         0.00000E+00
    0.75858E+05        -0.48133E+08         0.00000E+00
    0.00000E+00         0.00000E+00        -0.17264E+08
 
   -0.20301E+08         0.13393E+06         0.00000E+00
    0.13393E+06        -0.48349E+08         0.00000E+00
    0.00000E+00         0.00000E+00        -0.17883E+08
 
   -0.19661E+08         0.29365E+06         0.00000E+00
    0.29365E+06        -0.48733E+08         0.00000E+00
    0.00000E+00         0.00000E+00        -0.18933E+08
 
TENSORS stresstot double 
   -0.35250E+08         0.28136E+04         0.00000E+00
    0.28136E+04        -0.59994E+08         0.00000E+00
    0.00000E+00         0.00000E+00        -0.39385E+08
 
   -0.35242E+08         0.90534E+04         0.00000E+00
    0.90534E+04        -0.59983E+08         0.00000E+00
    0.00000E+00         0.00000E+00        -0.39374E+08
 
   -0.35244E+08         0.15503E+05         0.00000E+00
    0.15503E+05        -0.59959E+08         0.00000E+00
    0.00000E+00         0.00000E+00        -0.39326E+08
 
   -0.35262E+08         0.21757E+05         0.00000E+00
    0.21757E+05        -0.59922E+08         0.00000E+00
    0.00000E+00         0.00000E+00        -0.39229E+08
 
   -0.35303E+08         0.27337E+05         0.00000E+00
    0.27337E+05        -0.59874E+08         0.00000E+00
    0.00000E+00         0.00000E+00        -0.39078E+08
 
   -0.35370E+08         0.31939E+05         0.00000E+00
    0.31939E+05        -0.59815E+08         0.00000E+00
    0.00000E+00         0.00000E+00        -0.38872E+08
 
   -0.35464E+08         0.35640E+05         0.00000E+00
    0.35640E+05        -0.59749E+08         0.00000E+00
    0.00000E+00         0.00000E+00        -0.38620E+08
 
   -0.35578E+08         0.38407E+05         0.00000E+00
    0.38407E+05        -0.59676E+08         0.00000E+00
    0.00000E+00         0.00000E+00        -0.38336E+08
 
   -0.35703E+08         0.40136E+05         0.00000E+00
    0.40136E+05        -0.59598E+08         0.00000E+00
    0.00000E+00         0.00000E+00        -0.38037E+08
 
   -0.35829E+08         0.40654E+05         0.00000E+00
    0.40654E+05        -0.59518E+08         0.00000E+00
    0.00000E+00         0.00000E+00        -0.37742E+08
 
   -0.35947E+08         0.39754E+05         0.00000E+00
    0.39754E+05        -0.59437E+08         0.00000E+00
    0.00000E+00         0.00000E+00        -0.37463E+08
 
   -0.36082E+08         0.39578E+05         0.00000E+00
    0.39578E+05        -0.59358E+08         0.00000E+00
    0.00000E+00         0.00000E+00        -0.37239E+08
 
   -0.36446E+08         0.46768E+05         0.00000E+00
    0.46768E+05        -0.59272E+08         0.00000E+00
    0.00000E+00         0.00000E+00        -0.37258E+08
 
   -0.36817E+08         0.58137E+05         0.00000E+00
    0.58137E+05        -0.59167E+08         0.00000E+00
    0.00000E+00         0.00000E+00        -0.37300E+08
 
   -0.37180E+08         0.72935E+05         0.00000E+00
    0.72935E+05        -0.59037E+08         0.00000E+00
    0.00000E+00         0.00000E+00        -0.37341E+08
 
   -0.35238E+08         0.84427E+04         0.00000E+00
    0.84427E+04        -0.59994E+08         0.00000E+00
    0.00000E+00         0.00000E+00        -0.39353E+08
 
   -0.35230E+08         0.27118E+05         0.00000E+00
    0.27118E+05        -0.59983E+08         0.00000E+00
    0.00000E+00         0.00000E+00        -0.39344E+08
 
   -0.35231E+08         0.46311E+05         0.00000E+00
    0.46311E+05        -0.59959E+08         0.00000E+00
    0.00000E+00         0.00000E+00        -0.39296E+08
 
   -0.35250E+08         0.64738E+05         0.00000E+00
    0.64738E+05        -0.59923E+08         0.00000E+00
    0.00000E+00         0.00000E+00        -0.39200E+08
 
   -0.35292E+08         0.80959E+05         0.00000E+00
    0.80959E+05        -0.59876E+08         0.00000E+00
    0.00000E+00         0.00000E+00        -0.39048E+08
 
   -0.35362E+08         0.94204E+05         0.00000E+00
    0.94204E+05        -0.59820E+08         0.00000E+00
    0.00000E+00         0.00000E+00        -0.38845E+08
 
   -0.35458E+08         0.10486E+06         0.00000E+00
    0.10486E+06        -0.59758E+08         0.00000E+00
    0.00000E+00         0.00000E+00        -0.38596E+08
 
   -0.35574E+08         0.11302E+06         0.00000E+00
    0.11302E+06        -0.59689E+08         0.00000E+00
    0.00000E+00         0.00000E+00        -0.38316E+08
 
   -0.35701E+08         0.11855E+06         0.00000E+00
    0.11855E+06        -0.59615E+08         0.00000E+00
    0.00000E+00         0.00000E+00        -0.38022E+08
 
   -0.35830E+08         0.12093E+06         0.00000E+00
    0.12093E+06        -0.59538E+08         0.00000E+00
    0.00000E+00         0.00000E+00        -0.37729E+08
 
   -0.35950E+08         0.11965E+06         0.00000E+00
    0.11965E+06        -0.59459E+08         0.00000E+00
    0.00000E+00         0.00000E+00        -0.37450E+08
 
   -0.36075E+08         0.11890E+06         0.00000E+00
    0.11890E+06        -0.59378E+08         0.00000E+00
    0.00000E+00         0.00000E+00        -0.37213E+08
 
   -0.36427E+08         0.13894E+06         0.00000E+00
    0.13894E+06        -0.59293E+08         0.00000E+00
    0.00000E+00         0.00000E+00        -0.37224E+08
 
   -0.36790E+08         0.17354E+06         0.00000E+00
    0.17354E+06        -0.59191E+08         0.00000E+00
    0.00000E+00         0.00000E+00        -0.37266E+08
 
   -0.37148E+08         0.21761E+06         0.00000E+00
    0.21761E+06        -0.59062E+08         0.00000E+00
    0.00000E+00         0.00000E+00        -0.37306E+08
 
   -0.35214E+08         0.14088E+05         0.00000E+00
    0.14088E+05        -0.59994E+08         0.00000E+00
    0.00000E+00         0.00000E+00        -0.39290E+08
 
   -0.35204E+08         0.44988E+05         0.00000E+00
    0.44988E+05        -0.59983E+08         0.00000E+00
    0.00000E+00         0.00000E+00        -0.39283E+08
 
   -0.35206E+08         0.76450E+05         0.00000E+00
    0.76450E+05        -0.59959E+08         0.00000E+00
    0.00000E+00         0.00000E+00        -0.39236E+08
 
   -0.35227E+08         0.10600E+06         0.00000E+00
    0.10600E+06        -0.59925E+08         0.00000E+00
    0.00000E+00         0.00000E+00        -0.39140E+08
 
   -0.35273E+08         0.13138E+06         0.00000E+00
    0.13138E+06        -0.59882E+08         0.00000E+00
    0.00000E+00         0.00000E+00        -0.38990E+08
 
   -0.35347E+08         0.15187E+06         0.00000E+00
    0.15187E+06        -0.59831E+08         0.00000E+00
    0.00000E+00         0.00000E+00        -0.38789E+08
 
   -0.35446E+08         0.16828E+06         0.00000E+00
    0.16828E+06        -0.59775E+08         0.00000E+00
    0.00000E+00         0.00000E+00        -0.38548E+08
 
   -0.35565E+08         0.18137E+06         0.00000E+00
    0.18137E+06        -0.59714E+08         0.00000E+00
    0.00000E+00         0.00000E+00        -0.38277E+08
 
   -0.35696E+08         0.19151E+06         0.00000E+00
    0.19151E+06        -0.59648E+08         0.00000E+00
    0.00000E+00         0.00000E+00        -0.37991E+08
 
   -0.35828E+08         0.19796E+06         0.00000E+00
    0.19796E+06        -0.59577E+08         0.00000E+00
    0.00000E+00         0.00000E+00        -0.37703E+08
 
   -0.35953E+08         0.19925E+06         0.00000E+00
    0.19925E+06        -0.59500E+08         0.00000E+00
    0.00000E+00         0.00000E+00        -0.37424E+08
 
   -0.36066E+08         0.19894E+06         0.00000E+00
    0.19894E+06        -0.59420E+08         0.00000E+00
    0.00000E+00         0.00000E+00        -0.37171E+08
 
   -0.36388E+08         0.22851E+06         0.00000E+00
    0.22851E+06        -0.59335E+08         0.00000E+00
    0.00000E+00         0.00000E+00        -0.37157E+08
 
   -0.36738E+08         0.28616E+06         0.00000E+00
    0.28616E+06        -0.59236E+08         0.00000E+00
    0.00000E+00         0.00000E+00        -0.37197E+08
 
   -0.37083E+08         0.35828E+06         0.00000E+00
    0.35828E+06        -0.59113E+08         0.00000E+00
    0.00000E+00         0.00000E+00        -0.37236E+08
 
   -0.35178E+08         0.19724E+05         0.00000E+00
    0.19724E+05        -0.59994E+08         0.00000E+00
    0.00000E+00         0.00000E+00        -0.39196E+08
 
   -0.35167E+08         0.62413E+05         0.00000E+00
    0.62413E+05        -0.59983E+08         0.00000E+00
    0.00000E+00         0.00000E+00        -0.39192E+08
 
   -0.35169E+08         0.10509E+06         0.00000E+00
    0.10509E+06        -0.59961E+08         0.00000E+00
    0.00000E+00         0.00000E+00        -0.39147E+08
 
   -0.35194E+08         0.14407E+06         0.00000E+00
    0.14407E+06        -0.59930E+08         0.00000E+00
    0.00000E+00         0.00000E+00        -0.39050E+08
 
   -0.35247E+08         0.17650E+06         0.00000E+00
    0.17650E+06        -0.59892E+08         0.00000E+00
    0.00000E+00         0.00000E+00        -0.38901E+08
 
   -0.35326E+08         0.20243E+06         0.00000E+00
    0.20243E+06        -0.59848E+08         0.00000E+00
    0.00000E+00         0.00000E+00        -0.38705E+08
 
   -0.35429E+08         0.22316E+06         0.00000E+00
    0.22316E+06        -0.59801E+08         0.00000E+00
    0.00000E+00         0.00000E+00        -0.38473E+08
 
   -0.35551E+08         0.24054E+06         0.00000E+00
    0.24054E+06        -0.59749E+08         0.00000E+00
    0.00000E+00         0.00000E+00        -0.38215E+08
 
   -0.35685E+08         0.25587E+06         0.00000E+00
    0.25587E+06        -0.59693E+08         0.00000E+00
    0.00000E+00         0.00000E+00        -0.37942E+08
 
   -0.35822E+08         0.26904E+06         0.00000E+00
    0.26904E+06        -0.59631E+08         0.00000E+00
    0.00000E+00         0.00000E+00        -0.37664E+08
 
   -0.35952E+08         0.27803E+06         0.00000E+00
    0.27803E+06        -0.59560E+08         0.00000E+00
    0.00000E+00         0.00000E+00        -0.37389E+08
 
   -0.36064E+08         0.28058E+06         0.00000E+00
    0.28058E+06        -0.59479E+08         0.00000E+00
    0.00000E+00         0.00000E+00        -0.37128E+08
 
   -0.36324E+08         0.31462E+06         0.00000E+00
    0.31462E+06        -0.59395E+08         0.00000E+00
    0.00000E+00         0.00000E+00        -0.37056E+08
 
   -0.36662E+08         0.39223E+06         0.00000E+00
    0.39223E+06        -0.59302E+08         0.00000E+00
    0.00000E+00         0.00000E+00        -0.37094E+08
 
   -0.36987E+08         0.49157E+06         0.00000E+00
    0.49157E+06        -0.59188E+08         0.00000E+00
    0.00000E+00         0.00000E+00        -0.37131E+08
 
   -0.35131E+08         0.25226E+05         0.00000E+00
    0.25226E+05        -0.59994E+08         0.00000E+00
    0.00000E+00         0.00000E+00        -0.39071E+08
 
   -0.35118E+08         0.78917E+05         0.00000E+00
    0.78917E+05        -0.59983E+08         0.00000E+00
    0.00000E+00         0.00000E+00        -0.39071E+08
 
   -0.35123E+08         0.13112E+06         0.00000E+00
    0.13112E+06        -0.59964E+08         0.00000E+00
    0.00000E+00         0.00000E+00        -0.39025E+08
 
   -0.35155E+08         0.17709E+06         0.00000E+00
    0.17709E+06        -0.59937E+08         0.00000E+00
    0.00000E+00         0.00000E+00        -0.38927E+08
 
   -0.35215E+08         0.21438E+06         0.00000E+00
    0.21438E+06        -0.59906E+08         0.00000E+00
    0.00000E+00         0.00000E+00        -0.38780E+08
 
   -0.35301E+08         0.24387E+06         0.00000E+00
    0.24387E+06        -0.59872E+08         0.00000E+00
    0.00000E+00         0.00000E+00        -0.38591E+08
 
   -0.35409E+08         0.26786E+06         0.00000E+00
    0.26786E+06        -0.59835E+08         0.00000E+00
    0.00000E+00         0.00000E+00        -0.38371E+08
 
   -0.35533E+08         0.28917E+06         0.00000E+00
    0.28917E+06        -0.59794E+08         0.00000E+00
    0.00000E+00         0.00000E+00        -0.38128E+08
 
   -0.35668E+08         0.30983E+06         0.00000E+00
    0.30983E+06        -0.59749E+08         0.00000E+00
    0.00000E+00         0.00000E+00        -0.37872E+08
 
   -0.35806E+08         0.33091E+06         0.00000E+00
    0.33091E+06        -0.59697E+08         0.00000E+00
    0.00000E+00         0.00000E+00        -0.37610E+08
 
   -0.35941E+08         0.35124E+06         0.00000E+00
    0.35124E+06        -0.59636E+08         0.00000E+00
    0.00000E+00         0.00000E+00        -0.37347E+08
 
   -0.36066E+08         0.36456E+06         0.00000E+00
    0.36456E+06        -0.59562E+08         0.00000E+00
    0.00000E+00         0.00000E+00        -0.37085E+08
 
   -0.36247E+08         0.39745E+06         0.00000E+00
    0.39745E+06        -0.59478E+08         0.00000E+00
    0.00000E+00         0.00000E+00        -0.36926E+08
 
   -0.36565E+08         0.48853E+06         0.00000E+00
    0.48853E+06        -0.59390E+08         0.00000E+00
    0.00000E+00         0.00000E+00        -0.36958E+08
 
   -0.36860E+08         0.61470E+06         0.00000E+00
    0.61470E+06        -0.59286E+08         0.00000E+00
    0.00000E+00         0.00000E+00        -0.36991E+08
 
   -0.35073E+08         0.30403E+05         0.00000E+00
    0.30403E+05        -0.59994E+08         0.00000E+00
    0.00000E+00         0.00000E+00        -0.38915E+08
 
   -0.35059E+08         0.93665E+05         0.00000E+00
    0.93665E+05        -0.59985E+08         0.00000E+00
    0.00000E+00         0.00000E+00        -0.38918E+08
 
   -0.35070E+08         0.15306E+06         0.00000E+00
    0.15306E+06        -0.59969E+08         0.00000E+00
    0.00000E+00         0.00000E+00        -0.38871E+08
 
   -0.35111E+08         0.20322E+06         0.00000E+00
    0.20322E+06        -0.59949E+08         0.00000E+00
    0.00000E+00         0.00000E+00        -0.38772E+08
 
   -0.35180E+08         0.24304E+06         0.00000E+00
    0.24304E+06        -0.59927E+08         0.00000E+00
    0.00000E+00         0.00000E+00        -0.38627E+08
 
   -0.35274E+08         0.27477E+06         0.00000E+00
    0.27477E+06        -0.59903E+08         0.00000E+00
    0.00000E+00         0.00000E+00        -0.38447E+08
 
   -0.35385E+08         0.30172E+06         0.00000E+00
    0.30172E+06        -0.59877E+08         0.00000E+00
    0.00000E+00         0.00000E+00        -0.38242E+08
 
   -0.35510E+08         0.32706E+06         0.00000E+00
    0.32706E+06        -0.59847E+08         0.00000E+00
    0.00000E+00         0.00000E+00        -0.38017E+08
 
   -0.35644E+08         0.35321E+06         0.00000E+00
    0.35321E+06        -0.59812E+08         0.00000E+00
    0.00000E+00         0.00000E+00        -0.37780E+08
 
   -0.35781E+08         0.38169E+06         0.00000E+00
    0.38169E+06        -0.59770E+08         0.00000E+00
    0.00000E+00         0.00000E+00        -0.37537E+08
 
   -0.35917E+08         0.41243E+06         0.00000E+00
    0.41243E+06        -0.59720E+08         0.00000E+00
    0.00000E+00         0.00000E+00        -0.37291E+08
 
   -0.36051E+08         0.44334E+06         0.00000E+00
    0.44334E+06        -0.59659E+08         0.00000E+00
    0.00000E+00         0.00000E+00        -0.37040E+08
 
   -0.36181E+08         0.48170E+06         0.00000E+00
    0.48170E+06        -0.59583E+08         0.00000E+00
    0.00000E+00         0.00000E+00        -0.36810E+08
 
   -0.36444E+08         0.57553E+06         0.00000E+00
    0.57553E+06        -0.59493E+08         0.00000E+00
    0.00000E+00         0.00000E+00        -0.36788E+08
 
   -0.36704E+08         0.72344E+06         0.00000E+00
    0.72344E+06        -0.59404E+08         0.00000E+00
    0.00000E+00         0.00000E+00        -0.36817E+08
 
   -0.35005E+08         0.34924E+05         0.00000E+00
    0.34924E+05        -0.59994E+08         0.00000E+00
    0.00000E+00         0.00000E+00        -0.38728E+08
 
   -0.34993E+08         0.10567E+06         0.00000E+00
    0.10567E+06        -0.59987E+08         0.00000E+00
    0.00000E+00         0.00000E+00        -0.38732E+08
 
   -0.35012E+08         0.16903E+06         0.00000E+00
    0.16903E+06        -0.59977E+08         0.00000E+00
    0.00000E+00         0.00000E+00        -0.38682E+08
 
   -0.35065E+08         0.22041E+06         0.00000E+00
    0.22041E+06        -0.59965E+08         0.00000E+00
    0.00000E+00         0.00000E+00        -0.38581E+08
 
   -0.35145E+08         0.26092E+06         0.00000E+00
    0.26092E+06        -0.59954E+08         0.00000E+00
    0.00000E+00         0.00000E+00        -0.38441E+08
 
   -0.35244E+08         0.29439E+06         0.00000E+00
    0.29439E+06        -0.59941E+08         0.00000E+00
    0.00000E+00         0.00000E+00        -0.38274E+08
 
   -0.35358E+08         0.32453E+06         0.00000E+00
    0.32453E+06        -0.59926E+08         0.00000E+00
    0.00000E+00         0.00000E+00        -0.38085E+08
 
   -0.35483E+08         0.35449E+06         0.00000E+00
    0.35449E+06        -0.59907E+08         0.00000E+00
    0.00000E+00         0.00000E+00        -0.37880E+08
 
   -0.35614E+08         0.38670E+06         0.00000E+00
    0.38670E+06        -0.59882E+08         0.00000E+00
    0.00000E+00         0.00000E+00        -0.37664E+08
 
   -0.35748E+08         0.42264E+06         0.00000E+00
    0.42264E+06        -0.59849E+08         0.00000E+00
    0.00000E+00         0.00000E+00        -0.37442E+08
 
   -0.35880E+08         0.46317E+06         0.00000E+00
    0.46317E+06        -0.59807E+08         0.00000E+00
    0.00000E+00         0.00000E+00        -0.37215E+08
 
   -0.36010E+08         0.50967E+06         0.00000E+00
    0.50967E+06        -0.59754E+08         0.00000E+00
    0.00000E+00         0.00000E+00        -0.36982E+08
 
   -0.36139E+08         0.56369E+06         0.00000E+00
    0.56369E+06        -0.59689E+08         0.00000E+00
    0.00000E+00         0.00000E+00        -0.36747E+08
 
   -0.36299E+08         0.65316E+06         0.00000E+00
    0.65316E+06        -0.59621E+08         0.00000E+00
    0.00000E+00         0.00000E+00        -0.36596E+08
 
   -0.36525E+08         0.81007E+06         0.00000E+00
    0.81007E+06        -0.59538E+08         0.00000E+00
    0.00000E+00         0.00000E+00        -0.36609E+08
 
   -0.34929E+08         0.38416E+05         0.00000E+00
    0.38416E+05        -0.59995E+08         0.00000E+00
    0.00000E+00         0.00000E+00        -0.38509E+08
 
   -0.34922E+08         0.11348E+06         0.00000E+00
    0.11348E+06        -0.59991E+08         0.00000E+00
    0.00000E+00         0.00000E+00        -0.38511E+08
 
   -0.34954E+08         0.17703E+06         0.00000E+00
    0.17703E+06        -0.59988E+08         0.00000E+00
    0.00000E+00         0.00000E+00        -0.38455E+08
 
   -0.35020E+08         0.22690E+06         0.00000E+00
    0.22690E+06        -0.59986E+08         0.00000E+00
    0.00000E+00         0.00000E+00        -0.38354E+08
 
   -0.35108E+08         0.26725E+06         0.00000E+00
    0.26725E+06        -0.59986E+08         0.00000E+00
    0.00000E+00         0.00000E+00        -0.38223E+08
 
   -0.35211E+08         0.30248E+06         0.00000E+00
    0.30248E+06        -0.59986E+08         0.00000E+00
    0.00000E+00         0.00000E+00        -0.38071E+08
 
   -0.35326E+08         0.33629E+06         0.00000E+00
    0.33629E+06        -0.59982E+08         0.00000E+00
    0.00000E+00         0.00000E+00        -0.37902E+08
 
   -0.35449E+08         0.37179E+06         0.00000E+00
    0.37179E+06        -0.59973E+08         0.00000E+00
    0.00000E+00         0.00000E+00        -0.37718E+08
 
   -0.35577E+08         0.41125E+06         0.00000E+00
    0.41125E+06        -0.59957E+08         0.00000E+00
    0.00000E+00         0.00000E+00        -0.37525E+08
 
   -0.35705E+08         0.45609E+06         0.00000E+00
    0.45609E+06        -0.59932E+08         0.00000E+00
    0.00000E+00         0.00000E+00        -0.37323E+08
 
   -0.35832E+08         0.50729E+06         0.00000E+00
    0.50729E+06        -0.59896E+08         0.00000E+00
    0.00000E+00         0.00000E+00        -0.37115E+08
 
   -0.35954E+08         0.56544E+06         0.00000E+00
    0.56544E+06        -0.59849E+08         0.00000E+00
    0.00000E+00         0.00000E+00        -0.36903E+08
 
   -0.36075E+08         0.63239E+06         0.00000E+00
    0.63239E+06        -0.59789E+08         0.00000E+00
    0.00000E+00         0.00000E+00        -0.36686E+08
 
   -0.36192E+08         0.72276E+06         0.00000E+00
    0.72276E+06        -0.59726E+08         0.00000E+00
    0.00000E+00         0.00000E+00        -0.36481E+08
 
   -0.36317E+08         0.86684E+06         0.00000E+00
    0.86684E+06        -0.59677E+08         0.00000E+00
    0.00000E+00         0.00000E+00        -0.36385E+08
 
   -0.34849E+08         0.40271E+05         0.00000E+00
    0.40271E+05        -0.59996E+08         0.00000E+00
    0.00000E+00         0.00000E+00        -0.38255E+08
 
   -0.34851E+08         0.11544E+06         0.00000E+00
    0.11544E+06        -0.59997E+08         0.00000E+00
    0.00000E+00         0.00000E+00        -0.38252E+08
 
   -0.34899E+08         0.17509E+06         0.00000E+00
    0.17509E+06        -0.60002E+08         0.00000E+00
    0.00000E+00         0.00000E+00        -0.38188E+08
 
   -0.34976E+08         0.22203E+06         0.00000E+00
    0.22203E+06        -0.60012E+08         0.00000E+00
    0.00000E+00         0.00000E+00        -0.38090E+08
 
   -0.35070E+08         0.26181E+06         0.00000E+00
    0.26181E+06        -0.60023E+08         0.00000E+00
    0.00000E+00         0.00000E+00        -0.37971E+08
 
   -0.35176E+08         0.29900E+06         0.00000E+00
    0.29900E+06        -0.60034E+08         0.00000E+00
    0.00000E+00         0.00000E+00        -0.37837E+08
 
   -0.35290E+08         0.33712E+06         0.00000E+00
    0.33712E+06        -0.60041E+08         0.00000E+00
    0.00000E+00         0.00000E+00        -0.37690E+08
 
   -0.35409E+08         0.37923E+06         0.00000E+00
    0.37923E+06        -0.60043E+08         0.00000E+00
    0.00000E+00         0.00000E+00        -0.37532E+08
 
   -0.35530E+08         0.42747E+06         0.00000E+00
    0.42747E+06        -0.60036E+08         0.00000E+00
    0.00000E+00         0.00000E+00        -0.37362E+08
 
   -0.35652E+08         0.48306E+06         0.00000E+00
    0.48306E+06        -0.60018E+08         0.00000E+00
    0.00000E+00         0.00000E+00        -0.37183E+08
 
   -0.35771E+08         0.54650E+06         0.00000E+00
    0.54650E+06        -0.59988E+08         0.00000E+00
    0.00000E+00         0.00000E+00        -0.36996E+08
 
   -0.35886E+08         0.61795E+06         0.00000E+00
    0.61795E+06        -0.59944E+08         0.00000E+00
    0.00000E+00         0.00000E+00        -0.36803E+08
 
   -0.35993E+08         0.69877E+06         0.00000E+00
    0.69877E+06        -0.59885E+08         0.00000E+00
    0.00000E+00         0.00000E+00        -0.36604E+08
 
   -0.36091E+08         0.79290E+06         0.00000E+00
    0.79290E+06        -0.59814E+08         0.00000E+00
    0.00000E+00         0.00000E+00        -0.36412E+08
 
   -0.36170E+08         0.90869E+06         0.00000E+00
    0.90869E+06        -0.59751E+08         0.00000E+00
    0.00000E+00         0.00000E+00        -0.36261E+08
 
   -0.34767E+08         0.39680E+05         0.00000E+00
    0.39680E+05        -0.59999E+08         0.00000E+00
    0.00000E+00         0.00000E+00        -0.37966E+08
 
   -0.34785E+08         0.10959E+06         0.00000E+00
    0.10959E+06        -0.60005E+08         0.00000E+00
    0.00000E+00         0.00000E+00        -0.37948E+08
 
   -0.34849E+08         0.16267E+06         0.00000E+00
    0.16267E+06        -0.60019E+08         0.00000E+00
    0.00000E+00         0.00000E+00        -0.37879E+08
 
   -0.34934E+08         0.20573E+06         0.00000E+00
    0.20573E+06        -0.60039E+08         0.00000E+00
    0.00000E+00         0.00000E+00        -0.37789E+08
 
   -0.35032E+08         0.24471E+06         0.00000E+00
    0.24471E+06        -0.60062E+08         0.00000E+00
    0.00000E+00         0.00000E+00        -0.37686E+08
 
   -0.35137E+08         0.28401E+06         0.00000E+00
    0.28401E+06        -0.60084E+08         0.00000E+00
    0.00000E+00         0.00000E+00        -0.37574E+08
 
   -0.35247E+08         0.32715E+06         0.00000E+00
    0.32715E+06        -0.60103E+08         0.00000E+00
    0.00000E+00         0.00000E+00        -0.37452E+08
 
   -0.35360E+08         0.37698E+06         0.00000E+00
    0.37698E+06        -0.60114E+08         0.00000E+00
    0.00000E+00         0.00000E+00        -0.37321E+08
 
   -0.35473E+08         0.43547E+06         0.00000E+00
    0.43547E+06        -0.60117E+08         0.00000E+00
    0.00000E+00         0.00000E+00        -0.37178E+08
 
   -0.35586E+08         0.50353E+06         0.00000E+00
    0.50353E+06        -0.60107E+08         0.00000E+00
    0.00000E+00         0.00000E+00        -0.37025E+08
 
   -0.35697E+08         0.58124E+06         0.00000E+00
    0.58124E+06        -0.60082E+08         0.00000E+00
    0.00000E+00         0.00000E+00        -0.36860E+08
 
   -0.35802E+08         0.66840E+06         0.00000E+00
    0.66840E+06        -0.60042E+08         0.00000E+00
    0.00000E+00         0.00000E+00        -0.36687E+08
 
   -0.35900E+08         0.76424E+06         0.00000E+00
    0.76424E+06        -0.59986E+08         0.00000E+00
    0.00000E+00         0.00000E+00        -0.36508E+08
 
   -0.35988E+08         0.86721E+06         0.00000E+00
    0.86721E+06        -0.59917E+08         0.00000E+00
    0.00000E+00         0.00000E+00        -0.36331E+08
 
   -0.36064E+08         0.97392E+06         0.00000E+00
    0.97392E+06        -0.59844E+08         0.00000E+00
    0.00000E+00         0.00000E+00        -0.36172E+08
 
   -0.34689E+08         0.35558E+05         0.00000E+00
    0.35558E+05        -0.60001E+08         0.00000E+00
    0.00000E+00         0.00000E+00        -0.37632E+08
 
   -0.34729E+08         0.95180E+05         0.00000E+00
    0.95180E+05        -0.60014E+08         0.00000E+00
    0.00000E+00         0.00000E+00        -0.37597E+08
 
   -0.34804E+08         0.13986E+06         0.00000E+00
    0.13986E+06        -0.60037E+08         0.00000E+00
    0.00000E+00         0.00000E+00        -0.37528E+08
 
   -0.34895E+08         0.17826E+06         0.00000E+00
    0.17826E+06        -0.60068E+08         0.00000E+00
    0.00000E+00         0.00000E+00        -0.37450E+08
 
   -0.34993E+08         0.21610E+06         0.00000E+00
    0.21610E+06        -0.60102E+08         0.00000E+00
    0.00000E+00         0.00000E+00        -0.37367E+08
 
   -0.35095E+08         0.25766E+06         0.00000E+00
    0.25766E+06        -0.60135E+08         0.00000E+00
    0.00000E+00         0.00000E+00        -0.37280E+08
 
   -0.35198E+08         0.30641E+06         0.00000E+00
    0.30641E+06        -0.60165E+08         0.00000E+00
    0.00000E+00         0.00000E+00        -0.37187E+08
 
   -0.35301E+08         0.36499E+06         0.00000E+00
    0.36499E+06        -0.60186E+08         0.00000E+00
    0.00000E+00         0.00000E+00        -0.37086E+08
 
   -0.35404E+08         0.43499E+06         0.00000E+00
    0.43499E+06        -0.60198E+08         0.00000E+00
    0.00000E+00         0.00000E+00        -0.36973E+08
 
   -0.35507E+08         0.51696E+06         0.00000E+00
    0.51696E+06        -0.60196E+08         0.00000E+00
    0.00000E+00         0.00000E+00        -0.36848E+08
 
   -0.35607E+08         0.61047E+06         0.00000E+00
    0.61047E+06        -0.60179E+08         0.00000E+00
    0.00000E+00         0.00000E+00        -0.36709E+08
 
   -0.35703E+08         0.71401E+06         0.00000E+00
    0.71401E+06        -0.60145E+08         0.00000E+00
    0.00000E+00         0.00000E+00        -0.36559E+08
 
   -0.35795E+08         0.82488E+06         0.00000E+00
    0.82488E+06        -0.60095E+08         0.00000E+00
    0.00000E+00         0.00000E+00        -0.36401E+08
 
   -0.35880E+08         0.93877E+06         0.00000E+00
    0.93877E+06        -0.60031E+08         0.00000E+00
    0.00000E+00         0.00000E+00        -0.36238E+08
 
   -0.35959E+08         0.10513E+07         0.00000E+00
    0.10513E+07        -0.59956E+08         0.00000E+00
    0.00000E+00         0.00000E+00        -0.36076E+08
 
   -0.34624E+08         0.27305E+05         0.00000E+00
    0.27305E+05        -0.60004E+08         0.00000E+00
    0.00000E+00         0.00000E+00        -0.37250E+08
 
   -0.34684E+08         0.72525E+05         0.00000E+00
    0.72525E+05        -0.60022E+08         0.00000E+00
    0.00000E+00         0.00000E+00        -0.37199E+08
 
   -0.34767E+08         0.10723E+06         0.00000E+00
    0.10723E+06        -0.60054E+08         0.00000E+00
    0.00000E+00         0.00000E+00        -0.37136E+08
 
   -0.34859E+08         0.13988E+06         0.00000E+00
    0.13988E+06        -0.60095E+08         0.00000E+00
    0.00000E+00         0.00000E+00        -0.37074E+08
 
   -0.34954E+08         0.17611E+06         0.00000E+00
    0.17611E+06        -0.60140E+08         0.00000E+00
    0.00000E+00         0.00000E+00        -0.37015E+08
 
   -0.35048E+08         0.22003E+06         0.00000E+00
    0.22003E+06        -0.60184E+08         0.00000E+00
    0.00000E+00         0.00000E+00        -0.36957E+08
 
   -0.35141E+08         0.27492E+06         0.00000E+00
    0.27492E+06        -0.60225E+08         0.00000E+00
    0.00000E+00         0.00000E+00        -0.36896E+08
 
   -0.35232E+08         0.34307E+06         0.00000E+00
    0.34307E+06        -0.60257E+08         0.00000E+00
    0.00000E+00         0.00000E+00        -0.36827E+08
 
   -0.35322E+08         0.42558E+06         0.00000E+00
    0.42558E+06        -0.60278E+08         0.00000E+00
    0.00000E+00         0.00000E+00        -0.36747E+08
 
   -0.35411E+08         0.52243E+06         0.00000E+00
    0.52243E+06        -0.60285E+08         0.00000E+00
    0.00000E+00         0.00000E+00        -0.36653E+08
 
   -0.35500E+08         0.63230E+06         0.00000E+00
    0.63230E+06        -0.60276E+08         0.00000E+00
    0.00000E+00         0.00000E+00        -0.36543E+08
 
   -0.35588E+08         0.75252E+06         0.00000E+00
    0.75252E+06        -0.60250E+08         0.00000E+00
    0.00000E+00         0.00000E+00        -0.36418E+08
 
   -0.35675E+08         0.87902E+06         0.00000E+00
    0.87902E+06        -0.60207E+08         0.00000E+00
    0.00000E+00         0.00000E+00        -0.36279E+08
 
   -0.35761E+08         0.10072E+07         0.00000E+00
    0.10072E+07        -0.60148E+08         0.00000E+00
    0.00000E+00         0.00000E+00        -0.36128E+08
 
   -0.35844E+08         0.11325E+07         0.00000E+00
    0.11325E+07        -0.60074E+08         0.00000E+00
    0.00000E+00         0.00000E+00        -0.35968E+08
 
   -0.34579E+08         0.15305E+05         0.00000E+00
    0.15305E+05        -0.60006E+08         0.00000E+00
    0.00000E+00         0.00000E+00        -0.36812E+08
 
   -0.34652E+08         0.42627E+05         0.00000E+00
    0.42627E+05        -0.60029E+08         0.00000E+00
    0.00000E+00         0.00000E+00        -0.36754E+08
 
   -0.34739E+08         0.65225E+05         0.00000E+00
    0.65225E+05        -0.60069E+08         0.00000E+00
    0.00000E+00         0.00000E+00        -0.36702E+08
 
   -0.34828E+08         0.90880E+05         0.00000E+00
    0.90880E+05        -0.60119E+08         0.00000E+00
    0.00000E+00         0.00000E+00        -0.36662E+08
 
   -0.34914E+08         0.12493E+06         0.00000E+00
    0.12493E+06        -0.60175E+08         0.00000E+00
    0.00000E+00         0.00000E+00        -0.36631E+08
 
   -0.34997E+08         0.17129E+06         0.00000E+00
    0.17129E+06        -0.60230E+08         0.00000E+00
    0.00000E+00         0.00000E+00        -0.36606E+08
 
   -0.35075E+08         0.23274E+06         0.00000E+00
    0.23274E+06        -0.60281E+08         0.00000E+00
    0.00000E+00         0.00000E+00        -0.36579E+08
 
   -0.35151E+08         0.31105E+06         0.00000E+00
    0.31105E+06        -0.60324E+08         0.00000E+00
    0.00000E+00         0.00000E+00        -0.36545E+08
 
   -0.35226E+08         0.40667E+06         0.00000E+00
    0.40667E+06        -0.60355E+08         0.00000E+00
    0.00000E+00         0.00000E+00        -0.36500E+08
 
   -0.35300E+08         0.51890E+06         0.00000E+00
    0.51890E+06        -0.60371E+08         0.00000E+00
    0.00000E+00         0.00000E+00        -0.36439E+08
 
   -0.35377E+08         0.64549E+06         0.00000E+00
    0.64549E+06        -0.60371E+08         0.00000E+00
    0.00000E+00         0.00000E+00        -0.36360E+08
 
   -0.35456E+08         0.78298E+06         0.00000E+00
    0.78298E+06        -0.60353E+08         0.00000E+00
    0.00000E+00         0.00000E+00        -0.36261E+08
 
   -0.35539E+08         0.92688E+06         0.00000E+00
    0.92688E+06        -0.60318E+08         0.00000E+00
    0.00000E+00         0.00000E+00        -0.36141E+08
 
   -0.35626E+08         0.10723E+07         0.00000E+00
    0.10723E+07        -0.60264E+08         0.00000E+00
    0.00000E+00         0.00000E+00        -0.36002E+08
 
   -0.35715E+08         0.12140E+07         0.00000E+00
    0.12140E+07        -0.60192E+08         0.00000E+00
    0.00000E+00         0.00000E+00        -0.35844E+08
 
   -0.34557E+08         0.80070E+03         0.00000E+00
    0.80070E+03        -0.60007E+08         0.00000E+00
    0.00000E+00         0.00000E+00        -0.36320E+08
 
   -0.34637E+08         0.64150E+04         0.00000E+00
    0.64150E+04        -0.60034E+08         0.00000E+00
    0.00000E+00         0.00000E+00        -0.36264E+08
 
   -0.34721E+08         0.14441E+05         0.00000E+00
    0.14441E+05        -0.60081E+08         0.00000E+00
    0.00000E+00         0.00000E+00        -0.36229E+08
 
   -0.34801E+08         0.31787E+05         0.00000E+00
    0.31787E+05        -0.60141E+08         0.00000E+00
    0.00000E+00         0.00000E+00        -0.36215E+08
 
   -0.34874E+08         0.63161E+05         0.00000E+00
    0.63161E+05        -0.60206E+08         0.00000E+00
    0.00000E+00         0.00000E+00        -0.36216E+08
 
   -0.34941E+08         0.11191E+06         0.00000E+00
    0.11191E+06        -0.60272E+08         0.00000E+00
    0.00000E+00         0.00000E+00        -0.36225E+08
 
   -0.35001E+08         0.18015E+06         0.00000E+00
    0.18015E+06        -0.60333E+08         0.00000E+00
    0.00000E+00         0.00000E+00        -0.36235E+08
 
   -0.35058E+08         0.26886E+06         0.00000E+00
    0.26886E+06        -0.60385E+08         0.00000E+00
    0.00000E+00         0.00000E+00        -0.36239E+08
 
   -0.35115E+08         0.37792E+06         0.00000E+00
    0.37792E+06        -0.60426E+08         0.00000E+00
    0.00000E+00         0.00000E+00        -0.36231E+08
 
   -0.35173E+08         0.50574E+06         0.00000E+00
    0.50574E+06        -0.60451E+08         0.00000E+00
    0.00000E+00         0.00000E+00        -0.36205E+08
 
   -0.35236E+08         0.64958E+06         0.00000E+00
    0.64958E+06        -0.60461E+08         0.00000E+00
    0.00000E+00         0.00000E+00        -0.36157E+08
 
   -0.35306E+08         0.80543E+06         0.00000E+00
    0.80543E+06        -0.60452E+08         0.00000E+00
    0.00000E+00         0.00000E+00        -0.36084E+08
 
   -0.35385E+08         0.96848E+06         0.00000E+00
    0.96848E+06        -0.60424E+08         0.00000E+00
    0.00000E+00         0.00000E+00        -0.35984E+08
 
   -0.35473E+08         0.11333E+07         0.00000E+00
    0.11333E+07        -0.60376E+08         0.00000E+00
    0.00000E+00         0.00000E+00        -0.35856E+08
 
   -0.35569E+08         0.12938E+07         0.00000E+00
    0.12938E+07        -0.60307E+08         0.00000E+00
    0.00000E+00         0.00000E+00        -0.35702E+08
 
   -0.34564E+08        -0.15435E+05         0.00000E+00
   -0.15435E+05        -0.60008E+08         0.00000E+00
    0.00000E+00         0.00000E+00        -0.35778E+08
 
   -0.34642E+08        -0.35014E+05         0.00000E+00
   -0.35014E+05        -0.60039E+08         0.00000E+00
    0.00000E+00         0.00000E+00        -0.35732E+08
 
   -0.34715E+08        -0.43919E+05         0.00000E+00
   -0.43919E+05        -0.60091E+08         0.00000E+00
    0.00000E+00         0.00000E+00        -0.35720E+08
 
   -0.34780E+08        -0.36214E+05         0.00000E+00
   -0.36214E+05        -0.60158E+08         0.00000E+00
    0.00000E+00         0.00000E+00        -0.35736E+08
 
   -0.34835E+08        -0.81149E+04         0.00000E+00
   -0.81149E+04        -0.60232E+08         0.00000E+00
    0.00000E+00         0.00000E+00        -0.35771E+08
 
   -0.34880E+08         0.42745E+05         0.00000E+00
    0.42745E+05        -0.60306E+08         0.00000E+00
    0.00000E+00         0.00000E+00        -0.35817E+08
 
   -0.34919E+08         0.11766E+06         0.00000E+00
    0.11766E+06        -0.60376E+08         0.00000E+00
    0.00000E+00         0.00000E+00        -0.35865E+08
 
   -0.34954E+08         0.21685E+06         0.00000E+00
    0.21685E+06        -0.60438E+08         0.00000E+00
    0.00000E+00         0.00000E+00        -0.35908E+08
 
   -0.34989E+08         0.33934E+06         0.00000E+00
    0.33934E+06        -0.60488E+08         0.00000E+00
    0.00000E+00         0.00000E+00        -0.35937E+08
 
   -0.35029E+08         0.48305E+06         0.00000E+00
    0.48305E+06        -0.60523E+08         0.00000E+00
    0.00000E+00         0.00000E+00        -0.35947E+08
 
   -0.35077E+08         0.64467E+06         0.00000E+00
    0.64467E+06        -0.60542E+08         0.00000E+00
    0.00000E+00         0.00000E+00        -0.35930E+08
 
   -0.35137E+08         0.81988E+06         0.00000E+00
    0.81988E+06        -0.60541E+08         0.00000E+00
    0.00000E+00         0.00000E+00        -0.35884E+08
 
   -0.35211E+08         0.10034E+07         0.00000E+00
    0.10034E+07        -0.60521E+08         0.00000E+00
    0.00000E+00         0.00000E+00        -0.35805E+08
 
   -0.35300E+08         0.11892E+07         0.00000E+00
    0.11892E+07        -0.60479E+08         0.00000E+00
    0.00000E+00         0.00000E+00        -0.35691E+08
 
   -0.35403E+08         0.13703E+07         0.00000E+00
    0.13703E+07        -0.60415E+08         0.00000E+00
    0.00000E+00         0.00000E+00        -0.35542E+08
 
   -0.34602E+08        -0.33094E+05         0.00000E+00
   -0.33094E+05        -0.60009E+08         0.00000E+00
    0.00000E+00         0.00000E+00        -0.35189E+08
 
   -0.34668E+08        -0.80450E+05         0.00000E+00
   -0.80450E+05        -0.60042E+08         0.00000E+00
    0.00000E+00         0.00000E+00        -0.35163E+08
 
   -0.34724E+08        -0.10809E+06         0.00000E+00
   -0.10809E+06        -0.60099E+08         0.00000E+00
    0.00000E+00         0.00000E+00        -0.35179E+08
 
   -0.34766E+08        -0.11128E+06         0.00000E+00
   -0.11128E+06        -0.60171E+08         0.00000E+00
    0.00000E+00         0.00000E+00        -0.35228E+08
 
   -0.34796E+08        -0.87332E+05         0.00000E+00
   -0.87332E+05        -0.60251E+08         0.00000E+00
    0.00000E+00         0.00000E+00        -0.35299E+08
 
   -0.34815E+08        -0.34893E+05         0.00000E+00
   -0.34893E+05        -0.60332E+08         0.00000E+00
    0.00000E+00         0.00000E+00        -0.35382E+08
 
   -0.34827E+08         0.46361E+05         0.00000E+00
    0.46361E+05        -0.60410E+08         0.00000E+00
    0.00000E+00         0.00000E+00        -0.35469E+08
 
   -0.34837E+08         0.15576E+06         0.00000E+00
    0.15576E+06        -0.60480E+08         0.00000E+00
    0.00000E+00         0.00000E+00        -0.35550E+08
 
   -0.34848E+08         0.29163E+06         0.00000E+00
    0.29163E+06        -0.60538E+08         0.00000E+00
    0.00000E+00         0.00000E+00        -0.35617E+08
 
   -0.34867E+08         0.45132E+06         0.00000E+00
    0.45132E+06        -0.60582E+08         0.00000E+00
    0.00000E+00         0.00000E+00        -0.35662E+08
 
   -0.34899E+08         0.63110E+06         0.00000E+00
    0.63110E+06        -0.60609E+08         0.00000E+00
    0.00000E+00         0.00000E+00        -0.35678E+08
 
   -0.34947E+08         0.82626E+06         0.00000E+00
    0.82626E+06        -0.60617E+08         0.00000E+00
    0.00000E+00         0.00000E+00        -0.35659E+08
 
   -0.35016E+08         0.10311E+07         0.00000E+00
    0.10311E+07        -0.60605E+08         0.00000E+00
    0.00000E+00         0.00000E+00        -0.35601E+08
 
   -0.35105E+08         0.12390E+07         0.00000E+00
    0.12390E+07        -0.60570E+08         0.00000E+00
    0.00000E+00         0.00000E+00        -0.35502E+08
 
   -0.35217E+08         0.14423E+07         0.00000E+00
    0.14423E+07        -0.60512E+08         0.00000E+00
    0.00000E+00         0.00000E+00        -0.35361E+08
 
   -0.34674E+08        -0.51806E+05         0.00000E+00
   -0.51806E+05        -0.60010E+08         0.00000E+00
    0.00000E+00         0.00000E+00        -0.34558E+08
 
   -0.34719E+08        -0.12851E+06         0.00000E+00
   -0.12851E+06        -0.60044E+08         0.00000E+00
    0.00000E+00         0.00000E+00        -0.34559E+08
 
   -0.34747E+08        -0.17620E+06         0.00000E+00
   -0.17620E+06        -0.60103E+08         0.00000E+00
    0.00000E+00         0.00000E+00        -0.34607E+08
 
   -0.34760E+08        -0.19136E+06         0.00000E+00
   -0.19136E+06        -0.60179E+08         0.00000E+00
    0.00000E+00         0.00000E+00        -0.34691E+08
 
   -0.34759E+08        -0.17246E+06         0.00000E+00
   -0.17246E+06        -0.60263E+08         0.00000E+00
    0.00000E+00         0.00000E+00        -0.34799E+08
 
   -0.34746E+08        -0.11915E+06         0.00000E+00
   -0.11915E+06        -0.60349E+08         0.00000E+00
    0.00000E+00         0.00000E+00        -0.34921E+08
 
   -0.34728E+08        -0.32097E+05         0.00000E+00
   -0.32097E+05        -0.60433E+08         0.00000E+00
    0.00000E+00         0.00000E+00        -0.35045E+08
 
   -0.34708E+08         0.87076E+05         0.00000E+00
    0.87076E+05        -0.60509E+08         0.00000E+00
    0.00000E+00         0.00000E+00        -0.35164E+08
 
   -0.34693E+08         0.23597E+06         0.00000E+00
    0.23597E+06        -0.60574E+08         0.00000E+00
    0.00000E+00         0.00000E+00        -0.35267E+08
 
   -0.34689E+08         0.41138E+06         0.00000E+00
    0.41138E+06        -0.60625E+08         0.00000E+00
    0.00000E+00         0.00000E+00        -0.35347E+08
 
   -0.34702E+08         0.60920E+06         0.00000E+00
    0.60920E+06        -0.60660E+08         0.00000E+00
    0.00000E+00         0.00000E+00        -0.35395E+08
 
   -0.34737E+08         0.82438E+06         0.00000E+00
    0.82438E+06        -0.60676E+08         0.00000E+00
    0.00000E+00         0.00000E+00        -0.35405E+08
 
   -0.34798E+08         0.10509E+07         0.00000E+00
    0.10509E+07        -0.60672E+08         0.00000E+00
    0.00000E+00         0.00000E+00        -0.35371E+08
 
   -0.34888E+08         0.12817E+07         0.00000E+00
    0.12817E+07        -0.60645E+08         0.00000E+00
    0.00000E+00         0.00000E+00        -0.35289E+08
 
   -0.35008E+08         0.15087E+07         0.00000E+00
    0.15087E+07        -0.60594E+08         0.00000E+00
    0.00000E+00         0.00000E+00        -0.35156E+08
 
   -0.34781E+08        -0.70985E+05         0.00000E+00
   -0.70985E+05        -0.60010E+08         0.00000E+00
    0.00000E+00         0.00000E+00        -0.33893E+08
 
   -0.34795E+08        -0.17792E+06         0.00000E+00
   -0.17792E+06        -0.60045E+08         0.00000E+00
    0.00000E+00         0.00000E+00        -0.33926E+08
 
   -0.34788E+08        -0.24631E+06         0.00000E+00
   -0.24631E+06        -0.60105E+08         0.00000E+00
    0.00000E+00         0.00000E+00        -0.34010E+08
 
   -0.34763E+08        -0.27422E+06         0.00000E+00
   -0.27422E+06        -0.60182E+08         0.00000E+00
    0.00000E+00         0.00000E+00        -0.34131E+08
 
   -0.34724E+08        -0.26100E+06         0.00000E+00
   -0.26100E+06        -0.60268E+08         0.00000E+00
    0.00000E+00         0.00000E+00        -0.34276E+08
 
   -0.34675E+08        -0.20746E+06         0.00000E+00
   -0.20746E+06        -0.60356E+08         0.00000E+00
    0.00000E+00         0.00000E+00        -0.34434E+08
 
   -0.34621E+08        -0.11526E+06         0.00000E+00
   -0.11526E+06        -0.60443E+08         0.00000E+00
    0.00000E+00         0.00000E+00        -0.34594E+08
 
   -0.34568E+08         0.12974E+05         0.00000E+00
    0.12974E+05        -0.60522E+08         0.00000E+00
    0.00000E+00         0.00000E+00        -0.34748E+08
 
   -0.34524E+08         0.17413E+06         0.00000E+00
    0.17413E+06        -0.60592E+08         0.00000E+00
    0.00000E+00         0.00000E+00        -0.34886E+08
 
   -0.34494E+08         0.36440E+06         0.00000E+00
    0.36440E+06        -0.60648E+08         0.00000E+00
    0.00000E+00         0.00000E+00        -0.35000E+08
 
   -0.34486E+08         0.57939E+06         0.00000E+00
    0.57939E+06        -0.60690E+08         0.00000E+00
    0.00000E+00         0.00000E+00        -0.35080E+08
 
   -0.34505E+08         0.81401E+06         0.00000E+00
    0.81401E+06        -0.60714E+08         0.00000E+00
    0.00000E+00         0.00000E+00        -0.35120E+08
 
   -0.34558E+08         0.10621E+07         0.00000E+00
    0.10621E+07        -0.60719E+08         0.00000E+00
    0.00000E+00         0.00000E+00        -0.35111E+08
 
   -0.34647E+08         0.13162E+07         0.00000E+00
    0.13162E+07        -0.60701E+08         0.00000E+00
    0.00000E+00         0.00000E+00        -0.35048E+08
 
   -0.34775E+08         0.15674E+07         0.00000E+00
    0.15674E+07        -0.60659E+08         0.00000E+00
    0.00000E+00         0.00000E+00        -0.34927E+08
 
   -0.34924E+08        -0.90130E+05         0.00000E+00
   -0.90130E+05        -0.60010E+08         0.00000E+00
    0.00000E+00         0.00000E+00        -0.33200E+08
 
   -0.34896E+08        -0.22739E+06         0.00000E+00
   -0.22739E+06        -0.60044E+08         0.00000E+00
    0.00000E+00         0.00000E+00        -0.33270E+08
 
   -0.34844E+08        -0.31668E+06         0.00000E+00
   -0.31668E+06        -0.60104E+08         0.00000E+00
    0.00000E+00         0.00000E+00        -0.33391E+08
 
   -0.34775E+08        -0.35729E+06         0.00000E+00
   -0.35729E+06        -0.60180E+08         0.00000E+00
    0.00000E+00         0.00000E+00        -0.33549E+08
 
   -0.34692E+08        -0.35001E+06         0.00000E+00
   -0.35001E+06        -0.60265E+08         0.00000E+00
    0.00000E+00         0.00000E+00        -0.33730E+08
 
   -0.34600E+08        -0.29661E+06         0.00000E+00
   -0.29661E+06        -0.60352E+08         0.00000E+00
    0.00000E+00         0.00000E+00        -0.33922E+08
 
   -0.34507E+08        -0.19992E+06         0.00000E+00
   -0.19992E+06        -0.60438E+08         0.00000E+00
    0.00000E+00         0.00000E+00        -0.34116E+08
 
   -0.34418E+08        -0.63523E+05         0.00000E+00
   -0.63523E+05        -0.60517E+08         0.00000E+00
    0.00000E+00         0.00000E+00        -0.34302E+08
 
   -0.34341E+08         0.10852E+06         0.00000E+00
    0.10852E+06        -0.60588E+08         0.00000E+00
    0.00000E+00         0.00000E+00        -0.34471E+08
 
   -0.34283E+08         0.31194E+06         0.00000E+00
    0.31194E+06        -0.60648E+08         0.00000E+00
    0.00000E+00         0.00000E+00        -0.34616E+08
 
   -0.34252E+08         0.54238E+06         0.00000E+00
    0.54238E+06        -0.60695E+08         0.00000E+00
    0.00000E+00         0.00000E+00        -0.34727E+08
 
   -0.34254E+08         0.79485E+06         0.00000E+00
    0.79485E+06        -0.60727E+08         0.00000E+00
    0.00000E+00         0.00000E+00        -0.34797E+08
 
   -0.34295E+08         0.10635E+07         0.00000E+00
    0.10635E+07        -0.60741E+08         0.00000E+00
    0.00000E+00         0.00000E+00        -0.34817E+08
 
   -0.34382E+08         0.13408E+07         0.00000E+00
    0.13408E+07        -0.60734E+08         0.00000E+00
    0.00000E+00         0.00000E+00        -0.34777E+08
 
   -0.34517E+08         0.16169E+07         0.00000E+00
    0.16169E+07        -0.60704E+08         0.00000E+00
    0.00000E+00         0.00000E+00        -0.34670E+08
 
   -0.35103E+08        -0.10889E+06         0.00000E+00
   -0.10889E+06        -0.60010E+08         0.00000E+00
    0.00000E+00         0.00000E+00        -0.32487E+08
 
   -0.35022E+08        -0.27586E+06         0.00000E+00
   -0.27586E+06        -0.60043E+08         0.00000E+00
    0.00000E+00         0.00000E+00        -0.32596E+08
 
   -0.34918E+08        -0.38523E+06         0.00000E+00
   -0.38523E+06        -0.60101E+08         0.00000E+00
    0.00000E+00         0.00000E+00        -0.32756E+08
 
   -0.34796E+08        -0.43797E+06         0.00000E+00
   -0.43797E+06        -0.60173E+08         0.00000E+00
    0.00000E+00         0.00000E+00        -0.32950E+08
 
   -0.34662E+08        -0.43610E+06         0.00000E+00
   -0.43610E+06        -0.60254E+08         0.00000E+00
    0.00000E+00         0.00000E+00        -0.33164E+08
 
   -0.34524E+08        -0.38275E+06         0.00000E+00
   -0.38275E+06        -0.60336E+08         0.00000E+00
    0.00000E+00         0.00000E+00        -0.33387E+08
 
   -0.34387E+08        -0.28208E+06         0.00000E+00
   -0.28208E+06        -0.60417E+08         0.00000E+00
    0.00000E+00         0.00000E+00        -0.33609E+08
 
   -0.34259E+08        -0.13875E+06         0.00000E+00
   -0.13875E+06        -0.60492E+08         0.00000E+00
    0.00000E+00         0.00000E+00        -0.33822E+08
 
   -0.34147E+08         0.42185E+05         0.00000E+00
    0.42185E+05        -0.60560E+08         0.00000E+00
    0.00000E+00         0.00000E+00        -0.34018E+08
 
   -0.34059E+08         0.25623E+06         0.00000E+00
    0.25623E+06        -0.60620E+08         0.00000E+00
    0.00000E+00         0.00000E+00        -0.34191E+08
 
   -0.34002E+08         0.49908E+06         0.00000E+00
    0.49908E+06        -0.60671E+08         0.00000E+00
    0.00000E+00         0.00000E+00        -0.34332E+08
 
   -0.33984E+08         0.76663E+06         0.00000E+00
    0.76663E+06        -0.60711E+08         0.00000E+00
    0.00000E+00         0.00000E+00        -0.34433E+08
 
   -0.34011E+08         0.10537E+07         0.00000E+00
    0.10537E+07        -0.60735E+08         0.00000E+00
    0.00000E+00         0.00000E+00        -0.34484E+08
 
   -0.34093E+08         0.13532E+07         0.00000E+00
    0.13532E+07        -0.60742E+08         0.00000E+00
    0.00000E+00         0.00000E+00        -0.34472E+08
 
   -0.34233E+08         0.16547E+07         0.00000E+00
    0.16547E+07        -0.60724E+08         0.00000E+00
    0.00000E+00         0.00000E+00        -0.34385E+08
 
   -0.35316E+08        -0.12703E+06         0.00000E+00
   -0.12703E+06        -0.60010E+08         0.00000E+00
    0.00000E+00         0.00000E+00        -0.31761E+08
 
   -0.35172E+08        -0.32229E+06         0.00000E+00
   -0.32229E+06        -0.60042E+08         0.00000E+00
    0.00000E+00         0.00000E+00        -0.31911E+08
 
   -0.35006E+08        -0.45016E+06         0.00000E+00
   -0.45016E+06        -0.60096E+08         0.00000E+00
    0.00000E+00         0.00000E+00        -0.32109E+08
 
   -0.34825E+08        -0.51329E+06         0.00000E+00
   -0.51329E+06        -0.60162E+08         0.00000E+00
    0.00000E+00         0.00000E+00        -0.32337E+08
 
   -0.34636E+08        -0.51539E+06         0.00000E+00
   -0.51539E+06        -0.60235E+08         0.00000E+00
    0.00000E+00         0.00000E+00        -0.32581E+08
 
   -0.34445E+08        -0.46141E+06         0.00000E+00
   -0.46141E+06        -0.60308E+08         0.00000E+00
    0.00000E+00         0.00000E+00        -0.32830E+08
 
   -0.34262E+08        -0.35710E+06         0.00000E+00
   -0.35710E+06        -0.60378E+08         0.00000E+00
    0.00000E+00         0.00000E+00        -0.33074E+08
 
   -0.34093E+08        -0.20849E+06         0.00000E+00
   -0.20849E+06        -0.60445E+08         0.00000E+00
    0.00000E+00         0.00000E+00        -0.33308E+08
 
   -0.33945E+08        -0.21227E+05         0.00000E+00
   -0.21227E+05        -0.60506E+08         0.00000E+00
    0.00000E+00         0.00000E+00        -0.33525E+08
 
   -0.33826E+08         0.19979E+06         0.00000E+00
    0.19979E+06        -0.60564E+08         0.00000E+00
    0.00000E+00         0.00000E+00        -0.33720E+08
 
   -0.33741E+08         0.45094E+06         0.00000E+00
    0.45094E+06        -0.60616E+08         0.00000E+00
    0.00000E+00         0.00000E+00        -0.33889E+08
 
   -0.33699E+08         0.72917E+06         0.00000E+00
    0.72917E+06        -0.60662E+08         0.00000E+00
    0.00000E+00         0.00000E+00        -0.34022E+08
 
   -0.33708E+08         0.10310E+07         0.00000E+00
    0.10310E+07        -0.60698E+08         0.00000E+00
    0.00000E+00         0.00000E+00        -0.34107E+08
 
   -0.33780E+08         0.13505E+07         0.00000E+00
    0.13505E+07        -0.60720E+08         0.00000E+00
    0.00000E+00         0.00000E+00        -0.34128E+08
 
   -0.33924E+08         0.16774E+07         0.00000E+00
    0.16774E+07        -0.60719E+08         0.00000E+00
    0.00000E+00         0.00000E+00        -0.34068E+08
 
   -0.35562E+08        -0.14443E+06         0.00000E+00
   -0.14443E+06        -0.60010E+08         0.00000E+00
    0.00000E+00         0.00000E+00        -0.31028E+08
 
   -0.35344E+08        -0.36591E+06         0.00000E+00
   -0.36591E+06        -0.60040E+08         0.00000E+00
    0.00000E+00         0.00000E+00        -0.31219E+08
 
   -0.35107E+08        -0.50952E+06         0.00000E+00
   -0.50952E+06        -0.60089E+08         0.00000E+00
    0.00000E+00         0.00000E+00        -0.31454E+08
 
   -0.34860E+08        -0.57995E+06         0.00000E+00
   -0.57995E+06        -0.60147E+08         0.00000E+00
    0.00000E+00         0.00000E+00        -0.31714E+08
 
   -0.34609E+08        -0.58344E+06         0.00000E+00
   -0.58344E+06        -0.60207E+08         0.00000E+00
    0.00000E+00         0.00000E+00        -0.31983E+08
 
   -0.34364E+08        -0.52750E+06         0.00000E+00
   -0.52750E+06        -0.60265E+08         0.00000E+00
    0.00000E+00         0.00000E+00        -0.32251E+08
 
   -0.34133E+08        -0.41995E+06         0.00000E+00
   -0.41995E+06        -0.60321E+08         0.00000E+00
    0.00000E+00         0.00000E+00        -0.32510E+08
 
   -0.33923E+08        -0.26808E+06         0.00000E+00
   -0.26808E+06        -0.60373E+08         0.00000E+00
    0.00000E+00         0.00000E+00        -0.32756E+08
 
   -0.33739E+08        -0.78040E+05         0.00000E+00
   -0.78040E+05        -0.60425E+08         0.00000E+00
    0.00000E+00         0.00000E+00        -0.32988E+08
 
   -0.33587E+08         0.14551E+06         0.00000E+00
    0.14551E+06        -0.60476E+08         0.00000E+00
    0.00000E+00         0.00000E+00        -0.33201E+08
 
   -0.33473E+08         0.39960E+06         0.00000E+00
    0.39960E+06        -0.60527E+08         0.00000E+00
    0.00000E+00         0.00000E+00        -0.33393E+08
 
   -0.33403E+08         0.68280E+06         0.00000E+00
    0.68280E+06        -0.60578E+08         0.00000E+00
    0.00000E+00         0.00000E+00        -0.33557E+08
 
   -0.33389E+08         0.99402E+06         0.00000E+00
    0.99402E+06        -0.60626E+08         0.00000E+00
    0.00000E+00         0.00000E+00        -0.33680E+08
 
   -0.33445E+08         0.13299E+07         0.00000E+00
    0.13299E+07        -0.60665E+08         0.00000E+00
    0.00000E+00         0.00000E+00        -0.33743E+08
 
   -0.33587E+08         0.16811E+07         0.00000E+00
    0.16811E+07        -0.60686E+08         0.00000E+00
    0.00000E+00         0.00000E+00        -0.33718E+08
 
   -0.35839E+08        -0.16111E+06         0.00000E+00
   -0.16111E+06        -0.60010E+08         0.00000E+00
    0.00000E+00         0.00000E+00        -0.30294E+08
 
   -0.35535E+08        -0.40622E+06         0.00000E+00
   -0.40622E+06        -0.60038E+08         0.00000E+00
    0.00000E+00         0.00000E+00        -0.30527E+08
 
   -0.35218E+08        -0.56122E+06         0.00000E+00
   -0.56122E+06        -0.60081E+08         0.00000E+00
    0.00000E+00         0.00000E+00        -0.30799E+08
 
   -0.34897E+08        -0.63397E+06         0.00000E+00
   -0.63397E+06        -0.60126E+08         0.00000E+00
    0.00000E+00         0.00000E+00        -0.31086E+08
 
   -0.34581E+08        -0.63509E+06         0.00000E+00
   -0.63509E+06        -0.60169E+08         0.00000E+00
    0.00000E+00         0.00000E+00        -0.31372E+08
 
   -0.34280E+08        -0.57544E+06         0.00000E+00
   -0.57544E+06        -0.60207E+08         0.00000E+00
    0.00000E+00         0.00000E+00        -0.31650E+08
 
   -0.34002E+08        -0.46523E+06         0.00000E+00
   -0.46523E+06        -0.60242E+08         0.00000E+00
    0.00000E+00         0.00000E+00        -0.31914E+08
 
   -0.33751E+08        -0.31294E+06         0.00000E+00
   -0.31294E+06        -0.60276E+08         0.00000E+00
    0.00000E+00         0.00000E+00        -0.32165E+08
 
   -0.33532E+08        -0.12467E+06         0.00000E+00
   -0.12467E+06        -0.60313E+08         0.00000E+00
    0.00000E+00         0.00000E+00        -0.32403E+08
 
   -0.33348E+08         0.95834E+05         0.00000E+00
    0.95834E+05        -0.60355E+08         0.00000E+00
    0.00000E+00         0.00000E+00        -0.32629E+08
 
   -0.33204E+08         0.34679E+06         0.00000E+00
    0.34679E+06        -0.60404E+08         0.00000E+00
    0.00000E+00         0.00000E+00        -0.32841E+08
 
   -0.33104E+08         0.62826E+06         0.00000E+00
    0.62826E+06        -0.60459E+08         0.00000E+00
    0.00000E+00         0.00000E+00        -0.33036E+08
 
   -0.33060E+08         0.94168E+06         0.00000E+00
    0.94168E+06        -0.60518E+08         0.00000E+00
    0.00000E+00         0.00000E+00        -0.33200E+08
 
   -0.33092E+08         0.12877E+07         0.00000E+00
    0.12877E+07        -0.60576E+08         0.00000E+00
    0.00000E+00         0.00000E+00        -0.33310E+08
 
   -0.33224E+08         0.16605E+07         0.00000E+00
    0.16605E+07        -0.60622E+08         0.00000E+00
    0.00000E+00         0.00000E+00        -0.33332E+08
 
   -0.36146E+08        -0.17746E+06         0.00000E+00
   -0.17746E+06        -0.60010E+08         0.00000E+00
    0.00000E+00         0.00000E+00        -0.29564E+08
 
   -0.35742E+08        -0.44303E+06         0.00000E+00
   -0.44303E+06        -0.60037E+08         0.00000E+00
    0.00000E+00         0.00000E+00        -0.29841E+08
 
   -0.35331E+08        -0.60182E+06         0.00000E+00
   -0.60182E+06        -0.60070E+08         0.00000E+00
    0.00000E+00         0.00000E+00        -0.30146E+08
 
   -0.34930E+08        -0.67040E+06         0.00000E+00
   -0.67040E+06        -0.60099E+08         0.00000E+00
    0.00000E+00         0.00000E+00        -0.30454E+08
 
   -0.34548E+08        -0.66459E+06         0.00000E+00
   -0.66459E+06        -0.60119E+08         0.00000E+00
    0.00000E+00         0.00000E+00        -0.30749E+08
 
   -0.34193E+08        -0.59933E+06         0.00000E+00
   -0.59933E+06        -0.60131E+08         0.00000E+00
    0.00000E+00         0.00000E+00        -0.31026E+08
 
   -0.33870E+08        -0.48758E+06         0.00000E+00
   -0.48758E+06        -0.60139E+08         0.00000E+00
    0.00000E+00         0.00000E+00        -0.31285E+08
 
   -0.33582E+08        -0.33873E+06         0.00000E+00
   -0.33873E+06        -0.60149E+08         0.00000E+00
    0.00000E+00         0.00000E+00        -0.31529E+08
 
   -0.33331E+08        -0.15807E+06         0.00000E+00
   -0.15807E+06        -0.60168E+08         0.00000E+00
    0.00000E+00         0.00000E+00        -0.31766E+08
 
   -0.33116E+08         0.52569E+05         0.00000E+00
    0.52569E+05        -0.60200E+08         0.00000E+00
    0.00000E+00         0.00000E+00        -0.31999E+08
 
   -0.32941E+08         0.29343E+06         0.00000E+00
    0.29343E+06        -0.60246E+08         0.00000E+00
    0.00000E+00         0.00000E+00        -0.32229E+08
 
   -0.32808E+08         0.56599E+06         0.00000E+00
    0.56599E+06        -0.60305E+08         0.00000E+00
    0.00000E+00         0.00000E+00        -0.32453E+08
 
   -0.32729E+08         0.87355E+06         0.00000E+00
    0.87355E+06        -0.60375E+08         0.00000E+00
    0.00000E+00         0.00000E+00        -0.32661E+08
 
   -0.32725E+08         0.12215E+07         0.00000E+00
    0.12215E+07        -0.60452E+08         0.00000E+00
    0.00000E+00         0.00000E+00        -0.32828E+08
 
   -0.32836E+08         0.16117E+07         0.00000E+00
    0.16117E+07        -0.60528E+08         0.00000E+00
    0.00000E+00         0.00000E+00        -0.32908E+08
 
   -0.36482E+08        -0.19641E+06         0.00000E+00
   -0.19641E+06        -0.60018E+08         0.00000E+00
    0.00000E+00         0.00000E+00        -0.28850E+08
 
   -0.35953E+08        -0.47270E+06         0.00000E+00
   -0.47270E+06        -0.60035E+08         0.00000E+00
    0.00000E+00         0.00000E+00        -0.29165E+08
 
   -0.35440E+08        -0.62639E+06         0.00000E+00
   -0.62639E+06        -0.60055E+08         0.00000E+00
    0.00000E+00         0.00000E+00        -0.29499E+08
 
   -0.34955E+08        -0.68329E+06         0.00000E+00
   -0.68329E+06        -0.60061E+08         0.00000E+00
    0.00000E+00         0.00000E+00        -0.29818E+08
 
   -0.34507E+08        -0.66561E+06         0.00000E+00
   -0.66561E+06        -0.60051E+08         0.00000E+00
    0.00000E+00         0.00000E+00        -0.30111E+08
 
   -0.34102E+08        -0.59344E+06         0.00000E+00
   -0.59344E+06        -0.60030E+08         0.00000E+00
    0.00000E+00         0.00000E+00        -0.30375E+08
 
   -0.33741E+08        -0.48237E+06         0.00000E+00
   -0.48237E+06        -0.60007E+08         0.00000E+00
    0.00000E+00         0.00000E+00        -0.30616E+08
 
   -0.33422E+08        -0.34183E+06         0.00000E+00
   -0.34183E+06        -0.59992E+08         0.00000E+00
    0.00000E+00         0.00000E+00        -0.30846E+08
 
   -0.33142E+08        -0.17556E+06         0.00000E+00
   -0.17556E+06        -0.59990E+08         0.00000E+00
    0.00000E+00         0.00000E+00        -0.31073E+08
 
   -0.32898E+08         0.17091E+05         0.00000E+00
    0.17091E+05        -0.60009E+08         0.00000E+00
    0.00000E+00         0.00000E+00        -0.31307E+08
 
   -0.32691E+08         0.23937E+06         0.00000E+00
    0.23937E+06        -0.60051E+08         0.00000E+00
    0.00000E+00         0.00000E+00        -0.31552E+08
 
   -0.32524E+08         0.49546E+06         0.00000E+00
    0.49546E+06        -0.60115E+08         0.00000E+00
    0.00000E+00         0.00000E+00        -0.31806E+08
 
   -0.32404E+08         0.78992E+06         0.00000E+00
    0.78992E+06        -0.60198E+08         0.00000E+00
    0.00000E+00         0.00000E+00        -0.32060E+08
 
   -0.32352E+08         0.11299E+07         0.00000E+00
    0.11299E+07        -0.60295E+08         0.00000E+00
    0.00000E+00         0.00000E+00        -0.32292E+08
 
   -0.32427E+08         0.15240E+07         0.00000E+00
    0.15240E+07        -0.60402E+08         0.00000E+00
    0.00000E+00         0.00000E+00        -0.32444E+08
 
   -0.36845E+08        -0.21501E+06         0.00000E+00
   -0.21501E+06        -0.60021E+08         0.00000E+00
    0.00000E+00         0.00000E+00        -0.28194E+08
 
   -0.36159E+08        -0.49317E+06         0.00000E+00
   -0.49317E+06        -0.60027E+08         0.00000E+00
    0.00000E+00         0.00000E+00        -0.28502E+08
 
   -0.35534E+08        -0.62917E+06         0.00000E+00
   -0.62917E+06        -0.60028E+08         0.00000E+00
    0.00000E+00         0.00000E+00        -0.28856E+08
 
   -0.34963E+08        -0.66521E+06         0.00000E+00
   -0.66521E+06        -0.60003E+08         0.00000E+00
    0.00000E+00         0.00000E+00        -0.29175E+08
 
   -0.34455E+08        -0.63135E+06         0.00000E+00
   -0.63135E+06        -0.59955E+08         0.00000E+00
    0.00000E+00         0.00000E+00        -0.29450E+08
 
   -0.34008E+08        -0.55315E+06         0.00000E+00
   -0.55315E+06        -0.59897E+08         0.00000E+00
    0.00000E+00         0.00000E+00        -0.29689E+08
 
   -0.33619E+08        -0.44684E+06         0.00000E+00
   -0.44684E+06        -0.59842E+08         0.00000E+00
    0.00000E+00         0.00000E+00        -0.29903E+08
 
   -0.33277E+08        -0.32021E+06         0.00000E+00
   -0.32021E+06        -0.59799E+08         0.00000E+00
    0.00000E+00         0.00000E+00        -0.30109E+08
 
   -0.32974E+08        -0.17505E+06         0.00000E+00
   -0.17505E+06        -0.59776E+08         0.00000E+00
    0.00000E+00         0.00000E+00        -0.30320E+08
 
   -0.32704E+08        -0.88394E+04         0.00000E+00
   -0.88394E+04        -0.59780E+08         0.00000E+00
    0.00000E+00         0.00000E+00        -0.30548E+08
 
   -0.32465E+08         0.18468E+06         0.00000E+00
    0.18468E+06        -0.59816E+08         0.00000E+00
    0.00000E+00         0.00000E+00        -0.30803E+08
 
   -0.32259E+08         0.41402E+06         0.00000E+00
    0.41402E+06        -0.59886E+08         0.00000E+00
    0.00000E+00         0.00000E+00        -0.31087E+08
 
   -0.32094E+08         0.68702E+06         0.00000E+00
    0.68702E+06        -0.59987E+08         0.00000E+00
    0.00000E+00         0.00000E+00        -0.31392E+08
 
   -0.31987E+08         0.10112E+07         0.00000E+00
    0.10112E+07        -0.60110E+08         0.00000E+00
    0.00000E+00         0.00000E+00        -0.31699E+08
 
   -0.32001E+08         0.14010E+07         0.00000E+00
    0.14010E+07        -0.60246E+08         0.00000E+00
    0.00000E+00         0.00000E+00        -0.31939E+08
 
   -0.37232E+08        -0.22868E+06         0.00000E+00
   -0.22868E+06        -0.60008E+08         0.00000E+00
    0.00000E+00         0.00000E+00        -0.27615E+08
 
   -0.36343E+08        -0.49822E+06         0.00000E+00
   -0.49822E+06        -0.60010E+08         0.00000E+00
    0.00000E+00         0.00000E+00        -0.27854E+08
 
   -0.35602E+08        -0.60118E+06         0.00000E+00
   -0.60118E+06        -0.59981E+08         0.00000E+00
    0.00000E+00         0.00000E+00        -0.28214E+08
 
   -0.34950E+08        -0.60599E+06         0.00000E+00
   -0.60599E+06        -0.59912E+08         0.00000E+00
    0.00000E+00         0.00000E+00        -0.28514E+08
 
   -0.34392E+08        -0.55552E+06         0.00000E+00
   -0.55552E+06        -0.59818E+08         0.00000E+00
    0.00000E+00         0.00000E+00        -0.28755E+08
 
   -0.33917E+08        -0.47648E+06         0.00000E+00
   -0.47648E+06        -0.59721E+08         0.00000E+00
    0.00000E+00         0.00000E+00        -0.28956E+08
 
   -0.33509E+08        -0.38123E+06         0.00000E+00
   -0.38123E+06        -0.59634E+08         0.00000E+00
    0.00000E+00         0.00000E+00        -0.29137E+08
 
   -0.33152E+08        -0.27429E+06         0.00000E+00
   -0.27429E+06        -0.59565E+08         0.00000E+00
    0.00000E+00         0.00000E+00        -0.29315E+08
 
   -0.32834E+08        -0.15587E+06         0.00000E+00
   -0.15587E+06        -0.59522E+08         0.00000E+00
    0.00000E+00         0.00000E+00        -0.29505E+08
 
   -0.32542E+08        -0.22827E+05         0.00000E+00
   -0.22827E+05        -0.59512E+08         0.00000E+00
    0.00000E+00         0.00000E+00        -0.29720E+08
 
   -0.32273E+08         0.13195E+06         0.00000E+00
    0.13195E+06        -0.59539E+08         0.00000E+00
    0.00000E+00         0.00000E+00        -0.29976E+08
 
   -0.32026E+08         0.32054E+06         0.00000E+00
    0.32054E+06        -0.59611E+08         0.00000E+00
    0.00000E+00         0.00000E+00        -0.30283E+08
 
   -0.31809E+08         0.55902E+06         0.00000E+00
    0.55902E+06        -0.59731E+08         0.00000E+00
    0.00000E+00         0.00000E+00        -0.30642E+08
 
   -0.31634E+08         0.86072E+06         0.00000E+00
    0.86072E+06        -0.59886E+08         0.00000E+00
    0.00000E+00         0.00000E+00        -0.31037E+08
 
   -0.31558E+08         0.12434E+07         0.00000E+00
    0.12434E+07        -0.60059E+08         0.00000E+00
    0.00000E+00         0.00000E+00        -0.31397E+08
 
   -0.37625E+08        -0.23389E+06         0.00000E+00
   -0.23389E+06        -0.60005E+08         0.00000E+00
    0.00000E+00         0.00000E+00        -0.27057E+08
 
   -0.36493E+08        -0.47369E+06         0.00000E+00
   -0.47369E+06        -0.59980E+08         0.00000E+00
    0.00000E+00         0.00000E+00        -0.27224E+08
 
   -0.35628E+08        -0.52285E+06         0.00000E+00
   -0.52285E+06        -0.59894E+08         0.00000E+00
    0.00000E+00         0.00000E+00        -0.27561E+08
 
   -0.34912E+08        -0.49374E+06         0.00000E+00
   -0.49374E+06        -0.59762E+08         0.00000E+00
    0.00000E+00         0.00000E+00        -0.27812E+08
 
   -0.34325E+08        -0.43566E+06         0.00000E+00
   -0.43566E+06        -0.59620E+08         0.00000E+00
    0.00000E+00         0.00000E+00        -0.28004E+08
 
   -0.33835E+08        -0.36575E+06         0.00000E+00
   -0.36575E+06        -0.59487E+08         0.00000E+00
    0.00000E+00         0.00000E+00        -0.28163E+08
 
   -0.33419E+08        -0.28936E+06         0.00000E+00
   -0.28936E+06        -0.59373E+08         0.00000E+00
    0.00000E+00         0.00000E+00        -0.28310E+08
 
   -0.33054E+08        -0.20774E+06         0.00000E+00
   -0.20774E+06        -0.59285E+08         0.00000E+00
    0.00000E+00         0.00000E+00        -0.28460E+08
 
   -0.32725E+08        -0.12008E+06         0.00000E+00
   -0.12008E+06        -0.59227E+08         0.00000E+00
    0.00000E+00         0.00000E+00        -0.28627E+08
 
   -0.32420E+08        -0.23825E+05         0.00000E+00
   -0.23825E+05        -0.59203E+08         0.00000E+00
    0.00000E+00         0.00000E+00        -0.28826E+08
 
   -0.32127E+08         0.86358E+05         0.00000E+00
    0.86358E+05        -0.59220E+08         0.00000E+00
    0.00000E+00         0.00000E+00        -0.29072E+08
 
   -0.31840E+08         0.22153E+06         0.00000E+00
    0.22153E+06        -0.59287E+08         0.00000E+00
    0.00000E+00         0.00000E+00        -0.29386E+08
 
   -0.31559E+08         0.40380E+06         0.00000E+00
    0.40380E+06        -0.59415E+08         0.00000E+00
    0.00000E+00         0.00000E+00        -0.29788E+08
 
   -0.31304E+08         0.66715E+06         0.00000E+00
    0.66715E+06        -0.59612E+08         0.00000E+00
    0.00000E+00         0.00000E+00        -0.30284E+08
 
   -0.31105E+08         0.10324E+07         0.00000E+00
    0.10324E+07        -0.59843E+08         0.00000E+00
    0.00000E+00         0.00000E+00        -0.30818E+08
 
   -0.37995E+08        -0.22758E+06         0.00000E+00
   -0.22758E+06        -0.59993E+08         0.00000E+00
    0.00000E+00         0.00000E+00        -0.26512E+08
 
   -0.36578E+08        -0.37952E+06         0.00000E+00
   -0.37952E+06        -0.59902E+08         0.00000E+00
    0.00000E+00         0.00000E+00        -0.26587E+08
 
   -0.35610E+08        -0.36644E+06         0.00000E+00
   -0.36644E+06        -0.59718E+08         0.00000E+00
    0.00000E+00         0.00000E+00        -0.26853E+08
 
   -0.34864E+08        -0.32444E+06         0.00000E+00
   -0.32444E+06        -0.59521E+08         0.00000E+00
    0.00000E+00         0.00000E+00        -0.27035E+08
 
   -0.34267E+08        -0.27714E+06         0.00000E+00
   -0.27714E+06        -0.59338E+08         0.00000E+00
    0.00000E+00         0.00000E+00        -0.27174E+08
 
   -0.33773E+08        -0.22849E+06         0.00000E+00
   -0.22849E+06        -0.59180E+08         0.00000E+00
    0.00000E+00         0.00000E+00        -0.27295E+08
 
   -0.33353E+08        -0.17877E+06         0.00000E+00
   -0.17877E+06        -0.59049E+08         0.00000E+00
    0.00000E+00         0.00000E+00        -0.27412E+08
 
   -0.32985E+08        -0.12736E+06         0.00000E+00
   -0.12736E+06        -0.58949E+08         0.00000E+00
    0.00000E+00         0.00000E+00        -0.27540E+08
 
   -0.32651E+08        -0.73272E+05         0.00000E+00
   -0.73272E+05        -0.58883E+08         0.00000E+00
    0.00000E+00         0.00000E+00        -0.27688E+08
 
   -0.32338E+08        -0.14990E+05         0.00000E+00
   -0.14990E+05        -0.58854E+08         0.00000E+00
    0.00000E+00         0.00000E+00        -0.27871E+08
 
   -0.32031E+08         0.50225E+05         0.00000E+00
    0.50225E+05        -0.58865E+08         0.00000E+00
    0.00000E+00         0.00000E+00        -0.28103E+08
 
   -0.31717E+08         0.12861E+06         0.00000E+00
    0.12861E+06        -0.58925E+08         0.00000E+00
    0.00000E+00         0.00000E+00        -0.28410E+08
 
   -0.31379E+08         0.23570E+06         0.00000E+00
    0.23570E+06        -0.59048E+08         0.00000E+00
    0.00000E+00         0.00000E+00        -0.28826E+08
 
   -0.31008E+08         0.41351E+06         0.00000E+00
    0.41351E+06        -0.59258E+08         0.00000E+00
    0.00000E+00         0.00000E+00        -0.29405E+08
 
   -0.30647E+08         0.74884E+06         0.00000E+00
    0.74884E+06        -0.59594E+08         0.00000E+00
    0.00000E+00         0.00000E+00        -0.30192E+08
 
   -0.38270E+08        -0.14957E+06         0.00000E+00
   -0.14957E+06        -0.59893E+08         0.00000E+00
    0.00000E+00         0.00000E+00        -0.25938E+08
 
   -0.36573E+08        -0.15690E+06         0.00000E+00
   -0.15690E+06        -0.59653E+08         0.00000E+00
    0.00000E+00         0.00000E+00        -0.25844E+08
 
   -0.35579E+08        -0.13300E+06         0.00000E+00
   -0.13300E+06        -0.59388E+08         0.00000E+00
    0.00000E+00         0.00000E+00        -0.26019E+08
 
   -0.34830E+08        -0.11330E+06         0.00000E+00
   -0.11330E+06        -0.59153E+08         0.00000E+00
    0.00000E+00         0.00000E+00        -0.26145E+08
 
   -0.34233E+08        -0.94999E+05         0.00000E+00
   -0.94999E+05        -0.58952E+08         0.00000E+00
    0.00000E+00         0.00000E+00        -0.26247E+08
 
   -0.33740E+08        -0.77505E+05         0.00000E+00
   -0.77505E+05        -0.58785E+08         0.00000E+00
    0.00000E+00         0.00000E+00        -0.26342E+08
 
   -0.33319E+08        -0.60177E+05         0.00000E+00
   -0.60177E+05        -0.58650E+08         0.00000E+00
    0.00000E+00         0.00000E+00        -0.26441E+08
 
   -0.32950E+08        -0.42562E+05         0.00000E+00
   -0.42562E+05        -0.58551E+08         0.00000E+00
    0.00000E+00         0.00000E+00        -0.26553E+08
 
   -0.32614E+08        -0.24186E+05         0.00000E+00
   -0.24186E+05        -0.58486E+08         0.00000E+00
    0.00000E+00         0.00000E+00        -0.26690E+08
 
   -0.32298E+08        -0.45674E+04         0.00000E+00
   -0.45674E+04        -0.58460E+08         0.00000E+00
    0.00000E+00         0.00000E+00        -0.26862E+08
 
   -0.31985E+08         0.17041E+05         0.00000E+00
    0.17041E+05        -0.58476E+08         0.00000E+00
    0.00000E+00         0.00000E+00        -0.27085E+08
 
   -0.31658E+08         0.42336E+05         0.00000E+00
    0.42336E+05        -0.58539E+08         0.00000E+00
    0.00000E+00         0.00000E+00        -0.27382E+08
 
   -0.31290E+08         0.75858E+05         0.00000E+00
    0.75858E+05        -0.58663E+08         0.00000E+00
    0.00000E+00         0.00000E+00        -0.27794E+08
 
   -0.30831E+08         0.13393E+06         0.00000E+00
    0.13393E+06        -0.58879E+08         0.00000E+00
    0.00000E+00         0.00000E+00        -0.28413E+08
 
   -0.30191E+08         0.29365E+06         0.00000E+00
    0.29365E+06        -0.59264E+08         0.00000E+00
    0.00000E+00         0.00000E+00        -0.29464E+08
 
SCALARS stressS double 
LOOKUP_TABLE default
  -44876323.9507220     
  -44866470.4984159     
  -44842749.9987479     
  -44804293.0688079     
  -44751309.7409979     
  -44685832.3567718     
  -44610881.6844017     
  -44529893.9083383     
  -44446264.9677240     
  -44362998.0417593     
  -44282571.9169678     
  -44226154.0888113     
  -44325162.8858068     
  -44428203.2484556     
  -44519480.9346856     
  -44861774.8494011     
  -44852098.3512542     
  -44828643.3176859     
  -44790757.2389249     
  -44739014.5606837     
  -44675715.7345509     
  -44603775.1174058     
  -44526350.8421746     
  -44446193.2321563     
  -44365483.7061074     
  -44286060.2302792     
  -44222357.9704310     
  -44314954.6400998     
  -44415771.2710702     
  -44505441.1782577     
  -44832708.0470792     
  -44823381.9691710     
  -44800571.5785891     
  -44764017.8976293     
  -44714897.8572318     
  -44655749.5935952     
  -44589396.4145072     
  -44518478.3643070     
  -44444848.4116294     
  -44369354.8674476     
  -44292412.4621421     
  -44219319.5764197     
  -44293378.7427244     
  -44390506.2368432     
  -44477362.4470609     
  -44789290.6910130     
  -44780556.7743774     
  -44758913.7936796     
  -44724635.3260914     
  -44679591.3014452     
  -44626412.6483007     
  -44567594.5680504     
  -44505117.2227727     
  -44440078.1305652     
  -44372341.0127660     
  -44300417.8551592     
  -44223822.9083793     
  -44258148.3392850     
  -44353021.4660449     
  -44435314.4429883     
  -44731780.6472029     
  -44723997.4734936     
  -44704104.4786131     
  -44673225.3322052     
  -44633774.3360548     
  -44588158.4743692     
  -44538270.2586906     
  -44485218.5756421     
  -44429634.3530477     
  -44371109.0468122     
  -44307969.0399844     
  -44237698.0096455     
  -44216863.3279695     
  -44304313.4279657     
  -44378810.5916851     
  -44660439.5593765     
  -44653943.1812943     
  -44636646.5669286     
  -44610519.9896359     
  -44578173.3857628     
  -44541453.1964757     
  -44501292.9843310     
  -44458103.8634130     
  -44412061.4936113     
  -44362877.1730731     
  -44309639.7274658     
  -44249752.5078509     
  -44191298.8950701     
  -44241611.1513382     
  -44307983.0235978     
  -44575587.9695658     
  -44570774.2701451     
  -44556997.1387680     
  -44537095.3985284     
  -44513261.0952313     
  -44486329.7870707     
  -44456433.3830864     
  -44423281.1986834     
  -44386653.5682074     
  -44346102.3710193     
  -44300791.8664455     
  -44248869.3551391     
  -44191436.5489266     
  -44172146.7652886     
  -44224278.8262223     
  -44477577.3533447     
  -44474751.3229239     
  -44465716.1229750     
  -44453356.5032753     
  -44438917.5638407     
  -44422413.8246537     
  -44403073.9760898     
  -44380095.6170166     
  -44352710.9600208     
  -44320048.6814148     
  -44281152.6720571     
  -44235472.3855243     
  -44183238.6832739     
  -44132782.2868689     
  -44126187.4114456     
  -44366655.5129694     
  -44366565.1673388     
  -44363200.8444239     
  -44359166.8763263     
  -44354771.3081152     
  -44348936.8268795     
  -44340357.9372130     
  -44327612.9907324     
  -44309410.4283228     
  -44284510.0248709     
  -44251895.6676222     
  -44210844.7778250     
  -44160853.9400603     
  -44105637.5618099     
  -44060542.1538429     
  -44243574.0583898     
  -44246138.4667855     
  -44249134.0552658     
  -44254159.3857506     
  -44260030.6129625     
  -44265082.8144804     
  -44267340.9208746     
  -44264904.3111146     
  -44256011.8662266     
  -44239158.7437276     
  -44213169.6092618     
  -44177200.4866296     
  -44131562.4735207     
  -44078823.7366078     
  -44026643.7588247     
  -44107648.2522283     
  -44113307.8322366     
  -44123400.1830056     
  -44137636.1944248     
  -44154014.1100787     
  -44170033.3267654     
  -44183206.2564753     
  -44191119.1357387     
  -44191736.4122514     
  -44183383.9106209     
  -44164842.3711954     
  -44135701.4182214     
  -44096618.1513223     
  -44049558.4335185     
  -43996974.8064581     
  -43959418.2568670     
  -43968338.8454813     
  -43985749.9372703     
  -44009412.1375846     
  -44036296.6335167     
  -44063228.3778391     
  -44087163.5835955     
  -44105407.2074909     
  -44115692.6318294     
  -44116350.0646558     
  -44106320.6644771     
  -44085317.9026020     
  -44053773.0034047     
  -44012366.7299603     
  -43961817.7865738     
  -43798887.2617848     
  -43811690.7686490     
  -43836590.0476852     
  -43869627.2063285     
  -43906767.8794739     
  -43944207.4280886     
  -43978501.3306881     
  -44006794.0589514     
  -44026811.3576961     
  -44036854.2532444     
  -44035922.8091751     
  -44023556.8026171     
  -43999551.6954555     
  -43963917.1924144     
  -43916860.4494013     
  -43628125.4558342     
  -43645107.3858564     
  -43677159.9189501     
  -43718938.1730651     
  -43765474.6642923     
  -43812496.7175386     
  -43856403.6398837     
  -43894233.0389155     
  -43923672.0997733     
  -43943067.8166117     
  -43951271.6028060     
  -43947445.2401862     
  -43931017.9250838     
  -43901636.2260895     
  -43859364.7792906     
  -43449960.7032941     
  -43470864.4744945     
  -43509031.4353557     
  -43558080.0799706     
  -43612542.8730118     
  -43667791.9362779     
  -43720091.6173861     
  -43766459.4718363     
  -43804610.6951571     
  -43832798.5309454     
  -43849667.4017982     
  -43854169.9976418     
  -43845496.6949434     
  -43823093.7948936     
  -43786815.2866072     
  -43266733.7064612     
  -43290957.8867376     
  -43333676.3621414     
  -43388063.7351762     
  -43448373.6257717     
  -43509911.4998521     
  -43568853.9790322     
  -43622245.9905478     
  -43667804.9482622     
  -43703743.5739478     
  -43728611.6016525     
  -43741199.8606624     
  -43740526.1801050     
  -43725826.8908804     
  -43696513.9320268     
  -43080793.4196196     
  -43107241.6707797     
  -43152583.3720234     
  -43209935.7573871     
  -43273598.4593379     
  -43338890.2031026     
  -43402100.6160240     
  -43460359.0219197     
  -43511484.3061242     
  -43553754.6467085     
  -43585738.8037517     
  -43606142.4440618     
  -43613725.4030130     
  -43607367.2214638     
  -43586098.2244918     
  -42894841.3809458     
  -42921779.5671576     
  -42967434.5008705     
  -43025002.8647347     
  -43088964.5265623     
  -43154890.1702839     
  -43219296.7597487     
  -43279580.5187402     
  -43333809.0043779     
  -43380566.0715267     
  -43418557.6267140     
  -43446404.1953230     
  -43462543.2750800     
  -43465370.3813878     
  -43453581.6946752     
  -42711611.1261962     
  -42736701.9259720     
  -42779884.9637599     
  -42834489.6657463     
  -42895285.0326602     
  -42958174.9218668     
  -43020095.7517481     
  -43078935.7139461     
  -43133289.4507251     
  -43182161.3098256     
  -43224613.2769879     
  -43259320.0145324     
  -43284446.4907767     
  -43297659.2796868     
  -43296887.1550204     
  -42533446.7872575     
  -42553862.4517490     
  -42591422.2150424     
  -42639588.6083000     
  -42693345.4065190     
  -42749023.5478246     
  -42804255.8151177     
  -42857660.4223961     
  -42908621.7534101     
  -42956803.5614329     
  -43001768.0480713     
  -43042483.4810467     
  -43076893.0961246     
  -43101937.2500452     
  -43114209.9336220     
  -42362333.0181213     
  -42374859.9348059     
  -42403403.5962250     
  -42441294.1766036     
  -42483681.2863616     
  -42527534.8259633     
  -42571442.9833355     
  -42615121.5380021     
  -42658915.4532883     
  -42703337.5139256     
  -42748542.3212691     
  -42793971.2441737     
  -42837650.2878477     
  -42875910.9118887     
  -42903724.8478654     
  -42199961.7938551     
  -42201020.7672327     
  -42216831.0961575     
  -42240209.4842497     
  -42266429.0675304     
  -42293435.8981133     
  -42321150.1148860     
  -42350714.5392216     
  -42383657.8196830     
  -42421277.0766087     
  -42464363.3117157     
  -42512825.4436150     
  -42565195.0014041     
  -42617670.8319292     
  -42663725.1714432     
  -42047748.8492866     
  -42033360.0867314     
  -42032399.4974422     
  -42036175.1628490     
  -42040935.2441833     
  -42045895.0291516     
  -42052575.7922796     
  -42063779.3624914     
  -42082441.4130487     
  -42110717.4743951     
  -42149673.6174832     
  -42199448.7808617     
  -42259300.7398254     
  -42326218.6125099     
  -42392593.7831722     
  -41906643.6767694     
  -41873141.1768703     
  -41849207.6121928     
  -41827617.0434079     
  -41805355.8043378     
  -41783174.9609980     
  -41764458.2195652     
  -41753692.8960423     
  -41755124.9821417     
  -41771846.2735064     
  -41805298.2560298     
  -41855468.9606965     
  -41921470.4734520     
  -42001821.8143519     
  -42090818.9772340     
  -41783576.5353627     
  -41717857.1772770     
  -41664425.5738575     
  -41611067.8368202     
  -41556046.0500814     
  -41502188.7864594     
  -41454905.2501363     
  -41419841.0005866     
  -41401887.1431497     
  -41404951.9484573     
  -41431529.3833888     
  -41481858.9422307     
  -41554224.3763527     
  -41646400.4849065     
  -41757750.8632271     
  -41686912.9491176     
  -41562685.0927137     
  -41472664.4113958     
  -41380371.7872669     
  -41286764.8951699     
  -41198149.1462658     
  -41121272.0447326     
  -41061506.6148482     
  -41023320.1354939     
  -41010871.6984786     
  -41028063.5675321     
  -41077464.8794403     
  -41157925.6631061     
  -41265434.8138774     
  -41395352.2247874     
  -41618501.8025482     
  -41402417.0186513     
  -41265837.7271686     
  -41125009.0400283     
  -40988278.8609880     
  -40864760.5658709     
  -40760043.8893309     
  -40677565.7810724     
  -40620189.3659154     
  -40591413.7255670     
  -40595979.7008526     
  -40639714.8800822     
  -40727039.4424113     
  -40852398.3463261     
  -41004764.0337479     
  -41562236.7815048     
  -41232167.0982277     
  -41027771.3191695     
  -40828801.2279926     
  -40649548.4666129     
  -40495145.9395536     
  -40367124.2727886     
  -40266058.0286977     
  -40192867.4953775     
  -40149459.2080867     
  -40139832.2721294     
  -40171138.6356888     
  -40254060.7801930     
  -40399977.4300231     
  -40588924.0187872     
  -41500049.4575930     
  -41022380.5789079     
  -40726820.5487363     
  -40473220.8869328     
  -40259850.0731923     
  -40082655.3902248     
  -39938309.7488290     
  -39824672.7013917     
  -39740898.9493229     
  -39687427.1883619     
  -39666560.9669920     
  -39683777.0267240     
  -39750974.6964777     
  -39890496.1282708     
  -40144498.6888337     
  -41366982.4709119     
  -40690007.8373520     
  -40328878.3140386     
  -40042643.7950430     
  -39810847.2643028     
  -39622195.2196595     
  -39470199.5740538     
  -39351186.8850672     
  -39263430.1031841     
  -39206593.0745272     
  -39181913.4719991     
  -39193061.3690921     
  -39249022.2029740     
  -39374543.1394059     
  -39639575.3627773     
SCALARS 2waySource double 
LOOKUP_TABLE default
 -5.117672963176902E-005
 -5.063793847188473E-005
 -4.980574768934441E-005
 -4.865259464873445E-005
 -4.720192364698559E-005
 -4.555717794815098E-005
 -4.390787709063584E-005
 -4.250501399849494E-005
 -4.157745842377465E-005
 -4.125151507053639E-005
 -4.444318678181028E-005
 -7.777005129512300E-005
 -8.426987427184458E-005
 -8.629751126967416E-005
 -8.831329400119964E-005
 -5.103765073752155E-005
 -5.054392467639679E-005
 -4.978799627826386E-005
 -4.875169992893414E-005
 -4.744336692846989E-005
 -4.591731626661247E-005
 -4.428025466931126E-005
 -4.271561447430580E-005
 -4.148527390524575E-005
 -4.081042325895125E-005
 -4.288691832165612E-005
 -7.614397127258073E-005
 -8.389695454156863E-005
 -8.607252895181637E-005
 -8.813611992929628E-005
 -5.074911989182403E-005
 -5.031133796907089E-005
 -4.965749928382357E-005
 -4.878343096201036E-005
 -4.769172922368317E-005
 -4.639528698033622E-005
 -4.490778171047147E-005
 -4.327486400493932E-005
 -4.166159011344701E-005
 -4.045128904858851E-005
 -4.077373984379663E-005
 -7.214645906501605E-005
 -8.335364994659344E-005
 -8.575829460463921E-005
 -8.778608580843682E-005
 -5.029236009592932E-005
 -4.991589238966534E-005
 -4.937119706120238E-005
 -4.866569695193653E-005
 -4.781001916789679E-005
 -4.680329310595222E-005
 -4.561253534602491E-005
 -4.416427689804737E-005
 -4.239674439314485E-005
 -4.045734453140220E-005
 -3.932912052234743E-005
 -6.424807389797106E-005
 -8.331139780618115E-005
 -8.517162155074443E-005
 -8.722732212511732E-005
 -4.964745684540998E-005
 -4.933362871120617E-005
 -4.889250984247683E-005
 -4.834064580206273E-005
 -4.770275473083538E-005
 -4.698808639627138E-005
 -4.616675398526528E-005
 -4.513625515034552E-005
 -4.371029478055585E-005
 -4.165813448986991E-005
 -3.905535638484939E-005
 -5.273497987691268E-005
 -8.194865131551139E-005
 -8.410691460676356E-005
 -8.657255349525986E-005
 -4.879845048054370E-005
 -4.854450971432725E-005
 -4.819700689225998E-005
 -4.778139887504947E-005
 -4.733555257351841E-005
 -4.688666875237922E-005
 -4.642327071462175E-005
 -4.587974975500793E-005
 -4.510703435259046E-005
 -4.378134323118668E-005
 -4.121851545643429E-005
 -4.344952740949230E-005
 -7.349052014701335E-005
 -8.333393642985106E-005
 -8.576584933132869E-005
 -4.773661029234543E-005
 -4.753660675537989E-005
 -4.727414691043849E-005
 -4.698523911690382E-005
 -4.672136818638707E-005
 -4.651290742060558E-005
 -4.635891595600165E-005
 -4.623068807460080E-005
 -4.605200077103508E-005
 -4.560698845289183E-005
 -4.434771582688000E-005
 -4.251260472734691E-005
 -5.838703497633302E-005
 -8.071880689917863E-005
 -8.431030419552292E-005
 -4.646173701202325E-005
 -4.630791623907787E-005
 -4.612589334238543E-005
 -4.597058149442411E-005
 -4.589302240454013E-005
 -4.590976650478615E-005
 -4.601485380269715E-005
 -4.618631317466596E-005
 -4.638202402319436E-005
 -4.652310597510485E-005
 -4.644972845511436E-005
 -4.596277478710109E-005
 -4.937783638347616E-005
 -6.867073118377117E-005
 -8.180182855560669E-005
 -4.498085085361084E-005
 -4.486477077793311E-005
 -4.477013631673692E-005
 -4.476759731500804E-005
 -4.488451098418507E-005
 -4.511556833877153E-005
 -4.543644046371451E-005
 -4.581367105841510E-005
 -4.621328576282237E-005
 -4.661219743163996E-005
 -4.700387458816759E-005
 -4.737542981429843E-005
 -4.890014884168088E-005
 -5.719088357723072E-005
 -7.128296180143957E-005
 -4.330364709036355E-005
 -4.322394192694997E-005
 -4.323996778579653E-005
 -4.340847146612915E-005
 -4.372455250038166E-005
 -4.415574079547572E-005
 -4.465614422562517E-005
 -4.517679718103986E-005
 -4.567493283503412E-005
 -4.611864470122514E-005
 -4.648412563677958E-005
 -4.680514578422829E-005
 -4.744077576292263E-005
 -5.053291284945443E-005
 -5.929520463963837E-005
 -4.144695447608635E-005
 -4.142040925232642E-005
 -4.157388962382589E-005
 -4.192484610081496E-005
 -4.243573953630830E-005
 -4.304763644421999E-005
 -4.369410301885609E-005
 -4.430971402253272E-005
 -4.483419137591538E-005
 -4.521263253014985E-005
 -4.540588789438047E-005
 -4.542185398379657E-005
 -4.548823457236354E-005
 -4.661423220334909E-005
 -5.076779531960389E-005
 -3.944141245834777E-005
 -3.949806871699781E-005
 -3.980855031630701E-005
 -4.034432906436845E-005
 -4.103683532266005E-005
 -4.180393532255871E-005
 -4.256199514607194E-005
 -4.323157093372650E-005
 -4.374121929500661E-005
 -4.403415904139317E-005
 -4.408758684670066E-005
 -4.396586399050494E-005
 -4.392665641937887E-005
 -4.454528430705426E-005
 -4.656992464511671E-005
 -3.733009039590439E-005
 -3.750167704287046E-005
 -3.797992458766711E-005
 -3.869267704608755E-005
 -3.954457015452101E-005
 -4.043603417330606E-005
 -4.127232253947914E-005
 -4.196902870163421E-005
 -4.245980991769618E-005
 -4.271056373157283E-005
 -4.274549964218951E-005
 -4.267985798408869E-005
 -4.272503639257200E-005
 -4.313396885286592E-005
 -4.416807095629496E-005
 -3.516871929523571E-005
 -3.547904416084645E-005
 -3.612317935303820E-005
 -3.699370258033748E-005
 -3.797516243901668E-005
 -3.895809610868147E-005
 -3.984543735062980E-005
 -4.055963787379047E-005
 -4.105401969936763E-005
 -4.132803615714166E-005
 -4.143914038803014E-005
 -4.149483549767811E-005
 -4.161406960378077E-005
 -4.189605265802343E-005
 -4.242631119889514E-005
 -3.302161407577440E-005
 -3.347805267061389E-005
 -3.427219198130328E-005
 -3.527054389859081E-005
 -3.634669034604334E-005
 -3.738885710890813E-005
 -3.830595066129808E-005
 -3.903615030073864E-005
 -3.955751859880620E-005
 -3.989326205459200E-005
 -4.010289018151099E-005
 -4.025702478799936E-005
 -4.041184687042934E-005
 -4.060377683970197E-005
 -4.086132125569297E-005
 -3.095466985415975E-005
 -3.154518578147609E-005
 -3.245938927314785E-005
 -3.354776101497929E-005
 -3.467983226137330E-005
 -3.574730796693421E-005
 -3.667026760997104E-005
 -3.740661450950967E-005
 -3.795562138722438E-005
 -3.834927625958554E-005
 -3.863291313833199E-005
 -3.884537474624583E-005
 -3.901053184168289E-005
 -3.914174333461917E-005
 -3.924833102561605E-005
 -2.903098450050561E-005
 -2.972448081268674E-005
 -3.071752282778330E-005
 -3.185172986272682E-005
 -3.299501923578889E-005
 -3.404382043999779E-005
 -3.493370348637473E-005
 -3.564556034718596E-005
 -3.619602939839595E-005
 -3.661728535513714E-005
 -3.693887480918857E-005
 -3.717897365602024E-005
 -3.734562583850213E-005
 -3.744263589316802E-005
 -3.747188185508323E-005
 -2.730808152234452E-005
 -2.805797012136974E-005
 -2.908166543531549E-005
 -3.021086931482203E-005
 -3.130591645376552E-005
 -3.226972699098684E-005
 -3.306432371841273E-005
 -3.370153245576562E-005
 -3.421242996370002E-005
 -3.462467063781121E-005
 -3.495363258484712E-005
 -3.520385437580328E-005
 -3.537421395629881E-005
 -3.546238097066674E-005
 -3.546579908945803E-005
 -2.583648505423069E-005
 -2.658758059980998E-005
 -2.759195991740348E-005
 -2.865155577525476E-005
 -2.960781045456842E-005
 -3.038791681714731E-005
 -3.100809519394618E-005
 -3.151478201085517E-005
 -3.194441858754118E-005
 -3.231481895064943E-005
 -3.262901559349906E-005
 -3.288158507549130E-005
 -3.306439023587769E-005
 -3.316933735439742E-005
 -3.318841424462447E-005
 -2.465991791094047E-005
 -2.536198215482873E-005
 -2.629696049106820E-005
 -2.718409822731318E-005
 -2.785413211091761E-005
 -2.833312033676031E-005
 -2.870684643067592E-005
 -2.903503706704675E-005
 -2.934591960377443E-005
 -2.964608109483298E-005
 -2.992913009735616E-005
 -3.018214236105081E-005
 -3.039015642037095E-005
 -3.053850527825278E-005
 -3.061239510490864E-005
 -2.382626056130053E-005
 -2.445333979547384E-005
 -2.525489122761473E-005
 -2.573970431714046E-005
 -2.594251608857157E-005
 -2.603798699007661E-005
 -2.612044399868945E-005
 -2.623058640325850E-005
 -2.638551490632668E-005
 -2.658724756509592E-005
 -2.682507328094359E-005
 -2.707989178815722E-005
 -2.732908261217402E-005
 -2.754971116469578E-005
 -2.771869095537378E-005
 -2.337951150044916E-005
 -2.408993903770989E-005
 -2.435569434924025E-005
 -2.410789900743466E-005
 -2.376957288391070E-005
 -2.346936494453303E-005
 -2.323501515291929E-005
 -2.308586188094243E-005
 -2.304245602162576E-005
 -2.311409207400670E-005
 -2.329209167196372E-005
 -2.355194486084086E-005
 -2.386130216786214E-005
 -2.418635522427292E-005
 -2.449383929471320E-005
 -2.452723096475129E-005
 -2.404806829513748E-005
 -2.305500962626029E-005
 -2.209398702008516E-005
 -2.130659520913035E-005
 -2.063080087497999E-005
 -2.004960836475849E-005
 -1.959403774093522E-005
 -1.930485149290959E-005
 -1.920975898548354E-005
 -1.930980864251618E-005
 -1.957776263674148E-005
 -1.996863809721912E-005
 -2.043421930727089E-005
 -2.092847647972483E-005
 -2.971965346916974E-005
 -2.265225398636216E-005
 -2.097831996821261E-005
 -1.970848967989293E-005
 -1.858668571617571E-005
 -1.752389597527160E-005
 -1.655797555081429E-005
 -1.575239048236670E-005
 -1.517278002362904E-005
 -1.487015878290731E-005
 -1.486570144494786E-005
 -1.513911155677726E-005
 -1.563368315100813E-005
 -1.628011642669214E-005
 -1.701889028342052E-005
 -3.799660564669909E-005
 -1.993946304930496E-005
 -1.848865958406394E-005
 -1.711469388325338E-005
 -1.561473776427537E-005
 -1.412287663938982E-005
 -1.274089296699664E-005
 -1.156121726889814E-005
 -1.066258489323884E-005
 -1.011332514147334E-005
 -9.963850962695475E-006
 -1.022236319380583E-005
 -1.083621321065638E-005
 -1.171091343789213E-005
 -1.275678373871703E-005
 -4.687388297903094E-005
 -1.785592568023416E-005
 -1.631966579086683E-005
 -1.438289867580545E-005
 -1.236040318458689E-005
 -1.037978678796494E-005
 -8.571267079337040E-006
 -7.023550801427668E-006
 -5.806162678635853E-006
 -4.986946184001386E-006
 -4.640139987374223E-006
 -4.829900447946704E-006
 -5.552204295488181E-006
 -6.704697424902874E-006
 -8.149074256187380E-006
 -5.071189682929463E-005
 -1.800831668408345E-005
 -1.438970358943535E-005
 -1.151639572259088E-005
 -8.763508023196624E-006
 -6.244728264512702E-006
 -4.024275061751528E-006
 -2.144846947793717E-006
 -6.420746946745765E-007
  4.380750878044294E-007
  1.021250115653312E-006
  9.933856821614526E-007
  2.361202725562804E-007
 -1.221289479332504E-006
 -3.193673985556995E-006
 -5.261841018523898E-005
 -1.847901991040304E-005
 -1.248468132721463E-005
 -8.310060767994989E-006
 -4.729807902231649E-006
 -1.672015531026245E-006
  9.157189691537702E-007
  3.067458645760702E-006
  4.796312747487033E-006
  6.091150232561680E-006
  6.901018398668400E-006
  7.109232214391755E-006
  6.496861412305516E-006
  4.790902672743127E-006
  2.117307004611019E-006
 -5.316065876889932E-005
 -1.856228560163855E-005
 -9.679110146205114E-006
 -4.411357765481872E-006
 -1.181781677468364E-007
  3.385265411537177E-006
  6.258308450352845E-006
  8.605934058886720E-006
  1.048827493302118E-005
  1.192629953893784E-005
  1.289710471918021E-005
  1.331438470934074E-005
  1.297051122136071E-005
  1.139594838478588E-005
  7.784654605513128E-006
 -5.245550664381761E-005
 -1.664032136506186E-005
 -5.446923220334001E-006
  5.138895081072023E-007
  5.213722545168046E-006
  8.977899298305868E-006
  1.201483036650935E-005
  1.446922019412402E-005
  1.642824526885841E-005
  1.793032782050083E-005
  1.896606930898708E-005
  1.946971887239214E-005
  1.927465965626565E-005
  1.794887950843498E-005
  1.411528185912192E-005
SCALARS poroP double 
LOOKUP_TABLE default
  1.412148203587723E-005
  1.262608942879469E-005
  1.110234978332019E-005
  9.573157273997663E-006
  8.063942157540284E-006
  6.600258307315870E-006
  5.206693104313441E-006
  3.906615725734363E-006
  2.722072509344817E-006
  1.671134308092351E-006
  7.656213397010373E-007
  6.715873622300495E-008
  0.000000000000000E+000
  0.000000000000000E+000
  0.000000000000000E+000
  1.404856876535377E-005
  1.256353241848166E-005
  1.105152614209161E-005
  9.536186431366445E-006
  8.043782155371623E-006
  6.599519866570350E-006
  5.226476478202068E-006
  3.944908194297241E-006
  2.772887810454023E-006
  1.725618027786222E-006
  8.145305699939076E-007
  8.572517891212062E-008
  0.000000000000000E+000
  0.000000000000000E+000
  0.000000000000000E+000
  1.390112220818849E-005
  1.243648551063074E-005
  1.094756889868798E-005
  9.459716791437795E-006
  8.001137098347108E-006
  6.595495265833056E-006
  5.262548511467197E-006
  4.017999033885125E-006
  2.873118799766970E-006
  1.837001607852453E-006
  9.190269325268890E-007
  1.439234950237939E-007
  0.000000000000000E+000
  0.000000000000000E+000
  0.000000000000000E+000
  1.367496576136292E-005
  1.223968808773285E-005
  1.078547902092438E-005
  9.340909630384740E-006
  7.933679590612854E-006
  6.584851311559965E-006
  5.310087511246469E-006
  4.119808701447149E-006
  3.018472246050627E-006
  2.007852783546667E-006
  1.091696454611129E-006
  2.893150300030988E-007
  0.000000000000000E+000
  0.000000000000000E+000
  0.000000000000000E+000
  1.336402531417859E-005
  1.196635958260060E-005
  1.056059763910433E-005
  9.177433278132948E-006
  7.840501787737417E-006
  6.566309056218711E-006
  5.365829081940172E-006
  4.244181048040994E-006
  3.201503053810861E-006
  2.235348093977539E-006
  1.341798965979552E-006
  5.199734264145101E-007
  9.290217753222242E-009
  0.000000000000000E+000
  0.000000000000000E+000
  1.296240331192340E-005
  1.161181610310081E-005
  1.027106557490485E-005
  8.968675211406448E-006
  7.722169730944108E-006
  6.540695984903810E-006
  5.428896349579657E-006
  4.387192610203322E-006
  3.414226558592533E-006
  2.506467344768220E-006
  1.655810220560813E-006
  8.440977848818611E-007
  1.428533253595874E-007
  0.000000000000000E+000
  0.000000000000000E+000
  1.246608360794002E-005
  1.117529435709111E-005
  9.918809219624817E-006
  8.718869571824252E-006
  7.582512326569901E-006
  6.510218355729621E-006
  5.499276818973219E-006
  4.547110461067914E-006
  3.651087798139201E-006
  2.807734558258089E-006
  2.010521390285383E-006
  1.248008919452750E-006
  5.126966075100969E-007
  3.094092808281614E-008
  0.000000000000000E+000
  1.187667667057831E-005
  1.066194771688255E-005
  9.512043917901647E-006
  8.435765697787200E-006
  7.427114727831814E-006
  6.476639791619151E-006
  5.577019858027922E-006
  4.722959914110303E-006
  3.910515180576730E-006
  3.136419353761225E-006
  2.397636023400988E-006
  1.690160186601096E-006
  1.004496596276569E-006
  3.745621628159838E-007
  5.668320696924553E-008
  1.120281444821840E-005
  1.008471211112627E-005
  9.064147338294866E-006
  8.128870118630468E-006
  7.259268598710306E-006
  6.440452482304496E-006
  5.661375035455010E-006
  4.914196602455309E-006
  4.193588820211940E-006
  3.496074969795366E-006
  2.820071353679348E-006
  2.165209725297854E-006
  1.534472280447869E-006
  9.487471885569888E-007
  5.000687285562299E-007
  1.046115379692908E-005
  9.466124656433009E-006
  8.590797287300407E-006
  7.804085536280978E-006
  7.080435533722849E-006
  6.400831226164204E-006
  5.751010033809014E-006
  5.120212492765938E-006
  4.501214721736947E-006
  3.889926973829121E-006
  3.285110426239995E-006
  2.689653389877430E-006
  2.112167874176540E-006
  1.569855310714273E-006
  1.096030343287526E-006
  9.684671144202077E-006
  8.826993842149124E-006
  8.100735280177885E-006
  7.464895032992558E-006
  6.891021356299566E-006
  6.356871955783052E-006
  5.844437405897212E-006
  5.339918481926383E-006
  4.833543767857194E-006
  4.319768764688999E-006
  3.797451887966543E-006
  3.269984562428893E-006
  2.745508426565990E-006
  2.233708682005131E-006
  1.745900191556732E-006
  8.897854453381801E-006
  8.179947365616264E-006
  7.599169509136750E-006
  7.113368190417777E-006
  6.691614147936152E-006
  6.308068378463549E-006
  5.940740838270313E-006
  5.572029686765814E-006
  5.189243384651280E-006
  4.784339776279792E-006
  4.354259631405121E-006
  3.900484382439977E-006
  3.427165517656973E-006
  2.939462480699086E-006
  2.444384119510135E-006
  8.118082884265272E-006
  7.531549473393637E-006
  7.090565057291774E-006
  6.752980236448065E-006
  6.484497800911928E-006
  6.255154568918225E-006
  6.038930318290691E-006
  5.814230960164887E-006
  5.564308223757783E-006
  5.277668194741496E-006
  4.947533111394729E-006
  4.571372154465372E-006
  4.149835027789296E-006
  3.686442628196583E-006
  3.188483058233924E-006
  7.345812047943531E-006
  6.885312899678469E-006
  6.581030822178706E-006
  6.389572949429036E-006
  6.273534402466675E-006
  6.199422388065492E-006
  6.137423014114080E-006
  6.061916486071558E-006
  5.951778202906082E-006
  5.790598301307477E-006
  5.566813421582524E-006
  5.273311595870216E-006
  4.907593651159939E-006
  4.472191492107938E-006
  3.974786794252313E-006
  6.578251749295549E-006
  6.246628903102309E-006
  6.078267283145341E-006
  6.029871236945524E-006
  6.062642908896098E-006
  6.141196495842740E-006
  6.233097986283307E-006
  6.308850709376825E-006
  6.342475451235035E-006
  6.312277709498511E-006
  6.201109022470805E-006
  5.997016376616424E-006
  5.693896846905518E-006
  5.292238354459203E-006
  4.798993808370467E-006
  5.820408185554065E-006
  5.621605412291821E-006
  5.588309584800371E-006
  5.678511781563995E-006
  5.854383182064946E-006
  6.080277959945895E-006
  6.322182056235513E-006
  6.547551193485398E-006
  6.726123178029318E-006
  6.830705329350033E-006
  6.838375696683602E-006
  6.731823475656329E-006
  6.500129708286477E-006
  6.139838743014332E-006
  5.655592244496877E-006
  5.079894580761043E-006
  5.014971274181241E-006
  5.114498434982962E-006
  5.338395170162639E-006
  5.650522681771591E-006
  6.016218464681163E-006
  6.400929080546119E-006
  6.770568147294007E-006
  7.091715639874277E-006
  7.332510631546154E-006
  7.464536912906171E-006
  7.464283777532184E-006
  7.314397273494385E-006
  7.005719832073568E-006
  6.538857768055273E-006
  4.361996588220068E-006
  4.430278578237318E-006
  4.659484240404494E-006
  5.011735466308120E-006
  5.452611064561842E-006
  5.948600604454149E-006
  6.466072340482051E-006
  6.970790165168386E-006
  7.427944366139252E-006
  7.803097875875922E-006
  8.063105913553566E-006
  8.177910505533731E-006
  8.122511187831344E-006
  7.879663558356605E-006
  7.443391180133802E-006
  3.671114515585250E-006
  3.871274423462171E-006
  4.226700708980341E-006
  4.701368150660486E-006
  5.262148892895228E-006
  5.877108936967016E-006
  6.514294539548105E-006
  7.140708586141149E-006
  7.722622795139978E-006
  8.225707361638722E-006
  8.614561969356291E-006
  8.853241924488002E-006
  8.907893051888856E-006
  8.750196161206791E-006
  8.363164276708748E-006
  3.012676962189780E-006
  3.342745693643170E-006
  3.820365282518268E-006
  4.410387956118465E-006
  5.080873728651653E-006
  5.801339473296181E-006
  6.541776413994770E-006
  7.272279191925226E-006
  7.962858364346980E-006
  8.582315762888547E-006
  9.096663529156884E-006
  9.467086804120077E-006
  9.650529178571160E-006
  9.603567051286294E-006
  9.291730713666453E-006
  2.392664416672861E-006
  2.849920772275919E-006
  3.445084470977203E-006
  4.142758062702874E-006
  4.911017182569836E-006
  5.720507196896473E-006
  6.544108255205815E-006
  7.356747315364682E-006
  8.134734449659244E-006
  8.853755854621058E-006
  9.485368775008982E-006
  9.992398928823267E-006
  1.032515305530579E-005
  1.042240514752694E-005
  1.022251994840370E-005
  1.816306272571070E-006
  2.398164533830788E-006
  3.106550546693006E-006
  3.903248941101310E-006
  4.754732517700515E-006
  5.633068633596328E-006
  6.515575440563090E-006
  7.384208236481758E-006
  8.224181851863601E-006
  9.021026913260432E-006
  9.755889657802498E-006
  1.039889248730293E-005
  1.090029030099357E-005
  1.118263847441029E-005
  1.114628100831392E-005
  1.287564539042432E-006
  1.992814973021728E-006
  2.811149802290562E-006
  3.696432735955106E-006
  4.613104370058954E-006
  5.535990063413941E-006
  6.448906444980473E-006
  7.343616682068620E-006
  8.217066489953842E-006
  9.066705861086822E-006
  9.885583576476813E-006
  1.065626192191919E-005
  1.133896481690233E-005
  1.185097102773200E-005
  1.204917813697721E-005
  8.080920125705605E-007
  1.640969095328243E-006
  2.564864718384405E-006
  3.524409768816654E-006
  4.484329119271749E-006
  5.423488102450785E-006
  6.334863302088165E-006
  7.223285089370308E-006
  8.099930482433711E-006
  8.975811788160451E-006
  9.856441551440031E-006
  1.073798052809091E-005
  1.159941911131727E-005
  1.237632114271685E-005
  1.290167433484811E-005
  3.913430159216300E-007
  1.348047644193976E-006
  2.368894061115226E-006
  3.384653782011930E-006
  4.361320881875124E-006
  5.284957712981789E-006
  6.161829516822134E-006
  7.012210593310739E-006
  7.862178170580774E-006
  8.736921200674831E-006
  9.655328419565618E-006
  1.062683318495402E-005
  1.165161612302815E-005
  1.271019299587238E-005
  1.367147270013345E-005
  1.244553515870679E-007
  1.117080545252511E-006
  2.220660261358322E-006
  3.268109668121345E-006
  4.228230349602127E-006
  5.102565888232212E-006
  5.915558118286696E-006
  6.701817771264663E-006
  7.499119863641689E-006
  8.345153663258603E-006
  9.274192345473536E-006
  1.031222560110444E-005
  1.147792313800441E-005
  1.279525261771591E-005
  1.426515689392658E-005
  4.045192680262233E-008
  9.540041842699556E-007
  2.114914478850111E-006
  3.154032687249567E-006
  4.055990584396771E-006
  4.850551897418616E-006
  5.579838431461517E-006
  6.286850054210927E-006
  7.014470351123066E-006
  7.807479781822973E-006
  8.714280923776413E-006
  9.785198021421131E-006
  1.106508728321494E-005
  1.261454388603656E-005
  1.462079516891872E-005
  1.705512805910122E-009
  8.583987731213163E-007
  2.029911361888544E-006
  2.997783398840821E-006
  3.801516956580421E-006
  4.498761338612813E-006
  5.138970088996955E-006
  5.765132435740035E-006
  6.418574767764179E-006
  7.144286768866151E-006
  7.997479928863645E-006
  9.051011219236496E-006
  1.040062935875093E-005
  1.216801017916426E-005
  1.472483485129567E-005
  0.000000000000000E+000
  8.000862280886507E-007
  1.886577676671782E-006
  2.726240500022954E-006
  3.417074622000846E-006
  4.020546307632250E-006
  4.581294316320131E-006
  5.137010888301706E-006
  5.724183149191137E-006
  6.383545690032352E-006
  7.168286045598796E-006
  8.158624377402070E-006
  9.491408513105907E-006
  1.142337170621800E-005
  1.459448164614649E-005
  3.991557844373531E-009
  6.214941582310686E-007
  1.545112738009959E-006
  2.265166055283545E-006
  2.867043780231770E-006
  3.400638294143237E-006
  3.902951802594184E-006
  4.406350568099872E-006
  4.943029186530550E-006
  5.549519449493878E-006
  6.273761727053343E-006
  7.190937601083130E-006
  8.444015666784362E-006
  1.037193079781769E-005
  1.423805671006500E-005
SCALARS elementIsPlast double 
LOOKUP_TABLE default
   1.00000000000000     
   1.00000000000000     
   1.00000000000000     
   1.00000000000000     
   1.00000000000000     
   1.00000000000000     
   1.00000000000000     
   1.00000000000000     
   1.00000000000000     
   1.00000000000000     
   1.00000000000000     
   1.00000000000000     
  0.000000000000000E+000
  0.000000000000000E+000
  0.000000000000000E+000
   1.00000000000000     
   1.00000000000000     
   1.00000000000000     
   1.00000000000000     
   1.00000000000000     
   1.00000000000000     
   1.00000000000000     
   1.00000000000000     
   1.00000000000000     
   1.00000000000000     
   1.00000000000000     
   1.00000000000000     
  0.000000000000000E+000
  0.000000000000000E+000
  0.000000000000000E+000
   1.00000000000000     
   1.00000000000000     
   1.00000000000000     
   1.00000000000000     
   1.00000000000000     
   1.00000000000000     
   1.00000000000000     
   1.00000000000000     
   1.00000000000000     
   1.00000000000000     
   1.00000000000000     
   1.00000000000000     
  0.000000000000000E+000
  0.000000000000000E+000
  0.000000000000000E+000
   1.00000000000000     
   1.00000000000000     
   1.00000000000000     
   1.00000000000000     
   1.00000000000000     
   1.00000000000000     
   1.00000000000000     
   1.00000000000000     
   1.00000000000000     
   1.00000000000000     
   1.00000000000000     
   1.00000000000000     
  0.000000000000000E+000
  0.000000000000000E+000
  0.000000000000000E+000
   1.00000000000000     
   1.00000000000000     
   1.00000000000000     
   1.00000000000000     
   1.00000000000000     
   1.00000000000000     
   1.00000000000000     
   1.00000000000000     
   1.00000000000000     
   1.00000000000000     
   1.00000000000000     
   1.00000000000000     
   1.00000000000000     
  0.000000000000000E+000
  0.000000000000000E+000
   1.00000000000000     
   1.00000000000000     
   1.00000000000000     
   1.00000000000000     
   1.00000000000000     
   1.00000000000000     
   1.00000000000000     
   1.00000000000000     
   1.00000000000000     
   1.00000000000000     
   1.00000000000000     
   1.00000000000000     
   1.00000000000000     
  0.000000000000000E+000
  0.000000000000000E+000
   1.00000000000000     
   1.00000000000000     
   1.00000000000000     
   1.00000000000000     
   1.00000000000000     
   1.00000000000000     
   1.00000000000000     
   1.00000000000000     
   1.00000000000000     
   1.00000000000000     
   1.00000000000000     
   1.00000000000000     
   1.00000000000000     
   1.00000000000000     
  0.000000000000000E+000
   1.00000000000000     
   1.00000000000000     
   1.00000000000000     
   1.00000000000000     
   1.00000000000000     
   1.00000000000000     
   1.00000000000000     
   1.00000000000000     
   1.00000000000000     
   1.00000000000000     
   1.00000000000000     
   1.00000000000000     
   1.00000000000000     
   1.00000000000000     
   1.00000000000000     
   1.00000000000000     
   1.00000000000000     
   1.00000000000000     
   1.00000000000000     
   1.00000000000000     
   1.00000000000000     
   1.00000000000000     
   1.00000000000000     
   1.00000000000000     
   1.00000000000000     
   1.00000000000000     
   1.00000000000000     
   1.00000000000000     
   1.00000000000000     
   1.00000000000000     
   1.00000000000000     
   1.00000000000000     
   1.00000000000000     
   1.00000000000000     
   1.00000000000000     
   1.00000000000000     
   1.00000000000000     
   1.00000000000000     
   1.00000000000000     
   1.00000000000000     
   1.00000000000000     
   1.00000000000000     
   1.00000000000000     
   1.00000000000000     
   1.00000000000000     
   1.00000000000000     
   1.00000000000000     
   1.00000000000000     
   1.00000000000000     
   1.00000000000000     
   1.00000000000000     
   1.00000000000000     
   1.00000000000000     
   1.00000000000000     
   1.00000000000000     
   1.00000000000000     
   1.00000000000000     
   1.00000000000000     
   1.00000000000000     
   1.00000000000000     
   1.00000000000000     
   1.00000000000000     
   1.00000000000000     
   1.00000000000000     
   1.00000000000000     
   1.00000000000000     
   1.00000000000000     
   1.00000000000000     
   1.00000000000000     
   1.00000000000000     
   1.00000000000000     
   1.00000000000000     
   1.00000000000000     
   1.00000000000000     
   1.00000000000000     
   1.00000000000000     
   1.00000000000000     
   1.00000000000000     
   1.00000000000000     
   1.00000000000000     
   1.00000000000000     
   1.00000000000000     
   1.00000000000000     
   1.00000000000000     
   1.00000000000000     
   1.00000000000000     
   1.00000000000000     
   1.00000000000000     
   1.00000000000000     
   1.00000000000000     
   1.00000000000000     
   1.00000000000000     
   1.00000000000000     
   1.00000000000000     
   1.00000000000000     
   1.00000000000000     
   1.00000000000000     
   1.00000000000000     
   1.00000000000000     
   1.00000000000000     
   1.00000000000000     
   1.00000000000000     
   1.00000000000000     
   1.00000000000000     
   1.00000000000000     
   1.00000000000000     
   1.00000000000000     
   1.00000000000000     
   1.00000000000000     
   1.00000000000000     
   1.00000000000000     
   1.00000000000000     
   1.00000000000000     
   1.00000000000000     
   1.00000000000000     
   1.00000000000000     
   1.00000000000000     
   1.00000000000000     
   1.00000000000000     
   1.00000000000000     
   1.00000000000000     
   1.00000000000000     
   1.00000000000000     
   1.00000000000000     
   1.00000000000000     
   1.00000000000000     
   1.00000000000000     
   1.00000000000000     
   1.00000000000000     
   1.00000000000000     
   1.00000000000000     
   1.00000000000000     
   1.00000000000000     
   1.00000000000000     
   1.00000000000000     
   1.00000000000000     
   1.00000000000000     
   1.00000000000000     
   1.00000000000000     
   1.00000000000000     
   1.00000000000000     
   1.00000000000000     
   1.00000000000000     
   1.00000000000000     
   1.00000000000000     
   1.00000000000000     
   1.00000000000000     
   1.00000000000000     
   1.00000000000000     
   1.00000000000000     
   1.00000000000000     
   1.00000000000000     
   1.00000000000000     
   1.00000000000000     
   1.00000000000000     
   1.00000000000000     
   1.00000000000000     
   1.00000000000000     
   1.00000000000000     
   1.00000000000000     
   1.00000000000000     
   1.00000000000000     
   1.00000000000000     
   1.00000000000000     
   1.00000000000000     
   1.00000000000000     
   1.00000000000000     
   1.00000000000000     
   1.00000000000000     
   1.00000000000000     
   1.00000000000000     
   1.00000000000000     
   1.00000000000000     
   1.00000000000000     
   1.00000000000000     
   1.00000000000000     
   1.00000000000000     
   1.00000000000000     
   1.00000000000000     
   1.00000000000000     
   1.00000000000000     
   1.00000000000000     
   1.00000000000000     
   1.00000000000000     
   1.00000000000000     
   1.00000000000000     
   1.00000000000000     
   1.00000000000000     
   1.00000000000000     
   1.00000000000000     
   1.00000000000000     
   1.00000000000000     
   1.00000000000000     
   1.00000000000000     
   1.00000000000000     
   1.00000000000000     
   1.00000000000000     
   1.00000000000000     
   1.00000000000000     
   1.00000000000000     
   1.00000000000000     
   1.00000000000000     
   1.00000000000000     
   1.00000000000000     
   1.00000000000000     
   1.00000000000000     
   1.00000000000000     
   1.00000000000000     
   1.00000000000000     
   1.00000000000000     
   1.00000000000000     
   1.00000000000000     
   1.00000000000000     
   1.00000000000000     
   1.00000000000000     
   1.00000000000000     
   1.00000000000000     
   1.00000000000000     
   1.00000000000000     
   1.00000000000000     
   1.00000000000000     
   1.00000000000000     
   1.00000000000000     
   1.00000000000000     
   1.00000000000000     
   1.00000000000000     
   1.00000000000000     
   1.00000000000000     
   1.00000000000000     
   1.00000000000000     
   1.00000000000000     
   1.00000000000000     
   1.00000000000000     
   1.00000000000000     
   1.00000000000000     
   1.00000000000000     
   1.00000000000000     
   1.00000000000000     
   1.00000000000000     
   1.00000000000000     
   1.00000000000000     
   1.00000000000000     
   1.00000000000000     
   1.00000000000000     
   1.00000000000000     
   1.00000000000000     
   1.00000000000000     
   1.00000000000000     
   1.00000000000000     
   1.00000000000000     
   1.00000000000000     
   1.00000000000000     
   1.00000000000000     
   1.00000000000000     
   1.00000000000000     
   1.00000000000000     
   1.00000000000000     
   1.00000000000000     
   1.00000000000000     
   1.00000000000000     
   1.00000000000000     
   1.00000000000000     
   1.00000000000000     
   1.00000000000000     
   1.00000000000000     
   1.00000000000000     
   1.00000000000000     
   1.00000000000000     
   1.00000000000000     
   1.00000000000000     
   1.00000000000000     
   1.00000000000000     
   1.00000000000000     
   1.00000000000000     
   1.00000000000000     
   1.00000000000000     
   1.00000000000000     
   1.00000000000000     
   1.00000000000000     
   1.00000000000000     
   1.00000000000000     
   1.00000000000000     
   1.00000000000000     
   1.00000000000000     
   1.00000000000000     
   1.00000000000000     
   1.00000000000000     
   1.00000000000000     
   1.00000000000000     
   1.00000000000000     
   1.00000000000000     
   1.00000000000000     
   1.00000000000000     
   1.00000000000000     
   1.00000000000000     
   1.00000000000000     
   1.00000000000000     
   1.00000000000000     
   1.00000000000000     
   1.00000000000000     
   1.00000000000000     
   1.00000000000000     
   1.00000000000000     
   1.00000000000000     
   1.00000000000000     
   1.00000000000000     
   1.00000000000000     
   1.00000000000000     
   1.00000000000000     
   1.00000000000000     
   1.00000000000000     
   1.00000000000000     
   1.00000000000000     
   1.00000000000000     
   1.00000000000000     
  0.000000000000000E+000
   1.00000000000000     
   1.00000000000000     
   1.00000000000000     
   1.00000000000000     
   1.00000000000000     
   1.00000000000000     
   1.00000000000000     
   1.00000000000000     
   1.00000000000000     
   1.00000000000000     
   1.00000000000000     
   1.00000000000000     
   1.00000000000000     
   1.00000000000000     
  0.000000000000000E+000
   1.00000000000000     
   1.00000000000000     
   1.00000000000000     
   1.00000000000000     
   1.00000000000000     
   1.00000000000000     
   1.00000000000000     
   1.00000000000000     
   1.00000000000000     
   1.00000000000000     
   1.00000000000000     
   1.00000000000000     
   1.00000000000000     
   1.00000000000000     
SCALARS poroL double 
LOOKUP_TABLE default
  0.155902888336913     
  0.155901436925838     
  0.155900036190127     
  0.155898719123300     
  0.155897512218360     
  0.155896427238496     
  0.155895466467081     
  0.155894626872759     
  0.155893903659644     
  0.155893290636133     
  0.155892781022517     
  0.155892291284001     
  0.155891270106472     
  0.155890341560168     
  0.155889568215932     
  0.155902488236530     
  0.155901045704716     
  0.155899654314074     
  0.155898346079278     
  0.155897145556576     
  0.155896062246345     
  0.155895098034858     
  0.155894249336230     
  0.155893512786714     
  0.155892885939561     
  0.155892366076249     
  0.155891904506313     
  0.155890915151002     
  0.155890003968425     
  0.155889243088075     
  0.155901687248277     
  0.155900262196736     
  0.155898888303971     
  0.155897596188102     
  0.155896407765815     
  0.155895329412470     
  0.155894360877112     
  0.155893498716638     
  0.155892740483927     
  0.155892088559788     
  0.155891548622191     
  0.155891118143213     
  0.155890215450896     
  0.155889333224036     
  0.155888594241665     
  0.155900482090089     
  0.155899081532398     
  0.155897732556205     
  0.155896464848873     
  0.155895294574769     
  0.155894225072814     
  0.155893255043253     
  0.155892381630069     
  0.155891602412626     
  0.155890921095430     
  0.155890352579567     
  0.155889929876407     
  0.155889191312809     
  0.155888327461619     
  0.155887624027587     
  0.155898868046060     
  0.155897497433249     
  0.155896182596468     
  0.155894948795001     
  0.155893804062401     
  0.155892749181468     
  0.155891783258883     
  0.155890905518418     
  0.155890113773329     
  0.155889410871706     
  0.155888806786721     
  0.155888326803556     
  0.155887797466940     
  0.155886983409684     
  0.155886340542335     
  0.155896841773771     
  0.155895508009051     
  0.155894237490099     
  0.155893046843576     
  0.155891936642403     
  0.155890904886359     
  0.155889952097555     
  0.155889078659449     
  0.155888285076150     
  0.155887573289672     
  0.155886945127451     
  0.155886407560751     
  0.155885986241276     
  0.155885328158163     
  0.155884748689632     
  0.155894402645108     
  0.155893115506590     
  0.155891901747916     
  0.155890765136639     
  0.155889699153293     
  0.155888701159092     
  0.155887770792523     
  0.155886911181993     
  0.155886125029009     
  0.155885416235041     
  0.155884789030890     
  0.155884251379307     
  0.155883799392854     
  0.155883344079054     
  0.155882844989660     
  0.155891556752153     
  0.155890330349811     
  0.155889186711395     
  0.155888115949212     
  0.155887105986428     
  0.155886150805256     
  0.155885252642822     
  0.155884416119053     
  0.155883647129024     
  0.155882953372489     
  0.155882343990128     
  0.155881824909916     
  0.155881394483846     
  0.155881038925343     
  0.155880708241372     
  0.155888319362851     
  0.155887168790628     
  0.155886111477672     
  0.155885118793779     
  0.155884172446135     
  0.155883269591120     
  0.155882413073770     
  0.155881609958632     
  0.155880869001485     
  0.155880200706995     
  0.155879616238308     
  0.155879126642696     
  0.155878746876763     
  0.155878482380228     
  0.155878323570491     
  0.155884711254695     
  0.155883663943219     
  0.155882704277796     
  0.155881792668019     
  0.155880916519380     
  0.155880073556146     
  0.155879268729698     
  0.155878510032421     
  0.155877808082603     
  0.155877174923940     
  0.155876623356008     
  0.155876168521397     
  0.155875823824777     
  0.155875596938079     
  0.155875476135037     
  0.155880781916744     
  0.155879849187768     
  0.155878986170480     
  0.155878157984502     
  0.155877355543270     
  0.155876579880251     
  0.155875836234148     
  0.155875133577736     
  0.155874482144331     
  0.155873893847214     
  0.155873381879346     
  0.155872958322949     
  0.155872632674829     
  0.155872407266027     
  0.155872284098513     
  0.155876564233209     
  0.155875747718535     
  0.155874976983234     
  0.155874231041079     
  0.155873506265236     
  0.155872805293151     
  0.155872133644655     
  0.155871498605740     
  0.155870909182202     
  0.155870374612032     
  0.155869904670358     
  0.155869508055347     
  0.155869190979807     
  0.155868959170439     
  0.155868820197957     
  0.155872089357334     
  0.155871376411658     
  0.155870691964955     
  0.155870028213872     
  0.155869385830694     
  0.155868768063066     
  0.155868179331449     
  0.155867623966203     
  0.155867106718203     
  0.155866633247746     
  0.155866208650891     
  0.155865838198690     
  0.155865528416599     
  0.155865287049135     
  0.155865123937728     
  0.155867356793115     
  0.155866740372167     
  0.155866142738553     
  0.155865565365794     
  0.155865012798298     
  0.155864488101285     
  0.155863992795004     
  0.155863527640437     
  0.155863092872085     
  0.155862688348565     
  0.155862314869610     
  0.155861975248763     
  0.155861674782904     
  0.155861422025808     
  0.155861227209867     
  0.155862358071641     
  0.155861843578988     
  0.155861341021535     
  0.155860859660929     
  0.155860406145605     
  0.155859983965974     
  0.155859592586836     
  0.155859228516800     
  0.155858886334372     
  0.155858560694895     
  0.155858247726314     
  0.155857946321786     
  0.155857659342407     
  0.155857394180909     
  0.155857161302093     
  0.155857097306612     
  0.155856693905501     
  0.155856298633552     
  0.155855925013262     
  0.155855582290189     
  0.155855273624979     
  0.155854996943948     
  0.155854744830581     
  0.155854506882795     
  0.155854271900644     
  0.155854030339628     
  0.155853776418018     
  0.155853509010921     
  0.155853232727582     
  0.155852958707197     
  0.155851582147553     
  0.155851299915491     
  0.155851025524349     
  0.155850774247953     
  0.155850555973542     
  0.155850373994616     
  0.155850224056030     
  0.155850095787158     
  0.155849974128892     
  0.155849842064524     
  0.155849683856699     
  0.155849487720469     
  0.155849247698115     
  0.155848965115278     
  0.155848649749029     
  0.155845816170850     
  0.155845668339841     
  0.155845530405141     
  0.155845418416947     
  0.155845341714179     
  0.155845301899758     
  0.155845293010801     
  0.155845301662580     
  0.155845308782770     
  0.155845291831737     
  0.155845228807281     
  0.155845101650307     
  0.155844898933495     
  0.155844617383765     
  0.155844262608545     
  0.155839802786713     
  0.155839806555153     
  0.155839823930642     
  0.155839870755405     
  0.155839954362674     
  0.155840074327087     
  0.155840222194088     
  0.155840381224980     
  0.155840528706889     
  0.155840638436887     
  0.155840682997227     
  0.155840637701432     
  0.155840484122542     
  0.155840213354500     
  0.155839825817641     
  0.155833550415575     
  0.155833726103098     
  0.155833919826854     
  0.155834145965526     
  0.155834410104529     
  0.155834708848265     
  0.155835029392256     
  0.155835351722325     
  0.155835650191165     
  0.155835896181093     
  0.155836059469421     
  0.155836109962791     
  0.155836021543676     
  0.155835775677727     
  0.155835365549937     
  0.155827071818810     
  0.155827441987462     
  0.155827834274717     
  0.155828262123470     
  0.155828728388250     
  0.155829224753423     
  0.155829733109077     
  0.155830229183683     
  0.155830685727057     
  0.155831074063171     
  0.155831364634304     
  0.155831525109311     
  0.155831521942358     
  0.155831323413438     
  0.155830908046421     
  0.155820382331705     
  0.155820972609098     
  0.155821588409745     
  0.155822242083364     
  0.155822932418131     
  0.155823644039684     
  0.155824352358431     
  0.155825028638445     
  0.155825645009986     
  0.155826176263501     
  0.155826597258860     
  0.155826879160699     
  0.155826984357808     
  0.155826865894973     
  0.155826475867998     
  0.155813499356004     
  0.155814340051286     
  0.155815207571702     
  0.155816115212230     
  0.155817051039871     
  0.155817992007881     
  0.155818907233138     
  0.155819764650000     
  0.155820536986597     
  0.155821204087639     
  0.155821750378572     
  0.155822157521727     
  0.155822392181384     
  0.155822396024555     
  0.155822086090620     
  0.155806443186541     
  0.155807567562305     
  0.155808729881146     
  0.155809919901488     
  0.155811119860981     
  0.155812298560183     
  0.155813419657881     
  0.155814450974229     
  0.155815369221040     
  0.155816160451097     
  0.155816818513515     
  0.155817339686179     
  0.155817710415532     
  0.155817878855960     
  0.155817723560536     
  0.155799201336752     
  0.155800706363991     
  0.155802203798139     
  0.155803704863711     
  0.155805183427341     
  0.155806599414885     
  0.155807914137124     
  0.155809101951213     
  0.155810149523497     
  0.155811050790218     
  0.155811804814124     
  0.155812419097037     
  0.155812907526857     
  0.155813268870686     
  0.155813378669034     
  0.155791824647538     
  0.155793823548757     
  0.155795694053438     
  0.155797533359275     
  0.155799297749172     
  0.155800936203816     
  0.155802418234640     
  0.155803734921011     
  0.155804888117229     
  0.155805882472164     
  0.155806721632448     
  0.155807411659057     
  0.155807980426451     
  0.155808483761966     
  0.155808960024777     
  0.155784362776614     
  0.155786994240536     
  0.155789284893964     
  0.155791491160908     
  0.155793528709435     
  0.155795353993234     
  0.155796963851588     
  0.155798373219771     
  0.155799601818303     
  0.155800666738006     
  0.155801579432624     
  0.155802345208257     
  0.155802975120288     
  0.155803573287732     
  0.155804413372227     
  0.155776836646582     
  0.155780287969679     
  0.155783108138199     
  0.155785684113512     
  0.155787941713498     
  0.155789897245541     
  0.155791587109693     
  0.155793048968439     
  0.155794316432292     
  0.155795419385417     
  0.155796381984697     
  0.155797221918822     
  0.155797952829036     
  0.155798609401374     
  0.155799718255568     
  0.155769415113890     
  0.155773936695373     
  0.155777357812876     
  0.155780206906301     
  0.155782593857814     
  0.155784610867624     
  0.155786327779588     
  0.155787798459526     
  0.155789065684365     
  0.155790166659701     
  0.155791136740165     
  0.155792013939931     
  0.155792843569440     
  0.155793710763540     
  0.155794932401629     
  0.155762611825347     
  0.155768456917927     
  0.155772183211546     
  0.155775127794032     
  0.155777533461885     
  0.155779537082857     
  0.155781225550835     
  0.155782659467043     
  0.155783884289915     
  0.155784939117734     
  0.155785862351939     
  0.155786700925083     
  0.155787528678691     
  0.155788494242977     
  0.155790323498447     
