# vtk DataFile Version 3.0
vtk output
ASCII
DATASET UNSTRUCTURED_GRID
POINTS       496 double 
  0.00000000E+00  3.00000000E+02  0.00000000E+00
  0.00000000E+00  2.80000000E+02  0.00000000E+00
  0.00000000E+00  2.60000000E+02  0.00000000E+00
  0.00000000E+00  2.40000000E+02  0.00000000E+00
  0.00000000E+00  2.20000000E+02  0.00000000E+00
  0.00000000E+00  2.00000000E+02  0.00000000E+00
  0.00000000E+00  1.80000000E+02  0.00000000E+00
  0.00000000E+00  1.60000000E+02  0.00000000E+00
  0.00000000E+00  1.40000000E+02  0.00000000E+00
  0.00000000E+00  1.20000000E+02  0.00000000E+00
  0.00000000E+00  1.00000000E+02  0.00000000E+00
  0.00000000E+00  8.00000000E+01  0.00000000E+00
  0.00000000E+00  6.00000000E+01  0.00000000E+00
  0.00000000E+00  4.00000000E+01  0.00000000E+00
  0.00000000E+00  2.00000000E+01  0.00000000E+00
  0.00000000E+00  4.99600361E-14  0.00000000E+00
  2.00000000E+01  3.00000000E+02  0.00000000E+00
  2.00000000E+01  2.80000000E+02  0.00000000E+00
  2.00000000E+01  2.60000000E+02  0.00000000E+00
  2.00000000E+01  2.40000000E+02  0.00000000E+00
  2.00000000E+01  2.20000000E+02  0.00000000E+00
  2.00000000E+01  2.00000000E+02  0.00000000E+00
  2.00000000E+01  1.80000000E+02  0.00000000E+00
  2.00000000E+01  1.60000000E+02  0.00000000E+00
  2.00000000E+01  1.40000000E+02  0.00000000E+00
  2.00000000E+01  1.20000000E+02  0.00000000E+00
  2.00000000E+01  1.00000000E+02  0.00000000E+00
  2.00000000E+01  8.00000000E+01  0.00000000E+00
  2.00000000E+01  6.00000000E+01  0.00000000E+00
  2.00000000E+01  4.00000000E+01  0.00000000E+00
  2.00000000E+01  2.00000000E+01  0.00000000E+00
  2.00000000E+01  4.99600361E-14  0.00000000E+00
  4.00000000E+01  3.00000000E+02  0.00000000E+00
  4.00000000E+01  2.80000000E+02  0.00000000E+00
  4.00000000E+01  2.60000000E+02  0.00000000E+00
  4.00000000E+01  2.40000000E+02  0.00000000E+00
  4.00000000E+01  2.20000000E+02  0.00000000E+00
  4.00000000E+01  2.00000000E+02  0.00000000E+00
  4.00000000E+01  1.80000000E+02  0.00000000E+00
  4.00000000E+01  1.60000000E+02  0.00000000E+00
  4.00000000E+01  1.40000000E+02  0.00000000E+00
  4.00000000E+01  1.20000000E+02  0.00000000E+00
  4.00000000E+01  1.00000000E+02  0.00000000E+00
  4.00000000E+01  8.00000000E+01  0.00000000E+00
  4.00000000E+01  6.00000000E+01  0.00000000E+00
  4.00000000E+01  4.00000000E+01  0.00000000E+00
  4.00000000E+01  2.00000000E+01  0.00000000E+00
  4.00000000E+01  4.99600361E-14  0.00000000E+00
  6.00000000E+01  3.00000000E+02  0.00000000E+00
  6.00000000E+01  2.80000000E+02  0.00000000E+00
  6.00000000E+01  2.60000000E+02  0.00000000E+00
  6.00000000E+01  2.40000000E+02  0.00000000E+00
  6.00000000E+01  2.20000000E+02  0.00000000E+00
  6.00000000E+01  2.00000000E+02  0.00000000E+00
  6.00000000E+01  1.80000000E+02  0.00000000E+00
  6.00000000E+01  1.60000000E+02  0.00000000E+00
  6.00000000E+01  1.40000000E+02  0.00000000E+00
  6.00000000E+01  1.20000000E+02  0.00000000E+00
  6.00000000E+01  1.00000000E+02  0.00000000E+00
  6.00000000E+01  8.00000000E+01  0.00000000E+00
  6.00000000E+01  6.00000000E+01  0.00000000E+00
  6.00000000E+01  4.00000000E+01  0.00000000E+00
  6.00000000E+01  2.00000000E+01  0.00000000E+00
  6.00000000E+01  4.99600361E-14  0.00000000E+00
  8.00000000E+01  3.00000000E+02  0.00000000E+00
  8.00000000E+01  2.80000000E+02  0.00000000E+00
  8.00000000E+01  2.60000000E+02  0.00000000E+00
  8.00000000E+01  2.40000000E+02  0.00000000E+00
  8.00000000E+01  2.20000000E+02  0.00000000E+00
  8.00000000E+01  2.00000000E+02  0.00000000E+00
  8.00000000E+01  1.80000000E+02  0.00000000E+00
  8.00000000E+01  1.60000000E+02  0.00000000E+00
  8.00000000E+01  1.40000000E+02  0.00000000E+00
  8.00000000E+01  1.20000000E+02  0.00000000E+00
  8.00000000E+01  1.00000000E+02  0.00000000E+00
  8.00000000E+01  8.00000000E+01  0.00000000E+00
  8.00000000E+01  6.00000000E+01  0.00000000E+00
  8.00000000E+01  4.00000000E+01  0.00000000E+00
  8.00000000E+01  2.00000000E+01  0.00000000E+00
  8.00000000E+01  4.99600361E-14  0.00000000E+00
  1.00000000E+02  3.00000000E+02  0.00000000E+00
  1.00000000E+02  2.80000000E+02  0.00000000E+00
  1.00000000E+02  2.60000000E+02  0.00000000E+00
  1.00000000E+02  2.40000000E+02  0.00000000E+00
  1.00000000E+02  2.20000000E+02  0.00000000E+00
  1.00000000E+02  2.00000000E+02  0.00000000E+00
  1.00000000E+02  1.80000000E+02  0.00000000E+00
  1.00000000E+02  1.60000000E+02  0.00000000E+00
  1.00000000E+02  1.40000000E+02  0.00000000E+00
  1.00000000E+02  1.20000000E+02  0.00000000E+00
  1.00000000E+02  1.00000000E+02  0.00000000E+00
  1.00000000E+02  8.00000000E+01  0.00000000E+00
  1.00000000E+02  6.00000000E+01  0.00000000E+00
  1.00000000E+02  4.00000000E+01  0.00000000E+00
  1.00000000E+02  2.00000000E+01  0.00000000E+00
  1.00000000E+02  4.99600361E-14  0.00000000E+00
  1.20000000E+02  3.00000000E+02  0.00000000E+00
  1.20000000E+02  2.80000000E+02  0.00000000E+00
  1.20000000E+02  2.60000000E+02  0.00000000E+00
  1.20000000E+02  2.40000000E+02  0.00000000E+00
  1.20000000E+02  2.20000000E+02  0.00000000E+00
  1.20000000E+02  2.00000000E+02  0.00000000E+00
  1.20000000E+02  1.80000000E+02  0.00000000E+00
  1.20000000E+02  1.60000000E+02  0.00000000E+00
  1.20000000E+02  1.40000000E+02  0.00000000E+00
  1.20000000E+02  1.20000000E+02  0.00000000E+00
  1.20000000E+02  1.00000000E+02  0.00000000E+00
  1.20000000E+02  8.00000000E+01  0.00000000E+00
  1.20000000E+02  6.00000000E+01  0.00000000E+00
  1.20000000E+02  4.00000000E+01  0.00000000E+00
  1.20000000E+02  2.00000000E+01  0.00000000E+00
  1.20000000E+02  4.99600361E-14  0.00000000E+00
  1.40000000E+02  3.00000000E+02  0.00000000E+00
  1.40000000E+02  2.80000000E+02  0.00000000E+00
  1.40000000E+02  2.60000000E+02  0.00000000E+00
  1.40000000E+02  2.40000000E+02  0.00000000E+00
  1.40000000E+02  2.20000000E+02  0.00000000E+00
  1.40000000E+02  2.00000000E+02  0.00000000E+00
  1.40000000E+02  1.80000000E+02  0.00000000E+00
  1.40000000E+02  1.60000000E+02  0.00000000E+00
  1.40000000E+02  1.40000000E+02  0.00000000E+00
  1.40000000E+02  1.20000000E+02  0.00000000E+00
  1.40000000E+02  1.00000000E+02  0.00000000E+00
  1.40000000E+02  8.00000000E+01  0.00000000E+00
  1.40000000E+02  6.00000000E+01  0.00000000E+00
  1.40000000E+02  4.00000000E+01  0.00000000E+00
  1.40000000E+02  2.00000000E+01  0.00000000E+00
  1.40000000E+02  4.99600361E-14  0.00000000E+00
  1.60000000E+02  3.00000000E+02  0.00000000E+00
  1.60000000E+02  2.80000000E+02  0.00000000E+00
  1.60000000E+02  2.60000000E+02  0.00000000E+00
  1.60000000E+02  2.40000000E+02  0.00000000E+00
  1.60000000E+02  2.20000000E+02  0.00000000E+00
  1.60000000E+02  2.00000000E+02  0.00000000E+00
  1.60000000E+02  1.80000000E+02  0.00000000E+00
  1.60000000E+02  1.60000000E+02  0.00000000E+00
  1.60000000E+02  1.40000000E+02  0.00000000E+00
  1.60000000E+02  1.20000000E+02  0.00000000E+00
  1.60000000E+02  1.00000000E+02  0.00000000E+00
  1.60000000E+02  8.00000000E+01  0.00000000E+00
  1.60000000E+02  6.00000000E+01  0.00000000E+00
  1.60000000E+02  4.00000000E+01  0.00000000E+00
  1.60000000E+02  2.00000000E+01  0.00000000E+00
  1.60000000E+02  4.99600361E-14  0.00000000E+00
  1.80000000E+02  3.00000000E+02  0.00000000E+00
  1.80000000E+02  2.80000000E+02  0.00000000E+00
  1.80000000E+02  2.60000000E+02  0.00000000E+00
  1.80000000E+02  2.40000000E+02  0.00000000E+00
  1.80000000E+02  2.20000000E+02  0.00000000E+00
  1.80000000E+02  2.00000000E+02  0.00000000E+00
  1.80000000E+02  1.80000000E+02  0.00000000E+00
  1.80000000E+02  1.60000000E+02  0.00000000E+00
  1.80000000E+02  1.40000000E+02  0.00000000E+00
  1.80000000E+02  1.20000000E+02  0.00000000E+00
  1.80000000E+02  1.00000000E+02  0.00000000E+00
  1.80000000E+02  8.00000000E+01  0.00000000E+00
  1.80000000E+02  6.00000000E+01  0.00000000E+00
  1.80000000E+02  4.00000000E+01  0.00000000E+00
  1.80000000E+02  2.00000000E+01  0.00000000E+00
  1.80000000E+02  4.99600361E-14  0.00000000E+00
  2.00000000E+02  3.00000000E+02  0.00000000E+00
  2.00000000E+02  2.80000000E+02  0.00000000E+00
  2.00000000E+02  2.60000000E+02  0.00000000E+00
  2.00000000E+02  2.40000000E+02  0.00000000E+00
  2.00000000E+02  2.20000000E+02  0.00000000E+00
  2.00000000E+02  2.00000000E+02  0.00000000E+00
  2.00000000E+02  1.80000000E+02  0.00000000E+00
  2.00000000E+02  1.60000000E+02  0.00000000E+00
  2.00000000E+02  1.40000000E+02  0.00000000E+00
  2.00000000E+02  1.20000000E+02  0.00000000E+00
  2.00000000E+02  1.00000000E+02  0.00000000E+00
  2.00000000E+02  8.00000000E+01  0.00000000E+00
  2.00000000E+02  6.00000000E+01  0.00000000E+00
  2.00000000E+02  4.00000000E+01  0.00000000E+00
  2.00000000E+02  2.00000000E+01  0.00000000E+00
  2.00000000E+02  4.99600361E-14  0.00000000E+00
  2.20000000E+02  3.00000000E+02  0.00000000E+00
  2.20000000E+02  2.80000000E+02  0.00000000E+00
  2.20000000E+02  2.60000000E+02  0.00000000E+00
  2.20000000E+02  2.40000000E+02  0.00000000E+00
  2.20000000E+02  2.20000000E+02  0.00000000E+00
  2.20000000E+02  2.00000000E+02  0.00000000E+00
  2.20000000E+02  1.80000000E+02  0.00000000E+00
  2.20000000E+02  1.60000000E+02  0.00000000E+00
  2.20000000E+02  1.40000000E+02  0.00000000E+00
  2.20000000E+02  1.20000000E+02  0.00000000E+00
  2.20000000E+02  1.00000000E+02  0.00000000E+00
  2.20000000E+02  8.00000000E+01  0.00000000E+00
  2.20000000E+02  6.00000000E+01  0.00000000E+00
  2.20000000E+02  4.00000000E+01  0.00000000E+00
  2.20000000E+02  2.00000000E+01  0.00000000E+00
  2.20000000E+02  4.99600361E-14  0.00000000E+00
  2.40000000E+02  3.00000000E+02  0.00000000E+00
  2.40000000E+02  2.80000000E+02  0.00000000E+00
  2.40000000E+02  2.60000000E+02  0.00000000E+00
  2.40000000E+02  2.40000000E+02  0.00000000E+00
  2.40000000E+02  2.20000000E+02  0.00000000E+00
  2.40000000E+02  2.00000000E+02  0.00000000E+00
  2.40000000E+02  1.80000000E+02  0.00000000E+00
  2.40000000E+02  1.60000000E+02  0.00000000E+00
  2.40000000E+02  1.40000000E+02  0.00000000E+00
  2.40000000E+02  1.20000000E+02  0.00000000E+00
  2.40000000E+02  1.00000000E+02  0.00000000E+00
  2.40000000E+02  8.00000000E+01  0.00000000E+00
  2.40000000E+02  6.00000000E+01  0.00000000E+00
  2.40000000E+02  4.00000000E+01  0.00000000E+00
  2.40000000E+02  2.00000000E+01  0.00000000E+00
  2.40000000E+02  4.99600361E-14  0.00000000E+00
  2.60000000E+02  3.00000000E+02  0.00000000E+00
  2.60000000E+02  2.80000000E+02  0.00000000E+00
  2.60000000E+02  2.60000000E+02  0.00000000E+00
  2.60000000E+02  2.40000000E+02  0.00000000E+00
  2.60000000E+02  2.20000000E+02  0.00000000E+00
  2.60000000E+02  2.00000000E+02  0.00000000E+00
  2.60000000E+02  1.80000000E+02  0.00000000E+00
  2.60000000E+02  1.60000000E+02  0.00000000E+00
  2.60000000E+02  1.40000000E+02  0.00000000E+00
  2.60000000E+02  1.20000000E+02  0.00000000E+00
  2.60000000E+02  1.00000000E+02  0.00000000E+00
  2.60000000E+02  8.00000000E+01  0.00000000E+00
  2.60000000E+02  6.00000000E+01  0.00000000E+00
  2.60000000E+02  4.00000000E+01  0.00000000E+00
  2.60000000E+02  2.00000000E+01  0.00000000E+00
  2.60000000E+02  4.99600361E-14  0.00000000E+00
  2.80000000E+02  3.00000000E+02  0.00000000E+00
  2.80000000E+02  2.80000000E+02  0.00000000E+00
  2.80000000E+02  2.60000000E+02  0.00000000E+00
  2.80000000E+02  2.40000000E+02  0.00000000E+00
  2.80000000E+02  2.20000000E+02  0.00000000E+00
  2.80000000E+02  2.00000000E+02  0.00000000E+00
  2.80000000E+02  1.80000000E+02  0.00000000E+00
  2.80000000E+02  1.60000000E+02  0.00000000E+00
  2.80000000E+02  1.40000000E+02  0.00000000E+00
  2.80000000E+02  1.20000000E+02  0.00000000E+00
  2.80000000E+02  1.00000000E+02  0.00000000E+00
  2.80000000E+02  8.00000000E+01  0.00000000E+00
  2.80000000E+02  6.00000000E+01  0.00000000E+00
  2.80000000E+02  4.00000000E+01  0.00000000E+00
  2.80000000E+02  2.00000000E+01  0.00000000E+00
  2.80000000E+02  4.99600361E-14  0.00000000E+00
  3.00000000E+02  3.00000000E+02  0.00000000E+00
  3.00000000E+02  2.80000000E+02  0.00000000E+00
  3.00000000E+02  2.60000000E+02  0.00000000E+00
  3.00000000E+02  2.40000000E+02  0.00000000E+00
  3.00000000E+02  2.20000000E+02  0.00000000E+00
  3.00000000E+02  2.00000000E+02  0.00000000E+00
  3.00000000E+02  1.80000000E+02  0.00000000E+00
  3.00000000E+02  1.60000000E+02  0.00000000E+00
  3.00000000E+02  1.40000000E+02  0.00000000E+00
  3.00000000E+02  1.20000000E+02  0.00000000E+00
  3.00000000E+02  1.00000000E+02  0.00000000E+00
  3.00000000E+02  8.00000000E+01  0.00000000E+00
  3.00000000E+02  6.00000000E+01  0.00000000E+00
  3.00000000E+02  4.00000000E+01  0.00000000E+00
  3.00000000E+02  2.00000000E+01  0.00000000E+00
  3.00000000E+02  4.99600361E-14  0.00000000E+00
  3.20000000E+02  3.00000000E+02  0.00000000E+00
  3.20000000E+02  2.80000000E+02  0.00000000E+00
  3.20000000E+02  2.60000000E+02  0.00000000E+00
  3.20000000E+02  2.40000000E+02  0.00000000E+00
  3.20000000E+02  2.20000000E+02  0.00000000E+00
  3.20000000E+02  2.00000000E+02  0.00000000E+00
  3.20000000E+02  1.80000000E+02  0.00000000E+00
  3.20000000E+02  1.60000000E+02  0.00000000E+00
  3.20000000E+02  1.40000000E+02  0.00000000E+00
  3.20000000E+02  1.20000000E+02  0.00000000E+00
  3.20000000E+02  1.00000000E+02  0.00000000E+00
  3.20000000E+02  8.00000000E+01  0.00000000E+00
  3.20000000E+02  6.00000000E+01  0.00000000E+00
  3.20000000E+02  4.00000000E+01  0.00000000E+00
  3.20000000E+02  2.00000000E+01  0.00000000E+00
  3.20000000E+02  4.99600361E-14  0.00000000E+00
  3.40000000E+02  3.00000000E+02  0.00000000E+00
  3.40000000E+02  2.80000000E+02  0.00000000E+00
  3.40000000E+02  2.60000000E+02  0.00000000E+00
  3.40000000E+02  2.40000000E+02  0.00000000E+00
  3.40000000E+02  2.20000000E+02  0.00000000E+00
  3.40000000E+02  2.00000000E+02  0.00000000E+00
  3.40000000E+02  1.80000000E+02  0.00000000E+00
  3.40000000E+02  1.60000000E+02  0.00000000E+00
  3.40000000E+02  1.40000000E+02  0.00000000E+00
  3.40000000E+02  1.20000000E+02  0.00000000E+00
  3.40000000E+02  1.00000000E+02  0.00000000E+00
  3.40000000E+02  8.00000000E+01  0.00000000E+00
  3.40000000E+02  6.00000000E+01  0.00000000E+00
  3.40000000E+02  4.00000000E+01  0.00000000E+00
  3.40000000E+02  2.00000000E+01  0.00000000E+00
  3.40000000E+02  4.99600361E-14  0.00000000E+00
  3.60000000E+02  3.00000000E+02  0.00000000E+00
  3.60000000E+02  2.80000000E+02  0.00000000E+00
  3.60000000E+02  2.60000000E+02  0.00000000E+00
  3.60000000E+02  2.40000000E+02  0.00000000E+00
  3.60000000E+02  2.20000000E+02  0.00000000E+00
  3.60000000E+02  2.00000000E+02  0.00000000E+00
  3.60000000E+02  1.80000000E+02  0.00000000E+00
  3.60000000E+02  1.60000000E+02  0.00000000E+00
  3.60000000E+02  1.40000000E+02  0.00000000E+00
  3.60000000E+02  1.20000000E+02  0.00000000E+00
  3.60000000E+02  1.00000000E+02  0.00000000E+00
  3.60000000E+02  8.00000000E+01  0.00000000E+00
  3.60000000E+02  6.00000000E+01  0.00000000E+00
  3.60000000E+02  4.00000000E+01  0.00000000E+00
  3.60000000E+02  2.00000000E+01  0.00000000E+00
  3.60000000E+02  4.99600361E-14  0.00000000E+00
  3.80000000E+02  3.00000000E+02  0.00000000E+00
  3.80000000E+02  2.80000000E+02  0.00000000E+00
  3.80000000E+02  2.60000000E+02  0.00000000E+00
  3.80000000E+02  2.40000000E+02  0.00000000E+00
  3.80000000E+02  2.20000000E+02  0.00000000E+00
  3.80000000E+02  2.00000000E+02  0.00000000E+00
  3.80000000E+02  1.80000000E+02  0.00000000E+00
  3.80000000E+02  1.60000000E+02  0.00000000E+00
  3.80000000E+02  1.40000000E+02  0.00000000E+00
  3.80000000E+02  1.20000000E+02  0.00000000E+00
  3.80000000E+02  1.00000000E+02  0.00000000E+00
  3.80000000E+02  8.00000000E+01  0.00000000E+00
  3.80000000E+02  6.00000000E+01  0.00000000E+00
  3.80000000E+02  4.00000000E+01  0.00000000E+00
  3.80000000E+02  2.00000000E+01  0.00000000E+00
  3.80000000E+02  4.99600361E-14  0.00000000E+00
  4.00000000E+02  3.00000000E+02  0.00000000E+00
  4.00000000E+02  2.80000000E+02  0.00000000E+00
  4.00000000E+02  2.60000000E+02  0.00000000E+00
  4.00000000E+02  2.40000000E+02  0.00000000E+00
  4.00000000E+02  2.20000000E+02  0.00000000E+00
  4.00000000E+02  2.00000000E+02  0.00000000E+00
  4.00000000E+02  1.80000000E+02  0.00000000E+00
  4.00000000E+02  1.60000000E+02  0.00000000E+00
  4.00000000E+02  1.40000000E+02  0.00000000E+00
  4.00000000E+02  1.20000000E+02  0.00000000E+00
  4.00000000E+02  1.00000000E+02  0.00000000E+00
  4.00000000E+02  8.00000000E+01  0.00000000E+00
  4.00000000E+02  6.00000000E+01  0.00000000E+00
  4.00000000E+02  4.00000000E+01  0.00000000E+00
  4.00000000E+02  2.00000000E+01  0.00000000E+00
  4.00000000E+02  4.99600361E-14  0.00000000E+00
  4.20000000E+02  3.00000000E+02  0.00000000E+00
  4.20000000E+02  2.80000000E+02  0.00000000E+00
  4.20000000E+02  2.60000000E+02  0.00000000E+00
  4.20000000E+02  2.40000000E+02  0.00000000E+00
  4.20000000E+02  2.20000000E+02  0.00000000E+00
  4.20000000E+02  2.00000000E+02  0.00000000E+00
  4.20000000E+02  1.80000000E+02  0.00000000E+00
  4.20000000E+02  1.60000000E+02  0.00000000E+00
  4.20000000E+02  1.40000000E+02  0.00000000E+00
  4.20000000E+02  1.20000000E+02  0.00000000E+00
  4.20000000E+02  1.00000000E+02  0.00000000E+00
  4.20000000E+02  8.00000000E+01  0.00000000E+00
  4.20000000E+02  6.00000000E+01  0.00000000E+00
  4.20000000E+02  4.00000000E+01  0.00000000E+00
  4.20000000E+02  2.00000000E+01  0.00000000E+00
  4.20000000E+02  4.99600361E-14  0.00000000E+00
  4.40000000E+02  3.00000000E+02  0.00000000E+00
  4.40000000E+02  2.80000000E+02  0.00000000E+00
  4.40000000E+02  2.60000000E+02  0.00000000E+00
  4.40000000E+02  2.40000000E+02  0.00000000E+00
  4.40000000E+02  2.20000000E+02  0.00000000E+00
  4.40000000E+02  2.00000000E+02  0.00000000E+00
  4.40000000E+02  1.80000000E+02  0.00000000E+00
  4.40000000E+02  1.60000000E+02  0.00000000E+00
  4.40000000E+02  1.40000000E+02  0.00000000E+00
  4.40000000E+02  1.20000000E+02  0.00000000E+00
  4.40000000E+02  1.00000000E+02  0.00000000E+00
  4.40000000E+02  8.00000000E+01  0.00000000E+00
  4.40000000E+02  6.00000000E+01  0.00000000E+00
  4.40000000E+02  4.00000000E+01  0.00000000E+00
  4.40000000E+02  2.00000000E+01  0.00000000E+00
  4.40000000E+02  4.99600361E-14  0.00000000E+00
  4.60000000E+02  3.00000000E+02  0.00000000E+00
  4.60000000E+02  2.80000000E+02  0.00000000E+00
  4.60000000E+02  2.60000000E+02  0.00000000E+00
  4.60000000E+02  2.40000000E+02  0.00000000E+00
  4.60000000E+02  2.20000000E+02  0.00000000E+00
  4.60000000E+02  2.00000000E+02  0.00000000E+00
  4.60000000E+02  1.80000000E+02  0.00000000E+00
  4.60000000E+02  1.60000000E+02  0.00000000E+00
  4.60000000E+02  1.40000000E+02  0.00000000E+00
  4.60000000E+02  1.20000000E+02  0.00000000E+00
  4.60000000E+02  1.00000000E+02  0.00000000E+00
  4.60000000E+02  8.00000000E+01  0.00000000E+00
  4.60000000E+02  6.00000000E+01  0.00000000E+00
  4.60000000E+02  4.00000000E+01  0.00000000E+00
  4.60000000E+02  2.00000000E+01  0.00000000E+00
  4.60000000E+02  4.99600361E-14  0.00000000E+00
  4.80000000E+02  3.00000000E+02  0.00000000E+00
  4.80000000E+02  2.80000000E+02  0.00000000E+00
  4.80000000E+02  2.60000000E+02  0.00000000E+00
  4.80000000E+02  2.40000000E+02  0.00000000E+00
  4.80000000E+02  2.20000000E+02  0.00000000E+00
  4.80000000E+02  2.00000000E+02  0.00000000E+00
  4.80000000E+02  1.80000000E+02  0.00000000E+00
  4.80000000E+02  1.60000000E+02  0.00000000E+00
  4.80000000E+02  1.40000000E+02  0.00000000E+00
  4.80000000E+02  1.20000000E+02  0.00000000E+00
  4.80000000E+02  1.00000000E+02  0.00000000E+00
  4.80000000E+02  8.00000000E+01  0.00000000E+00
  4.80000000E+02  6.00000000E+01  0.00000000E+00
  4.80000000E+02  4.00000000E+01  0.00000000E+00
  4.80000000E+02  2.00000000E+01  0.00000000E+00
  4.80000000E+02  4.99600361E-14  0.00000000E+00
  5.00000000E+02  3.00000000E+02  0.00000000E+00
  5.00000000E+02  2.80000000E+02  0.00000000E+00
  5.00000000E+02  2.60000000E+02  0.00000000E+00
  5.00000000E+02  2.40000000E+02  0.00000000E+00
  5.00000000E+02  2.20000000E+02  0.00000000E+00
  5.00000000E+02  2.00000000E+02  0.00000000E+00
  5.00000000E+02  1.80000000E+02  0.00000000E+00
  5.00000000E+02  1.60000000E+02  0.00000000E+00
  5.00000000E+02  1.40000000E+02  0.00000000E+00
  5.00000000E+02  1.20000000E+02  0.00000000E+00
  5.00000000E+02  1.00000000E+02  0.00000000E+00
  5.00000000E+02  8.00000000E+01  0.00000000E+00
  5.00000000E+02  6.00000000E+01  0.00000000E+00
  5.00000000E+02  4.00000000E+01  0.00000000E+00
  5.00000000E+02  2.00000000E+01  0.00000000E+00
  5.00000000E+02  4.99600361E-14  0.00000000E+00
  5.20000000E+02  3.00000000E+02  0.00000000E+00
  5.20000000E+02  2.80000000E+02  0.00000000E+00
  5.20000000E+02  2.60000000E+02  0.00000000E+00
  5.20000000E+02  2.40000000E+02  0.00000000E+00
  5.20000000E+02  2.20000000E+02  0.00000000E+00
  5.20000000E+02  2.00000000E+02  0.00000000E+00
  5.20000000E+02  1.80000000E+02  0.00000000E+00
  5.20000000E+02  1.60000000E+02  0.00000000E+00
  5.20000000E+02  1.40000000E+02  0.00000000E+00
  5.20000000E+02  1.20000000E+02  0.00000000E+00
  5.20000000E+02  1.00000000E+02  0.00000000E+00
  5.20000000E+02  8.00000000E+01  0.00000000E+00
  5.20000000E+02  6.00000000E+01  0.00000000E+00
  5.20000000E+02  4.00000000E+01  0.00000000E+00
  5.20000000E+02  2.00000000E+01  0.00000000E+00
  5.20000000E+02  4.99600361E-14  0.00000000E+00
  5.40000000E+02  3.00000000E+02  0.00000000E+00
  5.40000000E+02  2.80000000E+02  0.00000000E+00
  5.40000000E+02  2.60000000E+02  0.00000000E+00
  5.40000000E+02  2.40000000E+02  0.00000000E+00
  5.40000000E+02  2.20000000E+02  0.00000000E+00
  5.40000000E+02  2.00000000E+02  0.00000000E+00
  5.40000000E+02  1.80000000E+02  0.00000000E+00
  5.40000000E+02  1.60000000E+02  0.00000000E+00
  5.40000000E+02  1.40000000E+02  0.00000000E+00
  5.40000000E+02  1.20000000E+02  0.00000000E+00
  5.40000000E+02  1.00000000E+02  0.00000000E+00
  5.40000000E+02  8.00000000E+01  0.00000000E+00
  5.40000000E+02  6.00000000E+01  0.00000000E+00
  5.40000000E+02  4.00000000E+01  0.00000000E+00
  5.40000000E+02  2.00000000E+01  0.00000000E+00
  5.40000000E+02  4.99600361E-14  0.00000000E+00
  5.60000000E+02  3.00000000E+02  0.00000000E+00
  5.60000000E+02  2.80000000E+02  0.00000000E+00
  5.60000000E+02  2.60000000E+02  0.00000000E+00
  5.60000000E+02  2.40000000E+02  0.00000000E+00
  5.60000000E+02  2.20000000E+02  0.00000000E+00
  5.60000000E+02  2.00000000E+02  0.00000000E+00
  5.60000000E+02  1.80000000E+02  0.00000000E+00
  5.60000000E+02  1.60000000E+02  0.00000000E+00
  5.60000000E+02  1.40000000E+02  0.00000000E+00
  5.60000000E+02  1.20000000E+02  0.00000000E+00
  5.60000000E+02  1.00000000E+02  0.00000000E+00
  5.60000000E+02  8.00000000E+01  0.00000000E+00
  5.60000000E+02  6.00000000E+01  0.00000000E+00
  5.60000000E+02  4.00000000E+01  0.00000000E+00
  5.60000000E+02  2.00000000E+01  0.00000000E+00
  5.60000000E+02  4.99600361E-14  0.00000000E+00
  5.80000000E+02  3.00000000E+02  0.00000000E+00
  5.80000000E+02  2.80000000E+02  0.00000000E+00
  5.80000000E+02  2.60000000E+02  0.00000000E+00
  5.80000000E+02  2.40000000E+02  0.00000000E+00
  5.80000000E+02  2.20000000E+02  0.00000000E+00
  5.80000000E+02  2.00000000E+02  0.00000000E+00
  5.80000000E+02  1.80000000E+02  0.00000000E+00
  5.80000000E+02  1.60000000E+02  0.00000000E+00
  5.80000000E+02  1.40000000E+02  0.00000000E+00
  5.80000000E+02  1.20000000E+02  0.00000000E+00
  5.80000000E+02  1.00000000E+02  0.00000000E+00
  5.80000000E+02  8.00000000E+01  0.00000000E+00
  5.80000000E+02  6.00000000E+01  0.00000000E+00
  5.80000000E+02  4.00000000E+01  0.00000000E+00
  5.80000000E+02  2.00000000E+01  0.00000000E+00
  5.80000000E+02  4.99600361E-14  0.00000000E+00
  6.00000000E+02  3.00000000E+02  0.00000000E+00
  6.00000000E+02  2.80000000E+02  0.00000000E+00
  6.00000000E+02  2.60000000E+02  0.00000000E+00
  6.00000000E+02  2.40000000E+02  0.00000000E+00
  6.00000000E+02  2.20000000E+02  0.00000000E+00
  6.00000000E+02  2.00000000E+02  0.00000000E+00
  6.00000000E+02  1.80000000E+02  0.00000000E+00
  6.00000000E+02  1.60000000E+02  0.00000000E+00
  6.00000000E+02  1.40000000E+02  0.00000000E+00
  6.00000000E+02  1.20000000E+02  0.00000000E+00
  6.00000000E+02  1.00000000E+02  0.00000000E+00
  6.00000000E+02  8.00000000E+01  0.00000000E+00
  6.00000000E+02  6.00000000E+01  0.00000000E+00
  6.00000000E+02  4.00000000E+01  0.00000000E+00
  6.00000000E+02  2.00000000E+01  0.00000000E+00
  6.00000000E+02  4.99600361E-14  0.00000000E+00
CELLS       450      2250
         4           0           1          17          16
         4           1           2          18          17
         4           2           3          19          18
         4           3           4          20          19
         4           4           5          21          20
         4           5           6          22          21
         4           6           7          23          22
         4           7           8          24          23
         4           8           9          25          24
         4           9          10          26          25
         4          10          11          27          26
         4          11          12          28          27
         4          12          13          29          28
         4          13          14          30          29
         4          14          15          31          30
         4          16          17          33          32
         4          17          18          34          33
         4          18          19          35          34
         4          19          20          36          35
         4          20          21          37          36
         4          21          22          38          37
         4          22          23          39          38
         4          23          24          40          39
         4          24          25          41          40
         4          25          26          42          41
         4          26          27          43          42
         4          27          28          44          43
         4          28          29          45          44
         4          29          30          46          45
         4          30          31          47          46
         4          32          33          49          48
         4          33          34          50          49
         4          34          35          51          50
         4          35          36          52          51
         4          36          37          53          52
         4          37          38          54          53
         4          38          39          55          54
         4          39          40          56          55
         4          40          41          57          56
         4          41          42          58          57
         4          42          43          59          58
         4          43          44          60          59
         4          44          45          61          60
         4          45          46          62          61
         4          46          47          63          62
         4          48          49          65          64
         4          49          50          66          65
         4          50          51          67          66
         4          51          52          68          67
         4          52          53          69          68
         4          53          54          70          69
         4          54          55          71          70
         4          55          56          72          71
         4          56          57          73          72
         4          57          58          74          73
         4          58          59          75          74
         4          59          60          76          75
         4          60          61          77          76
         4          61          62          78          77
         4          62          63          79          78
         4          64          65          81          80
         4          65          66          82          81
         4          66          67          83          82
         4          67          68          84          83
         4          68          69          85          84
         4          69          70          86          85
         4          70          71          87          86
         4          71          72          88          87
         4          72          73          89          88
         4          73          74          90          89
         4          74          75          91          90
         4          75          76          92          91
         4          76          77          93          92
         4          77          78          94          93
         4          78          79          95          94
         4          80          81          97          96
         4          81          82          98          97
         4          82          83          99          98
         4          83          84         100          99
         4          84          85         101         100
         4          85          86         102         101
         4          86          87         103         102
         4          87          88         104         103
         4          88          89         105         104
         4          89          90         106         105
         4          90          91         107         106
         4          91          92         108         107
         4          92          93         109         108
         4          93          94         110         109
         4          94          95         111         110
         4          96          97         113         112
         4          97          98         114         113
         4          98          99         115         114
         4          99         100         116         115
         4         100         101         117         116
         4         101         102         118         117
         4         102         103         119         118
         4         103         104         120         119
         4         104         105         121         120
         4         105         106         122         121
         4         106         107         123         122
         4         107         108         124         123
         4         108         109         125         124
         4         109         110         126         125
         4         110         111         127         126
         4         112         113         129         128
         4         113         114         130         129
         4         114         115         131         130
         4         115         116         132         131
         4         116         117         133         132
         4         117         118         134         133
         4         118         119         135         134
         4         119         120         136         135
         4         120         121         137         136
         4         121         122         138         137
         4         122         123         139         138
         4         123         124         140         139
         4         124         125         141         140
         4         125         126         142         141
         4         126         127         143         142
         4         128         129         145         144
         4         129         130         146         145
         4         130         131         147         146
         4         131         132         148         147
         4         132         133         149         148
         4         133         134         150         149
         4         134         135         151         150
         4         135         136         152         151
         4         136         137         153         152
         4         137         138         154         153
         4         138         139         155         154
         4         139         140         156         155
         4         140         141         157         156
         4         141         142         158         157
         4         142         143         159         158
         4         144         145         161         160
         4         145         146         162         161
         4         146         147         163         162
         4         147         148         164         163
         4         148         149         165         164
         4         149         150         166         165
         4         150         151         167         166
         4         151         152         168         167
         4         152         153         169         168
         4         153         154         170         169
         4         154         155         171         170
         4         155         156         172         171
         4         156         157         173         172
         4         157         158         174         173
         4         158         159         175         174
         4         160         161         177         176
         4         161         162         178         177
         4         162         163         179         178
         4         163         164         180         179
         4         164         165         181         180
         4         165         166         182         181
         4         166         167         183         182
         4         167         168         184         183
         4         168         169         185         184
         4         169         170         186         185
         4         170         171         187         186
         4         171         172         188         187
         4         172         173         189         188
         4         173         174         190         189
         4         174         175         191         190
         4         176         177         193         192
         4         177         178         194         193
         4         178         179         195         194
         4         179         180         196         195
         4         180         181         197         196
         4         181         182         198         197
         4         182         183         199         198
         4         183         184         200         199
         4         184         185         201         200
         4         185         186         202         201
         4         186         187         203         202
         4         187         188         204         203
         4         188         189         205         204
         4         189         190         206         205
         4         190         191         207         206
         4         192         193         209         208
         4         193         194         210         209
         4         194         195         211         210
         4         195         196         212         211
         4         196         197         213         212
         4         197         198         214         213
         4         198         199         215         214
         4         199         200         216         215
         4         200         201         217         216
         4         201         202         218         217
         4         202         203         219         218
         4         203         204         220         219
         4         204         205         221         220
         4         205         206         222         221
         4         206         207         223         222
         4         208         209         225         224
         4         209         210         226         225
         4         210         211         227         226
         4         211         212         228         227
         4         212         213         229         228
         4         213         214         230         229
         4         214         215         231         230
         4         215         216         232         231
         4         216         217         233         232
         4         217         218         234         233
         4         218         219         235         234
         4         219         220         236         235
         4         220         221         237         236
         4         221         222         238         237
         4         222         223         239         238
         4         224         225         241         240
         4         225         226         242         241
         4         226         227         243         242
         4         227         228         244         243
         4         228         229         245         244
         4         229         230         246         245
         4         230         231         247         246
         4         231         232         248         247
         4         232         233         249         248
         4         233         234         250         249
         4         234         235         251         250
         4         235         236         252         251
         4         236         237         253         252
         4         237         238         254         253
         4         238         239         255         254
         4         240         241         257         256
         4         241         242         258         257
         4         242         243         259         258
         4         243         244         260         259
         4         244         245         261         260
         4         245         246         262         261
         4         246         247         263         262
         4         247         248         264         263
         4         248         249         265         264
         4         249         250         266         265
         4         250         251         267         266
         4         251         252         268         267
         4         252         253         269         268
         4         253         254         270         269
         4         254         255         271         270
         4         256         257         273         272
         4         257         258         274         273
         4         258         259         275         274
         4         259         260         276         275
         4         260         261         277         276
         4         261         262         278         277
         4         262         263         279         278
         4         263         264         280         279
         4         264         265         281         280
         4         265         266         282         281
         4         266         267         283         282
         4         267         268         284         283
         4         268         269         285         284
         4         269         270         286         285
         4         270         271         287         286
         4         272         273         289         288
         4         273         274         290         289
         4         274         275         291         290
         4         275         276         292         291
         4         276         277         293         292
         4         277         278         294         293
         4         278         279         295         294
         4         279         280         296         295
         4         280         281         297         296
         4         281         282         298         297
         4         282         283         299         298
         4         283         284         300         299
         4         284         285         301         300
         4         285         286         302         301
         4         286         287         303         302
         4         288         289         305         304
         4         289         290         306         305
         4         290         291         307         306
         4         291         292         308         307
         4         292         293         309         308
         4         293         294         310         309
         4         294         295         311         310
         4         295         296         312         311
         4         296         297         313         312
         4         297         298         314         313
         4         298         299         315         314
         4         299         300         316         315
         4         300         301         317         316
         4         301         302         318         317
         4         302         303         319         318
         4         304         305         321         320
         4         305         306         322         321
         4         306         307         323         322
         4         307         308         324         323
         4         308         309         325         324
         4         309         310         326         325
         4         310         311         327         326
         4         311         312         328         327
         4         312         313         329         328
         4         313         314         330         329
         4         314         315         331         330
         4         315         316         332         331
         4         316         317         333         332
         4         317         318         334         333
         4         318         319         335         334
         4         320         321         337         336
         4         321         322         338         337
         4         322         323         339         338
         4         323         324         340         339
         4         324         325         341         340
         4         325         326         342         341
         4         326         327         343         342
         4         327         328         344         343
         4         328         329         345         344
         4         329         330         346         345
         4         330         331         347         346
         4         331         332         348         347
         4         332         333         349         348
         4         333         334         350         349
         4         334         335         351         350
         4         336         337         353         352
         4         337         338         354         353
         4         338         339         355         354
         4         339         340         356         355
         4         340         341         357         356
         4         341         342         358         357
         4         342         343         359         358
         4         343         344         360         359
         4         344         345         361         360
         4         345         346         362         361
         4         346         347         363         362
         4         347         348         364         363
         4         348         349         365         364
         4         349         350         366         365
         4         350         351         367         366
         4         352         353         369         368
         4         353         354         370         369
         4         354         355         371         370
         4         355         356         372         371
         4         356         357         373         372
         4         357         358         374         373
         4         358         359         375         374
         4         359         360         376         375
         4         360         361         377         376
         4         361         362         378         377
         4         362         363         379         378
         4         363         364         380         379
         4         364         365         381         380
         4         365         366         382         381
         4         366         367         383         382
         4         368         369         385         384
         4         369         370         386         385
         4         370         371         387         386
         4         371         372         388         387
         4         372         373         389         388
         4         373         374         390         389
         4         374         375         391         390
         4         375         376         392         391
         4         376         377         393         392
         4         377         378         394         393
         4         378         379         395         394
         4         379         380         396         395
         4         380         381         397         396
         4         381         382         398         397
         4         382         383         399         398
         4         384         385         401         400
         4         385         386         402         401
         4         386         387         403         402
         4         387         388         404         403
         4         388         389         405         404
         4         389         390         406         405
         4         390         391         407         406
         4         391         392         408         407
         4         392         393         409         408
         4         393         394         410         409
         4         394         395         411         410
         4         395         396         412         411
         4         396         397         413         412
         4         397         398         414         413
         4         398         399         415         414
         4         400         401         417         416
         4         401         402         418         417
         4         402         403         419         418
         4         403         404         420         419
         4         404         405         421         420
         4         405         406         422         421
         4         406         407         423         422
         4         407         408         424         423
         4         408         409         425         424
         4         409         410         426         425
         4         410         411         427         426
         4         411         412         428         427
         4         412         413         429         428
         4         413         414         430         429
         4         414         415         431         430
         4         416         417         433         432
         4         417         418         434         433
         4         418         419         435         434
         4         419         420         436         435
         4         420         421         437         436
         4         421         422         438         437
         4         422         423         439         438
         4         423         424         440         439
         4         424         425         441         440
         4         425         426         442         441
         4         426         427         443         442
         4         427         428         444         443
         4         428         429         445         444
         4         429         430         446         445
         4         430         431         447         446
         4         432         433         449         448
         4         433         434         450         449
         4         434         435         451         450
         4         435         436         452         451
         4         436         437         453         452
         4         437         438         454         453
         4         438         439         455         454
         4         439         440         456         455
         4         440         441         457         456
         4         441         442         458         457
         4         442         443         459         458
         4         443         444         460         459
         4         444         445         461         460
         4         445         446         462         461
         4         446         447         463         462
         4         448         449         465         464
         4         449         450         466         465
         4         450         451         467         466
         4         451         452         468         467
         4         452         453         469         468
         4         453         454         470         469
         4         454         455         471         470
         4         455         456         472         471
         4         456         457         473         472
         4         457         458         474         473
         4         458         459         475         474
         4         459         460         476         475
         4         460         461         477         476
         4         461         462         478         477
         4         462         463         479         478
         4         464         465         481         480
         4         465         466         482         481
         4         466         467         483         482
         4         467         468         484         483
         4         468         469         485         484
         4         469         470         486         485
         4         470         471         487         486
         4         471         472         488         487
         4         472         473         489         488
         4         473         474         490         489
         4         474         475         491         490
         4         475         476         492         491
         4         476         477         493         492
         4         477         478         494         493
         4         478         479         495         494
CELL_TYPES        450
9
9
9
9
9
9
9
9
9
9
9
9
9
9
9
9
9
9
9
9
9
9
9
9
9
9
9
9
9
9
9
9
9
9
9
9
9
9
9
9
9
9
9
9
9
9
9
9
9
9
9
9
9
9
9
9
9
9
9
9
9
9
9
9
9
9
9
9
9
9
9
9
9
9
9
9
9
9
9
9
9
9
9
9
9
9
9
9
9
9
9
9
9
9
9
9
9
9
9
9
9
9
9
9
9
9
9
9
9
9
9
9
9
9
9
9
9
9
9
9
9
9
9
9
9
9
9
9
9
9
9
9
9
9
9
9
9
9
9
9
9
9
9
9
9
9
9
9
9
9
9
9
9
9
9
9
9
9
9
9
9
9
9
9
9
9
9
9
9
9
9
9
9
9
9
9
9
9
9
9
9
9
9
9
9
9
9
9
9
9
9
9
9
9
9
9
9
9
9
9
9
9
9
9
9
9
9
9
9
9
9
9
9
9
9
9
9
9
9
9
9
9
9
9
9
9
9
9
9
9
9
9
9
9
9
9
9
9
9
9
9
9
9
9
9
9
9
9
9
9
9
9
9
9
9
9
9
9
9
9
9
9
9
9
9
9
9
9
9
9
9
9
9
9
9
9
9
9
9
9
9
9
9
9
9
9
9
9
9
9
9
9
9
9
9
9
9
9
9
9
9
9
9
9
9
9
9
9
9
9
9
9
9
9
9
9
9
9
9
9
9
9
9
9
9
9
9
9
9
9
9
9
9
9
9
9
9
9
9
9
9
9
9
9
9
9
9
9
9
9
9
9
9
9
9
9
9
9
9
9
9
9
9
9
9
9
9
9
9
9
9
9
9
9
9
9
9
9
9
9
9
9
9
9
9
9
9
9
9
9
9
9
9
9
9
9
9
9
9
9
9
9
9
9
9
9
9
9
9
9
9
9
9
9
9
9
9
9
9
9
9
9
9
9
9
9
9
9
9
9
9
9
9
9
9
9
9
9
9
9
9
9
9
9
9
9
9
9
9
9
POINT_DATA       496
SCALARS p double 
LOOKUP_TABLE default
   25192161.2885730     
   25190888.1038091     
   25187567.5639039     
   25182671.2038270     
   25176635.3272531     
   25169858.2025870     
   25162699.2287493     
   25155480.2613088     
   25148487.4321862     
   25141972.4635495     
   25136152.2757017     
   25131206.5101763     
   25127273.2345615     
   25124443.6321828     
   25122756.4812623     
   25122193.0417510     
   25170704.0227357     
   25169433.0260488     
   25166117.7968275     
   25161228.7225252     
   25155201.0043705     
   25148431.9605227     
   25141280.3824254     
   25134067.8597997     
   25127080.4899296     
   25120570.0670273     
   25114753.5742551     
   25109810.6620581     
   25105879.3776680     
   25103050.9242912     
   25101364.2147531     
   25100800.8291722     
   25106397.4594446     
   25105133.0827611     
   25101833.9484708     
   25096966.9875629     
   25090964.0944427     
   25084219.7827294     
   25077091.0360415     
   25069898.6281553     
   25062928.5129723     
   25056432.6252830     
   25050628.0617650     
   25045694.4427222     
   25041769.7224060     
   25038945.1434870     
   25037260.0123786     
   25036696.8663318     
   24999437.1786897     
   24998184.0169999     
   24994912.2527054     
   24990083.0255004     
   24984122.6965800     
   24977421.2352496     
   24970332.6962737     
   24963176.4178625     
   24956237.9573085     
   24949769.2413806     
   24943987.3187104     
   24939071.5849259     
   24935159.7326783     
   24932343.0107477     
   24930661.3516412     
   24930098.8654838     
   24850148.7032506     
   24848911.6347347     
   24845679.3427096     
   24840904.7876014     
   24835006.6227579     
   24828368.6717600     
   24821340.9700989     
   24814240.7235753     
   24807352.5657037     
   24800927.9185326     
   24795183.3095194     
   24790297.4900184     
   24786407.5794587     
   24783604.7171391     
   24781929.6443688     
   24781368.6433021     
   24658986.8796823     
   24657771.1767195     
   24654591.6331713     
   24649890.5583429     
   24644076.8577236     
   24637526.7483884     
   24630585.1387763     
   24623566.1964728     
   24616752.7090134     
   24610394.6817003     
   24604707.2903164     
   24599867.9482861     
   24596012.7174760     
   24593232.4050246     
   24591568.6832287     
   24591010.5391516     
   24426534.9421188     
   24425346.4082538     
   24422234.4271542     
   24417628.1492272     
   24411924.8454717     
   24405491.7287934     
   24398667.4236425     
   24391761.7597854     
   24385054.2674147     
   24378792.1943425     
   24373188.1615333     
   24368417.2682267     
   24364613.8301319     
   24361867.9835228     
   24360222.3636783     
   24359669.0881222     
   24153503.3636681     
   24152348.4350597     
   24149320.7072990     
   24144833.7554187     
   24139271.4018944     
   24132990.4837219     
   24126321.8399337     
   24119569.1849871     
   24113006.9270803     
   24106877.7682207     
   24101390.1939407     
   24096715.7273842     
   24092986.0614714     
   24090290.1764340     
   24088671.5939753     
   24088125.9321426     
   23840728.2974998     
   23839614.1961946     
   23836689.7300473     
   23832350.5456604     
   23826965.3314195     
   23820878.9122991     
   23814412.3568324     
   23807860.9956291     
   23801491.7722449     
   23795540.6203633     
   23790209.9638134     
   23785666.2353918     
   23782037.4269913     
   23779410.7536040     
   23777830.4688531     
   23777295.9503509     
   23489169.8251121     
   23488104.6260589     
   23485305.1686483     
   23481146.8503251     
   23475981.4191292     
   23470139.6582219     
   23463930.3245349     
   23457637.5575035     
   23451518.0175029     
   23445798.2690249     
   23440672.4444380     
   23436300.1227642     
   23432804.3760641     
   23430269.9363753     
   23428741.5343720     
   23428222.4557728     
   23099909.6585552     
   23098902.5052772     
   23096252.8866609     
   23092313.7155803     
   23087417.7852475     
   23081879.1540568     
   23075991.1248852     
   23070023.3262825     
   23064218.8951293     
   23058792.0682020     
   23053926.1903721     
   23049772.0557292     
   23046446.4443136     
   23044030.8009586     
   23042570.0410677     
   23042071.4367804     
   22674148.4041779     
   22673209.4700109     
   22670737.8884301     
   22667061.8167378     
   22662492.4492608     
   22657323.7974606     
   22651829.9686263     
   22646262.2670235     
   22640846.6691882     
   22635781.8305405     
   22631237.6060813     
   22627353.9219841     
   22624239.8390029     
   22621972.6921935     
   22620597.2331977     
   22620124.7775068     
   22213201.8859353     
   22212342.5945436     
   22210080.8687276     
   22206717.6066358     
   22202539.1213286     
   22197815.3283024     
   22192796.8286638     
   22187712.3265847     
   22182766.6467142     
   22178139.3927799     
   22173984.0939164     
   22170427.6737907     
   22167570.0203763     
   22165483.5442863     
   22164212.5361177     
   22163772.4078995     
   21718497.1394483     
   21717730.2962913     
   21715713.9751722     
   21712718.8769398     
   21709002.3322933     
   21704805.4755645     
   21700350.5582873     
   21695839.0006934     
   21691450.2349426     
   21687341.1974993     
   21683646.2112259     
   21680477.0717008     
   21677923.1274474     
   21676051.1103375     
   21674904.6295594     
   21674503.3309307     
   21191568.1894200     
   21190907.9442902     
   21189176.1429161     
   21186609.6453656     
   21183431.8814679     
   21179849.8801666     
   21176052.2136020     
   21172208.0538923     
   21168467.0788147     
   21164959.8896479     
   21161798.7659624     
   21159078.3903927     
   21156876.3322307     
   21155253.0642729     
   21154251.4412415     
   21153895.5877358     
   20634051.0581544     
   20633512.9503945     
   20632108.0882128     
   20630034.7515418     
   20627476.8287742     
   20624601.3654879     
   20621557.6362700     
   20618477.4640884     
   20615476.3407837     
   20612654.9917872     
   20610100.9884173     
   20607890.1119926     
   20606087.1644482     
   20604746.0520738     
   20603909.0402801     
   20603605.1127333     
   20047679.6874741     
   20047280.3733896     
   20046247.3108786     
   20044734.2471763     
   20042879.1437586     
   20040802.8420724     
   20038609.5648300     
   20036388.6884631     
   20034217.2651828     
   20032162.7956738     
   20030285.7804472     
   20028641.6584771     
   20027281.8616153     
   20026253.7728301     
   20025599.5131938     
   20025353.5079513     
   19434281.8952747     
   19434038.7113650     
   19433423.3798145     
   19432537.9131495     
   19431467.3993677     
   19430280.0845618     
   19429029.4477244     
   19427757.5629116     
   19426499.1253710     
   19425285.4870590     
   19424148.1643816     
   19423121.3180765     
   19422242.8801793     
   19421554.1867471     
   19421097.9912006     
   19420915.0506100     
   18795776.0587186     
   18795706.3528239     
   18795553.8137587     
   18795360.3848003     
   18795150.8961210     
   18794934.6823968     
   18794709.1723797     
   18794464.8378481     
   18794190.6968856     
   18793879.6768446     
   18793533.0717274     
   18793163.4582574     
   18792795.7179480     
   18792466.0722470     
   18792219.1290515     
   18792103.1923756     
   18134168.6442625     
   18134288.9249353     
   18134640.8856172     
   18135197.0276840     
   18135914.3619672     
   18136737.3638414     
   18137602.8889149     
   18138446.4543345     
   18139209.1431634     
   18139844.2214418     
   18140322.4104440     
   18140635.1187102     
   18140795.2201779     
   18140835.2472388     
   18140803.2628859     
   18140756.6058960     
   17451552.8332922     
   17451877.7260465     
   17452769.4346339     
   17454120.7793759     
   17455813.4315589     
   17457721.8364266     
   17459719.0176381     
   17461683.8030966     
   17463508.7619049     
   17465107.7211574     
   17466421.6788011     
   17467422.1653386     
   17468111.5929145     
   17468520.5791060     
   17468702.4364679     
   17468725.2450670     
   16750108.3395208     
   16750649.3472285     
   16752105.8596364     
   16754280.0277660     
   16756970.9784996     
   16759979.1848791     
   16763112.5565696     
   16766193.9524793     
   16769069.3717010     
   16771615.6327067     
   16773746.3734888     
   16775415.3526726     
   16776616.4292055     
   16777380.0676928     
   16777766.6089077     
   16777856.6959648     
   16032102.5671092     
   16032866.6330693     
   16034898.3261046     
   16037897.4751672     
   16041574.0934231     
   16045652.6026500     
   16049877.4349714     
   16054019.7863718     
   16057884.6673449     
   16061317.3295308     
   16064208.3318467     
   16066496.5125638     
   16068168.9630967     
   16069257.3322299     
   16069830.3464671     
   16069982.8438493     
   15299893.5790340     
   15300881.3396787     
   15303478.2828048     
   15307269.6840220     
   15311871.1057644     
   15316931.7313165     
   15322138.3962256     
   15327219.8785643     
   15331950.5789560     
   15336153.4348533     
   15339702.4887236     
   15342525.1198937     
   15344602.8124753     
   15345968.6106232     
   15346700.0606898     
   15346907.3006615     
   14555935.4680068     
   14557138.9311974     
   14560263.3143438     
   14564766.7110424     
   14570167.4505013     
   14576045.1775723     
   14582041.2479709     
   14587857.5763134     
   14593253.7777376     
   14598043.8578348     
   14602094.4406355     
   14605325.5996608     
   14607713.3349791     
   14609290.4012089     
   14610141.7415949     
   14610393.1881161     
   13802787.4013567     
   13804186.5434126     
   13807761.3184930     
   13812830.5504273     
   13818818.1746753     
   13825248.8378867     
   13831739.6228235     
   13837988.2941412     
   13843760.2599618     
   13848877.1665709     
   13853209.6609812     
   13856675.9441741     
   13859245.9321852     
   13860947.8174250     
   13861869.9871805     
   13862152.6194493     
   13043128.9534163     
   13044685.9761076     
   13048575.7674573     
   13053969.6155814     
   13060213.2210110     
   13066806.6520602     
   13073375.9584511     
   13079643.6041697     
   13085403.3618137     
   13090501.5848433     
   13094825.4495504     
   13098298.6122573     
   13100885.5929129     
   13102603.7383146     
   13103536.7503197     
   13103835.0149175     
   12279787.1644346     
   12281435.2574522     
   12285410.0154875     
   12290743.0257650     
   12296749.1431381     
   12302959.7985711     
   12309054.4829786     
   12314810.6325741     
   12320069.9932613     
   12324717.1899444     
   12328666.6452340     
   12331856.2968521     
   12334249.3915352     
   12335849.1865852     
   12336721.8255920     
   12337019.1489410     
   11515789.1252972     
   11517404.8837469     
   11521062.2357676     
   11525720.0913804     
   11530778.5903683     
   11535880.9668200     
   11540805.1166537     
   11545405.7761159     
   11549583.6248416     
   11553267.7329868     
   11556405.1922723     
   11558955.3431297     
   11560888.7479811     
   11562195.8182251     
   11562924.0830105     
   11563203.6170313     
   10754473.0482262     
   10755803.0465835     
   10758368.7500246     
   10761389.8916130     
   10764529.8008045     
   10767613.4720579     
   10770539.1338997     
   10773243.1495622     
   10775683.3400565     
   10777830.0618548     
   10779661.0742987     
   10781158.4707363     
   10782307.2951974     
   10783097.7515285     
   10783541.8505582     
   10783814.5671428     
   10000000.0000000     
   10000000.0000000     
   10000000.0000000     
   10000000.0000000     
   10000000.0000000     
   10000000.0000000     
   10000000.0000000     
   10000000.0000000     
   10000000.0000000     
   10000000.0000000     
   10000000.0000000     
   10000000.0000000     
   10000000.0000000     
  10000000.00000000     
   10000000.0000000     
   10000000.0000000     
VECTORS u double 
    0.00000E+00        -0.43915E-01         0.00000E+00
    0.00000E+00        -0.40730E-01         0.00000E+00
    0.00000E+00        -0.37578E-01         0.00000E+00
    0.00000E+00        -0.34461E-01         0.00000E+00
    0.00000E+00        -0.31383E-01         0.00000E+00
    0.00000E+00        -0.28344E-01         0.00000E+00
    0.00000E+00        -0.25347E-01         0.00000E+00
    0.00000E+00        -0.22390E-01         0.00000E+00
    0.00000E+00        -0.19474E-01         0.00000E+00
    0.00000E+00        -0.16596E-01         0.00000E+00
    0.00000E+00        -0.13754E-01         0.00000E+00
    0.00000E+00        -0.10946E-01         0.00000E+00
    0.00000E+00        -0.81690E-02         0.00000E+00
    0.00000E+00        -0.54207E-02         0.00000E+00
    0.00000E+00        -0.26985E-02         0.00000E+00
    0.00000E+00         0.00000E+00         0.00000E+00
    0.69644E-03        -0.43940E-01         0.00000E+00
    0.64301E-03        -0.40756E-01         0.00000E+00
    0.58691E-03        -0.37603E-01         0.00000E+00
    0.52863E-03        -0.34486E-01         0.00000E+00
    0.46938E-03        -0.31406E-01         0.00000E+00
    0.41031E-03        -0.28366E-01         0.00000E+00
    0.35270E-03        -0.25368E-01         0.00000E+00
    0.29749E-03        -0.22410E-01         0.00000E+00
    0.24550E-03        -0.19492E-01         0.00000E+00
    0.19729E-03        -0.16612E-01         0.00000E+00
    0.15322E-03        -0.13768E-01         0.00000E+00
    0.11349E-03        -0.10957E-01         0.00000E+00
    0.78248E-04        -0.81773E-02         0.00000E+00
    0.47555E-04        -0.54263E-02         0.00000E+00
    0.21468E-04        -0.27013E-02         0.00000E+00
    0.00000E+00         0.00000E+00         0.00000E+00
    0.13876E-02        -0.44018E-01         0.00000E+00
    0.12809E-02        -0.40832E-01         0.00000E+00
    0.11688E-02        -0.37677E-01         0.00000E+00
    0.10527E-02        -0.34558E-01         0.00000E+00
    0.93466E-03        -0.31476E-01         0.00000E+00
    0.81702E-03        -0.28433E-01         0.00000E+00
    0.70237E-03        -0.25431E-01         0.00000E+00
    0.59257E-03        -0.22469E-01         0.00000E+00
    0.48920E-03        -0.19545E-01         0.00000E+00
    0.39334E-03        -0.16659E-01         0.00000E+00
    0.30565E-03        -0.13808E-01         0.00000E+00
    0.22656E-03        -0.10990E-01         0.00000E+00
    0.15631E-03        -0.82023E-02         0.00000E+00
    0.95088E-04        -0.54430E-02         0.00000E+00
    0.42961E-04        -0.27097E-02         0.00000E+00
    0.00000E+00         0.00000E+00         0.00000E+00
    0.20680E-02        -0.44148E-01         0.00000E+00
    0.19086E-02        -0.40959E-01         0.00000E+00
    0.17411E-02        -0.37801E-01         0.00000E+00
    0.15676E-02        -0.34678E-01         0.00000E+00
    0.13916E-02        -0.31592E-01         0.00000E+00
    0.12165E-02        -0.28545E-01         0.00000E+00
    0.10461E-02        -0.25536E-01         0.00000E+00
    0.88292E-03        -0.22566E-01         0.00000E+00
    0.72939E-03        -0.19634E-01         0.00000E+00
    0.58695E-03        -0.16737E-01         0.00000E+00
    0.45654E-03        -0.13875E-01         0.00000E+00
    0.33877E-03        -0.11044E-01         0.00000E+00
    0.23403E-03        -0.82436E-02         0.00000E+00
    0.14257E-03        -0.54708E-02         0.00000E+00
    0.64511E-04        -0.27236E-02         0.00000E+00
    0.00000E+00         0.00000E+00         0.00000E+00
    0.27320E-02        -0.44328E-01         0.00000E+00
    0.25206E-02        -0.41136E-01         0.00000E+00
    0.22985E-02        -0.37974E-01         0.00000E+00
    0.20690E-02        -0.34847E-01         0.00000E+00
    0.18362E-02        -0.31755E-01         0.00000E+00
    0.16054E-02        -0.28701E-01         0.00000E+00
    0.13809E-02        -0.25683E-01         0.00000E+00
    0.11664E-02        -0.22702E-01         0.00000E+00
    0.96448E-03        -0.19757E-01         0.00000E+00
    0.77704E-03        -0.16846E-01         0.00000E+00
    0.60521E-03        -0.13968E-01         0.00000E+00
    0.44977E-03        -0.11120E-01         0.00000E+00
    0.31125E-03        -0.83010E-02         0.00000E+00
    0.18996E-03        -0.55093E-02         0.00000E+00
    0.86145E-04        -0.27430E-02         0.00000E+00
    0.00000E+00         0.00000E+00         0.00000E+00
    0.33735E-02        -0.44558E-01         0.00000E+00
    0.31113E-02        -0.41362E-01         0.00000E+00
    0.28359E-02        -0.38196E-01         0.00000E+00
    0.25516E-02        -0.35063E-01         0.00000E+00
    0.22644E-02        -0.31964E-01         0.00000E+00
    0.19803E-02        -0.28900E-01         0.00000E+00
    0.17044E-02        -0.25871E-01         0.00000E+00
    0.14410E-02        -0.22877E-01         0.00000E+00
    0.11931E-02        -0.19915E-01         0.00000E+00
    0.96266E-03        -0.16985E-01         0.00000E+00
    0.75106E-03        -0.14086E-01         0.00000E+00
    0.55922E-03        -0.11216E-01         0.00000E+00
    0.38779E-03        -0.83740E-02         0.00000E+00
    0.23722E-03        -0.55583E-02         0.00000E+00
    0.10786E-03        -0.27676E-02         0.00000E+00
    0.00000E+00         0.00000E+00         0.00000E+00
    0.39864E-02        -0.44837E-01         0.00000E+00
    0.36745E-02        -0.41637E-01         0.00000E+00
    0.33476E-02        -0.38466E-01         0.00000E+00
    0.30110E-02        -0.35326E-01         0.00000E+00
    0.26722E-02        -0.32219E-01         0.00000E+00
    0.23380E-02        -0.29144E-01         0.00000E+00
    0.20142E-02        -0.26100E-01         0.00000E+00
    0.17052E-02        -0.23088E-01         0.00000E+00
    0.14140E-02        -0.20105E-01         0.00000E+00
    0.11430E-02        -0.17153E-01         0.00000E+00
    0.89354E-03        -0.14229E-01         0.00000E+00
    0.66679E-03        -0.11332E-01         0.00000E+00
    0.46352E-03        -0.84621E-02         0.00000E+00
    0.28432E-03        -0.56176E-02         0.00000E+00
    0.12967E-03        -0.27973E-02         0.00000E+00
    0.00000E+00         0.00000E+00         0.00000E+00
    0.45643E-02        -0.45164E-01         0.00000E+00
    0.42044E-02        -0.41959E-01         0.00000E+00
    0.38279E-02        -0.38783E-01         0.00000E+00
    0.34424E-02        -0.35636E-01         0.00000E+00
    0.30559E-02        -0.32518E-01         0.00000E+00
    0.26760E-02        -0.29429E-01         0.00000E+00
    0.23083E-02        -0.26368E-01         0.00000E+00
    0.19572E-02        -0.23334E-01         0.00000E+00
    0.16261E-02        -0.20328E-01         0.00000E+00
    0.13172E-02        -0.17348E-01         0.00000E+00
    0.10322E-02        -0.14395E-01         0.00000E+00
    0.77221E-03        -0.11467E-01         0.00000E+00
    0.53832E-03        -0.85647E-02         0.00000E+00
    0.33124E-03        -0.56865E-02         0.00000E+00
    0.15161E-03        -0.28319E-02         0.00000E+00
    0.00000E+00         0.00000E+00         0.00000E+00
    0.51007E-02        -0.45537E-01         0.00000E+00
    0.46946E-02        -0.42328E-01         0.00000E+00
    0.42719E-02        -0.39146E-01         0.00000E+00
    0.38416E-02        -0.35990E-01         0.00000E+00
    0.34125E-02        -0.32860E-01         0.00000E+00
    0.29916E-02        -0.29754E-01         0.00000E+00
    0.25846E-02        -0.26672E-01         0.00000E+00
    0.21958E-02        -0.23615E-01         0.00000E+00
    0.18283E-02        -0.20581E-01         0.00000E+00
    0.14846E-02        -0.17571E-01         0.00000E+00
    0.11664E-02        -0.14584E-01         0.00000E+00
    0.87524E-03        -0.11621E-01         0.00000E+00
    0.61211E-03        -0.86813E-02         0.00000E+00
    0.37799E-03        -0.57648E-02         0.00000E+00
    0.17370E-03        -0.28712E-02         0.00000E+00
    0.00000E+00         0.00000E+00         0.00000E+00
    0.55895E-02        -0.45955E-01         0.00000E+00
    0.51394E-02        -0.42742E-01         0.00000E+00
    0.46747E-02        -0.39552E-01         0.00000E+00
    0.42051E-02        -0.36386E-01         0.00000E+00
    0.37389E-02        -0.33241E-01         0.00000E+00
    0.32826E-02        -0.30117E-01         0.00000E+00
    0.28413E-02        -0.27012E-01         0.00000E+00
    0.24193E-02        -0.23928E-01         0.00000E+00
    0.20195E-02        -0.20863E-01         0.00000E+00
    0.16444E-02        -0.17818E-01         0.00000E+00
    0.12960E-02        -0.14794E-01         0.00000E+00
    0.97567E-03        -0.11792E-01         0.00000E+00
    0.68481E-03        -0.88110E-02         0.00000E+00
    0.42458E-03        -0.58519E-02         0.00000E+00
    0.19597E-03        -0.29149E-02         0.00000E+00
    0.00000E+00         0.00000E+00         0.00000E+00
    0.60248E-02        -0.46416E-01         0.00000E+00
    0.55346E-02        -0.43197E-01         0.00000E+00
    0.50331E-02        -0.40000E-01         0.00000E+00
    0.45299E-02        -0.36822E-01         0.00000E+00
    0.40325E-02        -0.33660E-01         0.00000E+00
    0.35465E-02        -0.30515E-01         0.00000E+00
    0.30765E-02        -0.27385E-01         0.00000E+00
    0.26262E-02        -0.24270E-01         0.00000E+00
    0.21986E-02        -0.21172E-01         0.00000E+00
    0.17960E-02        -0.18090E-01         0.00000E+00
    0.14203E-02        -0.15025E-01         0.00000E+00
    0.10733E-02        -0.11979E-01         0.00000E+00
    0.75644E-03        -0.89531E-02         0.00000E+00
    0.47106E-03        -0.59474E-02         0.00000E+00
    0.21851E-03        -0.29628E-02         0.00000E+00
    0.00000E+00         0.00000E+00         0.00000E+00
    0.64029E-02        -0.46917E-01         0.00000E+00
    0.58767E-02        -0.43692E-01         0.00000E+00
    0.53440E-02        -0.40485E-01         0.00000E+00
    0.48133E-02        -0.37293E-01         0.00000E+00
    0.42907E-02        -0.34113E-01         0.00000E+00
    0.37810E-02        -0.30945E-01         0.00000E+00
    0.32880E-02        -0.27787E-01         0.00000E+00
    0.28148E-02        -0.24640E-01         0.00000E+00
    0.23642E-02        -0.21505E-01         0.00000E+00
    0.19383E-02        -0.18383E-01         0.00000E+00
    0.15390E-02        -0.15275E-01         0.00000E+00
    0.11680E-02        -0.12182E-01         0.00000E+00
    0.82698E-03        -0.91069E-02         0.00000E+00
    0.51757E-03        -0.60506E-02         0.00000E+00
    0.24142E-03        -0.30146E-02         0.00000E+00
    0.00000E+00         0.00000E+00         0.00000E+00
    0.67209E-02        -0.47454E-01         0.00000E+00
    0.61633E-02        -0.44221E-01         0.00000E+00
    0.56050E-02        -0.41003E-01         0.00000E+00
    0.50527E-02        -0.37795E-01         0.00000E+00
    0.45111E-02        -0.34596E-01         0.00000E+00
    0.39837E-02        -0.31403E-01         0.00000E+00
    0.34737E-02        -0.28216E-01         0.00000E+00
    0.29834E-02        -0.25035E-01         0.00000E+00
    0.25151E-02        -0.21861E-01         0.00000E+00
    0.20705E-02        -0.18696E-01         0.00000E+00
    0.16514E-02        -0.15541E-01         0.00000E+00
    0.12595E-02        -0.12399E-01         0.00000E+00
    0.89647E-03        -0.92713E-02         0.00000E+00
    0.56425E-03        -0.61610E-02         0.00000E+00
    0.26482E-03        -0.30700E-02         0.00000E+00
    0.00000E+00         0.00000E+00         0.00000E+00
    0.69760E-02        -0.48024E-01         0.00000E+00
    0.63922E-02        -0.44782E-01         0.00000E+00
    0.58139E-02        -0.41550E-01         0.00000E+00
    0.52457E-02        -0.38326E-01         0.00000E+00
    0.46910E-02        -0.35105E-01         0.00000E+00
    0.41523E-02        -0.31886E-01         0.00000E+00
    0.36314E-02        -0.28668E-01         0.00000E+00
    0.31301E-02        -0.25451E-01         0.00000E+00
    0.26497E-02        -0.22237E-01         0.00000E+00
    0.21916E-02        -0.19026E-01         0.00000E+00
    0.17570E-02        -0.15823E-01         0.00000E+00
    0.13476E-02        -0.12628E-01         0.00000E+00
    0.96495E-03        -0.94452E-02         0.00000E+00
    0.61127E-03        -0.62779E-02         0.00000E+00
    0.28887E-03        -0.31286E-02         0.00000E+00
    0.00000E+00         0.00000E+00         0.00000E+00
    0.71668E-02        -0.48622E-01         0.00000E+00
    0.65616E-02        -0.45368E-01         0.00000E+00
    0.59684E-02        -0.42122E-01         0.00000E+00
    0.53900E-02        -0.38879E-01         0.00000E+00
    0.48283E-02        -0.35636E-01         0.00000E+00
    0.42843E-02        -0.32389E-01         0.00000E+00
    0.37590E-02        -0.29139E-01         0.00000E+00
    0.32529E-02        -0.25885E-01         0.00000E+00
    0.27665E-02        -0.22629E-01         0.00000E+00
    0.23003E-02        -0.19372E-01         0.00000E+00
    0.18550E-02        -0.16117E-01         0.00000E+00
    0.14319E-02        -0.12868E-01         0.00000E+00
    0.10324E-02        -0.96276E-02         0.00000E+00
    0.65882E-03        -0.64004E-02         0.00000E+00
    0.31376E-03        -0.31900E-02         0.00000E+00
    0.00000E+00         0.00000E+00         0.00000E+00
    0.72912E-02        -0.49244E-01         0.00000E+00
    0.66695E-02        -0.45977E-01         0.00000E+00
    0.60666E-02        -0.42714E-01         0.00000E+00
    0.54835E-02        -0.39451E-01         0.00000E+00
    0.49206E-02        -0.36184E-01         0.00000E+00
    0.43776E-02        -0.32909E-01         0.00000E+00
    0.38542E-02        -0.29625E-01         0.00000E+00
    0.33498E-02        -0.26333E-01         0.00000E+00
    0.28636E-02        -0.23034E-01         0.00000E+00
    0.23952E-02        -0.19729E-01         0.00000E+00
    0.19445E-02        -0.16422E-01         0.00000E+00
    0.15119E-02        -0.13116E-01         0.00000E+00
    0.10987E-02        -0.98168E-02         0.00000E+00
    0.70699E-03        -0.65277E-02         0.00000E+00
    0.33966E-03        -0.32538E-02         0.00000E+00
    0.00000E+00         0.00000E+00         0.00000E+00
    0.73471E-02        -0.49883E-01         0.00000E+00
    0.67143E-02        -0.46602E-01         0.00000E+00
    0.61069E-02        -0.43321E-01         0.00000E+00
    0.55245E-02        -0.40036E-01         0.00000E+00
    0.49660E-02        -0.36743E-01         0.00000E+00
    0.44300E-02        -0.33438E-01         0.00000E+00
    0.39149E-02        -0.30121E-01         0.00000E+00
    0.34186E-02        -0.26790E-01         0.00000E+00
    0.29391E-02        -0.23447E-01         0.00000E+00
    0.24747E-02        -0.20094E-01         0.00000E+00
    0.20241E-02        -0.16734E-01         0.00000E+00
    0.15868E-02        -0.13372E-01         0.00000E+00
    0.11634E-02        -0.10011E-01         0.00000E+00
    0.75576E-03        -0.66586E-02         0.00000E+00
    0.36667E-03        -0.33196E-02         0.00000E+00
    0.00000E+00         0.00000E+00         0.00000E+00
    0.73324E-02        -0.50534E-01         0.00000E+00
    0.66939E-02        -0.47237E-01         0.00000E+00
    0.60875E-02        -0.43937E-01         0.00000E+00
    0.55112E-02        -0.40629E-01         0.00000E+00
    0.49628E-02        -0.37309E-01         0.00000E+00
    0.44396E-02        -0.33974E-01         0.00000E+00
    0.39388E-02        -0.30621E-01         0.00000E+00
    0.34570E-02        -0.27252E-01         0.00000E+00
    0.29907E-02        -0.23865E-01         0.00000E+00
    0.25366E-02        -0.20464E-01         0.00000E+00
    0.20921E-02        -0.17051E-01         0.00000E+00
    0.16553E-02        -0.13631E-01         0.00000E+00
    0.12259E-02        -0.10209E-01         0.00000E+00
    0.80482E-03        -0.67921E-02         0.00000E+00
    0.39482E-03        -0.33867E-02         0.00000E+00
    0.00000E+00         0.00000E+00         0.00000E+00
    0.72450E-02        -0.51193E-01         0.00000E+00
    0.66066E-02        -0.47878E-01         0.00000E+00
    0.60066E-02        -0.44557E-01         0.00000E+00
    0.54419E-02        -0.41224E-01         0.00000E+00
    0.49091E-02        -0.37876E-01         0.00000E+00
    0.44045E-02        -0.34509E-01         0.00000E+00
    0.39240E-02        -0.31121E-01         0.00000E+00
    0.34628E-02        -0.27712E-01         0.00000E+00
    0.30160E-02        -0.24282E-01         0.00000E+00
    0.25787E-02        -0.20833E-01         0.00000E+00
    0.21464E-02        -0.17368E-01         0.00000E+00
    0.17158E-02        -0.13892E-01         0.00000E+00
    0.12849E-02        -0.10409E-01         0.00000E+00
    0.85358E-03        -0.69272E-02         0.00000E+00
    0.42395E-03        -0.34547E-02         0.00000E+00
    0.00000E+00         0.00000E+00         0.00000E+00
    0.70830E-02        -0.51851E-01         0.00000E+00
    0.64506E-02        -0.48518E-01         0.00000E+00
    0.58627E-02        -0.45174E-01         0.00000E+00
    0.53151E-02        -0.41816E-01         0.00000E+00
    0.48034E-02        -0.38438E-01         0.00000E+00
    0.43229E-02        -0.35038E-01         0.00000E+00
    0.38683E-02        -0.31615E-01         0.00000E+00
    0.34336E-02        -0.28167E-01         0.00000E+00
    0.30123E-02        -0.24694E-01         0.00000E+00
    0.25979E-02        -0.21198E-01         0.00000E+00
    0.21841E-02        -0.17683E-01         0.00000E+00
    0.17656E-02        -0.14151E-01         0.00000E+00
    0.13386E-02        -0.10608E-01         0.00000E+00
    0.90106E-03        -0.70626E-02         0.00000E+00
    0.45371E-03        -0.35231E-02         0.00000E+00
    0.00000E+00         0.00000E+00         0.00000E+00
    0.68444E-02        -0.52504E-01         0.00000E+00
    0.62243E-02        -0.49150E-01         0.00000E+00
    0.56543E-02        -0.45782E-01         0.00000E+00
    0.51294E-02        -0.42396E-01         0.00000E+00
    0.46444E-02        -0.38988E-01         0.00000E+00
    0.41934E-02        -0.35555E-01         0.00000E+00
    0.37700E-02        -0.32096E-01         0.00000E+00
    0.33670E-02        -0.28609E-01         0.00000E+00
    0.29766E-02        -0.25094E-01         0.00000E+00
    0.25909E-02        -0.21554E-01         0.00000E+00
    0.22017E-02        -0.17990E-01         0.00000E+00
    0.18016E-02        -0.14405E-01         0.00000E+00
    0.13845E-02        -0.10805E-01         0.00000E+00
    0.94571E-03        -0.71971E-02         0.00000E+00
    0.48358E-03        -0.35914E-02         0.00000E+00
    0.00000E+00         0.00000E+00         0.00000E+00
    0.65277E-02        -0.53144E-01         0.00000E+00
    0.59262E-02        -0.49768E-01         0.00000E+00
    0.53803E-02        -0.46375E-01         0.00000E+00
    0.48839E-02        -0.42960E-01         0.00000E+00
    0.44309E-02        -0.39521E-01         0.00000E+00
    0.40144E-02        -0.36053E-01         0.00000E+00
    0.36271E-02        -0.32557E-01         0.00000E+00
    0.32605E-02        -0.29032E-01         0.00000E+00
    0.29058E-02        -0.25478E-01         0.00000E+00
    0.25537E-02        -0.21895E-01         0.00000E+00
    0.21946E-02        -0.18285E-01         0.00000E+00
    0.18193E-02        -0.14651E-01         0.00000E+00
    0.14188E-02        -0.10997E-01         0.00000E+00
    0.98524E-03        -0.73294E-02         0.00000E+00
    0.51276E-03        -0.36590E-02         0.00000E+00
    0.00000E+00         0.00000E+00         0.00000E+00
    0.61313E-02        -0.53766E-01         0.00000E+00
    0.55553E-02        -0.50366E-01         0.00000E+00
    0.50398E-02        -0.46946E-01         0.00000E+00
    0.45778E-02        -0.43501E-01         0.00000E+00
    0.41622E-02        -0.40028E-01         0.00000E+00
    0.37850E-02        -0.36526E-01         0.00000E+00
    0.34379E-02        -0.32993E-01         0.00000E+00
    0.31116E-02        -0.29431E-01         0.00000E+00
    0.27963E-02        -0.25838E-01         0.00000E+00
    0.24818E-02        -0.22215E-01         0.00000E+00
    0.21578E-02        -0.18564E-01         0.00000E+00
    0.18133E-02        -0.14885E-01         0.00000E+00
    0.14368E-02        -0.11181E-01         0.00000E+00
    0.10163E-02        -0.74580E-02         0.00000E+00
    0.53997E-03        -0.37254E-02         0.00000E+00
    0.00000E+00         0.00000E+00         0.00000E+00
    0.56543E-02        -0.54361E-01         0.00000E+00
    0.51109E-02        -0.50936E-01         0.00000E+00
    0.46325E-02        -0.47487E-01         0.00000E+00
    0.42109E-02        -0.44010E-01         0.00000E+00
    0.38378E-02        -0.40503E-01         0.00000E+00
    0.35042E-02        -0.36965E-01         0.00000E+00
    0.32008E-02        -0.33396E-01         0.00000E+00
    0.29175E-02        -0.29797E-01         0.00000E+00
    0.26441E-02        -0.26169E-01         0.00000E+00
    0.23703E-02        -0.22510E-01         0.00000E+00
    0.20851E-02        -0.18821E-01         0.00000E+00
    0.17768E-02        -0.15103E-01         0.00000E+00
    0.14319E-02        -0.11355E-01         0.00000E+00
    0.10340E-02        -0.75810E-02         0.00000E+00
    0.56323E-03        -0.37898E-02         0.00000E+00
    0.00000E+00         0.00000E+00         0.00000E+00
    0.50958E-02        -0.54922E-01         0.00000E+00
    0.45927E-02        -0.51471E-01         0.00000E+00
    0.41584E-02        -0.47991E-01         0.00000E+00
    0.37834E-02        -0.44480E-01         0.00000E+00
    0.34578E-02        -0.40937E-01         0.00000E+00
    0.31714E-02        -0.37363E-01         0.00000E+00
    0.29139E-02        -0.33759E-01         0.00000E+00
    0.26752E-02        -0.30126E-01         0.00000E+00
    0.24451E-02        -0.26464E-01         0.00000E+00
    0.22135E-02        -0.22774E-01         0.00000E+00
    0.19698E-02        -0.19053E-01         0.00000E+00
    0.17022E-02        -0.15300E-01         0.00000E+00
    0.13959E-02        -0.11515E-01         0.00000E+00
    0.10311E-02        -0.76968E-02         0.00000E+00
    0.57883E-03        -0.38522E-02         0.00000E+00
    0.00000E+00         0.00000E+00         0.00000E+00
    0.44550E-02        -0.55441E-01         0.00000E+00
    0.40008E-02        -0.51962E-01         0.00000E+00
    0.36184E-02        -0.48450E-01         0.00000E+00
    0.32963E-02        -0.44903E-01         0.00000E+00
    0.30227E-02        -0.41324E-01         0.00000E+00
    0.27860E-02        -0.37714E-01         0.00000E+00
    0.25755E-02        -0.34076E-01         0.00000E+00
    0.23815E-02        -0.30411E-01         0.00000E+00
    0.21945E-02        -0.26720E-01         0.00000E+00
    0.20056E-02        -0.23001E-01         0.00000E+00
    0.18050E-02        -0.19254E-01         0.00000E+00
    0.15813E-02        -0.15473E-01         0.00000E+00
    0.13197E-02        -0.11657E-01         0.00000E+00
    0.99851E-03        -0.78025E-02         0.00000E+00
    0.58099E-03        -0.39106E-02         0.00000E+00
    0.00000E+00         0.00000E+00         0.00000E+00
    0.37314E-02        -0.55908E-01         0.00000E+00
    0.33358E-02        -0.52400E-01         0.00000E+00
    0.30138E-02        -0.48853E-01         0.00000E+00
    0.27509E-02        -0.45270E-01         0.00000E+00
    0.25328E-02        -0.41654E-01         0.00000E+00
    0.23471E-02        -0.38009E-01         0.00000E+00
    0.21832E-02        -0.34339E-01         0.00000E+00
    0.20326E-02        -0.30646E-01         0.00000E+00
    0.18875E-02        -0.26930E-01         0.00000E+00
    0.17405E-02        -0.23189E-01         0.00000E+00
    0.15832E-02        -0.19420E-01         0.00000E+00
    0.14057E-02        -0.15619E-01         0.00000E+00
    0.11937E-02        -0.11780E-01         0.00000E+00
    0.92547E-03        -0.78969E-02         0.00000E+00
    0.55951E-03        -0.39659E-02         0.00000E+00
    0.00000E+00         0.00000E+00         0.00000E+00
    0.29243E-02        -0.56314E-01         0.00000E+00
    0.25991E-02        -0.52774E-01         0.00000E+00
    0.23471E-02        -0.49192E-01         0.00000E+00
    0.21490E-02        -0.45571E-01         0.00000E+00
    0.19884E-02        -0.41920E-01         0.00000E+00
    0.18529E-02        -0.38243E-01         0.00000E+00
    0.17339E-02        -0.34546E-01         0.00000E+00
    0.16246E-02        -0.30829E-01         0.00000E+00
    0.15193E-02        -0.27092E-01         0.00000E+00
    0.14123E-02        -0.23334E-01         0.00000E+00
    0.12975E-02        -0.19550E-01         0.00000E+00
    0.11667E-02        -0.15735E-01         0.00000E+00
    0.10080E-02        -0.11881E-01         0.00000E+00
    0.80068E-03        -0.79791E-02         0.00000E+00
    0.50390E-03        -0.40182E-02         0.00000E+00
    0.00000E+00         0.00000E+00         0.00000E+00
    0.20331E-02        -0.56643E-01         0.00000E+00
    0.17937E-02        -0.53071E-01         0.00000E+00
    0.16218E-02        -0.49451E-01         0.00000E+00
    0.14919E-02        -0.45795E-01         0.00000E+00
    0.13878E-02        -0.42113E-01         0.00000E+00
    0.13003E-02        -0.38411E-01         0.00000E+00
    0.12235E-02        -0.34693E-01         0.00000E+00
    0.11530E-02        -0.30958E-01         0.00000E+00
    0.10849E-02        -0.27206E-01         0.00000E+00
    0.10158E-02        -0.23434E-01         0.00000E+00
    0.94142E-03        -0.19640E-01         0.00000E+00
    0.85651E-03        -0.15817E-01         0.00000E+00
    0.75242E-03        -0.11957E-01         0.00000E+00
    0.61312E-03        -0.80470E-02         0.00000E+00
    0.40200E-03        -0.40670E-02         0.00000E+00
    0.00000E+00         0.00000E+00         0.00000E+00
    0.10573E-02        -0.56876E-01         0.00000E+00
    0.92506E-03        -0.53270E-01         0.00000E+00
    0.84065E-03        -0.49615E-01         0.00000E+00
    0.77757E-03        -0.45932E-01         0.00000E+00
    0.72705E-03        -0.42229E-01         0.00000E+00
    0.68459E-03        -0.38511E-01         0.00000E+00
    0.64730E-03        -0.34779E-01         0.00000E+00
    0.61302E-03        -0.31033E-01         0.00000E+00
    0.57993E-03        -0.27271E-01         0.00000E+00
    0.54630E-03        -0.23492E-01         0.00000E+00
    0.51016E-03        -0.19692E-01         0.00000E+00
    0.46889E-03        -0.15866E-01         0.00000E+00
    0.41823E-03        -0.12004E-01         0.00000E+00
    0.34964E-03        -0.80943E-02         0.00000E+00
    0.24142E-03        -0.41110E-02         0.00000E+00
    0.00000E+00         0.00000E+00         0.00000E+00
    0.00000E+00        -0.56978E-01         0.00000E+00
    0.00000E+00        -0.53343E-01         0.00000E+00
    0.00000E+00        -0.49671E-01         0.00000E+00
    0.00000E+00        -0.45978E-01         0.00000E+00
    0.00000E+00        -0.42268E-01         0.00000E+00
    0.00000E+00        -0.38544E-01         0.00000E+00
    0.00000E+00        -0.34807E-01         0.00000E+00
    0.00000E+00        -0.31057E-01         0.00000E+00
    0.00000E+00        -0.27293E-01         0.00000E+00
    0.00000E+00        -0.23511E-01         0.00000E+00
    0.00000E+00        -0.19709E-01         0.00000E+00
    0.00000E+00        -0.15881E-01         0.00000E+00
    0.00000E+00        -0.12020E-01         0.00000E+00
    0.00000E+00        -0.81122E-02         0.00000E+00
    0.00000E+00        -0.41330E-02         0.00000E+00
    0.00000E+00         0.00000E+00         0.00000E+00
CELL_DATA        450
VECTORS vDarcy double 
    0.15294E-09        -0.90675E-11         0.00000E+00
    0.15291E-09        -0.23650E-10         0.00000E+00
    0.15286E-09        -0.34874E-10         0.00000E+00
    0.15281E-09        -0.42993E-10         0.00000E+00
    0.15275E-09        -0.48275E-10         0.00000E+00
    0.15269E-09        -0.50999E-10         0.00000E+00
    0.15264E-09        -0.51429E-10         0.00000E+00
    0.15259E-09        -0.49820E-10         0.00000E+00
    0.15256E-09        -0.46417E-10         0.00000E+00
    0.15252E-09        -0.41468E-10         0.00000E+00
    0.15250E-09        -0.35239E-10         0.00000E+00
    0.15248E-09        -0.28026E-10         0.00000E+00
    0.15247E-09        -0.20163E-10         0.00000E+00
    0.15246E-09        -0.12023E-10         0.00000E+00
    0.15246E-09        -0.40155E-11         0.00000E+00
    0.45835E-09        -0.90361E-11         0.00000E+00
    0.45826E-09        -0.23573E-10         0.00000E+00
    0.45812E-09        -0.34769E-10         0.00000E+00
    0.45795E-09        -0.42875E-10         0.00000E+00
    0.45776E-09        -0.48158E-10         0.00000E+00
    0.45759E-09        -0.50891E-10         0.00000E+00
    0.45743E-09        -0.51334E-10         0.00000E+00
    0.45729E-09        -0.49739E-10         0.00000E+00
    0.45717E-09        -0.46349E-10         0.00000E+00
    0.45707E-09        -0.41412E-10         0.00000E+00
    0.45699E-09        -0.35195E-10         0.00000E+00
    0.45693E-09        -0.27995E-10         0.00000E+00
    0.45690E-09        -0.20145E-10         0.00000E+00
    0.45688E-09        -0.12016E-10         0.00000E+00
    0.45687E-09        -0.40144E-11         0.00000E+00
    0.76237E-09        -0.89724E-11         0.00000E+00
    0.76221E-09        -0.23418E-10         0.00000E+00
    0.76197E-09        -0.34556E-10         0.00000E+00
    0.76167E-09        -0.42634E-10         0.00000E+00
    0.76135E-09        -0.47917E-10         0.00000E+00
    0.76105E-09        -0.50666E-10         0.00000E+00
    0.76077E-09        -0.51133E-10         0.00000E+00
    0.76052E-09        -0.49564E-10         0.00000E+00
    0.76030E-09        -0.46200E-10         0.00000E+00
    0.76011E-09        -0.41289E-10         0.00000E+00
    0.75996E-09        -0.35098E-10         0.00000E+00
    0.75985E-09        -0.27925E-10         0.00000E+00
    0.75977E-09        -0.20103E-10         0.00000E+00
    0.75973E-09        -0.11997E-10         0.00000E+00
    0.75972E-09        -0.40111E-11         0.00000E+00
    0.10640E-08        -0.88750E-11         0.00000E+00
    0.10638E-08        -0.23179E-10         0.00000E+00
    0.10635E-08        -0.34226E-10         0.00000E+00
    0.10630E-08        -0.42260E-10         0.00000E+00
    0.10626E-08        -0.47537E-10         0.00000E+00
    0.10621E-08        -0.50305E-10         0.00000E+00
    0.10617E-08        -0.50804E-10         0.00000E+00
    0.10613E-08        -0.49272E-10         0.00000E+00
    0.10610E-08        -0.45946E-10         0.00000E+00
    0.10607E-08        -0.41075E-10         0.00000E+00
    0.10604E-08        -0.34927E-10         0.00000E+00
    0.10602E-08        -0.27801E-10         0.00000E+00
    0.10601E-08        -0.20025E-10         0.00000E+00
    0.10600E-08        -0.11961E-10         0.00000E+00
    0.10600E-08        -0.40034E-11         0.00000E+00
    0.13625E-08        -0.87413E-11         0.00000E+00
    0.13622E-08        -0.22850E-10         0.00000E+00
    0.13617E-08        -0.33768E-10         0.00000E+00
    0.13611E-08        -0.41737E-10         0.00000E+00
    0.13605E-08        -0.46997E-10         0.00000E+00
    0.13598E-08        -0.49780E-10         0.00000E+00
    0.13592E-08        -0.50314E-10         0.00000E+00
    0.13587E-08        -0.48825E-10         0.00000E+00
    0.13581E-08        -0.45550E-10         0.00000E+00
    0.13577E-08        -0.40737E-10         0.00000E+00
    0.13573E-08        -0.34655E-10         0.00000E+00
    0.13570E-08        -0.27599E-10         0.00000E+00
    0.13568E-08        -0.19895E-10         0.00000E+00
    0.13567E-08        -0.11897E-10         0.00000E+00
    0.13566E-08        -0.39879E-11         0.00000E+00
    0.16567E-08        -0.85681E-11         0.00000E+00
    0.16563E-08        -0.22421E-10         0.00000E+00
    0.16557E-08        -0.33168E-10         0.00000E+00
    0.16550E-08        -0.41042E-10         0.00000E+00
    0.16541E-08        -0.46266E-10         0.00000E+00
    0.16533E-08        -0.49054E-10         0.00000E+00
    0.16524E-08        -0.49619E-10         0.00000E+00
    0.16516E-08        -0.48181E-10         0.00000E+00
    0.16509E-08        -0.44970E-10         0.00000E+00
    0.16503E-08        -0.40235E-10         0.00000E+00
    0.16497E-08        -0.34244E-10         0.00000E+00
    0.16493E-08        -0.27290E-10         0.00000E+00
    0.16490E-08        -0.19691E-10         0.00000E+00
    0.16488E-08        -0.11792E-10         0.00000E+00
    0.16487E-08        -0.39603E-11         0.00000E+00
    0.19458E-08        -0.83512E-11         0.00000E+00
    0.19454E-08        -0.21879E-10         0.00000E+00
    0.19446E-08        -0.32404E-10         0.00000E+00
    0.19437E-08        -0.40145E-10         0.00000E+00
    0.19426E-08        -0.45305E-10         0.00000E+00
    0.19415E-08        -0.48080E-10         0.00000E+00
    0.19404E-08        -0.48669E-10         0.00000E+00
    0.19393E-08        -0.47284E-10         0.00000E+00
    0.19383E-08        -0.44153E-10         0.00000E+00
    0.19374E-08        -0.39522E-10         0.00000E+00
    0.19366E-08        -0.33656E-10         0.00000E+00
    0.19360E-08        -0.26842E-10         0.00000E+00
    0.19355E-08        -0.19390E-10         0.00000E+00
    0.19353E-08        -0.11631E-10         0.00000E+00
    0.19351E-08        -0.39157E-11         0.00000E+00
    0.22290E-08        -0.80857E-11         0.00000E+00
    0.22285E-08        -0.21210E-10         0.00000E+00
    0.22275E-08        -0.31451E-10         0.00000E+00
    0.22263E-08        -0.39010E-10         0.00000E+00
    0.22250E-08        -0.44069E-10         0.00000E+00
    0.22235E-08        -0.46804E-10         0.00000E+00
    0.22221E-08        -0.47405E-10         0.00000E+00
    0.22207E-08        -0.46077E-10         0.00000E+00
    0.22193E-08        -0.43044E-10         0.00000E+00
    0.22181E-08        -0.38547E-10         0.00000E+00
    0.22171E-08        -0.32845E-10         0.00000E+00
    0.22162E-08        -0.26219E-10         0.00000E+00
    0.22156E-08        -0.18965E-10         0.00000E+00
    0.22152E-08        -0.11398E-10         0.00000E+00
    0.22151E-08        -0.38488E-11         0.00000E+00
    0.25053E-08        -0.77656E-11         0.00000E+00
    0.25046E-08        -0.20396E-10         0.00000E+00
    0.25035E-08        -0.30279E-10         0.00000E+00
    0.25020E-08        -0.37594E-10         0.00000E+00
    0.25004E-08        -0.42502E-10         0.00000E+00
    0.24985E-08        -0.45166E-10         0.00000E+00
    0.24967E-08        -0.45765E-10         0.00000E+00
    0.24948E-08        -0.44498E-10         0.00000E+00
    0.24931E-08        -0.41584E-10         0.00000E+00
    0.24915E-08        -0.37257E-10         0.00000E+00
    0.24902E-08        -0.31768E-10         0.00000E+00
    0.24891E-08        -0.25385E-10         0.00000E+00
    0.24883E-08        -0.18389E-10         0.00000E+00
    0.24878E-08        -0.11076E-10         0.00000E+00
    0.24875E-08        -0.37539E-11         0.00000E+00
    0.27738E-08        -0.73842E-11         0.00000E+00
    0.27730E-08        -0.19416E-10         0.00000E+00
    0.27717E-08        -0.28852E-10         0.00000E+00
    0.27699E-08        -0.35849E-10         0.00000E+00
    0.27678E-08        -0.40549E-10         0.00000E+00
    0.27656E-08        -0.43103E-10         0.00000E+00
    0.27633E-08        -0.43684E-10         0.00000E+00
    0.27610E-08        -0.42484E-10         0.00000E+00
    0.27588E-08        -0.39714E-10         0.00000E+00
    0.27568E-08        -0.35599E-10         0.00000E+00
    0.27551E-08        -0.30378E-10         0.00000E+00
    0.27537E-08        -0.24303E-10         0.00000E+00
    0.27526E-08        -0.17636E-10         0.00000E+00
    0.27520E-08        -0.10650E-10         0.00000E+00
    0.27516E-08        -0.36258E-11         0.00000E+00
    0.30337E-08        -0.69339E-11         0.00000E+00
    0.30328E-08        -0.18247E-10         0.00000E+00
    0.30312E-08        -0.27133E-10         0.00000E+00
    0.30291E-08        -0.33724E-10         0.00000E+00
    0.30266E-08        -0.38149E-10         0.00000E+00
    0.30238E-08        -0.40552E-10         0.00000E+00
    0.30210E-08        -0.41099E-10         0.00000E+00
    0.30181E-08        -0.39974E-10         0.00000E+00
    0.30154E-08        -0.37379E-10         0.00000E+00
    0.30130E-08        -0.33526E-10         0.00000E+00
    0.30109E-08        -0.28636E-10         0.00000E+00
    0.30091E-08        -0.22943E-10         0.00000E+00
    0.30078E-08        -0.16683E-10         0.00000E+00
    0.30070E-08        -0.10105E-10         0.00000E+00
    0.30066E-08        -0.34596E-11         0.00000E+00
    0.32842E-08        -0.64067E-11         0.00000E+00
    0.32832E-08        -0.16864E-10         0.00000E+00
    0.32813E-08        -0.25079E-10         0.00000E+00
    0.32788E-08        -0.31166E-10         0.00000E+00
    0.32758E-08        -0.35244E-10         0.00000E+00
    0.32725E-08        -0.37452E-10         0.00000E+00
    0.32690E-08        -0.37950E-10         0.00000E+00
    0.32656E-08        -0.36913E-10         0.00000E+00
    0.32623E-08        -0.34529E-10         0.00000E+00
    0.32594E-08        -0.30993E-10         0.00000E+00
    0.32568E-08        -0.26506E-10         0.00000E+00
    0.32547E-08        -0.21275E-10         0.00000E+00
    0.32531E-08        -0.15510E-10         0.00000E+00
    0.32521E-08        -0.94281E-11         0.00000E+00
    0.32516E-08        -0.32511E-11         0.00000E+00
    0.35245E-08        -0.57933E-11         0.00000E+00
    0.35233E-08        -0.15241E-10         0.00000E+00
    0.35211E-08        -0.22652E-10         0.00000E+00
    0.35181E-08        -0.28126E-10         0.00000E+00
    0.35146E-08        -0.31780E-10         0.00000E+00
    0.35107E-08        -0.33749E-10         0.00000E+00
    0.35066E-08        -0.34186E-10         0.00000E+00
    0.35026E-08        -0.33253E-10         0.00000E+00
    0.34987E-08        -0.31122E-10         0.00000E+00
    0.34952E-08        -0.27966E-10         0.00000E+00
    0.34922E-08        -0.23959E-10         0.00000E+00
    0.34897E-08        -0.19278E-10         0.00000E+00
    0.34878E-08        -0.14102E-10         0.00000E+00
    0.34866E-08        -0.86119E-11         0.00000E+00
    0.34860E-08        -0.29974E-11         0.00000E+00
    0.37539E-08        -0.50839E-11         0.00000E+00
    0.37525E-08        -0.13352E-10         0.00000E+00
    0.37499E-08        -0.19812E-10         0.00000E+00
    0.37464E-08        -0.24560E-10         0.00000E+00
    0.37423E-08        -0.27711E-10         0.00000E+00
    0.37377E-08        -0.29398E-10         0.00000E+00
    0.37330E-08        -0.29765E-10         0.00000E+00
    0.37283E-08        -0.28960E-10         0.00000E+00
    0.37238E-08        -0.27131E-10         0.00000E+00
    0.37198E-08        -0.24423E-10         0.00000E+00
    0.37163E-08        -0.20980E-10         0.00000E+00
    0.37134E-08        -0.16942E-10         0.00000E+00
    0.37112E-08        -0.12451E-10         0.00000E+00
    0.37098E-08        -0.76519E-11         0.00000E+00
    0.37091E-08        -0.26971E-11         0.00000E+00
    0.39715E-08        -0.42687E-11         0.00000E+00
    0.39699E-08        -0.11173E-10         0.00000E+00
    0.39669E-08        -0.16528E-10         0.00000E+00
    0.39630E-08        -0.20431E-10         0.00000E+00
    0.39582E-08        -0.23002E-10         0.00000E+00
    0.39530E-08        -0.24370E-10         0.00000E+00
    0.39476E-08        -0.24665E-10         0.00000E+00
    0.39422E-08        -0.24016E-10         0.00000E+00
    0.39371E-08        -0.22543E-10         0.00000E+00
    0.39325E-08        -0.20358E-10         0.00000E+00
    0.39285E-08        -0.17565E-10         0.00000E+00
    0.39253E-08        -0.14266E-10         0.00000E+00
    0.39228E-08        -0.10559E-10         0.00000E+00
    0.39212E-08        -0.65492E-11         0.00000E+00
    0.39204E-08        -0.23501E-11         0.00000E+00
    0.41767E-08        -0.33390E-11         0.00000E+00
    0.41749E-08        -0.86837E-11         0.00000E+00
    0.41716E-08        -0.12774E-10         0.00000E+00
    0.41671E-08        -0.15719E-10         0.00000E+00
    0.41617E-08        -0.17638E-10         0.00000E+00
    0.41558E-08        -0.18654E-10         0.00000E+00
    0.41497E-08        -0.18882E-10         0.00000E+00
    0.41437E-08        -0.18424E-10         0.00000E+00
    0.41380E-08        -0.17367E-10         0.00000E+00
    0.41328E-08        -0.15783E-10         0.00000E+00
    0.41284E-08        -0.13731E-10         0.00000E+00
    0.41248E-08        -0.11265E-10         0.00000E+00
    0.41221E-08        -0.84387E-11         0.00000E+00
    0.41203E-08        -0.53116E-11         0.00000E+00
    0.41194E-08        -0.19587E-11         0.00000E+00
    0.43689E-08        -0.22884E-11         0.00000E+00
    0.43669E-08        -0.58711E-11         0.00000E+00
    0.43631E-08        -0.85428E-11         0.00000E+00
    0.43581E-08        -0.10420E-10         0.00000E+00
    0.43521E-08        -0.11624E-10         0.00000E+00
    0.43456E-08        -0.12266E-10         0.00000E+00
    0.43388E-08        -0.12440E-10         0.00000E+00
    0.43322E-08        -0.12216E-10         0.00000E+00
    0.43260E-08        -0.11640E-10         0.00000E+00
    0.43203E-08        -0.10736E-10         0.00000E+00
    0.43155E-08        -0.95130E-11         0.00000E+00
    0.43116E-08        -0.79718E-11         0.00000E+00
    0.43086E-08        -0.61145E-11         0.00000E+00
    0.43067E-08        -0.39550E-11         0.00000E+00
    0.43058E-08        -0.15277E-11         0.00000E+00
    0.45474E-08        -0.11143E-11         0.00000E+00
    0.45451E-08        -0.27347E-11         0.00000E+00
    0.45410E-08        -0.38424E-11         0.00000E+00
    0.45355E-08        -0.45586E-11         0.00000E+00
    0.45289E-08        -0.49986E-11         0.00000E+00
    0.45218E-08        -0.52572E-11         0.00000E+00
    0.45145E-08        -0.53999E-11         0.00000E+00
    0.45074E-08        -0.54582E-11         0.00000E+00
    0.45006E-08        -0.54300E-11         0.00000E+00
    0.44946E-08        -0.52849E-11         0.00000E+00
    0.44895E-08        -0.49734E-11         0.00000E+00
    0.44853E-08        -0.44382E-11         0.00000E+00
    0.44822E-08        -0.36267E-11         0.00000E+00
    0.44801E-08        -0.25042E-11         0.00000E+00
    0.44791E-08        -0.10644E-11         0.00000E+00
    0.47115E-08         0.18011E-12         0.00000E+00
    0.47091E-08         0.71018E-12         0.00000E+00
    0.47046E-08         0.12917E-11         0.00000E+00
    0.46986E-08         0.18085E-11         0.00000E+00
    0.46916E-08         0.21609E-11         0.00000E+00
    0.46841E-08         0.22792E-11         0.00000E+00
    0.46763E-08         0.21340E-11         0.00000E+00
    0.46688E-08         0.17398E-11         0.00000E+00
    0.46617E-08         0.11540E-11         0.00000E+00
    0.46554E-08         0.46860E-12         0.00000E+00
    0.46500E-08        -0.20265E-12         0.00000E+00
    0.46457E-08        -0.73945E-12         0.00000E+00
    0.46425E-08        -0.10314E-11         0.00000E+00
    0.46404E-08        -0.99332E-12         0.00000E+00
    0.46394E-08        -0.57903E-12         0.00000E+00
    0.48607E-08         0.15852E-11         0.00000E+00
    0.48581E-08         0.44286E-11         0.00000E+00
    0.48533E-08         0.67924E-11         0.00000E+00
    0.48471E-08         0.85818E-11         0.00000E+00
    0.48397E-08         0.97264E-11         0.00000E+00
    0.48319E-08         0.10194E-10         0.00000E+00
    0.48239E-08         0.10000E-10         0.00000E+00
    0.48161E-08         0.92146E-11         0.00000E+00
    0.48089E-08         0.79554E-11         0.00000E+00
    0.48025E-08         0.63819E-11         0.00000E+00
    0.47971E-08         0.46763E-11         0.00000E+00
    0.47928E-08         0.30252E-11         0.00000E+00
    0.47896E-08         0.15990E-11         0.00000E+00
    0.47875E-08         0.53370E-12         0.00000E+00
    0.47865E-08        -0.84924E-13         0.00000E+00
    0.49944E-08         0.30831E-11         0.00000E+00
    0.49916E-08         0.83612E-11         0.00000E+00
    0.49867E-08         0.12553E-10         0.00000E+00
    0.49803E-08         0.15609E-10         0.00000E+00
    0.49728E-08         0.17507E-10         0.00000E+00
    0.49649E-08         0.18268E-10         0.00000E+00
    0.49569E-08         0.17968E-10         0.00000E+00
    0.49492E-08         0.16737E-10         0.00000E+00
    0.49421E-08         0.14760E-10         0.00000E+00
    0.49359E-08         0.12266E-10         0.00000E+00
    0.49306E-08         0.95055E-11         0.00000E+00
    0.49264E-08         0.67318E-11         0.00000E+00
    0.49233E-08         0.41755E-11         0.00000E+00
    0.49213E-08         0.20240E-11         0.00000E+00
    0.49203E-08         0.40200E-12         0.00000E+00
    0.51119E-08         0.46465E-11         0.00000E+00
    0.51091E-08         0.12419E-10         0.00000E+00
    0.51041E-08         0.18419E-10         0.00000E+00
    0.50977E-08         0.22671E-10         0.00000E+00
    0.50904E-08         0.25232E-10         0.00000E+00
    0.50828E-08         0.26199E-10         0.00000E+00
    0.50752E-08         0.25720E-10         0.00000E+00
    0.50679E-08         0.23999E-10         0.00000E+00
    0.50613E-08         0.21288E-10         0.00000E+00
    0.50554E-08         0.17880E-10         0.00000E+00
    0.50506E-08         0.14090E-10         0.00000E+00
    0.50467E-08         0.10232E-10         0.00000E+00
    0.50439E-08         0.65943E-11         0.00000E+00
    0.50420E-08         0.34166E-11         0.00000E+00
    0.50411E-08         0.86375E-12         0.00000E+00
    0.52126E-08         0.62366E-11         0.00000E+00
    0.52098E-08         0.16478E-10         0.00000E+00
    0.52050E-08         0.24175E-10         0.00000E+00
    0.51990E-08         0.29471E-10         0.00000E+00
    0.51922E-08         0.32537E-10         0.00000E+00
    0.51853E-08         0.33578E-10         0.00000E+00
    0.51785E-08         0.32839E-10         0.00000E+00
    0.51722E-08         0.30603E-10         0.00000E+00
    0.51664E-08         0.27185E-10         0.00000E+00
    0.51613E-08         0.22929E-10         0.00000E+00
    0.51571E-08         0.18196E-10         0.00000E+00
    0.51538E-08         0.13352E-10         0.00000E+00
    0.51514E-08         0.87378E-11         0.00000E+00
    0.51499E-08         0.46444E-11         0.00000E+00
    0.51491E-08         0.12808E-11         0.00000E+00
    0.52958E-08         0.78002E-11         0.00000E+00
    0.52932E-08         0.20367E-10         0.00000E+00
    0.52889E-08         0.29528E-10         0.00000E+00
    0.52836E-08         0.35606E-10         0.00000E+00
    0.52779E-08         0.38940E-10         0.00000E+00
    0.52722E-08         0.39881E-10         0.00000E+00
    0.52669E-08         0.38796E-10         0.00000E+00
    0.52620E-08         0.36052E-10         0.00000E+00
    0.52576E-08         0.32016E-10         0.00000E+00
    0.52537E-08         0.27056E-10         0.00000E+00
    0.52505E-08         0.21552E-10         0.00000E+00
    0.52480E-08         0.15898E-10         0.00000E+00
    0.52462E-08         0.10477E-10         0.00000E+00
    0.52450E-08         0.56351E-11         0.00000E+00
    0.52444E-08         0.16330E-11         0.00000E+00
    0.53608E-08         0.92638E-11         0.00000E+00
    0.53586E-08         0.23845E-10         0.00000E+00
    0.53551E-08         0.34074E-10         0.00000E+00
    0.53511E-08         0.40538E-10         0.00000E+00
    0.53471E-08         0.43814E-10         0.00000E+00
    0.53435E-08         0.44449E-10         0.00000E+00
    0.53402E-08         0.42948E-10         0.00000E+00
    0.53374E-08         0.39756E-10         0.00000E+00
    0.53350E-08         0.35267E-10         0.00000E+00
    0.53329E-08         0.29843E-10         0.00000E+00
    0.53311E-08         0.23842E-10         0.00000E+00
    0.53297E-08         0.17649E-10         0.00000E+00
    0.53286E-08         0.11673E-10         0.00000E+00
    0.53279E-08         0.63137E-11         0.00000E+00
    0.53276E-08         0.19013E-11         0.00000E+00
    0.54068E-08         0.10521E-10         0.00000E+00
    0.54053E-08         0.26568E-10         0.00000E+00
    0.54031E-08         0.37241E-10         0.00000E+00
    0.54011E-08         0.43535E-10         0.00000E+00
    0.53998E-08         0.46358E-10         0.00000E+00
    0.53990E-08         0.46487E-10         0.00000E+00
    0.53987E-08         0.44552E-10         0.00000E+00
    0.53988E-08         0.41048E-10         0.00000E+00
    0.53990E-08         0.36362E-10         0.00000E+00
    0.53991E-08         0.30814E-10         0.00000E+00
    0.53992E-08         0.24702E-10         0.00000E+00
    0.53992E-08         0.18357E-10         0.00000E+00
    0.53991E-08         0.12174E-10         0.00000E+00
    0.53990E-08         0.66040E-11         0.00000E+00
    0.53990E-08         0.20679E-11         0.00000E+00
    0.54328E-08         0.11406E-10         0.00000E+00
    0.54323E-08         0.27989E-10         0.00000E+00
    0.54324E-08         0.38176E-10         0.00000E+00
    0.54336E-08         0.43597E-10         0.00000E+00
    0.54359E-08         0.45571E-10         0.00000E+00
    0.54391E-08         0.45074E-10         0.00000E+00
    0.54427E-08         0.42796E-10         0.00000E+00
    0.54463E-08         0.39221E-10         0.00000E+00
    0.54498E-08         0.34688E-10         0.00000E+00
    0.54528E-08         0.29448E-10         0.00000E+00
    0.54552E-08         0.23716E-10         0.00000E+00
    0.54570E-08         0.17726E-10         0.00000E+00
    0.54581E-08         0.11810E-10         0.00000E+00
    0.54588E-08         0.64273E-11         0.00000E+00
    0.54591E-08         0.21201E-11         0.00000E+00
    0.54374E-08         0.11614E-10         0.00000E+00
    0.54388E-08         0.27159E-10         0.00000E+00
    0.54425E-08         0.35554E-10         0.00000E+00
    0.54485E-08         0.39377E-10         0.00000E+00
    0.54559E-08         0.40262E-10         0.00000E+00
    0.54642E-08         0.39215E-10         0.00000E+00
    0.54725E-08         0.36860E-10         0.00000E+00
    0.54806E-08         0.33588E-10         0.00000E+00
    0.54879E-08         0.29652E-10         0.00000E+00
    0.54943E-08         0.25224E-10         0.00000E+00
    0.54996E-08         0.20429E-10         0.00000E+00
    0.55035E-08         0.15399E-10         0.00000E+00
    0.55063E-08         0.10346E-10         0.00000E+00
    0.55079E-08         0.56981E-11         0.00000E+00
    0.55085E-08         0.20533E-11         0.00000E+00
    0.54188E-08         0.10481E-10         0.00000E+00
    0.54239E-08         0.22143E-10         0.00000E+00
    0.54338E-08         0.27325E-10         0.00000E+00
    0.54466E-08         0.29174E-10         0.00000E+00
    0.54608E-08         0.29131E-10         0.00000E+00
    0.54752E-08         0.27935E-10         0.00000E+00
    0.54892E-08         0.25996E-10         0.00000E+00
    0.55022E-08         0.23552E-10         0.00000E+00
    0.55139E-08         0.20751E-10         0.00000E+00
    0.55241E-08         0.17682E-10         0.00000E+00
    0.55326E-08         0.14405E-10         0.00000E+00
    0.55392E-08         0.10970E-10         0.00000E+00
    0.55438E-08         0.74652E-11         0.00000E+00
    0.55468E-08         0.41725E-11         0.00000E+00
    0.55479E-08         0.19655E-11         0.00000E+00
    0.53733E-08         0.47319E-11         0.00000E+00
    0.53875E-08         0.91289E-11         0.00000E+00
    0.54076E-08         0.10750E-10         0.00000E+00
    0.54297E-08         0.11173E-10         0.00000E+00
    0.54520E-08         0.10973E-10         0.00000E+00
    0.54735E-08         0.10411E-10         0.00000E+00
    0.54936E-08         0.96224E-11         0.00000E+00
    0.55120E-08         0.86837E-11         0.00000E+00
    0.55284E-08         0.76394E-11         0.00000E+00
    0.55426E-08         0.65160E-11         0.00000E+00
    0.55545E-08         0.53288E-11         0.00000E+00
    0.55640E-08         0.40884E-11         0.00000E+00
    0.55710E-08         0.28131E-11         0.00000E+00
    0.55754E-08         0.15805E-11         0.00000E+00
    0.55781E-08         0.97058E-12         0.00000E+00
POINT_DATA        496
VECTORS vDarcyNodal double 
    0.15295E-09        -0.90753E-11         0.00000E+00
    0.15293E-09        -0.16372E-10         0.00000E+00
    0.15289E-09        -0.29284E-10         0.00000E+00
    0.15284E-09        -0.38961E-10         0.00000E+00
    0.15278E-09        -0.45663E-10         0.00000E+00
    0.15272E-09        -0.49665E-10         0.00000E+00
    0.15266E-09        -0.51239E-10         0.00000E+00
    0.15261E-09        -0.50646E-10         0.00000E+00
    0.15257E-09        -0.48137E-10         0.00000E+00
    0.15254E-09        -0.43957E-10         0.00000E+00
    0.15251E-09        -0.38365E-10         0.00000E+00
    0.15249E-09        -0.31641E-10         0.00000E+00
    0.15248E-09        -0.24100E-10         0.00000E+00
    0.15247E-09        -0.16096E-10         0.00000E+00
    0.15246E-09        -0.80200E-11         0.00000E+00
    0.15246E-09        -0.40156E-11         0.00000E+00
    0.30566E-09        -0.90597E-11         0.00000E+00
    0.30563E-09        -0.16345E-10         0.00000E+00
    0.30555E-09        -0.29239E-10         0.00000E+00
    0.30544E-09        -0.38906E-10         0.00000E+00
    0.30531E-09        -0.45605E-10         0.00000E+00
    0.30519E-09        -0.49609E-10         0.00000E+00
    0.30508E-09        -0.51189E-10         0.00000E+00
    0.30498E-09        -0.50603E-10         0.00000E+00
    0.30490E-09        -0.48101E-10         0.00000E+00
    0.30483E-09        -0.43928E-10         0.00000E+00
    0.30477E-09        -0.38342E-10         0.00000E+00
    0.30472E-09        -0.31623E-10         0.00000E+00
    0.30469E-09        -0.24088E-10         0.00000E+00
    0.30467E-09        -0.16090E-10         0.00000E+00
    0.30467E-09        -0.80182E-11         0.00000E+00
    0.30467E-09        -0.40153E-11         0.00000E+00
    0.61039E-09        -0.90124E-11         0.00000E+00
    0.61032E-09        -0.16264E-10         0.00000E+00
    0.61016E-09        -0.29103E-10         0.00000E+00
    0.60993E-09        -0.38738E-10         0.00000E+00
    0.60968E-09        -0.45428E-10         0.00000E+00
    0.60943E-09        -0.49440E-10         0.00000E+00
    0.60920E-09        -0.51036E-10         0.00000E+00
    0.60899E-09        -0.50470E-10         0.00000E+00
    0.60881E-09        -0.47987E-10         0.00000E+00
    0.60866E-09        -0.43833E-10         0.00000E+00
    0.60853E-09        -0.38266E-10         0.00000E+00
    0.60843E-09        -0.31567E-10         0.00000E+00
    0.60836E-09        -0.24051E-10         0.00000E+00
    0.60831E-09        -0.16070E-10         0.00000E+00
    0.60830E-09        -0.80117E-11         0.00000E+00
    0.60829E-09        -0.40135E-11         0.00000E+00
    0.91325E-09        -0.89324E-11         0.00000E+00
    0.91315E-09        -0.16126E-10         0.00000E+00
    0.91289E-09        -0.28871E-10         0.00000E+00
    0.91255E-09        -0.38452E-10         0.00000E+00
    0.91216E-09        -0.45123E-10         0.00000E+00
    0.91177E-09        -0.49143E-10         0.00000E+00
    0.91140E-09        -0.50763E-10         0.00000E+00
    0.91106E-09        -0.50228E-10         0.00000E+00
    0.91076E-09        -0.47777E-10         0.00000E+00
    0.91049E-09        -0.43655E-10         0.00000E+00
    0.91027E-09        -0.38121E-10         0.00000E+00
    0.91010E-09        -0.31457E-10         0.00000E+00
    0.90997E-09        -0.23977E-10         0.00000E+00
    0.90989E-09        -0.16030E-10         0.00000E+00
    0.90985E-09        -0.79969E-11         0.00000E+00
    0.90984E-09        -0.40088E-11         0.00000E+00
    0.12133E-08        -0.88175E-11         0.00000E+00
    0.12132E-08        -0.15928E-10         0.00000E+00
    0.12128E-08        -0.28535E-10         0.00000E+00
    0.12123E-08        -0.38035E-10         0.00000E+00
    0.12118E-08        -0.44674E-10         0.00000E+00
    0.12113E-08        -0.48699E-10         0.00000E+00
    0.12107E-08        -0.50346E-10         0.00000E+00
    0.12102E-08        -0.49848E-10         0.00000E+00
    0.12098E-08        -0.47440E-10         0.00000E+00
    0.12093E-08        -0.43365E-10         0.00000E+00
    0.12090E-08        -0.37881E-10         0.00000E+00
    0.12087E-08        -0.31272E-10         0.00000E+00
    0.12085E-08        -0.23849E-10         0.00000E+00
    0.12084E-08        -0.15957E-10         0.00000E+00
    0.12083E-08        -0.79680E-11         0.00000E+00
    0.12083E-08        -0.39981E-11         0.00000E+00
    0.15097E-08        -0.86650E-11         0.00000E+00
    0.15095E-08        -0.15664E-10         0.00000E+00
    0.15090E-08        -0.28084E-10         0.00000E+00
    0.15084E-08        -0.37471E-10         0.00000E+00
    0.15077E-08        -0.44059E-10         0.00000E+00
    0.15069E-08        -0.48078E-10         0.00000E+00
    0.15062E-08        -0.49748E-10         0.00000E+00
    0.15055E-08        -0.49291E-10         0.00000E+00
    0.15048E-08        -0.46936E-10         0.00000E+00
    0.15042E-08        -0.42922E-10         0.00000E+00
    0.15037E-08        -0.37511E-10         0.00000E+00
    0.15033E-08        -0.30982E-10         0.00000E+00
    0.15030E-08        -0.23645E-10         0.00000E+00
    0.15028E-08        -0.15835E-10         0.00000E+00
    0.15027E-08        -0.79172E-11         0.00000E+00
    0.15026E-08        -0.39777E-11         0.00000E+00
    0.18014E-08        -0.84711E-11         0.00000E+00
    0.18012E-08        -0.15325E-10         0.00000E+00
    0.18006E-08        -0.27505E-10         0.00000E+00
    0.17998E-08        -0.36739E-10         0.00000E+00
    0.17989E-08        -0.43248E-10         0.00000E+00
    0.17979E-08        -0.47242E-10         0.00000E+00
    0.17969E-08        -0.48925E-10         0.00000E+00
    0.17959E-08        -0.48509E-10         0.00000E+00
    0.17950E-08        -0.46215E-10         0.00000E+00
    0.17942E-08        -0.42282E-10         0.00000E+00
    0.17935E-08        -0.36969E-10         0.00000E+00
    0.17929E-08        -0.30553E-10         0.00000E+00
    0.17924E-08        -0.23337E-10         0.00000E+00
    0.17921E-08        -0.15648E-10         0.00000E+00
    0.17919E-08        -0.78352E-11         0.00000E+00
    0.17919E-08        -0.39429E-11         0.00000E+00
    0.20876E-08        -0.82313E-11         0.00000E+00
    0.20873E-08        -0.14905E-10         0.00000E+00
    0.20866E-08        -0.26778E-10         0.00000E+00
    0.20856E-08        -0.35810E-10         0.00000E+00
    0.20844E-08        -0.42202E-10         0.00000E+00
    0.20832E-08        -0.46144E-10         0.00000E+00
    0.20819E-08        -0.47824E-10         0.00000E+00
    0.20806E-08        -0.47444E-10         0.00000E+00
    0.20794E-08        -0.45222E-10         0.00000E+00
    0.20782E-08        -0.41393E-10         0.00000E+00
    0.20772E-08        -0.36209E-10         0.00000E+00
    0.20764E-08        -0.29945E-10         0.00000E+00
    0.20758E-08        -0.22895E-10         0.00000E+00
    0.20754E-08        -0.15373E-10         0.00000E+00
    0.20751E-08        -0.77115E-11         0.00000E+00
    0.20751E-08        -0.38885E-11         0.00000E+00
    0.23673E-08        -0.79400E-11         0.00000E+00
    0.23670E-08        -0.14391E-10         0.00000E+00
    0.23661E-08        -0.25883E-10         0.00000E+00
    0.23649E-08        -0.34651E-10         0.00000E+00
    0.23635E-08        -0.40876E-10         0.00000E+00
    0.23619E-08        -0.44729E-10         0.00000E+00
    0.23602E-08        -0.46385E-10         0.00000E+00
    0.23586E-08        -0.46038E-10         0.00000E+00
    0.23570E-08        -0.43899E-10         0.00000E+00
    0.23555E-08        -0.40198E-10         0.00000E+00
    0.23542E-08        -0.35183E-10         0.00000E+00
    0.23531E-08        -0.29119E-10         0.00000E+00
    0.23522E-08        -0.22288E-10         0.00000E+00
    0.23517E-08        -0.14989E-10         0.00000E+00
    0.23513E-08        -0.75351E-11         0.00000E+00
    0.23512E-08        -0.38090E-11         0.00000E+00
    0.26397E-08        -0.75912E-11         0.00000E+00
    0.26393E-08        -0.13771E-10         0.00000E+00
    0.26383E-08        -0.24792E-10         0.00000E+00
    0.26369E-08        -0.33222E-10         0.00000E+00
    0.26351E-08        -0.39220E-10         0.00000E+00
    0.26331E-08        -0.42939E-10         0.00000E+00
    0.26310E-08        -0.44545E-10         0.00000E+00
    0.26289E-08        -0.44225E-10         0.00000E+00
    0.26269E-08        -0.42183E-10         0.00000E+00
    0.26250E-08        -0.38642E-10         0.00000E+00
    0.26233E-08        -0.33841E-10         0.00000E+00
    0.26219E-08        -0.28033E-10         0.00000E+00
    0.26208E-08        -0.21485E-10         0.00000E+00
    0.26201E-08        -0.14475E-10         0.00000E+00
    0.26196E-08        -0.72949E-11         0.00000E+00
    0.26195E-08        -0.36988E-11         0.00000E+00
    0.29040E-08        -0.71772E-11         0.00000E+00
    0.29035E-08        -0.13029E-10         0.00000E+00
    0.29023E-08        -0.23476E-10         0.00000E+00
    0.29006E-08        -0.31479E-10         0.00000E+00
    0.28984E-08        -0.37178E-10         0.00000E+00
    0.28960E-08        -0.40712E-10         0.00000E+00
    0.28934E-08        -0.42241E-10         0.00000E+00
    0.28908E-08        -0.41943E-10         0.00000E+00
    0.28883E-08        -0.40015E-10         0.00000E+00
    0.28859E-08        -0.36671E-10         0.00000E+00
    0.28838E-08        -0.32136E-10         0.00000E+00
    0.28821E-08        -0.26649E-10         0.00000E+00
    0.28807E-08        -0.20455E-10         0.00000E+00
    0.28798E-08        -0.13811E-10         0.00000E+00
    0.28792E-08        -0.69807E-11         0.00000E+00
    0.28790E-08        -0.35528E-11         0.00000E+00
    0.31593E-08        -0.66907E-11         0.00000E+00
    0.31587E-08        -0.12151E-10         0.00000E+00
    0.31573E-08        -0.21903E-10         0.00000E+00
    0.31552E-08        -0.29377E-10         0.00000E+00
    0.31526E-08        -0.34694E-10         0.00000E+00
    0.31497E-08        -0.37988E-10         0.00000E+00
    0.31466E-08        -0.39409E-10         0.00000E+00
    0.31434E-08        -0.39130E-10         0.00000E+00
    0.31403E-08        -0.37338E-10         0.00000E+00
    0.31375E-08        -0.34234E-10         0.00000E+00
    0.31349E-08        -0.30026E-10         0.00000E+00
    0.31328E-08        -0.24930E-10         0.00000E+00
    0.31311E-08        -0.19171E-10         0.00000E+00
    0.31299E-08        -0.12977E-10         0.00000E+00
    0.31292E-08        -0.65834E-11         0.00000E+00
    0.31290E-08        -0.33663E-11         0.00000E+00
    0.34047E-08        -0.61228E-11         0.00000E+00
    0.34041E-08        -0.11119E-10         0.00000E+00
    0.34024E-08        -0.20040E-10         0.00000E+00
    0.34000E-08        -0.26868E-10         0.00000E+00
    0.33969E-08        -0.31715E-10         0.00000E+00
    0.33934E-08        -0.34708E-10         0.00000E+00
    0.33897E-08        -0.35993E-10         0.00000E+00
    0.33859E-08        -0.35733E-10         0.00000E+00
    0.33822E-08        -0.34104E-10         0.00000E+00
    0.33788E-08        -0.31288E-10         0.00000E+00
    0.33758E-08        -0.27473E-10         0.00000E+00
    0.33732E-08        -0.22850E-10         0.00000E+00
    0.33712E-08        -0.17613E-10         0.00000E+00
    0.33698E-08        -0.11961E-10         0.00000E+00
    0.33690E-08        -0.60958E-11         0.00000E+00
    0.33687E-08        -0.31358E-11         0.00000E+00
    0.36396E-08        -0.54638E-11         0.00000E+00
    0.36388E-08        -0.99150E-11         0.00000E+00
    0.36369E-08        -0.17853E-10         0.00000E+00
    0.36341E-08        -0.23910E-10         0.00000E+00
    0.36305E-08        -0.28191E-10         0.00000E+00
    0.36264E-08        -0.30821E-10         0.00000E+00
    0.36220E-08        -0.31942E-10         0.00000E+00
    0.36176E-08        -0.31706E-10         0.00000E+00
    0.36133E-08        -0.30272E-10         0.00000E+00
    0.36093E-08        -0.27800E-10         0.00000E+00
    0.36057E-08        -0.24452E-10         0.00000E+00
    0.36027E-08        -0.20387E-10         0.00000E+00
    0.36004E-08        -0.15767E-10         0.00000E+00
    0.35987E-08        -0.10753E-10         0.00000E+00
    0.35977E-08        -0.55136E-11         0.00000E+00
    0.35974E-08        -0.28591E-11         0.00000E+00
    0.38631E-08        -0.47040E-11         0.00000E+00
    0.38623E-08        -0.85211E-11         0.00000E+00
    0.38601E-08        -0.15312E-10         0.00000E+00
    0.38568E-08        -0.20462E-10         0.00000E+00
    0.38526E-08        -0.24080E-10         0.00000E+00
    0.38479E-08        -0.26288E-10         0.00000E+00
    0.38429E-08        -0.27222E-10         0.00000E+00
    0.38377E-08        -0.27020E-10         0.00000E+00
    0.38328E-08        -0.25819E-10         0.00000E+00
    0.38282E-08        -0.23753E-10         0.00000E+00
    0.38241E-08        -0.20951E-10         0.00000E+00
    0.38207E-08        -0.17534E-10         0.00000E+00
    0.38180E-08        -0.13626E-10         0.00000E+00
    0.38161E-08        -0.93501E-11         0.00000E+00
    0.38150E-08        -0.48354E-11         0.00000E+00
    0.38146E-08        -0.25352E-11         0.00000E+00
    0.40746E-08        -0.38335E-11         0.00000E+00
    0.40736E-08        -0.69209E-11         0.00000E+00
    0.40711E-08        -0.12389E-10         0.00000E+00
    0.40674E-08        -0.16497E-10         0.00000E+00
    0.40626E-08        -0.19354E-10         0.00000E+00
    0.40573E-08        -0.21084E-10         0.00000E+00
    0.40515E-08        -0.21813E-10         0.00000E+00
    0.40457E-08        -0.21661E-10         0.00000E+00
    0.40401E-08        -0.20739E-10         0.00000E+00
    0.40350E-08        -0.19147E-10         0.00000E+00
    0.40304E-08        -0.16972E-10         0.00000E+00
    0.40265E-08        -0.14297E-10         0.00000E+00
    0.40235E-08        -0.11199E-10         0.00000E+00
    0.40214E-08        -0.77583E-11         0.00000E+00
    0.40201E-08        -0.40639E-11         0.00000E+00
    0.40197E-08        -0.21651E-11         0.00000E+00
    0.42734E-08        -0.28446E-11         0.00000E+00
    0.42723E-08        -0.51018E-11         0.00000E+00
    0.42695E-08        -0.90688E-11         0.00000E+00
    0.42652E-08        -0.11997E-10         0.00000E+00
    0.42599E-08        -0.14003E-10         0.00000E+00
    0.42539E-08        -0.15207E-10         0.00000E+00
    0.42475E-08        -0.15722E-10         0.00000E+00
    0.42411E-08        -0.15644E-10         0.00000E+00
    0.42348E-08        -0.15052E-10         0.00000E+00
    0.42291E-08        -0.14003E-10         0.00000E+00
    0.42241E-08        -0.12541E-10         0.00000E+00
    0.42198E-08        -0.10699E-10         0.00000E+00
    0.42165E-08        -0.85050E-11         0.00000E+00
    0.42142E-08        -0.59920E-11         0.00000E+00
    0.42128E-08        -0.32065E-11         0.00000E+00
    0.42124E-08        -0.17524E-11         0.00000E+00
    0.44587E-08        -0.17322E-11         0.00000E+00
    0.44576E-08        -0.30577E-11         0.00000E+00
    0.44544E-08        -0.53452E-11         0.00000E+00
    0.44497E-08        -0.69663E-11         0.00000E+00
    0.44438E-08        -0.80414E-11         0.00000E+00
    0.44372E-08        -0.86829E-11         0.00000E+00
    0.44302E-08        -0.89841E-11         0.00000E+00
    0.44232E-08        -0.90119E-11         0.00000E+00
    0.44164E-08        -0.88044E-11         0.00000E+00
    0.44102E-08        -0.83731E-11         0.00000E+00
    0.44047E-08        -0.77078E-11         0.00000E+00
    0.44002E-08        -0.67857E-11         0.00000E+00
    0.43967E-08        -0.55814E-11         0.00000E+00
    0.43942E-08        -0.40775E-11         0.00000E+00
    0.43927E-08        -0.22763E-11         0.00000E+00
    0.43922E-08        -0.13031E-11         0.00000E+00
    0.46301E-08        -0.49649E-12         0.00000E+00
    0.46288E-08        -0.79148E-12         0.00000E+00
    0.46254E-08        -0.12321E-11         0.00000E+00
    0.46202E-08        -0.14349E-11         0.00000E+00
    0.46139E-08        -0.15161E-11         0.00000E+00
    0.46067E-08        -0.15731E-11         0.00000E+00
    0.45992E-08        -0.16733E-11         0.00000E+00
    0.45917E-08        -0.18465E-11         0.00000E+00
    0.45845E-08        -0.20840E-11         0.00000E+00
    0.45779E-08        -0.23420E-11         0.00000E+00
    0.45721E-08        -0.25507E-11         0.00000E+00
    0.45674E-08        -0.26260E-11         0.00000E+00
    0.45637E-08        -0.24836E-11         0.00000E+00
    0.45611E-08        -0.20534E-11         0.00000E+00
    0.45595E-08        -0.12923E-11         0.00000E+00
    0.45590E-08        -0.82577E-12         0.00000E+00
    0.47868E-08         0.85665E-12         0.00000E+00
    0.47854E-08         0.16817E-11         0.00000E+00
    0.47817E-08         0.32338E-11         0.00000E+00
    0.47762E-08         0.45349E-11         0.00000E+00
    0.47695E-08         0.54852E-11         0.00000E+00
    0.47619E-08         0.60130E-11         0.00000E+00
    0.47540E-08         0.60862E-11         0.00000E+00
    0.47462E-08         0.57200E-11         0.00000E+00
    0.47387E-08         0.49776E-11         0.00000E+00
    0.47319E-08         0.39645E-11         0.00000E+00
    0.47260E-08         0.28165E-11         0.00000E+00
    0.47211E-08         0.16837E-11         0.00000E+00
    0.47174E-08         0.71268E-12         0.00000E+00
    0.47147E-08         0.28642E-13         0.00000E+00
    0.47132E-08        -0.28005E-12         0.00000E+00
    0.47127E-08        -0.33230E-12         0.00000E+00
    0.49283E-08         0.23137E-11         0.00000E+00
    0.49268E-08         0.43320E-11         0.00000E+00
    0.49229E-08         0.79870E-11         0.00000E+00
    0.49172E-08         0.10839E-10         0.00000E+00
    0.49102E-08         0.12823E-10         0.00000E+00
    0.49024E-08         0.13907E-10         0.00000E+00
    0.48943E-08         0.14108E-10         0.00000E+00
    0.48864E-08         0.13495E-10         0.00000E+00
    0.48789E-08         0.12192E-10         0.00000E+00
    0.48721E-08         0.10373E-10         0.00000E+00
    0.48663E-08         0.82415E-11         0.00000E+00
    0.48614E-08         0.60177E-11         0.00000E+00
    0.48577E-08         0.39114E-11         0.00000E+00
    0.48552E-08         0.21040E-11         0.00000E+00
    0.48536E-08         0.72880E-12         0.00000E+00
    0.48531E-08         0.16244E-12         0.00000E+00
    0.50539E-08         0.38525E-11         0.00000E+00
    0.50524E-08         0.71121E-11         0.00000E+00
    0.50483E-08         0.12927E-10         0.00000E+00
    0.50425E-08         0.17322E-10         0.00000E+00
    0.50355E-08         0.20292E-10         0.00000E+00
    0.50278E-08         0.21868E-10         0.00000E+00
    0.50199E-08         0.22128E-10         0.00000E+00
    0.50122E-08         0.21210E-10         0.00000E+00
    0.50049E-08         0.19305E-10         0.00000E+00
    0.49984E-08         0.16653E-10         0.00000E+00
    0.49929E-08         0.13530E-10         0.00000E+00
    0.49883E-08         0.10219E-10         0.00000E+00
    0.49848E-08         0.69958E-11         0.00000E+00
    0.49824E-08         0.40955E-11         0.00000E+00
    0.49810E-08         0.16971E-11         0.00000E+00
    0.49805E-08         0.64155E-12         0.00000E+00
    0.51630E-08         0.54404E-11         0.00000E+00
    0.51615E-08         0.99535E-11         0.00000E+00
    0.51574E-08         0.17911E-10         0.00000E+00
    0.51517E-08         0.23767E-10         0.00000E+00
    0.51450E-08         0.27610E-10         0.00000E+00
    0.51377E-08         0.29563E-10         0.00000E+00
    0.51304E-08         0.29790E-10         0.00000E+00
    0.51233E-08         0.28509E-10         0.00000E+00
    0.51167E-08         0.25982E-10         0.00000E+00
    0.51109E-08         0.22515E-10         0.00000E+00
    0.51059E-08         0.18440E-10         0.00000E+00
    0.51018E-08         0.14102E-10         0.00000E+00
    0.50987E-08         0.98299E-11         0.00000E+00
    0.50966E-08         0.59154E-11         0.00000E+00
    0.50953E-08         0.25832E-11         0.00000E+00
    0.50949E-08         0.10859E-11         0.00000E+00
    0.52550E-08         0.70326E-11         0.00000E+00
    0.52534E-08         0.12761E-10         0.00000E+00
    0.52496E-08         0.22742E-10         0.00000E+00
    0.52443E-08         0.29878E-10         0.00000E+00
    0.52382E-08         0.34397E-10         0.00000E+00
    0.52319E-08         0.36552E-10         0.00000E+00
    0.52257E-08         0.36627E-10         0.00000E+00
    0.52198E-08         0.34933E-10         0.00000E+00
    0.52144E-08         0.31805E-10         0.00000E+00
    0.52096E-08         0.27599E-10         0.00000E+00
    0.52055E-08         0.22685E-10         0.00000E+00
    0.52022E-08         0.17446E-10         0.00000E+00
    0.51997E-08         0.12260E-10         0.00000E+00
    0.51979E-08         0.74668E-11         0.00000E+00
    0.51969E-08         0.33420E-11         0.00000E+00
    0.51966E-08         0.14757E-11         0.00000E+00
    0.53291E-08         0.85676E-11         0.00000E+00
    0.53276E-08         0.15405E-10         0.00000E+00
    0.53242E-08         0.27152E-10         0.00000E+00
    0.53198E-08         0.35256E-10         0.00000E+00
    0.53149E-08         0.40149E-10         0.00000E+00
    0.53101E-08         0.42268E-10         0.00000E+00
    0.53056E-08         0.42050E-10         0.00000E+00
    0.53015E-08         0.39916E-10         0.00000E+00
    0.52979E-08         0.36263E-10         0.00000E+00
    0.52947E-08         0.31473E-10         0.00000E+00
    0.52919E-08         0.25923E-10         0.00000E+00
    0.52897E-08         0.20004E-10         0.00000E+00
    0.52880E-08         0.14115E-10         0.00000E+00
    0.52868E-08         0.86453E-11         0.00000E+00
    0.52861E-08         0.39260E-11         0.00000E+00
    0.52859E-08         0.17904E-11         0.00000E+00
    0.53845E-08         0.99598E-11         0.00000E+00
    0.53833E-08         0.17704E-10         0.00000E+00
    0.53806E-08         0.30767E-10         0.00000E+00
    0.53776E-08         0.39356E-10         0.00000E+00
    0.53747E-08         0.44203E-10         0.00000E+00
    0.53722E-08         0.45994E-10         0.00000E+00
    0.53702E-08         0.45347E-10         0.00000E+00
    0.53687E-08         0.42789E-10         0.00000E+00
    0.53675E-08         0.38761E-10         0.00000E+00
    0.53665E-08         0.33637E-10         0.00000E+00
    0.53656E-08         0.27762E-10         0.00000E+00
    0.53647E-08         0.21488E-10         0.00000E+00
    0.53641E-08         0.15207E-10         0.00000E+00
    0.53636E-08         0.93413E-11         0.00000E+00
    0.53634E-08         0.42890E-11         0.00000E+00
    0.53632E-08         0.20123E-11         0.00000E+00
    0.54203E-08         0.11083E-10         0.00000E+00
    0.54194E-08         0.19385E-10         0.00000E+00
    0.54181E-08         0.33041E-10         0.00000E+00
    0.54173E-08         0.41419E-10         0.00000E+00
    0.54174E-08         0.45690E-10         0.00000E+00
    0.54183E-08         0.46850E-10         0.00000E+00
    0.54198E-08         0.45691E-10         0.00000E+00
    0.54216E-08         0.42810E-10         0.00000E+00
    0.54235E-08         0.38649E-10         0.00000E+00
    0.54253E-08         0.33538E-10         0.00000E+00
    0.54267E-08         0.27754E-10         0.00000E+00
    0.54277E-08         0.21572E-10         0.00000E+00
    0.54284E-08         0.15325E-10         0.00000E+00
    0.54288E-08         0.94372E-11         0.00000E+00
    0.54290E-08         0.43829E-11         0.00000E+00
    0.54290E-08         0.21235E-11         0.00000E+00
    0.54352E-08         0.11730E-10         0.00000E+00
    0.54351E-08         0.20010E-10         0.00000E+00
    0.54361E-08         0.33124E-10         0.00000E+00
    0.54388E-08         0.40354E-10         0.00000E+00
    0.54432E-08         0.43479E-10         0.00000E+00
    0.54486E-08         0.43795E-10         0.00000E+00
    0.54546E-08         0.42178E-10         0.00000E+00
    0.54606E-08         0.39206E-10         0.00000E+00
    0.54663E-08         0.35260E-10         0.00000E+00
    0.54714E-08         0.30598E-10         0.00000E+00
    0.54757E-08         0.25410E-10         0.00000E+00
    0.54791E-08         0.19871E-10         0.00000E+00
    0.54814E-08         0.14212E-10         0.00000E+00
    0.54829E-08         0.88004E-11         0.00000E+00
    0.54837E-08         0.41644E-11         0.00000E+00
    0.54839E-08         0.21166E-11         0.00000E+00
    0.54275E-08         0.11499E-10         0.00000E+00
    0.54288E-08         0.18764E-10         0.00000E+00
    0.54340E-08         0.29590E-10         0.00000E+00
    0.54424E-08         0.34577E-10         0.00000E+00
    0.54527E-08         0.36160E-10         0.00000E+00
    0.54640E-08         0.35682E-10         0.00000E+00
    0.54754E-08         0.33897E-10         0.00000E+00
    0.54863E-08         0.31242E-10         0.00000E+00
    0.54964E-08         0.27981E-10         0.00000E+00
    0.55054E-08         0.24278E-10         0.00000E+00
    0.55130E-08         0.20243E-10         0.00000E+00
    0.55191E-08         0.15957E-10         0.00000E+00
    0.55236E-08         0.11533E-10         0.00000E+00
    0.55265E-08         0.72441E-11         0.00000E+00
    0.55281E-08         0.35870E-11         0.00000E+00
    0.55283E-08         0.19899E-11         0.00000E+00
    0.53932E-08         0.94643E-11         0.00000E+00
    0.53991E-08         0.13861E-10         0.00000E+00
    0.54123E-08         0.19879E-10         0.00000E+00
    0.54291E-08         0.21923E-10         0.00000E+00
    0.54472E-08         0.22146E-10         0.00000E+00
    0.54655E-08         0.21385E-10         0.00000E+00
    0.54831E-08         0.20034E-10         0.00000E+00
    0.54996E-08         0.18307E-10         0.00000E+00
    0.55146E-08         0.16324E-10         0.00000E+00
    0.55277E-08         0.14156E-10         0.00000E+00
    0.55390E-08         0.11845E-10         0.00000E+00
    0.55481E-08         0.94175E-11         0.00000E+00
    0.55550E-08         0.69017E-11         0.00000E+00
    0.55598E-08         0.43937E-11         0.00000E+00
    0.55625E-08         0.25511E-11         0.00000E+00
    0.55635E-08         0.19412E-11         0.00000E+00
    0.53686E-08         0.00000E+00         0.00000E+00
    0.53782E-08         0.00000E+00         0.00000E+00
    0.53967E-08        -0.16569E-22         0.00000E+00
    0.54184E-08         0.53048E-27         0.00000E+00
    0.54409E-08         0.20712E-22         0.00000E+00
    0.54630E-08         0.00000E+00         0.00000E+00
    0.54839E-08         0.00000E+00         0.00000E+00
    0.55033E-08        -0.16571E-22         0.00000E+00
    0.55207E-08        -0.16571E-22         0.00000E+00
    0.55361E-08         0.16571E-22         0.00000E+00
    0.55492E-08         0.20714E-22         0.00000E+00
    0.55599E-08        -0.20715E-22         0.00000E+00
    0.55681E-08        -0.41428E-23         0.00000E+00
    0.55738E-08         0.20715E-22         0.00000E+00
    0.55771E-08         0.82861E-23         0.00000E+00
    0.55791E-08         0.00000E+00         0.00000E+00
CELL_DATA        450
TENSORS stressef double 
   -0.89881E+07         0.25365E+04         0.00000E+00
    0.25365E+04        -0.34814E+08         0.00000E+00
    0.00000E+00         0.00000E+00        -0.11406E+08
 
   -0.89246E+07         0.78147E+04         0.00000E+00
    0.78147E+04        -0.34806E+08         0.00000E+00
    0.00000E+00         0.00000E+00        -0.11475E+08
 
   -0.88780E+07         0.13026E+05         0.00000E+00
    0.13026E+05        -0.34790E+08         0.00000E+00
    0.00000E+00         0.00000E+00        -0.11510E+08
 
   -0.88532E+07         0.17740E+05         0.00000E+00
    0.17740E+05        -0.34765E+08         0.00000E+00
    0.00000E+00         0.00000E+00        -0.11505E+08
 
   -0.88572E+07         0.21527E+05         0.00000E+00
    0.21527E+05        -0.34732E+08         0.00000E+00
    0.00000E+00         0.00000E+00        -0.11451E+08
 
   -0.88909E+07         0.24221E+05         0.00000E+00
    0.24221E+05        -0.34694E+08         0.00000E+00
    0.00000E+00         0.00000E+00        -0.11351E+08
 
   -0.89530E+07         0.26149E+05         0.00000E+00
    0.26149E+05        -0.34652E+08         0.00000E+00
    0.00000E+00         0.00000E+00        -0.11211E+08
 
   -0.90376E+07         0.27565E+05         0.00000E+00
    0.27565E+05        -0.34606E+08         0.00000E+00
    0.00000E+00         0.00000E+00        -0.11041E+08
 
   -0.91374E+07         0.28846E+05         0.00000E+00
    0.28846E+05        -0.34557E+08         0.00000E+00
    0.00000E+00         0.00000E+00        -0.10851E+08
 
   -0.92436E+07         0.30295E+05         0.00000E+00
    0.30295E+05        -0.34504E+08         0.00000E+00
    0.00000E+00         0.00000E+00        -0.10654E+08
 
   -0.93488E+07         0.32077E+05         0.00000E+00
    0.32077E+05        -0.34448E+08         0.00000E+00
    0.00000E+00         0.00000E+00        -0.10456E+08
 
   -0.94468E+07         0.34235E+05         0.00000E+00
    0.34235E+05        -0.34386E+08         0.00000E+00
    0.00000E+00         0.00000E+00        -0.10264E+08
 
   -0.95327E+07         0.36701E+05         0.00000E+00
    0.36701E+05        -0.34319E+08         0.00000E+00
    0.00000E+00         0.00000E+00        -0.10081E+08
 
   -0.96028E+07         0.39368E+05         0.00000E+00
    0.39368E+05        -0.34245E+08         0.00000E+00
    0.00000E+00         0.00000E+00        -0.99091E+07
 
   -0.96537E+07         0.42103E+05         0.00000E+00
    0.42103E+05        -0.34165E+08         0.00000E+00
    0.00000E+00         0.00000E+00        -0.97504E+07
 
   -0.90207E+07         0.75364E+04         0.00000E+00
    0.75364E+04        -0.34857E+08         0.00000E+00
    0.00000E+00         0.00000E+00        -0.11429E+08
 
   -0.89568E+07         0.23330E+05         0.00000E+00
    0.23330E+05        -0.34849E+08         0.00000E+00
    0.00000E+00         0.00000E+00        -0.11498E+08
 
   -0.89107E+07         0.38939E+05         0.00000E+00
    0.38939E+05        -0.34833E+08         0.00000E+00
    0.00000E+00         0.00000E+00        -0.11533E+08
 
   -0.88875E+07         0.52831E+05         0.00000E+00
    0.52831E+05        -0.34809E+08         0.00000E+00
    0.00000E+00         0.00000E+00        -0.11527E+08
 
   -0.88936E+07         0.63948E+05         0.00000E+00
    0.63948E+05        -0.34777E+08         0.00000E+00
    0.00000E+00         0.00000E+00        -0.11472E+08
 
   -0.89291E+07         0.71841E+05         0.00000E+00
    0.71841E+05        -0.34741E+08         0.00000E+00
    0.00000E+00         0.00000E+00        -0.11373E+08
 
   -0.89926E+07         0.77544E+05         0.00000E+00
    0.77544E+05        -0.34700E+08         0.00000E+00
    0.00000E+00         0.00000E+00        -0.11233E+08
 
   -0.90778E+07         0.81816E+05         0.00000E+00
    0.81816E+05        -0.34656E+08         0.00000E+00
    0.00000E+00         0.00000E+00        -0.11065E+08
 
   -0.91775E+07         0.85768E+05         0.00000E+00
    0.85768E+05        -0.34608E+08         0.00000E+00
    0.00000E+00         0.00000E+00        -0.10878E+08
 
   -0.92832E+07         0.90272E+05         0.00000E+00
    0.90272E+05        -0.34557E+08         0.00000E+00
    0.00000E+00         0.00000E+00        -0.10684E+08
 
   -0.93876E+07         0.95769E+05         0.00000E+00
    0.95769E+05        -0.34502E+08         0.00000E+00
    0.00000E+00         0.00000E+00        -0.10489E+08
 
   -0.94849E+07         0.10237E+06         0.00000E+00
    0.10237E+06        -0.34441E+08         0.00000E+00
    0.00000E+00         0.00000E+00        -0.10299E+08
 
   -0.95704E+07         0.10987E+06         0.00000E+00
    0.10987E+06        -0.34374E+08         0.00000E+00
    0.00000E+00         0.00000E+00        -0.10117E+08
 
   -0.96401E+07         0.11796E+06         0.00000E+00
    0.11796E+06        -0.34301E+08         0.00000E+00
    0.00000E+00         0.00000E+00        -0.99460E+07
 
   -0.96911E+07         0.12625E+06         0.00000E+00
    0.12625E+06        -0.34221E+08         0.00000E+00
    0.00000E+00         0.00000E+00        -0.97878E+07
 
   -0.90856E+07         0.12509E+05         0.00000E+00
    0.12509E+05        -0.34942E+08         0.00000E+00
    0.00000E+00         0.00000E+00        -0.11474E+08
 
   -0.90214E+07         0.38660E+05         0.00000E+00
    0.38660E+05        -0.34935E+08         0.00000E+00
    0.00000E+00         0.00000E+00        -0.11544E+08
 
   -0.89763E+07         0.64133E+05         0.00000E+00
    0.64133E+05        -0.34919E+08         0.00000E+00
    0.00000E+00         0.00000E+00        -0.11579E+08
 
   -0.89563E+07         0.86660E+05         0.00000E+00
    0.86660E+05        -0.34896E+08         0.00000E+00
    0.00000E+00         0.00000E+00        -0.11570E+08
 
   -0.89668E+07         0.10438E+06         0.00000E+00
    0.10438E+06        -0.34867E+08         0.00000E+00
    0.00000E+00         0.00000E+00        -0.11514E+08
 
   -0.90058E+07         0.11702E+06         0.00000E+00
    0.11702E+06        -0.34833E+08         0.00000E+00
    0.00000E+00         0.00000E+00        -0.11415E+08
 
   -0.90716E+07         0.12626E+06         0.00000E+00
    0.12626E+06        -0.34796E+08         0.00000E+00
    0.00000E+00         0.00000E+00        -0.11278E+08
 
   -0.91579E+07         0.13349E+06         0.00000E+00
    0.13349E+06        -0.34755E+08         0.00000E+00
    0.00000E+00         0.00000E+00        -0.11114E+08
 
   -0.92573E+07         0.14046E+06         0.00000E+00
    0.14046E+06        -0.34711E+08         0.00000E+00
    0.00000E+00         0.00000E+00        -0.10933E+08
 
   -0.93619E+07         0.14847E+06         0.00000E+00
    0.14847E+06        -0.34662E+08         0.00000E+00
    0.00000E+00         0.00000E+00        -0.10743E+08
 
   -0.94649E+07         0.15811E+06         0.00000E+00
    0.15811E+06        -0.34609E+08         0.00000E+00
    0.00000E+00         0.00000E+00        -0.10553E+08
 
   -0.95608E+07         0.16950E+06         0.00000E+00
    0.16950E+06        -0.34550E+08         0.00000E+00
    0.00000E+00         0.00000E+00        -0.10367E+08
 
   -0.96453E+07         0.18235E+06         0.00000E+00
    0.18235E+06        -0.34484E+08         0.00000E+00
    0.00000E+00         0.00000E+00        -0.10189E+08
 
   -0.97144E+07         0.19614E+06         0.00000E+00
    0.19614E+06        -0.34412E+08         0.00000E+00
    0.00000E+00         0.00000E+00        -0.10020E+08
 
   -0.97655E+07         0.21021E+06         0.00000E+00
    0.21021E+06        -0.34332E+08         0.00000E+00
    0.00000E+00         0.00000E+00        -0.98622E+07
 
   -0.91828E+07         0.17488E+05         0.00000E+00
    0.17488E+05        -0.35070E+08         0.00000E+00
    0.00000E+00         0.00000E+00        -0.11542E+08
 
   -0.91183E+07         0.53613E+05         0.00000E+00
    0.53613E+05        -0.35063E+08         0.00000E+00
    0.00000E+00         0.00000E+00        -0.11612E+08
 
   -0.90755E+07         0.88176E+05         0.00000E+00
    0.88176E+05        -0.35048E+08         0.00000E+00
    0.00000E+00         0.00000E+00        -0.11645E+08
 
   -0.90607E+07         0.11817E+06         0.00000E+00
    0.11817E+06        -0.35027E+08         0.00000E+00
    0.00000E+00         0.00000E+00        -0.11634E+08
 
   -0.90768E+07         0.14131E+06         0.00000E+00
    0.14131E+06        -0.35002E+08         0.00000E+00
    0.00000E+00         0.00000E+00        -0.11576E+08
 
   -0.91210E+07         0.15813E+06         0.00000E+00
    0.15813E+06        -0.34973E+08         0.00000E+00
    0.00000E+00         0.00000E+00        -0.11478E+08
 
   -0.91900E+07         0.17064E+06         0.00000E+00
    0.17064E+06        -0.34940E+08         0.00000E+00
    0.00000E+00         0.00000E+00        -0.11346E+08
 
   -0.92773E+07         0.18111E+06         0.00000E+00
    0.18111E+06        -0.34905E+08         0.00000E+00
    0.00000E+00         0.00000E+00        -0.11188E+08
 
   -0.93761E+07         0.19168E+06         0.00000E+00
    0.19168E+06        -0.34865E+08         0.00000E+00
    0.00000E+00         0.00000E+00        -0.11015E+08
 
   -0.94789E+07         0.20386E+06         0.00000E+00
    0.20386E+06        -0.34820E+08         0.00000E+00
    0.00000E+00         0.00000E+00        -0.10833E+08
 
   -0.95798E+07         0.21829E+06         0.00000E+00
    0.21829E+06        -0.34769E+08         0.00000E+00
    0.00000E+00         0.00000E+00        -0.10650E+08
 
   -0.96738E+07         0.23502E+06         0.00000E+00
    0.23502E+06        -0.34712E+08         0.00000E+00
    0.00000E+00         0.00000E+00        -0.10470E+08
 
   -0.97567E+07         0.25369E+06         0.00000E+00
    0.25369E+06        -0.34648E+08         0.00000E+00
    0.00000E+00         0.00000E+00        -0.10295E+08
 
   -0.98252E+07         0.27358E+06         0.00000E+00
    0.27358E+06        -0.34576E+08         0.00000E+00
    0.00000E+00         0.00000E+00        -0.10129E+08
 
   -0.98764E+07         0.29372E+06         0.00000E+00
    0.29372E+06        -0.34498E+08         0.00000E+00
    0.00000E+00         0.00000E+00        -0.99731E+07
 
   -0.93122E+07         0.22313E+05         0.00000E+00
    0.22313E+05        -0.35240E+08         0.00000E+00
    0.00000E+00         0.00000E+00        -0.11631E+08
 
   -0.92479E+07         0.67813E+05         0.00000E+00
    0.67813E+05        -0.35234E+08         0.00000E+00
    0.00000E+00         0.00000E+00        -0.11702E+08
 
   -0.92087E+07         0.11046E+06         0.00000E+00
    0.11046E+06        -0.35221E+08         0.00000E+00
    0.00000E+00         0.00000E+00        -0.11734E+08
 
   -0.92016E+07         0.14621E+06         0.00000E+00
    0.14621E+06        -0.35203E+08         0.00000E+00
    0.00000E+00         0.00000E+00        -0.11718E+08
 
   -0.92245E+07         0.17336E+06         0.00000E+00
    0.17336E+06        -0.35182E+08         0.00000E+00
    0.00000E+00         0.00000E+00        -0.11659E+08
 
   -0.92750E+07         0.19362E+06         0.00000E+00
    0.19362E+06        -0.35159E+08         0.00000E+00
    0.00000E+00         0.00000E+00        -0.11562E+08
 
   -0.93470E+07         0.20929E+06         0.00000E+00
    0.20929E+06        -0.35133E+08         0.00000E+00
    0.00000E+00         0.00000E+00        -0.11436E+08
 
   -0.94351E+07         0.22351E+06         0.00000E+00
    0.22351E+06        -0.35103E+08         0.00000E+00
    0.00000E+00         0.00000E+00        -0.11288E+08
 
   -0.95325E+07         0.23844E+06         0.00000E+00
    0.23844E+06        -0.35068E+08         0.00000E+00
    0.00000E+00         0.00000E+00        -0.11124E+08
 
   -0.96330E+07         0.25560E+06         0.00000E+00
    0.25560E+06        -0.35027E+08         0.00000E+00
    0.00000E+00         0.00000E+00        -0.10952E+08
 
   -0.97312E+07         0.27558E+06         0.00000E+00
    0.27558E+06        -0.34980E+08         0.00000E+00
    0.00000E+00         0.00000E+00        -0.10778E+08
 
   -0.98227E+07         0.29838E+06         0.00000E+00
    0.29838E+06        -0.34926E+08         0.00000E+00
    0.00000E+00         0.00000E+00        -0.10605E+08
 
   -0.99039E+07         0.32344E+06         0.00000E+00
    0.32344E+06        -0.34864E+08         0.00000E+00
    0.00000E+00         0.00000E+00        -0.10436E+08
 
   -0.99716E+07         0.34987E+06         0.00000E+00
    0.34987E+06        -0.34794E+08         0.00000E+00
    0.00000E+00         0.00000E+00        -0.10274E+08
 
   -0.10023E+08         0.37648E+06         0.00000E+00
    0.37648E+06        -0.34717E+08         0.00000E+00
    0.00000E+00         0.00000E+00        -0.10120E+08
 
   -0.94736E+07         0.26899E+05         0.00000E+00
    0.26899E+05        -0.35452E+08         0.00000E+00
    0.00000E+00         0.00000E+00        -0.11743E+08
 
   -0.94105E+07         0.80837E+05         0.00000E+00
    0.80837E+05        -0.35446E+08         0.00000E+00
    0.00000E+00         0.00000E+00        -0.11814E+08
 
   -0.93780E+07         0.12981E+06         0.00000E+00
    0.12981E+06        -0.35436E+08         0.00000E+00
    0.00000E+00         0.00000E+00        -0.11840E+08
 
   -0.93791E+07         0.16940E+06         0.00000E+00
    0.16940E+06        -0.35423E+08         0.00000E+00
    0.00000E+00         0.00000E+00        -0.11821E+08
 
   -0.94111E+07         0.19934E+06         0.00000E+00
    0.19934E+06        -0.35408E+08         0.00000E+00
    0.00000E+00         0.00000E+00        -0.11760E+08
 
   -0.94675E+07         0.22216E+06         0.00000E+00
    0.22216E+06        -0.35392E+08         0.00000E+00
    0.00000E+00         0.00000E+00        -0.11668E+08
 
   -0.95419E+07         0.24129E+06         0.00000E+00
    0.24129E+06        -0.35373E+08         0.00000E+00
    0.00000E+00         0.00000E+00        -0.11550E+08
 
   -0.96299E+07         0.25988E+06         0.00000E+00
    0.25988E+06        -0.35349E+08         0.00000E+00
    0.00000E+00         0.00000E+00        -0.11412E+08
 
   -0.97253E+07         0.27998E+06         0.00000E+00
    0.27998E+06        -0.35320E+08         0.00000E+00
    0.00000E+00         0.00000E+00        -0.11261E+08
 
   -0.98228E+07         0.30298E+06         0.00000E+00
    0.30298E+06        -0.35285E+08         0.00000E+00
    0.00000E+00         0.00000E+00        -0.11101E+08
 
   -0.99178E+07         0.32937E+06         0.00000E+00
    0.32937E+06        -0.35242E+08         0.00000E+00
    0.00000E+00         0.00000E+00        -0.10937E+08
 
   -0.10006E+08         0.35897E+06         0.00000E+00
    0.35897E+06        -0.35191E+08         0.00000E+00
    0.00000E+00         0.00000E+00        -0.10773E+08
 
   -0.10086E+08         0.39109E+06         0.00000E+00
    0.39109E+06        -0.35132E+08         0.00000E+00
    0.00000E+00         0.00000E+00        -0.10610E+08
 
   -0.10152E+08         0.42463E+06         0.00000E+00
    0.42463E+06        -0.35064E+08         0.00000E+00
    0.00000E+00         0.00000E+00        -0.10453E+08
 
   -0.10204E+08         0.45852E+06         0.00000E+00
    0.45852E+06        -0.34987E+08         0.00000E+00
    0.00000E+00         0.00000E+00        -0.10301E+08
 
   -0.96673E+07         0.31042E+05         0.00000E+00
    0.31042E+05        -0.35705E+08         0.00000E+00
    0.00000E+00         0.00000E+00        -0.11875E+08
 
   -0.96074E+07         0.92035E+05         0.00000E+00
    0.92035E+05        -0.35701E+08         0.00000E+00
    0.00000E+00         0.00000E+00        -0.11944E+08
 
   -0.95836E+07         0.14494E+06         0.00000E+00
    0.14494E+06        -0.35694E+08         0.00000E+00
    0.00000E+00         0.00000E+00        -0.11965E+08
 
   -0.95956E+07         0.18631E+06         0.00000E+00
    0.18631E+06        -0.35687E+08         0.00000E+00
    0.00000E+00         0.00000E+00        -0.11941E+08
 
   -0.96367E+07         0.21771E+06         0.00000E+00
    0.21771E+06        -0.35680E+08         0.00000E+00
    0.00000E+00         0.00000E+00        -0.11881E+08
 
   -0.96977E+07         0.24313E+06         0.00000E+00
    0.24313E+06        -0.35671E+08         0.00000E+00
    0.00000E+00         0.00000E+00        -0.11795E+08
 
   -0.97736E+07         0.26616E+06         0.00000E+00
    0.26616E+06        -0.35659E+08         0.00000E+00
    0.00000E+00         0.00000E+00        -0.11687E+08
 
   -0.98604E+07         0.28969E+06         0.00000E+00
    0.28969E+06        -0.35643E+08         0.00000E+00
    0.00000E+00         0.00000E+00        -0.11562E+08
 
   -0.99529E+07         0.31574E+06         0.00000E+00
    0.31574E+06        -0.35620E+08         0.00000E+00
    0.00000E+00         0.00000E+00        -0.11424E+08
 
   -0.10047E+08         0.34544E+06         0.00000E+00
    0.34544E+06        -0.35590E+08         0.00000E+00
    0.00000E+00         0.00000E+00        -0.11278E+08
 
   -0.10138E+08         0.37908E+06         0.00000E+00
    0.37908E+06        -0.35551E+08         0.00000E+00
    0.00000E+00         0.00000E+00        -0.11126E+08
 
   -0.10224E+08         0.41628E+06         0.00000E+00
    0.41628E+06        -0.35504E+08         0.00000E+00
    0.00000E+00         0.00000E+00        -0.10971E+08
 
   -0.10301E+08         0.45619E+06         0.00000E+00
    0.45619E+06        -0.35448E+08         0.00000E+00
    0.00000E+00         0.00000E+00        -0.10817E+08
 
   -0.10366E+08         0.49774E+06         0.00000E+00
    0.49774E+06        -0.35382E+08         0.00000E+00
    0.00000E+00         0.00000E+00        -0.10664E+08
 
   -0.10419E+08         0.53917E+06         0.00000E+00
    0.53917E+06        -0.35308E+08         0.00000E+00
    0.00000E+00         0.00000E+00        -0.10515E+08
 
   -0.98937E+07         0.34503E+05         0.00000E+00
    0.34503E+05        -0.35999E+08         0.00000E+00
    0.00000E+00         0.00000E+00        -0.12027E+08
 
   -0.98397E+07         0.10027E+06         0.00000E+00
    0.10027E+06        -0.35996E+08         0.00000E+00
    0.00000E+00         0.00000E+00        -0.12091E+08
 
   -0.98277E+07         0.15436E+06         0.00000E+00
    0.15436E+06        -0.35995E+08         0.00000E+00
    0.00000E+00         0.00000E+00        -0.12105E+08
 
   -0.98523E+07         0.19552E+06         0.00000E+00
    0.19552E+06        -0.35995E+08         0.00000E+00
    0.00000E+00         0.00000E+00        -0.12076E+08
 
   -0.99002E+07         0.22800E+06         0.00000E+00
    0.22800E+06        -0.35995E+08         0.00000E+00
    0.00000E+00         0.00000E+00        -0.12020E+08
 
   -0.99645E+07         0.25622E+06         0.00000E+00
    0.25622E+06        -0.35995E+08         0.00000E+00
    0.00000E+00         0.00000E+00        -0.11942E+08
 
   -0.10041E+08         0.28351E+06         0.00000E+00
    0.28351E+06        -0.35990E+08         0.00000E+00
    0.00000E+00         0.00000E+00        -0.11847E+08
 
   -0.10125E+08         0.31257E+06         0.00000E+00
    0.31257E+06        -0.35981E+08         0.00000E+00
    0.00000E+00         0.00000E+00        -0.11736E+08
 
   -0.10214E+08         0.34527E+06         0.00000E+00
    0.34527E+06        -0.35965E+08         0.00000E+00
    0.00000E+00         0.00000E+00        -0.11614E+08
 
   -0.10303E+08         0.38246E+06         0.00000E+00
    0.38246E+06        -0.35940E+08         0.00000E+00
    0.00000E+00         0.00000E+00        -0.11482E+08
 
   -0.10390E+08         0.42416E+06         0.00000E+00
    0.42416E+06        -0.35907E+08         0.00000E+00
    0.00000E+00         0.00000E+00        -0.11343E+08
 
   -0.10472E+08         0.46983E+06         0.00000E+00
    0.46983E+06        -0.35864E+08         0.00000E+00
    0.00000E+00         0.00000E+00        -0.11200E+08
 
   -0.10547E+08         0.51848E+06         0.00000E+00
    0.51848E+06        -0.35812E+08         0.00000E+00
    0.00000E+00         0.00000E+00        -0.11054E+08
 
   -0.10612E+08         0.56850E+06         0.00000E+00
    0.56850E+06        -0.35749E+08         0.00000E+00
    0.00000E+00         0.00000E+00        -0.10907E+08
 
   -0.10665E+08         0.61850E+06         0.00000E+00
    0.61850E+06        -0.35676E+08         0.00000E+00
    0.00000E+00         0.00000E+00        -0.10762E+08
 
   -0.10154E+08         0.36889E+05         0.00000E+00
    0.36889E+05        -0.36332E+08         0.00000E+00
    0.00000E+00         0.00000E+00        -0.12197E+08
 
   -0.10109E+08         0.10411E+06         0.00000E+00
    0.10411E+06        -0.36334E+08         0.00000E+00
    0.00000E+00         0.00000E+00        -0.12254E+08
 
   -0.10113E+08         0.15650E+06         0.00000E+00
    0.15650E+06        -0.36338E+08         0.00000E+00
    0.00000E+00         0.00000E+00        -0.12257E+08
 
   -0.10148E+08         0.19662E+06         0.00000E+00
    0.19662E+06        -0.36345E+08         0.00000E+00
    0.00000E+00         0.00000E+00        -0.12227E+08
 
   -0.10201E+08         0.23016E+06         0.00000E+00
    0.23016E+06        -0.36353E+08         0.00000E+00
    0.00000E+00         0.00000E+00        -0.12176E+08
 
   -0.10267E+08         0.26127E+06         0.00000E+00
    0.26127E+06        -0.36360E+08         0.00000E+00
    0.00000E+00         0.00000E+00        -0.12109E+08
 
   -0.10342E+08         0.29310E+06         0.00000E+00
    0.29310E+06        -0.36364E+08         0.00000E+00
    0.00000E+00         0.00000E+00        -0.12028E+08
 
   -0.10422E+08         0.32822E+06         0.00000E+00
    0.32822E+06        -0.36362E+08         0.00000E+00
    0.00000E+00         0.00000E+00        -0.11934E+08
 
   -0.10506E+08         0.36817E+06         0.00000E+00
    0.36817E+06        -0.36352E+08         0.00000E+00
    0.00000E+00         0.00000E+00        -0.11828E+08
 
   -0.10590E+08         0.41356E+06         0.00000E+00
    0.41356E+06        -0.36334E+08         0.00000E+00
    0.00000E+00         0.00000E+00        -0.11712E+08
 
   -0.10673E+08         0.46419E+06         0.00000E+00
    0.46419E+06        -0.36307E+08         0.00000E+00
    0.00000E+00         0.00000E+00        -0.11588E+08
 
   -0.10751E+08         0.51920E+06         0.00000E+00
    0.51920E+06        -0.36269E+08         0.00000E+00
    0.00000E+00         0.00000E+00        -0.11457E+08
 
   -0.10823E+08         0.57726E+06         0.00000E+00
    0.57726E+06        -0.36220E+08         0.00000E+00
    0.00000E+00         0.00000E+00        -0.11321E+08
 
   -0.10887E+08         0.63686E+06         0.00000E+00
    0.63686E+06        -0.36160E+08         0.00000E+00
    0.00000E+00         0.00000E+00        -0.11180E+08
 
   -0.10942E+08         0.69596E+06         0.00000E+00
    0.69596E+06        -0.36090E+08         0.00000E+00
    0.00000E+00         0.00000E+00        -0.11038E+08
 
   -0.10449E+08         0.37336E+05         0.00000E+00
    0.37336E+05        -0.36705E+08         0.00000E+00
    0.00000E+00         0.00000E+00        -0.12381E+08
 
   -0.10421E+08         0.10224E+06         0.00000E+00
    0.10224E+06        -0.36710E+08         0.00000E+00
    0.00000E+00         0.00000E+00        -0.12423E+08
 
   -0.10439E+08         0.15093E+06         0.00000E+00
    0.15093E+06        -0.36720E+08         0.00000E+00
    0.00000E+00         0.00000E+00        -0.12418E+08
 
   -0.10481E+08         0.18967E+06         0.00000E+00
    0.18967E+06        -0.36735E+08         0.00000E+00
    0.00000E+00         0.00000E+00        -0.12390E+08
 
   -0.10538E+08         0.22406E+06         0.00000E+00
    0.22406E+06        -0.36751E+08         0.00000E+00
    0.00000E+00         0.00000E+00        -0.12348E+08
 
   -0.10603E+08         0.25811E+06         0.00000E+00
    0.25811E+06        -0.36766E+08         0.00000E+00
    0.00000E+00         0.00000E+00        -0.12294E+08
 
   -0.10675E+08         0.29477E+06         0.00000E+00
    0.29477E+06        -0.36777E+08         0.00000E+00
    0.00000E+00         0.00000E+00        -0.12229E+08
 
   -0.10750E+08         0.33632E+06         0.00000E+00
    0.33632E+06        -0.36783E+08         0.00000E+00
    0.00000E+00         0.00000E+00        -0.12152E+08
 
   -0.10828E+08         0.38405E+06         0.00000E+00
    0.38405E+06        -0.36781E+08         0.00000E+00
    0.00000E+00         0.00000E+00        -0.12065E+08
 
   -0.10906E+08         0.43832E+06         0.00000E+00
    0.43832E+06        -0.36770E+08         0.00000E+00
    0.00000E+00         0.00000E+00        -0.11967E+08
 
   -0.10983E+08         0.49859E+06         0.00000E+00
    0.49859E+06        -0.36748E+08         0.00000E+00
    0.00000E+00         0.00000E+00        -0.11859E+08
 
   -0.11057E+08         0.56384E+06         0.00000E+00
    0.56384E+06        -0.36715E+08         0.00000E+00
    0.00000E+00         0.00000E+00        -0.11741E+08
 
   -0.11127E+08         0.63243E+06         0.00000E+00
    0.63243E+06        -0.36671E+08         0.00000E+00
    0.00000E+00         0.00000E+00        -0.11615E+08
 
   -0.11191E+08         0.70231E+06         0.00000E+00
    0.70231E+06        -0.36614E+08         0.00000E+00
    0.00000E+00         0.00000E+00        -0.11482E+08
 
   -0.11247E+08         0.77135E+06         0.00000E+00
    0.77135E+06        -0.36546E+08         0.00000E+00
    0.00000E+00         0.00000E+00        -0.11344E+08
 
   -0.10783E+08         0.35076E+05         0.00000E+00
    0.35076E+05        -0.37114E+08         0.00000E+00
    0.00000E+00         0.00000E+00        -0.12573E+08
 
   -0.10774E+08         0.94151E+05         0.00000E+00
    0.94151E+05        -0.37124E+08         0.00000E+00
    0.00000E+00         0.00000E+00        -0.12598E+08
 
   -0.10805E+08         0.13787E+06         0.00000E+00
    0.13787E+06        -0.37141E+08         0.00000E+00
    0.00000E+00         0.00000E+00        -0.12587E+08
 
   -0.10853E+08         0.17461E+06         0.00000E+00
    0.17461E+06        -0.37163E+08         0.00000E+00
    0.00000E+00         0.00000E+00        -0.12564E+08
 
   -0.10910E+08         0.20967E+06         0.00000E+00
    0.20967E+06        -0.37187E+08         0.00000E+00
    0.00000E+00         0.00000E+00        -0.12533E+08
 
   -0.10973E+08         0.24663E+06         0.00000E+00
    0.24663E+06        -0.37210E+08         0.00000E+00
    0.00000E+00         0.00000E+00        -0.12494E+08
 
   -0.11039E+08         0.28828E+06         0.00000E+00
    0.28828E+06        -0.37229E+08         0.00000E+00
    0.00000E+00         0.00000E+00        -0.12447E+08
 
   -0.11108E+08         0.33656E+06         0.00000E+00
    0.33656E+06        -0.37242E+08         0.00000E+00
    0.00000E+00         0.00000E+00        -0.12391E+08
 
   -0.11178E+08         0.39251E+06         0.00000E+00
    0.39251E+06        -0.37247E+08         0.00000E+00
    0.00000E+00         0.00000E+00        -0.12324E+08
 
   -0.11249E+08         0.45622E+06         0.00000E+00
    0.45622E+06        -0.37243E+08         0.00000E+00
    0.00000E+00         0.00000E+00        -0.12245E+08
 
   -0.11320E+08         0.52705E+06         0.00000E+00
    0.52705E+06        -0.37228E+08         0.00000E+00
    0.00000E+00         0.00000E+00        -0.12154E+08
 
   -0.11389E+08         0.60340E+06         0.00000E+00
    0.60340E+06        -0.37200E+08         0.00000E+00
    0.00000E+00         0.00000E+00        -0.12051E+08
 
   -0.11457E+08         0.68337E+06         0.00000E+00
    0.68337E+06        -0.37161E+08         0.00000E+00
    0.00000E+00         0.00000E+00        -0.11936E+08
 
   -0.11520E+08         0.76457E+06         0.00000E+00
    0.76457E+06        -0.37108E+08         0.00000E+00
    0.00000E+00         0.00000E+00        -0.11810E+08
 
   -0.11579E+08         0.84442E+06         0.00000E+00
    0.84442E+06        -0.37043E+08         0.00000E+00
    0.00000E+00         0.00000E+00        -0.11676E+08
 
   -0.11160E+08         0.30119E+05         0.00000E+00
    0.30119E+05        -0.37559E+08         0.00000E+00
    0.00000E+00         0.00000E+00        -0.12766E+08
 
   -0.11171E+08         0.79650E+05         0.00000E+00
    0.79650E+05        -0.37573E+08         0.00000E+00
    0.00000E+00         0.00000E+00        -0.12774E+08
 
   -0.11210E+08         0.11751E+06         0.00000E+00
    0.11751E+06        -0.37596E+08         0.00000E+00
    0.00000E+00         0.00000E+00        -0.12763E+08
 
   -0.11260E+08         0.15175E+06         0.00000E+00
    0.15175E+06        -0.37625E+08         0.00000E+00
    0.00000E+00         0.00000E+00        -0.12747E+08
 
   -0.11316E+08         0.18700E+06         0.00000E+00
    0.18700E+06        -0.37657E+08         0.00000E+00
    0.00000E+00         0.00000E+00        -0.12729E+08
 
   -0.11374E+08         0.22674E+06         0.00000E+00
    0.22674E+06        -0.37687E+08         0.00000E+00
    0.00000E+00         0.00000E+00        -0.12708E+08
 
   -0.11433E+08         0.27342E+06         0.00000E+00
    0.27342E+06        -0.37714E+08         0.00000E+00
    0.00000E+00         0.00000E+00        -0.12682E+08
 
   -0.11493E+08         0.32863E+06         0.00000E+00
    0.32863E+06        -0.37735E+08         0.00000E+00
    0.00000E+00         0.00000E+00        -0.12647E+08
 
   -0.11555E+08         0.39322E+06         0.00000E+00
    0.39322E+06        -0.37748E+08         0.00000E+00
    0.00000E+00         0.00000E+00        -0.12602E+08
 
   -0.11617E+08         0.46705E+06         0.00000E+00
    0.46705E+06        -0.37751E+08         0.00000E+00
    0.00000E+00         0.00000E+00        -0.12544E+08
 
   -0.11681E+08         0.54901E+06         0.00000E+00
    0.54901E+06        -0.37743E+08         0.00000E+00
    0.00000E+00         0.00000E+00        -0.12471E+08
 
   -0.11745E+08         0.63743E+06         0.00000E+00
    0.63743E+06        -0.37721E+08         0.00000E+00
    0.00000E+00         0.00000E+00        -0.12383E+08
 
   -0.11809E+08         0.72971E+06         0.00000E+00
    0.72971E+06        -0.37687E+08         0.00000E+00
    0.00000E+00         0.00000E+00        -0.12281E+08
 
   -0.11873E+08         0.82319E+06         0.00000E+00
    0.82319E+06        -0.37638E+08         0.00000E+00
    0.00000E+00         0.00000E+00        -0.12163E+08
 
   -0.11934E+08         0.91475E+06         0.00000E+00
    0.91475E+06        -0.37576E+08         0.00000E+00
    0.00000E+00         0.00000E+00        -0.12033E+08
 
   -0.11585E+08         0.22226E+05         0.00000E+00
    0.22226E+05        -0.38039E+08         0.00000E+00
    0.00000E+00         0.00000E+00        -0.12957E+08
 
   -0.11611E+08         0.59752E+05         0.00000E+00
    0.59752E+05        -0.38056E+08         0.00000E+00
    0.00000E+00         0.00000E+00        -0.12952E+08
 
   -0.11655E+08         0.90463E+05         0.00000E+00
    0.90463E+05        -0.38085E+08         0.00000E+00
    0.00000E+00         0.00000E+00        -0.12943E+08
 
   -0.11704E+08         0.12121E+06         0.00000E+00
    0.12121E+06        -0.38120E+08         0.00000E+00
    0.00000E+00         0.00000E+00        -0.12938E+08
 
   -0.11755E+08         0.15621E+06         0.00000E+00
    0.15621E+06        -0.38159E+08         0.00000E+00
    0.00000E+00         0.00000E+00        -0.12937E+08
 
   -0.11805E+08         0.19845E+06         0.00000E+00
    0.19845E+06        -0.38197E+08         0.00000E+00
    0.00000E+00         0.00000E+00        -0.12935E+08
 
   -0.11855E+08         0.25009E+06         0.00000E+00
    0.25009E+06        -0.38232E+08         0.00000E+00
    0.00000E+00         0.00000E+00        -0.12930E+08
 
   -0.11905E+08         0.31247E+06         0.00000E+00
    0.31247E+06        -0.38261E+08         0.00000E+00
    0.00000E+00         0.00000E+00        -0.12919E+08
 
   -0.11955E+08         0.38604E+06         0.00000E+00
    0.38604E+06        -0.38281E+08         0.00000E+00
    0.00000E+00         0.00000E+00        -0.12897E+08
 
   -0.12008E+08         0.47038E+06         0.00000E+00
    0.47038E+06        -0.38291E+08         0.00000E+00
    0.00000E+00         0.00000E+00        -0.12860E+08
 
   -0.12063E+08         0.56423E+06         0.00000E+00
    0.56423E+06        -0.38290E+08         0.00000E+00
    0.00000E+00         0.00000E+00        -0.12808E+08
 
   -0.12122E+08         0.66531E+06         0.00000E+00
    0.66531E+06        -0.38275E+08         0.00000E+00
    0.00000E+00         0.00000E+00        -0.12737E+08
 
   -0.12183E+08         0.77092E+06         0.00000E+00
    0.77092E+06        -0.38246E+08         0.00000E+00
    0.00000E+00         0.00000E+00        -0.12647E+08
 
   -0.12247E+08         0.87769E+06         0.00000E+00
    0.87769E+06        -0.38202E+08         0.00000E+00
    0.00000E+00         0.00000E+00        -0.12539E+08
 
   -0.12312E+08         0.98189E+06         0.00000E+00
    0.98189E+06        -0.38144E+08         0.00000E+00
    0.00000E+00         0.00000E+00        -0.12413E+08
 
   -0.12059E+08         0.12033E+05         0.00000E+00
    0.12033E+05        -0.38550E+08         0.00000E+00
    0.00000E+00         0.00000E+00        -0.13140E+08
 
   -0.12094E+08         0.35412E+05         0.00000E+00
    0.35412E+05        -0.38570E+08         0.00000E+00
    0.00000E+00         0.00000E+00        -0.13129E+08
 
   -0.12138E+08         0.57253E+05         0.00000E+00
    0.57253E+05        -0.38604E+08         0.00000E+00
    0.00000E+00         0.00000E+00        -0.13127E+08
 
   -0.12182E+08         0.83450E+05         0.00000E+00
    0.83450E+05        -0.38645E+08         0.00000E+00
    0.00000E+00         0.00000E+00        -0.13136E+08
 
   -0.12225E+08         0.11756E+06         0.00000E+00
    0.11756E+06        -0.38691E+08         0.00000E+00
    0.00000E+00         0.00000E+00        -0.13153E+08
 
   -0.12265E+08         0.16203E+06         0.00000E+00
    0.16203E+06        -0.38736E+08         0.00000E+00
    0.00000E+00         0.00000E+00        -0.13172E+08
 
   -0.12303E+08         0.21858E+06         0.00000E+00
    0.21858E+06        -0.38778E+08         0.00000E+00
    0.00000E+00         0.00000E+00        -0.13191E+08
 
   -0.12340E+08         0.28814E+06         0.00000E+00
    0.28814E+06        -0.38814E+08         0.00000E+00
    0.00000E+00         0.00000E+00        -0.13203E+08
 
   -0.12378E+08         0.37088E+06         0.00000E+00
    0.37088E+06        -0.38842E+08         0.00000E+00
    0.00000E+00         0.00000E+00        -0.13205E+08
 
   -0.12419E+08         0.46612E+06         0.00000E+00
    0.46612E+06        -0.38859E+08         0.00000E+00
    0.00000E+00         0.00000E+00        -0.13192E+08
 
   -0.12465E+08         0.57220E+06         0.00000E+00
    0.57220E+06        -0.38865E+08         0.00000E+00
    0.00000E+00         0.00000E+00        -0.13161E+08
 
   -0.12517E+08         0.68664E+06         0.00000E+00
    0.68664E+06        -0.38856E+08         0.00000E+00
    0.00000E+00         0.00000E+00        -0.13108E+08
 
   -0.12575E+08         0.80635E+06         0.00000E+00
    0.80635E+06        -0.38833E+08         0.00000E+00
    0.00000E+00         0.00000E+00        -0.13033E+08
 
   -0.12640E+08         0.92731E+06         0.00000E+00
    0.92731E+06        -0.38795E+08         0.00000E+00
    0.00000E+00         0.00000E+00        -0.12934E+08
 
   -0.12710E+08         0.10450E+07         0.00000E+00
    0.10450E+07        -0.38742E+08         0.00000E+00
    0.00000E+00         0.00000E+00        -0.12813E+08
 
   -0.12584E+08         0.63558E+03         0.00000E+00
    0.63558E+03        -0.39093E+08         0.00000E+00
    0.00000E+00         0.00000E+00        -0.13315E+08
 
   -0.12621E+08         0.73279E+04         0.00000E+00
    0.73279E+04        -0.39115E+08         0.00000E+00
    0.00000E+00         0.00000E+00        -0.13305E+08
 
   -0.12660E+08         0.18659E+05         0.00000E+00
    0.18659E+05        -0.39152E+08         0.00000E+00
    0.00000E+00         0.00000E+00        -0.13314E+08
 
   -0.12695E+08         0.39230E+05         0.00000E+00
    0.39230E+05        -0.39199E+08         0.00000E+00
    0.00000E+00         0.00000E+00        -0.13340E+08
 
   -0.12726E+08         0.71790E+05         0.00000E+00
    0.71790E+05        -0.39250E+08         0.00000E+00
    0.00000E+00         0.00000E+00        -0.13376E+08
 
   -0.12753E+08         0.11809E+06         0.00000E+00
    0.11809E+06        -0.39301E+08         0.00000E+00
    0.00000E+00         0.00000E+00        -0.13418E+08
 
   -0.12776E+08         0.17933E+06         0.00000E+00
    0.17933E+06        -0.39349E+08         0.00000E+00
    0.00000E+00         0.00000E+00        -0.13461E+08
 
   -0.12798E+08         0.25600E+06         0.00000E+00
    0.25600E+06        -0.39392E+08         0.00000E+00
    0.00000E+00         0.00000E+00        -0.13498E+08
 
   -0.12822E+08         0.34793E+06         0.00000E+00
    0.34793E+06        -0.39427E+08         0.00000E+00
    0.00000E+00         0.00000E+00        -0.13525E+08
 
   -0.12850E+08         0.45409E+06         0.00000E+00
    0.45409E+06        -0.39451E+08         0.00000E+00
    0.00000E+00         0.00000E+00        -0.13536E+08
 
   -0.12885E+08         0.57267E+06         0.00000E+00
    0.57267E+06        -0.39463E+08         0.00000E+00
    0.00000E+00         0.00000E+00        -0.13527E+08
 
   -0.12929E+08         0.70097E+06         0.00000E+00
    0.70097E+06        -0.39462E+08         0.00000E+00
    0.00000E+00         0.00000E+00        -0.13494E+08
 
   -0.12983E+08         0.83531E+06         0.00000E+00
    0.83531E+06        -0.39446E+08         0.00000E+00
    0.00000E+00         0.00000E+00        -0.13434E+08
 
   -0.13048E+08         0.97117E+06         0.00000E+00
    0.97117E+06        -0.39414E+08         0.00000E+00
    0.00000E+00         0.00000E+00        -0.13346E+08
 
   -0.13124E+08         0.11034E+07         0.00000E+00
    0.11034E+07        -0.39367E+08         0.00000E+00
    0.00000E+00         0.00000E+00        -0.13231E+08
 
   -0.13160E+08        -0.11563E+05         0.00000E+00
   -0.11563E+05        -0.39665E+08         0.00000E+00
    0.00000E+00         0.00000E+00        -0.13482E+08
 
   -0.13192E+08        -0.23389E+05         0.00000E+00
   -0.23389E+05        -0.39688E+08         0.00000E+00
    0.00000E+00         0.00000E+00        -0.13480E+08
 
   -0.13220E+08        -0.24018E+05         0.00000E+00
   -0.24018E+05        -0.39728E+08         0.00000E+00
    0.00000E+00         0.00000E+00        -0.13504E+08
 
   -0.13242E+08        -0.10217E+05         0.00000E+00
   -0.10217E+05        -0.39778E+08         0.00000E+00
    0.00000E+00         0.00000E+00        -0.13548E+08
 
   -0.13257E+08         0.19966E+05         0.00000E+00
    0.19966E+05        -0.39833E+08         0.00000E+00
    0.00000E+00         0.00000E+00        -0.13606E+08
 
   -0.13267E+08         0.67569E+05         0.00000E+00
    0.67569E+05        -0.39889E+08         0.00000E+00
    0.00000E+00         0.00000E+00        -0.13671E+08
 
   -0.13273E+08         0.13314E+06         0.00000E+00
    0.13314E+06        -0.39943E+08         0.00000E+00
    0.00000E+00         0.00000E+00        -0.13738E+08
 
   -0.13277E+08         0.21664E+06         0.00000E+00
    0.21664E+06        -0.39991E+08         0.00000E+00
    0.00000E+00         0.00000E+00        -0.13801E+08
 
   -0.13285E+08         0.31750E+06         0.00000E+00
    0.31750E+06        -0.40032E+08         0.00000E+00
    0.00000E+00         0.00000E+00        -0.13853E+08
 
   -0.13298E+08         0.43449E+06         0.00000E+00
    0.43449E+06        -0.40063E+08         0.00000E+00
    0.00000E+00         0.00000E+00        -0.13889E+08
 
   -0.13320E+08         0.56558E+06         0.00000E+00
    0.56558E+06        -0.40082E+08         0.00000E+00
    0.00000E+00         0.00000E+00        -0.13903E+08
 
   -0.13355E+08         0.70777E+06         0.00000E+00
    0.70777E+06        -0.40088E+08         0.00000E+00
    0.00000E+00         0.00000E+00        -0.13890E+08
 
   -0.13405E+08         0.85699E+06         0.00000E+00
    0.85699E+06        -0.40079E+08         0.00000E+00
    0.00000E+00         0.00000E+00        -0.13848E+08
 
   -0.13471E+08         0.10084E+07         0.00000E+00
    0.10084E+07        -0.40055E+08         0.00000E+00
    0.00000E+00         0.00000E+00        -0.13772E+08
 
   -0.13553E+08         0.11564E+07         0.00000E+00
    0.11564E+07        -0.40014E+08         0.00000E+00
    0.00000E+00         0.00000E+00        -0.13662E+08
 
   -0.13787E+08        -0.24206E+05         0.00000E+00
   -0.24206E+05        -0.40265E+08         0.00000E+00
    0.00000E+00         0.00000E+00        -0.13642E+08
 
   -0.13806E+08        -0.55688E+05         0.00000E+00
   -0.55688E+05        -0.40289E+08         0.00000E+00
    0.00000E+00         0.00000E+00        -0.13654E+08
 
   -0.13818E+08        -0.69428E+05         0.00000E+00
   -0.69428E+05        -0.40329E+08         0.00000E+00
    0.00000E+00         0.00000E+00        -0.13696E+08
 
   -0.13821E+08        -0.63337E+05         0.00000E+00
   -0.63337E+05        -0.40381E+08         0.00000E+00
    0.00000E+00         0.00000E+00        -0.13761E+08
 
   -0.13816E+08        -0.36419E+05         0.00000E+00
   -0.36419E+05        -0.40439E+08         0.00000E+00
    0.00000E+00         0.00000E+00        -0.13841E+08
 
   -0.13805E+08         0.11763E+05         0.00000E+00
    0.11763E+05        -0.40498E+08         0.00000E+00
    0.00000E+00         0.00000E+00        -0.13930E+08
 
   -0.13791E+08         0.81108E+05         0.00000E+00
    0.81108E+05        -0.40556E+08         0.00000E+00
    0.00000E+00         0.00000E+00        -0.14021E+08
 
   -0.13776E+08         0.17092E+06         0.00000E+00
    0.17092E+06        -0.40608E+08         0.00000E+00
    0.00000E+00         0.00000E+00        -0.14109E+08
 
   -0.13765E+08         0.28035E+06         0.00000E+00
    0.28035E+06        -0.40654E+08         0.00000E+00
    0.00000E+00         0.00000E+00        -0.14186E+08
 
   -0.13761E+08         0.40778E+06         0.00000E+00
    0.40778E+06        -0.40691E+08         0.00000E+00
    0.00000E+00         0.00000E+00        -0.14247E+08
 
   -0.13770E+08         0.55089E+06         0.00000E+00
    0.55089E+06        -0.40716E+08         0.00000E+00
    0.00000E+00         0.00000E+00        -0.14284E+08
 
   -0.13795E+08         0.70661E+06         0.00000E+00
    0.70661E+06        -0.40730E+08         0.00000E+00
    0.00000E+00         0.00000E+00        -0.14294E+08
 
   -0.13839E+08         0.87073E+06         0.00000E+00
    0.87073E+06        -0.40729E+08         0.00000E+00
    0.00000E+00         0.00000E+00        -0.14270E+08
 
   -0.13904E+08         0.10380E+07         0.00000E+00
    0.10380E+07        -0.40712E+08         0.00000E+00
    0.00000E+00         0.00000E+00        -0.14208E+08
 
   -0.13993E+08         0.12026E+07         0.00000E+00
    0.12026E+07        -0.40679E+08         0.00000E+00
    0.00000E+00         0.00000E+00        -0.14106E+08
 
   -0.14464E+08        -0.36989E+05         0.00000E+00
   -0.36989E+05        -0.40891E+08         0.00000E+00
    0.00000E+00         0.00000E+00        -0.13798E+08
 
   -0.14463E+08        -0.88541E+05         0.00000E+00
   -0.88541E+05        -0.40915E+08         0.00000E+00
    0.00000E+00         0.00000E+00        -0.13829E+08
 
   -0.14452E+08        -0.11618E+06         0.00000E+00
   -0.11618E+06        -0.40955E+08         0.00000E+00
    0.00000E+00         0.00000E+00        -0.13892E+08
 
   -0.14432E+08        -0.11860E+06         0.00000E+00
   -0.11860E+06        -0.41007E+08         0.00000E+00
    0.00000E+00         0.00000E+00        -0.13978E+08
 
   -0.14403E+08        -0.95605E+05         0.00000E+00
   -0.95605E+05        -0.41065E+08         0.00000E+00
    0.00000E+00         0.00000E+00        -0.14081E+08
 
   -0.14368E+08        -0.47530E+05         0.00000E+00
   -0.47530E+05        -0.41126E+08         0.00000E+00
    0.00000E+00         0.00000E+00        -0.14194E+08
 
   -0.14330E+08         0.24836E+05         0.00000E+00
    0.24836E+05        -0.41185E+08         0.00000E+00
    0.00000E+00         0.00000E+00        -0.14309E+08
 
   -0.14293E+08         0.12039E+06         0.00000E+00
    0.12039E+06        -0.41240E+08         0.00000E+00
    0.00000E+00         0.00000E+00        -0.14420E+08
 
   -0.14261E+08         0.23760E+06         0.00000E+00
    0.23760E+06        -0.41289E+08         0.00000E+00
    0.00000E+00         0.00000E+00        -0.14521E+08
 
   -0.14239E+08         0.37450E+06         0.00000E+00
    0.37450E+06        -0.41330E+08         0.00000E+00
    0.00000E+00         0.00000E+00        -0.14606E+08
 
   -0.14232E+08         0.52878E+06         0.00000E+00
    0.52878E+06        -0.41362E+08         0.00000E+00
    0.00000E+00         0.00000E+00        -0.14668E+08
 
   -0.14245E+08         0.69726E+06         0.00000E+00
    0.69726E+06        -0.41382E+08         0.00000E+00
    0.00000E+00         0.00000E+00        -0.14700E+08
 
   -0.14282E+08         0.87594E+06         0.00000E+00
    0.87594E+06        -0.41390E+08         0.00000E+00
    0.00000E+00         0.00000E+00        -0.14696E+08
 
   -0.14347E+08         0.10594E+07         0.00000E+00
    0.10594E+07        -0.41382E+08         0.00000E+00
    0.00000E+00         0.00000E+00        -0.14649E+08
 
   -0.14442E+08         0.12403E+07         0.00000E+00
    0.12403E+07        -0.41358E+08         0.00000E+00
    0.00000E+00         0.00000E+00        -0.14557E+08
 
   -0.15189E+08        -0.49576E+05         0.00000E+00
   -0.49576E+05        -0.41541E+08         0.00000E+00
    0.00000E+00         0.00000E+00        -0.13952E+08
 
   -0.15162E+08        -0.12124E+06         0.00000E+00
   -0.12124E+06        -0.41564E+08         0.00000E+00
    0.00000E+00         0.00000E+00        -0.14005E+08
 
   -0.15122E+08        -0.16290E+06         0.00000E+00
   -0.16290E+06        -0.41603E+08         0.00000E+00
    0.00000E+00         0.00000E+00        -0.14091E+08
 
   -0.15073E+08        -0.17426E+06         0.00000E+00
   -0.17426E+06        -0.41653E+08         0.00000E+00
    0.00000E+00         0.00000E+00        -0.14201E+08
 
   -0.15016E+08        -0.15564E+06         0.00000E+00
   -0.15564E+06        -0.41710E+08         0.00000E+00
    0.00000E+00         0.00000E+00        -0.14327E+08
 
   -0.14953E+08        -0.10817E+06         0.00000E+00
   -0.10817E+06        -0.41770E+08         0.00000E+00
    0.00000E+00         0.00000E+00        -0.14461E+08
 
   -0.14889E+08        -0.33389E+05         0.00000E+00
   -0.33389E+05        -0.41828E+08         0.00000E+00
    0.00000E+00         0.00000E+00        -0.14598E+08
 
   -0.14828E+08         0.67055E+05         0.00000E+00
    0.67055E+05        -0.41884E+08         0.00000E+00
    0.00000E+00         0.00000E+00        -0.14731E+08
 
   -0.14773E+08         0.19072E+06         0.00000E+00
    0.19072E+06        -0.41934E+08         0.00000E+00
    0.00000E+00         0.00000E+00        -0.14854E+08
 
   -0.14731E+08         0.33573E+06         0.00000E+00
    0.33573E+06        -0.41978E+08         0.00000E+00
    0.00000E+00         0.00000E+00        -0.14962E+08
 
   -0.14707E+08         0.49962E+06         0.00000E+00
    0.49962E+06        -0.42014E+08         0.00000E+00
    0.00000E+00         0.00000E+00        -0.15047E+08
 
   -0.14706E+08         0.67953E+06         0.00000E+00
    0.67953E+06        -0.42042E+08         0.00000E+00
    0.00000E+00         0.00000E+00        -0.15103E+08
 
   -0.14734E+08         0.87168E+06         0.00000E+00
    0.87168E+06        -0.42058E+08         0.00000E+00
    0.00000E+00         0.00000E+00        -0.15121E+08
 
   -0.14796E+08         0.10708E+07         0.00000E+00
    0.10708E+07        -0.42060E+08         0.00000E+00
    0.00000E+00         0.00000E+00        -0.15094E+08
 
   -0.14897E+08         0.12690E+07         0.00000E+00
    0.12690E+07        -0.42046E+08         0.00000E+00
    0.00000E+00         0.00000E+00        -0.15013E+08
 
   -0.15959E+08        -0.61766E+05         0.00000E+00
   -0.61766E+05        -0.42213E+08         0.00000E+00
    0.00000E+00         0.00000E+00        -0.14106E+08
 
   -0.15899E+08        -0.15304E+06         0.00000E+00
   -0.15304E+06        -0.42235E+08         0.00000E+00
    0.00000E+00         0.00000E+00        -0.14185E+08
 
   -0.15826E+08        -0.20842E+06         0.00000E+00
   -0.20842E+06        -0.42272E+08         0.00000E+00
    0.00000E+00         0.00000E+00        -0.14296E+08
 
   -0.15743E+08        -0.22842E+06         0.00000E+00
   -0.22842E+06        -0.42319E+08         0.00000E+00
    0.00000E+00         0.00000E+00        -0.14429E+08
 
   -0.15653E+08        -0.21427E+06         0.00000E+00
   -0.21427E+06        -0.42372E+08         0.00000E+00
    0.00000E+00         0.00000E+00        -0.14577E+08
 
   -0.15560E+08        -0.16766E+06         0.00000E+00
   -0.16766E+06        -0.42428E+08         0.00000E+00
    0.00000E+00         0.00000E+00        -0.14732E+08
 
   -0.15467E+08        -0.90955E+05         0.00000E+00
   -0.90955E+05        -0.42483E+08         0.00000E+00
    0.00000E+00         0.00000E+00        -0.14888E+08
 
   -0.15379E+08         0.13134E+05         0.00000E+00
    0.13134E+05        -0.42536E+08         0.00000E+00
    0.00000E+00         0.00000E+00        -0.15040E+08
 
   -0.15300E+08         0.14203E+06         0.00000E+00
    0.14203E+06        -0.42585E+08         0.00000E+00
    0.00000E+00         0.00000E+00        -0.15182E+08
 
   -0.15236E+08         0.29303E+06         0.00000E+00
    0.29303E+06        -0.42630E+08         0.00000E+00
    0.00000E+00         0.00000E+00        -0.15311E+08
 
   -0.15193E+08         0.46418E+06         0.00000E+00
    0.46418E+06        -0.42670E+08         0.00000E+00
    0.00000E+00         0.00000E+00        -0.15418E+08
 
   -0.15176E+08         0.65327E+06         0.00000E+00
    0.65327E+06        -0.42703E+08         0.00000E+00
    0.00000E+00         0.00000E+00        -0.15498E+08
 
   -0.15194E+08         0.85705E+06         0.00000E+00
    0.85705E+06        -0.42729E+08         0.00000E+00
    0.00000E+00         0.00000E+00        -0.15541E+08
 
   -0.15251E+08         0.10706E+07         0.00000E+00
    0.10706E+07        -0.42743E+08         0.00000E+00
    0.00000E+00         0.00000E+00        -0.15535E+08
 
   -0.15356E+08         0.12866E+07         0.00000E+00
    0.12866E+07        -0.42741E+08         0.00000E+00
    0.00000E+00         0.00000E+00        -0.15470E+08
 
   -0.16771E+08        -0.73461E+05         0.00000E+00
   -0.73461E+05        -0.42905E+08         0.00000E+00
    0.00000E+00         0.00000E+00        -0.14264E+08
 
   -0.16671E+08        -0.18327E+06         0.00000E+00
   -0.18327E+06        -0.42925E+08         0.00000E+00
    0.00000E+00         0.00000E+00        -0.14371E+08
 
   -0.16559E+08        -0.25142E+06         0.00000E+00
   -0.25142E+06        -0.42959E+08         0.00000E+00
    0.00000E+00         0.00000E+00        -0.14507E+08
 
   -0.16439E+08        -0.27932E+06         0.00000E+00
   -0.27932E+06        -0.43002E+08         0.00000E+00
    0.00000E+00         0.00000E+00        -0.14663E+08
 
   -0.16313E+08        -0.26903E+06         0.00000E+00
   -0.26903E+06        -0.43049E+08         0.00000E+00
    0.00000E+00         0.00000E+00        -0.14831E+08
 
   -0.16185E+08        -0.22318E+06         0.00000E+00
   -0.22318E+06        -0.43098E+08         0.00000E+00
    0.00000E+00         0.00000E+00        -0.15004E+08
 
   -0.16062E+08        -0.14502E+06         0.00000E+00
   -0.14502E+06        -0.43147E+08         0.00000E+00
    0.00000E+00         0.00000E+00        -0.15177E+08
 
   -0.15946E+08        -0.38264E+05         0.00000E+00
   -0.38264E+05        -0.43194E+08         0.00000E+00
    0.00000E+00         0.00000E+00        -0.15344E+08
 
   -0.15842E+08         0.93786E+05         0.00000E+00
    0.93786E+05        -0.43239E+08         0.00000E+00
    0.00000E+00         0.00000E+00        -0.15502E+08
 
   -0.15756E+08         0.24839E+06         0.00000E+00
    0.24839E+06        -0.43282E+08         0.00000E+00
    0.00000E+00         0.00000E+00        -0.15647E+08
 
   -0.15692E+08         0.42370E+06         0.00000E+00
    0.42370E+06        -0.43324E+08         0.00000E+00
    0.00000E+00         0.00000E+00        -0.15775E+08
 
   -0.15658E+08         0.61848E+06         0.00000E+00
    0.61848E+06        -0.43363E+08         0.00000E+00
    0.00000E+00         0.00000E+00        -0.15879E+08
 
   -0.15661E+08         0.83110E+06         0.00000E+00
    0.83110E+06        -0.43398E+08         0.00000E+00
    0.00000E+00         0.00000E+00        -0.15949E+08
 
   -0.15710E+08         0.10576E+07         0.00000E+00
    0.10576E+07        -0.43424E+08         0.00000E+00
    0.00000E+00         0.00000E+00        -0.15970E+08
 
   -0.15816E+08         0.12905E+07         0.00000E+00
    0.12905E+07        -0.43437E+08         0.00000E+00
    0.00000E+00         0.00000E+00        -0.15926E+08
 
   -0.17623E+08        -0.84482E+05         0.00000E+00
   -0.84482E+05        -0.43615E+08         0.00000E+00
    0.00000E+00         0.00000E+00        -0.14427E+08
 
   -0.17477E+08        -0.21146E+06         0.00000E+00
   -0.21146E+06        -0.43633E+08         0.00000E+00
    0.00000E+00         0.00000E+00        -0.14563E+08
 
   -0.17320E+08        -0.29077E+06         0.00000E+00
   -0.29077E+06        -0.43662E+08         0.00000E+00
    0.00000E+00         0.00000E+00        -0.14726E+08
 
   -0.17157E+08        -0.32495E+06         0.00000E+00
   -0.32495E+06        -0.43699E+08         0.00000E+00
    0.00000E+00         0.00000E+00        -0.14904E+08
 
   -0.16992E+08        -0.31722E+06         0.00000E+00
   -0.31722E+06        -0.43738E+08         0.00000E+00
    0.00000E+00         0.00000E+00        -0.15090E+08
 
   -0.16828E+08        -0.27152E+06         0.00000E+00
   -0.27152E+06        -0.43778E+08         0.00000E+00
    0.00000E+00         0.00000E+00        -0.15278E+08
 
   -0.16673E+08        -0.19233E+06         0.00000E+00
   -0.19233E+06        -0.43816E+08         0.00000E+00
    0.00000E+00         0.00000E+00        -0.15462E+08
 
   -0.16529E+08        -0.84227E+05         0.00000E+00
   -0.84227E+05        -0.43855E+08         0.00000E+00
    0.00000E+00         0.00000E+00        -0.15640E+08
 
   -0.16400E+08         0.48780E+05         0.00000E+00
    0.48780E+05        -0.43893E+08         0.00000E+00
    0.00000E+00         0.00000E+00        -0.15808E+08
 
   -0.16292E+08         0.20386E+06         0.00000E+00
    0.20386E+06        -0.43932E+08         0.00000E+00
    0.00000E+00         0.00000E+00        -0.15967E+08
 
   -0.16206E+08         0.37956E+06         0.00000E+00
    0.37956E+06        -0.43974E+08         0.00000E+00
    0.00000E+00         0.00000E+00        -0.16113E+08
 
   -0.16151E+08         0.57584E+06         0.00000E+00
    0.57584E+06        -0.44017E+08         0.00000E+00
    0.00000E+00         0.00000E+00        -0.16241E+08
 
   -0.16136E+08         0.79310E+06         0.00000E+00
    0.79310E+06        -0.44061E+08         0.00000E+00
    0.00000E+00         0.00000E+00        -0.16340E+08
 
   -0.16173E+08         0.10297E+07         0.00000E+00
    0.10297E+07        -0.44102E+08         0.00000E+00
    0.00000E+00         0.00000E+00        -0.16392E+08
 
   -0.16276E+08         0.12789E+07         0.00000E+00
    0.12789E+07        -0.44131E+08         0.00000E+00
    0.00000E+00         0.00000E+00        -0.16375E+08
 
   -0.18509E+08        -0.94861E+05         0.00000E+00
   -0.94861E+05        -0.44340E+08         0.00000E+00
    0.00000E+00         0.00000E+00        -0.14598E+08
 
   -0.18311E+08        -0.23711E+06         0.00000E+00
   -0.23711E+06        -0.44355E+08         0.00000E+00
    0.00000E+00         0.00000E+00        -0.14765E+08
 
   -0.18104E+08        -0.32517E+06         0.00000E+00
   -0.32517E+06        -0.44380E+08         0.00000E+00
    0.00000E+00         0.00000E+00        -0.14953E+08
 
   -0.17895E+08        -0.36311E+06         0.00000E+00
   -0.36311E+06        -0.44409E+08         0.00000E+00
    0.00000E+00         0.00000E+00        -0.15153E+08
 
   -0.17687E+08        -0.35579E+06         0.00000E+00
   -0.35579E+06        -0.44437E+08         0.00000E+00
    0.00000E+00         0.00000E+00        -0.15354E+08
 
   -0.17486E+08        -0.30915E+06         0.00000E+00
   -0.30915E+06        -0.44463E+08         0.00000E+00
    0.00000E+00         0.00000E+00        -0.15551E+08
 
   -0.17298E+08        -0.22930E+06         0.00000E+00
   -0.22930E+06        -0.44489E+08         0.00000E+00
    0.00000E+00         0.00000E+00        -0.15741E+08
 
   -0.17127E+08        -0.12173E+06         0.00000E+00
   -0.12173E+06        -0.44514E+08         0.00000E+00
    0.00000E+00         0.00000E+00        -0.15923E+08
 
   -0.16975E+08         0.93364E+04         0.00000E+00
    0.93364E+04        -0.44544E+08         0.00000E+00
    0.00000E+00         0.00000E+00        -0.16098E+08
 
   -0.16844E+08         0.16135E+06         0.00000E+00
    0.16135E+06        -0.44578E+08         0.00000E+00
    0.00000E+00         0.00000E+00        -0.16267E+08
 
   -0.16738E+08         0.33342E+06         0.00000E+00
    0.33342E+06        -0.44618E+08         0.00000E+00
    0.00000E+00         0.00000E+00        -0.16428E+08
 
   -0.16660E+08         0.52653E+06         0.00000E+00
    0.52653E+06        -0.44664E+08         0.00000E+00
    0.00000E+00         0.00000E+00        -0.16579E+08
 
   -0.16622E+08         0.74308E+06         0.00000E+00
    0.74308E+06        -0.44716E+08         0.00000E+00
    0.00000E+00         0.00000E+00        -0.16708E+08
 
   -0.16639E+08         0.98492E+06         0.00000E+00
    0.98492E+06        -0.44771E+08         0.00000E+00
    0.00000E+00         0.00000E+00        -0.16798E+08
 
   -0.16733E+08         0.12483E+07         0.00000E+00
    0.12483E+07        -0.44819E+08         0.00000E+00
    0.00000E+00         0.00000E+00        -0.16815E+08
 
   -0.19426E+08        -0.10460E+06         0.00000E+00
   -0.10460E+06        -0.45077E+08         0.00000E+00
    0.00000E+00         0.00000E+00        -0.14779E+08
 
   -0.19168E+08        -0.25975E+06         0.00000E+00
   -0.25975E+06        -0.45091E+08         0.00000E+00
    0.00000E+00         0.00000E+00        -0.14977E+08
 
   -0.18906E+08        -0.35319E+06         0.00000E+00
   -0.35319E+06        -0.45110E+08         0.00000E+00
    0.00000E+00         0.00000E+00        -0.15191E+08
 
   -0.18645E+08        -0.39109E+06         0.00000E+00
   -0.39109E+06        -0.45128E+08         0.00000E+00
    0.00000E+00         0.00000E+00        -0.15409E+08
 
   -0.18394E+08        -0.38120E+06         0.00000E+00
   -0.38120E+06        -0.45142E+08         0.00000E+00
    0.00000E+00         0.00000E+00        -0.15621E+08
 
   -0.18156E+08        -0.33222E+06         0.00000E+00
   -0.33222E+06        -0.45151E+08         0.00000E+00
    0.00000E+00         0.00000E+00        -0.15821E+08
 
   -0.17938E+08        -0.25233E+06         0.00000E+00
   -0.25233E+06        -0.45159E+08         0.00000E+00
    0.00000E+00         0.00000E+00        -0.16011E+08
 
   -0.17742E+08        -0.14785E+06         0.00000E+00
   -0.14785E+06        -0.45170E+08         0.00000E+00
    0.00000E+00         0.00000E+00        -0.16191E+08
 
   -0.17568E+08        -0.22522E+05         0.00000E+00
   -0.22522E+05        -0.45188E+08         0.00000E+00
    0.00000E+00         0.00000E+00        -0.16367E+08
 
   -0.17417E+08         0.12213E+06         0.00000E+00
    0.12213E+06        -0.45215E+08         0.00000E+00
    0.00000E+00         0.00000E+00        -0.16542E+08
 
   -0.17289E+08         0.28626E+06         0.00000E+00
    0.28626E+06        -0.45254E+08         0.00000E+00
    0.00000E+00         0.00000E+00        -0.16716E+08
 
   -0.17188E+08         0.47141E+06         0.00000E+00
    0.47141E+06        -0.45303E+08         0.00000E+00
    0.00000E+00         0.00000E+00        -0.16888E+08
 
   -0.17123E+08         0.68143E+06         0.00000E+00
    0.68143E+06        -0.45362E+08         0.00000E+00
    0.00000E+00         0.00000E+00        -0.17050E+08
 
   -0.17112E+08         0.92220E+06         0.00000E+00
    0.92220E+06        -0.45430E+08         0.00000E+00
    0.00000E+00         0.00000E+00        -0.17182E+08
 
   -0.17189E+08         0.11977E+07         0.00000E+00
    0.11977E+07        -0.45500E+08         0.00000E+00
    0.00000E+00         0.00000E+00        -0.17244E+08
 
   -0.20371E+08        -0.11378E+06         0.00000E+00
   -0.11378E+06        -0.45826E+08         0.00000E+00
    0.00000E+00         0.00000E+00        -0.14971E+08
 
   -0.20043E+08        -0.27869E+06         0.00000E+00
   -0.27869E+06        -0.45837E+08         0.00000E+00
    0.00000E+00         0.00000E+00        -0.15201E+08
 
   -0.19718E+08        -0.37262E+06         0.00000E+00
   -0.37262E+06        -0.45848E+08         0.00000E+00
    0.00000E+00         0.00000E+00        -0.15441E+08
 
   -0.19403E+08        -0.40535E+06         0.00000E+00
   -0.40535E+06        -0.45852E+08         0.00000E+00
    0.00000E+00         0.00000E+00        -0.15673E+08
 
   -0.19107E+08        -0.38922E+06         0.00000E+00
   -0.38922E+06        -0.45847E+08         0.00000E+00
    0.00000E+00         0.00000E+00        -0.15888E+08
 
   -0.18836E+08        -0.33677E+06         0.00000E+00
   -0.33677E+06        -0.45835E+08         0.00000E+00
    0.00000E+00         0.00000E+00        -0.16084E+08
 
   -0.18592E+08        -0.25824E+06         0.00000E+00
   -0.25824E+06        -0.45824E+08         0.00000E+00
    0.00000E+00         0.00000E+00        -0.16265E+08
 
   -0.18375E+08        -0.16009E+06         0.00000E+00
   -0.16009E+06        -0.45817E+08         0.00000E+00
    0.00000E+00         0.00000E+00        -0.16437E+08
 
   -0.18182E+08        -0.45051E+05         0.00000E+00
   -0.45051E+05        -0.45822E+08         0.00000E+00
    0.00000E+00         0.00000E+00        -0.16609E+08
 
   -0.18011E+08         0.87021E+05         0.00000E+00
    0.87021E+05        -0.45842E+08         0.00000E+00
    0.00000E+00         0.00000E+00        -0.16786E+08
 
   -0.17863E+08         0.23799E+06         0.00000E+00
    0.23799E+06        -0.45879E+08         0.00000E+00
    0.00000E+00         0.00000E+00        -0.16971E+08
 
   -0.17738E+08         0.41078E+06         0.00000E+00
    0.41078E+06        -0.45931E+08         0.00000E+00
    0.00000E+00         0.00000E+00        -0.17165E+08
 
   -0.17643E+08         0.60971E+06         0.00000E+00
    0.60971E+06        -0.45999E+08         0.00000E+00
    0.00000E+00         0.00000E+00        -0.17361E+08
 
   -0.17595E+08         0.84202E+06         0.00000E+00
    0.84202E+06        -0.46079E+08         0.00000E+00
    0.00000E+00         0.00000E+00        -0.17540E+08
 
   -0.17644E+08         0.11153E+07         0.00000E+00
    0.11153E+07        -0.46171E+08         0.00000E+00
    0.00000E+00         0.00000E+00        -0.17656E+08
 
   -0.21337E+08        -0.12249E+06         0.00000E+00
   -0.12249E+06        -0.46582E+08         0.00000E+00
    0.00000E+00         0.00000E+00        -0.15174E+08
 
   -0.20928E+08        -0.29255E+06         0.00000E+00
   -0.29255E+06        -0.46590E+08         0.00000E+00
    0.00000E+00         0.00000E+00        -0.15439E+08
 
   -0.20531E+08        -0.37970E+06         0.00000E+00
   -0.37970E+06        -0.46590E+08         0.00000E+00
    0.00000E+00         0.00000E+00        -0.15702E+08
 
   -0.20160E+08        -0.40072E+06         0.00000E+00
   -0.40072E+06        -0.46574E+08         0.00000E+00
    0.00000E+00         0.00000E+00        -0.15942E+08
 
   -0.19824E+08        -0.37504E+06         0.00000E+00
   -0.37504E+06        -0.46545E+08         0.00000E+00
    0.00000E+00         0.00000E+00        -0.16150E+08
 
   -0.19525E+08        -0.31943E+06         0.00000E+00
   -0.31943E+06        -0.46509E+08         0.00000E+00
    0.00000E+00         0.00000E+00        -0.16332E+08
 
   -0.19261E+08        -0.24492E+06         0.00000E+00
   -0.24492E+06        -0.46475E+08         0.00000E+00
    0.00000E+00         0.00000E+00        -0.16497E+08
 
   -0.19028E+08        -0.15691E+06         0.00000E+00
   -0.15691E+06        -0.46452E+08         0.00000E+00
    0.00000E+00         0.00000E+00        -0.16655E+08
 
   -0.18820E+08        -0.56730E+05         0.00000E+00
   -0.56730E+05        -0.46443E+08         0.00000E+00
    0.00000E+00         0.00000E+00        -0.16818E+08
 
   -0.18632E+08         0.57101E+05         0.00000E+00
    0.57101E+05        -0.46454E+08         0.00000E+00
    0.00000E+00         0.00000E+00        -0.16993E+08
 
   -0.18464E+08         0.18845E+06         0.00000E+00
    0.18845E+06        -0.46488E+08         0.00000E+00
    0.00000E+00         0.00000E+00        -0.17187E+08
 
   -0.18314E+08         0.34266E+06         0.00000E+00
    0.34266E+06        -0.46545E+08         0.00000E+00
    0.00000E+00         0.00000E+00        -0.17403E+08
 
   -0.18187E+08         0.52522E+06         0.00000E+00
    0.52522E+06        -0.46625E+08         0.00000E+00
    0.00000E+00         0.00000E+00        -0.17636E+08
 
   -0.18098E+08         0.74393E+06         0.00000E+00
    0.74393E+06        -0.46722E+08         0.00000E+00
    0.00000E+00         0.00000E+00        -0.17871E+08
 
   -0.18097E+08         0.10142E+07         0.00000E+00
    0.10142E+07        -0.46830E+08         0.00000E+00
    0.00000E+00         0.00000E+00        -0.18051E+08
 
   -0.22319E+08        -0.13071E+06         0.00000E+00
   -0.13071E+06        -0.47343E+08         0.00000E+00
    0.00000E+00         0.00000E+00        -0.15389E+08
 
   -0.21812E+08        -0.29799E+06         0.00000E+00
   -0.29799E+06        -0.47345E+08         0.00000E+00
    0.00000E+00         0.00000E+00        -0.15692E+08
 
   -0.21336E+08        -0.36743E+06         0.00000E+00
   -0.36743E+06        -0.47326E+08         0.00000E+00
    0.00000E+00         0.00000E+00        -0.15971E+08
 
   -0.20910E+08        -0.36973E+06         0.00000E+00
   -0.36973E+06        -0.47282E+08         0.00000E+00
    0.00000E+00         0.00000E+00        -0.16205E+08
 
   -0.20540E+08        -0.33392E+06         0.00000E+00
   -0.33392E+06        -0.47222E+08         0.00000E+00
    0.00000E+00         0.00000E+00        -0.16395E+08
 
   -0.20222E+08        -0.27854E+06         0.00000E+00
   -0.27854E+06        -0.47161E+08         0.00000E+00
    0.00000E+00         0.00000E+00        -0.16555E+08
 
   -0.19946E+08        -0.21227E+06         0.00000E+00
   -0.21227E+06        -0.47107E+08         0.00000E+00
    0.00000E+00         0.00000E+00        -0.16699E+08
 
   -0.19704E+08        -0.13828E+06         0.00000E+00
   -0.13828E+06        -0.47068E+08         0.00000E+00
    0.00000E+00         0.00000E+00        -0.16840E+08
 
   -0.19485E+08        -0.56806E+05         0.00000E+00
   -0.56806E+05        -0.47047E+08         0.00000E+00
    0.00000E+00         0.00000E+00        -0.16990E+08
 
   -0.19284E+08         0.34162E+05         0.00000E+00
    0.34162E+05        -0.47048E+08         0.00000E+00
    0.00000E+00         0.00000E+00        -0.17159E+08
 
   -0.19096E+08         0.13919E+06         0.00000E+00
    0.13919E+06        -0.47077E+08         0.00000E+00
    0.00000E+00         0.00000E+00        -0.17356E+08
 
   -0.18920E+08         0.26596E+06         0.00000E+00
    0.26596E+06        -0.47137E+08         0.00000E+00
    0.00000E+00         0.00000E+00        -0.17590E+08
 
   -0.18759E+08         0.42487E+06         0.00000E+00
    0.42487E+06        -0.47229E+08         0.00000E+00
    0.00000E+00         0.00000E+00        -0.17863E+08
 
   -0.18619E+08         0.62666E+06         0.00000E+00
    0.62666E+06        -0.47346E+08         0.00000E+00
    0.00000E+00         0.00000E+00        -0.18161E+08
 
   -0.18550E+08         0.88906E+06         0.00000E+00
    0.88906E+06        -0.47478E+08         0.00000E+00
    0.00000E+00         0.00000E+00        -0.18431E+08
 
   -0.23310E+08        -0.13775E+06         0.00000E+00
   -0.13775E+06        -0.48107E+08         0.00000E+00
    0.00000E+00         0.00000E+00        -0.15619E+08
 
   -0.22679E+08        -0.28631E+06         0.00000E+00
   -0.28631E+06        -0.48094E+08         0.00000E+00
    0.00000E+00         0.00000E+00        -0.15958E+08
 
   -0.22120E+08        -0.32282E+06         0.00000E+00
   -0.32282E+06        -0.48040E+08         0.00000E+00
    0.00000E+00         0.00000E+00        -0.16236E+08
 
   -0.21648E+08        -0.30381E+06         0.00000E+00
   -0.30381E+06        -0.47955E+08         0.00000E+00
    0.00000E+00         0.00000E+00        -0.16444E+08
 
   -0.21259E+08        -0.26384E+06         0.00000E+00
   -0.26384E+06        -0.47864E+08         0.00000E+00
    0.00000E+00         0.00000E+00        -0.16605E+08
 
   -0.20931E+08        -0.21539E+06         0.00000E+00
   -0.21539E+06        -0.47780E+08         0.00000E+00
    0.00000E+00         0.00000E+00        -0.16738E+08
 
   -0.20650E+08        -0.16256E+06         0.00000E+00
   -0.16256E+06        -0.47711E+08         0.00000E+00
    0.00000E+00         0.00000E+00        -0.16862E+08
 
   -0.20403E+08        -0.10634E+06         0.00000E+00
   -0.10634E+06        -0.47659E+08         0.00000E+00
    0.00000E+00         0.00000E+00        -0.16986E+08
 
   -0.20179E+08        -0.46241E+05         0.00000E+00
   -0.46241E+05        -0.47629E+08         0.00000E+00
    0.00000E+00         0.00000E+00        -0.17123E+08
 
   -0.19970E+08         0.19393E+05         0.00000E+00
    0.19393E+05        -0.47623E+08         0.00000E+00
    0.00000E+00         0.00000E+00        -0.17282E+08
 
   -0.19767E+08         0.94038E+05         0.00000E+00
    0.94038E+05        -0.47646E+08         0.00000E+00
    0.00000E+00         0.00000E+00        -0.17476E+08
 
   -0.19565E+08         0.18498E+06         0.00000E+00
    0.18498E+06        -0.47703E+08         0.00000E+00
    0.00000E+00         0.00000E+00        -0.17719E+08
 
   -0.19362E+08         0.30695E+06         0.00000E+00
    0.30695E+06        -0.47801E+08         0.00000E+00
    0.00000E+00         0.00000E+00        -0.18024E+08
 
   -0.19167E+08         0.48203E+06         0.00000E+00
    0.48203E+06        -0.47946E+08         0.00000E+00
    0.00000E+00         0.00000E+00        -0.18398E+08
 
   -0.19006E+08         0.72684E+06         0.00000E+00
    0.72684E+06        -0.48116E+08         0.00000E+00
    0.00000E+00         0.00000E+00        -0.18795E+08
 
   -0.24291E+08        -0.13870E+06         0.00000E+00
   -0.13870E+06        -0.48864E+08         0.00000E+00
    0.00000E+00         0.00000E+00        -0.15862E+08
 
   -0.23505E+08        -0.23432E+06         0.00000E+00
   -0.23432E+06        -0.48812E+08         0.00000E+00
    0.00000E+00         0.00000E+00        -0.16222E+08
 
   -0.22873E+08        -0.22779E+06         0.00000E+00
   -0.22779E+06        -0.48695E+08         0.00000E+00
    0.00000E+00         0.00000E+00        -0.16463E+08
 
   -0.22382E+08        -0.20035E+06         0.00000E+00
   -0.20035E+06        -0.48570E+08         0.00000E+00
    0.00000E+00         0.00000E+00        -0.16630E+08
 
   -0.21986E+08        -0.16833E+06         0.00000E+00
   -0.16833E+06        -0.48454E+08         0.00000E+00
    0.00000E+00         0.00000E+00        -0.16759E+08
 
   -0.21657E+08        -0.13494E+06         0.00000E+00
   -0.13494E+06        -0.48355E+08         0.00000E+00
    0.00000E+00         0.00000E+00        -0.16870E+08
 
   -0.21376E+08        -0.10073E+06         0.00000E+00
   -0.10073E+06        -0.48276E+08         0.00000E+00
    0.00000E+00         0.00000E+00        -0.16976E+08
 
   -0.21128E+08        -0.65415E+05         0.00000E+00
   -0.65415E+05        -0.48218E+08         0.00000E+00
    0.00000E+00         0.00000E+00        -0.17088E+08
 
   -0.20902E+08        -0.28469E+05         0.00000E+00
   -0.28469E+05        -0.48184E+08         0.00000E+00
    0.00000E+00         0.00000E+00        -0.17215E+08
 
   -0.20688E+08         0.11152E+05         0.00000E+00
    0.11152E+05        -0.48176E+08         0.00000E+00
    0.00000E+00         0.00000E+00        -0.17366E+08
 
   -0.20478E+08         0.55213E+05         0.00000E+00
    0.55213E+05        -0.48195E+08         0.00000E+00
    0.00000E+00         0.00000E+00        -0.17553E+08
 
   -0.20258E+08         0.10786E+06         0.00000E+00
    0.10786E+06        -0.48248E+08         0.00000E+00
    0.00000E+00         0.00000E+00        -0.17794E+08
 
   -0.20018E+08         0.17955E+06         0.00000E+00
    0.17955E+06        -0.48344E+08         0.00000E+00
    0.00000E+00         0.00000E+00        -0.18114E+08
 
   -0.19745E+08         0.29829E+06         0.00000E+00
    0.29829E+06        -0.48499E+08         0.00000E+00
    0.00000E+00         0.00000E+00        -0.18552E+08
 
   -0.19466E+08         0.52329E+06         0.00000E+00
    0.52329E+06        -0.48739E+08         0.00000E+00
    0.00000E+00         0.00000E+00        -0.19136E+08
 
   -0.25218E+08        -0.98904E+05         0.00000E+00
   -0.98904E+05        -0.49575E+08         0.00000E+00
    0.00000E+00         0.00000E+00        -0.16099E+08
 
   -0.24264E+08        -0.97829E+05         0.00000E+00
   -0.97829E+05        -0.49411E+08         0.00000E+00
    0.00000E+00         0.00000E+00        -0.16411E+08
 
   -0.23615E+08        -0.82823E+05         0.00000E+00
   -0.82823E+05        -0.49245E+08         0.00000E+00
    0.00000E+00         0.00000E+00        -0.16597E+08
 
   -0.23123E+08        -0.69965E+05         0.00000E+00
   -0.69965E+05        -0.49099E+08         0.00000E+00
    0.00000E+00         0.00000E+00        -0.16731E+08
 
   -0.22729E+08        -0.57702E+05         0.00000E+00
   -0.57702E+05        -0.48974E+08         0.00000E+00
    0.00000E+00         0.00000E+00        -0.16840E+08
 
   -0.22403E+08        -0.45782E+05         0.00000E+00
   -0.45782E+05        -0.48872E+08         0.00000E+00
    0.00000E+00         0.00000E+00        -0.16938E+08
 
   -0.22124E+08        -0.33905E+05         0.00000E+00
   -0.33905E+05        -0.48794E+08         0.00000E+00
    0.00000E+00         0.00000E+00        -0.17035E+08
 
   -0.21877E+08        -0.21826E+05         0.00000E+00
   -0.21826E+05        -0.48739E+08         0.00000E+00
    0.00000E+00         0.00000E+00        -0.17141E+08
 
   -0.21652E+08        -0.93067E+04         0.00000E+00
   -0.93067E+04        -0.48708E+08         0.00000E+00
    0.00000E+00         0.00000E+00        -0.17264E+08
 
   -0.21438E+08         0.40031E+04         0.00000E+00
    0.40031E+04        -0.48704E+08         0.00000E+00
    0.00000E+00         0.00000E+00        -0.17412E+08
 
   -0.21225E+08         0.18583E+05         0.00000E+00
    0.18583E+05        -0.48728E+08         0.00000E+00
    0.00000E+00         0.00000E+00        -0.17596E+08
 
   -0.20999E+08         0.35488E+05         0.00000E+00
    0.35488E+05        -0.48784E+08         0.00000E+00
    0.00000E+00         0.00000E+00        -0.17834E+08
 
   -0.20740E+08         0.57709E+05         0.00000E+00
    0.57709E+05        -0.48882E+08         0.00000E+00
    0.00000E+00         0.00000E+00        -0.18157E+08
 
   -0.20408E+08         0.96248E+05         0.00000E+00
    0.96248E+05        -0.49041E+08         0.00000E+00
    0.00000E+00         0.00000E+00        -0.18630E+08
 
   -0.19927E+08         0.20515E+06         0.00000E+00
    0.20515E+06        -0.49311E+08         0.00000E+00
    0.00000E+00         0.00000E+00        -0.19414E+08
 
TENSORS stresstot double 
   -0.34169E+08         0.25365E+04         0.00000E+00
    0.25365E+04        -0.59995E+08         0.00000E+00
    0.00000E+00         0.00000E+00        -0.36587E+08
 
   -0.34103E+08         0.78147E+04         0.00000E+00
    0.78147E+04        -0.59985E+08         0.00000E+00
    0.00000E+00         0.00000E+00        -0.36653E+08
 
   -0.34052E+08         0.13026E+05         0.00000E+00
    0.13026E+05        -0.59964E+08         0.00000E+00
    0.00000E+00         0.00000E+00        -0.36684E+08
 
   -0.34022E+08         0.17740E+05         0.00000E+00
    0.17740E+05        -0.59934E+08         0.00000E+00
    0.00000E+00         0.00000E+00        -0.36673E+08
 
   -0.34020E+08         0.21527E+05         0.00000E+00
    0.21527E+05        -0.59895E+08         0.00000E+00
    0.00000E+00         0.00000E+00        -0.36614E+08
 
   -0.34046E+08         0.24221E+05         0.00000E+00
    0.24221E+05        -0.59850E+08         0.00000E+00
    0.00000E+00         0.00000E+00        -0.36507E+08
 
   -0.34101E+08         0.26149E+05         0.00000E+00
    0.26149E+05        -0.59800E+08         0.00000E+00
    0.00000E+00         0.00000E+00        -0.36359E+08
 
   -0.34179E+08         0.27565E+05         0.00000E+00
    0.27565E+05        -0.59747E+08         0.00000E+00
    0.00000E+00         0.00000E+00        -0.36182E+08
 
   -0.34272E+08         0.28846E+05         0.00000E+00
    0.28846E+05        -0.59691E+08         0.00000E+00
    0.00000E+00         0.00000E+00        -0.35986E+08
 
   -0.34372E+08         0.30295E+05         0.00000E+00
    0.30295E+05        -0.59633E+08         0.00000E+00
    0.00000E+00         0.00000E+00        -0.35782E+08
 
   -0.34472E+08         0.32077E+05         0.00000E+00
    0.32077E+05        -0.59571E+08         0.00000E+00
    0.00000E+00         0.00000E+00        -0.35579E+08
 
   -0.34565E+08         0.34235E+05         0.00000E+00
    0.34235E+05        -0.59505E+08         0.00000E+00
    0.00000E+00         0.00000E+00        -0.35383E+08
 
   -0.34648E+08         0.36701E+05         0.00000E+00
    0.36701E+05        -0.59434E+08         0.00000E+00
    0.00000E+00         0.00000E+00        -0.35196E+08
 
   -0.34716E+08         0.39368E+05         0.00000E+00
    0.39368E+05        -0.59358E+08         0.00000E+00
    0.00000E+00         0.00000E+00        -0.35022E+08
 
   -0.34766E+08         0.42103E+05         0.00000E+00
    0.42103E+05        -0.59277E+08         0.00000E+00
    0.00000E+00         0.00000E+00        -0.34862E+08
 
   -0.34159E+08         0.75364E+04         0.00000E+00
    0.75364E+04        -0.59995E+08         0.00000E+00
    0.00000E+00         0.00000E+00        -0.36567E+08
 
   -0.34092E+08         0.23330E+05         0.00000E+00
    0.23330E+05        -0.59985E+08         0.00000E+00
    0.00000E+00         0.00000E+00        -0.36634E+08
 
   -0.34042E+08         0.38939E+05         0.00000E+00
    0.38939E+05        -0.59965E+08         0.00000E+00
    0.00000E+00         0.00000E+00        -0.36665E+08
 
   -0.34014E+08         0.52831E+05         0.00000E+00
    0.52831E+05        -0.59935E+08         0.00000E+00
    0.00000E+00         0.00000E+00        -0.36653E+08
 
   -0.34013E+08         0.63948E+05         0.00000E+00
    0.63948E+05        -0.59897E+08         0.00000E+00
    0.00000E+00         0.00000E+00        -0.36592E+08
 
   -0.34042E+08         0.71841E+05         0.00000E+00
    0.71841E+05        -0.59853E+08         0.00000E+00
    0.00000E+00         0.00000E+00        -0.36485E+08
 
   -0.34098E+08         0.77544E+05         0.00000E+00
    0.77544E+05        -0.59805E+08         0.00000E+00
    0.00000E+00         0.00000E+00        -0.36339E+08
 
   -0.34176E+08         0.81816E+05         0.00000E+00
    0.81816E+05        -0.59754E+08         0.00000E+00
    0.00000E+00         0.00000E+00        -0.36163E+08
 
   -0.34269E+08         0.85768E+05         0.00000E+00
    0.85768E+05        -0.59700E+08         0.00000E+00
    0.00000E+00         0.00000E+00        -0.35970E+08
 
   -0.34369E+08         0.90272E+05         0.00000E+00
    0.90272E+05        -0.59643E+08         0.00000E+00
    0.00000E+00         0.00000E+00        -0.35769E+08
 
   -0.34468E+08         0.95769E+05         0.00000E+00
    0.95769E+05        -0.59582E+08         0.00000E+00
    0.00000E+00         0.00000E+00        -0.35569E+08
 
   -0.34561E+08         0.10237E+06         0.00000E+00
    0.10237E+06        -0.59517E+08         0.00000E+00
    0.00000E+00         0.00000E+00        -0.35374E+08
 
   -0.34643E+08         0.10987E+06         0.00000E+00
    0.10987E+06        -0.59447E+08         0.00000E+00
    0.00000E+00         0.00000E+00        -0.35189E+08
 
   -0.34710E+08         0.11796E+06         0.00000E+00
    0.11796E+06        -0.59371E+08         0.00000E+00
    0.00000E+00         0.00000E+00        -0.35016E+08
 
   -0.34760E+08         0.12625E+06         0.00000E+00
    0.12625E+06        -0.59290E+08         0.00000E+00
    0.00000E+00         0.00000E+00        -0.34857E+08
 
   -0.34138E+08         0.12509E+05         0.00000E+00
    0.12509E+05        -0.59994E+08         0.00000E+00
    0.00000E+00         0.00000E+00        -0.36526E+08
 
   -0.34071E+08         0.38660E+05         0.00000E+00
    0.38660E+05        -0.59985E+08         0.00000E+00
    0.00000E+00         0.00000E+00        -0.36594E+08
 
   -0.34022E+08         0.64133E+05         0.00000E+00
    0.64133E+05        -0.59965E+08         0.00000E+00
    0.00000E+00         0.00000E+00        -0.36624E+08
 
   -0.33997E+08         0.86660E+05         0.00000E+00
    0.86660E+05        -0.59937E+08         0.00000E+00
    0.00000E+00         0.00000E+00        -0.36611E+08
 
   -0.34001E+08         0.10438E+06         0.00000E+00
    0.10438E+06        -0.59901E+08         0.00000E+00
    0.00000E+00         0.00000E+00        -0.36548E+08
 
   -0.34033E+08         0.11702E+06         0.00000E+00
    0.11702E+06        -0.59861E+08         0.00000E+00
    0.00000E+00         0.00000E+00        -0.36442E+08
 
   -0.34092E+08         0.12626E+06         0.00000E+00
    0.12626E+06        -0.59816E+08         0.00000E+00
    0.00000E+00         0.00000E+00        -0.36298E+08
 
   -0.34171E+08         0.13349E+06         0.00000E+00
    0.13349E+06        -0.59768E+08         0.00000E+00
    0.00000E+00         0.00000E+00        -0.36127E+08
 
   -0.34264E+08         0.14046E+06         0.00000E+00
    0.14046E+06        -0.59717E+08         0.00000E+00
    0.00000E+00         0.00000E+00        -0.35939E+08
 
   -0.34362E+08         0.14847E+06         0.00000E+00
    0.14847E+06        -0.59663E+08         0.00000E+00
    0.00000E+00         0.00000E+00        -0.35744E+08
 
   -0.34460E+08         0.15811E+06         0.00000E+00
    0.15811E+06        -0.59604E+08         0.00000E+00
    0.00000E+00         0.00000E+00        -0.35548E+08
 
   -0.34551E+08         0.16950E+06         0.00000E+00
    0.16950E+06        -0.59540E+08         0.00000E+00
    0.00000E+00         0.00000E+00        -0.35358E+08
 
   -0.34632E+08         0.18235E+06         0.00000E+00
    0.18235E+06        -0.59471E+08         0.00000E+00
    0.00000E+00         0.00000E+00        -0.35176E+08
 
   -0.34699E+08         0.19614E+06         0.00000E+00
    0.19614E+06        -0.59396E+08         0.00000E+00
    0.00000E+00         0.00000E+00        -0.35004E+08
 
   -0.34749E+08         0.21021E+06         0.00000E+00
    0.21021E+06        -0.59316E+08         0.00000E+00
    0.00000E+00         0.00000E+00        -0.34846E+08
 
   -0.34107E+08         0.17488E+05         0.00000E+00
    0.17488E+05        -0.59995E+08         0.00000E+00
    0.00000E+00         0.00000E+00        -0.36466E+08
 
   -0.34040E+08         0.53613E+05         0.00000E+00
    0.53613E+05        -0.59985E+08         0.00000E+00
    0.00000E+00         0.00000E+00        -0.36534E+08
 
   -0.33993E+08         0.88176E+05         0.00000E+00
    0.88176E+05        -0.59966E+08         0.00000E+00
    0.00000E+00         0.00000E+00        -0.36563E+08
 
   -0.33973E+08         0.11817E+06         0.00000E+00
    0.11817E+06        -0.59940E+08         0.00000E+00
    0.00000E+00         0.00000E+00        -0.36546E+08
 
   -0.33983E+08         0.14131E+06         0.00000E+00
    0.14131E+06        -0.59908E+08         0.00000E+00
    0.00000E+00         0.00000E+00        -0.36482E+08
 
   -0.34020E+08         0.15813E+06         0.00000E+00
    0.15813E+06        -0.59872E+08         0.00000E+00
    0.00000E+00         0.00000E+00        -0.36377E+08
 
   -0.34082E+08         0.17064E+06         0.00000E+00
    0.17064E+06        -0.59833E+08         0.00000E+00
    0.00000E+00         0.00000E+00        -0.36238E+08
 
   -0.34163E+08         0.18111E+06         0.00000E+00
    0.18111E+06        -0.59790E+08         0.00000E+00
    0.00000E+00         0.00000E+00        -0.36073E+08
 
   -0.34255E+08         0.19168E+06         0.00000E+00
    0.19168E+06        -0.59743E+08         0.00000E+00
    0.00000E+00         0.00000E+00        -0.35893E+08
 
   -0.34351E+08         0.20386E+06         0.00000E+00
    0.20386E+06        -0.59692E+08         0.00000E+00
    0.00000E+00         0.00000E+00        -0.35706E+08
 
   -0.34447E+08         0.21829E+06         0.00000E+00
    0.21829E+06        -0.59636E+08         0.00000E+00
    0.00000E+00         0.00000E+00        -0.35517E+08
 
   -0.34537E+08         0.23502E+06         0.00000E+00
    0.23502E+06        -0.59575E+08         0.00000E+00
    0.00000E+00         0.00000E+00        -0.35332E+08
 
   -0.34616E+08         0.25369E+06         0.00000E+00
    0.25369E+06        -0.59507E+08         0.00000E+00
    0.00000E+00         0.00000E+00        -0.35155E+08
 
   -0.34682E+08         0.27358E+06         0.00000E+00
    0.27358E+06        -0.59434E+08         0.00000E+00
    0.00000E+00         0.00000E+00        -0.34986E+08
 
   -0.34732E+08         0.29372E+06         0.00000E+00
    0.29372E+06        -0.59354E+08         0.00000E+00
    0.00000E+00         0.00000E+00        -0.34829E+08
 
   -0.34066E+08         0.22313E+05         0.00000E+00
    0.22313E+05        -0.59994E+08         0.00000E+00
    0.00000E+00         0.00000E+00        -0.36385E+08
 
   -0.34000E+08         0.67813E+05         0.00000E+00
    0.67813E+05        -0.59985E+08         0.00000E+00
    0.00000E+00         0.00000E+00        -0.36454E+08
 
   -0.33957E+08         0.11046E+06         0.00000E+00
    0.11046E+06        -0.59969E+08         0.00000E+00
    0.00000E+00         0.00000E+00        -0.36481E+08
 
   -0.33944E+08         0.14621E+06         0.00000E+00
    0.14621E+06        -0.59946E+08         0.00000E+00
    0.00000E+00         0.00000E+00        -0.36460E+08
 
   -0.33961E+08         0.17336E+06         0.00000E+00
    0.17336E+06        -0.59919E+08         0.00000E+00
    0.00000E+00         0.00000E+00        -0.36395E+08
 
   -0.34004E+08         0.19362E+06         0.00000E+00
    0.19362E+06        -0.59889E+08         0.00000E+00
    0.00000E+00         0.00000E+00        -0.36292E+08
 
   -0.34069E+08         0.20929E+06         0.00000E+00
    0.20929E+06        -0.59855E+08         0.00000E+00
    0.00000E+00         0.00000E+00        -0.36159E+08
 
   -0.34151E+08         0.22351E+06         0.00000E+00
    0.22351E+06        -0.59818E+08         0.00000E+00
    0.00000E+00         0.00000E+00        -0.36003E+08
 
   -0.34241E+08         0.23844E+06         0.00000E+00
    0.23844E+06        -0.59777E+08         0.00000E+00
    0.00000E+00         0.00000E+00        -0.35833E+08
 
   -0.34336E+08         0.25560E+06         0.00000E+00
    0.25560E+06        -0.59730E+08         0.00000E+00
    0.00000E+00         0.00000E+00        -0.35655E+08
 
   -0.34429E+08         0.27558E+06         0.00000E+00
    0.27558E+06        -0.59678E+08         0.00000E+00
    0.00000E+00         0.00000E+00        -0.35476E+08
 
   -0.34516E+08         0.29838E+06         0.00000E+00
    0.29838E+06        -0.59619E+08         0.00000E+00
    0.00000E+00         0.00000E+00        -0.35298E+08
 
   -0.34594E+08         0.32344E+06         0.00000E+00
    0.32344E+06        -0.59554E+08         0.00000E+00
    0.00000E+00         0.00000E+00        -0.35126E+08
 
   -0.34659E+08         0.34987E+06         0.00000E+00
    0.34987E+06        -0.59482E+08         0.00000E+00
    0.00000E+00         0.00000E+00        -0.34961E+08
 
   -0.34710E+08         0.37648E+06         0.00000E+00
    0.37648E+06        -0.59403E+08         0.00000E+00
    0.00000E+00         0.00000E+00        -0.34806E+08
 
   -0.34016E+08         0.26899E+05         0.00000E+00
    0.26899E+05        -0.59994E+08         0.00000E+00
    0.00000E+00         0.00000E+00        -0.36285E+08
 
   -0.33950E+08         0.80837E+05         0.00000E+00
    0.80837E+05        -0.59986E+08         0.00000E+00
    0.00000E+00         0.00000E+00        -0.36354E+08
 
   -0.33914E+08         0.12981E+06         0.00000E+00
    0.12981E+06        -0.59972E+08         0.00000E+00
    0.00000E+00         0.00000E+00        -0.36376E+08
 
   -0.33910E+08         0.16940E+06         0.00000E+00
    0.16940E+06        -0.59954E+08         0.00000E+00
    0.00000E+00         0.00000E+00        -0.36351E+08
 
   -0.33936E+08         0.19934E+06         0.00000E+00
    0.19934E+06        -0.59933E+08         0.00000E+00
    0.00000E+00         0.00000E+00        -0.36285E+08
 
   -0.33986E+08         0.22216E+06         0.00000E+00
    0.22216E+06        -0.59910E+08         0.00000E+00
    0.00000E+00         0.00000E+00        -0.36186E+08
 
   -0.34053E+08         0.24129E+06         0.00000E+00
    0.24129E+06        -0.59884E+08         0.00000E+00
    0.00000E+00         0.00000E+00        -0.36061E+08
 
   -0.34134E+08         0.25988E+06         0.00000E+00
    0.25988E+06        -0.59854E+08         0.00000E+00
    0.00000E+00         0.00000E+00        -0.35917E+08
 
   -0.34223E+08         0.27998E+06         0.00000E+00
    0.27998E+06        -0.59818E+08         0.00000E+00
    0.00000E+00         0.00000E+00        -0.35758E+08
 
   -0.34315E+08         0.30298E+06         0.00000E+00
    0.30298E+06        -0.59776E+08         0.00000E+00
    0.00000E+00         0.00000E+00        -0.35593E+08
 
   -0.34404E+08         0.32937E+06         0.00000E+00
    0.32937E+06        -0.59728E+08         0.00000E+00
    0.00000E+00         0.00000E+00        -0.35424E+08
 
   -0.34489E+08         0.35897E+06         0.00000E+00
    0.35897E+06        -0.59673E+08         0.00000E+00
    0.00000E+00         0.00000E+00        -0.35255E+08
 
   -0.34565E+08         0.39109E+06         0.00000E+00
    0.39109E+06        -0.59611E+08         0.00000E+00
    0.00000E+00         0.00000E+00        -0.35089E+08
 
   -0.34629E+08         0.42463E+06         0.00000E+00
    0.42463E+06        -0.59540E+08         0.00000E+00
    0.00000E+00         0.00000E+00        -0.34929E+08
 
   -0.34680E+08         0.45852E+06         0.00000E+00
    0.45852E+06        -0.59463E+08         0.00000E+00
    0.00000E+00         0.00000E+00        -0.34776E+08
 
   -0.33957E+08         0.31042E+05         0.00000E+00
    0.31042E+05        -0.59995E+08         0.00000E+00
    0.00000E+00         0.00000E+00        -0.36165E+08
 
   -0.33895E+08         0.92035E+05         0.00000E+00
    0.92035E+05        -0.59988E+08         0.00000E+00
    0.00000E+00         0.00000E+00        -0.36231E+08
 
   -0.33867E+08         0.14494E+06         0.00000E+00
    0.14494E+06        -0.59977E+08         0.00000E+00
    0.00000E+00         0.00000E+00        -0.36248E+08
 
   -0.33874E+08         0.18631E+06         0.00000E+00
    0.18631E+06        -0.59965E+08         0.00000E+00
    0.00000E+00         0.00000E+00        -0.36219E+08
 
   -0.33909E+08         0.21771E+06         0.00000E+00
    0.21771E+06        -0.59952E+08         0.00000E+00
    0.00000E+00         0.00000E+00        -0.36153E+08
 
   -0.33964E+08         0.24313E+06         0.00000E+00
    0.24313E+06        -0.59937E+08         0.00000E+00
    0.00000E+00         0.00000E+00        -0.36061E+08
 
   -0.34033E+08         0.26616E+06         0.00000E+00
    0.26616E+06        -0.59918E+08         0.00000E+00
    0.00000E+00         0.00000E+00        -0.35947E+08
 
   -0.34113E+08         0.28969E+06         0.00000E+00
    0.28969E+06        -0.59895E+08         0.00000E+00
    0.00000E+00         0.00000E+00        -0.35815E+08
 
   -0.34199E+08         0.31574E+06         0.00000E+00
    0.31574E+06        -0.59866E+08         0.00000E+00
    0.00000E+00         0.00000E+00        -0.35670E+08
 
   -0.34287E+08         0.34544E+06         0.00000E+00
    0.34544E+06        -0.59830E+08         0.00000E+00
    0.00000E+00         0.00000E+00        -0.35518E+08
 
   -0.34373E+08         0.37908E+06         0.00000E+00
    0.37908E+06        -0.59786E+08         0.00000E+00
    0.00000E+00         0.00000E+00        -0.35361E+08
 
   -0.34454E+08         0.41628E+06         0.00000E+00
    0.41628E+06        -0.59735E+08         0.00000E+00
    0.00000E+00         0.00000E+00        -0.35202E+08
 
   -0.34528E+08         0.45619E+06         0.00000E+00
    0.45619E+06        -0.59676E+08         0.00000E+00
    0.00000E+00         0.00000E+00        -0.35044E+08
 
   -0.34592E+08         0.49774E+06         0.00000E+00
    0.49774E+06        -0.59608E+08         0.00000E+00
    0.00000E+00         0.00000E+00        -0.34889E+08
 
   -0.34643E+08         0.53917E+06         0.00000E+00
    0.53917E+06        -0.59532E+08         0.00000E+00
    0.00000E+00         0.00000E+00        -0.34739E+08
 
   -0.33890E+08         0.34503E+05         0.00000E+00
    0.34503E+05        -0.59995E+08         0.00000E+00
    0.00000E+00         0.00000E+00        -0.36024E+08
 
   -0.33834E+08         0.10027E+06         0.00000E+00
    0.10027E+06        -0.59991E+08         0.00000E+00
    0.00000E+00         0.00000E+00        -0.36085E+08
 
   -0.33818E+08         0.15436E+06         0.00000E+00
    0.15436E+06        -0.59986E+08         0.00000E+00
    0.00000E+00         0.00000E+00        -0.36096E+08
 
   -0.33838E+08         0.19552E+06         0.00000E+00
    0.19552E+06        -0.59981E+08         0.00000E+00
    0.00000E+00         0.00000E+00        -0.36062E+08
 
   -0.33880E+08         0.22800E+06         0.00000E+00
    0.22800E+06        -0.59975E+08         0.00000E+00
    0.00000E+00         0.00000E+00        -0.36000E+08
 
   -0.33938E+08         0.25622E+06         0.00000E+00
    0.25622E+06        -0.59968E+08         0.00000E+00
    0.00000E+00         0.00000E+00        -0.35916E+08
 
   -0.34008E+08         0.28351E+06         0.00000E+00
    0.28351E+06        -0.59957E+08         0.00000E+00
    0.00000E+00         0.00000E+00        -0.35814E+08
 
   -0.34085E+08         0.31257E+06         0.00000E+00
    0.31257E+06        -0.59941E+08         0.00000E+00
    0.00000E+00         0.00000E+00        -0.35697E+08
 
   -0.34168E+08         0.34527E+06         0.00000E+00
    0.34527E+06        -0.59919E+08         0.00000E+00
    0.00000E+00         0.00000E+00        -0.35568E+08
 
   -0.34252E+08         0.38246E+06         0.00000E+00
    0.38246E+06        -0.59889E+08         0.00000E+00
    0.00000E+00         0.00000E+00        -0.35430E+08
 
   -0.34334E+08         0.42416E+06         0.00000E+00
    0.42416E+06        -0.59851E+08         0.00000E+00
    0.00000E+00         0.00000E+00        -0.35287E+08
 
   -0.34412E+08         0.46983E+06         0.00000E+00
    0.46983E+06        -0.59804E+08         0.00000E+00
    0.00000E+00         0.00000E+00        -0.35139E+08
 
   -0.34483E+08         0.51848E+06         0.00000E+00
    0.51848E+06        -0.59748E+08         0.00000E+00
    0.00000E+00         0.00000E+00        -0.34990E+08
 
   -0.34546E+08         0.56850E+06         0.00000E+00
    0.56850E+06        -0.59683E+08         0.00000E+00
    0.00000E+00         0.00000E+00        -0.34841E+08
 
   -0.34598E+08         0.61850E+06         0.00000E+00
    0.61850E+06        -0.59609E+08         0.00000E+00
    0.00000E+00         0.00000E+00        -0.34695E+08
 
   -0.33818E+08         0.36889E+05         0.00000E+00
    0.36889E+05        -0.59997E+08         0.00000E+00
    0.00000E+00         0.00000E+00        -0.35861E+08
 
   -0.33772E+08         0.10411E+06         0.00000E+00
    0.10411E+06        -0.59996E+08         0.00000E+00
    0.00000E+00         0.00000E+00        -0.35916E+08
 
   -0.33772E+08         0.15650E+06         0.00000E+00
    0.15650E+06        -0.59997E+08         0.00000E+00
    0.00000E+00         0.00000E+00        -0.35916E+08
 
   -0.33802E+08         0.19662E+06         0.00000E+00
    0.19662E+06        -0.59999E+08         0.00000E+00
    0.00000E+00         0.00000E+00        -0.35881E+08
 
   -0.33850E+08         0.23016E+06         0.00000E+00
    0.23016E+06        -0.60002E+08         0.00000E+00
    0.00000E+00         0.00000E+00        -0.35824E+08
 
   -0.33909E+08         0.26127E+06         0.00000E+00
    0.26127E+06        -0.60003E+08         0.00000E+00
    0.00000E+00         0.00000E+00        -0.35752E+08
 
   -0.33978E+08         0.29310E+06         0.00000E+00
    0.29310E+06        -0.60000E+08         0.00000E+00
    0.00000E+00         0.00000E+00        -0.35664E+08
 
   -0.34052E+08         0.32822E+06         0.00000E+00
    0.32822E+06        -0.59991E+08         0.00000E+00
    0.00000E+00         0.00000E+00        -0.35563E+08
 
   -0.34130E+08         0.36817E+06         0.00000E+00
    0.36817E+06        -0.59976E+08         0.00000E+00
    0.00000E+00         0.00000E+00        -0.35451E+08
 
   -0.34208E+08         0.41356E+06         0.00000E+00
    0.41356E+06        -0.59952E+08         0.00000E+00
    0.00000E+00         0.00000E+00        -0.35330E+08
 
   -0.34286E+08         0.46419E+06         0.00000E+00
    0.46419E+06        -0.59920E+08         0.00000E+00
    0.00000E+00         0.00000E+00        -0.35201E+08
 
   -0.34360E+08         0.51920E+06         0.00000E+00
    0.51920E+06        -0.59878E+08         0.00000E+00
    0.00000E+00         0.00000E+00        -0.35066E+08
 
   -0.34429E+08         0.57726E+06         0.00000E+00
    0.57726E+06        -0.59826E+08         0.00000E+00
    0.00000E+00         0.00000E+00        -0.34927E+08
 
   -0.34492E+08         0.63686E+06         0.00000E+00
    0.63686E+06        -0.59764E+08         0.00000E+00
    0.00000E+00         0.00000E+00        -0.34785E+08
 
   -0.34545E+08         0.69596E+06         0.00000E+00
    0.69596E+06        -0.59693E+08         0.00000E+00
    0.00000E+00         0.00000E+00        -0.34641E+08
 
   -0.33743E+08         0.37336E+05         0.00000E+00
    0.37336E+05        -0.59999E+08         0.00000E+00
    0.00000E+00         0.00000E+00        -0.35675E+08
 
   -0.33713E+08         0.10224E+06         0.00000E+00
    0.10224E+06        -0.60002E+08         0.00000E+00
    0.00000E+00         0.00000E+00        -0.35715E+08
 
   -0.33727E+08         0.15093E+06         0.00000E+00
    0.15093E+06        -0.60009E+08         0.00000E+00
    0.00000E+00         0.00000E+00        -0.35707E+08
 
   -0.33766E+08         0.18967E+06         0.00000E+00
    0.18967E+06        -0.60020E+08         0.00000E+00
    0.00000E+00         0.00000E+00        -0.35674E+08
 
   -0.33817E+08         0.22406E+06         0.00000E+00
    0.22406E+06        -0.60030E+08         0.00000E+00
    0.00000E+00         0.00000E+00        -0.35626E+08
 
   -0.33876E+08         0.25811E+06         0.00000E+00
    0.25811E+06        -0.60039E+08         0.00000E+00
    0.00000E+00         0.00000E+00        -0.35567E+08
 
   -0.33942E+08         0.29477E+06         0.00000E+00
    0.29477E+06        -0.60044E+08         0.00000E+00
    0.00000E+00         0.00000E+00        -0.35495E+08
 
   -0.34011E+08         0.33632E+06         0.00000E+00
    0.33632E+06        -0.60044E+08         0.00000E+00
    0.00000E+00         0.00000E+00        -0.35413E+08
 
   -0.34083E+08         0.38405E+06         0.00000E+00
    0.38405E+06        -0.60036E+08         0.00000E+00
    0.00000E+00         0.00000E+00        -0.35320E+08
 
   -0.34156E+08         0.43832E+06         0.00000E+00
    0.43832E+06        -0.60019E+08         0.00000E+00
    0.00000E+00         0.00000E+00        -0.35217E+08
 
   -0.34228E+08         0.49859E+06         0.00000E+00
    0.49859E+06        -0.59993E+08         0.00000E+00
    0.00000E+00         0.00000E+00        -0.35104E+08
 
   -0.34299E+08         0.56384E+06         0.00000E+00
    0.56384E+06        -0.59957E+08         0.00000E+00
    0.00000E+00         0.00000E+00        -0.34983E+08
 
   -0.34365E+08         0.63243E+06         0.00000E+00
    0.63243E+06        -0.59909E+08         0.00000E+00
    0.00000E+00         0.00000E+00        -0.34853E+08
 
   -0.34427E+08         0.70231E+06         0.00000E+00
    0.70231E+06        -0.59851E+08         0.00000E+00
    0.00000E+00         0.00000E+00        -0.34718E+08
 
   -0.34483E+08         0.77135E+06         0.00000E+00
    0.77135E+06        -0.59781E+08         0.00000E+00
    0.00000E+00         0.00000E+00        -0.34579E+08
 
   -0.33670E+08         0.35076E+05         0.00000E+00
    0.35076E+05        -0.60001E+08         0.00000E+00
    0.00000E+00         0.00000E+00        -0.35459E+08
 
   -0.33659E+08         0.94151E+05         0.00000E+00
    0.94151E+05        -0.60008E+08         0.00000E+00
    0.00000E+00         0.00000E+00        -0.35483E+08
 
   -0.33686E+08         0.13787E+06         0.00000E+00
    0.13787E+06        -0.60022E+08         0.00000E+00
    0.00000E+00         0.00000E+00        -0.35469E+08
 
   -0.33730E+08         0.17461E+06         0.00000E+00
    0.17461E+06        -0.60040E+08         0.00000E+00
    0.00000E+00         0.00000E+00        -0.35441E+08
 
   -0.33782E+08         0.20967E+06         0.00000E+00
    0.20967E+06        -0.60059E+08         0.00000E+00
    0.00000E+00         0.00000E+00        -0.35405E+08
 
   -0.33840E+08         0.24663E+06         0.00000E+00
    0.24663E+06        -0.60076E+08         0.00000E+00
    0.00000E+00         0.00000E+00        -0.35361E+08
 
   -0.33900E+08         0.28828E+06         0.00000E+00
    0.28828E+06        -0.60090E+08         0.00000E+00
    0.00000E+00         0.00000E+00        -0.35308E+08
 
   -0.33963E+08         0.33656E+06         0.00000E+00
    0.33656E+06        -0.60097E+08         0.00000E+00
    0.00000E+00         0.00000E+00        -0.35246E+08
 
   -0.34028E+08         0.39251E+06         0.00000E+00
    0.39251E+06        -0.60097E+08         0.00000E+00
    0.00000E+00         0.00000E+00        -0.35174E+08
 
   -0.34094E+08         0.45622E+06         0.00000E+00
    0.45622E+06        -0.60088E+08         0.00000E+00
    0.00000E+00         0.00000E+00        -0.35090E+08
 
   -0.34160E+08         0.52705E+06         0.00000E+00
    0.52705E+06        -0.60068E+08         0.00000E+00
    0.00000E+00         0.00000E+00        -0.34995E+08
 
   -0.34226E+08         0.60340E+06         0.00000E+00
    0.60340E+06        -0.60037E+08         0.00000E+00
    0.00000E+00         0.00000E+00        -0.34888E+08
 
   -0.34291E+08         0.68337E+06         0.00000E+00
    0.68337E+06        -0.59995E+08         0.00000E+00
    0.00000E+00         0.00000E+00        -0.34770E+08
 
   -0.34352E+08         0.76457E+06         0.00000E+00
    0.76457E+06        -0.59940E+08         0.00000E+00
    0.00000E+00         0.00000E+00        -0.34643E+08
 
   -0.34410E+08         0.84442E+06         0.00000E+00
    0.84442E+06        -0.59874E+08         0.00000E+00
    0.00000E+00         0.00000E+00        -0.34507E+08
 
   -0.33604E+08         0.30119E+05         0.00000E+00
    0.30119E+05        -0.60002E+08         0.00000E+00
    0.00000E+00         0.00000E+00        -0.35209E+08
 
   -0.33612E+08         0.79650E+05         0.00000E+00
    0.79650E+05        -0.60014E+08         0.00000E+00
    0.00000E+00         0.00000E+00        -0.35216E+08
 
   -0.33649E+08         0.11751E+06         0.00000E+00
    0.11751E+06        -0.60035E+08         0.00000E+00
    0.00000E+00         0.00000E+00        -0.35202E+08
 
   -0.33695E+08         0.15175E+06         0.00000E+00
    0.15175E+06        -0.60060E+08         0.00000E+00
    0.00000E+00         0.00000E+00        -0.35182E+08
 
   -0.33746E+08         0.18700E+06         0.00000E+00
    0.18700E+06        -0.60087E+08         0.00000E+00
    0.00000E+00         0.00000E+00        -0.35159E+08
 
   -0.33799E+08         0.22674E+06         0.00000E+00
    0.22674E+06        -0.60112E+08         0.00000E+00
    0.00000E+00         0.00000E+00        -0.35133E+08
 
   -0.33853E+08         0.27342E+06         0.00000E+00
    0.27342E+06        -0.60134E+08         0.00000E+00
    0.00000E+00         0.00000E+00        -0.35101E+08
 
   -0.33908E+08         0.32863E+06         0.00000E+00
    0.32863E+06        -0.60150E+08         0.00000E+00
    0.00000E+00         0.00000E+00        -0.35062E+08
 
   -0.33964E+08         0.39322E+06         0.00000E+00
    0.39322E+06        -0.60158E+08         0.00000E+00
    0.00000E+00         0.00000E+00        -0.35011E+08
 
   -0.34022E+08         0.46705E+06         0.00000E+00
    0.46705E+06        -0.60156E+08         0.00000E+00
    0.00000E+00         0.00000E+00        -0.34948E+08
 
   -0.34081E+08         0.54901E+06         0.00000E+00
    0.54901E+06        -0.60143E+08         0.00000E+00
    0.00000E+00         0.00000E+00        -0.34872E+08
 
   -0.34142E+08         0.63743E+06         0.00000E+00
    0.63743E+06        -0.60119E+08         0.00000E+00
    0.00000E+00         0.00000E+00        -0.34781E+08
 
   -0.34204E+08         0.72971E+06         0.00000E+00
    0.72971E+06        -0.60082E+08         0.00000E+00
    0.00000E+00         0.00000E+00        -0.34675E+08
 
   -0.34266E+08         0.82319E+06         0.00000E+00
    0.82319E+06        -0.60031E+08         0.00000E+00
    0.00000E+00         0.00000E+00        -0.34556E+08
 
   -0.34327E+08         0.91475E+06         0.00000E+00
    0.91475E+06        -0.59969E+08         0.00000E+00
    0.00000E+00         0.00000E+00        -0.34425E+08
 
   -0.33550E+08         0.22226E+05         0.00000E+00
    0.22226E+05        -0.60004E+08         0.00000E+00
    0.00000E+00         0.00000E+00        -0.34923E+08
 
   -0.33575E+08         0.59752E+05         0.00000E+00
    0.59752E+05        -0.60020E+08         0.00000E+00
    0.00000E+00         0.00000E+00        -0.34916E+08
 
   -0.33616E+08         0.90463E+05         0.00000E+00
    0.90463E+05        -0.60046E+08         0.00000E+00
    0.00000E+00         0.00000E+00        -0.34904E+08
 
   -0.33662E+08         0.12121E+06         0.00000E+00
    0.12121E+06        -0.60078E+08         0.00000E+00
    0.00000E+00         0.00000E+00        -0.34896E+08
 
   -0.33708E+08         0.15621E+06         0.00000E+00
    0.15621E+06        -0.60112E+08         0.00000E+00
    0.00000E+00         0.00000E+00        -0.34890E+08
 
   -0.33754E+08         0.19845E+06         0.00000E+00
    0.19845E+06        -0.60146E+08         0.00000E+00
    0.00000E+00         0.00000E+00        -0.34884E+08
 
   -0.33799E+08         0.25009E+06         0.00000E+00
    0.25009E+06        -0.60176E+08         0.00000E+00
    0.00000E+00         0.00000E+00        -0.34875E+08
 
   -0.33844E+08         0.31247E+06         0.00000E+00
    0.31247E+06        -0.60200E+08         0.00000E+00
    0.00000E+00         0.00000E+00        -0.34858E+08
 
   -0.33890E+08         0.38604E+06         0.00000E+00
    0.38604E+06        -0.60216E+08         0.00000E+00
    0.00000E+00         0.00000E+00        -0.34831E+08
 
   -0.33939E+08         0.47038E+06         0.00000E+00
    0.47038E+06        -0.60222E+08         0.00000E+00
    0.00000E+00         0.00000E+00        -0.34791E+08
 
   -0.33990E+08         0.56423E+06         0.00000E+00
    0.56423E+06        -0.60217E+08         0.00000E+00
    0.00000E+00         0.00000E+00        -0.34735E+08
 
   -0.34046E+08         0.66531E+06         0.00000E+00
    0.66531E+06        -0.60199E+08         0.00000E+00
    0.00000E+00         0.00000E+00        -0.34661E+08
 
   -0.34105E+08         0.77092E+06         0.00000E+00
    0.77092E+06        -0.60167E+08         0.00000E+00
    0.00000E+00         0.00000E+00        -0.34569E+08
 
   -0.34167E+08         0.87769E+06         0.00000E+00
    0.87769E+06        -0.60122E+08         0.00000E+00
    0.00000E+00         0.00000E+00        -0.34459E+08
 
   -0.34232E+08         0.98189E+06         0.00000E+00
    0.98189E+06        -0.60063E+08         0.00000E+00
    0.00000E+00         0.00000E+00        -0.34332E+08
 
   -0.33513E+08         0.12033E+05         0.00000E+00
    0.12033E+05        -0.60005E+08         0.00000E+00
    0.00000E+00         0.00000E+00        -0.34594E+08
 
   -0.33547E+08         0.35412E+05         0.00000E+00
    0.35412E+05        -0.60024E+08         0.00000E+00
    0.00000E+00         0.00000E+00        -0.34582E+08
 
   -0.33589E+08         0.57253E+05         0.00000E+00
    0.57253E+05        -0.60055E+08         0.00000E+00
    0.00000E+00         0.00000E+00        -0.34578E+08
 
   -0.33630E+08         0.83450E+05         0.00000E+00
    0.83450E+05        -0.60093E+08         0.00000E+00
    0.00000E+00         0.00000E+00        -0.34584E+08
 
   -0.33669E+08         0.11756E+06         0.00000E+00
    0.11756E+06        -0.60135E+08         0.00000E+00
    0.00000E+00         0.00000E+00        -0.34597E+08
 
   -0.33705E+08         0.16203E+06         0.00000E+00
    0.16203E+06        -0.60176E+08         0.00000E+00
    0.00000E+00         0.00000E+00        -0.34613E+08
 
   -0.33739E+08         0.21858E+06         0.00000E+00
    0.21858E+06        -0.60214E+08         0.00000E+00
    0.00000E+00         0.00000E+00        -0.34627E+08
 
   -0.33772E+08         0.28814E+06         0.00000E+00
    0.28814E+06        -0.60246E+08         0.00000E+00
    0.00000E+00         0.00000E+00        -0.34635E+08
 
   -0.33806E+08         0.37088E+06         0.00000E+00
    0.37088E+06        -0.60270E+08         0.00000E+00
    0.00000E+00         0.00000E+00        -0.34633E+08
 
   -0.33844E+08         0.46612E+06         0.00000E+00
    0.46612E+06        -0.60284E+08         0.00000E+00
    0.00000E+00         0.00000E+00        -0.34617E+08
 
   -0.33886E+08         0.57220E+06         0.00000E+00
    0.57220E+06        -0.60286E+08         0.00000E+00
    0.00000E+00         0.00000E+00        -0.34582E+08
 
   -0.33936E+08         0.68664E+06         0.00000E+00
    0.68664E+06        -0.60275E+08         0.00000E+00
    0.00000E+00         0.00000E+00        -0.34527E+08
 
   -0.33992E+08         0.80635E+06         0.00000E+00
    0.80635E+06        -0.60250E+08         0.00000E+00
    0.00000E+00         0.00000E+00        -0.34449E+08
 
   -0.34055E+08         0.92731E+06         0.00000E+00
    0.92731E+06        -0.60211E+08         0.00000E+00
    0.00000E+00         0.00000E+00        -0.34349E+08
 
   -0.34124E+08         0.10450E+07         0.00000E+00
    0.10450E+07        -0.60157E+08         0.00000E+00
    0.00000E+00         0.00000E+00        -0.34228E+08
 
   -0.33496E+08         0.63558E+03         0.00000E+00
    0.63558E+03        -0.60005E+08         0.00000E+00
    0.00000E+00         0.00000E+00        -0.34227E+08
 
   -0.33532E+08         0.73279E+04         0.00000E+00
    0.73279E+04        -0.60026E+08         0.00000E+00
    0.00000E+00         0.00000E+00        -0.34216E+08
 
   -0.33569E+08         0.18659E+05         0.00000E+00
    0.18659E+05        -0.60062E+08         0.00000E+00
    0.00000E+00         0.00000E+00        -0.34224E+08
 
   -0.33602E+08         0.39230E+05         0.00000E+00
    0.39230E+05        -0.60106E+08         0.00000E+00
    0.00000E+00         0.00000E+00        -0.34246E+08
 
   -0.33630E+08         0.71790E+05         0.00000E+00
    0.71790E+05        -0.60153E+08         0.00000E+00
    0.00000E+00         0.00000E+00        -0.34280E+08
 
   -0.33653E+08         0.11809E+06         0.00000E+00
    0.11809E+06        -0.60201E+08         0.00000E+00
    0.00000E+00         0.00000E+00        -0.34319E+08
 
   -0.33673E+08         0.17933E+06         0.00000E+00
    0.17933E+06        -0.60246E+08         0.00000E+00
    0.00000E+00         0.00000E+00        -0.34358E+08
 
   -0.33692E+08         0.25600E+06         0.00000E+00
    0.25600E+06        -0.60286E+08         0.00000E+00
    0.00000E+00         0.00000E+00        -0.34392E+08
 
   -0.33712E+08         0.34793E+06         0.00000E+00
    0.34793E+06        -0.60317E+08         0.00000E+00
    0.00000E+00         0.00000E+00        -0.34415E+08
 
   -0.33737E+08         0.45409E+06         0.00000E+00
    0.45409E+06        -0.60338E+08         0.00000E+00
    0.00000E+00         0.00000E+00        -0.34424E+08
 
   -0.33770E+08         0.57267E+06         0.00000E+00
    0.57267E+06        -0.60348E+08         0.00000E+00
    0.00000E+00         0.00000E+00        -0.34412E+08
 
   -0.33811E+08         0.70097E+06         0.00000E+00
    0.70097E+06        -0.60345E+08         0.00000E+00
    0.00000E+00         0.00000E+00        -0.34376E+08
 
   -0.33864E+08         0.83531E+06         0.00000E+00
    0.83531E+06        -0.60327E+08         0.00000E+00
    0.00000E+00         0.00000E+00        -0.34315E+08
 
   -0.33928E+08         0.97117E+06         0.00000E+00
    0.97117E+06        -0.60294E+08         0.00000E+00
    0.00000E+00         0.00000E+00        -0.34226E+08
 
   -0.34003E+08         0.11034E+07         0.00000E+00
    0.11034E+07        -0.60246E+08         0.00000E+00
    0.00000E+00         0.00000E+00        -0.34110E+08
 
   -0.33500E+08        -0.11563E+05         0.00000E+00
   -0.11563E+05        -0.60006E+08         0.00000E+00
    0.00000E+00         0.00000E+00        -0.33822E+08
 
   -0.33532E+08        -0.23389E+05         0.00000E+00
   -0.23389E+05        -0.60028E+08         0.00000E+00
    0.00000E+00         0.00000E+00        -0.33820E+08
 
   -0.33558E+08        -0.24018E+05         0.00000E+00
   -0.24018E+05        -0.60066E+08         0.00000E+00
    0.00000E+00         0.00000E+00        -0.33842E+08
 
   -0.33578E+08        -0.10217E+05         0.00000E+00
   -0.10217E+05        -0.60114E+08         0.00000E+00
    0.00000E+00         0.00000E+00        -0.33884E+08
 
   -0.33591E+08         0.19966E+05         0.00000E+00
    0.19966E+05        -0.60167E+08         0.00000E+00
    0.00000E+00         0.00000E+00        -0.33940E+08
 
   -0.33598E+08         0.67569E+05         0.00000E+00
    0.67569E+05        -0.60220E+08         0.00000E+00
    0.00000E+00         0.00000E+00        -0.34003E+08
 
   -0.33601E+08         0.13314E+06         0.00000E+00
    0.13314E+06        -0.60271E+08         0.00000E+00
    0.00000E+00         0.00000E+00        -0.34067E+08
 
   -0.33604E+08         0.21664E+06         0.00000E+00
    0.21664E+06        -0.60317E+08         0.00000E+00
    0.00000E+00         0.00000E+00        -0.34127E+08
 
   -0.33608E+08         0.31750E+06         0.00000E+00
    0.31750E+06        -0.60355E+08         0.00000E+00
    0.00000E+00         0.00000E+00        -0.34177E+08
 
   -0.33619E+08         0.43449E+06         0.00000E+00
    0.43449E+06        -0.60384E+08         0.00000E+00
    0.00000E+00         0.00000E+00        -0.34210E+08
 
   -0.33640E+08         0.56558E+06         0.00000E+00
    0.56558E+06        -0.60401E+08         0.00000E+00
    0.00000E+00         0.00000E+00        -0.34222E+08
 
   -0.33673E+08         0.70777E+06         0.00000E+00
    0.70777E+06        -0.60405E+08         0.00000E+00
    0.00000E+00         0.00000E+00        -0.34208E+08
 
   -0.33721E+08         0.85699E+06         0.00000E+00
    0.85699E+06        -0.60395E+08         0.00000E+00
    0.00000E+00         0.00000E+00        -0.34164E+08
 
   -0.33786E+08         0.10084E+07         0.00000E+00
    0.10084E+07        -0.60370E+08         0.00000E+00
    0.00000E+00         0.00000E+00        -0.34087E+08
 
   -0.33868E+08         0.11564E+07         0.00000E+00
    0.11564E+07        -0.60328E+08         0.00000E+00
    0.00000E+00         0.00000E+00        -0.33977E+08
 
   -0.33528E+08        -0.24206E+05         0.00000E+00
   -0.24206E+05        -0.60006E+08         0.00000E+00
    0.00000E+00         0.00000E+00        -0.33383E+08
 
   -0.33547E+08        -0.55688E+05         0.00000E+00
   -0.55688E+05        -0.60029E+08         0.00000E+00
    0.00000E+00         0.00000E+00        -0.33394E+08
 
   -0.33557E+08        -0.69428E+05         0.00000E+00
   -0.69428E+05        -0.60069E+08         0.00000E+00
    0.00000E+00         0.00000E+00        -0.33435E+08
 
   -0.33559E+08        -0.63337E+05         0.00000E+00
   -0.63337E+05        -0.60119E+08         0.00000E+00
    0.00000E+00         0.00000E+00        -0.33499E+08
 
   -0.33552E+08        -0.36419E+05         0.00000E+00
   -0.36419E+05        -0.60175E+08         0.00000E+00
    0.00000E+00         0.00000E+00        -0.33577E+08
 
   -0.33540E+08         0.11763E+05         0.00000E+00
    0.11763E+05        -0.60233E+08         0.00000E+00
    0.00000E+00         0.00000E+00        -0.33665E+08
 
   -0.33524E+08         0.81108E+05         0.00000E+00
    0.81108E+05        -0.60289E+08         0.00000E+00
    0.00000E+00         0.00000E+00        -0.33754E+08
 
   -0.33507E+08         0.17092E+06         0.00000E+00
    0.17092E+06        -0.60340E+08         0.00000E+00
    0.00000E+00         0.00000E+00        -0.33840E+08
 
   -0.33494E+08         0.28035E+06         0.00000E+00
    0.28035E+06        -0.60384E+08         0.00000E+00
    0.00000E+00         0.00000E+00        -0.33916E+08
 
   -0.33489E+08         0.40778E+06         0.00000E+00
    0.40778E+06        -0.60419E+08         0.00000E+00
    0.00000E+00         0.00000E+00        -0.33975E+08
 
   -0.33496E+08         0.55089E+06         0.00000E+00
    0.55089E+06        -0.60443E+08         0.00000E+00
    0.00000E+00         0.00000E+00        -0.34011E+08
 
   -0.33520E+08         0.70661E+06         0.00000E+00
    0.70661E+06        -0.60455E+08         0.00000E+00
    0.00000E+00         0.00000E+00        -0.34019E+08
 
   -0.33563E+08         0.87073E+06         0.00000E+00
    0.87073E+06        -0.60453E+08         0.00000E+00
    0.00000E+00         0.00000E+00        -0.33994E+08
 
   -0.33628E+08         0.10380E+07         0.00000E+00
    0.10380E+07        -0.60436E+08         0.00000E+00
    0.00000E+00         0.00000E+00        -0.33931E+08
 
   -0.33716E+08         0.12026E+07         0.00000E+00
    0.12026E+07        -0.60402E+08         0.00000E+00
    0.00000E+00         0.00000E+00        -0.33829E+08
 
   -0.33579E+08        -0.36989E+05         0.00000E+00
   -0.36989E+05        -0.60006E+08         0.00000E+00
    0.00000E+00         0.00000E+00        -0.32913E+08
 
   -0.33578E+08        -0.88541E+05         0.00000E+00
   -0.88541E+05        -0.60029E+08         0.00000E+00
    0.00000E+00         0.00000E+00        -0.32943E+08
 
   -0.33566E+08        -0.11618E+06         0.00000E+00
   -0.11618E+06        -0.60069E+08         0.00000E+00
    0.00000E+00         0.00000E+00        -0.33006E+08
 
   -0.33545E+08        -0.11860E+06         0.00000E+00
   -0.11860E+06        -0.60120E+08         0.00000E+00
    0.00000E+00         0.00000E+00        -0.33092E+08
 
   -0.33516E+08        -0.95605E+05         0.00000E+00
   -0.95605E+05        -0.60178E+08         0.00000E+00
    0.00000E+00         0.00000E+00        -0.33194E+08
 
   -0.33480E+08        -0.47530E+05         0.00000E+00
   -0.47530E+05        -0.60238E+08         0.00000E+00
    0.00000E+00         0.00000E+00        -0.33306E+08
 
   -0.33442E+08         0.24836E+05         0.00000E+00
    0.24836E+05        -0.60297E+08         0.00000E+00
    0.00000E+00         0.00000E+00        -0.33420E+08
 
   -0.33404E+08         0.12039E+06         0.00000E+00
    0.12039E+06        -0.60351E+08         0.00000E+00
    0.00000E+00         0.00000E+00        -0.33531E+08
 
   -0.33371E+08         0.23760E+06         0.00000E+00
    0.23760E+06        -0.60399E+08         0.00000E+00
    0.00000E+00         0.00000E+00        -0.33631E+08
 
   -0.33348E+08         0.37450E+06         0.00000E+00
    0.37450E+06        -0.60440E+08         0.00000E+00
    0.00000E+00         0.00000E+00        -0.33715E+08
 
   -0.33341E+08         0.52878E+06         0.00000E+00
    0.52878E+06        -0.60470E+08         0.00000E+00
    0.00000E+00         0.00000E+00        -0.33776E+08
 
   -0.33353E+08         0.69726E+06         0.00000E+00
    0.69726E+06        -0.60490E+08         0.00000E+00
    0.00000E+00         0.00000E+00        -0.33807E+08
 
   -0.33390E+08         0.87594E+06         0.00000E+00
    0.87594E+06        -0.60497E+08         0.00000E+00
    0.00000E+00         0.00000E+00        -0.33803E+08
 
   -0.33454E+08         0.10594E+07         0.00000E+00
    0.10594E+07        -0.60489E+08         0.00000E+00
    0.00000E+00         0.00000E+00        -0.33756E+08
 
   -0.33548E+08         0.12403E+07         0.00000E+00
    0.12403E+07        -0.60464E+08         0.00000E+00
    0.00000E+00         0.00000E+00        -0.33664E+08
 
   -0.33654E+08        -0.49576E+05         0.00000E+00
   -0.49576E+05        -0.60006E+08         0.00000E+00
    0.00000E+00         0.00000E+00        -0.32417E+08
 
   -0.33627E+08        -0.12124E+06         0.00000E+00
   -0.12124E+06        -0.60029E+08         0.00000E+00
    0.00000E+00         0.00000E+00        -0.32470E+08
 
   -0.33587E+08        -0.16290E+06         0.00000E+00
   -0.16290E+06        -0.60068E+08         0.00000E+00
    0.00000E+00         0.00000E+00        -0.32557E+08
 
   -0.33538E+08        -0.17426E+06         0.00000E+00
   -0.17426E+06        -0.60119E+08         0.00000E+00
    0.00000E+00         0.00000E+00        -0.32666E+08
 
   -0.33481E+08        -0.15564E+06         0.00000E+00
   -0.15564E+06        -0.60176E+08         0.00000E+00
    0.00000E+00         0.00000E+00        -0.32792E+08
 
   -0.33419E+08        -0.10817E+06         0.00000E+00
   -0.10817E+06        -0.60236E+08         0.00000E+00
    0.00000E+00         0.00000E+00        -0.32927E+08
 
   -0.33356E+08        -0.33389E+05         0.00000E+00
   -0.33389E+05        -0.60295E+08         0.00000E+00
    0.00000E+00         0.00000E+00        -0.33064E+08
 
   -0.33294E+08         0.67055E+05         0.00000E+00
    0.67055E+05        -0.60350E+08         0.00000E+00
    0.00000E+00         0.00000E+00        -0.33198E+08
 
   -0.33240E+08         0.19072E+06         0.00000E+00
    0.19072E+06        -0.60401E+08         0.00000E+00
    0.00000E+00         0.00000E+00        -0.33321E+08
 
   -0.33198E+08         0.33573E+06         0.00000E+00
    0.33573E+06        -0.60445E+08         0.00000E+00
    0.00000E+00         0.00000E+00        -0.33429E+08
 
   -0.33173E+08         0.49962E+06         0.00000E+00
    0.49962E+06        -0.60481E+08         0.00000E+00
    0.00000E+00         0.00000E+00        -0.33514E+08
 
   -0.33173E+08         0.67953E+06         0.00000E+00
    0.67953E+06        -0.60509E+08         0.00000E+00
    0.00000E+00         0.00000E+00        -0.33570E+08
 
   -0.33201E+08         0.87168E+06         0.00000E+00
    0.87168E+06        -0.60525E+08         0.00000E+00
    0.00000E+00         0.00000E+00        -0.33588E+08
 
   -0.33263E+08         0.10708E+07         0.00000E+00
    0.10708E+07        -0.60527E+08         0.00000E+00
    0.00000E+00         0.00000E+00        -0.33560E+08
 
   -0.33363E+08         0.12690E+07         0.00000E+00
    0.12690E+07        -0.60513E+08         0.00000E+00
    0.00000E+00         0.00000E+00        -0.33479E+08
 
   -0.33752E+08        -0.61766E+05         0.00000E+00
   -0.61766E+05        -0.60006E+08         0.00000E+00
    0.00000E+00         0.00000E+00        -0.31899E+08
 
   -0.33692E+08        -0.15304E+06         0.00000E+00
   -0.15304E+06        -0.60028E+08         0.00000E+00
    0.00000E+00         0.00000E+00        -0.31979E+08
 
   -0.33620E+08        -0.20842E+06         0.00000E+00
   -0.20842E+06        -0.60066E+08         0.00000E+00
    0.00000E+00         0.00000E+00        -0.32090E+08
 
   -0.33538E+08        -0.22842E+06         0.00000E+00
   -0.22842E+06        -0.60114E+08         0.00000E+00
    0.00000E+00         0.00000E+00        -0.32224E+08
 
   -0.33450E+08        -0.21427E+06         0.00000E+00
   -0.21427E+06        -0.60169E+08         0.00000E+00
    0.00000E+00         0.00000E+00        -0.32373E+08
 
   -0.33358E+08        -0.16766E+06         0.00000E+00
   -0.16766E+06        -0.60226E+08         0.00000E+00
    0.00000E+00         0.00000E+00        -0.32529E+08
 
   -0.33266E+08        -0.90955E+05         0.00000E+00
   -0.90955E+05        -0.60283E+08         0.00000E+00
    0.00000E+00         0.00000E+00        -0.32687E+08
 
   -0.33180E+08         0.13134E+05         0.00000E+00
    0.13134E+05        -0.60337E+08         0.00000E+00
    0.00000E+00         0.00000E+00        -0.32841E+08
 
   -0.33102E+08         0.14203E+06         0.00000E+00
    0.14203E+06        -0.60387E+08         0.00000E+00
    0.00000E+00         0.00000E+00        -0.32984E+08
 
   -0.33039E+08         0.29303E+06         0.00000E+00
    0.29303E+06        -0.60433E+08         0.00000E+00
    0.00000E+00         0.00000E+00        -0.33113E+08
 
   -0.32997E+08         0.46418E+06         0.00000E+00
    0.46418E+06        -0.60473E+08         0.00000E+00
    0.00000E+00         0.00000E+00        -0.33222E+08
 
   -0.32981E+08         0.65327E+06         0.00000E+00
    0.65327E+06        -0.60508E+08         0.00000E+00
    0.00000E+00         0.00000E+00        -0.33302E+08
 
   -0.32998E+08         0.85705E+06         0.00000E+00
    0.85705E+06        -0.60533E+08         0.00000E+00
    0.00000E+00         0.00000E+00        -0.33345E+08
 
   -0.33056E+08         0.10706E+07         0.00000E+00
    0.10706E+07        -0.60547E+08         0.00000E+00
    0.00000E+00         0.00000E+00        -0.33340E+08
 
   -0.33160E+08         0.12866E+07         0.00000E+00
    0.12866E+07        -0.60545E+08         0.00000E+00
    0.00000E+00         0.00000E+00        -0.33275E+08
 
   -0.33872E+08        -0.73461E+05         0.00000E+00
   -0.73461E+05        -0.60006E+08         0.00000E+00
    0.00000E+00         0.00000E+00        -0.31365E+08
 
   -0.33773E+08        -0.18327E+06         0.00000E+00
   -0.18327E+06        -0.60027E+08         0.00000E+00
    0.00000E+00         0.00000E+00        -0.31473E+08
 
   -0.33663E+08        -0.25142E+06         0.00000E+00
   -0.25142E+06        -0.60062E+08         0.00000E+00
    0.00000E+00         0.00000E+00        -0.31610E+08
 
   -0.33544E+08        -0.27932E+06         0.00000E+00
   -0.27932E+06        -0.60107E+08         0.00000E+00
    0.00000E+00         0.00000E+00        -0.31768E+08
 
   -0.33420E+08        -0.26903E+06         0.00000E+00
   -0.26903E+06        -0.60157E+08         0.00000E+00
    0.00000E+00         0.00000E+00        -0.31939E+08
 
   -0.33296E+08        -0.22318E+06         0.00000E+00
   -0.22318E+06        -0.60208E+08         0.00000E+00
    0.00000E+00         0.00000E+00        -0.32114E+08
 
   -0.33174E+08        -0.14502E+06         0.00000E+00
   -0.14502E+06        -0.60260E+08         0.00000E+00
    0.00000E+00         0.00000E+00        -0.32289E+08
 
   -0.33061E+08        -0.38264E+05         0.00000E+00
   -0.38264E+05        -0.60309E+08         0.00000E+00
    0.00000E+00         0.00000E+00        -0.32459E+08
 
   -0.32960E+08         0.93786E+05         0.00000E+00
    0.93786E+05        -0.60356E+08         0.00000E+00
    0.00000E+00         0.00000E+00        -0.32619E+08
 
   -0.32875E+08         0.24839E+06         0.00000E+00
    0.24839E+06        -0.60401E+08         0.00000E+00
    0.00000E+00         0.00000E+00        -0.32766E+08
 
   -0.32813E+08         0.42370E+06         0.00000E+00
    0.42370E+06        -0.60444E+08         0.00000E+00
    0.00000E+00         0.00000E+00        -0.32896E+08
 
   -0.32780E+08         0.61848E+06         0.00000E+00
    0.61848E+06        -0.60485E+08         0.00000E+00
    0.00000E+00         0.00000E+00        -0.33001E+08
 
   -0.32783E+08         0.83110E+06         0.00000E+00
    0.83110E+06        -0.60521E+08         0.00000E+00
    0.00000E+00         0.00000E+00        -0.33072E+08
 
   -0.32833E+08         0.10576E+07         0.00000E+00
    0.10576E+07        -0.60547E+08         0.00000E+00
    0.00000E+00         0.00000E+00        -0.33093E+08
 
   -0.32939E+08         0.12905E+07         0.00000E+00
    0.12905E+07        -0.60560E+08         0.00000E+00
    0.00000E+00         0.00000E+00        -0.33049E+08
 
   -0.34014E+08        -0.84482E+05         0.00000E+00
   -0.84482E+05        -0.60006E+08         0.00000E+00
    0.00000E+00         0.00000E+00        -0.30819E+08
 
   -0.33870E+08        -0.21146E+06         0.00000E+00
   -0.21146E+06        -0.60025E+08         0.00000E+00
    0.00000E+00         0.00000E+00        -0.30956E+08
 
   -0.33715E+08        -0.29077E+06         0.00000E+00
   -0.29077E+06        -0.60057E+08         0.00000E+00
    0.00000E+00         0.00000E+00        -0.31120E+08
 
   -0.33555E+08        -0.32495E+06         0.00000E+00
   -0.32495E+06        -0.60097E+08         0.00000E+00
    0.00000E+00         0.00000E+00        -0.31302E+08
 
   -0.33393E+08        -0.31722E+06         0.00000E+00
   -0.31722E+06        -0.60139E+08         0.00000E+00
    0.00000E+00         0.00000E+00        -0.31491E+08
 
   -0.33233E+08        -0.27152E+06         0.00000E+00
   -0.27152E+06        -0.60182E+08         0.00000E+00
    0.00000E+00         0.00000E+00        -0.31683E+08
 
   -0.33081E+08        -0.19233E+06         0.00000E+00
   -0.19233E+06        -0.60225E+08         0.00000E+00
    0.00000E+00         0.00000E+00        -0.31870E+08
 
   -0.32940E+08        -0.84227E+05         0.00000E+00
   -0.84227E+05        -0.60266E+08         0.00000E+00
    0.00000E+00         0.00000E+00        -0.32051E+08
 
   -0.32815E+08         0.48780E+05         0.00000E+00
    0.48780E+05        -0.60308E+08         0.00000E+00
    0.00000E+00         0.00000E+00        -0.32223E+08
 
   -0.32709E+08         0.20386E+06         0.00000E+00
    0.20386E+06        -0.60350E+08         0.00000E+00
    0.00000E+00         0.00000E+00        -0.32385E+08
 
   -0.32626E+08         0.37956E+06         0.00000E+00
    0.37956E+06        -0.60394E+08         0.00000E+00
    0.00000E+00         0.00000E+00        -0.32533E+08
 
   -0.32573E+08         0.57584E+06         0.00000E+00
    0.57584E+06        -0.60439E+08         0.00000E+00
    0.00000E+00         0.00000E+00        -0.32663E+08
 
   -0.32559E+08         0.79310E+06         0.00000E+00
    0.79310E+06        -0.60484E+08         0.00000E+00
    0.00000E+00         0.00000E+00        -0.32763E+08
 
   -0.32596E+08         0.10297E+07         0.00000E+00
    0.10297E+07        -0.60525E+08         0.00000E+00
    0.00000E+00         0.00000E+00        -0.32816E+08
 
   -0.32700E+08         0.12789E+07         0.00000E+00
    0.12789E+07        -0.60555E+08         0.00000E+00
    0.00000E+00         0.00000E+00        -0.32799E+08
 
   -0.34175E+08        -0.94861E+05         0.00000E+00
   -0.94861E+05        -0.60006E+08         0.00000E+00
    0.00000E+00         0.00000E+00        -0.30265E+08
 
   -0.33979E+08        -0.23711E+06         0.00000E+00
   -0.23711E+06        -0.60023E+08         0.00000E+00
    0.00000E+00         0.00000E+00        -0.30433E+08
 
   -0.33775E+08        -0.32517E+06         0.00000E+00
   -0.32517E+06        -0.60051E+08         0.00000E+00
    0.00000E+00         0.00000E+00        -0.30624E+08
 
   -0.33569E+08        -0.36311E+06         0.00000E+00
   -0.36311E+06        -0.60084E+08         0.00000E+00
    0.00000E+00         0.00000E+00        -0.30827E+08
 
   -0.33366E+08        -0.35579E+06         0.00000E+00
   -0.35579E+06        -0.60116E+08         0.00000E+00
    0.00000E+00         0.00000E+00        -0.31033E+08
 
   -0.33170E+08        -0.30915E+06         0.00000E+00
   -0.30915E+06        -0.60147E+08         0.00000E+00
    0.00000E+00         0.00000E+00        -0.31235E+08
 
   -0.32987E+08        -0.22930E+06         0.00000E+00
   -0.22930E+06        -0.60177E+08         0.00000E+00
    0.00000E+00         0.00000E+00        -0.31430E+08
 
   -0.32820E+08        -0.12173E+06         0.00000E+00
   -0.12173E+06        -0.60207E+08         0.00000E+00
    0.00000E+00         0.00000E+00        -0.31616E+08
 
   -0.32672E+08         0.93364E+04         0.00000E+00
    0.93364E+04        -0.60240E+08         0.00000E+00
    0.00000E+00         0.00000E+00        -0.31795E+08
 
   -0.32545E+08         0.16135E+06         0.00000E+00
    0.16135E+06        -0.60278E+08         0.00000E+00
    0.00000E+00         0.00000E+00        -0.31967E+08
 
   -0.32441E+08         0.33342E+06         0.00000E+00
    0.33342E+06        -0.60321E+08         0.00000E+00
    0.00000E+00         0.00000E+00        -0.32132E+08
 
   -0.32366E+08         0.52653E+06         0.00000E+00
    0.52653E+06        -0.60370E+08         0.00000E+00
    0.00000E+00         0.00000E+00        -0.32284E+08
 
   -0.32329E+08         0.74308E+06         0.00000E+00
    0.74308E+06        -0.60423E+08         0.00000E+00
    0.00000E+00         0.00000E+00        -0.32415E+08
 
   -0.32347E+08         0.98492E+06         0.00000E+00
    0.98492E+06        -0.60479E+08         0.00000E+00
    0.00000E+00         0.00000E+00        -0.32506E+08
 
   -0.32442E+08         0.12483E+07         0.00000E+00
    0.12483E+07        -0.60528E+08         0.00000E+00
    0.00000E+00         0.00000E+00        -0.32523E+08
 
   -0.34355E+08        -0.10460E+06         0.00000E+00
   -0.10460E+06        -0.60006E+08         0.00000E+00
    0.00000E+00         0.00000E+00        -0.29708E+08
 
   -0.34098E+08        -0.25975E+06         0.00000E+00
   -0.25975E+06        -0.60021E+08         0.00000E+00
    0.00000E+00         0.00000E+00        -0.29907E+08
 
   -0.33840E+08        -0.35319E+06         0.00000E+00
   -0.35319E+06        -0.60044E+08         0.00000E+00
    0.00000E+00         0.00000E+00        -0.30125E+08
 
   -0.33584E+08        -0.39109E+06         0.00000E+00
   -0.39109E+06        -0.60067E+08         0.00000E+00
    0.00000E+00         0.00000E+00        -0.30348E+08
 
   -0.33337E+08        -0.38120E+06         0.00000E+00
   -0.38120E+06        -0.60086E+08         0.00000E+00
    0.00000E+00         0.00000E+00        -0.30565E+08
 
   -0.33106E+08        -0.33222E+06         0.00000E+00
   -0.33222E+06        -0.60100E+08         0.00000E+00
    0.00000E+00         0.00000E+00        -0.30771E+08
 
   -0.32893E+08        -0.25233E+06         0.00000E+00
   -0.25233E+06        -0.60114E+08         0.00000E+00
    0.00000E+00         0.00000E+00        -0.30965E+08
 
   -0.32702E+08        -0.14785E+06         0.00000E+00
   -0.14785E+06        -0.60130E+08         0.00000E+00
    0.00000E+00         0.00000E+00        -0.31151E+08
 
   -0.32533E+08        -0.22522E+05         0.00000E+00
   -0.22522E+05        -0.60153E+08         0.00000E+00
    0.00000E+00         0.00000E+00        -0.31332E+08
 
   -0.32386E+08         0.12213E+06         0.00000E+00
    0.12213E+06        -0.60184E+08         0.00000E+00
    0.00000E+00         0.00000E+00        -0.31511E+08
 
   -0.32261E+08         0.28626E+06         0.00000E+00
    0.28626E+06        -0.60226E+08         0.00000E+00
    0.00000E+00         0.00000E+00        -0.31688E+08
 
   -0.32163E+08         0.47141E+06         0.00000E+00
    0.47141E+06        -0.60278E+08         0.00000E+00
    0.00000E+00         0.00000E+00        -0.31863E+08
 
   -0.32100E+08         0.68143E+06         0.00000E+00
    0.68143E+06        -0.60339E+08         0.00000E+00
    0.00000E+00         0.00000E+00        -0.32027E+08
 
   -0.32090E+08         0.92220E+06         0.00000E+00
    0.92220E+06        -0.60408E+08         0.00000E+00
    0.00000E+00         0.00000E+00        -0.32160E+08
 
   -0.32168E+08         0.11977E+07         0.00000E+00
    0.11977E+07        -0.60479E+08         0.00000E+00
    0.00000E+00         0.00000E+00        -0.32222E+08
 
   -0.34551E+08        -0.11378E+06         0.00000E+00
   -0.11378E+06        -0.60006E+08         0.00000E+00
    0.00000E+00         0.00000E+00        -0.29151E+08
 
   -0.34225E+08        -0.27869E+06         0.00000E+00
   -0.27869E+06        -0.60019E+08         0.00000E+00
    0.00000E+00         0.00000E+00        -0.29383E+08
 
   -0.33904E+08        -0.37262E+06         0.00000E+00
   -0.37262E+06        -0.60035E+08         0.00000E+00
    0.00000E+00         0.00000E+00        -0.29627E+08
 
   -0.33595E+08        -0.40535E+06         0.00000E+00
   -0.40535E+06        -0.60044E+08         0.00000E+00
    0.00000E+00         0.00000E+00        -0.29865E+08
 
   -0.33305E+08        -0.38922E+06         0.00000E+00
   -0.38922E+06        -0.60045E+08         0.00000E+00
    0.00000E+00         0.00000E+00        -0.30086E+08
 
   -0.33040E+08        -0.33677E+06         0.00000E+00
   -0.33677E+06        -0.60039E+08         0.00000E+00
    0.00000E+00         0.00000E+00        -0.30288E+08
 
   -0.32802E+08        -0.25824E+06         0.00000E+00
   -0.25824E+06        -0.60033E+08         0.00000E+00
    0.00000E+00         0.00000E+00        -0.30475E+08
 
   -0.32590E+08        -0.16009E+06         0.00000E+00
   -0.16009E+06        -0.60033E+08         0.00000E+00
    0.00000E+00         0.00000E+00        -0.30653E+08
 
   -0.32403E+08        -0.45051E+05         0.00000E+00
   -0.45051E+05        -0.60043E+08         0.00000E+00
    0.00000E+00         0.00000E+00        -0.30830E+08
 
   -0.32237E+08         0.87021E+05         0.00000E+00
    0.87021E+05        -0.60068E+08         0.00000E+00
    0.00000E+00         0.00000E+00        -0.31011E+08
 
   -0.32092E+08         0.23799E+06         0.00000E+00
    0.23799E+06        -0.60108E+08         0.00000E+00
    0.00000E+00         0.00000E+00        -0.31201E+08
 
   -0.31971E+08         0.41078E+06         0.00000E+00
    0.41078E+06        -0.60164E+08         0.00000E+00
    0.00000E+00         0.00000E+00        -0.31397E+08
 
   -0.31877E+08         0.60971E+06         0.00000E+00
    0.60971E+06        -0.60233E+08         0.00000E+00
    0.00000E+00         0.00000E+00        -0.31595E+08
 
   -0.31831E+08         0.84202E+06         0.00000E+00
    0.84202E+06        -0.60315E+08         0.00000E+00
    0.00000E+00         0.00000E+00        -0.31776E+08
 
   -0.31880E+08         0.11153E+07         0.00000E+00
    0.11153E+07        -0.60407E+08         0.00000E+00
    0.00000E+00         0.00000E+00        -0.31892E+08
 
   -0.34761E+08        -0.12249E+06         0.00000E+00
   -0.12249E+06        -0.60006E+08         0.00000E+00
    0.00000E+00         0.00000E+00        -0.28597E+08
 
   -0.34354E+08        -0.29255E+06         0.00000E+00
   -0.29255E+06        -0.60016E+08         0.00000E+00
    0.00000E+00         0.00000E+00        -0.28865E+08
 
   -0.33962E+08        -0.37970E+06         0.00000E+00
   -0.37970E+06        -0.60020E+08         0.00000E+00
    0.00000E+00         0.00000E+00        -0.29133E+08
 
   -0.33597E+08        -0.40072E+06         0.00000E+00
   -0.40072E+06        -0.60011E+08         0.00000E+00
    0.00000E+00         0.00000E+00        -0.29378E+08
 
   -0.33267E+08        -0.37504E+06         0.00000E+00
   -0.37504E+06        -0.59987E+08         0.00000E+00
    0.00000E+00         0.00000E+00        -0.29593E+08
 
   -0.32974E+08        -0.31943E+06         0.00000E+00
   -0.31943E+06        -0.59958E+08         0.00000E+00
    0.00000E+00         0.00000E+00        -0.29782E+08
 
   -0.32717E+08        -0.24492E+06         0.00000E+00
   -0.24492E+06        -0.59931E+08         0.00000E+00
    0.00000E+00         0.00000E+00        -0.29953E+08
 
   -0.32490E+08        -0.15691E+06         0.00000E+00
   -0.15691E+06        -0.59913E+08         0.00000E+00
    0.00000E+00         0.00000E+00        -0.30117E+08
 
   -0.32287E+08        -0.56730E+05         0.00000E+00
   -0.56730E+05        -0.59910E+08         0.00000E+00
    0.00000E+00         0.00000E+00        -0.30285E+08
 
   -0.32104E+08         0.57101E+05         0.00000E+00
    0.57101E+05        -0.59926E+08         0.00000E+00
    0.00000E+00         0.00000E+00        -0.30465E+08
 
   -0.31939E+08         0.18845E+06         0.00000E+00
    0.18845E+06        -0.59963E+08         0.00000E+00
    0.00000E+00         0.00000E+00        -0.30663E+08
 
   -0.31793E+08         0.34266E+06         0.00000E+00
    0.34266E+06        -0.60024E+08         0.00000E+00
    0.00000E+00         0.00000E+00        -0.30882E+08
 
   -0.31668E+08         0.52522E+06         0.00000E+00
    0.52522E+06        -0.60106E+08         0.00000E+00
    0.00000E+00         0.00000E+00        -0.31117E+08
 
   -0.31580E+08         0.74393E+06         0.00000E+00
    0.74393E+06        -0.60204E+08         0.00000E+00
    0.00000E+00         0.00000E+00        -0.31353E+08
 
   -0.31580E+08         0.10142E+07         0.00000E+00
    0.10142E+07        -0.60313E+08         0.00000E+00
    0.00000E+00         0.00000E+00        -0.31534E+08
 
   -0.34982E+08        -0.13071E+06         0.00000E+00
   -0.13071E+06        -0.60006E+08         0.00000E+00
    0.00000E+00         0.00000E+00        -0.28052E+08
 
   -0.34477E+08        -0.29799E+06         0.00000E+00
   -0.29799E+06        -0.60010E+08         0.00000E+00
    0.00000E+00         0.00000E+00        -0.28357E+08
 
   -0.34006E+08        -0.36743E+06         0.00000E+00
   -0.36743E+06        -0.59996E+08         0.00000E+00
    0.00000E+00         0.00000E+00        -0.28640E+08
 
   -0.33586E+08        -0.36973E+06         0.00000E+00
   -0.36973E+06        -0.59957E+08         0.00000E+00
    0.00000E+00         0.00000E+00        -0.28880E+08
 
   -0.33222E+08        -0.33392E+06         0.00000E+00
   -0.33392E+06        -0.59904E+08         0.00000E+00
    0.00000E+00         0.00000E+00        -0.29077E+08
 
   -0.32910E+08        -0.27854E+06         0.00000E+00
   -0.27854E+06        -0.59849E+08         0.00000E+00
    0.00000E+00         0.00000E+00        -0.29243E+08
 
   -0.32641E+08        -0.21227E+06         0.00000E+00
   -0.21227E+06        -0.59802E+08         0.00000E+00
    0.00000E+00         0.00000E+00        -0.29393E+08
 
   -0.32404E+08        -0.13828E+06         0.00000E+00
   -0.13828E+06        -0.59768E+08         0.00000E+00
    0.00000E+00         0.00000E+00        -0.29540E+08
 
   -0.32190E+08        -0.56806E+05         0.00000E+00
   -0.56806E+05        -0.59752E+08         0.00000E+00
    0.00000E+00         0.00000E+00        -0.29695E+08
 
   -0.31994E+08         0.34162E+05         0.00000E+00
    0.34162E+05        -0.59758E+08         0.00000E+00
    0.00000E+00         0.00000E+00        -0.29869E+08
 
   -0.31810E+08         0.13919E+06         0.00000E+00
    0.13919E+06        -0.59791E+08         0.00000E+00
    0.00000E+00         0.00000E+00        -0.30070E+08
 
   -0.31636E+08         0.26596E+06         0.00000E+00
    0.26596E+06        -0.59853E+08         0.00000E+00
    0.00000E+00         0.00000E+00        -0.30307E+08
 
   -0.31477E+08         0.42487E+06         0.00000E+00
    0.42487E+06        -0.59948E+08         0.00000E+00
    0.00000E+00         0.00000E+00        -0.30581E+08
 
   -0.31339E+08         0.62666E+06         0.00000E+00
    0.62666E+06        -0.60066E+08         0.00000E+00
    0.00000E+00         0.00000E+00        -0.30881E+08
 
   -0.31270E+08         0.88906E+06         0.00000E+00
    0.88906E+06        -0.60198E+08         0.00000E+00
    0.00000E+00         0.00000E+00        -0.31152E+08
 
   -0.35209E+08        -0.13775E+06         0.00000E+00
   -0.13775E+06        -0.60005E+08         0.00000E+00
    0.00000E+00         0.00000E+00        -0.27517E+08
 
   -0.34580E+08        -0.28631E+06         0.00000E+00
   -0.28631E+06        -0.59996E+08         0.00000E+00
    0.00000E+00         0.00000E+00        -0.27859E+08
 
   -0.34025E+08        -0.32282E+06         0.00000E+00
   -0.32282E+06        -0.59946E+08         0.00000E+00
    0.00000E+00         0.00000E+00        -0.28142E+08
 
   -0.33559E+08        -0.30381E+06         0.00000E+00
   -0.30381E+06        -0.59866E+08         0.00000E+00
    0.00000E+00         0.00000E+00        -0.28355E+08
 
   -0.33175E+08        -0.26384E+06         0.00000E+00
   -0.26384E+06        -0.59781E+08         0.00000E+00
    0.00000E+00         0.00000E+00        -0.28521E+08
 
   -0.32853E+08        -0.21539E+06         0.00000E+00
   -0.21539E+06        -0.59703E+08         0.00000E+00
    0.00000E+00         0.00000E+00        -0.28661E+08
 
   -0.32578E+08        -0.16256E+06         0.00000E+00
   -0.16256E+06        -0.59638E+08         0.00000E+00
    0.00000E+00         0.00000E+00        -0.28789E+08
 
   -0.32336E+08        -0.10634E+06         0.00000E+00
   -0.10634E+06        -0.59591E+08         0.00000E+00
    0.00000E+00         0.00000E+00        -0.28919E+08
 
   -0.32116E+08        -0.46241E+05         0.00000E+00
   -0.46241E+05        -0.59566E+08         0.00000E+00
    0.00000E+00         0.00000E+00        -0.29060E+08
 
   -0.31911E+08         0.19393E+05         0.00000E+00
    0.19393E+05        -0.59564E+08         0.00000E+00
    0.00000E+00         0.00000E+00        -0.29223E+08
 
   -0.31711E+08         0.94038E+05         0.00000E+00
    0.94038E+05        -0.59590E+08         0.00000E+00
    0.00000E+00         0.00000E+00        -0.29420E+08
 
   -0.31512E+08         0.18498E+06         0.00000E+00
    0.18498E+06        -0.59649E+08         0.00000E+00
    0.00000E+00         0.00000E+00        -0.29665E+08
 
   -0.31311E+08         0.30695E+06         0.00000E+00
    0.30695E+06        -0.59749E+08         0.00000E+00
    0.00000E+00         0.00000E+00        -0.29972E+08
 
   -0.31116E+08         0.48203E+06         0.00000E+00
    0.48203E+06        -0.59896E+08         0.00000E+00
    0.00000E+00         0.00000E+00        -0.30347E+08
 
   -0.30956E+08         0.72684E+06         0.00000E+00
    0.72684E+06        -0.60066E+08         0.00000E+00
    0.00000E+00         0.00000E+00        -0.30745E+08
 
   -0.35427E+08        -0.13870E+06         0.00000E+00
   -0.13870E+06        -0.60000E+08         0.00000E+00
    0.00000E+00         0.00000E+00        -0.26998E+08
 
   -0.34643E+08        -0.23432E+06         0.00000E+00
   -0.23432E+06        -0.59950E+08         0.00000E+00
    0.00000E+00         0.00000E+00        -0.27360E+08
 
   -0.34015E+08        -0.22779E+06         0.00000E+00
   -0.22779E+06        -0.59837E+08         0.00000E+00
    0.00000E+00         0.00000E+00        -0.27605E+08
 
   -0.33527E+08        -0.20035E+06         0.00000E+00
   -0.20035E+06        -0.59715E+08         0.00000E+00
    0.00000E+00         0.00000E+00        -0.27776E+08
 
   -0.33135E+08        -0.16833E+06         0.00000E+00
   -0.16833E+06        -0.59603E+08         0.00000E+00
    0.00000E+00         0.00000E+00        -0.27908E+08
 
   -0.32810E+08        -0.13494E+06         0.00000E+00
   -0.13494E+06        -0.59508E+08         0.00000E+00
    0.00000E+00         0.00000E+00        -0.28023E+08
 
   -0.32533E+08        -0.10073E+06         0.00000E+00
   -0.10073E+06        -0.59433E+08         0.00000E+00
    0.00000E+00         0.00000E+00        -0.28133E+08
 
   -0.32289E+08        -0.65415E+05         0.00000E+00
   -0.65415E+05        -0.59379E+08         0.00000E+00
    0.00000E+00         0.00000E+00        -0.28249E+08
 
   -0.32066E+08        -0.28469E+05         0.00000E+00
   -0.28469E+05        -0.59348E+08         0.00000E+00
    0.00000E+00         0.00000E+00        -0.28379E+08
 
   -0.31855E+08         0.11152E+05         0.00000E+00
    0.11152E+05        -0.59342E+08         0.00000E+00
    0.00000E+00         0.00000E+00        -0.28533E+08
 
   -0.31647E+08         0.55213E+05         0.00000E+00
    0.55213E+05        -0.59364E+08         0.00000E+00
    0.00000E+00         0.00000E+00        -0.28722E+08
 
   -0.31429E+08         0.10786E+06         0.00000E+00
    0.10786E+06        -0.59419E+08         0.00000E+00
    0.00000E+00         0.00000E+00        -0.28965E+08
 
   -0.31190E+08         0.17955E+06         0.00000E+00
    0.17955E+06        -0.59517E+08         0.00000E+00
    0.00000E+00         0.00000E+00        -0.29286E+08
 
   -0.30918E+08         0.29829E+06         0.00000E+00
    0.29829E+06        -0.59672E+08         0.00000E+00
    0.00000E+00         0.00000E+00        -0.29724E+08
 
   -0.30639E+08         0.52329E+06         0.00000E+00
    0.52329E+06        -0.59912E+08         0.00000E+00
    0.00000E+00         0.00000E+00        -0.30309E+08
 
   -0.35596E+08        -0.98904E+05         0.00000E+00
   -0.98904E+05        -0.59952E+08         0.00000E+00
    0.00000E+00         0.00000E+00        -0.26476E+08
 
   -0.34642E+08        -0.97829E+05         0.00000E+00
   -0.97829E+05        -0.59789E+08         0.00000E+00
    0.00000E+00         0.00000E+00        -0.26790E+08
 
   -0.33995E+08        -0.82823E+05         0.00000E+00
   -0.82823E+05        -0.59625E+08         0.00000E+00
    0.00000E+00         0.00000E+00        -0.26977E+08
 
   -0.33505E+08        -0.69965E+05         0.00000E+00
   -0.69965E+05        -0.59480E+08         0.00000E+00
    0.00000E+00         0.00000E+00        -0.27113E+08
 
   -0.33112E+08        -0.57702E+05         0.00000E+00
   -0.57702E+05        -0.59357E+08         0.00000E+00
    0.00000E+00         0.00000E+00        -0.27223E+08
 
   -0.32787E+08        -0.45782E+05         0.00000E+00
   -0.45782E+05        -0.59257E+08         0.00000E+00
    0.00000E+00         0.00000E+00        -0.27322E+08
 
   -0.32510E+08        -0.33905E+05         0.00000E+00
   -0.33905E+05        -0.59180E+08         0.00000E+00
    0.00000E+00         0.00000E+00        -0.27421E+08
 
   -0.32264E+08        -0.21826E+05         0.00000E+00
   -0.21826E+05        -0.59126E+08         0.00000E+00
    0.00000E+00         0.00000E+00        -0.27529E+08
 
   -0.32040E+08        -0.93067E+04         0.00000E+00
   -0.93067E+04        -0.59097E+08         0.00000E+00
    0.00000E+00         0.00000E+00        -0.27652E+08
 
   -0.31828E+08         0.40031E+04         0.00000E+00
    0.40031E+04        -0.59093E+08         0.00000E+00
    0.00000E+00         0.00000E+00        -0.27801E+08
 
   -0.31616E+08         0.18583E+05         0.00000E+00
    0.18583E+05        -0.59118E+08         0.00000E+00
    0.00000E+00         0.00000E+00        -0.27986E+08
 
   -0.31390E+08         0.35488E+05         0.00000E+00
    0.35488E+05        -0.59175E+08         0.00000E+00
    0.00000E+00         0.00000E+00        -0.28225E+08
 
   -0.31131E+08         0.57709E+05         0.00000E+00
    0.57709E+05        -0.59273E+08         0.00000E+00
    0.00000E+00         0.00000E+00        -0.28548E+08
 
   -0.30800E+08         0.96248E+05         0.00000E+00
    0.96248E+05        -0.59433E+08         0.00000E+00
    0.00000E+00         0.00000E+00        -0.29022E+08
 
   -0.30319E+08         0.20515E+06         0.00000E+00
    0.20515E+06        -0.59703E+08         0.00000E+00
    0.00000E+00         0.00000E+00        -0.29806E+08
 
SCALARS stressS double 
LOOKUP_TABLE default
  -43583575.1684211     
  -43580409.8504911     
  -43566973.7957234     
  -43543128.3887129     
  -43509426.5610294     
  -43467710.6607344     
  -43420264.2060883     
  -43369231.3049577     
  -43316262.7645726     
  -43262242.2928318     
  -43207278.4535253     
  -43150985.9392417     
  -43092766.2185030     
  -43032008.8169109     
  -42968211.7011683     
  -43573449.9560281     
  -43570485.3393920     
  -43557231.7240866     
  -43533656.5555482     
  -43500658.4263158     
  -43460147.5928482     
  -43414124.8489800     
  -43364611.9748063     
  -43313068.9410796     
  -43260252.9779956     
  -43206232.0462219     
  -43150648.5882588     
  -43092942.7657733     
  -43032537.6664119     
  -42968953.5214310     
  -43552846.7255460     
  -43550005.7960945     
  -43537313.5184910     
  -43514815.4750596     
  -43483418.4249677     
  -43445220.8711660     
  -43402026.6405548     
  -43355476.1241934     
  -43306666.2077783     
  -43256150.4738059     
  -43203953.1535707     
  -43149748.5555936     
  -43093046.4198781     
  -43033352.2516233     
  -42970242.1344547     
  -43522494.4648296     
  -43519762.2912117     
  -43507553.0380930     
  -43486507.8483510     
  -43457944.0233836     
  -43423374.0058953     
  -43384295.8584820     
  -43341935.3618791     
  -43296962.0935731     
  -43249692.6945350     
  -43200082.6699730     
  -43147870.1249447     
  -43092671.9652063     
  -43034051.2095322     
  -42971715.2947458     
  -43481953.4259134     
  -43479770.1617376     
  -43468804.9229680     
  -43449905.0876833     
  -43424765.5599431     
  -43394949.8814208     
  -43361198.1777674     
  -43323990.9511991     
  -43283687.2898211     
  -43240418.3214959     
  -43194091.3357880     
  -43144468.1744222     
  -43091250.3167408     
  -43034156.1636644     
  -42972901.4097628     
  -43431855.5365937     
  -43430087.0297066     
  -43420699.0143638     
  -43405025.1535264     
  -43384714.6013857     
  -43360607.7588498     
  -43332850.6420447     
  -43301478.4556783     
  -43266506.5708794     
  -43227862.9484598     
  -43185396.6295049     
  -43138905.9897953     
  -43088161.3030240     
  -43032945.5627518     
  -42973037.8265146     
  -43372018.2391921     
  -43371369.9313217     
  -43364253.3779297     
  -43352819.3636391     
  -43338330.4941703     
  -43320476.7640104     
  -43299179.7918179     
  -43274075.9661335     
  -43244905.0284826     
  -43211405.0355326     
  -43173319.1590065     
  -43130452.6130135     
  -43082599.5430560     
  -43029606.8322699     
  -42971416.2963741     
  -43303115.5659841     
  -43303526.7984124     
  -43299883.8792748     
  -43293783.5083802     
  -43285214.1401158     
  -43274139.1437826     
  -43259702.4642565     
  -43241246.1317536     
  -43218256.3497819     
  -43190296.1076657     
  -43157042.4303050     
  -43118238.7354406     
  -43073729.6366460     
  -43023420.5994505     
  -42967285.5443535     
  -43225241.5553718     
  -43227917.6974933     
  -43228093.6885052     
  -43227233.4818235     
  -43225346.1096111     
  -43221149.8573185     
  -43213733.8149373     
  -43202135.5412963     
  -43185639.6252265     
  -43163664.4152437     
  -43135728.8170733     
  -43101491.3531307     
  -43060737.8944598     
  -43013455.0315557     
  -42959696.7527941     
  -43138861.8115140     
  -43143131.0442549     
  -43147833.4364690     
  -43153178.9520672     
  -43157876.9982955     
  -43160786.4039208     
  -43160544.8644610     
  -43156095.4374162     
  -43146447.4055429     
  -43130800.4076580     
  -43108532.8231783     
  -43079230.0306644     
  -43042652.4693910     
  -42998776.2638459     
  -42947736.6825579     
  -43043231.5702433     
  -43049906.9374051     
  -43059203.9821828     
  -43070473.5354154     
  -43082047.3566360     
  -43092194.4791914     
  -43099401.0702361     
  -43102271.7955316     
  -43099669.9359901     
  -43090636.8261854     
  -43074432.0389020     
  -43050446.4836736     
  -43018471.6162967     
  -42978400.4842707     
  -42930468.2672424     
  -42938375.9133305     
  -42947577.0727964     
  -42961750.3186009     
  -42979072.7391515     
  -42997409.4811438     
  -43014779.1534325     
  -43029429.3382202     
  -43039710.3729596     
  -43044291.7886945     
  -43042090.6721051     
  -43032204.5968353     
  -43013979.8976736     
  -42987052.4429282     
  -42951255.5459033     
  -42906854.0935819     
  -42825688.3278447     
  -42836737.2783469     
  -42855399.4101517     
  -42878586.5580278     
  -42903575.9541118     
  -42928078.0384420     
  -42949907.4588354     
  -42967443.6348472     
  -42979195.7771869     
  -42983893.0245191     
  -42980542.7617614     
  -42968470.8830616     
  -42947060.6702499     
  -42916117.2876340     
  -42875810.0753716     
  -42704159.9713513     
  -42717719.8901067     
  -42740601.2213641     
  -42769217.1625716     
  -42800410.7438307     
  -42831402.3104042     
  -42860071.4271382     
  -42884482.9013819     
  -42903093.9058468     
  -42914662.4286968     
  -42918070.4069335     
  -42912399.6191179     
  -42896981.1009048     
  -42871533.8694204     
  -42836135.2843189     
  -42576211.6680725     
  -42591602.1549573     
  -42618110.7605278     
  -42651343.0990699     
  -42687728.6982065     
  -42724430.4993565     
  -42759093.3179564     
  -42789799.7148546     
  -42814930.1752266     
  -42833090.1034261     
  -42843175.5852911     
  -42844138.9985542     
  -42835228.2224262     
  -42815989.6634936     
  -42786243.0253819     
  -42442892.3989244     
  -42459746.9658967     
  -42488731.2416830     
  -42525258.2955036     
  -42565693.8546232     
  -42606955.3608860     
  -42646575.8435236     
  -42682586.2736253     
  -42713416.4718560     
  -42737730.9065263     
  -42754298.9990395     
  -42762068.3714597     
  -42760131.7617535     
  -42747794.6312659     
  -42724336.4252166     
  -42305682.4961638     
  -42323287.8449963     
  -42353580.2838281     
  -42392020.9068440     
  -42434868.2165665     
  -42479129.2249175     
  -42522292.3787686     
  -42562432.5705782     
  -42597944.1495026     
  -42627515.5828604     
  -42650074.1838147     
  -42664610.3936151     
  -42669981.5795550     
  -42665047.4776232     
  -42648985.1014743     
  -42166074.0041902     
  -42183595.2585792     
  -42213856.8530267     
  -42252550.8908551     
  -42296040.6898081     
  -42341352.3794940     
  -42386160.1043103     
  -42428540.4690484     
  -42467144.2283638     
  -42501026.2425545     
  -42529086.8808691     
  -42550183.0856071     
  -42563109.8473714     
  -42566223.2584644     
  -42558676.6740112     
  -42025599.2530076     
  -42041927.1239145     
  -42070727.8104721     
  -42107841.3808290     
  -42149896.0150763     
  -42194090.0251557     
  -42238219.1006716     
  -42280758.0117733     
  -42320680.2247766     
  -42357174.6498815     
  -42389654.0021469     
  -42417021.6278248     
  -42437741.9263458     
  -42449987.5210672     
  -42451753.1283808     
  -41885754.6975031     
  -41899554.1003630     
  -41925237.1665934     
  -41958842.5814998     
  -41997189.6774347     
  -42037776.1372183     
  -42078733.5214819     
  -42118939.0040934     
  -42157829.1688431     
  -42195157.2717958     
  -42230620.8998355     
  -42263530.3085725     
  -42292255.9159078     
  -42314404.2600029     
  -42326947.5633947     
  -41747812.8932427     
  -41757531.5064636     
  -41778362.9933532     
  -41806381.7796092     
  -41838585.1453557     
  -41872809.9914619     
  -41907787.9681923     
  -41942958.9352094     
  -41978357.6004022     
  -42014351.4462280     
  -42051166.9100775     
  -42088589.5759003     
  -42125140.2798754     
  -42157857.8789248     
  -42182797.1277781     
  -41612916.5625321     
  -41616842.5778224     
  -41630917.4074148     
  -41651116.4580240     
  -41674496.7962119     
  -41699390.5336137     
  -41725314.5754938     
  -41752654.4895499     
  -41782181.1614342     
  -41814774.4490351     
  -41851196.2224121     
  -41891655.0000828     
  -41935272.3106264     
  -41979116.0353457     
  -42017937.9816590     
  -41482097.4960983     
  -41478301.2811869     
  -41483495.0090513     
  -41493333.3631871     
  -41504938.2924634     
  -41517311.8916082     
  -41531039.9878173     
  -41547713.2572222     
  -41569121.2901335     
  -41596648.0226199     
  -41631187.7197595     
  -41673193.4767618     
  -41722560.9397137     
  -41777280.8178779     
  -41830946.3313037     
  -41356128.6107749     
  -41342347.8936152     
  -41336258.9262529     
  -41332721.7421820     
  -41329173.5496569     
  -41325651.1905970     
  -41324203.4026703     
  -41327745.8993120     
  -41339063.4442799     
  -41360148.3566047     
  -41391946.8716347     
  -41434751.7219248     
  -41488476.2202248     
  -41552557.9589518     
  -41622990.1955262     
  -41235714.3279052     
  -41209241.6377743     
  -41188577.0073754     
  -41167813.5627438     
  -41145195.1988344     
  -41122488.9399018     
  -41103471.9184368     
  -41092137.8690610     
  -41091854.1652998     
  -41105168.0340576     
  -41133601.1661758     
  -41177219.8059556     
  -41235306.5469564     
  -41307201.5128260     
  -41393065.3632583     
  -41121283.5842293     
  -41078371.3803539     
  -41038417.0941518     
  -40995111.0890101     
  -40948994.7706503     
  -40904552.1715520     
  -40866907.4565127     
  -40840111.4155403     
  -40827439.9034898     
  -40831700.3786874     
  -40855251.4790650     
  -40899520.3207105     
  -40963627.6574710     
  -41045816.7479319     
  -41142273.0887812     
  -41013026.2656779     
  -40947840.8167280     
  -40880774.8803708     
  -40807661.7740622     
  -40734127.1659196     
  -40667280.2442352     
  -40611795.7060466     
  -40570605.1369980     
  -40545933.5701040     
  -40540276.5803088     
  -40556741.1024898     
  -40598765.7418345     
  -40668693.1870822     
  -40761872.0963793     
  -40873364.3116485     
  -40910315.3914588     
  -40811603.5368332     
  -40704275.2337746     
  -40593727.1148330     
  -40492439.6028789     
  -40405503.4030922     
  -40334981.0337834     
  -40281877.3036947     
  -40247221.1978551     
  -40232492.4405976     
  -40240391.1792967     
  -40275504.9166707     
  -40344114.4229558     
  -40453035.8035369     
  -40589155.6093327     
  -40808062.1704263     
  -40651034.0908467     
  -40485383.0849891     
  -40339298.3593729     
  -40215716.8192884     
  -40114023.1824301     
  -40033101.7945163     
  -39972143.3765386     
  -39930936.5623327     
  -39910041.4000213     
  -39911095.7807494     
  -39937698.2648868     
  -39997668.3562360     
  -40104778.4551051     
  -40286797.2719157     
  -40674841.4513301     
  -40407055.9822063     
  -40199239.7656308     
  -40032438.0554624     
  -39897418.7894457     
  -39788835.3179539     
  -39703508.9568072     
  -39639654.7098219     
  -39596477.2157941     
  -39574043.5732627     
  -39573339.5856150     
  -39596905.7108696     
  -39650808.9030792     
  -39751601.9016617     
  -39942590.8035722     
SCALARS 2waySource double 
LOOKUP_TABLE default
 -4.114614268098704E-005
 -4.228589102815417E-005
 -4.333209936900986E-005
 -4.427601024663984E-005
 -4.511149369478690E-005
 -4.584206263234621E-005
 -4.647529458140016E-005
 -4.702070681067296E-005
 -4.748520115369497E-005
 -4.787111515288528E-005
 -4.817542643278843E-005
 -4.839142765124844E-005
 -4.851082668694196E-005
 -4.852542826994000E-005
 -4.842816173596183E-005
 -4.101644585700839E-005
 -4.215411786083217E-005
 -4.319882144418624E-005
 -4.414199689913418E-005
 -4.497851619205666E-005
 -4.571321943367793E-005
 -4.635295010646923E-005
 -4.690640623965522E-005
 -4.737929989165835E-005
 -4.777293525710108E-005
 -4.808376785348229E-005
 -4.830507704790728E-005
 -4.842880584091262E-005
 -4.844696928599799E-005
 -4.835274299275315E-005
 -4.080655010079364E-005
 -4.193734136453751E-005
 -4.297617973528815E-005
 -4.391521902613748E-005
 -4.475159822956334E-005
 -4.549146711564367E-005
 -4.614067472815515E-005
 -4.670624546150800E-005
 -4.719167108692551E-005
 -4.759668916095635E-005
 -4.791708624522534E-005
 -4.814621723103422E-005
 -4.827640818377831E-005
 -4.830020243997620E-005
 -4.821127834137778E-005
 -4.051799670903818E-005
 -4.163707717393056E-005
 -4.266583559182827E-005
 -4.359740232807176E-005
 -4.443330813149014E-005
 -4.517964652603353E-005
 -4.584124711416770E-005
 -4.642215280606000E-005
 -4.692313885538811E-005
 -4.734218929879153E-005
 -4.767436903688611E-005
 -4.791319795943653E-005
 -4.805159844903259E-005
 -4.808282106285111E-005
 -4.800122291418844E-005
 -4.015368290874395E-005
 -4.125593565362562E-005
 -4.226999257776851E-005
 -4.319213891790459E-005
 -4.402762844929449E-005
 -4.478181422104648E-005
 -4.545817843633449E-005
 -4.605627231273311E-005
 -4.657436553702495E-005
 -4.700874351604841E-005
 -4.735390540644926E-005
 -4.760357326546037E-005
 -4.775138609197196E-005
 -4.779151359864981E-005
 -4.771900428298062E-005
 -3.971717527780084E-005
 -4.079712863382017E-005
 -4.179230380989334E-005
 -4.270391987719560E-005
 -4.353941496718791E-005
 -4.430331809822795E-005
 -4.499505303265344E-005
 -4.561051850646599E-005
 -4.614567665846858E-005
 -4.659526890376934E-005
 -4.695337270530889E-005
 -4.721409941180581E-005
 -4.737186322964887E-005
 -4.742171991570409E-005
 -4.735958375012166E-005
 -3.921300915102782E-005
 -4.026505857076057E-005
 -4.123783826434384E-005
 -4.213842200651767E-005
 -4.297511995201107E-005
 -4.374904381105911E-005
 -4.445494812922548E-005
 -4.508622854110435E-005
 -4.563663543089012E-005
 -4.609978538280815E-005
 -4.646957175483734E-005
 -4.674055896008231E-005
 -4.690793790278928E-005
 -4.696779968029959E-005
 -4.691705947823717E-005
 -3.864673441982568E-005
 -3.966501335034734E-005
 -4.061287072389365E-005
 -4.150271233685861E-005
 -4.234088470379688E-005
 -4.312276596176144E-005
 -4.384002528359306E-005
 -4.448367215697109E-005
 -4.504579229608567E-005
 -4.551929829347062E-005
 -4.589818012992350E-005
 -4.617752777067627E-005
 -4.635357798797673E-005
 -4.642333651051858E-005
 -4.638458586378632E-005
 -3.802471217362309E-005
 -3.900347480508550E-005
 -3.992499993400846E-005
 -4.080461134270045E-005
 -4.164180124298849E-005
 -4.242771003737315E-005
 -4.315121489487510E-005
 -4.380173285081554E-005
 -4.437026121288164E-005
 -4.484948578746379E-005
 -4.523375586420351E-005
 -4.551888658108674E-005
 -4.570183155064424E-005
 -4.578062783448461E-005
 -4.575397438842351E-005
 -3.735346987748360E-005
 -3.828797489470743E-005
 -3.918336784208735E-005
 -4.005042984359426E-005
 -4.088194727481384E-005
 -4.166552517854021E-005
 -4.238813939754258E-005
 -4.303821459537977E-005
 -4.360629463462035E-005
 -4.408525148966672E-005
 -4.446996231611483E-005
 -4.475705028045767E-005
 -4.494446249585582E-005
 -4.503108012865036E-005
 -4.501623301702542E-005
 -3.664076526027748E-005
 -3.752834818384299E-005
 -3.839602996406724E-005
 -3.924535320757833E-005
 -4.006381302330329E-005
 -4.083638386721123E-005
 -4.154888055388608E-005
 -4.218933254893836E-005
 -4.274846998422661E-005
 -4.321971525107772E-005
 -4.359891310473608E-005
 -4.388346642509038E-005
 -4.407235160050969E-005
 -4.416504307250274E-005
 -4.416147299890707E-005
 -3.589510175698794E-005
 -3.673407918594229E-005
 -3.756970889515405E-005
 -3.839345057751831E-005
 -3.918870089383535E-005
 -3.993906385405866E-005
 -4.062996801635481E-005
 -4.124977663678219E-005
 -4.178991244179912E-005
 -4.224491479671946E-005
 -4.261153906641233E-005
 -4.288841474712067E-005
 -4.307517553030456E-005
 -4.317183402220981E-005
 -4.317877256122628E-005
 -3.512627535357565E-005
 -3.591412144832992E-005
 -3.670985919903626E-005
 -3.749695087469637E-005
 -3.825629700353319E-005
 -3.897087464998121E-005
 -3.962654331473878E-005
 -4.021281689235443E-005
 -4.072258498822815E-005
 -4.115153392512659E-005
 -4.149772260331324E-005
 -4.176091998635014E-005
 -4.194140348820094E-005
 -4.203992898275818E-005
 -4.205675676467843E-005
 -3.434325619997219E-005
 -3.507549665459112E-005
 -3.582062989496631E-005
 -3.655707603874461E-005
 -3.726489312573777E-005
 -3.792745241240269E-005
 -3.853228135637385E-005
 -3.907062483558893E-005
 -3.953707113096200E-005
 -3.992910419875725E-005
 -4.024621993476180E-005
 -4.048914554503154E-005
 -4.065911695177849E-005
 -4.075715498249913E-005
 -4.078341055256375E-005
 -3.355720307649857E-005
 -3.422499023407780E-005
 -3.490511449085680E-005
 -3.557377849677586E-005
 -3.621146947996114E-005
 -3.680351199889584E-005
 -3.733986943386493E-005
 -3.781420139079793E-005
 -3.822327158837212E-005
 -3.856648789286978E-005
 -3.884498673352206E-005
 -3.906074005299890E-005
 -3.921573781328606E-005
 -3.931110392624149E-005
 -3.934631739791591E-005
 -3.277899765927516E-005
 -3.336871572297597E-005
 -3.396563030780145E-005
 -3.454594917426085E-005
 -3.509242323865941E-005
 -3.559330192387636E-005
 -3.604165665649845E-005
 -3.643396208380549E-005
 -3.677004906628844E-005
 -3.705160408261790E-005
 -3.728154611247660E-005
 -3.746307026023250E-005
 -3.759865654692667E-005
 -3.768933122629776E-005
 -3.773343113257184E-005
 -3.202003107162314E-005
 -3.251263137351481E-005
 -3.300427073479603E-005
 -3.347299755598674E-005
 -3.390442166292050E-005
 -3.429100467648159E-005
 -3.462942647220680E-005
 -3.492028012382630E-005
 -3.516650498877622E-005
 -3.537259643962184E-005
 -3.554350477678584E-005
 -3.568365694366806E-005
 -3.579580063930972E-005
 -3.588010843270150E-005
 -3.593408614638542E-005
 -3.129150959741485E-005
 -3.166285994519137E-005
 -3.202366863414241E-005
 -3.235438626709404E-005
 -3.264460308560527E-005
 -3.289105104711420E-005
 -3.309540316968108E-005
 -3.326289317307794E-005
 -3.340079569212327E-005
 -3.351703582200148E-005
 -3.361864802994292E-005
 -3.371082142827659E-005
 -3.379623561031801E-005
 -3.387379206756324E-005
 -3.393923406981327E-005
 -3.060424012708873E-005
 -3.082552256838120E-005
 -3.102655681854968E-005
 -3.119036211639791E-005
 -3.131050216008491E-005
 -3.138855467995370E-005
 -3.143208267833613E-005
 -3.145246852814142E-005
 -3.146240869925658E-005
 -3.147365845751352E-005
 -3.149569215134590E-005
 -3.153430143775270E-005
 -3.159092597900041E-005
 -3.166277752740082E-005
 -3.174225200294397E-005
 -2.996820040781595E-005
 -3.000636070347659E-005
 -3.001573685065057E-005
 -2.998129201359096E-005
 -2.990014036356146E-005
 -2.977913371928973E-005
 -2.963289918794733E-005
 -2.948051968624694E-005
 -2.934163093530622E-005
 -2.923294872426093E-005
 -2.916603269283814E-005
 -2.914650291709704E-005
 -2.917384400178541E-005
 -2.924192458349597E-005
 -2.933962201350985E-005
 -2.939184954178573E-005
 -2.921012052102721E-005
 -2.899320838843343E-005
 -2.872689547118560E-005
 -2.841111709875553E-005
 -2.805846211690675E-005
 -2.769201073023020E-005
 -2.734038693554707E-005
 -2.703178553223502E-005
 -2.678867562154102E-005
 -2.662455706247736E-005
 -2.654372949275006E-005
 -2.654234806442443E-005
 -2.661000207197259E-005
 -2.673111137458607E-005
 -2.888228891913829E-005
 -2.843999910902545E-005
 -2.795886388783678E-005
 -2.742426024525640E-005
 -2.683845639081776E-005
 -2.622085417111185E-005
 -2.560433677745771E-005
 -2.502846330417477E-005
 -2.453091390425939E-005
 -2.414017689139947E-005
 -2.387150704598961E-005
 -2.372687057705586E-005
 -2.369798974675804E-005
 -2.376930191163664E-005
 -2.391986408626147E-005
 -2.844524673344797E-005
 -2.769666847959681E-005
 -2.690867253412174E-005
 -2.606490945797110E-005
 -2.517148243539021E-005
 -2.425683220825494E-005
 -2.336501110242533E-005
 -2.254569456039352E-005
 -2.184430672059410E-005
 -2.129451392976407E-005
 -2.091372744074881E-005
 -2.070223631311114E-005
 -2.064664555282346E-005
 -2.072553904238831E-005
 -2.091192217279676E-005
 -2.808488116278674E-005
 -2.697660654813270E-005
 -2.583121898850339E-005
 -2.463042799716573E-005
 -2.338940944165466E-005
 -2.215020204560806E-005
 -2.096845122654441E-005
 -1.989869502312565E-005
 -1.898713069161903E-005
 -1.826928507319373E-005
 -1.776659866192524E-005
 -1.748171606020339E-005
 -1.739825977587339E-005
 -1.748749149374396E-005
 -1.771753194958809E-005
 -2.780420550820728E-005
 -2.627034075235983E-005
 -2.470203109063050E-005
 -2.308581628732100E-005
 -2.145651865347124E-005
 -1.987644867922093E-005
 -1.840821200996510E-005
 -1.709916129368945E-005
 -1.598443806872205E-005
 -1.509448281885140E-005
 -1.445626400834854E-005
 -1.408347937571498E-005
 -1.396517321943513E-005
 -1.406767973044320E-005
 -1.434809871908919E-005
 -2.760517009048895E-005
 -2.555455841816501E-005
 -2.347305753346378E-005
 -2.136974417711860E-005
 -1.931960013410473E-005
 -1.740539260142614E-005
 -1.567824678170713E-005
 -1.416089180287767E-005
 -1.286642537041787E-005
 -1.181139875919779E-005
 -1.102322287382669E-005
 -1.053615768700101E-005
 -1.036367782611432E-005
 -1.047713774369319E-005
 -1.081967923071360E-005
 -2.748594680835461E-005
 -2.477835983885006E-005
 -2.205035405966981E-005
 -1.938414808120831E-005
 -1.691482209945117E-005
 -1.470960172816437E-005
 -1.277407544794806E-005
 -1.109500617414241E-005
 -9.659132449015380E-006
 -8.463596307779300E-006
 -7.524904174930235E-006
 -6.887988151862685E-006
 -6.618043339959065E-006
 -6.726495851494819E-006
 -7.149978058245132E-006
 -2.743309311160377E-005
 -2.381585141411640E-005
 -2.025150936361365E-005
 -1.700373881193776E-005
 -1.418997743273130E-005
 -1.177128363020448E-005
 -9.692385977913928E-006
 -7.905556661814512E-006
 -6.375806110564478E-006
 -5.082124525523853E-006
 -4.022485021645795E-006
 -3.226636078455204E-006
 -2.781969149893607E-006
 -2.836627267442842E-006
 -3.365187483032556E-006
 -2.736662502127234E-005
 -2.230343363316133E-005
 -1.779999620613882E-005
 -1.414096012915953E-005
 -1.111770325976774E-005
 -8.580334832260574E-006
 -6.427153773665852E-006
 -4.588233011275813E-006
 -3.015228011041948E-006
 -1.676028318244548E-006
 -5.537649777254672E-007
  3.472102148265538E-007
  9.763643465829934E-007
  1.158775559724960E-006
  4.795185880230979E-007
 -2.650196120720094E-005
 -1.946868601886725E-005
 -1.456449572057577E-005
 -1.076658807017145E-005
 -7.686712512476876E-006
 -5.126312387233900E-006
 -2.966338298749490E-006
 -1.129637923736740E-006
  4.357333793991954E-007
  1.764628447077490E-006
  2.878525286289314E-006
  3.784351867313134E-006
  4.464306759348532E-006
  4.828619529711213E-006
  4.448177467713885E-006
SCALARS poroP double 
LOOKUP_TABLE default
  1.581810677269485E-005
  1.468271175733743E-005
  1.351538204831909E-005
  1.233552679999760E-005
  1.116859914977511E-005
  1.003498998380658E-005
  8.951657261586051E-006
  7.930065939666932E-006
  6.979038333496370E-006
  6.103655274940224E-006
  5.306492236365743E-006
  4.588236597862752E-006
  3.948373059172971E-006
  3.385958861382083E-006
  2.899838185245083E-006
  1.575527640345680E-005
  1.462343217552552E-005
  1.346256774568415E-005
  1.229353635727279E-005
  1.113875070768387E-005
  1.001795799413685E-005
  8.948190758641271E-006
  7.940023461235059E-006
  7.001399419688785E-006
  6.136685888840645E-006
  5.348021964233906E-006
  4.636075140435253E-006
  4.000529121715167E-006
  3.440460180806755E-006
  2.954931325664766E-006
  1.562842431850613E-005
  1.450752608025104E-005
  1.336007680460885E-005
  1.220933535962499E-005
  1.107854867105470E-005
  9.984865310185424E-006
  8.942668308315960E-006
  7.961408724016235E-006
  7.047186382390572E-006
  6.203241373960368E-006
  5.431158319097468E-006
  4.731583132921031E-006
  4.104422580948433E-006
  3.548968292894223E-006
  3.064728269673215E-006
  1.542971530925074E-005
  1.432781319142982E-005
  1.320547154561347E-005
  1.208498471061710E-005
  1.099018569849376E-005
  9.937945794441100E-006
  8.937807984628916E-006
  7.996780184171566E-006
  7.118172250055777E-006
  6.304130956941964E-006
  5.555972610454394E-006
  4.874268612109488E-006
  4.259066070454875E-006
  3.710455462602951E-006
  3.228415304932455E-006
  1.515724399515212E-005
  1.408056829957962E-005
  1.299175213964326E-005
  1.191804678058179E-005
  1.087751245911135E-005
  9.881855948455688E-006
  8.937850024892590E-006
  8.049172883596328E-006
  7.216255760639767E-006
  6.440246586383378E-006
  5.722256369767440E-006
  5.063077674906691E-006
  4.463307487274667E-006
  3.923572968905178E-006
  3.444529784417166E-006
  1.480461014657459E-005
  1.376257713215020E-005
  1.272354193337215E-005
  1.171213901991659E-005
  1.074354368720308E-005
  9.821219632499677E-006
  8.947246545187383E-006
  8.121169530838426E-006
  7.342411225521974E-006
  6.611409452848358E-006
  5.929129883559717E-006
  5.296767787055923E-006
  4.715701112507867E-006
  4.186964684239445E-006
  3.711713830305027E-006
  1.437054000059478E-005
  1.337292965720282E-005
  1.240051418616804E-005
  1.147313474953817E-005
  1.059414456571156E-005
  9.760758237925226E-006
  8.968195643732592E-006
  8.213810541775343E-006
  7.496637211980105E-006
  6.816798481235892E-006
  6.175476297679455E-006
  5.574230171250146E-006
  5.014706115568860E-006
  4.498800312987478E-006
  4.028244759939398E-006
  1.385464229411528E-005
  1.291822253416849E-005
  1.203371574928344E-005
  1.121013533884337E-005
  1.043725763720903E-005
  9.703276141477245E-006
  9.000938006513107E-006
  8.326372272509011E-006
  7.677853862602996E-006
  7.055372262369806E-006
  6.460086523643901E-006
  5.893739007851626E-006
  5.358588370263108E-006
  4.857116305994129E-006
  4.391890396331399E-006
  1.326870710228270E-005
  1.241024173214700E-005
  1.163799997405219E-005
  1.093315322596273E-005
  1.027465510655986E-005
  9.648166400889771E-006
  9.044201224934942E-006
  8.457119570804593E-006
  7.884262273530260E-006
  7.325086220563584E-006
  6.780754221888396E-006
  6.253323425302025E-006
  5.745429856925757E-006
  5.260127847936673E-006
  4.800711644362204E-006
  1.263143647418238E-005
  1.188054985975952E-005
  1.122855259602864E-005
  1.064615893235083E-005
  1.010712872309058E-005
  9.593880253678057E-006
  9.094801165366926E-006
  8.601969468379076E-006
  8.111570463865173E-006
  7.622544243023831E-006
  7.135116643253247E-006
  6.651158240662551E-006
  6.173377093719677E-006
  5.705750902558322E-006
  5.252515324375582E-006
  1.197515132947573E-005
  1.133893583638457E-005
  1.081196147159000E-005
  1.035285127856953E-005
  9.934443708314033E-006
  9.537846164229295E-006
  9.148335557647235E-006
  8.756421771932743E-006
  8.356279141629276E-006
  7.944539761082090E-006
  7.520298247159381E-006
  7.084520095446531E-006
  6.640251003612014E-006
  6.191954889654582E-006
  5.744795805224119E-006
  1.132005834225379E-005
  1.079927096195842E-005
  1.039157012993331E-005
  1.005278320396350E-005
  9.754881465896427E-006
  9.476623842236880E-006
  9.201410326117863E-006
  8.916782737466264E-006
  8.613890617655644E-006
  8.286717597427513E-006
  7.932308074740973E-006
  7.550359939171701E-006
  7.143494719263427E-006
  6.716433959808126E-006
  6.275171006463649E-006
  1.067282447222573E-005
  1.026579776769675E-005
  9.970250744541468E-006
  9.747058459061239E-006
  9.567506863354992E-006
  9.408150452206519E-006
  9.250644526077806E-006
  9.078666623709074E-006
  8.879335383164292E-006
  8.643901858704946E-006
  8.366352900204790E-006
  8.044672832495081E-006
  7.679953703040325E-006
  7.276487201894112E-006
  6.841100536254407E-006
  1.004594277118788E-005
  9.740033694311967E-006
  9.549566106597185E-006
  9.436898930264487E-006
  9.372600680316088E-006
  9.332091503076524E-006
  9.293192078291248E-006
  9.236999480385797E-006
  9.146972405465138E-006
  9.009752541323032E-006
  8.816660585804658E-006
  8.562285277530660E-006
  8.245308973137412E-006
  7.868798754825736E-006
  7.439946755351510E-006
  9.432423697408583E-006
  9.223453126485357E-006
  9.132505907357724E-006
  9.124831674091580E-006
  9.171809739772183E-006
  9.247000270816081E-006
  9.326196494010636E-006
  9.387070023348448E-006
  9.409744008810665E-006
  9.377341948996134E-006
  9.276030227233928E-006
  9.096335356803800E-006
  8.833946083720123E-006
  8.489240464237643E-006
  8.068491001569497E-006
  8.829771127915431E-006
  8.716705268154935E-006
  8.722242678183010E-006
  8.814612256309130E-006
  8.966478066295591E-006
  9.152092337335824E-006
  9.346077658213764E-006
  9.523635238966653E-006
  9.661483770510552E-006
  9.738220054822845E-006
  9.735214714787805E-006
  9.638372946640780E-006
  9.438561871073943E-006
  9.132254130559268E-006
  8.722811042930585E-006
  8.237080646866986E-006
  8.219705277210186E-006
  8.319050860240166E-006
  8.507058235062438E-006
  8.758017898214093E-006
  9.047617332716972E-006
  9.350640692238900E-006
  9.641137130679333E-006
  9.893324248429435E-006
  1.008170779820682E-005
  1.018317694774362E-005
  1.017772408774049E-005
  1.004969881089790E-005
  9.790434379014526E-006
  9.399394311243229E-006
  7.653970057805861E-006
  7.731909457949739E-006
  7.923170807966085E-006
  8.202781328447175E-006
  8.547522364701356E-006
  8.934240167718232E-006
  9.338683474995359E-006
  9.735563020934801E-006
  1.009780153852175E-005
  1.039728727305598E-005
  1.060672154557112E-005
  1.070057456766178E-005
  1.065575902309570E-005
  1.045563538044231E-005
  1.009430338012812E-005
  7.081287592204348E-006
  7.254214938774632E-006
  7.535889330863950E-006
  7.903652230750100E-006
  8.336365666394135E-006
  8.812386599947462E-006
  9.309042955465631E-006
  9.802269231642482E-006
  1.026582673083525E-005
  1.067210445427125E-005
  1.099087141428744E-005
  1.119125863185421E-005
  1.124311941394097E-005
  1.111879545060164E-005
  1.080191567793393E-005
  6.521514025758017E-006
  6.789100676155382E-006
  7.159618993334515E-006
  7.612068341530651E-006
  8.126466241835670E-006
  8.682685375588730E-006
  9.259999074669293E-006
  9.836522202237173E-006
  1.038905629805839E-005
  1.089249460024533E-005
  1.131808030738226E-005
  1.163169395955250E-005
  1.179526576483116E-005
  1.176845057861877E-005
  1.151799137706839E-005
  5.978501317164933E-006
  6.340369260997060E-006
  6.798088260304835E-006
  7.331070286938045E-006
  7.919974417672725E-006
  8.545807888021988E-006
  9.189800172146824E-006
  9.833344489745576E-006
  1.045818016617860E-005
  1.104494845540870E-005
  1.156989354466289E-005
  1.200037638633091E-005
  1.229206272259554E-005
  1.238973637692045E-005
  1.223708125101594E-005
  5.456734256392851E-006
  5.912500288958512E-006
  6.455615674853495E-006
  7.064566395781358E-006
  7.719443108002745E-006
  8.402006503255661E-006
  9.095817926082431E-006
  9.786999781177340E-006
  1.046407774242901E-005
  1.111596668207606E-005
  1.172758060138662E-005
  1.227302763582648E-005
  1.270784455694426E-005
  1.296279843972651E-005
  1.294989642486041E-005
  4.960360823081259E-006
  5.510305612831391E-006
  6.137307357144505E-006
  6.816971953086656E-006
  7.527452876294059E-006
  8.250814058398420E-006
  8.974175618832125E-006
  9.690568628283611E-006
  1.039750322795185E-005
  1.109365266943801E-005
  1.177453519380497E-005
  1.242602705414299E-005
  1.301312802363652E-005
  1.346181977716375E-005
  1.364551042157822E-005
  4.492938768821402E-006
  5.138671993044525E-006
  5.848569230602707E-006
  6.592519016273334E-006
  7.345306571002441E-006
  8.089890153159726E-006
  8.819345903176019E-006
  9.536309871461005E-006
  1.024930961061023E-005
  1.096781885721607E-005
  1.169813782964346E-005
  1.243920300794880E-005
  1.317354185241383E-005
  1.384281402708842E-005
  1.429748307560465E-005
  4.057090719573899E-006
  4.802532560275037E-006
  5.594543850002816E-006
  6.393539866282217E-006
  7.170707646950503E-006
  7.912990498926046E-006
  8.623334846464631E-006
  9.316328107614087E-006
  1.001204686665664E-005
  1.073094802620919E-005
  1.149003004665497E-005
  1.230077807396407E-005
  1.316698685921816E-005
  1.406984558443003E-005
  1.488489753481152E-005
  3.655128839092031E-006
  4.507578554426258E-006
  5.379121095806497E-006
  6.217392710609289E-006
  6.994061285198785E-006
  7.707593695659799E-006
  8.375356371938184E-006
  9.023633476230759E-006
  9.681732925052092E-006
  1.037953447744702E-005
  1.114566823199271E-005
  1.200503359044716E-005
  1.298011192578986E-005
  1.409218907897965E-005
  1.531678841229240E-005
  3.289626324510316E-006
  4.260221633466118E-006
  5.201594369957056E-006
  6.050396030863456E-006
  6.793871391923592E-006
  7.453666663756800E-006
  8.062175257634226E-006
  8.653058282178452E-006
  9.259976740301491E-006
  9.918192081843531E-006
  1.066636217917677E-005
  1.154713028221595E-005
  1.260433141999887E-005
  1.390216534292072E-005
  1.556873494478297E-005
  2.965599450669478E-006
  4.066112458452433E-006
  5.045860694214687E-006
  5.857658218467393E-006
  6.535219177920493E-006
  7.125966004569734E-006
  7.669851498584955E-006
  8.201295596051747E-006
  8.753135689500857E-006
  9.360819723769339E-006
  1.006796862435723E-005
  1.093298354109216E-005
  1.203815879327210E-005
  1.350168071050397E-005
  1.562273521488894E-005
  2.692603148530542E-006
  3.912645733853218E-006
  4.853033347352544E-006
  5.579300049369541E-006
  6.177359611571129E-006
  6.700613872658975E-006
  7.186610646493330E-006
  7.666283576211066E-006
  8.169035840722044E-006
  8.727230460083362E-006
  9.382866993972691E-006
  1.019982467921338E-005
  1.128917442298544E-005
  1.286960480885900E-005
  1.548395203708675E-005
  2.462159358962310E-006
  3.683537297002303E-006
  4.510827067136848E-006
  5.152960360980178E-006
  5.688329089575849E-006
  6.161952571117108E-006
  6.606218379742999E-006
  7.048405556548856E-006
  7.514775960992981E-006
  8.034623241127494E-006
  8.646145127837973E-006
  9.409167510826430E-006
  1.043771921730348E-005
  1.200721156714415E-005
  1.517828858443828E-005
SCALARS elementIsPlast double 
LOOKUP_TABLE default
   1.00000000000000     
   1.00000000000000     
   1.00000000000000     
   1.00000000000000     
   1.00000000000000     
   1.00000000000000     
   1.00000000000000     
   1.00000000000000     
   1.00000000000000     
   1.00000000000000     
   1.00000000000000     
   1.00000000000000     
   1.00000000000000     
   1.00000000000000     
   1.00000000000000     
   1.00000000000000     
   1.00000000000000     
   1.00000000000000     
   1.00000000000000     
   1.00000000000000     
   1.00000000000000     
   1.00000000000000     
   1.00000000000000     
   1.00000000000000     
   1.00000000000000     
   1.00000000000000     
   1.00000000000000     
   1.00000000000000     
   1.00000000000000     
   1.00000000000000     
   1.00000000000000     
   1.00000000000000     
   1.00000000000000     
   1.00000000000000     
   1.00000000000000     
   1.00000000000000     
   1.00000000000000     
   1.00000000000000     
   1.00000000000000     
   1.00000000000000     
   1.00000000000000     
   1.00000000000000     
   1.00000000000000     
   1.00000000000000     
   1.00000000000000     
   1.00000000000000     
   1.00000000000000     
   1.00000000000000     
   1.00000000000000     
   1.00000000000000     
   1.00000000000000     
   1.00000000000000     
   1.00000000000000     
   1.00000000000000     
   1.00000000000000     
   1.00000000000000     
   1.00000000000000     
   1.00000000000000     
   1.00000000000000     
   1.00000000000000     
   1.00000000000000     
   1.00000000000000     
   1.00000000000000     
   1.00000000000000     
   1.00000000000000     
   1.00000000000000     
   1.00000000000000     
   1.00000000000000     
   1.00000000000000     
   1.00000000000000     
   1.00000000000000     
   1.00000000000000     
   1.00000000000000     
   1.00000000000000     
   1.00000000000000     
   1.00000000000000     
   1.00000000000000     
   1.00000000000000     
   1.00000000000000     
   1.00000000000000     
   1.00000000000000     
   1.00000000000000     
   1.00000000000000     
   1.00000000000000     
   1.00000000000000     
   1.00000000000000     
   1.00000000000000     
   1.00000000000000     
   1.00000000000000     
   1.00000000000000     
   1.00000000000000     
   1.00000000000000     
   1.00000000000000     
   1.00000000000000     
   1.00000000000000     
   1.00000000000000     
   1.00000000000000     
   1.00000000000000     
   1.00000000000000     
   1.00000000000000     
   1.00000000000000     
   1.00000000000000     
   1.00000000000000     
   1.00000000000000     
   1.00000000000000     
   1.00000000000000     
   1.00000000000000     
   1.00000000000000     
   1.00000000000000     
   1.00000000000000     
   1.00000000000000     
   1.00000000000000     
   1.00000000000000     
   1.00000000000000     
   1.00000000000000     
   1.00000000000000     
   1.00000000000000     
   1.00000000000000     
   1.00000000000000     
   1.00000000000000     
   1.00000000000000     
   1.00000000000000     
   1.00000000000000     
   1.00000000000000     
   1.00000000000000     
   1.00000000000000     
   1.00000000000000     
   1.00000000000000     
   1.00000000000000     
   1.00000000000000     
   1.00000000000000     
   1.00000000000000     
   1.00000000000000     
   1.00000000000000     
   1.00000000000000     
   1.00000000000000     
   1.00000000000000     
   1.00000000000000     
   1.00000000000000     
   1.00000000000000     
   1.00000000000000     
   1.00000000000000     
   1.00000000000000     
   1.00000000000000     
   1.00000000000000     
   1.00000000000000     
   1.00000000000000     
   1.00000000000000     
   1.00000000000000     
   1.00000000000000     
   1.00000000000000     
   1.00000000000000     
   1.00000000000000     
   1.00000000000000     
   1.00000000000000     
   1.00000000000000     
   1.00000000000000     
   1.00000000000000     
   1.00000000000000     
   1.00000000000000     
   1.00000000000000     
   1.00000000000000     
   1.00000000000000     
   1.00000000000000     
   1.00000000000000     
   1.00000000000000     
   1.00000000000000     
   1.00000000000000     
   1.00000000000000     
   1.00000000000000     
   1.00000000000000     
   1.00000000000000     
   1.00000000000000     
   1.00000000000000     
   1.00000000000000     
   1.00000000000000     
   1.00000000000000     
   1.00000000000000     
   1.00000000000000     
   1.00000000000000     
   1.00000000000000     
   1.00000000000000     
   1.00000000000000     
   1.00000000000000     
   1.00000000000000     
   1.00000000000000     
   1.00000000000000     
   1.00000000000000     
   1.00000000000000     
   1.00000000000000     
   1.00000000000000     
   1.00000000000000     
   1.00000000000000     
   1.00000000000000     
   1.00000000000000     
   1.00000000000000     
   1.00000000000000     
   1.00000000000000     
   1.00000000000000     
   1.00000000000000     
   1.00000000000000     
   1.00000000000000     
   1.00000000000000     
   1.00000000000000     
   1.00000000000000     
   1.00000000000000     
   1.00000000000000     
   1.00000000000000     
   1.00000000000000     
   1.00000000000000     
   1.00000000000000     
   1.00000000000000     
   1.00000000000000     
   1.00000000000000     
   1.00000000000000     
   1.00000000000000     
   1.00000000000000     
   1.00000000000000     
   1.00000000000000     
   1.00000000000000     
   1.00000000000000     
   1.00000000000000     
   1.00000000000000     
   1.00000000000000     
   1.00000000000000     
   1.00000000000000     
   1.00000000000000     
   1.00000000000000     
   1.00000000000000     
   1.00000000000000     
   1.00000000000000     
   1.00000000000000     
   1.00000000000000     
   1.00000000000000     
   1.00000000000000     
   1.00000000000000     
   1.00000000000000     
   1.00000000000000     
   1.00000000000000     
   1.00000000000000     
   1.00000000000000     
   1.00000000000000     
   1.00000000000000     
   1.00000000000000     
   1.00000000000000     
   1.00000000000000     
   1.00000000000000     
   1.00000000000000     
   1.00000000000000     
   1.00000000000000     
   1.00000000000000     
   1.00000000000000     
   1.00000000000000     
   1.00000000000000     
   1.00000000000000     
   1.00000000000000     
   1.00000000000000     
   1.00000000000000     
   1.00000000000000     
   1.00000000000000     
   1.00000000000000     
   1.00000000000000     
   1.00000000000000     
   1.00000000000000     
   1.00000000000000     
   1.00000000000000     
   1.00000000000000     
   1.00000000000000     
   1.00000000000000     
   1.00000000000000     
   1.00000000000000     
   1.00000000000000     
   1.00000000000000     
   1.00000000000000     
   1.00000000000000     
   1.00000000000000     
   1.00000000000000     
   1.00000000000000     
   1.00000000000000     
   1.00000000000000     
   1.00000000000000     
   1.00000000000000     
   1.00000000000000     
   1.00000000000000     
   1.00000000000000     
   1.00000000000000     
   1.00000000000000     
   1.00000000000000     
   1.00000000000000     
   1.00000000000000     
   1.00000000000000     
   1.00000000000000     
   1.00000000000000     
   1.00000000000000     
   1.00000000000000     
   1.00000000000000     
   1.00000000000000     
   1.00000000000000     
   1.00000000000000     
   1.00000000000000     
   1.00000000000000     
   1.00000000000000     
   1.00000000000000     
   1.00000000000000     
   1.00000000000000     
   1.00000000000000     
   1.00000000000000     
   1.00000000000000     
   1.00000000000000     
   1.00000000000000     
   1.00000000000000     
   1.00000000000000     
   1.00000000000000     
   1.00000000000000     
   1.00000000000000     
   1.00000000000000     
   1.00000000000000     
   1.00000000000000     
   1.00000000000000     
   1.00000000000000     
   1.00000000000000     
   1.00000000000000     
   1.00000000000000     
   1.00000000000000     
   1.00000000000000     
   1.00000000000000     
   1.00000000000000     
   1.00000000000000     
   1.00000000000000     
   1.00000000000000     
   1.00000000000000     
   1.00000000000000     
   1.00000000000000     
   1.00000000000000     
   1.00000000000000     
   1.00000000000000     
   1.00000000000000     
   1.00000000000000     
   1.00000000000000     
   1.00000000000000     
   1.00000000000000     
   1.00000000000000     
   1.00000000000000     
   1.00000000000000     
   1.00000000000000     
   1.00000000000000     
   1.00000000000000     
   1.00000000000000     
   1.00000000000000     
   1.00000000000000     
   1.00000000000000     
   1.00000000000000     
   1.00000000000000     
   1.00000000000000     
   1.00000000000000     
   1.00000000000000     
   1.00000000000000     
   1.00000000000000     
   1.00000000000000     
   1.00000000000000     
   1.00000000000000     
   1.00000000000000     
   1.00000000000000     
   1.00000000000000     
   1.00000000000000     
   1.00000000000000     
   1.00000000000000     
   1.00000000000000     
   1.00000000000000     
   1.00000000000000     
   1.00000000000000     
   1.00000000000000     
   1.00000000000000     
   1.00000000000000     
   1.00000000000000     
   1.00000000000000     
   1.00000000000000     
   1.00000000000000     
   1.00000000000000     
   1.00000000000000     
   1.00000000000000     
   1.00000000000000     
   1.00000000000000     
   1.00000000000000     
   1.00000000000000     
   1.00000000000000     
   1.00000000000000     
   1.00000000000000     
   1.00000000000000     
   1.00000000000000     
   1.00000000000000     
   1.00000000000000     
   1.00000000000000     
   1.00000000000000     
   1.00000000000000     
   1.00000000000000     
   1.00000000000000     
   1.00000000000000     
   1.00000000000000     
   1.00000000000000     
   1.00000000000000     
   1.00000000000000     
   1.00000000000000     
   1.00000000000000     
   1.00000000000000     
   1.00000000000000     
   1.00000000000000     
   1.00000000000000     
   1.00000000000000     
   1.00000000000000     
   1.00000000000000     
   1.00000000000000     
   1.00000000000000     
   1.00000000000000     
   1.00000000000000     
   1.00000000000000     
   1.00000000000000     
   1.00000000000000     
   1.00000000000000     
   1.00000000000000     
   1.00000000000000     
   1.00000000000000     
   1.00000000000000     
   1.00000000000000     
   1.00000000000000     
   1.00000000000000     
   1.00000000000000     
   1.00000000000000     
   1.00000000000000     
   1.00000000000000     
   1.00000000000000     
   1.00000000000000     
   1.00000000000000     
   1.00000000000000     
   1.00000000000000     
   1.00000000000000     
   1.00000000000000     
   1.00000000000000     
   1.00000000000000     
   1.00000000000000     
   1.00000000000000     
   1.00000000000000     
   1.00000000000000     
   1.00000000000000     
   1.00000000000000     
   1.00000000000000     
   1.00000000000000     
   1.00000000000000     
   1.00000000000000     
   1.00000000000000     
SCALARS poroL double 
LOOKUP_TABLE default
  0.155874258271710     
  0.155873129571543     
  0.155872034016864     
  0.155870995570460     
  0.155870038638093     
  0.155869172349852     
  0.155868398716700     
  0.155867715048292     
  0.155867119537169     
  0.155866612269139     
  0.155866196509944     
  0.155865877132805     
  0.155865659108241     
  0.155865546689601     
  0.155865542660805     
  0.155873943483647     
  0.155872816848515     
  0.155871726453436     
  0.155870696872101     
  0.155869746795202     
  0.155868884174899     
  0.155868113264817     
  0.155867431422676     
  0.155866837430056     
  0.155866331632843     
  0.155865917173033     
  0.155865598690240     
  0.155865381056246     
  0.155865268286391     
  0.155865263215627     
  0.155873316433618     
  0.155872199910920     
  0.155871118811690     
  0.155870099479405     
  0.155869161345035     
  0.155868308290821     
  0.155867543422570     
  0.155866865902992     
  0.155866275462355     
  0.155865772886281     
  0.155865361098307     
  0.155865044470172     
  0.155864827560907     
  0.155864713969277     
  0.155864706552420     
  0.155872365683914     
  0.155871267501811     
  0.155870208100884     
  0.155869208226516     
  0.155868284691723     
  0.155867445575698     
  0.155866691476011     
  0.155866022292140     
  0.155865438247844     
  0.155864940855976     
  0.155864533297655     
  0.155864219376088     
  0.155864002964492     
  0.155863888020628     
  0.155863876871701     
  0.155871095714554     
  0.155870018785877     
  0.155868983764890     
  0.155868014697695     
  0.155867119659884     
  0.155866301129032     
  0.155865562735252     
  0.155864906765941     
  0.155864332945598     
  0.155863843207960     
  0.155863440892322     
  0.155863129833516     
  0.155862913800088     
  0.155862796093729     
  0.155862779667998     
  0.155869499258724     
  0.155868454106991     
  0.155867457289453     
  0.155866526407860     
  0.155865666931716     
  0.155864878604256     
  0.155864164896450     
  0.155863527363973     
  0.155862967348858     
  0.155862487622018     
  0.155862091810942     
  0.155861783859720     
  0.155861567781351     
  0.155861446790039     
  0.155861423866461     
  0.155867581424986     
  0.155866572487835     
  0.155865625520970     
  0.155864746943783     
  0.155863933291649     
  0.155863186843661     
  0.155862505889953     
  0.155861892826455     
  0.155861350696910     
  0.155860883391127     
  0.155860495543057     
  0.155860191388700     
  0.155859975013576     
  0.155859850001829     
  0.155859818675130     
  0.155865342588503     
  0.155864387195371     
  0.155863502291175     
  0.155862687610341     
  0.155861935814500     
  0.155861237981945     
  0.155860595850546     
  0.155860012803720     
  0.155859493030187     
  0.155859041591716     
  0.155858663571907     
  0.155858363836141     
  0.155858146676585     
  0.155858015809758     
  0.155857974163027     
  0.155862800727724     
  0.155861906478138     
  0.155861105533706     
  0.155860370672878     
  0.155859683464496     
  0.155859041939137     
  0.155858445943484     
  0.155857899362220     
  0.155857406935693     
  0.155856974247060     
  0.155856607549411     
  0.155856312636404     
  0.155856094604694     
  0.155855957113554     
  0.155855903218179     
  0.155859978819876     
  0.155859180628724     
  0.155858466408126     
  0.155857807974244     
  0.155857191571076     
  0.155856610793034     
  0.155856066729772     
  0.155855561615712     
  0.155855101065902     
  0.155854691750669     
  0.155854340000337     
  0.155854051933003     
  0.155853832880325     
  0.155853687495628     
  0.155853619166743     
  0.155856923697016     
  0.155856222541607     
  0.155855599558354     
  0.155855020912096     
  0.155854474681707     
  0.155853957550257     
  0.155853468532492     
  0.155853010775571     
  0.155852588893986     
  0.155852208367435     
  0.155851875224437     
  0.155851596109185     
  0.155851376411218     
  0.155851221894948     
  0.155851136123535     
  0.155853665055845     
  0.155853060929674     
  0.155852521564180     
  0.155852019167891     
  0.155851544367565     
  0.155851093257129     
  0.155850664648861     
  0.155850260525848     
  0.155849883827895     
  0.155849538218049     
  0.155849228817514     
  0.155848961267371     
  0.155848741679958     
  0.155848576518233     
  0.155848469960584     
  0.155850209398712     
  0.155849706025886     
  0.155849246469373     
  0.155848817504046     
  0.155848413388481     
  0.155848030181293     
  0.155847668084678     
  0.155847324808296     
  0.155847000324543     
  0.155846696861084     
  0.155846417052907     
  0.155846164892758     
  0.155845946848167     
  0.155845769146182     
  0.155845637547850     
  0.155846588372933     
  0.155846168204460     
  0.155845783823328     
  0.155845427079864     
  0.155845094613361     
  0.155844784877822     
  0.155844493507690     
  0.155844217831717     
  0.155843954362362     
  0.155843700322444     
  0.155843456504454     
  0.155843225278442     
  0.155843011038263     
  0.155842819423308     
  0.155842657281086     
  0.155842788564986     
  0.155842452869484     
  0.155842143055111     
  0.155841859794580     
  0.155841603435053     
  0.155841370729306     
  0.155841156815909     
  0.155840955204789     
  0.155840759431701     
  0.155840564176992     
  0.155840364810834     
  0.155840160519982     
  0.155839953272475     
  0.155839747319202     
  0.155839550585387     
  0.155838812375885     
  0.155838563168459     
  0.155838334164661     
  0.155838130173389     
  0.155837952987223     
  0.155837801611501     
  0.155837670558388     
  0.155837550971131     
  0.155837432340513     
  0.155837304144921     
  0.155837157758067     
  0.155836987656236     
  0.155836792103802     
  0.155836573273079     
  0.155836340352338     
  0.155834661216575     
  0.155834504009884     
  0.155834362554160     
  0.155834244625689     
  0.155834154088290     
  0.155834090319332     
  0.155834047978671     
  0.155834016391668     
  0.155833982532085     
  0.155833931361445     
  0.155833848369613     
  0.155833721658980     
  0.155833544711086     
  0.155833317964290     
  0.155833047520575     
  0.155830337637368     
  0.155830278719503     
  0.155830233647884     
  0.155830211075617     
  0.155830216119102     
  0.155830248747608     
  0.155830302761559     
  0.155830367775226     
  0.155830427182448     
  0.155830460251561     
  0.155830448295563     
  0.155830374788091     
  0.155830226181076     
  0.155829998797583     
  0.155829693589279     
  0.155825845793301     
  0.155825893602403     
  0.155825954814081     
  0.155826038762129     
  0.155826150121905     
  0.155826288586613     
  0.155826448171707     
  0.155826616267472     
  0.155826774293729     
  0.155826900721341     
  0.155826969790742     
  0.155826959149024     
  0.155826850666630     
  0.155826631052426     
  0.155826299741979     
  0.155821192416600     
  0.155821357101772     
  0.155821536117957     
  0.155821738366946     
  0.155821967674480     
  0.155822222447987     
  0.155822495610763     
  0.155822773237868     
  0.155823035889322     
  0.155823259931032     
  0.155823418691411     
  0.155823483314850     
  0.155823428417641     
  0.155823232382282     
  0.155822885678486     
  0.155816387994919     
  0.155816681285303     
  0.155816990057737     
  0.155817322720477     
  0.155817681791437     
  0.155818063678330     
  0.155818458179897     
  0.155818849921698     
  0.155819219470716     
  0.155819543959266     
  0.155819797466487     
  0.155819948851841     
  0.155819965269548     
  0.155819814617486     
  0.155819471432165     
  0.155811445312404     
  0.155811880096163     
  0.155812331600404     
  0.155812807367824     
  0.155813308269405     
  0.155813827121204     
  0.155814349559135     
  0.155814857287896     
  0.155815331697657     
  0.155815754024127     
  0.155816102737680     
  0.155816350099284     
  0.155816458485999     
  0.155816381587313     
  0.155816072366749     
  0.155806378349543     
  0.155806969766107     
  0.155807578776072     
  0.155808211739079     
  0.155808866445883     
  0.155809530338287     
  0.155810183974744     
  0.155810806379940     
  0.155811379851017     
  0.155811891324774     
  0.155812328730528     
  0.155812674141479     
  0.155812893424100     
  0.155812928421851     
  0.155812702501242     
  0.155801203198143     
  0.155801970153327     
  0.155802753842860     
  0.155803560188214     
  0.155804380539776     
  0.155805194797443     
  0.155805977891073     
  0.155806708037207     
  0.155807370747826     
  0.155807958974233     
  0.155808470945834     
  0.155808902972199     
  0.155809238292388     
  0.155809423331293     
  0.155809340139824     
  0.155795936304243     
  0.155796903270169     
  0.155797885532052     
  0.155798884556473     
  0.155799881282349     
  0.155800845911896     
  0.155801749756130     
  0.155802574613554     
  0.155803313043791     
  0.155803964703776     
  0.155804534070394     
  0.155805031704203     
  0.155805466931663     
  0.155805826468462     
  0.155805985466926     
  0.155790596772180     
  0.155791799355639     
  0.155793012715087     
  0.155794227752722     
  0.155795407730137     
  0.155796513290590     
  0.155797519813398     
  0.155798420460126     
  0.155799217853616     
  0.155799919173607     
  0.155800534136983     
  0.155801076235126     
  0.155801574674331     
  0.155802064672351     
  0.155802551984598     
  0.155785206803803     
  0.155786700113460     
  0.155788193130722     
  0.155789648526626     
  0.155791005833221     
  0.155792228812654     
  0.155793311601900     
  0.155794263648751     
  0.155795100280297     
  0.155795836662367     
  0.155796486905629     
  0.155797066797448     
  0.155797602052884     
  0.155798192979026     
  0.155799006533970     
  0.155779798589576     
  0.155781679378314     
  0.155783518619220     
  0.155785221278202     
  0.155786721007808     
  0.155788023440529     
  0.155789150912793     
  0.155790128912542     
  0.155790981508285     
  0.155791732140874     
  0.155792403197010     
  0.155793017464527     
  0.155793608784663     
  0.155794243118594     
  0.155795321285671     
  0.155774444952037     
  0.155776890535258     
  0.155779131896095     
  0.155781012424928     
  0.155782592620290     
  0.155783928971487     
  0.155785066583720     
  0.155786041942008     
  0.155786885609899     
  0.155787625304424     
  0.155788290168835     
  0.155788916203136     
  0.155789554205554     
  0.155790317000353     
  0.155791534519403     
  0.155769406217608     
  0.155772694975504     
  0.155775131595489     
  0.155777068667035     
  0.155778654613926     
  0.155779975051291     
  0.155781086500026     
  0.155782029766423     
  0.155782837092382     
  0.155783537155632     
  0.155784160493594     
  0.155784747326977     
  0.155785364968130     
  0.155786161503866     
  0.155787864813976     
