# vtk DataFile Version 3.0
vtk output
ASCII
DATASET UNSTRUCTURED_GRID
POINTS       496 double 
  0.00000000E+00  3.00000000E+02  0.00000000E+00
  0.00000000E+00  2.80000000E+02  0.00000000E+00
  0.00000000E+00  2.60000000E+02  0.00000000E+00
  0.00000000E+00  2.40000000E+02  0.00000000E+00
  0.00000000E+00  2.20000000E+02  0.00000000E+00
  0.00000000E+00  2.00000000E+02  0.00000000E+00
  0.00000000E+00  1.80000000E+02  0.00000000E+00
  0.00000000E+00  1.60000000E+02  0.00000000E+00
  0.00000000E+00  1.40000000E+02  0.00000000E+00
  0.00000000E+00  1.20000000E+02  0.00000000E+00
  0.00000000E+00  1.00000000E+02  0.00000000E+00
  0.00000000E+00  8.00000000E+01  0.00000000E+00
  0.00000000E+00  6.00000000E+01  0.00000000E+00
  0.00000000E+00  4.00000000E+01  0.00000000E+00
  0.00000000E+00  2.00000000E+01  0.00000000E+00
  0.00000000E+00  4.99600361E-14  0.00000000E+00
  2.00000000E+01  3.00000000E+02  0.00000000E+00
  2.00000000E+01  2.80000000E+02  0.00000000E+00
  2.00000000E+01  2.60000000E+02  0.00000000E+00
  2.00000000E+01  2.40000000E+02  0.00000000E+00
  2.00000000E+01  2.20000000E+02  0.00000000E+00
  2.00000000E+01  2.00000000E+02  0.00000000E+00
  2.00000000E+01  1.80000000E+02  0.00000000E+00
  2.00000000E+01  1.60000000E+02  0.00000000E+00
  2.00000000E+01  1.40000000E+02  0.00000000E+00
  2.00000000E+01  1.20000000E+02  0.00000000E+00
  2.00000000E+01  1.00000000E+02  0.00000000E+00
  2.00000000E+01  8.00000000E+01  0.00000000E+00
  2.00000000E+01  6.00000000E+01  0.00000000E+00
  2.00000000E+01  4.00000000E+01  0.00000000E+00
  2.00000000E+01  2.00000000E+01  0.00000000E+00
  2.00000000E+01  4.99600361E-14  0.00000000E+00
  4.00000000E+01  3.00000000E+02  0.00000000E+00
  4.00000000E+01  2.80000000E+02  0.00000000E+00
  4.00000000E+01  2.60000000E+02  0.00000000E+00
  4.00000000E+01  2.40000000E+02  0.00000000E+00
  4.00000000E+01  2.20000000E+02  0.00000000E+00
  4.00000000E+01  2.00000000E+02  0.00000000E+00
  4.00000000E+01  1.80000000E+02  0.00000000E+00
  4.00000000E+01  1.60000000E+02  0.00000000E+00
  4.00000000E+01  1.40000000E+02  0.00000000E+00
  4.00000000E+01  1.20000000E+02  0.00000000E+00
  4.00000000E+01  1.00000000E+02  0.00000000E+00
  4.00000000E+01  8.00000000E+01  0.00000000E+00
  4.00000000E+01  6.00000000E+01  0.00000000E+00
  4.00000000E+01  4.00000000E+01  0.00000000E+00
  4.00000000E+01  2.00000000E+01  0.00000000E+00
  4.00000000E+01  4.99600361E-14  0.00000000E+00
  6.00000000E+01  3.00000000E+02  0.00000000E+00
  6.00000000E+01  2.80000000E+02  0.00000000E+00
  6.00000000E+01  2.60000000E+02  0.00000000E+00
  6.00000000E+01  2.40000000E+02  0.00000000E+00
  6.00000000E+01  2.20000000E+02  0.00000000E+00
  6.00000000E+01  2.00000000E+02  0.00000000E+00
  6.00000000E+01  1.80000000E+02  0.00000000E+00
  6.00000000E+01  1.60000000E+02  0.00000000E+00
  6.00000000E+01  1.40000000E+02  0.00000000E+00
  6.00000000E+01  1.20000000E+02  0.00000000E+00
  6.00000000E+01  1.00000000E+02  0.00000000E+00
  6.00000000E+01  8.00000000E+01  0.00000000E+00
  6.00000000E+01  6.00000000E+01  0.00000000E+00
  6.00000000E+01  4.00000000E+01  0.00000000E+00
  6.00000000E+01  2.00000000E+01  0.00000000E+00
  6.00000000E+01  4.99600361E-14  0.00000000E+00
  8.00000000E+01  3.00000000E+02  0.00000000E+00
  8.00000000E+01  2.80000000E+02  0.00000000E+00
  8.00000000E+01  2.60000000E+02  0.00000000E+00
  8.00000000E+01  2.40000000E+02  0.00000000E+00
  8.00000000E+01  2.20000000E+02  0.00000000E+00
  8.00000000E+01  2.00000000E+02  0.00000000E+00
  8.00000000E+01  1.80000000E+02  0.00000000E+00
  8.00000000E+01  1.60000000E+02  0.00000000E+00
  8.00000000E+01  1.40000000E+02  0.00000000E+00
  8.00000000E+01  1.20000000E+02  0.00000000E+00
  8.00000000E+01  1.00000000E+02  0.00000000E+00
  8.00000000E+01  8.00000000E+01  0.00000000E+00
  8.00000000E+01  6.00000000E+01  0.00000000E+00
  8.00000000E+01  4.00000000E+01  0.00000000E+00
  8.00000000E+01  2.00000000E+01  0.00000000E+00
  8.00000000E+01  4.99600361E-14  0.00000000E+00
  1.00000000E+02  3.00000000E+02  0.00000000E+00
  1.00000000E+02  2.80000000E+02  0.00000000E+00
  1.00000000E+02  2.60000000E+02  0.00000000E+00
  1.00000000E+02  2.40000000E+02  0.00000000E+00
  1.00000000E+02  2.20000000E+02  0.00000000E+00
  1.00000000E+02  2.00000000E+02  0.00000000E+00
  1.00000000E+02  1.80000000E+02  0.00000000E+00
  1.00000000E+02  1.60000000E+02  0.00000000E+00
  1.00000000E+02  1.40000000E+02  0.00000000E+00
  1.00000000E+02  1.20000000E+02  0.00000000E+00
  1.00000000E+02  1.00000000E+02  0.00000000E+00
  1.00000000E+02  8.00000000E+01  0.00000000E+00
  1.00000000E+02  6.00000000E+01  0.00000000E+00
  1.00000000E+02  4.00000000E+01  0.00000000E+00
  1.00000000E+02  2.00000000E+01  0.00000000E+00
  1.00000000E+02  4.99600361E-14  0.00000000E+00
  1.20000000E+02  3.00000000E+02  0.00000000E+00
  1.20000000E+02  2.80000000E+02  0.00000000E+00
  1.20000000E+02  2.60000000E+02  0.00000000E+00
  1.20000000E+02  2.40000000E+02  0.00000000E+00
  1.20000000E+02  2.20000000E+02  0.00000000E+00
  1.20000000E+02  2.00000000E+02  0.00000000E+00
  1.20000000E+02  1.80000000E+02  0.00000000E+00
  1.20000000E+02  1.60000000E+02  0.00000000E+00
  1.20000000E+02  1.40000000E+02  0.00000000E+00
  1.20000000E+02  1.20000000E+02  0.00000000E+00
  1.20000000E+02  1.00000000E+02  0.00000000E+00
  1.20000000E+02  8.00000000E+01  0.00000000E+00
  1.20000000E+02  6.00000000E+01  0.00000000E+00
  1.20000000E+02  4.00000000E+01  0.00000000E+00
  1.20000000E+02  2.00000000E+01  0.00000000E+00
  1.20000000E+02  4.99600361E-14  0.00000000E+00
  1.40000000E+02  3.00000000E+02  0.00000000E+00
  1.40000000E+02  2.80000000E+02  0.00000000E+00
  1.40000000E+02  2.60000000E+02  0.00000000E+00
  1.40000000E+02  2.40000000E+02  0.00000000E+00
  1.40000000E+02  2.20000000E+02  0.00000000E+00
  1.40000000E+02  2.00000000E+02  0.00000000E+00
  1.40000000E+02  1.80000000E+02  0.00000000E+00
  1.40000000E+02  1.60000000E+02  0.00000000E+00
  1.40000000E+02  1.40000000E+02  0.00000000E+00
  1.40000000E+02  1.20000000E+02  0.00000000E+00
  1.40000000E+02  1.00000000E+02  0.00000000E+00
  1.40000000E+02  8.00000000E+01  0.00000000E+00
  1.40000000E+02  6.00000000E+01  0.00000000E+00
  1.40000000E+02  4.00000000E+01  0.00000000E+00
  1.40000000E+02  2.00000000E+01  0.00000000E+00
  1.40000000E+02  4.99600361E-14  0.00000000E+00
  1.60000000E+02  3.00000000E+02  0.00000000E+00
  1.60000000E+02  2.80000000E+02  0.00000000E+00
  1.60000000E+02  2.60000000E+02  0.00000000E+00
  1.60000000E+02  2.40000000E+02  0.00000000E+00
  1.60000000E+02  2.20000000E+02  0.00000000E+00
  1.60000000E+02  2.00000000E+02  0.00000000E+00
  1.60000000E+02  1.80000000E+02  0.00000000E+00
  1.60000000E+02  1.60000000E+02  0.00000000E+00
  1.60000000E+02  1.40000000E+02  0.00000000E+00
  1.60000000E+02  1.20000000E+02  0.00000000E+00
  1.60000000E+02  1.00000000E+02  0.00000000E+00
  1.60000000E+02  8.00000000E+01  0.00000000E+00
  1.60000000E+02  6.00000000E+01  0.00000000E+00
  1.60000000E+02  4.00000000E+01  0.00000000E+00
  1.60000000E+02  2.00000000E+01  0.00000000E+00
  1.60000000E+02  4.99600361E-14  0.00000000E+00
  1.80000000E+02  3.00000000E+02  0.00000000E+00
  1.80000000E+02  2.80000000E+02  0.00000000E+00
  1.80000000E+02  2.60000000E+02  0.00000000E+00
  1.80000000E+02  2.40000000E+02  0.00000000E+00
  1.80000000E+02  2.20000000E+02  0.00000000E+00
  1.80000000E+02  2.00000000E+02  0.00000000E+00
  1.80000000E+02  1.80000000E+02  0.00000000E+00
  1.80000000E+02  1.60000000E+02  0.00000000E+00
  1.80000000E+02  1.40000000E+02  0.00000000E+00
  1.80000000E+02  1.20000000E+02  0.00000000E+00
  1.80000000E+02  1.00000000E+02  0.00000000E+00
  1.80000000E+02  8.00000000E+01  0.00000000E+00
  1.80000000E+02  6.00000000E+01  0.00000000E+00
  1.80000000E+02  4.00000000E+01  0.00000000E+00
  1.80000000E+02  2.00000000E+01  0.00000000E+00
  1.80000000E+02  4.99600361E-14  0.00000000E+00
  2.00000000E+02  3.00000000E+02  0.00000000E+00
  2.00000000E+02  2.80000000E+02  0.00000000E+00
  2.00000000E+02  2.60000000E+02  0.00000000E+00
  2.00000000E+02  2.40000000E+02  0.00000000E+00
  2.00000000E+02  2.20000000E+02  0.00000000E+00
  2.00000000E+02  2.00000000E+02  0.00000000E+00
  2.00000000E+02  1.80000000E+02  0.00000000E+00
  2.00000000E+02  1.60000000E+02  0.00000000E+00
  2.00000000E+02  1.40000000E+02  0.00000000E+00
  2.00000000E+02  1.20000000E+02  0.00000000E+00
  2.00000000E+02  1.00000000E+02  0.00000000E+00
  2.00000000E+02  8.00000000E+01  0.00000000E+00
  2.00000000E+02  6.00000000E+01  0.00000000E+00
  2.00000000E+02  4.00000000E+01  0.00000000E+00
  2.00000000E+02  2.00000000E+01  0.00000000E+00
  2.00000000E+02  4.99600361E-14  0.00000000E+00
  2.20000000E+02  3.00000000E+02  0.00000000E+00
  2.20000000E+02  2.80000000E+02  0.00000000E+00
  2.20000000E+02  2.60000000E+02  0.00000000E+00
  2.20000000E+02  2.40000000E+02  0.00000000E+00
  2.20000000E+02  2.20000000E+02  0.00000000E+00
  2.20000000E+02  2.00000000E+02  0.00000000E+00
  2.20000000E+02  1.80000000E+02  0.00000000E+00
  2.20000000E+02  1.60000000E+02  0.00000000E+00
  2.20000000E+02  1.40000000E+02  0.00000000E+00
  2.20000000E+02  1.20000000E+02  0.00000000E+00
  2.20000000E+02  1.00000000E+02  0.00000000E+00
  2.20000000E+02  8.00000000E+01  0.00000000E+00
  2.20000000E+02  6.00000000E+01  0.00000000E+00
  2.20000000E+02  4.00000000E+01  0.00000000E+00
  2.20000000E+02  2.00000000E+01  0.00000000E+00
  2.20000000E+02  4.99600361E-14  0.00000000E+00
  2.40000000E+02  3.00000000E+02  0.00000000E+00
  2.40000000E+02  2.80000000E+02  0.00000000E+00
  2.40000000E+02  2.60000000E+02  0.00000000E+00
  2.40000000E+02  2.40000000E+02  0.00000000E+00
  2.40000000E+02  2.20000000E+02  0.00000000E+00
  2.40000000E+02  2.00000000E+02  0.00000000E+00
  2.40000000E+02  1.80000000E+02  0.00000000E+00
  2.40000000E+02  1.60000000E+02  0.00000000E+00
  2.40000000E+02  1.40000000E+02  0.00000000E+00
  2.40000000E+02  1.20000000E+02  0.00000000E+00
  2.40000000E+02  1.00000000E+02  0.00000000E+00
  2.40000000E+02  8.00000000E+01  0.00000000E+00
  2.40000000E+02  6.00000000E+01  0.00000000E+00
  2.40000000E+02  4.00000000E+01  0.00000000E+00
  2.40000000E+02  2.00000000E+01  0.00000000E+00
  2.40000000E+02  4.99600361E-14  0.00000000E+00
  2.60000000E+02  3.00000000E+02  0.00000000E+00
  2.60000000E+02  2.80000000E+02  0.00000000E+00
  2.60000000E+02  2.60000000E+02  0.00000000E+00
  2.60000000E+02  2.40000000E+02  0.00000000E+00
  2.60000000E+02  2.20000000E+02  0.00000000E+00
  2.60000000E+02  2.00000000E+02  0.00000000E+00
  2.60000000E+02  1.80000000E+02  0.00000000E+00
  2.60000000E+02  1.60000000E+02  0.00000000E+00
  2.60000000E+02  1.40000000E+02  0.00000000E+00
  2.60000000E+02  1.20000000E+02  0.00000000E+00
  2.60000000E+02  1.00000000E+02  0.00000000E+00
  2.60000000E+02  8.00000000E+01  0.00000000E+00
  2.60000000E+02  6.00000000E+01  0.00000000E+00
  2.60000000E+02  4.00000000E+01  0.00000000E+00
  2.60000000E+02  2.00000000E+01  0.00000000E+00
  2.60000000E+02  4.99600361E-14  0.00000000E+00
  2.80000000E+02  3.00000000E+02  0.00000000E+00
  2.80000000E+02  2.80000000E+02  0.00000000E+00
  2.80000000E+02  2.60000000E+02  0.00000000E+00
  2.80000000E+02  2.40000000E+02  0.00000000E+00
  2.80000000E+02  2.20000000E+02  0.00000000E+00
  2.80000000E+02  2.00000000E+02  0.00000000E+00
  2.80000000E+02  1.80000000E+02  0.00000000E+00
  2.80000000E+02  1.60000000E+02  0.00000000E+00
  2.80000000E+02  1.40000000E+02  0.00000000E+00
  2.80000000E+02  1.20000000E+02  0.00000000E+00
  2.80000000E+02  1.00000000E+02  0.00000000E+00
  2.80000000E+02  8.00000000E+01  0.00000000E+00
  2.80000000E+02  6.00000000E+01  0.00000000E+00
  2.80000000E+02  4.00000000E+01  0.00000000E+00
  2.80000000E+02  2.00000000E+01  0.00000000E+00
  2.80000000E+02  4.99600361E-14  0.00000000E+00
  3.00000000E+02  3.00000000E+02  0.00000000E+00
  3.00000000E+02  2.80000000E+02  0.00000000E+00
  3.00000000E+02  2.60000000E+02  0.00000000E+00
  3.00000000E+02  2.40000000E+02  0.00000000E+00
  3.00000000E+02  2.20000000E+02  0.00000000E+00
  3.00000000E+02  2.00000000E+02  0.00000000E+00
  3.00000000E+02  1.80000000E+02  0.00000000E+00
  3.00000000E+02  1.60000000E+02  0.00000000E+00
  3.00000000E+02  1.40000000E+02  0.00000000E+00
  3.00000000E+02  1.20000000E+02  0.00000000E+00
  3.00000000E+02  1.00000000E+02  0.00000000E+00
  3.00000000E+02  8.00000000E+01  0.00000000E+00
  3.00000000E+02  6.00000000E+01  0.00000000E+00
  3.00000000E+02  4.00000000E+01  0.00000000E+00
  3.00000000E+02  2.00000000E+01  0.00000000E+00
  3.00000000E+02  4.99600361E-14  0.00000000E+00
  3.20000000E+02  3.00000000E+02  0.00000000E+00
  3.20000000E+02  2.80000000E+02  0.00000000E+00
  3.20000000E+02  2.60000000E+02  0.00000000E+00
  3.20000000E+02  2.40000000E+02  0.00000000E+00
  3.20000000E+02  2.20000000E+02  0.00000000E+00
  3.20000000E+02  2.00000000E+02  0.00000000E+00
  3.20000000E+02  1.80000000E+02  0.00000000E+00
  3.20000000E+02  1.60000000E+02  0.00000000E+00
  3.20000000E+02  1.40000000E+02  0.00000000E+00
  3.20000000E+02  1.20000000E+02  0.00000000E+00
  3.20000000E+02  1.00000000E+02  0.00000000E+00
  3.20000000E+02  8.00000000E+01  0.00000000E+00
  3.20000000E+02  6.00000000E+01  0.00000000E+00
  3.20000000E+02  4.00000000E+01  0.00000000E+00
  3.20000000E+02  2.00000000E+01  0.00000000E+00
  3.20000000E+02  4.99600361E-14  0.00000000E+00
  3.40000000E+02  3.00000000E+02  0.00000000E+00
  3.40000000E+02  2.80000000E+02  0.00000000E+00
  3.40000000E+02  2.60000000E+02  0.00000000E+00
  3.40000000E+02  2.40000000E+02  0.00000000E+00
  3.40000000E+02  2.20000000E+02  0.00000000E+00
  3.40000000E+02  2.00000000E+02  0.00000000E+00
  3.40000000E+02  1.80000000E+02  0.00000000E+00
  3.40000000E+02  1.60000000E+02  0.00000000E+00
  3.40000000E+02  1.40000000E+02  0.00000000E+00
  3.40000000E+02  1.20000000E+02  0.00000000E+00
  3.40000000E+02  1.00000000E+02  0.00000000E+00
  3.40000000E+02  8.00000000E+01  0.00000000E+00
  3.40000000E+02  6.00000000E+01  0.00000000E+00
  3.40000000E+02  4.00000000E+01  0.00000000E+00
  3.40000000E+02  2.00000000E+01  0.00000000E+00
  3.40000000E+02  4.99600361E-14  0.00000000E+00
  3.60000000E+02  3.00000000E+02  0.00000000E+00
  3.60000000E+02  2.80000000E+02  0.00000000E+00
  3.60000000E+02  2.60000000E+02  0.00000000E+00
  3.60000000E+02  2.40000000E+02  0.00000000E+00
  3.60000000E+02  2.20000000E+02  0.00000000E+00
  3.60000000E+02  2.00000000E+02  0.00000000E+00
  3.60000000E+02  1.80000000E+02  0.00000000E+00
  3.60000000E+02  1.60000000E+02  0.00000000E+00
  3.60000000E+02  1.40000000E+02  0.00000000E+00
  3.60000000E+02  1.20000000E+02  0.00000000E+00
  3.60000000E+02  1.00000000E+02  0.00000000E+00
  3.60000000E+02  8.00000000E+01  0.00000000E+00
  3.60000000E+02  6.00000000E+01  0.00000000E+00
  3.60000000E+02  4.00000000E+01  0.00000000E+00
  3.60000000E+02  2.00000000E+01  0.00000000E+00
  3.60000000E+02  4.99600361E-14  0.00000000E+00
  3.80000000E+02  3.00000000E+02  0.00000000E+00
  3.80000000E+02  2.80000000E+02  0.00000000E+00
  3.80000000E+02  2.60000000E+02  0.00000000E+00
  3.80000000E+02  2.40000000E+02  0.00000000E+00
  3.80000000E+02  2.20000000E+02  0.00000000E+00
  3.80000000E+02  2.00000000E+02  0.00000000E+00
  3.80000000E+02  1.80000000E+02  0.00000000E+00
  3.80000000E+02  1.60000000E+02  0.00000000E+00
  3.80000000E+02  1.40000000E+02  0.00000000E+00
  3.80000000E+02  1.20000000E+02  0.00000000E+00
  3.80000000E+02  1.00000000E+02  0.00000000E+00
  3.80000000E+02  8.00000000E+01  0.00000000E+00
  3.80000000E+02  6.00000000E+01  0.00000000E+00
  3.80000000E+02  4.00000000E+01  0.00000000E+00
  3.80000000E+02  2.00000000E+01  0.00000000E+00
  3.80000000E+02  4.99600361E-14  0.00000000E+00
  4.00000000E+02  3.00000000E+02  0.00000000E+00
  4.00000000E+02  2.80000000E+02  0.00000000E+00
  4.00000000E+02  2.60000000E+02  0.00000000E+00
  4.00000000E+02  2.40000000E+02  0.00000000E+00
  4.00000000E+02  2.20000000E+02  0.00000000E+00
  4.00000000E+02  2.00000000E+02  0.00000000E+00
  4.00000000E+02  1.80000000E+02  0.00000000E+00
  4.00000000E+02  1.60000000E+02  0.00000000E+00
  4.00000000E+02  1.40000000E+02  0.00000000E+00
  4.00000000E+02  1.20000000E+02  0.00000000E+00
  4.00000000E+02  1.00000000E+02  0.00000000E+00
  4.00000000E+02  8.00000000E+01  0.00000000E+00
  4.00000000E+02  6.00000000E+01  0.00000000E+00
  4.00000000E+02  4.00000000E+01  0.00000000E+00
  4.00000000E+02  2.00000000E+01  0.00000000E+00
  4.00000000E+02  4.99600361E-14  0.00000000E+00
  4.20000000E+02  3.00000000E+02  0.00000000E+00
  4.20000000E+02  2.80000000E+02  0.00000000E+00
  4.20000000E+02  2.60000000E+02  0.00000000E+00
  4.20000000E+02  2.40000000E+02  0.00000000E+00
  4.20000000E+02  2.20000000E+02  0.00000000E+00
  4.20000000E+02  2.00000000E+02  0.00000000E+00
  4.20000000E+02  1.80000000E+02  0.00000000E+00
  4.20000000E+02  1.60000000E+02  0.00000000E+00
  4.20000000E+02  1.40000000E+02  0.00000000E+00
  4.20000000E+02  1.20000000E+02  0.00000000E+00
  4.20000000E+02  1.00000000E+02  0.00000000E+00
  4.20000000E+02  8.00000000E+01  0.00000000E+00
  4.20000000E+02  6.00000000E+01  0.00000000E+00
  4.20000000E+02  4.00000000E+01  0.00000000E+00
  4.20000000E+02  2.00000000E+01  0.00000000E+00
  4.20000000E+02  4.99600361E-14  0.00000000E+00
  4.40000000E+02  3.00000000E+02  0.00000000E+00
  4.40000000E+02  2.80000000E+02  0.00000000E+00
  4.40000000E+02  2.60000000E+02  0.00000000E+00
  4.40000000E+02  2.40000000E+02  0.00000000E+00
  4.40000000E+02  2.20000000E+02  0.00000000E+00
  4.40000000E+02  2.00000000E+02  0.00000000E+00
  4.40000000E+02  1.80000000E+02  0.00000000E+00
  4.40000000E+02  1.60000000E+02  0.00000000E+00
  4.40000000E+02  1.40000000E+02  0.00000000E+00
  4.40000000E+02  1.20000000E+02  0.00000000E+00
  4.40000000E+02  1.00000000E+02  0.00000000E+00
  4.40000000E+02  8.00000000E+01  0.00000000E+00
  4.40000000E+02  6.00000000E+01  0.00000000E+00
  4.40000000E+02  4.00000000E+01  0.00000000E+00
  4.40000000E+02  2.00000000E+01  0.00000000E+00
  4.40000000E+02  4.99600361E-14  0.00000000E+00
  4.60000000E+02  3.00000000E+02  0.00000000E+00
  4.60000000E+02  2.80000000E+02  0.00000000E+00
  4.60000000E+02  2.60000000E+02  0.00000000E+00
  4.60000000E+02  2.40000000E+02  0.00000000E+00
  4.60000000E+02  2.20000000E+02  0.00000000E+00
  4.60000000E+02  2.00000000E+02  0.00000000E+00
  4.60000000E+02  1.80000000E+02  0.00000000E+00
  4.60000000E+02  1.60000000E+02  0.00000000E+00
  4.60000000E+02  1.40000000E+02  0.00000000E+00
  4.60000000E+02  1.20000000E+02  0.00000000E+00
  4.60000000E+02  1.00000000E+02  0.00000000E+00
  4.60000000E+02  8.00000000E+01  0.00000000E+00
  4.60000000E+02  6.00000000E+01  0.00000000E+00
  4.60000000E+02  4.00000000E+01  0.00000000E+00
  4.60000000E+02  2.00000000E+01  0.00000000E+00
  4.60000000E+02  4.99600361E-14  0.00000000E+00
  4.80000000E+02  3.00000000E+02  0.00000000E+00
  4.80000000E+02  2.80000000E+02  0.00000000E+00
  4.80000000E+02  2.60000000E+02  0.00000000E+00
  4.80000000E+02  2.40000000E+02  0.00000000E+00
  4.80000000E+02  2.20000000E+02  0.00000000E+00
  4.80000000E+02  2.00000000E+02  0.00000000E+00
  4.80000000E+02  1.80000000E+02  0.00000000E+00
  4.80000000E+02  1.60000000E+02  0.00000000E+00
  4.80000000E+02  1.40000000E+02  0.00000000E+00
  4.80000000E+02  1.20000000E+02  0.00000000E+00
  4.80000000E+02  1.00000000E+02  0.00000000E+00
  4.80000000E+02  8.00000000E+01  0.00000000E+00
  4.80000000E+02  6.00000000E+01  0.00000000E+00
  4.80000000E+02  4.00000000E+01  0.00000000E+00
  4.80000000E+02  2.00000000E+01  0.00000000E+00
  4.80000000E+02  4.99600361E-14  0.00000000E+00
  5.00000000E+02  3.00000000E+02  0.00000000E+00
  5.00000000E+02  2.80000000E+02  0.00000000E+00
  5.00000000E+02  2.60000000E+02  0.00000000E+00
  5.00000000E+02  2.40000000E+02  0.00000000E+00
  5.00000000E+02  2.20000000E+02  0.00000000E+00
  5.00000000E+02  2.00000000E+02  0.00000000E+00
  5.00000000E+02  1.80000000E+02  0.00000000E+00
  5.00000000E+02  1.60000000E+02  0.00000000E+00
  5.00000000E+02  1.40000000E+02  0.00000000E+00
  5.00000000E+02  1.20000000E+02  0.00000000E+00
  5.00000000E+02  1.00000000E+02  0.00000000E+00
  5.00000000E+02  8.00000000E+01  0.00000000E+00
  5.00000000E+02  6.00000000E+01  0.00000000E+00
  5.00000000E+02  4.00000000E+01  0.00000000E+00
  5.00000000E+02  2.00000000E+01  0.00000000E+00
  5.00000000E+02  4.99600361E-14  0.00000000E+00
  5.20000000E+02  3.00000000E+02  0.00000000E+00
  5.20000000E+02  2.80000000E+02  0.00000000E+00
  5.20000000E+02  2.60000000E+02  0.00000000E+00
  5.20000000E+02  2.40000000E+02  0.00000000E+00
  5.20000000E+02  2.20000000E+02  0.00000000E+00
  5.20000000E+02  2.00000000E+02  0.00000000E+00
  5.20000000E+02  1.80000000E+02  0.00000000E+00
  5.20000000E+02  1.60000000E+02  0.00000000E+00
  5.20000000E+02  1.40000000E+02  0.00000000E+00
  5.20000000E+02  1.20000000E+02  0.00000000E+00
  5.20000000E+02  1.00000000E+02  0.00000000E+00
  5.20000000E+02  8.00000000E+01  0.00000000E+00
  5.20000000E+02  6.00000000E+01  0.00000000E+00
  5.20000000E+02  4.00000000E+01  0.00000000E+00
  5.20000000E+02  2.00000000E+01  0.00000000E+00
  5.20000000E+02  4.99600361E-14  0.00000000E+00
  5.40000000E+02  3.00000000E+02  0.00000000E+00
  5.40000000E+02  2.80000000E+02  0.00000000E+00
  5.40000000E+02  2.60000000E+02  0.00000000E+00
  5.40000000E+02  2.40000000E+02  0.00000000E+00
  5.40000000E+02  2.20000000E+02  0.00000000E+00
  5.40000000E+02  2.00000000E+02  0.00000000E+00
  5.40000000E+02  1.80000000E+02  0.00000000E+00
  5.40000000E+02  1.60000000E+02  0.00000000E+00
  5.40000000E+02  1.40000000E+02  0.00000000E+00
  5.40000000E+02  1.20000000E+02  0.00000000E+00
  5.40000000E+02  1.00000000E+02  0.00000000E+00
  5.40000000E+02  8.00000000E+01  0.00000000E+00
  5.40000000E+02  6.00000000E+01  0.00000000E+00
  5.40000000E+02  4.00000000E+01  0.00000000E+00
  5.40000000E+02  2.00000000E+01  0.00000000E+00
  5.40000000E+02  4.99600361E-14  0.00000000E+00
  5.60000000E+02  3.00000000E+02  0.00000000E+00
  5.60000000E+02  2.80000000E+02  0.00000000E+00
  5.60000000E+02  2.60000000E+02  0.00000000E+00
  5.60000000E+02  2.40000000E+02  0.00000000E+00
  5.60000000E+02  2.20000000E+02  0.00000000E+00
  5.60000000E+02  2.00000000E+02  0.00000000E+00
  5.60000000E+02  1.80000000E+02  0.00000000E+00
  5.60000000E+02  1.60000000E+02  0.00000000E+00
  5.60000000E+02  1.40000000E+02  0.00000000E+00
  5.60000000E+02  1.20000000E+02  0.00000000E+00
  5.60000000E+02  1.00000000E+02  0.00000000E+00
  5.60000000E+02  8.00000000E+01  0.00000000E+00
  5.60000000E+02  6.00000000E+01  0.00000000E+00
  5.60000000E+02  4.00000000E+01  0.00000000E+00
  5.60000000E+02  2.00000000E+01  0.00000000E+00
  5.60000000E+02  4.99600361E-14  0.00000000E+00
  5.80000000E+02  3.00000000E+02  0.00000000E+00
  5.80000000E+02  2.80000000E+02  0.00000000E+00
  5.80000000E+02  2.60000000E+02  0.00000000E+00
  5.80000000E+02  2.40000000E+02  0.00000000E+00
  5.80000000E+02  2.20000000E+02  0.00000000E+00
  5.80000000E+02  2.00000000E+02  0.00000000E+00
  5.80000000E+02  1.80000000E+02  0.00000000E+00
  5.80000000E+02  1.60000000E+02  0.00000000E+00
  5.80000000E+02  1.40000000E+02  0.00000000E+00
  5.80000000E+02  1.20000000E+02  0.00000000E+00
  5.80000000E+02  1.00000000E+02  0.00000000E+00
  5.80000000E+02  8.00000000E+01  0.00000000E+00
  5.80000000E+02  6.00000000E+01  0.00000000E+00
  5.80000000E+02  4.00000000E+01  0.00000000E+00
  5.80000000E+02  2.00000000E+01  0.00000000E+00
  5.80000000E+02  4.99600361E-14  0.00000000E+00
  6.00000000E+02  3.00000000E+02  0.00000000E+00
  6.00000000E+02  2.80000000E+02  0.00000000E+00
  6.00000000E+02  2.60000000E+02  0.00000000E+00
  6.00000000E+02  2.40000000E+02  0.00000000E+00
  6.00000000E+02  2.20000000E+02  0.00000000E+00
  6.00000000E+02  2.00000000E+02  0.00000000E+00
  6.00000000E+02  1.80000000E+02  0.00000000E+00
  6.00000000E+02  1.60000000E+02  0.00000000E+00
  6.00000000E+02  1.40000000E+02  0.00000000E+00
  6.00000000E+02  1.20000000E+02  0.00000000E+00
  6.00000000E+02  1.00000000E+02  0.00000000E+00
  6.00000000E+02  8.00000000E+01  0.00000000E+00
  6.00000000E+02  6.00000000E+01  0.00000000E+00
  6.00000000E+02  4.00000000E+01  0.00000000E+00
  6.00000000E+02  2.00000000E+01  0.00000000E+00
  6.00000000E+02  4.99600361E-14  0.00000000E+00
CELLS       450      2250
         4           0           1          17          16
         4           1           2          18          17
         4           2           3          19          18
         4           3           4          20          19
         4           4           5          21          20
         4           5           6          22          21
         4           6           7          23          22
         4           7           8          24          23
         4           8           9          25          24
         4           9          10          26          25
         4          10          11          27          26
         4          11          12          28          27
         4          12          13          29          28
         4          13          14          30          29
         4          14          15          31          30
         4          16          17          33          32
         4          17          18          34          33
         4          18          19          35          34
         4          19          20          36          35
         4          20          21          37          36
         4          21          22          38          37
         4          22          23          39          38
         4          23          24          40          39
         4          24          25          41          40
         4          25          26          42          41
         4          26          27          43          42
         4          27          28          44          43
         4          28          29          45          44
         4          29          30          46          45
         4          30          31          47          46
         4          32          33          49          48
         4          33          34          50          49
         4          34          35          51          50
         4          35          36          52          51
         4          36          37          53          52
         4          37          38          54          53
         4          38          39          55          54
         4          39          40          56          55
         4          40          41          57          56
         4          41          42          58          57
         4          42          43          59          58
         4          43          44          60          59
         4          44          45          61          60
         4          45          46          62          61
         4          46          47          63          62
         4          48          49          65          64
         4          49          50          66          65
         4          50          51          67          66
         4          51          52          68          67
         4          52          53          69          68
         4          53          54          70          69
         4          54          55          71          70
         4          55          56          72          71
         4          56          57          73          72
         4          57          58          74          73
         4          58          59          75          74
         4          59          60          76          75
         4          60          61          77          76
         4          61          62          78          77
         4          62          63          79          78
         4          64          65          81          80
         4          65          66          82          81
         4          66          67          83          82
         4          67          68          84          83
         4          68          69          85          84
         4          69          70          86          85
         4          70          71          87          86
         4          71          72          88          87
         4          72          73          89          88
         4          73          74          90          89
         4          74          75          91          90
         4          75          76          92          91
         4          76          77          93          92
         4          77          78          94          93
         4          78          79          95          94
         4          80          81          97          96
         4          81          82          98          97
         4          82          83          99          98
         4          83          84         100          99
         4          84          85         101         100
         4          85          86         102         101
         4          86          87         103         102
         4          87          88         104         103
         4          88          89         105         104
         4          89          90         106         105
         4          90          91         107         106
         4          91          92         108         107
         4          92          93         109         108
         4          93          94         110         109
         4          94          95         111         110
         4          96          97         113         112
         4          97          98         114         113
         4          98          99         115         114
         4          99         100         116         115
         4         100         101         117         116
         4         101         102         118         117
         4         102         103         119         118
         4         103         104         120         119
         4         104         105         121         120
         4         105         106         122         121
         4         106         107         123         122
         4         107         108         124         123
         4         108         109         125         124
         4         109         110         126         125
         4         110         111         127         126
         4         112         113         129         128
         4         113         114         130         129
         4         114         115         131         130
         4         115         116         132         131
         4         116         117         133         132
         4         117         118         134         133
         4         118         119         135         134
         4         119         120         136         135
         4         120         121         137         136
         4         121         122         138         137
         4         122         123         139         138
         4         123         124         140         139
         4         124         125         141         140
         4         125         126         142         141
         4         126         127         143         142
         4         128         129         145         144
         4         129         130         146         145
         4         130         131         147         146
         4         131         132         148         147
         4         132         133         149         148
         4         133         134         150         149
         4         134         135         151         150
         4         135         136         152         151
         4         136         137         153         152
         4         137         138         154         153
         4         138         139         155         154
         4         139         140         156         155
         4         140         141         157         156
         4         141         142         158         157
         4         142         143         159         158
         4         144         145         161         160
         4         145         146         162         161
         4         146         147         163         162
         4         147         148         164         163
         4         148         149         165         164
         4         149         150         166         165
         4         150         151         167         166
         4         151         152         168         167
         4         152         153         169         168
         4         153         154         170         169
         4         154         155         171         170
         4         155         156         172         171
         4         156         157         173         172
         4         157         158         174         173
         4         158         159         175         174
         4         160         161         177         176
         4         161         162         178         177
         4         162         163         179         178
         4         163         164         180         179
         4         164         165         181         180
         4         165         166         182         181
         4         166         167         183         182
         4         167         168         184         183
         4         168         169         185         184
         4         169         170         186         185
         4         170         171         187         186
         4         171         172         188         187
         4         172         173         189         188
         4         173         174         190         189
         4         174         175         191         190
         4         176         177         193         192
         4         177         178         194         193
         4         178         179         195         194
         4         179         180         196         195
         4         180         181         197         196
         4         181         182         198         197
         4         182         183         199         198
         4         183         184         200         199
         4         184         185         201         200
         4         185         186         202         201
         4         186         187         203         202
         4         187         188         204         203
         4         188         189         205         204
         4         189         190         206         205
         4         190         191         207         206
         4         192         193         209         208
         4         193         194         210         209
         4         194         195         211         210
         4         195         196         212         211
         4         196         197         213         212
         4         197         198         214         213
         4         198         199         215         214
         4         199         200         216         215
         4         200         201         217         216
         4         201         202         218         217
         4         202         203         219         218
         4         203         204         220         219
         4         204         205         221         220
         4         205         206         222         221
         4         206         207         223         222
         4         208         209         225         224
         4         209         210         226         225
         4         210         211         227         226
         4         211         212         228         227
         4         212         213         229         228
         4         213         214         230         229
         4         214         215         231         230
         4         215         216         232         231
         4         216         217         233         232
         4         217         218         234         233
         4         218         219         235         234
         4         219         220         236         235
         4         220         221         237         236
         4         221         222         238         237
         4         222         223         239         238
         4         224         225         241         240
         4         225         226         242         241
         4         226         227         243         242
         4         227         228         244         243
         4         228         229         245         244
         4         229         230         246         245
         4         230         231         247         246
         4         231         232         248         247
         4         232         233         249         248
         4         233         234         250         249
         4         234         235         251         250
         4         235         236         252         251
         4         236         237         253         252
         4         237         238         254         253
         4         238         239         255         254
         4         240         241         257         256
         4         241         242         258         257
         4         242         243         259         258
         4         243         244         260         259
         4         244         245         261         260
         4         245         246         262         261
         4         246         247         263         262
         4         247         248         264         263
         4         248         249         265         264
         4         249         250         266         265
         4         250         251         267         266
         4         251         252         268         267
         4         252         253         269         268
         4         253         254         270         269
         4         254         255         271         270
         4         256         257         273         272
         4         257         258         274         273
         4         258         259         275         274
         4         259         260         276         275
         4         260         261         277         276
         4         261         262         278         277
         4         262         263         279         278
         4         263         264         280         279
         4         264         265         281         280
         4         265         266         282         281
         4         266         267         283         282
         4         267         268         284         283
         4         268         269         285         284
         4         269         270         286         285
         4         270         271         287         286
         4         272         273         289         288
         4         273         274         290         289
         4         274         275         291         290
         4         275         276         292         291
         4         276         277         293         292
         4         277         278         294         293
         4         278         279         295         294
         4         279         280         296         295
         4         280         281         297         296
         4         281         282         298         297
         4         282         283         299         298
         4         283         284         300         299
         4         284         285         301         300
         4         285         286         302         301
         4         286         287         303         302
         4         288         289         305         304
         4         289         290         306         305
         4         290         291         307         306
         4         291         292         308         307
         4         292         293         309         308
         4         293         294         310         309
         4         294         295         311         310
         4         295         296         312         311
         4         296         297         313         312
         4         297         298         314         313
         4         298         299         315         314
         4         299         300         316         315
         4         300         301         317         316
         4         301         302         318         317
         4         302         303         319         318
         4         304         305         321         320
         4         305         306         322         321
         4         306         307         323         322
         4         307         308         324         323
         4         308         309         325         324
         4         309         310         326         325
         4         310         311         327         326
         4         311         312         328         327
         4         312         313         329         328
         4         313         314         330         329
         4         314         315         331         330
         4         315         316         332         331
         4         316         317         333         332
         4         317         318         334         333
         4         318         319         335         334
         4         320         321         337         336
         4         321         322         338         337
         4         322         323         339         338
         4         323         324         340         339
         4         324         325         341         340
         4         325         326         342         341
         4         326         327         343         342
         4         327         328         344         343
         4         328         329         345         344
         4         329         330         346         345
         4         330         331         347         346
         4         331         332         348         347
         4         332         333         349         348
         4         333         334         350         349
         4         334         335         351         350
         4         336         337         353         352
         4         337         338         354         353
         4         338         339         355         354
         4         339         340         356         355
         4         340         341         357         356
         4         341         342         358         357
         4         342         343         359         358
         4         343         344         360         359
         4         344         345         361         360
         4         345         346         362         361
         4         346         347         363         362
         4         347         348         364         363
         4         348         349         365         364
         4         349         350         366         365
         4         350         351         367         366
         4         352         353         369         368
         4         353         354         370         369
         4         354         355         371         370
         4         355         356         372         371
         4         356         357         373         372
         4         357         358         374         373
         4         358         359         375         374
         4         359         360         376         375
         4         360         361         377         376
         4         361         362         378         377
         4         362         363         379         378
         4         363         364         380         379
         4         364         365         381         380
         4         365         366         382         381
         4         366         367         383         382
         4         368         369         385         384
         4         369         370         386         385
         4         370         371         387         386
         4         371         372         388         387
         4         372         373         389         388
         4         373         374         390         389
         4         374         375         391         390
         4         375         376         392         391
         4         376         377         393         392
         4         377         378         394         393
         4         378         379         395         394
         4         379         380         396         395
         4         380         381         397         396
         4         381         382         398         397
         4         382         383         399         398
         4         384         385         401         400
         4         385         386         402         401
         4         386         387         403         402
         4         387         388         404         403
         4         388         389         405         404
         4         389         390         406         405
         4         390         391         407         406
         4         391         392         408         407
         4         392         393         409         408
         4         393         394         410         409
         4         394         395         411         410
         4         395         396         412         411
         4         396         397         413         412
         4         397         398         414         413
         4         398         399         415         414
         4         400         401         417         416
         4         401         402         418         417
         4         402         403         419         418
         4         403         404         420         419
         4         404         405         421         420
         4         405         406         422         421
         4         406         407         423         422
         4         407         408         424         423
         4         408         409         425         424
         4         409         410         426         425
         4         410         411         427         426
         4         411         412         428         427
         4         412         413         429         428
         4         413         414         430         429
         4         414         415         431         430
         4         416         417         433         432
         4         417         418         434         433
         4         418         419         435         434
         4         419         420         436         435
         4         420         421         437         436
         4         421         422         438         437
         4         422         423         439         438
         4         423         424         440         439
         4         424         425         441         440
         4         425         426         442         441
         4         426         427         443         442
         4         427         428         444         443
         4         428         429         445         444
         4         429         430         446         445
         4         430         431         447         446
         4         432         433         449         448
         4         433         434         450         449
         4         434         435         451         450
         4         435         436         452         451
         4         436         437         453         452
         4         437         438         454         453
         4         438         439         455         454
         4         439         440         456         455
         4         440         441         457         456
         4         441         442         458         457
         4         442         443         459         458
         4         443         444         460         459
         4         444         445         461         460
         4         445         446         462         461
         4         446         447         463         462
         4         448         449         465         464
         4         449         450         466         465
         4         450         451         467         466
         4         451         452         468         467
         4         452         453         469         468
         4         453         454         470         469
         4         454         455         471         470
         4         455         456         472         471
         4         456         457         473         472
         4         457         458         474         473
         4         458         459         475         474
         4         459         460         476         475
         4         460         461         477         476
         4         461         462         478         477
         4         462         463         479         478
         4         464         465         481         480
         4         465         466         482         481
         4         466         467         483         482
         4         467         468         484         483
         4         468         469         485         484
         4         469         470         486         485
         4         470         471         487         486
         4         471         472         488         487
         4         472         473         489         488
         4         473         474         490         489
         4         474         475         491         490
         4         475         476         492         491
         4         476         477         493         492
         4         477         478         494         493
         4         478         479         495         494
CELL_TYPES        450
9
9
9
9
9
9
9
9
9
9
9
9
9
9
9
9
9
9
9
9
9
9
9
9
9
9
9
9
9
9
9
9
9
9
9
9
9
9
9
9
9
9
9
9
9
9
9
9
9
9
9
9
9
9
9
9
9
9
9
9
9
9
9
9
9
9
9
9
9
9
9
9
9
9
9
9
9
9
9
9
9
9
9
9
9
9
9
9
9
9
9
9
9
9
9
9
9
9
9
9
9
9
9
9
9
9
9
9
9
9
9
9
9
9
9
9
9
9
9
9
9
9
9
9
9
9
9
9
9
9
9
9
9
9
9
9
9
9
9
9
9
9
9
9
9
9
9
9
9
9
9
9
9
9
9
9
9
9
9
9
9
9
9
9
9
9
9
9
9
9
9
9
9
9
9
9
9
9
9
9
9
9
9
9
9
9
9
9
9
9
9
9
9
9
9
9
9
9
9
9
9
9
9
9
9
9
9
9
9
9
9
9
9
9
9
9
9
9
9
9
9
9
9
9
9
9
9
9
9
9
9
9
9
9
9
9
9
9
9
9
9
9
9
9
9
9
9
9
9
9
9
9
9
9
9
9
9
9
9
9
9
9
9
9
9
9
9
9
9
9
9
9
9
9
9
9
9
9
9
9
9
9
9
9
9
9
9
9
9
9
9
9
9
9
9
9
9
9
9
9
9
9
9
9
9
9
9
9
9
9
9
9
9
9
9
9
9
9
9
9
9
9
9
9
9
9
9
9
9
9
9
9
9
9
9
9
9
9
9
9
9
9
9
9
9
9
9
9
9
9
9
9
9
9
9
9
9
9
9
9
9
9
9
9
9
9
9
9
9
9
9
9
9
9
9
9
9
9
9
9
9
9
9
9
9
9
9
9
9
9
9
9
9
9
9
9
9
9
9
9
9
9
9
9
9
9
9
9
9
9
9
9
9
9
9
9
9
9
9
9
9
9
9
9
9
9
9
9
9
9
9
9
9
9
9
9
9
9
9
9
9
9
9
9
9
9
9
9
9
9
POINT_DATA       496
SCALARS p double 
LOOKUP_TABLE default
   70990254.6519077     
   70990470.5565002     
   70991092.7781111     
   70992011.9339223     
   70993090.0337599     
   70994232.3527342     
   70995357.7633765     
   70996377.5655523     
   70997261.4450864     
   70998048.7352194     
   70998762.8578618     
   70999405.3719955     
   70999972.7826074     
   71000454.6840884     
   71000833.6078202     
   71000994.8118608     
   68965637.4282821     
   68965796.9319098     
   68966161.2314361     
   68966598.2149266     
   68967087.5992549     
   68967615.4112366     
   68968155.4312605     
   68968709.3015420     
   68969279.4634843     
   68969833.3001279     
   68970346.8072357     
   68970809.1206138     
   68971207.6878080     
   68971525.6733027     
   68971728.9249712     
   68971795.8062380     
   66939446.8887761     
   66939502.5553654     
   66939624.1531417     
   66939762.9102254     
   66939917.9894394     
   66940107.0793144     
   66940360.6189017     
   66940676.7020906     
   66941021.3628522     
   66941369.7252741     
   66941703.5372604     
   66942004.9545781     
   66942258.6389307     
   66942447.7291775     
   66942559.3595394     
   66942594.8903774     
   64911876.6170215     
   64911833.4426677     
   64911770.5249253     
   64911766.2926350     
   64911825.6365541     
   64911932.4910008     
   64912071.6105994     
   64912235.7583589     
   64912419.6676734     
   64912612.0206521     
   64912799.3642473     
   64912968.7686836     
   64913107.6072685     
   64913206.0776722     
   64913260.3526443     
   64913276.4467682     
   62883317.8350657     
   62883287.6034075     
   62883243.5348568     
   62883229.9561442     
   62883242.7234723     
   62883276.3146168     
   62883325.1679197     
   62883385.9792678     
   62883456.1427955     
   62883532.0415413     
   62883607.4759739     
   62883674.8952793     
   62883727.4223614     
   62883760.7830438     
   62883775.6285146     
   62883778.8818294     
   60854320.4363088     
   60854306.1926484     
   60854271.3421217     
   60854234.0534570     
   60854203.7763665     
   60854178.7907293     
   60854157.6768028     
   60854140.0855706     
   60854126.3165086     
   60854116.0625925     
   60854107.8182926     
   60854099.1622943     
   60854088.0193271     
   60854074.2661119     
   60854061.0298357     
   60854055.1680412     
   58824923.3971721     
   58824906.7889625     
   58824863.3993979     
   58824804.0446413     
   58824736.0178911     
   58824662.9306823     
   58824586.3043062     
   58824508.0589476     
   58824430.4828131     
   58824355.7162420     
   58824285.3426538     
   58824220.5505823     
   58824162.8246669     
   58824114.8669719     
   58824081.3139618     
   58824068.8546940     
   56795111.1503699     
   56795090.7674304     
   56795035.0275819     
   56794953.7273102     
   56794854.2772221     
   56794741.9736464     
   56794620.9686875     
   56794495.1057503     
   56794368.3663402     
   56794244.7223027     
   56794127.9542343     
   56794021.7094811     
   56793929.8570229     
   56793856.9550490     
   56793808.5792995     
   56793791.2893692     
   54764885.6735207     
   54764861.3382155     
   54764793.8625692     
   54764693.2311105     
   54764567.5464117     
   54764423.5121692     
   54764266.9813649     
   54764103.4776211     
   54763938.4586098     
   54763777.3684776     
   54763625.5899543     
   54763488.4558840     
   54763371.3930402     
   54763280.1387090     
   54763220.8472633     
   54763199.9877502     
   52734250.9532121     
   52734223.2525557     
   52734145.7825895     
   52734028.9674170     
   52733881.7509655     
   52733712.0174589     
   52733526.9879644     
   52733333.5451154     
   52733138.4277047     
   52732948.2908981     
   52732769.7183067     
   52732609.2207405     
   52732473.2607030     
   52732368.3118851     
   52732300.8721554     
   52732277.3420151     
   50703211.7452021     
   50703181.2950936     
   50703095.6389750     
   50702965.5612294     
   50702800.7708824     
   50702610.1730761     
   50702402.1273368     
   50702184.6589035     
   50701965.5859738     
   50701752.5688788     
   50701553.1177827     
   50701374.5932378     
   50701224.1709975     
   50701108.7966785     
   50701035.1598554     
   50701009.5947610     
   48671772.5396826     
   48671739.8526047     
   48671647.4994917     
   48671506.5296160     
   48671327.3000118     
   48671119.5870070     
   48670892.7183397     
   48670655.6855461     
   48670417.2235126     
   48670185.8326391     
   48669969.7614982     
   48669776.9887791     
   48669615.1924844     
   48669491.6623810     
   48669413.1952097     
   48669386.0437547     
   46639937.2737420     
   46639902.7105554     
   46639804.7366042     
   46639654.6227195     
   46639463.2834267     
   46639241.2463309     
   46638998.6707332     
   46638745.3804812     
   46638490.8844915     
   46638244.3806016     
   46638014.7250369     
   46637810.3800596     
   46637639.3728650     
   46637509.2328569     
   46637426.8644732     
   46637398.4418858     
   44607709.2153605     
   44607672.9923210     
   44607570.0785142     
   44607411.9902329     
   44607210.1574999     
   44606975.7774794     
   44606719.7390751     
   44606452.5845536     
   44606184.4859214     
   44605925.2192332     
   44605684.1323823     
   44605470.0904973     
   44605291.3991909     
   44605155.7382111     
   44605070.0896747     
   44605040.5948818     
   42575090.9424533     
   42575053.1542367     
   42574945.6494143     
   42574780.2737248     
   42574568.9808786     
   42574323.5958567     
   42574055.6635720     
   42573776.3552722     
   42573496.4088814     
   42573226.0856618     
   42572975.1281311     
   42572752.7118412     
   42572567.3826393     
   42572426.9704351     
   42572338.5005062     
   42572308.0764669     
   40542084.3585230     
   40542045.0071207     
   40541933.0061250     
   40541760.6635502     
   40541540.5096805     
   40541284.9902121     
   40541006.2579267     
   40540716.0390910     
   40540425.5514754     
   40540145.4528311     
   40539885.8024601     
   40539656.0205940     
   40539464.8332382     
   40539320.1986525     
   40539229.2008288     
   40539197.9378750     
   38508690.7249745     
   38508649.7475097     
   38508533.1712655     
   38508353.9385863     
   38508125.2443269     
   38507860.1756947     
   38507571.4627246     
   38507271.3214009     
   38506971.3643555     
   38506682.5563196     
   38506415.1908713     
   38506178.8672424     
   38505982.4512251     
   38505834.0059896     
   38505740.6940182     
   38505708.6570028     
   36474910.6898004     
   36474867.9883586     
   36474746.6643019     
   36474560.4971087     
   36474323.4638199     
   36474049.3317957     
   36473751.3866489     
   36473442.2674059     
   36473133.8887441     
   36472837.4213656     
   36472563.2997551     
   36472321.2297387     
   36472120.1727881     
   36471968.2925610     
   36471872.8569116     
   36471840.0989571     
   34440744.3253634     
   34440699.7885603     
   34440573.5271438     
   34440380.3862405     
   34440135.2563436     
   34439852.6373436     
   34439546.3466294     
   34439229.3671668     
   34438913.8044347     
   34438610.9130704     
   34438331.1558891     
   34438084.2588493     
   34437879.2320057     
   34437724.3350276     
   34437626.9769381     
   34437593.5514362     
   32406191.1261189     
   32406144.6755279     
   32406013.3631429     
   32405813.3320481     
   32405560.5517203     
   32405270.3088805     
   32404956.9151632     
   32404633.5945831     
   32404312.4995011     
   32404004.8136129     
   32403720.8871253     
   32403470.3594155     
   32403262.2302551     
   32403104.8515148     
   32403005.8236543     
   32402971.7958174     
   30371250.2702331     
   30371201.8066613     
   30371065.3823198     
   30370858.7727821     
   30370599.1588291     
   30370302.6474403     
   30369983.9823944     
   30369656.4805683     
   30369332.1528937     
   30369021.9129811     
   30368735.8194505     
   30368483.2896117     
   30368273.2383712     
   30368114.1060893     
   30368013.7524974     
   30367979.2111169     
   28335920.3124268     
   28335869.8301873     
   28335728.4457035     
   28335515.8996257     
   28335250.8077614     
   28334950.1062822     
   28334628.8403669     
   28334300.2164710     
   28333975.8503081     
   28333666.1321901     
   28333380.6047242     
   28333128.2928309     
   28332917.9310466     
   28332758.0427706     
   28332656.8364626     
   28332621.9039728     
   26300199.2985996     
   26300146.8565150     
   26300000.9427892     
   26299783.6555658     
   26299515.2220316     
   26299213.3924564     
   26298893.3183746     
   26298567.7956454     
   26298247.7235335     
   26297942.6578824     
   26297661.3535890     
   26297412.2329777     
   26297203.7264300     
   26297044.4281341     
   26296943.0089244     
   26296907.8509504     
   24264084.7929556     
   24264030.5657822     
   24263880.9346496     
   24263660.8226971     
   24263392.2500955     
   24263093.6573410     
   24262779.9798184     
   24262463.2019232     
   24262153.1126782     
   24261858.0772286     
   24261585.7540426     
   24261343.7114480     
   24261139.9111394     
   24260982.9845465     
   24260882.1999171     
   24260847.0348770     
   22227574.0580029     
   22227518.3150197     
   22227366.2453259     
   22227146.2200944     
   22226882.1343107     
   22226592.8036772     
   22226292.4303953     
   22225991.6655027     
   22225698.7444251     
   22225420.4844791     
   22225163.1349802     
   22224933.1233624     
   22224737.7143330     
   22224585.4872827     
   22224486.4448327     
   22224451.5553129     
   20190663.9000343     
   20190607.1089812     
   20190454.6160307     
   20190239.0273460     
   20189986.0032072     
   20189714.0344761     
   20189435.8042622     
   20189160.0038233     
   20188892.9067235     
   20188639.5118906     
   20188404.4067393     
   20188192.5812468     
   20188010.2729913     
   20187865.7859930     
   20187769.9391340     
   20187735.6893482     
   18153350.7090279     
   18153293.6526205     
   18153143.9961522     
   18152939.4567496     
   18152706.7741942     
   18152462.7665728     
   18152217.4731841     
   18151977.0447665     
   18151745.5867012     
   18151526.2136817     
   18151321.7839412     
   18151135.5929190     
   18150972.3861643     
   18150839.6829418     
   18150748.9972083     
   18150715.8818984     
   16115630.5421445     
   16115574.6243596     
   16115433.3603132     
   16115250.2186659     
   16115050.8644226     
   16114848.0242614     
   16114647.9427240     
   16114454.0792235     
   16114268.5273326     
   16114092.7728915     
   16113928.1475827     
   16113776.2840833     
   16113639.8305310     
   16113524.5390091     
   16113441.8989318     
   16113410.5986478     
   14077499.3208078     
   14077447.4305879     
   14077324.9619563     
   14077179.9538052     
   14077031.1357684     
   14076884.2001379     
   14076741.7991710     
   14076605.2168745     
   14076475.1483416     
   14076351.9962885     
   14076236.0681717     
   14076127.7513959     
   14076027.8780068     
   14075938.2947787     
   14075868.3632468     
   14075840.3394634     
   12038953.1200378     
   12038913.1523681     
   12038832.1902447     
   12038750.3222497     
   12038669.8876058     
   12038592.3490305     
   12038518.1315394     
   12038447.4299778     
   12038380.3219065     
   12038316.8082805     
   12038256.8207507     
   12038200.2442046     
   12038146.9232271     
   12038096.9942426     
   12038049.2900110     
   12038025.6461233     
   10000000.0000000     
   10000000.0000000     
   10000000.0000000     
   10000000.0000000     
   10000000.0000000     
   10000000.0000000     
   10000000.0000000     
   10000000.0000000     
   10000000.0000000     
   10000000.0000000     
   10000000.0000000     
   10000000.0000000     
   10000000.0000000     
  10000000.00000000     
   10000000.0000000     
   10000000.0000000     
VECTORS u double 
    0.00000E+00        -0.38807E-02         0.00000E+00
    0.00000E+00        -0.25753E-02         0.00000E+00
    0.00000E+00        -0.15266E-02         0.00000E+00
    0.00000E+00        -0.85912E-03         0.00000E+00
    0.00000E+00        -0.54187E-03         0.00000E+00
    0.00000E+00        -0.41786E-03         0.00000E+00
    0.00000E+00        -0.34455E-03         0.00000E+00
    0.00000E+00        -0.24215E-03         0.00000E+00
    0.00000E+00        -0.11608E-03         0.00000E+00
    0.00000E+00         0.22547E-04         0.00000E+00
    0.00000E+00         0.15742E-03         0.00000E+00
    0.00000E+00         0.27084E-03         0.00000E+00
    0.00000E+00         0.34313E-03         0.00000E+00
    0.00000E+00         0.35030E-03         0.00000E+00
    0.00000E+00         0.25932E-03         0.00000E+00
    0.00000E+00         0.00000E+00         0.00000E+00
    0.46790E-02        -0.38482E-02         0.00000E+00
    0.44423E-02        -0.26862E-02         0.00000E+00
    0.38868E-02        -0.18230E-02         0.00000E+00
    0.32231E-02        -0.12669E-02         0.00000E+00
    0.26106E-02        -0.94057E-03         0.00000E+00
    0.21356E-02        -0.74521E-03         0.00000E+00
    0.17627E-02        -0.58559E-03         0.00000E+00
    0.14986E-02        -0.41825E-03         0.00000E+00
    0.13373E-02        -0.24891E-03         0.00000E+00
    0.11988E-02        -0.82420E-04         0.00000E+00
    0.10638E-02         0.72855E-04         0.00000E+00
    0.92251E-03         0.20253E-03         0.00000E+00
    0.76609E-03         0.28860E-03         0.00000E+00
    0.58274E-03         0.30819E-03         0.00000E+00
    0.35118E-03         0.22881E-03         0.00000E+00
    0.00000E+00         0.00000E+00         0.00000E+00
    0.84660E-02        -0.39900E-02         0.00000E+00
    0.77084E-02        -0.32121E-02         0.00000E+00
    0.66660E-02        -0.26452E-02         0.00000E+00
    0.55969E-02        -0.21991E-02         0.00000E+00
    0.46451E-02        -0.18197E-02         0.00000E+00
    0.38626E-02        -0.14824E-02         0.00000E+00
    0.32834E-02        -0.11717E-02         0.00000E+00
    0.28701E-02        -0.88550E-03         0.00000E+00
    0.25479E-02        -0.62210E-03         0.00000E+00
    0.22673E-02        -0.38401E-03         0.00000E+00
    0.19953E-02        -0.17255E-03         0.00000E+00
    0.17125E-02         0.38768E-05         0.00000E+00
    0.14018E-02         0.13117E-03         0.00000E+00
    0.10417E-02         0.18976E-03         0.00000E+00
    0.59567E-03         0.15376E-03         0.00000E+00
    0.00000E+00         0.00000E+00         0.00000E+00
    0.11218E-01        -0.48992E-02         0.00000E+00
    0.99121E-02        -0.43203E-02         0.00000E+00
    0.85612E-02        -0.38272E-02         0.00000E+00
    0.73255E-02        -0.33440E-02         0.00000E+00
    0.62601E-02        -0.28651E-02         0.00000E+00
    0.53836E-02        -0.24004E-02         0.00000E+00
    0.46795E-02        -0.19592E-02         0.00000E+00
    0.41171E-02        -0.15517E-02         0.00000E+00
    0.36469E-02        -0.11824E-02         0.00000E+00
    0.32240E-02        -0.85053E-03         0.00000E+00
    0.28143E-02        -0.55764E-03         0.00000E+00
    0.23916E-02        -0.30884E-03         0.00000E+00
    0.19319E-02        -0.11420E-03         0.00000E+00
    0.14074E-02         0.11933E-04         0.00000E+00
    0.78041E-03         0.53767E-04         0.00000E+00
    0.00000E+00         0.00000E+00         0.00000E+00
    0.13147E-01        -0.63742E-02         0.00000E+00
    0.11571E-01        -0.57681E-02         0.00000E+00
    0.10145E-01        -0.51823E-02         0.00000E+00
    0.88568E-02        -0.45941E-02         0.00000E+00
    0.77249E-02        -0.40072E-02         0.00000E+00
    0.67565E-02        -0.34317E-02         0.00000E+00
    0.59390E-02        -0.28798E-02         0.00000E+00
    0.52448E-02        -0.23612E-02         0.00000E+00
    0.46375E-02        -0.18826E-02         0.00000E+00
    0.40790E-02        -0.14469E-02         0.00000E+00
    0.35355E-02        -0.10563E-02         0.00000E+00
    0.29777E-02        -0.71502E-03         0.00000E+00
    0.23779E-02        -0.43007E-03         0.00000E+00
    0.17060E-02        -0.21064E-03         0.00000E+00
    0.92692E-03        -0.65684E-04         0.00000E+00
    0.00000E+00         0.00000E+00         0.00000E+00
    0.14761E-01        -0.80753E-02         0.00000E+00
    0.13095E-01        -0.73517E-02         0.00000E+00
    0.11590E-01        -0.66422E-02         0.00000E+00
    0.10239E-01        -0.59417E-02         0.00000E+00
    0.90376E-02        -0.52476E-02         0.00000E+00
    0.79836E-02        -0.45661E-02         0.00000E+00
    0.70632E-02        -0.39068E-02         0.00000E+00
    0.62529E-02        -0.32791E-02         0.00000E+00
    0.55222E-02        -0.26899E-02         0.00000E+00
    0.48383E-02        -0.21437E-02         0.00000E+00
    0.41693E-02        -0.16441E-02         0.00000E+00
    0.34852E-02        -0.11948E-02         0.00000E+00
    0.27570E-02        -0.80091E-03         0.00000E+00
    0.19548E-02        -0.46793E-03         0.00000E+00
    0.10469E-02        -0.20051E-03         0.00000E+00
    0.00000E+00         0.00000E+00         0.00000E+00
    0.16228E-01        -0.98737E-02         0.00000E+00
    0.14477E-01        -0.90306E-02         0.00000E+00
    0.12898E-01        -0.82033E-02         0.00000E+00
    0.11477E-01        -0.73872E-02         0.00000E+00
    0.10205E-01        -0.65823E-02         0.00000E+00
    0.90703E-02        -0.57921E-02         0.00000E+00
    0.80575E-02        -0.50237E-02         0.00000E+00
    0.71444E-02        -0.42846E-02         0.00000E+00
    0.63040E-02        -0.35812E-02         0.00000E+00
    0.55069E-02        -0.29187E-02         0.00000E+00
    0.47234E-02        -0.23010E-02         0.00000E+00
    0.39243E-02        -0.17316E-02         0.00000E+00
    0.30810E-02        -0.12143E-02         0.00000E+00
    0.21648E-02        -0.75220E-03         0.00000E+00
    0.11471E-02        -0.34757E-03         0.00000E+00
    0.00000E+00         0.00000E+00         0.00000E+00
    0.17542E-01        -0.11759E-01         0.00000E+00
    0.15713E-01        -0.10798E-01         0.00000E+00
    0.14062E-01        -0.98531E-02         0.00000E+00
    0.12574E-01        -0.89210E-02         0.00000E+00
    0.11233E-01        -0.80020E-02         0.00000E+00
    0.10023E-01        -0.70991E-02         0.00000E+00
    0.89277E-02        -0.62174E-02         0.00000E+00
    0.79238E-02        -0.53626E-02         0.00000E+00
    0.69868E-02        -0.45404E-02         0.00000E+00
    0.60896E-02        -0.37555E-02         0.00000E+00
    0.52042E-02        -0.30118E-02         0.00000E+00
    0.43029E-02        -0.23126E-02         0.00000E+00
    0.33581E-02        -0.16604E-02         0.00000E+00
    0.23431E-02        -0.10575E-02         0.00000E+00
    0.12318E-02        -0.50435E-03         0.00000E+00
    0.00000E+00         0.00000E+00         0.00000E+00
    0.18697E-01        -0.13721E-01         0.00000E+00
    0.16799E-01        -0.12644E-01         0.00000E+00
    0.15083E-01        -0.11581E-01         0.00000E+00
    0.13532E-01        -0.10531E-01         0.00000E+00
    0.12127E-01        -0.94958E-02         0.00000E+00
    0.10849E-01        -0.84762E-02         0.00000E+00
    0.96795E-02        -0.74765E-02         0.00000E+00
    0.85963E-02        -0.65012E-02         0.00000E+00
    0.75754E-02        -0.55549E-02         0.00000E+00
    0.65910E-02        -0.46417E-02         0.00000E+00
    0.56169E-02        -0.37650E-02         0.00000E+00
    0.46266E-02        -0.29278E-02         0.00000E+00
    0.35941E-02        -0.21321E-02         0.00000E+00
    0.24943E-02        -0.13791E-02         0.00000E+00
    0.13035E-02        -0.66881E-03         0.00000E+00
    0.00000E+00         0.00000E+00         0.00000E+00
    0.19692E-01        -0.15750E-01         0.00000E+00
    0.17733E-01        -0.14556E-01         0.00000E+00
    0.15960E-01        -0.13376E-01         0.00000E+00
    0.14352E-01        -0.12207E-01         0.00000E+00
    0.12889E-01        -0.11053E-01         0.00000E+00
    0.11551E-01        -0.99127E-02         0.00000E+00
    0.10318E-01        -0.87907E-02         0.00000E+00
    0.91668E-02        -0.76901E-02         0.00000E+00
    0.80743E-02        -0.66146E-02         0.00000E+00
    0.70156E-02        -0.55675E-02         0.00000E+00
    0.59658E-02        -0.45518E-02         0.00000E+00
    0.48997E-02        -0.35700E-02         0.00000E+00
    0.37928E-02        -0.26236E-02         0.00000E+00
    0.26215E-02        -0.17134E-02         0.00000E+00
    0.13638E-02        -0.83933E-03         0.00000E+00
    0.00000E+00         0.00000E+00         0.00000E+00
    0.20523E-01        -0.17836E-01         0.00000E+00
    0.18515E-01        -0.16525E-01         0.00000E+00
    0.16693E-01        -0.15226E-01         0.00000E+00
    0.15036E-01        -0.13938E-01         0.00000E+00
    0.13524E-01        -0.12662E-01         0.00000E+00
    0.12135E-01        -0.11399E-01         0.00000E+00
    0.10847E-01        -0.10151E-01         0.00000E+00
    0.96395E-02        -0.89204E-02         0.00000E+00
    0.84874E-02        -0.77109E-02         0.00000E+00
    0.73673E-02        -0.65250E-02         0.00000E+00
    0.62547E-02        -0.53651E-02         0.00000E+00
    0.51257E-02        -0.42331E-02         0.00000E+00
    0.39572E-02        -0.31305E-02         0.00000E+00
    0.27267E-02        -0.20577E-02         0.00000E+00
    0.14138E-02        -0.10146E-02         0.00000E+00
    0.00000E+00         0.00000E+00         0.00000E+00
    0.21192E-01        -0.19966E-01         0.00000E+00
    0.19143E-01        -0.18539E-01         0.00000E+00
    0.17281E-01        -0.17122E-01         0.00000E+00
    0.15584E-01        -0.15713E-01         0.00000E+00
    0.14032E-01        -0.14313E-01         0.00000E+00
    0.12602E-01        -0.12924E-01         0.00000E+00
    0.11271E-01        -0.11547E-01         0.00000E+00
    0.10018E-01        -0.10184E-01         0.00000E+00
    0.88185E-02        -0.88366E-02         0.00000E+00
    0.76492E-02        -0.75077E-02         0.00000E+00
    0.64866E-02        -0.61992E-02         0.00000E+00
    0.53074E-02        -0.49127E-02         0.00000E+00
    0.40894E-02        -0.36493E-02         0.00000E+00
    0.28115E-02        -0.24096E-02         0.00000E+00
    0.14541E-02        -0.11935E-02         0.00000E+00
    0.00000E+00         0.00000E+00         0.00000E+00
    0.21696E-01        -0.22133E-01         0.00000E+00
    0.19617E-01        -0.20589E-01         0.00000E+00
    0.17724E-01        -0.19053E-01         0.00000E+00
    0.15998E-01        -0.17523E-01         0.00000E+00
    0.14416E-01        -0.15999E-01         0.00000E+00
    0.12954E-01        -0.14482E-01         0.00000E+00
    0.11592E-01        -0.12973E-01         0.00000E+00
    0.10305E-01        -0.11473E-01         0.00000E+00
    0.90703E-02        -0.99849E-02         0.00000E+00
    0.78643E-02        -0.85097E-02         0.00000E+00
    0.66640E-02        -0.70491E-02         0.00000E+00
    0.54469E-02        -0.56046E-02         0.00000E+00
    0.41912E-02        -0.41771E-02         0.00000E+00
    0.28769E-02        -0.27673E-02         0.00000E+00
    0.14854E-02        -0.13751E-02         0.00000E+00
    0.00000E+00         0.00000E+00         0.00000E+00
    0.22037E-01        -0.24325E-01         0.00000E+00
    0.19937E-01        -0.22666E-01         0.00000E+00
    0.18024E-01        -0.21010E-01         0.00000E+00
    0.16278E-01        -0.19358E-01         0.00000E+00
    0.14676E-01        -0.17708E-01         0.00000E+00
    0.13195E-01        -0.16062E-01         0.00000E+00
    0.11812E-01        -0.14419E-01         0.00000E+00
    0.10503E-01        -0.12781E-01         0.00000E+00
    0.92452E-02        -0.11150E-01         0.00000E+00
    0.80148E-02        -0.95255E-02         0.00000E+00
    0.67890E-02        -0.79103E-02         0.00000E+00
    0.55457E-02        -0.63053E-02         0.00000E+00
    0.42640E-02        -0.47113E-02         0.00000E+00
    0.29240E-02        -0.31290E-02         0.00000E+00
    0.15079E-02        -0.15586E-02         0.00000E+00
    0.00000E+00         0.00000E+00         0.00000E+00
    0.22214E-01        -0.26534E-01         0.00000E+00
    0.20101E-01        -0.24759E-01         0.00000E+00
    0.18179E-01        -0.22985E-01         0.00000E+00
    0.16424E-01        -0.21210E-01         0.00000E+00
    0.14813E-01        -0.19434E-01         0.00000E+00
    0.13324E-01        -0.17657E-01         0.00000E+00
    0.11932E-01        -0.15880E-01         0.00000E+00
    0.10614E-01        -0.14102E-01         0.00000E+00
    0.93449E-02        -0.12325E-01         0.00000E+00
    0.81022E-02        -0.10550E-01         0.00000E+00
    0.68630E-02        -0.87786E-02         0.00000E+00
    0.56054E-02        -0.70113E-02         0.00000E+00
    0.43086E-02        -0.52493E-02         0.00000E+00
    0.29533E-02        -0.34931E-02         0.00000E+00
    0.15223E-02        -0.17433E-02         0.00000E+00
    0.00000E+00         0.00000E+00         0.00000E+00
    0.22225E-01        -0.28752E-01         0.00000E+00
    0.20111E-01        -0.26861E-01         0.00000E+00
    0.18188E-01        -0.24968E-01         0.00000E+00
    0.16435E-01        -0.23070E-01         0.00000E+00
    0.14828E-01        -0.21168E-01         0.00000E+00
    0.13343E-01        -0.19260E-01         0.00000E+00
    0.11954E-01        -0.17347E-01         0.00000E+00
    0.10638E-01        -0.15428E-01         0.00000E+00
    0.93707E-02        -0.13505E-01         0.00000E+00
    0.81279E-02        -0.11579E-01         0.00000E+00
    0.68872E-02        -0.96497E-02         0.00000E+00
    0.56267E-02        -0.77194E-02         0.00000E+00
    0.43258E-02        -0.57886E-02         0.00000E+00
    0.29655E-02        -0.38580E-02         0.00000E+00
    0.15286E-02        -0.19282E-02         0.00000E+00
    0.00000E+00         0.00000E+00         0.00000E+00
    0.22069E-01        -0.30968E-01         0.00000E+00
    0.19962E-01        -0.28962E-01         0.00000E+00
    0.18051E-01        -0.26951E-01         0.00000E+00
    0.16312E-01        -0.24931E-01         0.00000E+00
    0.14721E-01        -0.22902E-01         0.00000E+00
    0.13251E-01        -0.20863E-01         0.00000E+00
    0.11878E-01        -0.18813E-01         0.00000E+00
    0.10577E-01        -0.16753E-01         0.00000E+00
    0.93233E-02        -0.14684E-01         0.00000E+00
    0.80927E-02        -0.12606E-01         0.00000E+00
    0.68623E-02        -0.10519E-01         0.00000E+00
    0.56104E-02        -0.84262E-02         0.00000E+00
    0.43162E-02        -0.63267E-02         0.00000E+00
    0.29609E-02        -0.42219E-02         0.00000E+00
    0.15272E-02        -0.21127E-02         0.00000E+00
    0.00000E+00         0.00000E+00         0.00000E+00
    0.21744E-01        -0.33174E-01         0.00000E+00
    0.19655E-01        -0.31054E-01         0.00000E+00
    0.17767E-01        -0.28924E-01         0.00000E+00
    0.16054E-01        -0.26783E-01         0.00000E+00
    0.14490E-01        -0.24627E-01         0.00000E+00
    0.13049E-01        -0.22457E-01         0.00000E+00
    0.11705E-01        -0.20271E-01         0.00000E+00
    0.10431E-01        -0.18071E-01         0.00000E+00
    0.92032E-02        -0.15855E-01         0.00000E+00
    0.79968E-02        -0.13626E-01         0.00000E+00
    0.67886E-02        -0.11383E-01         0.00000E+00
    0.55565E-02        -0.91280E-02         0.00000E+00
    0.42799E-02        -0.68611E-02         0.00000E+00
    0.29395E-02        -0.45834E-02         0.00000E+00
    0.15180E-02        -0.22959E-02         0.00000E+00
    0.00000E+00         0.00000E+00         0.00000E+00
    0.21247E-01        -0.35360E-01         0.00000E+00
    0.19187E-01        -0.33126E-01         0.00000E+00
    0.17333E-01        -0.30879E-01         0.00000E+00
    0.15659E-01        -0.28616E-01         0.00000E+00
    0.14136E-01        -0.26335E-01         0.00000E+00
    0.12736E-01        -0.24034E-01         0.00000E+00
    0.11433E-01        -0.21713E-01         0.00000E+00
    0.10200E-01        -0.19372E-01         0.00000E+00
    0.90103E-02        -0.17012E-01         0.00000E+00
    0.78401E-02        -0.14633E-01         0.00000E+00
    0.66658E-02        -0.12236E-01         0.00000E+00
    0.54650E-02        -0.98210E-02         0.00000E+00
    0.42166E-02        -0.73888E-02         0.00000E+00
    0.29012E-02        -0.49404E-02         0.00000E+00
    0.15008E-02        -0.24770E-02         0.00000E+00
    0.00000E+00         0.00000E+00         0.00000E+00
    0.20574E-01        -0.37516E-01         0.00000E+00
    0.18554E-01        -0.35168E-01         0.00000E+00
    0.16748E-01        -0.32805E-01         0.00000E+00
    0.15126E-01        -0.30421E-01         0.00000E+00
    0.13657E-01        -0.28015E-01         0.00000E+00
    0.12313E-01        -0.25584E-01         0.00000E+00
    0.11064E-01        -0.23129E-01         0.00000E+00
    0.98830E-02        -0.20650E-01         0.00000E+00
    0.87441E-02        -0.18148E-01         0.00000E+00
    0.76221E-02        -0.15622E-01         0.00000E+00
    0.64933E-02        -0.13073E-01         0.00000E+00
    0.53350E-02        -0.10501E-01         0.00000E+00
    0.41257E-02        -0.79069E-02         0.00000E+00
    0.28454E-02        -0.52912E-02         0.00000E+00
    0.14756E-02        -0.26550E-02         0.00000E+00
    0.00000E+00         0.00000E+00         0.00000E+00
    0.19720E-01        -0.39628E-01         0.00000E+00
    0.17755E-01        -0.37169E-01         0.00000E+00
    0.16010E-01        -0.34690E-01         0.00000E+00
    0.14454E-01        -0.32186E-01         0.00000E+00
    0.13054E-01        -0.29655E-01         0.00000E+00
    0.11777E-01        -0.27096E-01         0.00000E+00
    0.10595E-01        -0.24509E-01         0.00000E+00
    0.94797E-02        -0.21895E-01         0.00000E+00
    0.84034E-02        -0.19253E-01         0.00000E+00
    0.73414E-02        -0.16583E-01         0.00000E+00
    0.62696E-02        -0.13887E-01         0.00000E+00
    0.51651E-02        -0.11163E-01         0.00000E+00
    0.40060E-02        -0.84118E-02         0.00000E+00
    0.27713E-02        -0.56334E-02         0.00000E+00
    0.14418E-02        -0.28288E-02         0.00000E+00
    0.00000E+00         0.00000E+00         0.00000E+00
    0.18682E-01        -0.41686E-01         0.00000E+00
    0.16785E-01        -0.39116E-01         0.00000E+00
    0.15117E-01        -0.36522E-01         0.00000E+00
    0.13641E-01        -0.33899E-01         0.00000E+00
    0.12323E-01        -0.31244E-01         0.00000E+00
    0.11129E-01        -0.28559E-01         0.00000E+00
    0.10027E-01        -0.25842E-01         0.00000E+00
    0.89886E-02        -0.23095E-01         0.00000E+00
    0.79866E-02        -0.20318E-01         0.00000E+00
    0.69959E-02        -0.17510E-01         0.00000E+00
    0.59925E-02        -0.14672E-01         0.00000E+00
    0.49531E-02        -0.11802E-01         0.00000E+00
    0.38554E-02        -0.88997E-02         0.00000E+00
    0.26775E-02        -0.59647E-02         0.00000E+00
    0.13987E-02        -0.29975E-02         0.00000E+00
    0.00000E+00         0.00000E+00         0.00000E+00
    0.17452E-01        -0.43672E-01         0.00000E+00
    0.15640E-01        -0.40993E-01         0.00000E+00
    0.14065E-01        -0.38285E-01         0.00000E+00
    0.12687E-01        -0.35543E-01         0.00000E+00
    0.11466E-01        -0.32767E-01         0.00000E+00
    0.10367E-01        -0.29958E-01         0.00000E+00
    0.93576E-02        -0.27115E-01         0.00000E+00
    0.84078E-02        -0.24239E-01         0.00000E+00
    0.74912E-02        -0.21332E-01         0.00000E+00
    0.65827E-02        -0.18393E-01         0.00000E+00
    0.56586E-02        -0.15420E-01         0.00000E+00
    0.46957E-02        -0.12412E-01         0.00000E+00
    0.36710E-02        -0.93662E-02         0.00000E+00
    0.25617E-02        -0.62824E-02         0.00000E+00
    0.13452E-02        -0.31598E-02         0.00000E+00
    0.00000E+00         0.00000E+00         0.00000E+00
    0.16026E-01        -0.45570E-01         0.00000E+00
    0.14318E-01        -0.42783E-01         0.00000E+00
    0.12854E-01        -0.39962E-01         0.00000E+00
    0.11590E-01        -0.37103E-01         0.00000E+00
    0.10482E-01        -0.34207E-01         0.00000E+00
    0.94913E-02        -0.31276E-01         0.00000E+00
    0.85854E-02        -0.28311E-01         0.00000E+00
    0.77349E-02        -0.25313E-01         0.00000E+00
    0.69136E-02        -0.22283E-01         0.00000E+00
    0.60974E-02        -0.19220E-01         0.00000E+00
    0.52633E-02        -0.16122E-01         0.00000E+00
    0.43882E-02        -0.12985E-01         0.00000E+00
    0.34488E-02        -0.98065E-02         0.00000E+00
    0.24208E-02        -0.65834E-02         0.00000E+00
    0.12794E-02        -0.33143E-02         0.00000E+00
    0.00000E+00         0.00000E+00         0.00000E+00
    0.14397E-01        -0.47361E-01         0.00000E+00
    0.12814E-01        -0.44466E-01         0.00000E+00
    0.11483E-01        -0.41533E-01         0.00000E+00
    0.10350E-01        -0.38558E-01         0.00000E+00
    0.93694E-02        -0.35544E-01         0.00000E+00
    0.84998E-02        -0.32495E-01         0.00000E+00
    0.77083E-02        -0.29413E-01         0.00000E+00
    0.69664E-02        -0.26300E-01         0.00000E+00
    0.62493E-02        -0.23157E-01         0.00000E+00
    0.55346E-02        -0.19980E-01         0.00000E+00
    0.48003E-02        -0.16768E-01         0.00000E+00
    0.40242E-02        -0.13514E-01         0.00000E+00
    0.31827E-02        -0.10215E-01         0.00000E+00
    0.22503E-02        -0.68646E-02         0.00000E+00
    0.11990E-02        -0.34597E-02         0.00000E+00
    0.00000E+00         0.00000E+00         0.00000E+00
    0.12558E-01        -0.49019E-01         0.00000E+00
    0.11126E-01        -0.46019E-01         0.00000E+00
    0.99502E-02        -0.42974E-01         0.00000E+00
    0.89687E-02        -0.39884E-01         0.00000E+00
    0.81297E-02        -0.36755E-01         0.00000E+00
    0.73922E-02        -0.33593E-01         0.00000E+00
    0.67237E-02        -0.30402E-01         0.00000E+00
    0.60980E-02        -0.27183E-01         0.00000E+00
    0.54925E-02        -0.23937E-01         0.00000E+00
    0.48869E-02        -0.20660E-01         0.00000E+00
    0.42614E-02        -0.17346E-01         0.00000E+00
    0.35951E-02        -0.13991E-01         0.00000E+00
    0.28649E-02        -0.10586E-01         0.00000E+00
    0.20438E-02        -0.71221E-02         0.00000E+00
    0.11005E-02        -0.35943E-02         0.00000E+00
    0.00000E+00         0.00000E+00         0.00000E+00
    0.10503E-01        -0.50518E-01         0.00000E+00
    0.92524E-02        -0.47413E-01         0.00000E+00
    0.82581E-02        -0.44256E-01         0.00000E+00
    0.74470E-02        -0.41054E-01         0.00000E+00
    0.67634E-02        -0.37814E-01         0.00000E+00
    0.61670E-02        -0.34547E-01         0.00000E+00
    0.56282E-02        -0.31256E-01         0.00000E+00
    0.51241E-02        -0.27943E-01         0.00000E+00
    0.46355E-02        -0.24607E-01         0.00000E+00
    0.41452E-02        -0.21244E-01         0.00000E+00
    0.36362E-02        -0.17846E-01         0.00000E+00
    0.30899E-02        -0.14405E-01         0.00000E+00
    0.24845E-02        -0.10911E-01         0.00000E+00
    0.17925E-02        -0.73517E-02         0.00000E+00
    0.97865E-03        -0.37166E-02         0.00000E+00
    0.00000E+00         0.00000E+00         0.00000E+00
    0.82239E-02        -0.51821E-01         0.00000E+00
    0.71938E-02        -0.48611E-01         0.00000E+00
    0.64104E-02        -0.45344E-01         0.00000E+00
    0.57884E-02        -0.42033E-01         0.00000E+00
    0.52709E-02        -0.38691E-01         0.00000E+00
    0.48217E-02        -0.35330E-01         0.00000E+00
    0.44166E-02        -0.31953E-01         0.00000E+00
    0.40374E-02        -0.28561E-01         0.00000E+00
    0.36692E-02        -0.25151E-01         0.00000E+00
    0.32987E-02        -0.21718E-01         0.00000E+00
    0.29122E-02        -0.18253E-01         0.00000E+00
    0.24948E-02        -0.14746E-01         0.00000E+00
    0.20274E-02        -0.11183E-01         0.00000E+00
    0.14839E-02        -0.75482E-02         0.00000E+00
    0.82598E-03        -0.38246E-02         0.00000E+00
    0.00000E+00         0.00000E+00         0.00000E+00
    0.57148E-02        -0.52882E-01         0.00000E+00
    0.49550E-02        -0.49569E-01         0.00000E+00
    0.44145E-02        -0.46193E-01         0.00000E+00
    0.39962E-02        -0.42781E-01         0.00000E+00
    0.36507E-02        -0.39352E-01         0.00000E+00
    0.33516E-02        -0.35914E-01         0.00000E+00
    0.30817E-02        -0.32470E-01         0.00000E+00
    0.28288E-02        -0.29018E-01         0.00000E+00
    0.25829E-02        -0.25553E-01         0.00000E+00
    0.23348E-02        -0.22069E-01         0.00000E+00
    0.20751E-02        -0.18555E-01         0.00000E+00
    0.17933E-02        -0.15001E-01         0.00000E+00
    0.14753E-02        -0.11391E-01         0.00000E+00
    0.11002E-02        -0.77046E-02         0.00000E+00
    0.63053E-03        -0.39154E-02         0.00000E+00
    0.00000E+00         0.00000E+00         0.00000E+00
    0.29698E-02        -0.53635E-01         0.00000E+00
    0.25500E-02        -0.50218E-01         0.00000E+00
    0.22785E-02        -0.46744E-01         0.00000E+00
    0.20696E-02        -0.43256E-01         0.00000E+00
    0.18975E-02        -0.39765E-01         0.00000E+00
    0.17484E-02        -0.36276E-01         0.00000E+00
    0.16137E-02        -0.32789E-01         0.00000E+00
    0.14873E-02        -0.29298E-01         0.00000E+00
    0.13642E-02        -0.25799E-01         0.00000E+00
    0.12399E-02        -0.22284E-01         0.00000E+00
    0.11096E-02        -0.18742E-01         0.00000E+00
    0.96774E-03        -0.15160E-01         0.00000E+00
    0.80687E-03        -0.11523E-01         0.00000E+00
    0.61532E-03        -0.78091E-02         0.00000E+00
    0.37087E-03        -0.39850E-02         0.00000E+00
    0.00000E+00         0.00000E+00         0.00000E+00
    0.00000E+00        -0.53956E-01         0.00000E+00
    0.00000E+00        -0.50457E-01         0.00000E+00
    0.00000E+00        -0.46937E-01         0.00000E+00
    0.00000E+00        -0.43419E-01         0.00000E+00
    0.00000E+00        -0.39906E-01         0.00000E+00
    0.00000E+00        -0.36399E-01         0.00000E+00
    0.00000E+00        -0.32897E-01         0.00000E+00
    0.00000E+00        -0.29393E-01         0.00000E+00
    0.00000E+00        -0.25883E-01         0.00000E+00
    0.00000E+00        -0.22357E-01         0.00000E+00
    0.00000E+00        -0.18805E-01         0.00000E+00
    0.00000E+00        -0.15214E-01         0.00000E+00
    0.00000E+00        -0.11569E-01         0.00000E+00
    0.00000E+00        -0.78464E-02         0.00000E+00
    0.00000E+00        -0.40139E-02         0.00000E+00
    0.00000E+00         0.00000E+00         0.00000E+00
CELL_DATA        450
VECTORS vDarcy double 
    0.11601E-05         0.10755E-09         0.00000E+00
    0.11601E-05         0.28261E-09         0.00000E+00
    0.11601E-05         0.38841E-09         0.00000E+00
    0.11600E-05         0.44881E-09         0.00000E+00
    0.11600E-05         0.47805E-09         0.00000E+00
    0.11600E-05         0.47656E-09         0.00000E+00
    0.11600E-05         0.45018E-09         0.00000E+00
    0.11600E-05         0.41588E-09         0.00000E+00
    0.11600E-05         0.38353E-09         0.00000E+00
    0.11600E-05         0.35104E-09         0.00000E+00
    0.11600E-05         0.31589E-09         0.00000E+00
    0.11600E-05         0.27617E-09         0.00000E+00
    0.11600E-05         0.22866E-09         0.00000E+00
    0.11600E-05         0.16641E-09         0.00000E+00
    0.11599E-05         0.65190E-10         0.00000E+00
    0.11603E-05         0.61607E-10         0.00000E+00
    0.11602E-05         0.13909E-09         0.00000E+00
    0.11601E-05         0.16478E-09         0.00000E+00
    0.11601E-05         0.18441E-09         0.00000E+00
    0.11600E-05         0.20510E-09         0.00000E+00
    0.11600E-05         0.22699E-09         0.00000E+00
    0.11600E-05         0.24881E-09         0.00000E+00
    0.11600E-05         0.26161E-09         0.00000E+00
    0.11600E-05         0.25797E-09         0.00000E+00
    0.11600E-05         0.24225E-09         0.00000E+00
    0.11599E-05         0.21834E-09         0.00000E+00
    0.11599E-05         0.18645E-09         0.00000E+00
    0.11599E-05         0.14494E-09         0.00000E+00
    0.11599E-05         0.89997E-10         0.00000E+00
    0.11598E-05         0.29268E-10         0.00000E+00
    0.11604E-05         0.35745E-11         0.00000E+00
    0.11602E-05         0.16787E-10         0.00000E+00
    0.11601E-05         0.38478E-10         0.00000E+00
    0.11601E-05         0.61327E-10         0.00000E+00
    0.11600E-05         0.84637E-10         0.00000E+00
    0.11600E-05         0.11229E-09         0.00000E+00
    0.11600E-05         0.13732E-09         0.00000E+00
    0.11600E-05         0.15113E-09         0.00000E+00
    0.11600E-05         0.15458E-09         0.00000E+00
    0.11599E-05         0.14898E-09         0.00000E+00
    0.11599E-05         0.13458E-09         0.00000E+00
    0.11599E-05         0.11219E-09         0.00000E+00
    0.11599E-05         0.82184E-10         0.00000E+00
    0.11598E-05         0.47412E-10         0.00000E+00
    0.11598E-05         0.14752E-10         0.00000E+00
    0.11603E-05        -0.20994E-10         0.00000E+00
    0.11602E-05        -0.30595E-10         0.00000E+00
    0.11601E-05        -0.50931E-11         0.00000E+00
    0.11601E-05         0.20620E-10         0.00000E+00
    0.11601E-05         0.40157E-10         0.00000E+00
    0.11600E-05         0.53743E-10         0.00000E+00
    0.11600E-05         0.64313E-10         0.00000E+00
    0.11600E-05         0.72630E-10         0.00000E+00
    0.11600E-05         0.76677E-10         0.00000E+00
    0.11599E-05         0.75107E-10         0.00000E+00
    0.11599E-05         0.67684E-10         0.00000E+00
    0.11599E-05         0.54688E-10         0.00000E+00
    0.11599E-05         0.37672E-10         0.00000E+00
    0.11598E-05         0.19751E-10         0.00000E+00
    0.11598E-05         0.55281E-11         0.00000E+00
    0.11603E-05        -0.12717E-10         0.00000E+00
    0.11602E-05        -0.22564E-10         0.00000E+00
    0.11602E-05        -0.14543E-10         0.00000E+00
    0.11601E-05        -0.50057E-11         0.00000E+00
    0.11601E-05         0.24600E-11         0.00000E+00
    0.11600E-05         0.79293E-11         0.00000E+00
    0.11600E-05         0.12354E-10         0.00000E+00
    0.11600E-05         0.16118E-10         0.00000E+00
    0.11600E-05         0.18761E-10         0.00000E+00
    0.11599E-05         0.19201E-10         0.00000E+00
    0.11599E-05         0.16792E-10         0.00000E+00
    0.11599E-05         0.11825E-10         0.00000E+00
    0.11598E-05         0.56023E-11         0.00000E+00
    0.11598E-05         0.45976E-12         0.00000E+00
    0.11598E-05        -0.74523E-12         0.00000E+00
    0.11603E-05        -0.88195E-11         0.00000E+00
    0.11602E-05        -0.22365E-10         0.00000E+00
    0.11602E-05        -0.27624E-10         0.00000E+00
    0.11601E-05        -0.28097E-10         0.00000E+00
    0.11601E-05        -0.28030E-10         0.00000E+00
    0.11601E-05        -0.27933E-10         0.00000E+00
    0.11600E-05        -0.27388E-10         0.00000E+00
    0.11600E-05        -0.26103E-10         0.00000E+00
    0.11600E-05        -0.24294E-10         0.00000E+00
    0.11599E-05        -0.22463E-10         0.00000E+00
    0.11599E-05        -0.20985E-10         0.00000E+00
    0.11599E-05        -0.19676E-10         0.00000E+00
    0.11598E-05        -0.17630E-10         0.00000E+00
    0.11598E-05        -0.13366E-10         0.00000E+00
    0.11598E-05        -0.52336E-11         0.00000E+00
    0.11603E-05        -0.10572E-10         0.00000E+00
    0.11602E-05        -0.28330E-10         0.00000E+00
    0.11602E-05        -0.40196E-10         0.00000E+00
    0.11601E-05        -0.47858E-10         0.00000E+00
    0.11601E-05        -0.52975E-10         0.00000E+00
    0.11601E-05        -0.56470E-10         0.00000E+00
    0.11600E-05        -0.58318E-10         0.00000E+00
    0.11600E-05        -0.58374E-10         0.00000E+00
    0.11600E-05        -0.56684E-10         0.00000E+00
    0.11599E-05        -0.53462E-10         0.00000E+00
    0.11599E-05        -0.48859E-10         0.00000E+00
    0.11599E-05        -0.42728E-10         0.00000E+00
    0.11598E-05        -0.34523E-10         0.00000E+00
    0.11598E-05        -0.23402E-10         0.00000E+00
    0.11598E-05        -0.84971E-11         0.00000E+00
    0.11602E-05        -0.12778E-10         0.00000E+00
    0.11602E-05        -0.35206E-10         0.00000E+00
    0.11601E-05        -0.51980E-10         0.00000E+00
    0.11601E-05        -0.64321E-10         0.00000E+00
    0.11601E-05        -0.73233E-10         0.00000E+00
    0.11600E-05        -0.79286E-10         0.00000E+00
    0.11600E-05        -0.82662E-10         0.00000E+00
    0.11600E-05        -0.83342E-10         0.00000E+00
    0.11600E-05        -0.81332E-10         0.00000E+00
    0.11599E-05        -0.76705E-10         0.00000E+00
    0.11599E-05        -0.69514E-10         0.00000E+00
    0.11599E-05        -0.59668E-10         0.00000E+00
    0.11599E-05        -0.46883E-10         0.00000E+00
    0.11598E-05        -0.30749E-10         0.00000E+00
    0.11598E-05        -0.10895E-10         0.00000E+00
    0.11602E-05        -0.14865E-10         0.00000E+00
    0.11602E-05        -0.41406E-10         0.00000E+00
    0.11601E-05        -0.62114E-10         0.00000E+00
    0.11601E-05        -0.77952E-10         0.00000E+00
    0.11601E-05        -0.89622E-10         0.00000E+00
    0.11600E-05        -0.97557E-10         0.00000E+00
    0.11600E-05        -0.10195E-09         0.00000E+00
    0.11600E-05        -0.10286E-09         0.00000E+00
    0.11600E-05        -0.10031E-09         0.00000E+00
    0.11599E-05        -0.94342E-10         0.00000E+00
    0.11599E-05        -0.84996E-10         0.00000E+00
    0.11599E-05        -0.72254E-10         0.00000E+00
    0.11599E-05        -0.56027E-10         0.00000E+00
    0.11599E-05        -0.36188E-10         0.00000E+00
    0.11598E-05        -0.12675E-10         0.00000E+00
    0.11602E-05        -0.16608E-10         0.00000E+00
    0.11601E-05        -0.46589E-10         0.00000E+00
    0.11601E-05        -0.70511E-10         0.00000E+00
    0.11601E-05        -0.89104E-10         0.00000E+00
    0.11601E-05        -0.10290E-09         0.00000E+00
    0.11600E-05        -0.11225E-09         0.00000E+00
    0.11600E-05        -0.11734E-09         0.00000E+00
    0.11600E-05        -0.11827E-09         0.00000E+00
    0.11600E-05        -0.11512E-09         0.00000E+00
    0.11600E-05        -0.10794E-09         0.00000E+00
    0.11599E-05        -0.96800E-10         0.00000E+00
    0.11599E-05        -0.81768E-10         0.00000E+00
    0.11599E-05        -0.62905E-10         0.00000E+00
    0.11599E-05        -0.40278E-10         0.00000E+00
    0.11599E-05        -0.14017E-10         0.00000E+00
    0.11601E-05        -0.18028E-10         0.00000E+00
    0.11601E-05        -0.50828E-10         0.00000E+00
    0.11601E-05        -0.77392E-10         0.00000E+00
    0.11601E-05        -0.98226E-10         0.00000E+00
    0.11600E-05        -0.11372E-09         0.00000E+00
    0.11600E-05        -0.12417E-09         0.00000E+00
    0.11600E-05        -0.12976E-09         0.00000E+00
    0.11600E-05        -0.13062E-09         0.00000E+00
    0.11600E-05        -0.12687E-09         0.00000E+00
    0.11600E-05        -0.11862E-09         0.00000E+00
    0.11599E-05        -0.10600E-09         0.00000E+00
    0.11599E-05        -0.89130E-10         0.00000E+00
    0.11599E-05        -0.68199E-10         0.00000E+00
    0.11599E-05        -0.43420E-10         0.00000E+00
    0.11599E-05        -0.15048E-10         0.00000E+00
    0.11601E-05        -0.19199E-10         0.00000E+00
    0.11601E-05        -0.54333E-10         0.00000E+00
    0.11601E-05        -0.83095E-10         0.00000E+00
    0.11600E-05        -0.10578E-09         0.00000E+00
    0.11600E-05        -0.12268E-09         0.00000E+00
    0.11600E-05        -0.13400E-09         0.00000E+00
    0.11600E-05        -0.13996E-09         0.00000E+00
    0.11600E-05        -0.14071E-09         0.00000E+00
    0.11600E-05        -0.13641E-09         0.00000E+00
    0.11600E-05        -0.12723E-09         0.00000E+00
    0.11600E-05        -0.11335E-09         0.00000E+00
    0.11600E-05        -0.94991E-10         0.00000E+00
    0.11599E-05        -0.72403E-10         0.00000E+00
    0.11599E-05        -0.45905E-10         0.00000E+00
    0.11599E-05        -0.15862E-10         0.00000E+00
    0.11601E-05        -0.20203E-10         0.00000E+00
    0.11600E-05        -0.57336E-10         0.00000E+00
    0.11600E-05        -0.87963E-10         0.00000E+00
    0.11600E-05        -0.11221E-09         0.00000E+00
    0.11600E-05        -0.13026E-09         0.00000E+00
    0.11600E-05        -0.14230E-09         0.00000E+00
    0.11600E-05        -0.14853E-09         0.00000E+00
    0.11600E-05        -0.14914E-09         0.00000E+00
    0.11600E-05        -0.14434E-09         0.00000E+00
    0.11600E-05        -0.13434E-09         0.00000E+00
    0.11600E-05        -0.11940E-09         0.00000E+00
    0.11600E-05        -0.99796E-10         0.00000E+00
    0.11600E-05        -0.75853E-10         0.00000E+00
    0.11600E-05        -0.47948E-10         0.00000E+00
    0.11600E-05        -0.16528E-10         0.00000E+00
    0.11600E-05        -0.21119E-10         0.00000E+00
    0.11600E-05        -0.60042E-10         0.00000E+00
    0.11600E-05        -0.92299E-10         0.00000E+00
    0.11600E-05        -0.11788E-09         0.00000E+00
    0.11600E-05        -0.13690E-09         0.00000E+00
    0.11600E-05        -0.14951E-09         0.00000E+00
    0.11600E-05        -0.15593E-09         0.00000E+00
    0.11600E-05        -0.15638E-09         0.00000E+00
    0.11600E-05        -0.15111E-09         0.00000E+00
    0.11600E-05        -0.14040E-09         0.00000E+00
    0.11600E-05        -0.12454E-09         0.00000E+00
    0.11600E-05        -0.10387E-09         0.00000E+00
    0.11600E-05        -0.78772E-10         0.00000E+00
    0.11600E-05        -0.49681E-10         0.00000E+00
    0.11600E-05        -0.17096E-10         0.00000E+00
    0.11600E-05        -0.22007E-10         0.00000E+00
    0.11600E-05        -0.62622E-10         0.00000E+00
    0.11600E-05        -0.96346E-10         0.00000E+00
    0.11600E-05        -0.12308E-09         0.00000E+00
    0.11600E-05        -0.14290E-09         0.00000E+00
    0.11600E-05        -0.15595E-09         0.00000E+00
    0.11600E-05        -0.16248E-09         0.00000E+00
    0.11600E-05        -0.16274E-09         0.00000E+00
    0.11600E-05        -0.15703E-09         0.00000E+00
    0.11600E-05        -0.14567E-09         0.00000E+00
    0.11600E-05        -0.12900E-09         0.00000E+00
    0.11600E-05        -0.10741E-09         0.00000E+00
    0.11600E-05        -0.81319E-10         0.00000E+00
    0.11600E-05        -0.51199E-10         0.00000E+00
    0.11600E-05        -0.17598E-10         0.00000E+00
    0.11599E-05        -0.22911E-10         0.00000E+00
    0.11599E-05        -0.65195E-10         0.00000E+00
    0.11599E-05        -0.10028E-09         0.00000E+00
    0.11600E-05        -0.12802E-09         0.00000E+00
    0.11600E-05        -0.14849E-09         0.00000E+00
    0.11600E-05        -0.16185E-09         0.00000E+00
    0.11600E-05        -0.16839E-09         0.00000E+00
    0.11600E-05        -0.16841E-09         0.00000E+00
    0.11600E-05        -0.16227E-09         0.00000E+00
    0.11600E-05        -0.15032E-09         0.00000E+00
    0.11600E-05        -0.13295E-09         0.00000E+00
    0.11600E-05        -0.11056E-09         0.00000E+00
    0.11601E-05        -0.83597E-10         0.00000E+00
    0.11601E-05        -0.52572E-10         0.00000E+00
    0.11601E-05        -0.18056E-10         0.00000E+00
    0.11599E-05        -0.23861E-10         0.00000E+00
    0.11599E-05        -0.67839E-10         0.00000E+00
    0.11599E-05        -0.10420E-09         0.00000E+00
    0.11599E-05        -0.13281E-09         0.00000E+00
    0.11600E-05        -0.15376E-09         0.00000E+00
    0.11600E-05        -0.16730E-09         0.00000E+00
    0.11600E-05        -0.17375E-09         0.00000E+00
    0.11600E-05        -0.17348E-09         0.00000E+00
    0.11600E-05        -0.16691E-09         0.00000E+00
    0.11600E-05        -0.15442E-09         0.00000E+00
    0.11601E-05        -0.13643E-09         0.00000E+00
    0.11601E-05        -0.11336E-09         0.00000E+00
    0.11601E-05        -0.85650E-10         0.00000E+00
    0.11601E-05        -0.53829E-10         0.00000E+00
    0.11601E-05        -0.18479E-10         0.00000E+00
    0.11598E-05        -0.24871E-10         0.00000E+00
    0.11599E-05        -0.70585E-10         0.00000E+00
    0.11599E-05        -0.10814E-09         0.00000E+00
    0.11599E-05        -0.13747E-09         0.00000E+00
    0.11599E-05        -0.15873E-09         0.00000E+00
    0.11600E-05        -0.17228E-09         0.00000E+00
    0.11600E-05        -0.17851E-09         0.00000E+00
    0.11600E-05        -0.17790E-09         0.00000E+00
    0.11600E-05        -0.17090E-09         0.00000E+00
    0.11601E-05        -0.15793E-09         0.00000E+00
    0.11601E-05        -0.13942E-09         0.00000E+00
    0.11601E-05        -0.11579E-09         0.00000E+00
    0.11601E-05        -0.87476E-10         0.00000E+00
    0.11601E-05        -0.54975E-10         0.00000E+00
    0.11601E-05        -0.18872E-10         0.00000E+00
    0.11598E-05        -0.25933E-10         0.00000E+00
    0.11598E-05        -0.73416E-10         0.00000E+00
    0.11598E-05        -0.11207E-09         0.00000E+00
    0.11599E-05        -0.14193E-09         0.00000E+00
    0.11599E-05        -0.16329E-09         0.00000E+00
    0.11600E-05        -0.17665E-09         0.00000E+00
    0.11600E-05        -0.18253E-09         0.00000E+00
    0.11600E-05        -0.18149E-09         0.00000E+00
    0.11600E-05        -0.17406E-09         0.00000E+00
    0.11601E-05        -0.16070E-09         0.00000E+00
    0.11601E-05        -0.14181E-09         0.00000E+00
    0.11601E-05        -0.11779E-09         0.00000E+00
    0.11601E-05        -0.89030E-10         0.00000E+00
    0.11602E-05        -0.55990E-10         0.00000E+00
    0.11602E-05        -0.19231E-10         0.00000E+00
    0.11597E-05        -0.27046E-10         0.00000E+00
    0.11598E-05        -0.76295E-10         0.00000E+00
    0.11598E-05        -0.11588E-09         0.00000E+00
    0.11599E-05        -0.14602E-09         0.00000E+00
    0.11599E-05        -0.16722E-09         0.00000E+00
    0.11599E-05        -0.18014E-09         0.00000E+00
    0.11600E-05        -0.18549E-09         0.00000E+00
    0.11600E-05        -0.18396E-09         0.00000E+00
    0.11601E-05        -0.17613E-09         0.00000E+00
    0.11601E-05        -0.16248E-09         0.00000E+00
    0.11601E-05        -0.14339E-09         0.00000E+00
    0.11601E-05        -0.11920E-09         0.00000E+00
    0.11602E-05        -0.90223E-10         0.00000E+00
    0.11602E-05        -0.56836E-10         0.00000E+00
    0.11602E-05        -0.19547E-10         0.00000E+00
    0.11597E-05        -0.28188E-10         0.00000E+00
    0.11597E-05        -0.79147E-10         0.00000E+00
    0.11598E-05        -0.11942E-09         0.00000E+00
    0.11598E-05        -0.14950E-09         0.00000E+00
    0.11599E-05        -0.17017E-09         0.00000E+00
    0.11599E-05        -0.18235E-09         0.00000E+00
    0.11600E-05        -0.18697E-09         0.00000E+00
    0.11600E-05        -0.18486E-09         0.00000E+00
    0.11601E-05        -0.17668E-09         0.00000E+00
    0.11601E-05        -0.16291E-09         0.00000E+00
    0.11601E-05        -0.14388E-09         0.00000E+00
    0.11602E-05        -0.11982E-09         0.00000E+00
    0.11602E-05        -0.90925E-10         0.00000E+00
    0.11602E-05        -0.57448E-10         0.00000E+00
    0.11602E-05        -0.19802E-10         0.00000E+00
    0.11596E-05        -0.29315E-10         0.00000E+00
    0.11597E-05        -0.81832E-10         0.00000E+00
    0.11597E-05        -0.12244E-09         0.00000E+00
    0.11598E-05        -0.15198E-09         0.00000E+00
    0.11599E-05        -0.17165E-09         0.00000E+00
    0.11599E-05        -0.18271E-09         0.00000E+00
    0.11600E-05        -0.18637E-09         0.00000E+00
    0.11600E-05        -0.18361E-09         0.00000E+00
    0.11601E-05        -0.17517E-09         0.00000E+00
    0.11601E-05        -0.16151E-09         0.00000E+00
    0.11602E-05        -0.14288E-09         0.00000E+00
    0.11602E-05        -0.11936E-09         0.00000E+00
    0.11602E-05        -0.90959E-10         0.00000E+00
    0.11603E-05        -0.57744E-10         0.00000E+00
    0.11603E-05        -0.19975E-10         0.00000E+00
    0.11596E-05        -0.30374E-10         0.00000E+00
    0.11596E-05        -0.84161E-10         0.00000E+00
    0.11597E-05        -0.12456E-09         0.00000E+00
    0.11598E-05        -0.15294E-09         0.00000E+00
    0.11599E-05        -0.17101E-09         0.00000E+00
    0.11599E-05        -0.18052E-09         0.00000E+00
    0.11600E-05        -0.18296E-09         0.00000E+00
    0.11600E-05        -0.17951E-09         0.00000E+00
    0.11601E-05        -0.17096E-09         0.00000E+00
    0.11601E-05        -0.15773E-09         0.00000E+00
    0.11602E-05        -0.13994E-09         0.00000E+00
    0.11602E-05        -0.11747E-09         0.00000E+00
    0.11603E-05        -0.90102E-10         0.00000E+00
    0.11603E-05        -0.57615E-10         0.00000E+00
    0.11603E-05        -0.20038E-10         0.00000E+00
    0.11595E-05        -0.31306E-10         0.00000E+00
    0.11596E-05        -0.85894E-10         0.00000E+00
    0.11597E-05        -0.12532E-09         0.00000E+00
    0.11598E-05        -0.15167E-09         0.00000E+00
    0.11598E-05        -0.16742E-09         0.00000E+00
    0.11599E-05        -0.17487E-09         0.00000E+00
    0.11600E-05        -0.17588E-09         0.00000E+00
    0.11600E-05        -0.17175E-09         0.00000E+00
    0.11601E-05        -0.16329E-09         0.00000E+00
    0.11602E-05        -0.15088E-09         0.00000E+00
    0.11602E-05        -0.13447E-09         0.00000E+00
    0.11603E-05        -0.11373E-09         0.00000E+00
    0.11603E-05        -0.88074E-10         0.00000E+00
    0.11603E-05        -0.56930E-10         0.00000E+00
    0.11604E-05        -0.19959E-10         0.00000E+00
    0.11594E-05        -0.32028E-10         0.00000E+00
    0.11595E-05        -0.86688E-10         0.00000E+00
    0.11596E-05        -0.12400E-09         0.00000E+00
    0.11597E-05        -0.14721E-09         0.00000E+00
    0.11598E-05        -0.15981E-09         0.00000E+00
    0.11599E-05        -0.16475E-09         0.00000E+00
    0.11600E-05        -0.16418E-09         0.00000E+00
    0.11601E-05        -0.15948E-09         0.00000E+00
    0.11601E-05        -0.15141E-09         0.00000E+00
    0.11602E-05        -0.14025E-09         0.00000E+00
    0.11602E-05        -0.12584E-09         0.00000E+00
    0.11603E-05        -0.10759E-09         0.00000E+00
    0.11603E-05        -0.84519E-10         0.00000E+00
    0.11604E-05        -0.55517E-10         0.00000E+00
    0.11604E-05        -0.19696E-10         0.00000E+00
    0.11594E-05        -0.32393E-10         0.00000E+00
    0.11595E-05        -0.85981E-10         0.00000E+00
    0.11596E-05        -0.11957E-09         0.00000E+00
    0.11597E-05        -0.13824E-09         0.00000E+00
    0.11598E-05        -0.14687E-09         0.00000E+00
    0.11599E-05        -0.14904E-09         0.00000E+00
    0.11600E-05        -0.14697E-09         0.00000E+00
    0.11601E-05        -0.14195E-09         0.00000E+00
    0.11601E-05        -0.13462E-09         0.00000E+00
    0.11602E-05        -0.12516E-09         0.00000E+00
    0.11602E-05        -0.11335E-09         0.00000E+00
    0.11603E-05        -0.98402E-10         0.00000E+00
    0.11603E-05        -0.78947E-10         0.00000E+00
    0.11604E-05        -0.53129E-10         0.00000E+00
    0.11604E-05        -0.19188E-10         0.00000E+00
    0.11593E-05        -0.32137E-10         0.00000E+00
    0.11595E-05        -0.82766E-10         0.00000E+00
    0.11596E-05        -0.11031E-09         0.00000E+00
    0.11597E-05        -0.12294E-09         0.00000E+00
    0.11598E-05        -0.12717E-09         0.00000E+00
    0.11599E-05        -0.12677E-09         0.00000E+00
    0.11600E-05        -0.12362E-09         0.00000E+00
    0.11601E-05        -0.11871E-09         0.00000E+00
    0.11601E-05        -0.11249E-09         0.00000E+00
    0.11602E-05        -0.10508E-09         0.00000E+00
    0.11602E-05        -0.96258E-10         0.00000E+00
    0.11603E-05        -0.85331E-10         0.00000E+00
    0.11604E-05        -0.70623E-10         0.00000E+00
    0.11604E-05        -0.49362E-10         0.00000E+00
    0.11605E-05        -0.18346E-10         0.00000E+00
    0.11592E-05        -0.30659E-10         0.00000E+00
    0.11594E-05        -0.75015E-10         0.00000E+00
    0.11596E-05        -0.93351E-10         0.00000E+00
    0.11597E-05        -0.99060E-10         0.00000E+00
    0.11598E-05        -0.99529E-10         0.00000E+00
    0.11599E-05        -0.97464E-10         0.00000E+00
    0.11600E-05        -0.94048E-10         0.00000E+00
    0.11601E-05        -0.89837E-10         0.00000E+00
    0.11601E-05        -0.85086E-10         0.00000E+00
    0.11602E-05        -0.79868E-10         0.00000E+00
    0.11603E-05        -0.74074E-10         0.00000E+00
    0.11603E-05        -0.67287E-10         0.00000E+00
    0.11604E-05        -0.58336E-10         0.00000E+00
    0.11604E-05        -0.43447E-10         0.00000E+00
    0.11605E-05        -0.16894E-10         0.00000E+00
    0.11592E-05        -0.26117E-10         0.00000E+00
    0.11594E-05        -0.57850E-10         0.00000E+00
    0.11596E-05        -0.64529E-10         0.00000E+00
    0.11597E-05        -0.65215E-10         0.00000E+00
    0.11598E-05        -0.63864E-10         0.00000E+00
    0.11599E-05        -0.61636E-10         0.00000E+00
    0.11600E-05        -0.58986E-10         0.00000E+00
    0.11601E-05        -0.56115E-10         0.00000E+00
    0.11601E-05        -0.53128E-10         0.00000E+00
    0.11602E-05        -0.50073E-10         0.00000E+00
    0.11603E-05        -0.46939E-10         0.00000E+00
    0.11603E-05        -0.43612E-10         0.00000E+00
    0.11604E-05        -0.39720E-10         0.00000E+00
    0.11605E-05        -0.33494E-10         0.00000E+00
    0.11606E-05        -0.14713E-10         0.00000E+00
    0.11591E-05        -0.11361E-10         0.00000E+00
    0.11594E-05        -0.23019E-10         0.00000E+00
    0.11596E-05        -0.23281E-10         0.00000E+00
    0.11597E-05        -0.22877E-10         0.00000E+00
    0.11598E-05        -0.22057E-10         0.00000E+00
    0.11599E-05        -0.21115E-10         0.00000E+00
    0.11600E-05        -0.20116E-10         0.00000E+00
    0.11601E-05        -0.19096E-10         0.00000E+00
    0.11601E-05        -0.18075E-10         0.00000E+00
    0.11602E-05        -0.17073E-10         0.00000E+00
    0.11603E-05        -0.16103E-10         0.00000E+00
    0.11603E-05        -0.15178E-10         0.00000E+00
    0.11604E-05        -0.14213E-10         0.00000E+00
    0.11605E-05        -0.13581E-10         0.00000E+00
    0.11606E-05        -0.67321E-11         0.00000E+00
POINT_DATA        496
VECTORS vDarcyNodal double 
    0.11601E-05         0.12371E-09         0.00000E+00
    0.11601E-05         0.24011E-09         0.00000E+00
    0.11600E-05         0.44150E-09         0.00000E+00
    0.11600E-05         0.57194E-09         0.00000E+00
    0.11600E-05         0.63566E-09         0.00000E+00
    0.11600E-05         0.64901E-09         0.00000E+00
    0.11600E-05         0.61376E-09         0.00000E+00
    0.11600E-05         0.54453E-09         0.00000E+00
    0.11600E-05         0.47795E-09         0.00000E+00
    0.11600E-05         0.42935E-09         0.00000E+00
    0.11600E-05         0.38791E-09         0.00000E+00
    0.11600E-05         0.34593E-09         0.00000E+00
    0.11600E-05         0.29998E-09         0.00000E+00
    0.11600E-05         0.24607E-09         0.00000E+00
    0.11600E-05         0.15439E-09         0.00000E+00
    0.11599E-05         0.92148E-10         0.00000E+00
    0.11602E-05         0.91366E-10         0.00000E+00
    0.11601E-05         0.15001E-09         0.00000E+00
    0.11601E-05         0.22943E-09         0.00000E+00
    0.11600E-05         0.26519E-09         0.00000E+00
    0.11600E-05         0.29112E-09         0.00000E+00
    0.11600E-05         0.30554E-09         0.00000E+00
    0.11600E-05         0.31292E-09         0.00000E+00
    0.11600E-05         0.32149E-09         0.00000E+00
    0.11600E-05         0.32143E-09         0.00000E+00
    0.11600E-05         0.30520E-09         0.00000E+00
    0.11600E-05         0.27900E-09         0.00000E+00
    0.11600E-05         0.24612E-09         0.00000E+00
    0.11600E-05         0.20484E-09         0.00000E+00
    0.11599E-05         0.14899E-09         0.00000E+00
    0.11599E-05         0.77210E-10         0.00000E+00
    0.11599E-05         0.38229E-10         0.00000E+00
    0.11603E-05         0.31867E-10         0.00000E+00
    0.11602E-05         0.50730E-10         0.00000E+00
    0.11601E-05         0.74498E-10         0.00000E+00
    0.11601E-05         0.84066E-10         0.00000E+00
    0.11601E-05         0.98453E-10         0.00000E+00
    0.11600E-05         0.12660E-09         0.00000E+00
    0.11600E-05         0.16290E-09         0.00000E+00
    0.11600E-05         0.18894E-09         0.00000E+00
    0.11600E-05         0.19815E-09         0.00000E+00
    0.11600E-05         0.19503E-09         0.00000E+00
    0.11599E-05         0.18160E-09         0.00000E+00
    0.11599E-05         0.15868E-09         0.00000E+00
    0.11599E-05         0.12656E-09         0.00000E+00
    0.11599E-05         0.85948E-10         0.00000E+00
    0.11598E-05         0.42057E-10         0.00000E+00
    0.11598E-05         0.20308E-10         0.00000E+00
    0.11603E-05        -0.24702E-10         0.00000E+00
    0.11603E-05        -0.30347E-10         0.00000E+00
    0.11602E-05        -0.19206E-10         0.00000E+00
    0.11601E-05         0.15760E-10         0.00000E+00
    0.11601E-05         0.47527E-10         0.00000E+00
    0.11600E-05         0.70336E-10         0.00000E+00
    0.11600E-05         0.86712E-10         0.00000E+00
    0.11600E-05         0.99510E-10         0.00000E+00
    0.11600E-05         0.10756E-09         0.00000E+00
    0.11599E-05         0.10854E-09         0.00000E+00
    0.11599E-05         0.10197E-09         0.00000E+00
    0.11599E-05         0.88099E-10         0.00000E+00
    0.11599E-05         0.67821E-10         0.00000E+00
    0.11599E-05         0.43651E-10         0.00000E+00
    0.11598E-05         0.20109E-10         0.00000E+00
    0.11598E-05         0.91976E-11         0.00000E+00
    0.11603E-05        -0.17290E-10         0.00000E+00
    0.11603E-05        -0.21246E-10         0.00000E+00
    0.11602E-05        -0.16483E-10         0.00000E+00
    0.11601E-05        -0.23218E-12         0.00000E+00
    0.11601E-05         0.13254E-10         0.00000E+00
    0.11601E-05         0.23570E-10         0.00000E+00
    0.11600E-05         0.31350E-10         0.00000E+00
    0.11600E-05         0.37439E-10         0.00000E+00
    0.11600E-05         0.41749E-10         0.00000E+00
    0.11599E-05         0.43252E-10         0.00000E+00
    0.11599E-05         0.40826E-10         0.00000E+00
    0.11599E-05         0.34277E-10         0.00000E+00
    0.11599E-05         0.24543E-10         0.00000E+00
    0.11598E-05         0.13774E-10         0.00000E+00
    0.11598E-05         0.51713E-11         0.00000E+00
    0.11598E-05         0.18590E-11         0.00000E+00
    0.11603E-05        -0.81444E-11         0.00000E+00
    0.11602E-05        -0.14035E-10         0.00000E+00
    0.11602E-05        -0.20623E-10         0.00000E+00
    0.11601E-05        -0.19314E-10         0.00000E+00
    0.11601E-05        -0.15797E-10         0.00000E+00
    0.11601E-05        -0.13177E-10         0.00000E+00
    0.11600E-05        -0.11062E-10         0.00000E+00
    0.11600E-05        -0.89626E-11         0.00000E+00
    0.11600E-05        -0.68652E-11         0.00000E+00
    0.11599E-05        -0.52860E-11         0.00000E+00
    0.11599E-05        -0.48291E-11         0.00000E+00
    0.11599E-05        -0.56571E-11         0.00000E+00
    0.11599E-05        -0.71131E-11         0.00000E+00
    0.11598E-05        -0.77108E-11         0.00000E+00
    0.11598E-05        -0.54561E-11         0.00000E+00
    0.11598E-05        -0.33492E-11         0.00000E+00
    0.11603E-05        -0.94944E-11         0.00000E+00
    0.11602E-05        -0.17149E-10         0.00000E+00
    0.11602E-05        -0.29365E-10         0.00000E+00
    0.11601E-05        -0.36405E-10         0.00000E+00
    0.11601E-05        -0.40328E-10         0.00000E+00
    0.11601E-05        -0.42784E-10         0.00000E+00
    0.11600E-05        -0.44255E-10         0.00000E+00
    0.11600E-05        -0.44525E-10         0.00000E+00
    0.11600E-05        -0.43528E-10         0.00000E+00
    0.11599E-05        -0.41468E-10         0.00000E+00
    0.11599E-05        -0.38616E-10         0.00000E+00
    0.11599E-05        -0.35001E-10         0.00000E+00
    0.11599E-05        -0.30191E-10         0.00000E+00
    0.11598E-05        -0.23284E-10         0.00000E+00
    0.11598E-05        -0.13143E-10         0.00000E+00
    0.11598E-05        -0.71178E-11         0.00000E+00
    0.11602E-05        -0.11650E-10         0.00000E+00
    0.11602E-05        -0.21753E-10         0.00000E+00
    0.11602E-05        -0.39159E-10         0.00000E+00
    0.11601E-05        -0.51647E-10         0.00000E+00
    0.11601E-05        -0.60503E-10         0.00000E+00
    0.11601E-05        -0.66659E-10         0.00000E+00
    0.11600E-05        -0.70530E-10         0.00000E+00
    0.11600E-05        -0.72165E-10         0.00000E+00
    0.11600E-05        -0.71528E-10         0.00000E+00
    0.11600E-05        -0.68677E-10         0.00000E+00
    0.11599E-05        -0.63703E-10         0.00000E+00
    0.11599E-05        -0.56584E-10         0.00000E+00
    0.11599E-05        -0.47058E-10         0.00000E+00
    0.11598E-05        -0.34639E-10         0.00000E+00
    0.11598E-05        -0.18755E-10         0.00000E+00
    0.11598E-05        -0.98762E-11         0.00000E+00
    0.11602E-05        -0.13905E-10         0.00000E+00
    0.11602E-05        -0.26230E-10         0.00000E+00
    0.11602E-05        -0.48026E-10         0.00000E+00
    0.11601E-05        -0.64653E-10         0.00000E+00
    0.11601E-05        -0.77050E-10         0.00000E+00
    0.11601E-05        -0.85858E-10         0.00000E+00
    0.11600E-05        -0.91416E-10         0.00000E+00
    0.11600E-05        -0.93837E-10         0.00000E+00
    0.11600E-05        -0.93144E-10         0.00000E+00
    0.11600E-05        -0.89359E-10         0.00000E+00
    0.11599E-05        -0.82514E-10         0.00000E+00
    0.11599E-05        -0.72597E-10         0.00000E+00
    0.11599E-05        -0.59492E-10         0.00000E+00
    0.11599E-05        -0.42992E-10         0.00000E+00
    0.11598E-05        -0.22889E-10         0.00000E+00
    0.11598E-05        -0.11913E-10         0.00000E+00
    0.11602E-05        -0.15825E-10         0.00000E+00
    0.11602E-05        -0.30040E-10         0.00000E+00
    0.11601E-05        -0.55493E-10         0.00000E+00
    0.11601E-05        -0.75412E-10         0.00000E+00
    0.11601E-05        -0.90523E-10         0.00000E+00
    0.11600E-05        -0.10132E-09         0.00000E+00
    0.11600E-05        -0.10809E-09         0.00000E+00
    0.11600E-05        -0.11097E-09         0.00000E+00
    0.11600E-05        -0.11002E-09         0.00000E+00
    0.11600E-05        -0.10529E-09         0.00000E+00
    0.11599E-05        -0.96823E-10         0.00000E+00
    0.11599E-05        -0.84652E-10         0.00000E+00
    0.11599E-05        -0.68789E-10         0.00000E+00
    0.11599E-05        -0.49222E-10         0.00000E+00
    0.11599E-05        -0.25974E-10         0.00000E+00
    0.11598E-05        -0.13437E-10         0.00000E+00
    0.11601E-05        -0.17392E-10         0.00000E+00
    0.11601E-05        -0.33157E-10         0.00000E+00
    0.11601E-05        -0.61606E-10         0.00000E+00
    0.11601E-05        -0.84202E-10         0.00000E+00
    0.11601E-05        -0.10148E-09         0.00000E+00
    0.11600E-05        -0.11383E-09         0.00000E+00
    0.11600E-05        -0.12150E-09         0.00000E+00
    0.11600E-05        -0.12464E-09         0.00000E+00
    0.11600E-05        -0.12337E-09         0.00000E+00
    0.11600E-05        -0.11776E-09         0.00000E+00
    0.11600E-05        -0.10791E-09         0.00000E+00
    0.11599E-05        -0.93914E-10         0.00000E+00
    0.11599E-05        -0.75883E-10         0.00000E+00
    0.11599E-05        -0.53960E-10         0.00000E+00
    0.11599E-05        -0.28321E-10         0.00000E+00
    0.11599E-05        -0.14597E-10         0.00000E+00
    0.11601E-05        -0.18665E-10         0.00000E+00
    0.11601E-05        -0.35700E-10         0.00000E+00
    0.11601E-05        -0.66614E-10         0.00000E+00
    0.11601E-05        -0.91416E-10         0.00000E+00
    0.11600E-05        -0.11047E-09         0.00000E+00
    0.11600E-05        -0.12407E-09         0.00000E+00
    0.11600E-05        -0.13243E-09         0.00000E+00
    0.11600E-05        -0.13574E-09         0.00000E+00
    0.11600E-05        -0.13413E-09         0.00000E+00
    0.11600E-05        -0.12773E-09         0.00000E+00
    0.11600E-05        -0.11671E-09         0.00000E+00
    0.11600E-05        -0.10121E-09         0.00000E+00
    0.11599E-05        -0.81446E-10         0.00000E+00
    0.11599E-05        -0.57659E-10         0.00000E+00
    0.11599E-05        -0.30148E-10         0.00000E+00
    0.11599E-05        -0.15500E-10         0.00000E+00
    0.11601E-05        -0.19732E-10         0.00000E+00
    0.11601E-05        -0.37832E-10         0.00000E+00
    0.11601E-05        -0.70814E-10         0.00000E+00
    0.11600E-05        -0.97463E-10         0.00000E+00
    0.11600E-05        -0.11799E-09         0.00000E+00
    0.11600E-05        -0.13261E-09         0.00000E+00
    0.11600E-05        -0.14153E-09         0.00000E+00
    0.11600E-05        -0.14493E-09         0.00000E+00
    0.11600E-05        -0.14299E-09         0.00000E+00
    0.11600E-05        -0.13590E-09         0.00000E+00
    0.11600E-05        -0.12387E-09         0.00000E+00
    0.11600E-05        -0.10713E-09         0.00000E+00
    0.11600E-05        -0.85948E-10         0.00000E+00
    0.11600E-05        -0.60649E-10         0.00000E+00
    0.11599E-05        -0.31619E-10         0.00000E+00
    0.11599E-05        -0.16223E-10         0.00000E+00
    0.11600E-05        -0.20675E-10         0.00000E+00
    0.11600E-05        -0.39707E-10         0.00000E+00
    0.11600E-05        -0.74484E-10         0.00000E+00
    0.11600E-05        -0.10271E-09         0.00000E+00
    0.11600E-05        -0.12448E-09         0.00000E+00
    0.11600E-05        -0.13995E-09         0.00000E+00
    0.11600E-05        -0.14930E-09         0.00000E+00
    0.11600E-05        -0.15274E-09         0.00000E+00
    0.11600E-05        -0.15049E-09         0.00000E+00
    0.11600E-05        -0.14278E-09         0.00000E+00
    0.11600E-05        -0.12987E-09         0.00000E+00
    0.11600E-05        -0.11207E-09         0.00000E+00
    0.11600E-05        -0.89702E-10         0.00000E+00
    0.11600E-05        -0.63151E-10         0.00000E+00
    0.11600E-05        -0.32856E-10         0.00000E+00
    0.11600E-05        -0.16833E-10         0.00000E+00
    0.11600E-05        -0.21563E-10         0.00000E+00
    0.11600E-05        -0.41454E-10         0.00000E+00
    0.11600E-05        -0.77857E-10         0.00000E+00
    0.11600E-05        -0.10747E-09         0.00000E+00
    0.11600E-05        -0.13030E-09         0.00000E+00
    0.11600E-05        -0.14646E-09         0.00000E+00
    0.11600E-05        -0.15613E-09         0.00000E+00
    0.11600E-05        -0.15956E-09         0.00000E+00
    0.11600E-05        -0.15700E-09         0.00000E+00
    0.11600E-05        -0.14873E-09         0.00000E+00
    0.11600E-05        -0.13506E-09         0.00000E+00
    0.11600E-05        -0.11633E-09         0.00000E+00
    0.11600E-05        -0.92936E-10         0.00000E+00
    0.11600E-05        -0.65301E-10         0.00000E+00
    0.11600E-05        -0.33921E-10         0.00000E+00
    0.11600E-05        -0.17360E-10         0.00000E+00
    0.11599E-05        -0.22450E-10         0.00000E+00
    0.11600E-05        -0.43174E-10         0.00000E+00
    0.11600E-05        -0.81110E-10         0.00000E+00
    0.11600E-05        -0.11196E-09         0.00000E+00
    0.11600E-05        -0.13569E-09         0.00000E+00
    0.11600E-05        -0.15240E-09         0.00000E+00
    0.11600E-05        -0.16230E-09         0.00000E+00
    0.11600E-05        -0.16565E-09         0.00000E+00
    0.11600E-05        -0.16276E-09         0.00000E+00
    0.11600E-05        -0.15397E-09         0.00000E+00
    0.11600E-05        -0.13962E-09         0.00000E+00
    0.11600E-05        -0.12009E-09         0.00000E+00
    0.11600E-05        -0.95797E-10         0.00000E+00
    0.11600E-05        -0.67217E-10         0.00000E+00
    0.11600E-05        -0.34876E-10         0.00000E+00
    0.11600E-05        -0.17836E-10         0.00000E+00
    0.11599E-05        -0.23372E-10         0.00000E+00
    0.11599E-05        -0.44932E-10         0.00000E+00
    0.11599E-05        -0.84362E-10         0.00000E+00
    0.11599E-05        -0.11634E-09         0.00000E+00
    0.11600E-05        -0.14082E-09         0.00000E+00
    0.11600E-05        -0.15794E-09         0.00000E+00
    0.11600E-05        -0.16794E-09         0.00000E+00
    0.11600E-05        -0.17115E-09         0.00000E+00
    0.11600E-05        -0.16792E-09         0.00000E+00
    0.11600E-05        -0.15863E-09         0.00000E+00
    0.11600E-05        -0.14366E-09         0.00000E+00
    0.11601E-05        -0.12342E-09         0.00000E+00
    0.11601E-05        -0.98359E-10         0.00000E+00
    0.11601E-05        -0.68953E-10         0.00000E+00
    0.11601E-05        -0.35751E-10         0.00000E+00
    0.11601E-05        -0.18275E-10         0.00000E+00
    0.11599E-05        -0.24350E-10         0.00000E+00
    0.11599E-05        -0.46768E-10         0.00000E+00
    0.11599E-05        -0.87674E-10         0.00000E+00
    0.11599E-05        -0.12067E-09         0.00000E+00
    0.11599E-05        -0.14575E-09         0.00000E+00
    0.11600E-05        -0.16312E-09         0.00000E+00
    0.11600E-05        -0.17310E-09         0.00000E+00
    0.11600E-05        -0.17608E-09         0.00000E+00
    0.11600E-05        -0.17247E-09         0.00000E+00
    0.11600E-05        -0.16271E-09         0.00000E+00
    0.11601E-05        -0.14720E-09         0.00000E+00
    0.11601E-05        -0.12636E-09         0.00000E+00
    0.11601E-05        -0.10065E-09         0.00000E+00
    0.11601E-05        -0.70527E-10         0.00000E+00
    0.11601E-05        -0.36557E-10         0.00000E+00
    0.11601E-05        -0.18683E-10         0.00000E+00
    0.11598E-05        -0.25391E-10         0.00000E+00
    0.11598E-05        -0.48688E-10         0.00000E+00
    0.11598E-05        -0.91050E-10         0.00000E+00
    0.11599E-05        -0.12494E-09         0.00000E+00
    0.11599E-05        -0.15045E-09         0.00000E+00
    0.11599E-05        -0.16789E-09         0.00000E+00
    0.11600E-05        -0.17769E-09         0.00000E+00
    0.11600E-05        -0.18034E-09         0.00000E+00
    0.11600E-05        -0.17632E-09         0.00000E+00
    0.11601E-05        -0.16612E-09         0.00000E+00
    0.11601E-05        -0.15016E-09         0.00000E+00
    0.11601E-05        -0.12885E-09         0.00000E+00
    0.11601E-05        -0.10262E-09         0.00000E+00
    0.11601E-05        -0.71924E-10         0.00000E+00
    0.11601E-05        -0.37290E-10         0.00000E+00
    0.11602E-05        -0.19061E-10         0.00000E+00
    0.11598E-05        -0.26476E-10         0.00000E+00
    0.11598E-05        -0.50661E-10         0.00000E+00
    0.11598E-05        -0.94433E-10         0.00000E+00
    0.11598E-05        -0.12906E-09         0.00000E+00
    0.11599E-05        -0.15477E-09         0.00000E+00
    0.11599E-05        -0.17205E-09         0.00000E+00
    0.11600E-05        -0.18149E-09         0.00000E+00
    0.11600E-05        -0.18369E-09         0.00000E+00
    0.11600E-05        -0.17923E-09         0.00000E+00
    0.11601E-05        -0.16864E-09         0.00000E+00
    0.11601E-05        -0.15235E-09         0.00000E+00
    0.11601E-05        -0.13075E-09         0.00000E+00
    0.11601E-05        -0.10420E-09         0.00000E+00
    0.11602E-05        -0.73096E-10         0.00000E+00
    0.11602E-05        -0.37932E-10         0.00000E+00
    0.11602E-05        -0.19402E-10         0.00000E+00
    0.11597E-05        -0.27616E-10         0.00000E+00
    0.11597E-05        -0.52680E-10         0.00000E+00
    0.11598E-05        -0.97743E-10         0.00000E+00
    0.11598E-05        -0.13285E-09         0.00000E+00
    0.11599E-05        -0.15847E-09         0.00000E+00
    0.11599E-05        -0.17531E-09         0.00000E+00
    0.11600E-05        -0.18414E-09         0.00000E+00
    0.11600E-05        -0.18576E-09         0.00000E+00
    0.11600E-05        -0.18085E-09         0.00000E+00
    0.11601E-05        -0.16996E-09         0.00000E+00
    0.11601E-05        -0.15352E-09         0.00000E+00
    0.11601E-05        -0.13185E-09         0.00000E+00
    0.11602E-05        -0.10523E-09         0.00000E+00
    0.11602E-05        -0.73963E-10         0.00000E+00
    0.11602E-05        -0.38451E-10         0.00000E+00
    0.11602E-05        -0.19692E-10         0.00000E+00
    0.11596E-05        -0.28760E-10         0.00000E+00
    0.11597E-05        -0.54655E-10         0.00000E+00
    0.11597E-05        -0.10083E-09         0.00000E+00
    0.11598E-05        -0.13607E-09         0.00000E+00
    0.11598E-05        -0.16119E-09         0.00000E+00
    0.11599E-05        -0.17721E-09         0.00000E+00
    0.11600E-05        -0.18517E-09         0.00000E+00
    0.11600E-05        -0.18606E-09         0.00000E+00
    0.11601E-05        -0.18068E-09         0.00000E+00
    0.11601E-05        -0.16962E-09         0.00000E+00
    0.11601E-05        -0.15327E-09         0.00000E+00
    0.11602E-05        -0.13185E-09         0.00000E+00
    0.11602E-05        -0.10552E-09         0.00000E+00
    0.11602E-05        -0.74410E-10         0.00000E+00
    0.11603E-05        -0.38799E-10         0.00000E+00
    0.11603E-05        -0.19912E-10         0.00000E+00
    0.11596E-05        -0.29869E-10         0.00000E+00
    0.11596E-05        -0.56491E-10         0.00000E+00
    0.11597E-05        -0.10344E-09         0.00000E+00
    0.11598E-05        -0.13834E-09         0.00000E+00
    0.11598E-05        -0.16243E-09         0.00000E+00
    0.11599E-05        -0.17715E-09         0.00000E+00
    0.11600E-05        -0.18391E-09         0.00000E+00
    0.11600E-05        -0.18392E-09         0.00000E+00
    0.11601E-05        -0.17810E-09         0.00000E+00
    0.11601E-05        -0.16706E-09         0.00000E+00
    0.11602E-05        -0.15113E-09         0.00000E+00
    0.11602E-05        -0.13039E-09         0.00000E+00
    0.11602E-05        -0.10480E-09         0.00000E+00
    0.11603E-05        -0.74292E-10         0.00000E+00
    0.11603E-05        -0.38919E-10         0.00000E+00
    0.11603E-05        -0.20037E-10         0.00000E+00
    0.11595E-05        -0.30878E-10         0.00000E+00
    0.11596E-05        -0.58044E-10         0.00000E+00
    0.11596E-05        -0.10528E-09         0.00000E+00
    0.11597E-05        -0.13916E-09         0.00000E+00
    0.11598E-05        -0.16152E-09         0.00000E+00
    0.11599E-05        -0.17437E-09         0.00000E+00
    0.11599E-05        -0.17957E-09         0.00000E+00
    0.11600E-05        -0.17855E-09         0.00000E+00
    0.11601E-05        -0.17237E-09         0.00000E+00
    0.11601E-05        -0.16162E-09         0.00000E+00
    0.11602E-05        -0.14653E-09         0.00000E+00
    0.11602E-05        -0.12702E-09         0.00000E+00
    0.11603E-05        -0.10277E-09         0.00000E+00
    0.11603E-05        -0.73425E-10         0.00000E+00
    0.11603E-05        -0.38735E-10         0.00000E+00
    0.11603E-05        -0.20039E-10         0.00000E+00
    0.11595E-05        -0.31733E-10         0.00000E+00
    0.11595E-05        -0.59156E-10         0.00000E+00
    0.11596E-05        -0.10593E-09         0.00000E+00
    0.11597E-05        -0.13783E-09         0.00000E+00
    0.11598E-05        -0.15757E-09         0.00000E+00
    0.11599E-05        -0.16792E-09         0.00000E+00
    0.11599E-05        -0.17118E-09         0.00000E+00
    0.11600E-05        -0.16907E-09         0.00000E+00
    0.11601E-05        -0.16267E-09         0.00000E+00
    0.11601E-05        -0.15255E-09         0.00000E+00
    0.11602E-05        -0.13882E-09         0.00000E+00
    0.11602E-05        -0.12118E-09         0.00000E+00
    0.11603E-05        -0.99028E-10         0.00000E+00
    0.11603E-05        -0.71580E-10         0.00000E+00
    0.11604E-05        -0.38155E-10         0.00000E+00
    0.11604E-05        -0.19879E-10         0.00000E+00
    0.11594E-05        -0.32322E-10         0.00000E+00
    0.11595E-05        -0.59560E-10         0.00000E+00
    0.11596E-05        -0.10476E-09         0.00000E+00
    0.11597E-05        -0.13339E-09         0.00000E+00
    0.11598E-05        -0.14945E-09         0.00000E+00
    0.11599E-05        -0.15664E-09         0.00000E+00
    0.11599E-05        -0.15774E-09         0.00000E+00
    0.11600E-05        -0.15458E-09         0.00000E+00
    0.11601E-05        -0.14821E-09         0.00000E+00
    0.11601E-05        -0.13911E-09         0.00000E+00
    0.11602E-05        -0.12728E-09         0.00000E+00
    0.11603E-05        -0.11225E-09         0.00000E+00
    0.11603E-05        -0.93079E-10         0.00000E+00
    0.11604E-05        -0.68456E-10         0.00000E+00
    0.11604E-05        -0.37058E-10         0.00000E+00
    0.11604E-05        -0.19512E-10         0.00000E+00
    0.11593E-05        -0.32465E-10         0.00000E+00
    0.11594E-05        -0.58814E-10         0.00000E+00
    0.11595E-05        -0.10079E-09         0.00000E+00
    0.11597E-05        -0.12443E-09         0.00000E+00
    0.11598E-05        -0.13567E-09         0.00000E+00
    0.11599E-05        -0.13927E-09         0.00000E+00
    0.11600E-05        -0.13827E-09         0.00000E+00
    0.11600E-05        -0.13434E-09         0.00000E+00
    0.11601E-05        -0.12836E-09         0.00000E+00
    0.11602E-05        -0.12067E-09         0.00000E+00
    0.11602E-05        -0.11123E-09         0.00000E+00
    0.11603E-05        -0.99498E-10         0.00000E+00
    0.11603E-05        -0.84271E-10         0.00000E+00
    0.11604E-05        -0.63621E-10         0.00000E+00
    0.11604E-05        -0.35260E-10         0.00000E+00
    0.11605E-05        -0.18864E-10         0.00000E+00
    0.11593E-05        -0.31809E-10         0.00000E+00
    0.11594E-05        -0.56089E-10         0.00000E+00
    0.11595E-05        -0.92290E-10         0.00000E+00
    0.11597E-05        -0.10883E-09         0.00000E+00
    0.11598E-05        -0.11445E-09         0.00000E+00
    0.11599E-05        -0.11467E-09         0.00000E+00
    0.11600E-05        -0.11212E-09         0.00000E+00
    0.11600E-05        -0.10800E-09         0.00000E+00
    0.11601E-05        -0.10285E-09         0.00000E+00
    0.11602E-05        -0.96903E-10         0.00000E+00
    0.11602E-05        -0.90108E-10         0.00000E+00
    0.11603E-05        -0.82093E-10         0.00000E+00
    0.11603E-05        -0.71684E-10         0.00000E+00
    0.11604E-05        -0.56364E-10         0.00000E+00
    0.11605E-05        -0.32448E-10         0.00000E+00
    0.11605E-05        -0.17828E-10         0.00000E+00
    0.11592E-05        -0.29510E-10         0.00000E+00
    0.11593E-05        -0.49586E-10         0.00000E+00
    0.11595E-05        -0.76078E-10         0.00000E+00
    0.11596E-05        -0.83585E-10         0.00000E+00
    0.11598E-05        -0.84145E-10         0.00000E+00
    0.11599E-05        -0.82329E-10         0.00000E+00
    0.11600E-05        -0.79391E-10         0.00000E+00
    0.11600E-05        -0.75889E-10         0.00000E+00
    0.11601E-05        -0.72073E-10         0.00000E+00
    0.11602E-05        -0.68054E-10         0.00000E+00
    0.11602E-05        -0.63836E-10         0.00000E+00
    0.11603E-05        -0.59270E-10         0.00000E+00
    0.11604E-05        -0.53941E-10         0.00000E+00
    0.11604E-05        -0.45419E-10         0.00000E+00
    0.11605E-05        -0.27893E-10         0.00000E+00
    0.11605E-05        -0.15960E-10         0.00000E+00
    0.11592E-05        -0.22724E-10         0.00000E+00
    0.11593E-05        -0.34384E-10         0.00000E+00
    0.11595E-05        -0.46305E-10         0.00000E+00
    0.11596E-05        -0.46163E-10         0.00000E+00
    0.11598E-05        -0.44938E-10         0.00000E+00
    0.11599E-05        -0.43174E-10         0.00000E+00
    0.11600E-05        -0.41234E-10         0.00000E+00
    0.11600E-05        -0.39215E-10         0.00000E+00
    0.11601E-05        -0.37173E-10         0.00000E+00
    0.11602E-05        -0.35150E-10         0.00000E+00
    0.11602E-05        -0.33178E-10         0.00000E+00
    0.11603E-05        -0.31283E-10         0.00000E+00
    0.11604E-05        -0.29393E-10         0.00000E+00
    0.11604E-05        -0.27796E-10         0.00000E+00
    0.11605E-05        -0.20314E-10         0.00000E+00
    0.11606E-05        -0.13465E-10         0.00000E+00
    0.11591E-05         0.00000E+00         0.00000E+00
    0.11593E-05         0.00000E+00         0.00000E+00
    0.11595E-05        -0.33106E-20         0.00000E+00
    0.11596E-05         0.52718E-24         0.00000E+00
    0.11598E-05         0.36422E-20         0.00000E+00
    0.11599E-05         0.00000E+00         0.00000E+00
    0.11600E-05         0.00000E+00         0.00000E+00
    0.11600E-05        -0.33126E-20         0.00000E+00
    0.11601E-05        -0.33126E-20         0.00000E+00
    0.11602E-05         0.33132E-20         0.00000E+00
    0.11602E-05         0.36445E-20         0.00000E+00
    0.11603E-05        -0.36451E-20         0.00000E+00
    0.11604E-05        -0.33113E-21         0.00000E+00
    0.11604E-05         0.36455E-20         0.00000E+00
    0.11605E-05         0.66286E-21         0.00000E+00
    0.11606E-05         0.00000E+00         0.00000E+00
CELL_DATA        450
TENSORS stressef double 
    0.19434E+08         0.16709E+06         0.00000E+00
    0.16709E+06         0.10721E+08         0.00000E+00
    0.00000E+00         0.00000E+00         0.70137E+07
 
    0.19599E+08         0.16794E+06         0.00000E+00
    0.16794E+06         0.11135E+08         0.00000E+00
    0.00000E+00         0.00000E+00         0.72808E+07
 
    0.19386E+08         0.11773E+05         0.00000E+00
    0.11773E+05         0.11216E+08         0.00000E+00
    0.00000E+00         0.00000E+00         0.68949E+07
 
    0.18735E+08        -0.18730E+06         0.00000E+00
   -0.18730E+06         0.10847E+08         0.00000E+00
    0.00000E+00         0.00000E+00         0.58028E+07
 
    0.17508E+08        -0.35837E+06         0.00000E+00
   -0.35837E+06         0.10165E+08         0.00000E+00
    0.00000E+00         0.00000E+00         0.38625E+07
 
    0.15875E+08        -0.35224E+06         0.00000E+00
   -0.35224E+06         0.93851E+07         0.00000E+00
    0.00000E+00         0.00000E+00         0.14435E+07
 
    0.14157E+08        -0.34819E+06         0.00000E+00
   -0.34819E+06         0.87035E+07         0.00000E+00
    0.00000E+00         0.00000E+00        -0.84067E+06
 
    0.11873E+08        -0.36081E+06         0.00000E+00
   -0.36081E+06         0.80327E+07         0.00000E+00
    0.00000E+00         0.00000E+00        -0.18635E+07
 
    0.99238E+07        -0.24311E+06         0.00000E+00
   -0.24311E+06         0.74753E+07         0.00000E+00
    0.00000E+00         0.00000E+00        -0.23663E+07
 
    0.81856E+07        -0.13421E+06         0.00000E+00
   -0.13421E+06         0.71209E+07         0.00000E+00
    0.00000E+00         0.00000E+00        -0.27849E+07
 
    0.64815E+07        -0.29524E+05         0.00000E+00
   -0.29524E+05         0.69702E+07         0.00000E+00
    0.00000E+00         0.00000E+00        -0.31550E+07
 
    0.46990E+07         0.80395E+05         0.00000E+00
    0.80395E+05         0.70290E+07         0.00000E+00
    0.00000E+00         0.00000E+00        -0.34979E+07
 
    0.27196E+07         0.20973E+06         0.00000E+00
    0.20973E+06         0.73237E+07         0.00000E+00
    0.00000E+00         0.00000E+00        -0.38319E+07
 
    0.35826E+06         0.38557E+06         0.00000E+00
    0.38557E+06         0.79218E+07         0.00000E+00
    0.00000E+00         0.00000E+00        -0.41807E+07
 
   -0.28978E+07         0.77958E+06         0.00000E+00
    0.77958E+06         0.90308E+07         0.00000E+00
    0.00000E+00         0.00000E+00        -0.46053E+07
 
    0.17719E+08         0.38965E+06         0.00000E+00
    0.38965E+06         0.78960E+07         0.00000E+00
    0.00000E+00         0.00000E+00         0.42079E+07
 
    0.17445E+08         0.34445E+06         0.00000E+00
    0.34445E+06         0.77036E+07         0.00000E+00
    0.00000E+00         0.00000E+00         0.37051E+07
 
    0.17097E+08        -0.19358E+04         0.00000E+00
   -0.19358E+04         0.75553E+07         0.00000E+00
    0.00000E+00         0.00000E+00         0.30333E+07
 
    0.16396E+08        -0.39340E+06         0.00000E+00
   -0.39340E+06         0.75384E+07         0.00000E+00
    0.00000E+00         0.00000E+00         0.18479E+07
 
    0.15284E+08        -0.70496E+06         0.00000E+00
   -0.70496E+06         0.75662E+07         0.00000E+00
    0.00000E+00         0.00000E+00         0.24592E+06
 
    0.13909E+08        -0.87086E+06         0.00000E+00
   -0.87086E+06         0.74711E+07         0.00000E+00
    0.00000E+00         0.00000E+00        -0.13036E+07
 
    0.11966E+08        -0.91938E+06         0.00000E+00
   -0.91938E+06         0.71024E+07         0.00000E+00
    0.00000E+00         0.00000E+00        -0.20287E+07
 
    0.10000E+08        -0.87316E+06         0.00000E+00
   -0.87316E+06         0.67274E+07         0.00000E+00
    0.00000E+00         0.00000E+00        -0.24993E+07
 
    0.80927E+07        -0.62651E+06         0.00000E+00
   -0.62651E+06         0.64112E+07         0.00000E+00
    0.00000E+00         0.00000E+00        -0.29455E+07
 
    0.63549E+07        -0.34478E+06         0.00000E+00
   -0.34478E+06         0.61964E+07         0.00000E+00
    0.00000E+00         0.00000E+00        -0.33362E+07
 
    0.46578E+07        -0.52642E+05         0.00000E+00
   -0.52642E+05         0.61301E+07         0.00000E+00
    0.00000E+00         0.00000E+00        -0.36879E+07
 
    0.29010E+07         0.26631E+06         0.00000E+00
    0.26631E+06         0.62442E+07         0.00000E+00
    0.00000E+00         0.00000E+00        -0.40146E+07
 
    0.98364E+06         0.64746E+06         0.00000E+00
    0.64746E+06         0.65763E+07         0.00000E+00
    0.00000E+00         0.00000E+00        -0.43287E+07
 
   -0.12295E+07         0.11744E+07         0.00000E+00
    0.11744E+07         0.71899E+07         0.00000E+00
    0.00000E+00         0.00000E+00        -0.46448E+07
 
   -0.37630E+07         0.21189E+07         0.00000E+00
    0.21189E+07         0.81714E+07         0.00000E+00
    0.00000E+00         0.00000E+00        -0.49505E+07
 
    0.16018E+08         0.10370E+06         0.00000E+00
    0.10370E+06         0.54837E+07         0.00000E+00
    0.00000E+00         0.00000E+00         0.13044E+07
 
    0.15332E+08         0.20962E+06         0.00000E+00
    0.20962E+06         0.50667E+07         0.00000E+00
    0.00000E+00         0.00000E+00         0.38190E+05
 
    0.14675E+08        -0.47219E+05         0.00000E+00
   -0.47219E+05         0.50656E+07         0.00000E+00
    0.00000E+00         0.00000E+00        -0.11114E+07
 
    0.14023E+08        -0.41595E+06         0.00000E+00
   -0.41595E+06         0.51889E+07         0.00000E+00
    0.00000E+00         0.00000E+00        -0.18667E+07
 
    0.12954E+08        -0.74574E+06         0.00000E+00
   -0.74574E+06         0.52456E+07         0.00000E+00
    0.00000E+00         0.00000E+00        -0.21943E+07
 
    0.11629E+08        -0.10334E+07         0.00000E+00
   -0.10334E+07         0.52093E+07         0.00000E+00
    0.00000E+00         0.00000E+00        -0.24714E+07
 
    0.99586E+07        -0.11700E+07         0.00000E+00
   -0.11700E+07         0.51368E+07         0.00000E+00
    0.00000E+00         0.00000E+00        -0.28237E+07
 
    0.81420E+07        -0.10634E+07         0.00000E+00
   -0.10634E+07         0.50438E+07         0.00000E+00
    0.00000E+00         0.00000E+00        -0.32080E+07
 
    0.63717E+07        -0.79340E+06         0.00000E+00
   -0.79340E+06         0.49727E+07         0.00000E+00
    0.00000E+00         0.00000E+00        -0.35777E+07
 
    0.46733E+07        -0.42000E+06         0.00000E+00
   -0.42000E+06         0.49370E+07         0.00000E+00
    0.00000E+00         0.00000E+00        -0.39246E+07
 
    0.30124E+07         0.12295E+05         0.00000E+00
    0.12295E+05         0.49925E+07         0.00000E+00
    0.00000E+00         0.00000E+00        -0.42448E+07
 
    0.13169E+07         0.51031E+06         0.00000E+00
    0.51031E+06         0.51864E+07         0.00000E+00
    0.00000E+00         0.00000E+00        -0.45432E+07
 
   -0.48168E+06         0.11166E+07         0.00000E+00
    0.11166E+07         0.55608E+07         0.00000E+00
    0.00000E+00         0.00000E+00        -0.48252E+07
 
   -0.24206E+07         0.19291E+07         0.00000E+00
    0.19291E+07         0.61537E+07         0.00000E+00
    0.00000E+00         0.00000E+00        -0.50907E+07
 
   -0.44362E+07         0.31003E+07         0.00000E+00
    0.31003E+07         0.69369E+07         0.00000E+00
    0.00000E+00         0.00000E+00        -0.53324E+07
 
    0.14205E+08        -0.82330E+05         0.00000E+00
   -0.82330E+05         0.36108E+07         0.00000E+00
    0.00000E+00         0.00000E+00        -0.18922E+07
 
    0.13154E+08        -0.64708E+05         0.00000E+00
   -0.64708E+05         0.36337E+07         0.00000E+00
    0.00000E+00         0.00000E+00        -0.24561E+07
 
    0.12350E+08        -0.20089E+06         0.00000E+00
   -0.20089E+06         0.34708E+07         0.00000E+00
    0.00000E+00         0.00000E+00        -0.26578E+07
 
    0.11601E+08        -0.47913E+06         0.00000E+00
   -0.47913E+06         0.33080E+07         0.00000E+00
    0.00000E+00         0.00000E+00        -0.28472E+07
 
    0.10630E+08        -0.80568E+06         0.00000E+00
   -0.80568E+06         0.32130E+07         0.00000E+00
    0.00000E+00         0.00000E+00        -0.30664E+07
 
    0.93872E+07        -0.10547E+07         0.00000E+00
   -0.10547E+07         0.31786E+07         0.00000E+00
    0.00000E+00         0.00000E+00        -0.33266E+07
 
    0.79181E+07        -0.11611E+07         0.00000E+00
   -0.11611E+07         0.32099E+07         0.00000E+00
    0.00000E+00         0.00000E+00        -0.36177E+07
 
    0.63129E+07        -0.10607E+07         0.00000E+00
   -0.10607E+07         0.32741E+07         0.00000E+00
    0.00000E+00         0.00000E+00        -0.39283E+07
 
    0.46863E+07        -0.77541E+06         0.00000E+00
   -0.77541E+06         0.33466E+07         0.00000E+00
    0.00000E+00         0.00000E+00        -0.42404E+07
 
    0.30868E+07        -0.35389E+06         0.00000E+00
   -0.35389E+06         0.34483E+07         0.00000E+00
    0.00000E+00         0.00000E+00        -0.45401E+07
 
    0.15059E+07         0.17542E+06         0.00000E+00
    0.17542E+06         0.36110E+07         0.00000E+00
    0.00000E+00         0.00000E+00        -0.48229E+07
 
   -0.88215E+05         0.81254E+06         0.00000E+00
    0.81254E+06         0.38742E+07         0.00000E+00
    0.00000E+00         0.00000E+00        -0.50872E+07
 
   -0.17248E+07         0.15925E+07         0.00000E+00
    0.15925E+07         0.42699E+07         0.00000E+00
    0.00000E+00         0.00000E+00        -0.53325E+07
 
   -0.33994E+07         0.25812E+07         0.00000E+00
    0.25812E+07         0.48066E+07         0.00000E+00
    0.00000E+00         0.00000E+00        -0.55564E+07
 
   -0.50418E+07         0.38564E+07         0.00000E+00
    0.38564E+07         0.54489E+07         0.00000E+00
    0.00000E+00         0.00000E+00        -0.57518E+07
 
    0.12052E+08        -0.10554E+06         0.00000E+00
   -0.10554E+06         0.18362E+07         0.00000E+00
    0.00000E+00         0.00000E+00        -0.30280E+07
 
    0.11023E+08        -0.27710E+06         0.00000E+00
   -0.27710E+06         0.17818E+07         0.00000E+00
    0.00000E+00         0.00000E+00        -0.32541E+07
 
    0.10129E+08        -0.41237E+06         0.00000E+00
   -0.41237E+06         0.15911E+07         0.00000E+00
    0.00000E+00         0.00000E+00        -0.34792E+07
 
    0.92946E+07        -0.62662E+06         0.00000E+00
   -0.62662E+06         0.14192E+07         0.00000E+00
    0.00000E+00         0.00000E+00        -0.36874E+07
 
    0.83417E+07        -0.86520E+06         0.00000E+00
   -0.86520E+06         0.13188E+07         0.00000E+00
    0.00000E+00         0.00000E+00        -0.39039E+07
 
    0.72076E+07        -0.10396E+07         0.00000E+00
   -0.10396E+07         0.13046E+07         0.00000E+00
    0.00000E+00         0.00000E+00        -0.41382E+07
 
    0.59057E+07        -0.10819E+07         0.00000E+00
   -0.10819E+07         0.13638E+07         0.00000E+00
    0.00000E+00         0.00000E+00        -0.43902E+07
 
    0.44915E+07        -0.95251E+06         0.00000E+00
   -0.95251E+06         0.14775E+07         0.00000E+00
    0.00000E+00         0.00000E+00        -0.46526E+07
 
    0.30295E+07        -0.64709E+06         0.00000E+00
   -0.64709E+06         0.16256E+07         0.00000E+00
    0.00000E+00         0.00000E+00        -0.49166E+07
 
    0.15622E+07        -0.18579E+06         0.00000E+00
   -0.18579E+06         0.18066E+07         0.00000E+00
    0.00000E+00         0.00000E+00        -0.51740E+07
 
    0.10137E+06         0.41354E+06         0.00000E+00
    0.41354E+06         0.20379E+07         0.00000E+00
    0.00000E+00         0.00000E+00        -0.54190E+07
 
   -0.13588E+07         0.11510E+07         0.00000E+00
    0.11510E+07         0.23420E+07         0.00000E+00
    0.00000E+00         0.00000E+00        -0.56483E+07
 
   -0.28205E+07         0.20478E+07         0.00000E+00
    0.20478E+07         0.27355E+07         0.00000E+00
    0.00000E+00         0.00000E+00        -0.58592E+07
 
   -0.42630E+07         0.31406E+07         0.00000E+00
    0.31406E+07         0.32164E+07         0.00000E+00
    0.00000E+00         0.00000E+00        -0.60479E+07
 
   -0.56284E+07         0.44646E+07         0.00000E+00
    0.44646E+07         0.37536E+07         0.00000E+00
    0.00000E+00         0.00000E+00        -0.62090E+07
 
    0.97881E+07        -0.14629E+06         0.00000E+00
   -0.14629E+06        -0.17388E+06         0.00000E+00
    0.00000E+00         0.00000E+00        -0.38847E+07
 
    0.88127E+07        -0.38309E+06         0.00000E+00
   -0.38309E+06        -0.24340E+06         0.00000E+00
    0.00000E+00         0.00000E+00        -0.41029E+07
 
    0.79256E+07        -0.57549E+06         0.00000E+00
   -0.57549E+06        -0.34926E+06         0.00000E+00
    0.00000E+00         0.00000E+00        -0.43095E+07
 
    0.70604E+07        -0.75381E+06         0.00000E+00
   -0.75381E+06        -0.46854E+06         0.00000E+00
    0.00000E+00         0.00000E+00        -0.45132E+07
 
    0.61376E+07        -0.91450E+06         0.00000E+00
   -0.91450E+06        -0.54146E+06         0.00000E+00
    0.00000E+00         0.00000E+00        -0.47180E+07
 
    0.51009E+07        -0.10076E+07         0.00000E+00
   -0.10076E+07        -0.54237E+06         0.00000E+00
    0.00000E+00         0.00000E+00        -0.49300E+07
 
    0.39459E+07        -0.98204E+06         0.00000E+00
   -0.98204E+06        -0.47103E+06         0.00000E+00
    0.00000E+00         0.00000E+00        -0.51501E+07
 
    0.27005E+07        -0.80451E+06         0.00000E+00
   -0.80451E+06        -0.34043E+06         0.00000E+00
    0.00000E+00         0.00000E+00        -0.53752E+07
 
    0.14038E+07        -0.46331E+06         0.00000E+00
   -0.46331E+06        -0.16393E+06         0.00000E+00
    0.00000E+00         0.00000E+00        -0.56004E+07
 
    0.87716E+05         0.37866E+05         0.00000E+00
    0.37866E+05         0.52944E+05         0.00000E+00
    0.00000E+00         0.00000E+00        -0.58204E+07
 
   -0.12291E+07         0.69211E+06         0.00000E+00
    0.69211E+06         0.31474E+06         0.00000E+00
    0.00000E+00         0.00000E+00        -0.60305E+07
 
   -0.25371E+07         0.14997E+07         0.00000E+00
    0.14997E+07         0.63079E+06         0.00000E+00
    0.00000E+00         0.00000E+00        -0.62270E+07
 
   -0.38243E+07         0.24712E+07         0.00000E+00
    0.24712E+07         0.10062E+07         0.00000E+00
    0.00000E+00         0.00000E+00        -0.64067E+07
 
   -0.50655E+07         0.36234E+07         0.00000E+00
    0.36234E+07         0.14339E+07         0.00000E+00
    0.00000E+00         0.00000E+00        -0.65658E+07
 
   -0.62154E+07         0.49678E+07         0.00000E+00
    0.49678E+07         0.18902E+07         0.00000E+00
    0.00000E+00         0.00000E+00        -0.67002E+07
 
    0.74566E+07        -0.17684E+06         0.00000E+00
   -0.17684E+06        -0.22014E+07         0.00000E+00
    0.00000E+00         0.00000E+00        -0.47589E+07
 
    0.65553E+07        -0.46017E+06         0.00000E+00
   -0.46017E+06        -0.22449E+07         0.00000E+00
    0.00000E+00         0.00000E+00        -0.49569E+07
 
    0.57102E+07        -0.67387E+06         0.00000E+00
   -0.67387E+06        -0.23161E+07         0.00000E+00
    0.00000E+00         0.00000E+00        -0.51479E+07
 
    0.48769E+07        -0.83575E+06         0.00000E+00
   -0.83575E+06        -0.23854E+07         0.00000E+00
    0.00000E+00         0.00000E+00        -0.53350E+07
 
    0.40071E+07        -0.94120E+06         0.00000E+00
   -0.94120E+06        -0.24239E+07         0.00000E+00
    0.00000E+00         0.00000E+00        -0.55221E+07
 
    0.30663E+07        -0.96547E+06         0.00000E+00
   -0.96547E+06        -0.24080E+07         0.00000E+00
    0.00000E+00         0.00000E+00        -0.57114E+07
 
    0.20443E+07        -0.87554E+06         0.00000E+00
   -0.87554E+06        -0.23311E+07         0.00000E+00
    0.00000E+00         0.00000E+00        -0.59036E+07
 
    0.95327E+06        -0.64528E+06         0.00000E+00
   -0.64528E+06        -0.21978E+07         0.00000E+00
    0.00000E+00         0.00000E+00        -0.60972E+07
 
   -0.18358E+06        -0.26084E+06         0.00000E+00
   -0.26084E+06        -0.20164E+07         0.00000E+00
    0.00000E+00         0.00000E+00        -0.62894E+07
 
   -0.13426E+07         0.28139E+06         0.00000E+00
    0.28139E+06        -0.17928E+07         0.00000E+00
    0.00000E+00         0.00000E+00        -0.64766E+07
 
   -0.25047E+07         0.98074E+06         0.00000E+00
    0.98074E+06        -0.15284E+07         0.00000E+00
    0.00000E+00         0.00000E+00        -0.66552E+07
 
   -0.36541E+07         0.18378E+07         0.00000E+00
    0.18378E+07        -0.12223E+07         0.00000E+00
    0.00000E+00         0.00000E+00        -0.68220E+07
 
   -0.47731E+07         0.28565E+07         0.00000E+00
    0.28565E+07        -0.87618E+06         0.00000E+00
    0.00000E+00         0.00000E+00        -0.69739E+07
 
   -0.58370E+07         0.40413E+07         0.00000E+00
    0.40413E+07        -0.49908E+06         0.00000E+00
    0.00000E+00         0.00000E+00        -0.71079E+07
 
   -0.68112E+07         0.53916E+07         0.00000E+00
    0.53916E+07        -0.10904E+06         0.00000E+00
    0.00000E+00         0.00000E+00        -0.72205E+07
 
    0.50786E+07        -0.19658E+06         0.00000E+00
   -0.19658E+06        -0.42265E+07         0.00000E+00
    0.00000E+00         0.00000E+00        -0.56424E+07
 
    0.42694E+07        -0.50913E+06         0.00000E+00
   -0.50913E+06        -0.42532E+07         0.00000E+00
    0.00000E+00         0.00000E+00        -0.58183E+07
 
    0.34946E+07        -0.73259E+06         0.00000E+00
   -0.73259E+06        -0.42940E+07         0.00000E+00
    0.00000E+00         0.00000E+00        -0.59890E+07
 
    0.27257E+07        -0.87850E+06         0.00000E+00
   -0.87850E+06        -0.43305E+07         0.00000E+00
    0.00000E+00         0.00000E+00        -0.61563E+07
 
    0.19328E+07        -0.94420E+06         0.00000E+00
   -0.94420E+06        -0.43418E+07         0.00000E+00
    0.00000E+00         0.00000E+00        -0.63223E+07
 
    0.10934E+07        -0.91468E+06         0.00000E+00
   -0.91468E+06        -0.43119E+07         0.00000E+00
    0.00000E+00         0.00000E+00        -0.64883E+07
 
    0.19854E+06        -0.76921E+06         0.00000E+00
   -0.76921E+06        -0.42328E+07         0.00000E+00
    0.00000E+00         0.00000E+00        -0.66545E+07
 
   -0.74716E+06        -0.48877E+06         0.00000E+00
   -0.48877E+06        -0.41046E+07         0.00000E+00
    0.00000E+00         0.00000E+00        -0.68200E+07
 
   -0.17300E+07        -0.60722E+05         0.00000E+00
   -0.60722E+05        -0.39316E+07         0.00000E+00
    0.00000E+00         0.00000E+00        -0.69829E+07
 
   -0.27327E+07         0.52093E+06         0.00000E+00
    0.52093E+06        -0.37188E+07         0.00000E+00
    0.00000E+00         0.00000E+00        -0.71409E+07
 
   -0.37382E+07         0.12581E+07         0.00000E+00
    0.12581E+07        -0.34697E+07         0.00000E+00
    0.00000E+00         0.00000E+00        -0.72913E+07
 
   -0.47299E+07         0.21511E+07         0.00000E+00
    0.21511E+07        -0.31878E+07         0.00000E+00
    0.00000E+00         0.00000E+00        -0.74315E+07
 
   -0.56894E+07         0.31998E+07         0.00000E+00
    0.31998E+07        -0.28782E+07         0.00000E+00
    0.00000E+00         0.00000E+00        -0.75588E+07
 
   -0.65944E+07         0.44021E+07         0.00000E+00
    0.44021E+07        -0.25500E+07         0.00000E+00
    0.00000E+00         0.00000E+00        -0.76709E+07
 
   -0.74189E+07         0.57509E+07         0.00000E+00
    0.57509E+07        -0.22170E+07         0.00000E+00
    0.00000E+00         0.00000E+00        -0.77652E+07
 
    0.26719E+07        -0.20748E+06         0.00000E+00
   -0.20748E+06        -0.62537E+07         0.00000E+00
    0.00000E+00         0.00000E+00        -0.65325E+07
 
    0.19678E+07        -0.53644E+06         0.00000E+00
   -0.53644E+06        -0.62672E+07         0.00000E+00
    0.00000E+00         0.00000E+00        -0.66845E+07
 
    0.12826E+07        -0.76302E+06         0.00000E+00
   -0.76302E+06        -0.62873E+07         0.00000E+00
    0.00000E+00         0.00000E+00        -0.68327E+07
 
    0.59974E+06        -0.89483E+06         0.00000E+00
   -0.89483E+06        -0.63015E+07         0.00000E+00
    0.00000E+00         0.00000E+00        -0.69781E+07
 
   -0.99443E+05        -0.92994E+06         0.00000E+00
   -0.92994E+06        -0.62956E+07         0.00000E+00
    0.00000E+00         0.00000E+00        -0.71216E+07
 
   -0.82972E+06        -0.85877E+06         0.00000E+00
   -0.85877E+06        -0.62578E+07         0.00000E+00
    0.00000E+00         0.00000E+00        -0.72640E+07
 
   -0.15982E+07        -0.66767E+06         0.00000E+00
   -0.66767E+06        -0.61811E+07         0.00000E+00
    0.00000E+00         0.00000E+00        -0.74051E+07
 
   -0.24034E+07        -0.34319E+06         0.00000E+00
   -0.34319E+06        -0.60635E+07         0.00000E+00
    0.00000E+00         0.00000E+00        -0.75445E+07
 
   -0.32372E+07         0.12477E+06         0.00000E+00
    0.12477E+06        -0.59070E+07         0.00000E+00
    0.00000E+00         0.00000E+00        -0.76808E+07
 
   -0.40871E+07         0.74206E+06         0.00000E+00
    0.74206E+06        -0.57152E+07         0.00000E+00
    0.00000E+00         0.00000E+00        -0.78124E+07
 
   -0.49389E+07         0.15109E+07         0.00000E+00
    0.15109E+07        -0.54923E+07         0.00000E+00
    0.00000E+00         0.00000E+00        -0.79373E+07
 
   -0.57776E+07         0.24308E+07         0.00000E+00
    0.24308E+07        -0.52431E+07         0.00000E+00
    0.00000E+00         0.00000E+00        -0.80535E+07
 
   -0.65864E+07         0.34993E+07         0.00000E+00
    0.34993E+07        -0.49739E+07         0.00000E+00
    0.00000E+00         0.00000E+00        -0.81589E+07
 
   -0.73467E+07         0.47108E+07         0.00000E+00
    0.47108E+07        -0.46931E+07         0.00000E+00
    0.00000E+00         0.00000E+00        -0.82516E+07
 
   -0.80387E+07         0.60552E+07         0.00000E+00
    0.60552E+07        -0.44114E+07         0.00000E+00
    0.00000E+00         0.00000E+00        -0.83298E+07
 
    0.25021E+06        -0.21226E+06         0.00000E+00
   -0.21226E+06        -0.82824E+07         0.00000E+00
    0.00000E+00         0.00000E+00        -0.74265E+07
 
   -0.34155E+06        -0.54900E+06         0.00000E+00
   -0.54900E+06        -0.82877E+07         0.00000E+00
    0.00000E+00         0.00000E+00        -0.75539E+07
 
   -0.92410E+06        -0.77527E+06         0.00000E+00
   -0.77527E+06        -0.82951E+07         0.00000E+00
    0.00000E+00         0.00000E+00        -0.76787E+07
 
   -0.15062E+07        -0.89511E+06         0.00000E+00
   -0.89511E+06        -0.82966E+07         0.00000E+00
    0.00000E+00         0.00000E+00        -0.78010E+07
 
   -0.20994E+07        -0.90662E+06         0.00000E+00
   -0.90662E+06        -0.82824E+07         0.00000E+00
    0.00000E+00         0.00000E+00        -0.79213E+07
 
   -0.27135E+07        -0.80316E+06         0.00000E+00
   -0.80316E+06        -0.82437E+07         0.00000E+00
    0.00000E+00         0.00000E+00        -0.80400E+07
 
   -0.33541E+07        -0.57547E+06         0.00000E+00
   -0.57547E+06        -0.81744E+07         0.00000E+00
    0.00000E+00         0.00000E+00        -0.81568E+07
 
   -0.40211E+07        -0.21417E+06         0.00000E+00
   -0.21417E+06        -0.80722E+07         0.00000E+00
    0.00000E+00         0.00000E+00        -0.82715E+07
 
   -0.47095E+07         0.28825E+06         0.00000E+00
    0.28825E+06        -0.79374E+07         0.00000E+00
    0.00000E+00         0.00000E+00        -0.83830E+07
 
   -0.54107E+07         0.93630E+06         0.00000E+00
    0.93630E+06        -0.77728E+07         0.00000E+00
    0.00000E+00         0.00000E+00        -0.84902E+07
 
   -0.61134E+07         0.17313E+07         0.00000E+00
    0.17313E+07        -0.75821E+07         0.00000E+00
    0.00000E+00         0.00000E+00        -0.85917E+07
 
   -0.68050E+07         0.26721E+07         0.00000E+00
    0.26721E+07        -0.73702E+07         0.00000E+00
    0.00000E+00         0.00000E+00        -0.86860E+07
 
   -0.74716E+07         0.37543E+07         0.00000E+00
    0.37543E+07        -0.71431E+07         0.00000E+00
    0.00000E+00         0.00000E+00        -0.87715E+07
 
   -0.80982E+07         0.49706E+07         0.00000E+00
    0.49706E+07        -0.69083E+07         0.00000E+00
    0.00000E+00         0.00000E+00        -0.88468E+07
 
   -0.86695E+07         0.63100E+07         0.00000E+00
    0.63100E+07        -0.66740E+07         0.00000E+00
    0.00000E+00         0.00000E+00        -0.89106E+07
 
   -0.21779E+07        -0.21360E+06         0.00000E+00
   -0.21360E+06        -0.10313E+08         0.00000E+00
    0.00000E+00         0.00000E+00        -0.83225E+07
 
   -0.26541E+07        -0.55328E+06         0.00000E+00
   -0.55328E+06        -0.10314E+08         0.00000E+00
    0.00000E+00         0.00000E+00        -0.84256E+07
 
   -0.31256E+07        -0.77795E+06         0.00000E+00
   -0.77795E+06        -0.10316E+08         0.00000E+00
    0.00000E+00         0.00000E+00        -0.85265E+07
 
   -0.35967E+07        -0.88828E+06         0.00000E+00
   -0.88828E+06        -0.10313E+08         0.00000E+00
    0.00000E+00         0.00000E+00        -0.86253E+07
 
   -0.40748E+07        -0.88185E+06         0.00000E+00
   -0.88185E+06        -0.10298E+08         0.00000E+00
    0.00000E+00         0.00000E+00        -0.87222E+07
 
   -0.45667E+07        -0.75364E+06         0.00000E+00
   -0.75364E+06        -0.10265E+08         0.00000E+00
    0.00000E+00         0.00000E+00        -0.88171E+07
 
   -0.50770E+07        -0.49716E+06         0.00000E+00
   -0.49716E+06        -0.10208E+08         0.00000E+00
    0.00000E+00         0.00000E+00        -0.89101E+07
 
   -0.56064E+07        -0.10596E+06         0.00000E+00
   -0.10596E+06        -0.10125E+08         0.00000E+00
    0.00000E+00         0.00000E+00        -0.90010E+07
 
   -0.61522E+07         0.42507E+06         0.00000E+00
    0.42507E+06        -0.10016E+08         0.00000E+00
    0.00000E+00         0.00000E+00        -0.90890E+07
 
   -0.67085E+07         0.10988E+07         0.00000E+00
    0.10988E+07        -0.98819E+07         0.00000E+00
    0.00000E+00         0.00000E+00        -0.91733E+07
 
   -0.72669E+07         0.19155E+07         0.00000E+00
    0.19155E+07        -0.97266E+07         0.00000E+00
    0.00000E+00         0.00000E+00        -0.92531E+07
 
   -0.78175E+07         0.28726E+07         0.00000E+00
    0.28726E+07        -0.95542E+07         0.00000E+00
    0.00000E+00         0.00000E+00        -0.93272E+07
 
   -0.83492E+07         0.39650E+07         0.00000E+00
    0.39650E+07        -0.93698E+07         0.00000E+00
    0.00000E+00         0.00000E+00        -0.93944E+07
 
   -0.88504E+07         0.51844E+07         0.00000E+00
    0.51844E+07        -0.91795E+07         0.00000E+00
    0.00000E+00         0.00000E+00        -0.94536E+07
 
   -0.93095E+07         0.65193E+07         0.00000E+00
    0.65193E+07        -0.89898E+07         0.00000E+00
    0.00000E+00         0.00000E+00        -0.95042E+07
 
   -0.46083E+07        -0.21375E+06         0.00000E+00
   -0.21375E+06        -0.12344E+08         0.00000E+00
    0.00000E+00         0.00000E+00        -0.92198E+07
 
   -0.49679E+07        -0.55483E+06         0.00000E+00
   -0.55483E+06        -0.12345E+08         0.00000E+00
    0.00000E+00         0.00000E+00        -0.92989E+07
 
   -0.53229E+07        -0.77828E+06         0.00000E+00
   -0.77828E+06        -0.12347E+08         0.00000E+00
    0.00000E+00         0.00000E+00        -0.93760E+07
 
   -0.56757E+07        -0.88185E+06         0.00000E+00
   -0.88185E+06        -0.12346E+08         0.00000E+00
    0.00000E+00         0.00000E+00        -0.94512E+07
 
   -0.60317E+07        -0.86233E+06         0.00000E+00
   -0.86233E+06        -0.12337E+08         0.00000E+00
    0.00000E+00         0.00000E+00        -0.95243E+07
 
   -0.63964E+07        -0.71554E+06         0.00000E+00
   -0.71554E+06        -0.12315E+08         0.00000E+00
    0.00000E+00         0.00000E+00        -0.95957E+07
 
   -0.67738E+07        -0.43683E+06         0.00000E+00
   -0.43683E+06        -0.12275E+08         0.00000E+00
    0.00000E+00         0.00000E+00        -0.96652E+07
 
   -0.71656E+07        -0.21924E+05         0.00000E+00
   -0.21924E+05        -0.12215E+08         0.00000E+00
    0.00000E+00         0.00000E+00        -0.97328E+07
 
   -0.75705E+07         0.53225E+06         0.00000E+00
    0.53225E+06        -0.12134E+08         0.00000E+00
    0.00000E+00         0.00000E+00        -0.97982E+07
 
   -0.79850E+07         0.12270E+07         0.00000E+00
    0.12270E+07        -0.12033E+08         0.00000E+00
    0.00000E+00         0.00000E+00        -0.98608E+07
 
   -0.84034E+07         0.20613E+07         0.00000E+00
    0.20613E+07        -0.11915E+08         0.00000E+00
    0.00000E+00         0.00000E+00        -0.99199E+07
 
   -0.88182E+07         0.30317E+07         0.00000E+00
    0.30317E+07        -0.11782E+08         0.00000E+00
    0.00000E+00         0.00000E+00        -0.99749E+07
 
   -0.92212E+07         0.41322E+07         0.00000E+00
    0.41322E+07        -0.11640E+08         0.00000E+00
    0.00000E+00         0.00000E+00        -0.10025E+08
 
   -0.96036E+07         0.53540E+07         0.00000E+00
    0.53540E+07        -0.11493E+08         0.00000E+00
    0.00000E+00         0.00000E+00        -0.10070E+08
 
   -0.99567E+07         0.66857E+07         0.00000E+00
    0.66857E+07        -0.11346E+08         0.00000E+00
    0.00000E+00         0.00000E+00        -0.10108E+08
 
   -0.70405E+07        -0.21453E+06         0.00000E+00
   -0.21453E+06        -0.14377E+08         0.00000E+00
    0.00000E+00         0.00000E+00        -0.10118E+08
 
   -0.72834E+07        -0.55810E+06         0.00000E+00
   -0.55810E+06        -0.14380E+08         0.00000E+00
    0.00000E+00         0.00000E+00        -0.10174E+08
 
   -0.75180E+07        -0.78211E+06         0.00000E+00
   -0.78211E+06        -0.14387E+08         0.00000E+00
    0.00000E+00         0.00000E+00        -0.10227E+08
 
   -0.77470E+07        -0.88192E+06         0.00000E+00
   -0.88192E+06        -0.14394E+08         0.00000E+00
    0.00000E+00         0.00000E+00        -0.10278E+08
 
   -0.79754E+07        -0.85357E+06         0.00000E+00
   -0.85357E+06        -0.14396E+08         0.00000E+00
    0.00000E+00         0.00000E+00        -0.10328E+08
 
   -0.82085E+07        -0.69334E+06         0.00000E+00
   -0.69334E+06        -0.14389E+08         0.00000E+00
    0.00000E+00         0.00000E+00        -0.10376E+08
 
   -0.84505E+07        -0.39790E+06         0.00000E+00
   -0.39790E+06        -0.14369E+08         0.00000E+00
    0.00000E+00         0.00000E+00        -0.10422E+08
 
   -0.87040E+07         0.35385E+05         0.00000E+00
    0.35385E+05        -0.14334E+08         0.00000E+00
    0.00000E+00         0.00000E+00        -0.10467E+08
 
   -0.89692E+07         0.60794E+06         0.00000E+00
    0.60794E+06        -0.14283E+08         0.00000E+00
    0.00000E+00         0.00000E+00        -0.10510E+08
 
   -0.92444E+07         0.13196E+07         0.00000E+00
    0.13196E+07        -0.14216E+08         0.00000E+00
    0.00000E+00         0.00000E+00        -0.10551E+08
 
   -0.95261E+07         0.21682E+07         0.00000E+00
    0.21682E+07        -0.14135E+08         0.00000E+00
    0.00000E+00         0.00000E+00        -0.10591E+08
 
   -0.98094E+07         0.31496E+07         0.00000E+00
    0.31496E+07        -0.14043E+08         0.00000E+00
    0.00000E+00         0.00000E+00        -0.10627E+08
 
   -0.10089E+08         0.42569E+07         0.00000E+00
    0.42569E+07        -0.13942E+08         0.00000E+00
    0.00000E+00         0.00000E+00        -0.10661E+08
 
   -0.10357E+08         0.54813E+07         0.00000E+00
    0.54813E+07        -0.13837E+08         0.00000E+00
    0.00000E+00         0.00000E+00        -0.10692E+08
 
   -0.10609E+08         0.68113E+07         0.00000E+00
    0.68113E+07        -0.13731E+08         0.00000E+00
    0.00000E+00         0.00000E+00        -0.10718E+08
 
   -0.94768E+07        -0.21730E+06         0.00000E+00
   -0.21730E+06        -0.16410E+08         0.00000E+00
    0.00000E+00         0.00000E+00        -0.11018E+08
 
   -0.96026E+07        -0.56651E+06         0.00000E+00
   -0.56651E+06        -0.16418E+08         0.00000E+00
    0.00000E+00         0.00000E+00        -0.11050E+08
 
   -0.97136E+07        -0.79393E+06         0.00000E+00
   -0.79393E+06        -0.16433E+08         0.00000E+00
    0.00000E+00         0.00000E+00        -0.11080E+08
 
   -0.98142E+07        -0.89322E+06         0.00000E+00
   -0.89322E+06        -0.16451E+08         0.00000E+00
    0.00000E+00         0.00000E+00        -0.11107E+08
 
   -0.99103E+07        -0.85984E+06         0.00000E+00
   -0.85984E+06        -0.16468E+08         0.00000E+00
    0.00000E+00         0.00000E+00        -0.11133E+08
 
   -0.10008E+08        -0.69049E+06         0.00000E+00
   -0.69049E+06        -0.16480E+08         0.00000E+00
    0.00000E+00         0.00000E+00        -0.11157E+08
 
   -0.10112E+08        -0.38287E+06         0.00000E+00
   -0.38287E+06        -0.16483E+08         0.00000E+00
    0.00000E+00         0.00000E+00        -0.11180E+08
 
   -0.10226E+08         0.64321E+05         0.00000E+00
    0.64321E+05        -0.16475E+08         0.00000E+00
    0.00000E+00         0.00000E+00        -0.11202E+08
 
   -0.10352E+08         0.65114E+06         0.00000E+00
    0.65114E+06        -0.16455E+08         0.00000E+00
    0.00000E+00         0.00000E+00        -0.11223E+08
 
   -0.10490E+08         0.13762E+07         0.00000E+00
    0.13762E+07        -0.16422E+08         0.00000E+00
    0.00000E+00         0.00000E+00        -0.11244E+08
 
   -0.10638E+08         0.22364E+07         0.00000E+00
    0.22364E+07        -0.16378E+08         0.00000E+00
    0.00000E+00         0.00000E+00        -0.11264E+08
 
   -0.10793E+08         0.32268E+07         0.00000E+00
    0.32268E+07        -0.16325E+08         0.00000E+00
    0.00000E+00         0.00000E+00        -0.11283E+08
 
   -0.10952E+08         0.43402E+07         0.00000E+00
    0.43402E+07        -0.16265E+08         0.00000E+00
    0.00000E+00         0.00000E+00        -0.11301E+08
 
   -0.11110E+08         0.55675E+07         0.00000E+00
    0.55675E+07        -0.16201E+08         0.00000E+00
    0.00000E+00         0.00000E+00        -0.11318E+08
 
   -0.11265E+08         0.68973E+07         0.00000E+00
    0.68973E+07        -0.16134E+08         0.00000E+00
    0.00000E+00         0.00000E+00        -0.11333E+08
 
   -0.11922E+08        -0.22306E+06         0.00000E+00
   -0.22306E+06        -0.18445E+08         0.00000E+00
    0.00000E+00         0.00000E+00        -0.11920E+08
 
   -0.11929E+08        -0.58252E+06         0.00000E+00
   -0.58252E+06        -0.18459E+08         0.00000E+00
    0.00000E+00         0.00000E+00        -0.11929E+08
 
   -0.11913E+08        -0.81701E+06         0.00000E+00
   -0.81701E+06        -0.18484E+08         0.00000E+00
    0.00000E+00         0.00000E+00        -0.11935E+08
 
   -0.11881E+08        -0.91912E+06         0.00000E+00
   -0.91912E+06        -0.18516E+08         0.00000E+00
    0.00000E+00         0.00000E+00        -0.11938E+08
 
   -0.11840E+08        -0.88414E+06         0.00000E+00
   -0.88414E+06        -0.18551E+08         0.00000E+00
    0.00000E+00         0.00000E+00        -0.11939E+08
 
   -0.11799E+08        -0.70928E+06         0.00000E+00
   -0.70928E+06        -0.18583E+08         0.00000E+00
    0.00000E+00         0.00000E+00        -0.11939E+08
 
   -0.11763E+08        -0.39323E+06         0.00000E+00
   -0.39323E+06        -0.18610E+08         0.00000E+00
    0.00000E+00         0.00000E+00        -0.11938E+08
 
   -0.11737E+08         0.64132E+05         0.00000E+00
    0.64132E+05        -0.18629E+08         0.00000E+00
    0.00000E+00         0.00000E+00        -0.11937E+08
 
   -0.11724E+08         0.66170E+06         0.00000E+00
    0.66170E+06        -0.18640E+08         0.00000E+00
    0.00000E+00         0.00000E+00        -0.11937E+08
 
   -0.11725E+08         0.13971E+07         0.00000E+00
    0.13971E+07        -0.18641E+08         0.00000E+00
    0.00000E+00         0.00000E+00        -0.11937E+08
 
   -0.11740E+08         0.22665E+07         0.00000E+00
    0.22665E+07        -0.18634E+08         0.00000E+00
    0.00000E+00         0.00000E+00        -0.11938E+08
 
   -0.11769E+08         0.32643E+07         0.00000E+00
    0.32643E+07        -0.18619E+08         0.00000E+00
    0.00000E+00         0.00000E+00        -0.11940E+08
 
   -0.11811E+08         0.43833E+07         0.00000E+00
    0.43833E+07        -0.18599E+08         0.00000E+00
    0.00000E+00         0.00000E+00        -0.11942E+08
 
   -0.11862E+08         0.56139E+07         0.00000E+00
    0.56139E+07        -0.18574E+08         0.00000E+00
    0.00000E+00         0.00000E+00        -0.11946E+08
 
   -0.11921E+08         0.69450E+07         0.00000E+00
    0.69450E+07        -0.18546E+08         0.00000E+00
    0.00000E+00         0.00000E+00        -0.11951E+08
 
   -0.14382E+08        -0.23246E+06         0.00000E+00
   -0.23246E+06        -0.20479E+08         0.00000E+00
    0.00000E+00         0.00000E+00        -0.12826E+08
 
   -0.14267E+08        -0.60779E+06         0.00000E+00
   -0.60779E+06        -0.20501E+08         0.00000E+00
    0.00000E+00         0.00000E+00        -0.12811E+08
 
   -0.14119E+08        -0.85344E+06         0.00000E+00
   -0.85344E+06        -0.20538E+08         0.00000E+00
    0.00000E+00         0.00000E+00        -0.12792E+08
 
   -0.13950E+08        -0.96167E+06         0.00000E+00
   -0.96167E+06        -0.20586E+08         0.00000E+00
    0.00000E+00         0.00000E+00        -0.12770E+08
 
   -0.13768E+08        -0.92810E+06         0.00000E+00
   -0.92810E+06        -0.20639E+08         0.00000E+00
    0.00000E+00         0.00000E+00        -0.12746E+08
 
   -0.13585E+08        -0.75074E+06         0.00000E+00
   -0.75074E+06        -0.20692E+08         0.00000E+00
    0.00000E+00         0.00000E+00        -0.12721E+08
 
   -0.13406E+08        -0.42935E+06         0.00000E+00
   -0.42935E+06        -0.20743E+08         0.00000E+00
    0.00000E+00         0.00000E+00        -0.12696E+08
 
   -0.13239E+08         0.35044E+05         0.00000E+00
    0.35044E+05        -0.20790E+08         0.00000E+00
    0.00000E+00         0.00000E+00        -0.12672E+08
 
   -0.13086E+08         0.64030E+06         0.00000E+00
    0.64030E+06        -0.20830E+08         0.00000E+00
    0.00000E+00         0.00000E+00        -0.12650E+08
 
   -0.12951E+08         0.13832E+07         0.00000E+00
    0.13832E+07        -0.20864E+08         0.00000E+00
    0.00000E+00         0.00000E+00        -0.12629E+08
 
   -0.12836E+08         0.22595E+07         0.00000E+00
    0.22595E+07        -0.20892E+08         0.00000E+00
    0.00000E+00         0.00000E+00        -0.12611E+08
 
   -0.12741E+08         0.32632E+07         0.00000E+00
    0.32632E+07        -0.20915E+08         0.00000E+00
    0.00000E+00         0.00000E+00        -0.12596E+08
 
   -0.12666E+08         0.43870E+07         0.00000E+00
    0.43870E+07        -0.20933E+08         0.00000E+00
    0.00000E+00         0.00000E+00        -0.12583E+08
 
   -0.12611E+08         0.56215E+07         0.00000E+00
    0.56215E+07        -0.20946E+08         0.00000E+00
    0.00000E+00         0.00000E+00        -0.12574E+08
 
   -0.12577E+08         0.69554E+07         0.00000E+00
    0.69554E+07        -0.20956E+08         0.00000E+00
    0.00000E+00         0.00000E+00        -0.12568E+08
 
   -0.16864E+08        -0.24589E+06         0.00000E+00
   -0.24589E+06        -0.22515E+08         0.00000E+00
    0.00000E+00         0.00000E+00        -0.13737E+08
 
   -0.16621E+08        -0.64319E+06         0.00000E+00
   -0.64319E+06        -0.22543E+08         0.00000E+00
    0.00000E+00         0.00000E+00        -0.13697E+08
 
   -0.16337E+08        -0.90420E+06         0.00000E+00
   -0.90420E+06        -0.22593E+08         0.00000E+00
    0.00000E+00         0.00000E+00        -0.13652E+08
 
   -0.16024E+08        -0.10216E+07         0.00000E+00
   -0.10216E+07        -0.22657E+08         0.00000E+00
    0.00000E+00         0.00000E+00        -0.13604E+08
 
   -0.15697E+08        -0.99201E+06         0.00000E+00
   -0.99201E+06        -0.22728E+08         0.00000E+00
    0.00000E+00         0.00000E+00        -0.13554E+08
 
   -0.15368E+08        -0.81455E+06         0.00000E+00
   -0.81455E+06        -0.22803E+08         0.00000E+00
    0.00000E+00         0.00000E+00        -0.13504E+08
 
   -0.15045E+08        -0.49033E+06         0.00000E+00
   -0.49033E+06        -0.22876E+08         0.00000E+00
    0.00000E+00         0.00000E+00        -0.13454E+08
 
   -0.14735E+08        -0.21621E+05         0.00000E+00
   -0.21621E+05        -0.22948E+08         0.00000E+00
    0.00000E+00         0.00000E+00        -0.13406E+08
 
   -0.14443E+08         0.58849E+06         0.00000E+00
    0.58849E+06        -0.23016E+08         0.00000E+00
    0.00000E+00         0.00000E+00        -0.13361E+08
 
   -0.14172E+08         0.13362E+07         0.00000E+00
    0.13362E+07        -0.23081E+08         0.00000E+00
    0.00000E+00         0.00000E+00        -0.13319E+08
 
   -0.13927E+08         0.22168E+07         0.00000E+00
    0.22168E+07        -0.23142E+08         0.00000E+00
    0.00000E+00         0.00000E+00        -0.13282E+08
 
   -0.13707E+08         0.32247E+07         0.00000E+00
    0.32247E+07        -0.23201E+08         0.00000E+00
    0.00000E+00         0.00000E+00        -0.13249E+08
 
   -0.13517E+08         0.43525E+07         0.00000E+00
    0.43525E+07        -0.23256E+08         0.00000E+00
    0.00000E+00         0.00000E+00        -0.13221E+08
 
   -0.13357E+08         0.55911E+07         0.00000E+00
    0.55911E+07        -0.23308E+08         0.00000E+00
    0.00000E+00         0.00000E+00        -0.13199E+08
 
   -0.13230E+08         0.69291E+07         0.00000E+00
    0.69291E+07        -0.23355E+08         0.00000E+00
    0.00000E+00         0.00000E+00        -0.13182E+08
 
   -0.19375E+08        -0.26351E+06         0.00000E+00
   -0.26351E+06        -0.24551E+08         0.00000E+00
    0.00000E+00         0.00000E+00        -0.14653E+08
 
   -0.18997E+08        -0.68894E+06         0.00000E+00
   -0.68894E+06        -0.24586E+08         0.00000E+00
    0.00000E+00         0.00000E+00        -0.14587E+08
 
   -0.18568E+08        -0.96928E+06         0.00000E+00
   -0.96928E+06        -0.24648E+08         0.00000E+00
    0.00000E+00         0.00000E+00        -0.14515E+08
 
   -0.18107E+08        -0.10985E+07         0.00000E+00
   -0.10985E+07        -0.24727E+08         0.00000E+00
    0.00000E+00         0.00000E+00        -0.14440E+08
 
   -0.17630E+08        -0.10747E+07         0.00000E+00
   -0.10747E+07        -0.24815E+08         0.00000E+00
    0.00000E+00         0.00000E+00        -0.14362E+08
 
   -0.17151E+08        -0.89892E+06         0.00000E+00
   -0.89892E+06        -0.24908E+08         0.00000E+00
    0.00000E+00         0.00000E+00        -0.14285E+08
 
   -0.16681E+08        -0.57390E+06         0.00000E+00
   -0.57390E+06        -0.25002E+08         0.00000E+00
    0.00000E+00         0.00000E+00        -0.14209E+08
 
   -0.16228E+08        -0.10330E+06         0.00000E+00
   -0.10330E+06        -0.25095E+08         0.00000E+00
    0.00000E+00         0.00000E+00        -0.14137E+08
 
   -0.15796E+08         0.50884E+06         0.00000E+00
    0.50884E+06        -0.25188E+08         0.00000E+00
    0.00000E+00         0.00000E+00        -0.14068E+08
 
   -0.15391E+08         0.12583E+07         0.00000E+00
    0.12583E+07        -0.25281E+08         0.00000E+00
    0.00000E+00         0.00000E+00        -0.14005E+08
 
   -0.15015E+08         0.21405E+07         0.00000E+00
    0.21405E+07        -0.25373E+08         0.00000E+00
    0.00000E+00         0.00000E+00        -0.13948E+08
 
   -0.14671E+08         0.31500E+07         0.00000E+00
    0.31500E+07        -0.25466E+08         0.00000E+00
    0.00000E+00         0.00000E+00        -0.13898E+08
 
   -0.14365E+08         0.42804E+07         0.00000E+00
    0.42804E+07        -0.25557E+08         0.00000E+00
    0.00000E+00         0.00000E+00        -0.13855E+08
 
   -0.14099E+08         0.55229E+07         0.00000E+00
    0.55229E+07        -0.25647E+08         0.00000E+00
    0.00000E+00         0.00000E+00        -0.13819E+08
 
   -0.13878E+08         0.68664E+07         0.00000E+00
    0.68664E+07        -0.25731E+08         0.00000E+00
    0.00000E+00         0.00000E+00        -0.13792E+08
 
   -0.21924E+08        -0.28522E+06         0.00000E+00
   -0.28522E+06        -0.26587E+08         0.00000E+00
    0.00000E+00         0.00000E+00        -0.15578E+08
 
   -0.21400E+08        -0.74459E+06         0.00000E+00
   -0.74459E+06        -0.26629E+08         0.00000E+00
    0.00000E+00         0.00000E+00        -0.15483E+08
 
   -0.20817E+08        -0.10476E+07         0.00000E+00
   -0.10476E+07        -0.26702E+08         0.00000E+00
    0.00000E+00         0.00000E+00        -0.15382E+08
 
   -0.20199E+08        -0.11903E+07         0.00000E+00
   -0.11903E+07        -0.26794E+08         0.00000E+00
    0.00000E+00         0.00000E+00        -0.15277E+08
 
   -0.19566E+08        -0.11734E+07         0.00000E+00
   -0.11734E+07        -0.26896E+08         0.00000E+00
    0.00000E+00         0.00000E+00        -0.15170E+08
 
   -0.18935E+08        -0.10004E+07         0.00000E+00
   -0.10004E+07        -0.27003E+08         0.00000E+00
    0.00000E+00         0.00000E+00        -0.15065E+08
 
   -0.18317E+08        -0.67616E+06         0.00000E+00
   -0.67616E+06        -0.27112E+08         0.00000E+00
    0.00000E+00         0.00000E+00        -0.14962E+08
 
   -0.17720E+08        -0.20601E+06         0.00000E+00
   -0.20601E+06        -0.27223E+08         0.00000E+00
    0.00000E+00         0.00000E+00        -0.14864E+08
 
   -0.17150E+08         0.40509E+06         0.00000E+00
    0.40509E+06        -0.27336E+08         0.00000E+00
    0.00000E+00         0.00000E+00        -0.14771E+08
 
   -0.16610E+08         0.11527E+07         0.00000E+00
    0.11527E+07        -0.27452E+08         0.00000E+00
    0.00000E+00         0.00000E+00        -0.14686E+08
 
   -0.16103E+08         0.20327E+07         0.00000E+00
    0.20327E+07        -0.27573E+08         0.00000E+00
    0.00000E+00         0.00000E+00        -0.14609E+08
 
   -0.15635E+08         0.30407E+07         0.00000E+00
    0.30407E+07        -0.27697E+08         0.00000E+00
    0.00000E+00         0.00000E+00        -0.14540E+08
 
   -0.15211E+08         0.41713E+07         0.00000E+00
    0.41713E+07        -0.27824E+08         0.00000E+00
    0.00000E+00         0.00000E+00        -0.14481E+08
 
   -0.14836E+08         0.54167E+07         0.00000E+00
    0.54167E+07        -0.27951E+08         0.00000E+00
    0.00000E+00         0.00000E+00        -0.14432E+08
 
   -0.14520E+08         0.67666E+07         0.00000E+00
    0.67666E+07        -0.28073E+08         0.00000E+00
    0.00000E+00         0.00000E+00        -0.14393E+08
 
   -0.24516E+08        -0.31069E+06         0.00000E+00
   -0.31069E+06        -0.28623E+08         0.00000E+00
    0.00000E+00         0.00000E+00        -0.16512E+08
 
   -0.23832E+08        -0.80911E+06         0.00000E+00
   -0.80911E+06        -0.28672E+08         0.00000E+00
    0.00000E+00         0.00000E+00        -0.16385E+08
 
   -0.23084E+08        -0.11370E+07         0.00000E+00
   -0.11370E+07        -0.28753E+08         0.00000E+00
    0.00000E+00         0.00000E+00        -0.16251E+08
 
   -0.22301E+08        -0.12938E+07         0.00000E+00
   -0.12938E+07        -0.28854E+08         0.00000E+00
    0.00000E+00         0.00000E+00        -0.16114E+08
 
   -0.21508E+08        -0.12838E+07         0.00000E+00
   -0.12838E+07        -0.28966E+08         0.00000E+00
    0.00000E+00         0.00000E+00        -0.15977E+08
 
   -0.20722E+08        -0.11137E+07         0.00000E+00
   -0.11137E+07        -0.29081E+08         0.00000E+00
    0.00000E+00         0.00000E+00        -0.15841E+08
 
   -0.19955E+08        -0.79144E+06         0.00000E+00
   -0.79144E+06        -0.29199E+08         0.00000E+00
    0.00000E+00         0.00000E+00        -0.15710E+08
 
   -0.19216E+08        -0.32414E+06         0.00000E+00
   -0.32414E+06        -0.29321E+08         0.00000E+00
    0.00000E+00         0.00000E+00        -0.15585E+08
 
   -0.18507E+08         0.28231E+06         0.00000E+00
    0.28231E+06        -0.29448E+08         0.00000E+00
    0.00000E+00         0.00000E+00        -0.15468E+08
 
   -0.17833E+08         0.10236E+07         0.00000E+00
    0.10236E+07        -0.29582E+08         0.00000E+00
    0.00000E+00         0.00000E+00        -0.15359E+08
 
   -0.17197E+08         0.18965E+07         0.00000E+00
    0.18965E+07        -0.29727E+08         0.00000E+00
    0.00000E+00         0.00000E+00        -0.15261E+08
 
   -0.16602E+08         0.28983E+07         0.00000E+00
    0.28983E+07        -0.29881E+08         0.00000E+00
    0.00000E+00         0.00000E+00        -0.15173E+08
 
   -0.16057E+08         0.40253E+07         0.00000E+00
    0.40253E+07        -0.30043E+08         0.00000E+00
    0.00000E+00         0.00000E+00        -0.15098E+08
 
   -0.15570E+08         0.52719E+07         0.00000E+00
    0.52719E+07        -0.30208E+08         0.00000E+00
    0.00000E+00         0.00000E+00        -0.15034E+08
 
   -0.15153E+08         0.66286E+07         0.00000E+00
    0.66286E+07        -0.30369E+08         0.00000E+00
    0.00000E+00         0.00000E+00        -0.14984E+08
 
   -0.27159E+08        -0.33955E+06         0.00000E+00
   -0.33955E+06        -0.30660E+08         0.00000E+00
    0.00000E+00         0.00000E+00        -0.17455E+08
 
   -0.26298E+08        -0.88061E+06         0.00000E+00
   -0.88061E+06        -0.30713E+08         0.00000E+00
    0.00000E+00         0.00000E+00        -0.17293E+08
 
   -0.25370E+08        -0.12341E+07         0.00000E+00
   -0.12341E+07        -0.30800E+08         0.00000E+00
    0.00000E+00         0.00000E+00        -0.17124E+08
 
   -0.24413E+08        -0.14039E+07         0.00000E+00
   -0.14039E+07        -0.30906E+08         0.00000E+00
    0.00000E+00         0.00000E+00        -0.16952E+08
 
   -0.23454E+08        -0.13992E+07         0.00000E+00
   -0.13992E+07        -0.31019E+08         0.00000E+00
    0.00000E+00         0.00000E+00        -0.16781E+08
 
   -0.22511E+08        -0.12315E+07         0.00000E+00
   -0.12315E+07        -0.31135E+08         0.00000E+00
    0.00000E+00         0.00000E+00        -0.16614E+08
 
   -0.21597E+08        -0.91203E+06         0.00000E+00
   -0.91203E+06        -0.31254E+08         0.00000E+00
    0.00000E+00         0.00000E+00        -0.16453E+08
 
   -0.20717E+08        -0.45027E+06         0.00000E+00
   -0.45027E+06        -0.31377E+08         0.00000E+00
    0.00000E+00         0.00000E+00        -0.16299E+08
 
   -0.19873E+08         0.14706E+06         0.00000E+00
    0.14706E+06        -0.31510E+08         0.00000E+00
    0.00000E+00         0.00000E+00        -0.16156E+08
 
   -0.19067E+08         0.87609E+06         0.00000E+00
    0.87609E+06        -0.31657E+08         0.00000E+00
    0.00000E+00         0.00000E+00        -0.16024E+08
 
   -0.18301E+08         0.17352E+07         0.00000E+00
    0.17352E+07        -0.31820E+08         0.00000E+00
    0.00000E+00         0.00000E+00        -0.15903E+08
 
   -0.17578E+08         0.27242E+07         0.00000E+00
    0.27242E+07        -0.32001E+08         0.00000E+00
    0.00000E+00         0.00000E+00        -0.15796E+08
 
   -0.16907E+08         0.38423E+07         0.00000E+00
    0.38423E+07        -0.32197E+08         0.00000E+00
    0.00000E+00         0.00000E+00        -0.15703E+08
 
   -0.16301E+08         0.50865E+07         0.00000E+00
    0.50865E+07        -0.32402E+08         0.00000E+00
    0.00000E+00         0.00000E+00        -0.15624E+08
 
   -0.15776E+08         0.64496E+07         0.00000E+00
    0.64496E+07        -0.32606E+08         0.00000E+00
    0.00000E+00         0.00000E+00        -0.15562E+08
 
   -0.29856E+08        -0.37116E+06         0.00000E+00
   -0.37116E+06        -0.32696E+08         0.00000E+00
    0.00000E+00         0.00000E+00        -0.18410E+08
 
   -0.28797E+08        -0.95678E+06         0.00000E+00
   -0.95678E+06        -0.32752E+08         0.00000E+00
    0.00000E+00         0.00000E+00        -0.18208E+08
 
   -0.27675E+08        -0.13342E+07         0.00000E+00
   -0.13342E+07        -0.32841E+08         0.00000E+00
    0.00000E+00         0.00000E+00        -0.17999E+08
 
   -0.26532E+08        -0.15136E+07         0.00000E+00
   -0.15136E+07        -0.32945E+08         0.00000E+00
    0.00000E+00         0.00000E+00        -0.17789E+08
 
   -0.25402E+08        -0.15111E+07         0.00000E+00
   -0.15111E+07        -0.33051E+08         0.00000E+00
    0.00000E+00         0.00000E+00        -0.17581E+08
 
   -0.24302E+08        -0.13439E+07         0.00000E+00
   -0.13439E+07        -0.33157E+08         0.00000E+00
    0.00000E+00         0.00000E+00        -0.17380E+08
 
   -0.23244E+08        -0.10279E+07         0.00000E+00
   -0.10279E+07        -0.33264E+08         0.00000E+00
    0.00000E+00         0.00000E+00        -0.17187E+08
 
   -0.22228E+08        -0.57495E+06         0.00000E+00
   -0.57495E+06        -0.33379E+08         0.00000E+00
    0.00000E+00         0.00000E+00        -0.17005E+08
 
   -0.21254E+08         0.75396E+04         0.00000E+00
    0.75396E+04        -0.33508E+08         0.00000E+00
    0.00000E+00         0.00000E+00        -0.16835E+08
 
   -0.20319E+08         0.71660E+06         0.00000E+00
    0.71660E+06        -0.33658E+08         0.00000E+00
    0.00000E+00         0.00000E+00        -0.16677E+08
 
   -0.19423E+08         0.15530E+07         0.00000E+00
    0.15530E+07        -0.33835E+08         0.00000E+00
    0.00000E+00         0.00000E+00        -0.16534E+08
 
   -0.18569E+08         0.25200E+07         0.00000E+00
    0.25200E+07        -0.34041E+08         0.00000E+00
    0.00000E+00         0.00000E+00        -0.16406E+08
 
   -0.17767E+08         0.36210E+07         0.00000E+00
    0.36210E+07        -0.34271E+08         0.00000E+00
    0.00000E+00         0.00000E+00        -0.16294E+08
 
   -0.17032E+08         0.48576E+07         0.00000E+00
    0.48576E+07        -0.34518E+08         0.00000E+00
    0.00000E+00         0.00000E+00        -0.16199E+08
 
   -0.16387E+08         0.62258E+07         0.00000E+00
    0.62258E+07        -0.34769E+08         0.00000E+00
    0.00000E+00         0.00000E+00        -0.16123E+08
 
   -0.32613E+08        -0.40472E+06         0.00000E+00
   -0.40472E+06        -0.34733E+08         0.00000E+00
    0.00000E+00         0.00000E+00        -0.19377E+08
 
   -0.31329E+08        -0.10344E+07         0.00000E+00
   -0.10344E+07        -0.34790E+08         0.00000E+00
    0.00000E+00         0.00000E+00        -0.19129E+08
 
   -0.29993E+08        -0.14308E+07         0.00000E+00
   -0.14308E+07        -0.34875E+08         0.00000E+00
    0.00000E+00         0.00000E+00        -0.18875E+08
 
   -0.28654E+08        -0.16134E+07         0.00000E+00
   -0.16134E+07        -0.34966E+08         0.00000E+00
    0.00000E+00         0.00000E+00        -0.18622E+08
 
   -0.27349E+08        -0.16076E+07         0.00000E+00
   -0.16076E+07        -0.35054E+08         0.00000E+00
    0.00000E+00         0.00000E+00        -0.18375E+08
 
   -0.26095E+08        -0.14384E+07         0.00000E+00
   -0.14384E+07        -0.35135E+08         0.00000E+00
    0.00000E+00         0.00000E+00        -0.18137E+08
 
   -0.24898E+08        -0.11266E+07         0.00000E+00
   -0.11266E+07        -0.35218E+08         0.00000E+00
    0.00000E+00         0.00000E+00        -0.17911E+08
 
   -0.23754E+08        -0.68666E+06         0.00000E+00
   -0.68666E+06        -0.35310E+08         0.00000E+00
    0.00000E+00         0.00000E+00        -0.17699E+08
 
   -0.22657E+08        -0.12642E+06         0.00000E+00
   -0.12642E+06        -0.35424E+08         0.00000E+00
    0.00000E+00         0.00000E+00        -0.17501E+08
 
   -0.21599E+08         0.55268E+06         0.00000E+00
    0.55268E+06        -0.35569E+08         0.00000E+00
    0.00000E+00         0.00000E+00        -0.17319E+08
 
   -0.20575E+08         0.13545E+07         0.00000E+00
    0.13545E+07        -0.35753E+08         0.00000E+00
    0.00000E+00         0.00000E+00        -0.17152E+08
 
   -0.19587E+08         0.22870E+07         0.00000E+00
    0.22870E+07        -0.35979E+08         0.00000E+00
    0.00000E+00         0.00000E+00        -0.17001E+08
 
   -0.18645E+08         0.33597E+07         0.00000E+00
    0.33597E+07        -0.36244E+08         0.00000E+00
    0.00000E+00         0.00000E+00        -0.16869E+08
 
   -0.17768E+08         0.45803E+07         0.00000E+00
    0.45803E+07        -0.36538E+08         0.00000E+00
    0.00000E+00         0.00000E+00        -0.16756E+08
 
   -0.16987E+08         0.59505E+07         0.00000E+00
    0.59505E+07        -0.36843E+08         0.00000E+00
    0.00000E+00         0.00000E+00        -0.16664E+08
 
   -0.35429E+08        -0.43934E+06         0.00000E+00
   -0.43934E+06        -0.36770E+08         0.00000E+00
    0.00000E+00         0.00000E+00        -0.20356E+08
 
   -0.33889E+08        -0.11090E+07         0.00000E+00
   -0.11090E+07        -0.36824E+08         0.00000E+00
    0.00000E+00         0.00000E+00        -0.20055E+08
 
   -0.32316E+08        -0.15150E+07         0.00000E+00
   -0.15150E+07        -0.36897E+08         0.00000E+00
    0.00000E+00         0.00000E+00        -0.19750E+08
 
   -0.30771E+08        -0.16905E+07         0.00000E+00
   -0.16905E+07        -0.36964E+08         0.00000E+00
    0.00000E+00         0.00000E+00        -0.19450E+08
 
   -0.29290E+08        -0.16737E+07         0.00000E+00
   -0.16737E+07        -0.37016E+08         0.00000E+00
    0.00000E+00         0.00000E+00        -0.19160E+08
 
   -0.27889E+08        -0.14991E+07         0.00000E+00
   -0.14991E+07        -0.37057E+08         0.00000E+00
    0.00000E+00         0.00000E+00        -0.18883E+08
 
   -0.26563E+08        -0.11931E+07         0.00000E+00
   -0.11931E+07        -0.37097E+08         0.00000E+00
    0.00000E+00         0.00000E+00        -0.18623E+08
 
   -0.25302E+08        -0.77204E+06         0.00000E+00
   -0.77204E+06        -0.37153E+08         0.00000E+00
    0.00000E+00         0.00000E+00        -0.18380E+08
 
   -0.24092E+08        -0.24352E+06         0.00000E+00
   -0.24352E+06        -0.37238E+08         0.00000E+00
    0.00000E+00         0.00000E+00        -0.18155E+08
 
   -0.22918E+08         0.39299E+06         0.00000E+00
    0.39299E+06        -0.37367E+08         0.00000E+00
    0.00000E+00         0.00000E+00        -0.17946E+08
 
   -0.21770E+08         0.11452E+07         0.00000E+00
    0.11452E+07        -0.37551E+08         0.00000E+00
    0.00000E+00         0.00000E+00        -0.17754E+08
 
   -0.20646E+08         0.20267E+07         0.00000E+00
    0.20267E+07        -0.37794E+08         0.00000E+00
    0.00000E+00         0.00000E+00        -0.17581E+08
 
   -0.19554E+08         0.30552E+07         0.00000E+00
    0.30552E+07        -0.38095E+08         0.00000E+00
    0.00000E+00         0.00000E+00        -0.17426E+08
 
   -0.18517E+08         0.42476E+07         0.00000E+00
    0.42476E+07        -0.38442E+08         0.00000E+00
    0.00000E+00         0.00000E+00        -0.17292E+08
 
   -0.17574E+08         0.56144E+07         0.00000E+00
    0.56144E+07        -0.38810E+08         0.00000E+00
    0.00000E+00         0.00000E+00        -0.17182E+08
 
   -0.38303E+08        -0.47380E+06         0.00000E+00
   -0.47380E+06        -0.38806E+08         0.00000E+00
    0.00000E+00         0.00000E+00        -0.21347E+08
 
   -0.36466E+08        -0.11743E+07         0.00000E+00
   -0.11743E+07        -0.38853E+08         0.00000E+00
    0.00000E+00         0.00000E+00        -0.20983E+08
 
   -0.34631E+08        -0.15742E+07         0.00000E+00
   -0.15742E+07        -0.38903E+08         0.00000E+00
    0.00000E+00         0.00000E+00        -0.20619E+08
 
   -0.32871E+08        -0.17275E+07         0.00000E+00
   -0.17275E+07        -0.38928E+08         0.00000E+00
    0.00000E+00         0.00000E+00        -0.20266E+08
 
   -0.31220E+08        -0.16902E+07         0.00000E+00
   -0.16902E+07        -0.38924E+08         0.00000E+00
    0.00000E+00         0.00000E+00        -0.19930E+08
 
   -0.29682E+08        -0.15078E+07         0.00000E+00
   -0.15078E+07        -0.38902E+08         0.00000E+00
    0.00000E+00         0.00000E+00        -0.19614E+08
 
   -0.28243E+08        -0.12108E+07         0.00000E+00
   -0.12108E+07        -0.38883E+08         0.00000E+00
    0.00000E+00         0.00000E+00        -0.19320E+08
 
   -0.26881E+08        -0.81662E+06         0.00000E+00
   -0.81662E+06        -0.38886E+08         0.00000E+00
    0.00000E+00         0.00000E+00        -0.19046E+08
 
   -0.25572E+08        -0.33163E+06         0.00000E+00
   -0.33163E+06        -0.38929E+08         0.00000E+00
    0.00000E+00         0.00000E+00        -0.18793E+08
 
   -0.24293E+08         0.24711E+06         0.00000E+00
    0.24711E+06        -0.39031E+08         0.00000E+00
    0.00000E+00         0.00000E+00        -0.18558E+08
 
   -0.23027E+08         0.93116E+06         0.00000E+00
    0.93116E+06        -0.39206E+08         0.00000E+00
    0.00000E+00         0.00000E+00        -0.18342E+08
 
   -0.21764E+08         0.17407E+07         0.00000E+00
    0.17407E+07        -0.39462E+08         0.00000E+00
    0.00000E+00         0.00000E+00        -0.18143E+08
 
   -0.20510E+08         0.27032E+07         0.00000E+00
    0.27032E+07        -0.39800E+08         0.00000E+00
    0.00000E+00         0.00000E+00        -0.17964E+08
 
   -0.19289E+08         0.38494E+07         0.00000E+00
    0.38494E+07        -0.40208E+08         0.00000E+00
    0.00000E+00         0.00000E+00        -0.17806E+08
 
   -0.18153E+08         0.52037E+07         0.00000E+00
    0.52037E+07        -0.40655E+08         0.00000E+00
    0.00000E+00         0.00000E+00        -0.17673E+08
 
   -0.41229E+08        -0.50650E+06         0.00000E+00
   -0.50650E+06        -0.40842E+08         0.00000E+00
    0.00000E+00         0.00000E+00        -0.22348E+08
 
   -0.39041E+08        -0.12203E+07         0.00000E+00
   -0.12203E+07        -0.40875E+08         0.00000E+00
    0.00000E+00         0.00000E+00        -0.21909E+08
 
   -0.36918E+08        -0.15891E+07         0.00000E+00
   -0.15891E+07        -0.40883E+08         0.00000E+00
    0.00000E+00         0.00000E+00        -0.21478E+08
 
   -0.34941E+08        -0.17005E+07         0.00000E+00
   -0.17005E+07        -0.40839E+08         0.00000E+00
    0.00000E+00         0.00000E+00        -0.21066E+08
 
   -0.33133E+08        -0.16337E+07         0.00000E+00
   -0.16337E+07        -0.40752E+08         0.00000E+00
    0.00000E+00         0.00000E+00        -0.20682E+08
 
   -0.31478E+08        -0.14438E+07         0.00000E+00
   -0.14438E+07        -0.40646E+08         0.00000E+00
    0.00000E+00         0.00000E+00        -0.20325E+08
 
   -0.29946E+08        -0.11628E+07         0.00000E+00
   -0.11628E+07        -0.40548E+08         0.00000E+00
    0.00000E+00         0.00000E+00        -0.19997E+08
 
   -0.28502E+08        -0.80653E+06         0.00000E+00
   -0.80653E+06        -0.40483E+08         0.00000E+00
    0.00000E+00         0.00000E+00        -0.19694E+08
 
   -0.27110E+08        -0.37901E+06         0.00000E+00
   -0.37901E+06        -0.40474E+08         0.00000E+00
    0.00000E+00         0.00000E+00        -0.19414E+08
 
   -0.25741E+08         0.12493E+06         0.00000E+00
    0.12493E+06        -0.40539E+08         0.00000E+00
    0.00000E+00         0.00000E+00        -0.19154E+08
 
   -0.24367E+08         0.71984E+06         0.00000E+00
    0.71984E+06        -0.40695E+08         0.00000E+00
    0.00000E+00         0.00000E+00        -0.18913E+08
 
   -0.22967E+08         0.14315E+07         0.00000E+00
    0.14315E+07        -0.40958E+08         0.00000E+00
    0.00000E+00         0.00000E+00        -0.18689E+08
 
   -0.21538E+08         0.22991E+07         0.00000E+00
    0.22991E+07        -0.41334E+08         0.00000E+00
    0.00000E+00         0.00000E+00        -0.18483E+08
 
   -0.20104E+08         0.33721E+07         0.00000E+00
    0.33721E+07        -0.41812E+08         0.00000E+00
    0.00000E+00         0.00000E+00        -0.18297E+08
 
   -0.18726E+08         0.46982E+07         0.00000E+00
    0.46982E+07        -0.42358E+08         0.00000E+00
    0.00000E+00         0.00000E+00        -0.18136E+08
 
   -0.44194E+08        -0.53475E+06         0.00000E+00
   -0.53475E+06        -0.42877E+08         0.00000E+00
    0.00000E+00         0.00000E+00        -0.23356E+08
 
   -0.41586E+08        -0.12293E+07         0.00000E+00
   -0.12293E+07        -0.42882E+08         0.00000E+00
    0.00000E+00         0.00000E+00        -0.22825E+08
 
   -0.39149E+08        -0.15292E+07         0.00000E+00
   -0.15292E+07        -0.42815E+08         0.00000E+00
    0.00000E+00         0.00000E+00        -0.22315E+08
 
   -0.36967E+08        -0.15771E+07         0.00000E+00
   -0.15771E+07        -0.42663E+08         0.00000E+00
    0.00000E+00         0.00000E+00        -0.21840E+08
 
   -0.35028E+08        -0.14775E+07         0.00000E+00
   -0.14775E+07        -0.42461E+08         0.00000E+00
    0.00000E+00         0.00000E+00        -0.21406E+08
 
   -0.33285E+08        -0.12878E+07         0.00000E+00
   -0.12878E+07        -0.42249E+08         0.00000E+00
    0.00000E+00         0.00000E+00        -0.21011E+08
 
   -0.31684E+08        -0.10354E+07         0.00000E+00
   -0.10354E+07        -0.42059E+08         0.00000E+00
    0.00000E+00         0.00000E+00        -0.20651E+08
 
   -0.30178E+08        -0.73125E+06         0.00000E+00
   -0.73125E+06        -0.41919E+08         0.00000E+00
    0.00000E+00         0.00000E+00        -0.20321E+08
 
   -0.28724E+08        -0.37650E+06         0.00000E+00
   -0.37650E+06        -0.41849E+08         0.00000E+00
    0.00000E+00         0.00000E+00        -0.20017E+08
 
   -0.27282E+08         0.35457E+05         0.00000E+00
    0.35457E+05        -0.41869E+08         0.00000E+00
    0.00000E+00         0.00000E+00        -0.19734E+08
 
   -0.25814E+08         0.51998E+06         0.00000E+00
    0.51998E+06        -0.41999E+08         0.00000E+00
    0.00000E+00         0.00000E+00        -0.19469E+08
 
   -0.24285E+08         0.11051E+07         0.00000E+00
    0.11051E+07        -0.42259E+08         0.00000E+00
    0.00000E+00         0.00000E+00        -0.19220E+08
 
   -0.22674E+08         0.18396E+07         0.00000E+00
    0.18396E+07        -0.42669E+08         0.00000E+00
    0.00000E+00         0.00000E+00        -0.18984E+08
 
   -0.20990E+08         0.27982E+07         0.00000E+00
    0.27982E+07        -0.43228E+08         0.00000E+00
    0.00000E+00         0.00000E+00        -0.18764E+08
 
   -0.19305E+08         0.40687E+07         0.00000E+00
    0.40687E+07        -0.43899E+08         0.00000E+00
    0.00000E+00         0.00000E+00        -0.18568E+08
 
   -0.47170E+08        -0.55222E+06         0.00000E+00
   -0.55222E+06        -0.44908E+08         0.00000E+00
    0.00000E+00         0.00000E+00        -0.24366E+08
 
   -0.44047E+08        -0.11643E+07         0.00000E+00
   -0.11643E+07        -0.44851E+08         0.00000E+00
    0.00000E+00         0.00000E+00        -0.23717E+08
 
   -0.41294E+08        -0.13437E+07         0.00000E+00
   -0.13437E+07        -0.44648E+08         0.00000E+00
    0.00000E+00         0.00000E+00        -0.23115E+08
 
   -0.38945E+08        -0.13174E+07         0.00000E+00
   -0.13174E+07        -0.44337E+08         0.00000E+00
    0.00000E+00         0.00000E+00        -0.22574E+08
 
   -0.36916E+08        -0.11981E+07         0.00000E+00
   -0.11981E+07        -0.43992E+08         0.00000E+00
    0.00000E+00         0.00000E+00        -0.22094E+08
 
   -0.35116E+08        -0.10277E+07         0.00000E+00
   -0.10277E+07        -0.43662E+08         0.00000E+00
    0.00000E+00         0.00000E+00        -0.21665E+08
 
   -0.33471E+08        -0.82252E+06         0.00000E+00
   -0.82252E+06        -0.43379E+08         0.00000E+00
    0.00000E+00         0.00000E+00        -0.21278E+08
 
   -0.31925E+08        -0.58726E+06         0.00000E+00
   -0.58726E+06        -0.43163E+08         0.00000E+00
    0.00000E+00         0.00000E+00        -0.20926E+08
 
   -0.30428E+08        -0.32043E+06         0.00000E+00
   -0.32043E+06        -0.43033E+08         0.00000E+00
    0.00000E+00         0.00000E+00        -0.20601E+08
 
   -0.28932E+08        -0.15464E+05         0.00000E+00
   -0.15464E+05        -0.43008E+08         0.00000E+00
    0.00000E+00         0.00000E+00        -0.20299E+08
 
   -0.27390E+08         0.34084E+06         0.00000E+00
    0.34084E+06        -0.43106E+08         0.00000E+00
    0.00000E+00         0.00000E+00        -0.20013E+08
 
   -0.25754E+08         0.77302E+06         0.00000E+00
    0.77302E+06        -0.43352E+08         0.00000E+00
    0.00000E+00         0.00000E+00        -0.19739E+08
 
   -0.23966E+08         0.13286E+07         0.00000E+00
    0.13286E+07        -0.43779E+08         0.00000E+00
    0.00000E+00         0.00000E+00        -0.19472E+08
 
   -0.21997E+08         0.21085E+07         0.00000E+00
    0.21085E+07        -0.44423E+08         0.00000E+00
    0.00000E+00         0.00000E+00        -0.19213E+08
 
   -0.19908E+08         0.32709E+07         0.00000E+00
    0.32709E+07        -0.45256E+08         0.00000E+00
    0.00000E+00         0.00000E+00        -0.18968E+08
 
   -0.50090E+08        -0.53637E+06         0.00000E+00
   -0.53637E+06        -0.46921E+08         0.00000E+00
    0.00000E+00         0.00000E+00        -0.25361E+08
 
   -0.46345E+08        -0.93644E+06         0.00000E+00
   -0.93644E+06        -0.46703E+08         0.00000E+00
    0.00000E+00         0.00000E+00        -0.24552E+08
 
   -0.43337E+08        -0.96062E+06         0.00000E+00
   -0.96062E+06        -0.46257E+08         0.00000E+00
    0.00000E+00         0.00000E+00        -0.23850E+08
 
   -0.40897E+08        -0.89192E+06         0.00000E+00
   -0.89192E+06        -0.45752E+08         0.00000E+00
    0.00000E+00         0.00000E+00        -0.23253E+08
 
   -0.38822E+08        -0.78878E+06         0.00000E+00
   -0.78878E+06        -0.45264E+08         0.00000E+00
    0.00000E+00         0.00000E+00        -0.22736E+08
 
   -0.36994E+08        -0.66696E+06         0.00000E+00
   -0.66696E+06        -0.44829E+08         0.00000E+00
    0.00000E+00         0.00000E+00        -0.22280E+08
 
   -0.35327E+08        -0.53109E+06         0.00000E+00
   -0.53109E+06        -0.44466E+08         0.00000E+00
    0.00000E+00         0.00000E+00        -0.21873E+08
 
   -0.33759E+08        -0.38141E+06         0.00000E+00
   -0.38141E+06        -0.44189E+08         0.00000E+00
    0.00000E+00         0.00000E+00        -0.21505E+08
 
   -0.32235E+08        -0.21550E+06         0.00000E+00
   -0.21550E+06        -0.44011E+08         0.00000E+00
    0.00000E+00         0.00000E+00        -0.21166E+08
 
   -0.30705E+08        -0.28424E+05         0.00000E+00
   -0.28424E+05        -0.43946E+08         0.00000E+00
    0.00000E+00         0.00000E+00        -0.20849E+08
 
   -0.29115E+08         0.18841E+06         0.00000E+00
    0.18841E+06        -0.44014E+08         0.00000E+00
    0.00000E+00         0.00000E+00        -0.20548E+08
 
   -0.27400E+08         0.45093E+06         0.00000E+00
    0.45093E+06        -0.44239E+08         0.00000E+00
    0.00000E+00         0.00000E+00        -0.20255E+08
 
   -0.25478E+08         0.79178E+06         0.00000E+00
    0.79178E+06        -0.44661E+08         0.00000E+00
    0.00000E+00         0.00000E+00        -0.19959E+08
 
   -0.23216E+08         0.12935E+07         0.00000E+00
    0.12935E+07        -0.45350E+08         0.00000E+00
    0.00000E+00         0.00000E+00        -0.19650E+08
 
   -0.20586E+08         0.22292E+07         0.00000E+00
    0.22292E+07        -0.46400E+08         0.00000E+00
    0.00000E+00         0.00000E+00        -0.19341E+08
 
   -0.52768E+08        -0.33825E+06         0.00000E+00
   -0.33825E+06        -0.48739E+08         0.00000E+00
    0.00000E+00         0.00000E+00        -0.26268E+08
 
   -0.48422E+08        -0.38721E+06         0.00000E+00
   -0.38721E+06        -0.48120E+08         0.00000E+00
    0.00000E+00         0.00000E+00        -0.25257E+08
 
   -0.45338E+08        -0.35504E+06         0.00000E+00
   -0.35504E+06        -0.47426E+08         0.00000E+00
    0.00000E+00         0.00000E+00        -0.24490E+08
 
   -0.42869E+08        -0.31784E+06         0.00000E+00
   -0.31784E+06        -0.46775E+08         0.00000E+00
    0.00000E+00         0.00000E+00        -0.23859E+08
 
   -0.40782E+08        -0.27622E+06         0.00000E+00
   -0.27622E+06        -0.46194E+08         0.00000E+00
    0.00000E+00         0.00000E+00        -0.23321E+08
 
   -0.38944E+08        -0.23157E+06         0.00000E+00
   -0.23157E+06        -0.45695E+08         0.00000E+00
    0.00000E+00         0.00000E+00        -0.22851E+08
 
   -0.37269E+08        -0.18378E+06         0.00000E+00
   -0.18378E+06        -0.45286E+08         0.00000E+00
    0.00000E+00         0.00000E+00        -0.22434E+08
 
   -0.35692E+08        -0.13231E+06         0.00000E+00
   -0.13231E+06        -0.44974E+08         0.00000E+00
    0.00000E+00         0.00000E+00        -0.22057E+08
 
   -0.34156E+08        -0.75989E+05         0.00000E+00
   -0.75989E+05        -0.44769E+08         0.00000E+00
    0.00000E+00         0.00000E+00        -0.21710E+08
 
   -0.32609E+08        -0.12998E+05         0.00000E+00
   -0.12998E+05        -0.44682E+08         0.00000E+00
    0.00000E+00         0.00000E+00        -0.21387E+08
 
   -0.30995E+08         0.59622E+05         0.00000E+00
    0.59622E+05        -0.44731E+08         0.00000E+00
    0.00000E+00         0.00000E+00        -0.21078E+08
 
   -0.29242E+08         0.14715E+06         0.00000E+00
    0.14715E+06        -0.44939E+08         0.00000E+00
    0.00000E+00         0.00000E+00        -0.20773E+08
 
   -0.27246E+08         0.26104E+06         0.00000E+00
    0.26104E+06        -0.45348E+08         0.00000E+00
    0.00000E+00         0.00000E+00        -0.20461E+08
 
   -0.24825E+08         0.42736E+06         0.00000E+00
    0.42736E+06        -0.46036E+08         0.00000E+00
    0.00000E+00         0.00000E+00        -0.20120E+08
 
   -0.21459E+08         0.81762E+06         0.00000E+00
    0.81762E+06        -0.47222E+08         0.00000E+00
    0.00000E+00         0.00000E+00        -0.19689E+08
 
TENSORS stresstot double 
   -0.50544E+08         0.16709E+06         0.00000E+00
    0.16709E+06        -0.59257E+08         0.00000E+00
    0.00000E+00         0.00000E+00        -0.62964E+08
 
   -0.50379E+08         0.16794E+06         0.00000E+00
    0.16794E+06        -0.58844E+08         0.00000E+00
    0.00000E+00         0.00000E+00        -0.62698E+08
 
   -0.50593E+08         0.11773E+05         0.00000E+00
    0.11773E+05        -0.58763E+08         0.00000E+00
    0.00000E+00         0.00000E+00        -0.63084E+08
 
   -0.51245E+08        -0.18730E+06         0.00000E+00
   -0.18730E+06        -0.59133E+08         0.00000E+00
    0.00000E+00         0.00000E+00        -0.64177E+08
 
   -0.52473E+08        -0.35837E+06         0.00000E+00
   -0.35837E+06        -0.59816E+08         0.00000E+00
    0.00000E+00         0.00000E+00        -0.66118E+08
 
   -0.54106E+08        -0.35224E+06         0.00000E+00
   -0.35224E+06        -0.60596E+08         0.00000E+00
    0.00000E+00         0.00000E+00        -0.68538E+08
 
   -0.55825E+08        -0.34819E+06         0.00000E+00
   -0.34819E+06        -0.61279E+08         0.00000E+00
    0.00000E+00         0.00000E+00        -0.70823E+08
 
   -0.58110E+08        -0.36081E+06         0.00000E+00
   -0.36081E+06        -0.61950E+08         0.00000E+00
    0.00000E+00         0.00000E+00        -0.71846E+08
 
   -0.60060E+08        -0.24311E+06         0.00000E+00
   -0.24311E+06        -0.62508E+08         0.00000E+00
    0.00000E+00         0.00000E+00        -0.72350E+08
 
   -0.61799E+08        -0.13421E+06         0.00000E+00
   -0.13421E+06        -0.62863E+08         0.00000E+00
    0.00000E+00         0.00000E+00        -0.72769E+08
 
   -0.63503E+08        -0.29524E+05         0.00000E+00
   -0.29524E+05        -0.63015E+08         0.00000E+00
    0.00000E+00         0.00000E+00        -0.73140E+08
 
   -0.65286E+08         0.80395E+05         0.00000E+00
    0.80395E+05        -0.62956E+08         0.00000E+00
    0.00000E+00         0.00000E+00        -0.73483E+08
 
   -0.67266E+08         0.20973E+06         0.00000E+00
    0.20973E+06        -0.62662E+08         0.00000E+00
    0.00000E+00         0.00000E+00        -0.73818E+08
 
   -0.69628E+08         0.38557E+06         0.00000E+00
    0.38557E+06        -0.62064E+08         0.00000E+00
    0.00000E+00         0.00000E+00        -0.74167E+08
 
   -0.72884E+08         0.77958E+06         0.00000E+00
    0.77958E+06        -0.60956E+08         0.00000E+00
    0.00000E+00         0.00000E+00        -0.74592E+08
 
   -0.50233E+08         0.38965E+06         0.00000E+00
    0.38965E+06        -0.60057E+08         0.00000E+00
    0.00000E+00         0.00000E+00        -0.63745E+08
 
   -0.50508E+08         0.34445E+06         0.00000E+00
    0.34445E+06        -0.60249E+08         0.00000E+00
    0.00000E+00         0.00000E+00        -0.64248E+08
 
   -0.50856E+08        -0.19358E+04         0.00000E+00
   -0.19358E+04        -0.60398E+08         0.00000E+00
    0.00000E+00         0.00000E+00        -0.64920E+08
 
   -0.51558E+08        -0.39340E+06         0.00000E+00
   -0.39340E+06        -0.60415E+08         0.00000E+00
    0.00000E+00         0.00000E+00        -0.66105E+08
 
   -0.52670E+08        -0.70496E+06         0.00000E+00
   -0.70496E+06        -0.60387E+08         0.00000E+00
    0.00000E+00         0.00000E+00        -0.67708E+08
 
   -0.54046E+08        -0.87086E+06         0.00000E+00
   -0.87086E+06        -0.60483E+08         0.00000E+00
    0.00000E+00         0.00000E+00        -0.69258E+08
 
   -0.55989E+08        -0.91938E+06         0.00000E+00
   -0.91938E+06        -0.60852E+08         0.00000E+00
    0.00000E+00         0.00000E+00        -0.69983E+08
 
   -0.57955E+08        -0.87316E+06         0.00000E+00
   -0.87316E+06        -0.61228E+08         0.00000E+00
    0.00000E+00         0.00000E+00        -0.70454E+08
 
   -0.59863E+08        -0.62651E+06         0.00000E+00
   -0.62651E+06        -0.61544E+08         0.00000E+00
    0.00000E+00         0.00000E+00        -0.70901E+08
 
   -0.61601E+08        -0.34478E+06         0.00000E+00
   -0.34478E+06        -0.61759E+08         0.00000E+00
    0.00000E+00         0.00000E+00        -0.71292E+08
 
   -0.63298E+08        -0.52642E+05         0.00000E+00
   -0.52642E+05        -0.61826E+08         0.00000E+00
    0.00000E+00         0.00000E+00        -0.71644E+08
 
   -0.65056E+08         0.26631E+06         0.00000E+00
    0.26631E+06        -0.61712E+08         0.00000E+00
    0.00000E+00         0.00000E+00        -0.71971E+08
 
   -0.66973E+08         0.64746E+06         0.00000E+00
    0.64746E+06        -0.61381E+08         0.00000E+00
    0.00000E+00         0.00000E+00        -0.72286E+08
 
   -0.69187E+08         0.11744E+07         0.00000E+00
    0.11744E+07        -0.60767E+08         0.00000E+00
    0.00000E+00         0.00000E+00        -0.72602E+08
 
   -0.71720E+08         0.21189E+07         0.00000E+00
    0.21189E+07        -0.59786E+08         0.00000E+00
    0.00000E+00         0.00000E+00        -0.72908E+08
 
   -0.49908E+08         0.10370E+06         0.00000E+00
    0.10370E+06        -0.60442E+08         0.00000E+00
    0.00000E+00         0.00000E+00        -0.64621E+08
 
   -0.50594E+08         0.20962E+06         0.00000E+00
    0.20962E+06        -0.60859E+08         0.00000E+00
    0.00000E+00         0.00000E+00        -0.65887E+08
 
   -0.51251E+08        -0.47219E+05         0.00000E+00
   -0.47219E+05        -0.60860E+08         0.00000E+00
    0.00000E+00         0.00000E+00        -0.67037E+08
 
   -0.51903E+08        -0.41595E+06         0.00000E+00
   -0.41595E+06        -0.60737E+08         0.00000E+00
    0.00000E+00         0.00000E+00        -0.67792E+08
 
   -0.52972E+08        -0.74574E+06         0.00000E+00
   -0.74574E+06        -0.60680E+08         0.00000E+00
    0.00000E+00         0.00000E+00        -0.68120E+08
 
   -0.54297E+08        -0.10334E+07         0.00000E+00
   -0.10334E+07        -0.60717E+08         0.00000E+00
    0.00000E+00         0.00000E+00        -0.68398E+08
 
   -0.55968E+08        -0.11700E+07         0.00000E+00
   -0.11700E+07        -0.60790E+08         0.00000E+00
    0.00000E+00         0.00000E+00        -0.68750E+08
 
   -0.57785E+08        -0.10634E+07         0.00000E+00
   -0.10634E+07        -0.60883E+08         0.00000E+00
    0.00000E+00         0.00000E+00        -0.69135E+08
 
   -0.59555E+08        -0.79340E+06         0.00000E+00
   -0.79340E+06        -0.60954E+08         0.00000E+00
    0.00000E+00         0.00000E+00        -0.69505E+08
 
   -0.61254E+08        -0.42000E+06         0.00000E+00
   -0.42000E+06        -0.60990E+08         0.00000E+00
    0.00000E+00         0.00000E+00        -0.69852E+08
 
   -0.62915E+08         0.12295E+05         0.00000E+00
    0.12295E+05        -0.60935E+08         0.00000E+00
    0.00000E+00         0.00000E+00        -0.70172E+08
 
   -0.64611E+08         0.51031E+06         0.00000E+00
    0.51031E+06        -0.60741E+08         0.00000E+00
    0.00000E+00         0.00000E+00        -0.70471E+08
 
   -0.66409E+08         0.11166E+07         0.00000E+00
    0.11166E+07        -0.60367E+08         0.00000E+00
    0.00000E+00         0.00000E+00        -0.70753E+08
 
   -0.68348E+08         0.19291E+07         0.00000E+00
    0.19291E+07        -0.59774E+08         0.00000E+00
    0.00000E+00         0.00000E+00        -0.71019E+08
 
   -0.70364E+08         0.31003E+07         0.00000E+00
    0.31003E+07        -0.58991E+08         0.00000E+00
    0.00000E+00         0.00000E+00        -0.71260E+08
 
   -0.49693E+08        -0.82330E+05         0.00000E+00
   -0.82330E+05        -0.60287E+08         0.00000E+00
    0.00000E+00         0.00000E+00        -0.65790E+08
 
   -0.50744E+08        -0.64708E+05         0.00000E+00
   -0.64708E+05        -0.60264E+08         0.00000E+00
    0.00000E+00         0.00000E+00        -0.66354E+08
 
   -0.51547E+08        -0.20089E+06         0.00000E+00
   -0.20089E+06        -0.60427E+08         0.00000E+00
    0.00000E+00         0.00000E+00        -0.66555E+08
 
   -0.52296E+08        -0.47913E+06         0.00000E+00
   -0.47913E+06        -0.60590E+08         0.00000E+00
    0.00000E+00         0.00000E+00        -0.66745E+08
 
   -0.53268E+08        -0.80568E+06         0.00000E+00
   -0.80568E+06        -0.60685E+08         0.00000E+00
    0.00000E+00         0.00000E+00        -0.66964E+08
 
   -0.54510E+08        -0.10547E+07         0.00000E+00
   -0.10547E+07        -0.60719E+08         0.00000E+00
    0.00000E+00         0.00000E+00        -0.67224E+08
 
   -0.55980E+08        -0.11611E+07         0.00000E+00
   -0.11611E+07        -0.60688E+08         0.00000E+00
    0.00000E+00         0.00000E+00        -0.67515E+08
 
   -0.57585E+08        -0.10607E+07         0.00000E+00
   -0.10607E+07        -0.60624E+08         0.00000E+00
    0.00000E+00         0.00000E+00        -0.67826E+08
 
   -0.59212E+08        -0.77541E+06         0.00000E+00
   -0.77541E+06        -0.60551E+08         0.00000E+00
    0.00000E+00         0.00000E+00        -0.68138E+08
 
   -0.60811E+08        -0.35389E+06         0.00000E+00
   -0.35389E+06        -0.60450E+08         0.00000E+00
    0.00000E+00         0.00000E+00        -0.68438E+08
 
   -0.62392E+08         0.17542E+06         0.00000E+00
    0.17542E+06        -0.60287E+08         0.00000E+00
    0.00000E+00         0.00000E+00        -0.68721E+08
 
   -0.63987E+08         0.81254E+06         0.00000E+00
    0.81254E+06        -0.60024E+08         0.00000E+00
    0.00000E+00         0.00000E+00        -0.68986E+08
 
   -0.65623E+08         0.15925E+07         0.00000E+00
    0.15925E+07        -0.59629E+08         0.00000E+00
    0.00000E+00         0.00000E+00        -0.69231E+08
 
   -0.67298E+08         0.25812E+07         0.00000E+00
    0.25812E+07        -0.59092E+08         0.00000E+00
    0.00000E+00         0.00000E+00        -0.69455E+08
 
   -0.68940E+08         0.38564E+07         0.00000E+00
    0.38564E+07        -0.58450E+08         0.00000E+00
    0.00000E+00         0.00000E+00        -0.69650E+08
 
   -0.49817E+08        -0.10554E+06         0.00000E+00
   -0.10554E+06        -0.60033E+08         0.00000E+00
    0.00000E+00         0.00000E+00        -0.64897E+08
 
   -0.50846E+08        -0.27710E+06         0.00000E+00
   -0.27710E+06        -0.60087E+08         0.00000E+00
    0.00000E+00         0.00000E+00        -0.65123E+08
 
   -0.51740E+08        -0.41237E+06         0.00000E+00
   -0.41237E+06        -0.60278E+08         0.00000E+00
    0.00000E+00         0.00000E+00        -0.65348E+08
 
   -0.52574E+08        -0.62662E+06         0.00000E+00
   -0.62662E+06        -0.60449E+08         0.00000E+00
    0.00000E+00         0.00000E+00        -0.65556E+08
 
   -0.53527E+08        -0.86520E+06         0.00000E+00
   -0.86520E+06        -0.60550E+08         0.00000E+00
    0.00000E+00         0.00000E+00        -0.65773E+08
 
   -0.54661E+08        -0.10396E+07         0.00000E+00
   -0.10396E+07        -0.60564E+08         0.00000E+00
    0.00000E+00         0.00000E+00        -0.66007E+08
 
   -0.55963E+08        -0.10819E+07         0.00000E+00
   -0.10819E+07        -0.60505E+08         0.00000E+00
    0.00000E+00         0.00000E+00        -0.66259E+08
 
   -0.57377E+08        -0.95251E+06         0.00000E+00
   -0.95251E+06        -0.60391E+08         0.00000E+00
    0.00000E+00         0.00000E+00        -0.66521E+08
 
   -0.58839E+08        -0.64709E+06         0.00000E+00
   -0.64709E+06        -0.60243E+08         0.00000E+00
    0.00000E+00         0.00000E+00        -0.66785E+08
 
   -0.60307E+08        -0.18579E+06         0.00000E+00
   -0.18579E+06        -0.60062E+08         0.00000E+00
    0.00000E+00         0.00000E+00        -0.67043E+08
 
   -0.61767E+08         0.41354E+06         0.00000E+00
    0.41354E+06        -0.59831E+08         0.00000E+00
    0.00000E+00         0.00000E+00        -0.67288E+08
 
   -0.63228E+08         0.11510E+07         0.00000E+00
    0.11510E+07        -0.59527E+08         0.00000E+00
    0.00000E+00         0.00000E+00        -0.67517E+08
 
   -0.64689E+08         0.20478E+07         0.00000E+00
    0.20478E+07        -0.59133E+08         0.00000E+00
    0.00000E+00         0.00000E+00        -0.67728E+08
 
   -0.66132E+08         0.31406E+07         0.00000E+00
    0.31406E+07        -0.58653E+08         0.00000E+00
    0.00000E+00         0.00000E+00        -0.67917E+08
 
   -0.67497E+08         0.44646E+07         0.00000E+00
    0.44646E+07        -0.58115E+08         0.00000E+00
    0.00000E+00         0.00000E+00        -0.68078E+08
 
   -0.50052E+08        -0.14629E+06         0.00000E+00
   -0.14629E+06        -0.60013E+08         0.00000E+00
    0.00000E+00         0.00000E+00        -0.63724E+08
 
   -0.51027E+08        -0.38309E+06         0.00000E+00
   -0.38309E+06        -0.60083E+08         0.00000E+00
    0.00000E+00         0.00000E+00        -0.63943E+08
 
   -0.51914E+08        -0.57549E+06         0.00000E+00
   -0.57549E+06        -0.60189E+08         0.00000E+00
    0.00000E+00         0.00000E+00        -0.64149E+08
 
   -0.52779E+08        -0.75381E+06         0.00000E+00
   -0.75381E+06        -0.60308E+08         0.00000E+00
    0.00000E+00         0.00000E+00        -0.64353E+08
 
   -0.53702E+08        -0.91450E+06         0.00000E+00
   -0.91450E+06        -0.60381E+08         0.00000E+00
    0.00000E+00         0.00000E+00        -0.64557E+08
 
   -0.54738E+08        -0.10076E+07         0.00000E+00
   -0.10076E+07        -0.60382E+08         0.00000E+00
    0.00000E+00         0.00000E+00        -0.64769E+08
 
   -0.55893E+08        -0.98204E+06         0.00000E+00
   -0.98204E+06        -0.60310E+08         0.00000E+00
    0.00000E+00         0.00000E+00        -0.64989E+08
 
   -0.57139E+08        -0.80451E+06         0.00000E+00
   -0.80451E+06        -0.60180E+08         0.00000E+00
    0.00000E+00         0.00000E+00        -0.65215E+08
 
   -0.58436E+08        -0.46331E+06         0.00000E+00
   -0.46331E+06        -0.60003E+08         0.00000E+00
    0.00000E+00         0.00000E+00        -0.65440E+08
 
   -0.59752E+08         0.37866E+05         0.00000E+00
    0.37866E+05        -0.59786E+08         0.00000E+00
    0.00000E+00         0.00000E+00        -0.65660E+08
 
   -0.61068E+08         0.69211E+06         0.00000E+00
    0.69211E+06        -0.59524E+08         0.00000E+00
    0.00000E+00         0.00000E+00        -0.65870E+08
 
   -0.62376E+08         0.14997E+07         0.00000E+00
    0.14997E+07        -0.59208E+08         0.00000E+00
    0.00000E+00         0.00000E+00        -0.66066E+08
 
   -0.63663E+08         0.24712E+07         0.00000E+00
    0.24712E+07        -0.58833E+08         0.00000E+00
    0.00000E+00         0.00000E+00        -0.66246E+08
 
   -0.64905E+08         0.36234E+07         0.00000E+00
    0.36234E+07        -0.58405E+08         0.00000E+00
    0.00000E+00         0.00000E+00        -0.66405E+08
 
   -0.66054E+08         0.49678E+07         0.00000E+00
    0.49678E+07        -0.57949E+08         0.00000E+00
    0.00000E+00         0.00000E+00        -0.66539E+08
 
   -0.50353E+08        -0.17684E+06         0.00000E+00
   -0.17684E+06        -0.60011E+08         0.00000E+00
    0.00000E+00         0.00000E+00        -0.62569E+08
 
   -0.51255E+08        -0.46017E+06         0.00000E+00
   -0.46017E+06        -0.60055E+08         0.00000E+00
    0.00000E+00         0.00000E+00        -0.62767E+08
 
   -0.52100E+08        -0.67387E+06         0.00000E+00
   -0.67387E+06        -0.60126E+08         0.00000E+00
    0.00000E+00         0.00000E+00        -0.62958E+08
 
   -0.52933E+08        -0.83575E+06         0.00000E+00
   -0.83575E+06        -0.60195E+08         0.00000E+00
    0.00000E+00         0.00000E+00        -0.63145E+08
 
   -0.53803E+08        -0.94120E+06         0.00000E+00
   -0.94120E+06        -0.60234E+08         0.00000E+00
    0.00000E+00         0.00000E+00        -0.63332E+08
 
   -0.54743E+08        -0.96547E+06         0.00000E+00
   -0.96547E+06        -0.60218E+08         0.00000E+00
    0.00000E+00         0.00000E+00        -0.63521E+08
 
   -0.55765E+08        -0.87554E+06         0.00000E+00
   -0.87554E+06        -0.60141E+08         0.00000E+00
    0.00000E+00         0.00000E+00        -0.63713E+08
 
   -0.56856E+08        -0.64528E+06         0.00000E+00
   -0.64528E+06        -0.60007E+08         0.00000E+00
    0.00000E+00         0.00000E+00        -0.63907E+08
 
   -0.57993E+08        -0.26084E+06         0.00000E+00
   -0.26084E+06        -0.59826E+08         0.00000E+00
    0.00000E+00         0.00000E+00        -0.64099E+08
 
   -0.59152E+08         0.28139E+06         0.00000E+00
    0.28139E+06        -0.59602E+08         0.00000E+00
    0.00000E+00         0.00000E+00        -0.64286E+08
 
   -0.60314E+08         0.98074E+06         0.00000E+00
    0.98074E+06        -0.59338E+08         0.00000E+00
    0.00000E+00         0.00000E+00        -0.64464E+08
 
   -0.61463E+08         0.18378E+07         0.00000E+00
    0.18378E+07        -0.59031E+08         0.00000E+00
    0.00000E+00         0.00000E+00        -0.64631E+08
 
   -0.62582E+08         0.28565E+07         0.00000E+00
    0.28565E+07        -0.58685E+08         0.00000E+00
    0.00000E+00         0.00000E+00        -0.64783E+08
 
   -0.63646E+08         0.40413E+07         0.00000E+00
    0.40413E+07        -0.58308E+08         0.00000E+00
    0.00000E+00         0.00000E+00        -0.64917E+08
 
   -0.64620E+08         0.53916E+07         0.00000E+00
    0.53916E+07        -0.57918E+08         0.00000E+00
    0.00000E+00         0.00000E+00        -0.65029E+08
 
   -0.50701E+08        -0.19658E+06         0.00000E+00
   -0.19658E+06        -0.60006E+08         0.00000E+00
    0.00000E+00         0.00000E+00        -0.61422E+08
 
   -0.51511E+08        -0.50913E+06         0.00000E+00
   -0.50913E+06        -0.60033E+08         0.00000E+00
    0.00000E+00         0.00000E+00        -0.61598E+08
 
   -0.52285E+08        -0.73259E+06         0.00000E+00
   -0.73259E+06        -0.60074E+08         0.00000E+00
    0.00000E+00         0.00000E+00        -0.61769E+08
 
   -0.53054E+08        -0.87850E+06         0.00000E+00
   -0.87850E+06        -0.60110E+08         0.00000E+00
    0.00000E+00         0.00000E+00        -0.61936E+08
 
   -0.53847E+08        -0.94420E+06         0.00000E+00
   -0.94420E+06        -0.60121E+08         0.00000E+00
    0.00000E+00         0.00000E+00        -0.62102E+08
 
   -0.54686E+08        -0.91468E+06         0.00000E+00
   -0.91468E+06        -0.60091E+08         0.00000E+00
    0.00000E+00         0.00000E+00        -0.62268E+08
 
   -0.55581E+08        -0.76921E+06         0.00000E+00
   -0.76921E+06        -0.60012E+08         0.00000E+00
    0.00000E+00         0.00000E+00        -0.62434E+08
 
   -0.56526E+08        -0.48877E+06         0.00000E+00
   -0.48877E+06        -0.59884E+08         0.00000E+00
    0.00000E+00         0.00000E+00        -0.62599E+08
 
   -0.57509E+08        -0.60722E+05         0.00000E+00
   -0.60722E+05        -0.59711E+08         0.00000E+00
    0.00000E+00         0.00000E+00        -0.62762E+08
 
   -0.58512E+08         0.52093E+06         0.00000E+00
    0.52093E+06        -0.59498E+08         0.00000E+00
    0.00000E+00         0.00000E+00        -0.62920E+08
 
   -0.59517E+08         0.12581E+07         0.00000E+00
    0.12581E+07        -0.59249E+08         0.00000E+00
    0.00000E+00         0.00000E+00        -0.63070E+08
 
   -0.60509E+08         0.21511E+07         0.00000E+00
    0.21511E+07        -0.58967E+08         0.00000E+00
    0.00000E+00         0.00000E+00        -0.63210E+08
 
   -0.61468E+08         0.31998E+07         0.00000E+00
    0.31998E+07        -0.58657E+08         0.00000E+00
    0.00000E+00         0.00000E+00        -0.63337E+08
 
   -0.62373E+08         0.44021E+07         0.00000E+00
    0.44021E+07        -0.58328E+08         0.00000E+00
    0.00000E+00         0.00000E+00        -0.63449E+08
 
   -0.63197E+08         0.57509E+07         0.00000E+00
    0.57509E+07        -0.57995E+08         0.00000E+00
    0.00000E+00         0.00000E+00        -0.63544E+08
 
   -0.51078E+08        -0.20748E+06         0.00000E+00
   -0.20748E+06        -0.60003E+08         0.00000E+00
    0.00000E+00         0.00000E+00        -0.60282E+08
 
   -0.51782E+08        -0.53644E+06         0.00000E+00
   -0.53644E+06        -0.60017E+08         0.00000E+00
    0.00000E+00         0.00000E+00        -0.60434E+08
 
   -0.52467E+08        -0.76302E+06         0.00000E+00
   -0.76302E+06        -0.60037E+08         0.00000E+00
    0.00000E+00         0.00000E+00        -0.60582E+08
 
   -0.53150E+08        -0.89483E+06         0.00000E+00
   -0.89483E+06        -0.60051E+08         0.00000E+00
    0.00000E+00         0.00000E+00        -0.60727E+08
 
   -0.53849E+08        -0.92994E+06         0.00000E+00
   -0.92994E+06        -0.60045E+08         0.00000E+00
    0.00000E+00         0.00000E+00        -0.60871E+08
 
   -0.54579E+08        -0.85877E+06         0.00000E+00
   -0.85877E+06        -0.60007E+08         0.00000E+00
    0.00000E+00         0.00000E+00        -0.61013E+08
 
   -0.55347E+08        -0.66767E+06         0.00000E+00
   -0.66767E+06        -0.59930E+08         0.00000E+00
    0.00000E+00         0.00000E+00        -0.61154E+08
 
   -0.56152E+08        -0.34319E+06         0.00000E+00
   -0.34319E+06        -0.59812E+08         0.00000E+00
    0.00000E+00         0.00000E+00        -0.61293E+08
 
   -0.56986E+08         0.12477E+06         0.00000E+00
    0.12477E+06        -0.59655E+08         0.00000E+00
    0.00000E+00         0.00000E+00        -0.61429E+08
 
   -0.57835E+08         0.74206E+06         0.00000E+00
    0.74206E+06        -0.59464E+08         0.00000E+00
    0.00000E+00         0.00000E+00        -0.61561E+08
 
   -0.58687E+08         0.15109E+07         0.00000E+00
    0.15109E+07        -0.59240E+08         0.00000E+00
    0.00000E+00         0.00000E+00        -0.61685E+08
 
   -0.59526E+08         0.24308E+07         0.00000E+00
    0.24308E+07        -0.58991E+08         0.00000E+00
    0.00000E+00         0.00000E+00        -0.61801E+08
 
   -0.60334E+08         0.34993E+07         0.00000E+00
    0.34993E+07        -0.58722E+08         0.00000E+00
    0.00000E+00         0.00000E+00        -0.61907E+08
 
   -0.61095E+08         0.47108E+07         0.00000E+00
    0.47108E+07        -0.58441E+08         0.00000E+00
    0.00000E+00         0.00000E+00        -0.61999E+08
 
   -0.61786E+08         0.60552E+07         0.00000E+00
    0.60552E+07        -0.58159E+08         0.00000E+00
    0.00000E+00         0.00000E+00        -0.62078E+08
 
   -0.51469E+08        -0.21226E+06         0.00000E+00
   -0.21226E+06        -0.60001E+08         0.00000E+00
    0.00000E+00         0.00000E+00        -0.59145E+08
 
   -0.52060E+08        -0.54900E+06         0.00000E+00
   -0.54900E+06        -0.60006E+08         0.00000E+00
    0.00000E+00         0.00000E+00        -0.59273E+08
 
   -0.52643E+08        -0.77527E+06         0.00000E+00
   -0.77527E+06        -0.60014E+08         0.00000E+00
    0.00000E+00         0.00000E+00        -0.59397E+08
 
   -0.53225E+08        -0.89511E+06         0.00000E+00
   -0.89511E+06        -0.60015E+08         0.00000E+00
    0.00000E+00         0.00000E+00        -0.59519E+08
 
   -0.53818E+08        -0.90662E+06         0.00000E+00
   -0.90662E+06        -0.60001E+08         0.00000E+00
    0.00000E+00         0.00000E+00        -0.59640E+08
 
   -0.54432E+08        -0.80316E+06         0.00000E+00
   -0.80316E+06        -0.59962E+08         0.00000E+00
    0.00000E+00         0.00000E+00        -0.59758E+08
 
   -0.55072E+08        -0.57547E+06         0.00000E+00
   -0.57547E+06        -0.59892E+08         0.00000E+00
    0.00000E+00         0.00000E+00        -0.59875E+08
 
   -0.55739E+08        -0.21417E+06         0.00000E+00
   -0.21417E+06        -0.59790E+08         0.00000E+00
    0.00000E+00         0.00000E+00        -0.59989E+08
 
   -0.56427E+08         0.28825E+06         0.00000E+00
    0.28825E+06        -0.59655E+08         0.00000E+00
    0.00000E+00         0.00000E+00        -0.60100E+08
 
   -0.57128E+08         0.93630E+06         0.00000E+00
    0.93630E+06        -0.59490E+08         0.00000E+00
    0.00000E+00         0.00000E+00        -0.60207E+08
 
   -0.57830E+08         0.17313E+07         0.00000E+00
    0.17313E+07        -0.59299E+08         0.00000E+00
    0.00000E+00         0.00000E+00        -0.60309E+08
 
   -0.58522E+08         0.26721E+07         0.00000E+00
    0.26721E+07        -0.59087E+08         0.00000E+00
    0.00000E+00         0.00000E+00        -0.60403E+08
 
   -0.59188E+08         0.37543E+07         0.00000E+00
    0.37543E+07        -0.58860E+08         0.00000E+00
    0.00000E+00         0.00000E+00        -0.60488E+08
 
   -0.59815E+08         0.49706E+07         0.00000E+00
    0.49706E+07        -0.58625E+08         0.00000E+00
    0.00000E+00         0.00000E+00        -0.60564E+08
 
   -0.60386E+08         0.63100E+07         0.00000E+00
    0.63100E+07        -0.58391E+08         0.00000E+00
    0.00000E+00         0.00000E+00        -0.60627E+08
 
   -0.51865E+08        -0.21360E+06         0.00000E+00
   -0.21360E+06        -0.60000E+08         0.00000E+00
    0.00000E+00         0.00000E+00        -0.58010E+08
 
   -0.52342E+08        -0.55328E+06         0.00000E+00
   -0.55328E+06        -0.60001E+08         0.00000E+00
    0.00000E+00         0.00000E+00        -0.58113E+08
 
   -0.52813E+08        -0.77795E+06         0.00000E+00
   -0.77795E+06        -0.60003E+08         0.00000E+00
    0.00000E+00         0.00000E+00        -0.58214E+08
 
   -0.53284E+08        -0.88828E+06         0.00000E+00
   -0.88828E+06        -0.60000E+08         0.00000E+00
    0.00000E+00         0.00000E+00        -0.58312E+08
 
   -0.53762E+08        -0.88185E+06         0.00000E+00
   -0.88185E+06        -0.59985E+08         0.00000E+00
    0.00000E+00         0.00000E+00        -0.58409E+08
 
   -0.54253E+08        -0.75364E+06         0.00000E+00
   -0.75364E+06        -0.59951E+08         0.00000E+00
    0.00000E+00         0.00000E+00        -0.58504E+08
 
   -0.54764E+08        -0.49716E+06         0.00000E+00
   -0.49716E+06        -0.59894E+08         0.00000E+00
    0.00000E+00         0.00000E+00        -0.58597E+08
 
   -0.55293E+08        -0.10596E+06         0.00000E+00
   -0.10596E+06        -0.59811E+08         0.00000E+00
    0.00000E+00         0.00000E+00        -0.58687E+08
 
   -0.55838E+08         0.42507E+06         0.00000E+00
    0.42507E+06        -0.59702E+08         0.00000E+00
    0.00000E+00         0.00000E+00        -0.58775E+08
 
   -0.56394E+08         0.10988E+07         0.00000E+00
    0.10988E+07        -0.59568E+08         0.00000E+00
    0.00000E+00         0.00000E+00        -0.58859E+08
 
   -0.56953E+08         0.19155E+07         0.00000E+00
    0.19155E+07        -0.59412E+08         0.00000E+00
    0.00000E+00         0.00000E+00        -0.58939E+08
 
   -0.57503E+08         0.28726E+07         0.00000E+00
    0.28726E+07        -0.59240E+08         0.00000E+00
    0.00000E+00         0.00000E+00        -0.59013E+08
 
   -0.58035E+08         0.39650E+07         0.00000E+00
    0.39650E+07        -0.59055E+08         0.00000E+00
    0.00000E+00         0.00000E+00        -0.59080E+08
 
   -0.58536E+08         0.51844E+07         0.00000E+00
    0.51844E+07        -0.58865E+08         0.00000E+00
    0.00000E+00         0.00000E+00        -0.59139E+08
 
   -0.58995E+08         0.65193E+07         0.00000E+00
    0.65193E+07        -0.58675E+08         0.00000E+00
    0.00000E+00         0.00000E+00        -0.59189E+08
 
   -0.52264E+08        -0.21375E+06         0.00000E+00
   -0.21375E+06        -0.60000E+08         0.00000E+00
    0.00000E+00         0.00000E+00        -0.56876E+08
 
   -0.52624E+08        -0.55483E+06         0.00000E+00
   -0.55483E+06        -0.60001E+08         0.00000E+00
    0.00000E+00         0.00000E+00        -0.56955E+08
 
   -0.52979E+08        -0.77828E+06         0.00000E+00
   -0.77828E+06        -0.60003E+08         0.00000E+00
    0.00000E+00         0.00000E+00        -0.57032E+08
 
   -0.53331E+08        -0.88185E+06         0.00000E+00
   -0.88185E+06        -0.60002E+08         0.00000E+00
    0.00000E+00         0.00000E+00        -0.57107E+08
 
   -0.53687E+08        -0.86233E+06         0.00000E+00
   -0.86233E+06        -0.59993E+08         0.00000E+00
    0.00000E+00         0.00000E+00        -0.57180E+08
 
   -0.54051E+08        -0.71554E+06         0.00000E+00
   -0.71554E+06        -0.59970E+08         0.00000E+00
    0.00000E+00         0.00000E+00        -0.57251E+08
 
   -0.54429E+08        -0.43683E+06         0.00000E+00
   -0.43683E+06        -0.59930E+08         0.00000E+00
    0.00000E+00         0.00000E+00        -0.57320E+08
 
   -0.54820E+08        -0.21924E+05         0.00000E+00
   -0.21924E+05        -0.59869E+08         0.00000E+00
    0.00000E+00         0.00000E+00        -0.57387E+08
 
   -0.55225E+08         0.53225E+06         0.00000E+00
    0.53225E+06        -0.59788E+08         0.00000E+00
    0.00000E+00         0.00000E+00        -0.57453E+08
 
   -0.55639E+08         0.12270E+07         0.00000E+00
    0.12270E+07        -0.59687E+08         0.00000E+00
    0.00000E+00         0.00000E+00        -0.57515E+08
 
   -0.56057E+08         0.20613E+07         0.00000E+00
    0.20613E+07        -0.59568E+08         0.00000E+00
    0.00000E+00         0.00000E+00        -0.57574E+08
 
   -0.56472E+08         0.30317E+07         0.00000E+00
    0.30317E+07        -0.59436E+08         0.00000E+00
    0.00000E+00         0.00000E+00        -0.57629E+08
 
   -0.56875E+08         0.41322E+07         0.00000E+00
    0.41322E+07        -0.59294E+08         0.00000E+00
    0.00000E+00         0.00000E+00        -0.57679E+08
 
   -0.57257E+08         0.53540E+07         0.00000E+00
    0.53540E+07        -0.59146E+08         0.00000E+00
    0.00000E+00         0.00000E+00        -0.57723E+08
 
   -0.57610E+08         0.66857E+07         0.00000E+00
    0.66857E+07        -0.58999E+08         0.00000E+00
    0.00000E+00         0.00000E+00        -0.57761E+08
 
   -0.52664E+08        -0.21453E+06         0.00000E+00
   -0.21453E+06        -0.60001E+08         0.00000E+00
    0.00000E+00         0.00000E+00        -0.55742E+08
 
   -0.52907E+08        -0.55810E+06         0.00000E+00
   -0.55810E+06        -0.60004E+08         0.00000E+00
    0.00000E+00         0.00000E+00        -0.55797E+08
 
   -0.53142E+08        -0.78211E+06         0.00000E+00
   -0.78211E+06        -0.60011E+08         0.00000E+00
    0.00000E+00         0.00000E+00        -0.55851E+08
 
   -0.53370E+08        -0.88192E+06         0.00000E+00
   -0.88192E+06        -0.60017E+08         0.00000E+00
    0.00000E+00         0.00000E+00        -0.55902E+08
 
   -0.53599E+08        -0.85357E+06         0.00000E+00
   -0.85357E+06        -0.60019E+08         0.00000E+00
    0.00000E+00         0.00000E+00        -0.55951E+08
 
   -0.53831E+08        -0.69334E+06         0.00000E+00
   -0.69334E+06        -0.60012E+08         0.00000E+00
    0.00000E+00         0.00000E+00        -0.55999E+08
 
   -0.54073E+08        -0.39790E+06         0.00000E+00
   -0.39790E+06        -0.59992E+08         0.00000E+00
    0.00000E+00         0.00000E+00        -0.56045E+08
 
   -0.54326E+08         0.35385E+05         0.00000E+00
    0.35385E+05        -0.59957E+08         0.00000E+00
    0.00000E+00         0.00000E+00        -0.56089E+08
 
   -0.54591E+08         0.60794E+06         0.00000E+00
    0.60794E+06        -0.59905E+08         0.00000E+00
    0.00000E+00         0.00000E+00        -0.56132E+08
 
   -0.54866E+08         0.13196E+07         0.00000E+00
    0.13196E+07        -0.59838E+08         0.00000E+00
    0.00000E+00         0.00000E+00        -0.56173E+08
 
   -0.55148E+08         0.21682E+07         0.00000E+00
    0.21682E+07        -0.59757E+08         0.00000E+00
    0.00000E+00         0.00000E+00        -0.56212E+08
 
   -0.55431E+08         0.31496E+07         0.00000E+00
    0.31496E+07        -0.59664E+08         0.00000E+00
    0.00000E+00         0.00000E+00        -0.56249E+08
 
   -0.55710E+08         0.42569E+07         0.00000E+00
    0.42569E+07        -0.59564E+08         0.00000E+00
    0.00000E+00         0.00000E+00        -0.56283E+08
 
   -0.55978E+08         0.54813E+07         0.00000E+00
    0.54813E+07        -0.59458E+08         0.00000E+00
    0.00000E+00         0.00000E+00        -0.56313E+08
 
   -0.56230E+08         0.68113E+07         0.00000E+00
    0.68113E+07        -0.59352E+08         0.00000E+00
    0.00000E+00         0.00000E+00        -0.56339E+08
 
   -0.53068E+08        -0.21730E+06         0.00000E+00
   -0.21730E+06        -0.60002E+08         0.00000E+00
    0.00000E+00         0.00000E+00        -0.54609E+08
 
   -0.53194E+08        -0.56651E+06         0.00000E+00
   -0.56651E+06        -0.60010E+08         0.00000E+00
    0.00000E+00         0.00000E+00        -0.54642E+08
 
   -0.53305E+08        -0.79393E+06         0.00000E+00
   -0.79393E+06        -0.60024E+08         0.00000E+00
    0.00000E+00         0.00000E+00        -0.54671E+08
 
   -0.53405E+08        -0.89322E+06         0.00000E+00
   -0.89322E+06        -0.60042E+08         0.00000E+00
    0.00000E+00         0.00000E+00        -0.54698E+08
 
   -0.53501E+08        -0.85984E+06         0.00000E+00
   -0.85984E+06        -0.60059E+08         0.00000E+00
    0.00000E+00         0.00000E+00        -0.54724E+08
 
   -0.53598E+08        -0.69049E+06         0.00000E+00
   -0.69049E+06        -0.60071E+08         0.00000E+00
    0.00000E+00         0.00000E+00        -0.54747E+08
 
   -0.53702E+08        -0.38287E+06         0.00000E+00
   -0.38287E+06        -0.60073E+08         0.00000E+00
    0.00000E+00         0.00000E+00        -0.54770E+08
 
   -0.53816E+08         0.64321E+05         0.00000E+00
    0.64321E+05        -0.60065E+08         0.00000E+00
    0.00000E+00         0.00000E+00        -0.54792E+08
 
   -0.53942E+08         0.65114E+06         0.00000E+00
    0.65114E+06        -0.60044E+08         0.00000E+00
    0.00000E+00         0.00000E+00        -0.54813E+08
 
   -0.54079E+08         0.13762E+07         0.00000E+00
    0.13762E+07        -0.60011E+08         0.00000E+00
    0.00000E+00         0.00000E+00        -0.54833E+08
 
   -0.54227E+08         0.22364E+07         0.00000E+00
    0.22364E+07        -0.59968E+08         0.00000E+00
    0.00000E+00         0.00000E+00        -0.54853E+08
 
   -0.54382E+08         0.32268E+07         0.00000E+00
    0.32268E+07        -0.59914E+08         0.00000E+00
    0.00000E+00         0.00000E+00        -0.54872E+08
 
   -0.54541E+08         0.43402E+07         0.00000E+00
    0.43402E+07        -0.59854E+08         0.00000E+00
    0.00000E+00         0.00000E+00        -0.54890E+08
 
   -0.54699E+08         0.55675E+07         0.00000E+00
    0.55675E+07        -0.59789E+08         0.00000E+00
    0.00000E+00         0.00000E+00        -0.54907E+08
 
   -0.54853E+08         0.68973E+07         0.00000E+00
    0.68973E+07        -0.59723E+08         0.00000E+00
    0.00000E+00         0.00000E+00        -0.54922E+08
 
   -0.53481E+08        -0.22306E+06         0.00000E+00
   -0.22306E+06        -0.60003E+08         0.00000E+00
    0.00000E+00         0.00000E+00        -0.53479E+08
 
   -0.53487E+08        -0.58252E+06         0.00000E+00
   -0.58252E+06        -0.60017E+08         0.00000E+00
    0.00000E+00         0.00000E+00        -0.53488E+08
 
   -0.53471E+08        -0.81701E+06         0.00000E+00
   -0.81701E+06        -0.60042E+08         0.00000E+00
    0.00000E+00         0.00000E+00        -0.53493E+08
 
   -0.53439E+08        -0.91912E+06         0.00000E+00
   -0.91912E+06        -0.60074E+08         0.00000E+00
    0.00000E+00         0.00000E+00        -0.53496E+08
 
   -0.53398E+08        -0.88414E+06         0.00000E+00
   -0.88414E+06        -0.60109E+08         0.00000E+00
    0.00000E+00         0.00000E+00        -0.53497E+08
 
   -0.53357E+08        -0.70928E+06         0.00000E+00
   -0.70928E+06        -0.60141E+08         0.00000E+00
    0.00000E+00         0.00000E+00        -0.53496E+08
 
   -0.53320E+08        -0.39323E+06         0.00000E+00
   -0.39323E+06        -0.60167E+08         0.00000E+00
    0.00000E+00         0.00000E+00        -0.53495E+08
 
   -0.53294E+08         0.64132E+05         0.00000E+00
    0.64132E+05        -0.60187E+08         0.00000E+00
    0.00000E+00         0.00000E+00        -0.53494E+08
 
   -0.53280E+08         0.66170E+06         0.00000E+00
    0.66170E+06        -0.60197E+08         0.00000E+00
    0.00000E+00         0.00000E+00        -0.53493E+08
 
   -0.53281E+08         0.13971E+07         0.00000E+00
    0.13971E+07        -0.60198E+08         0.00000E+00
    0.00000E+00         0.00000E+00        -0.53493E+08
 
   -0.53297E+08         0.22665E+07         0.00000E+00
    0.22665E+07        -0.60190E+08         0.00000E+00
    0.00000E+00         0.00000E+00        -0.53494E+08
 
   -0.53326E+08         0.32643E+07         0.00000E+00
    0.32643E+07        -0.60176E+08         0.00000E+00
    0.00000E+00         0.00000E+00        -0.53496E+08
 
   -0.53367E+08         0.43833E+07         0.00000E+00
    0.43833E+07        -0.60155E+08         0.00000E+00
    0.00000E+00         0.00000E+00        -0.53498E+08
 
   -0.53418E+08         0.56139E+07         0.00000E+00
    0.56139E+07        -0.60130E+08         0.00000E+00
    0.00000E+00         0.00000E+00        -0.53502E+08
 
   -0.53477E+08         0.69450E+07         0.00000E+00
    0.69450E+07        -0.60102E+08         0.00000E+00
    0.00000E+00         0.00000E+00        -0.53506E+08
 
   -0.53907E+08        -0.23246E+06         0.00000E+00
   -0.23246E+06        -0.60005E+08         0.00000E+00
    0.00000E+00         0.00000E+00        -0.52351E+08
 
   -0.53792E+08        -0.60779E+06         0.00000E+00
   -0.60779E+06        -0.60026E+08         0.00000E+00
    0.00000E+00         0.00000E+00        -0.52336E+08
 
   -0.53644E+08        -0.85344E+06         0.00000E+00
   -0.85344E+06        -0.60063E+08         0.00000E+00
    0.00000E+00         0.00000E+00        -0.52317E+08
 
   -0.53475E+08        -0.96167E+06         0.00000E+00
   -0.96167E+06        -0.60111E+08         0.00000E+00
    0.00000E+00         0.00000E+00        -0.52295E+08
 
   -0.53293E+08        -0.92810E+06         0.00000E+00
   -0.92810E+06        -0.60163E+08         0.00000E+00
    0.00000E+00         0.00000E+00        -0.52271E+08
 
   -0.53109E+08        -0.75074E+06         0.00000E+00
   -0.75074E+06        -0.60217E+08         0.00000E+00
    0.00000E+00         0.00000E+00        -0.52246E+08
 
   -0.52930E+08        -0.42935E+06         0.00000E+00
   -0.42935E+06        -0.60268E+08         0.00000E+00
    0.00000E+00         0.00000E+00        -0.52220E+08
 
   -0.52762E+08         0.35044E+05         0.00000E+00
    0.35044E+05        -0.60314E+08         0.00000E+00
    0.00000E+00         0.00000E+00        -0.52196E+08
 
   -0.52610E+08         0.64030E+06         0.00000E+00
    0.64030E+06        -0.60354E+08         0.00000E+00
    0.00000E+00         0.00000E+00        -0.52173E+08
 
   -0.52475E+08         0.13832E+07         0.00000E+00
    0.13832E+07        -0.60387E+08         0.00000E+00
    0.00000E+00         0.00000E+00        -0.52152E+08
 
   -0.52359E+08         0.22595E+07         0.00000E+00
    0.22595E+07        -0.60415E+08         0.00000E+00
    0.00000E+00         0.00000E+00        -0.52134E+08
 
   -0.52263E+08         0.32632E+07         0.00000E+00
    0.32632E+07        -0.60438E+08         0.00000E+00
    0.00000E+00         0.00000E+00        -0.52118E+08
 
   -0.52188E+08         0.43870E+07         0.00000E+00
    0.43870E+07        -0.60455E+08         0.00000E+00
    0.00000E+00         0.00000E+00        -0.52106E+08
 
   -0.52134E+08         0.56215E+07         0.00000E+00
    0.56215E+07        -0.60469E+08         0.00000E+00
    0.00000E+00         0.00000E+00        -0.52096E+08
 
   -0.52100E+08         0.69554E+07         0.00000E+00
    0.69554E+07        -0.60479E+08         0.00000E+00
    0.00000E+00         0.00000E+00        -0.52090E+08
 
   -0.54356E+08        -0.24589E+06         0.00000E+00
   -0.24589E+06        -0.60007E+08         0.00000E+00
    0.00000E+00         0.00000E+00        -0.51228E+08
 
   -0.54113E+08        -0.64319E+06         0.00000E+00
   -0.64319E+06        -0.60035E+08         0.00000E+00
    0.00000E+00         0.00000E+00        -0.51189E+08
 
   -0.53828E+08        -0.90420E+06         0.00000E+00
   -0.90420E+06        -0.60085E+08         0.00000E+00
    0.00000E+00         0.00000E+00        -0.51144E+08
 
   -0.53515E+08        -0.10216E+07         0.00000E+00
   -0.10216E+07        -0.60148E+08         0.00000E+00
    0.00000E+00         0.00000E+00        -0.51095E+08
 
   -0.53189E+08        -0.99201E+06         0.00000E+00
   -0.99201E+06        -0.60219E+08         0.00000E+00
    0.00000E+00         0.00000E+00        -0.51045E+08
 
   -0.52859E+08        -0.81455E+06         0.00000E+00
   -0.81455E+06        -0.60293E+08         0.00000E+00
    0.00000E+00         0.00000E+00        -0.50994E+08
 
   -0.52535E+08        -0.49033E+06         0.00000E+00
   -0.49033E+06        -0.60367E+08         0.00000E+00
    0.00000E+00         0.00000E+00        -0.50944E+08
 
   -0.52225E+08        -0.21621E+05         0.00000E+00
   -0.21621E+05        -0.60438E+08         0.00000E+00
    0.00000E+00         0.00000E+00        -0.50896E+08
 
   -0.51932E+08         0.58849E+06         0.00000E+00
    0.58849E+06        -0.60506E+08         0.00000E+00
    0.00000E+00         0.00000E+00        -0.50851E+08
 
   -0.51662E+08         0.13362E+07         0.00000E+00
    0.13362E+07        -0.60570E+08         0.00000E+00
    0.00000E+00         0.00000E+00        -0.50809E+08
 
   -0.51416E+08         0.22168E+07         0.00000E+00
    0.22168E+07        -0.60632E+08         0.00000E+00
    0.00000E+00         0.00000E+00        -0.50771E+08
 
   -0.51196E+08         0.32247E+07         0.00000E+00
    0.32247E+07        -0.60690E+08         0.00000E+00
    0.00000E+00         0.00000E+00        -0.50738E+08
 
   -0.51006E+08         0.43525E+07         0.00000E+00
    0.43525E+07        -0.60745E+08         0.00000E+00
    0.00000E+00         0.00000E+00        -0.50710E+08
 
   -0.50846E+08         0.55911E+07         0.00000E+00
    0.55911E+07        -0.60797E+08         0.00000E+00
    0.00000E+00         0.00000E+00        -0.50688E+08
 
   -0.50719E+08         0.69291E+07         0.00000E+00
    0.69291E+07        -0.60843E+08         0.00000E+00
    0.00000E+00         0.00000E+00        -0.50671E+08
 
   -0.54833E+08        -0.26351E+06         0.00000E+00
   -0.26351E+06        -0.60009E+08         0.00000E+00
    0.00000E+00         0.00000E+00        -0.50111E+08
 
   -0.54455E+08        -0.68894E+06         0.00000E+00
   -0.68894E+06        -0.60044E+08         0.00000E+00
    0.00000E+00         0.00000E+00        -0.50045E+08
 
   -0.54026E+08        -0.96928E+06         0.00000E+00
   -0.96928E+06        -0.60106E+08         0.00000E+00
    0.00000E+00         0.00000E+00        -0.49973E+08
 
   -0.53564E+08        -0.10985E+07         0.00000E+00
   -0.10985E+07        -0.60184E+08         0.00000E+00
    0.00000E+00         0.00000E+00        -0.49897E+08
 
   -0.53087E+08        -0.10747E+07         0.00000E+00
   -0.10747E+07        -0.60272E+08         0.00000E+00
    0.00000E+00         0.00000E+00        -0.49819E+08
 
   -0.52608E+08        -0.89892E+06         0.00000E+00
   -0.89892E+06        -0.60365E+08         0.00000E+00
    0.00000E+00         0.00000E+00        -0.49742E+08
 
   -0.52138E+08        -0.57390E+06         0.00000E+00
   -0.57390E+06        -0.60458E+08         0.00000E+00
    0.00000E+00         0.00000E+00        -0.49666E+08
 
   -0.51684E+08        -0.10330E+06         0.00000E+00
   -0.10330E+06        -0.60552E+08         0.00000E+00
    0.00000E+00         0.00000E+00        -0.49593E+08
 
   -0.51252E+08         0.50884E+06         0.00000E+00
    0.50884E+06        -0.60644E+08         0.00000E+00
    0.00000E+00         0.00000E+00        -0.49524E+08
 
   -0.50846E+08         0.12583E+07         0.00000E+00
    0.12583E+07        -0.60736E+08         0.00000E+00
    0.00000E+00         0.00000E+00        -0.49461E+08
 
   -0.50470E+08         0.21405E+07         0.00000E+00
    0.21405E+07        -0.60829E+08         0.00000E+00
    0.00000E+00         0.00000E+00        -0.49403E+08
 
   -0.50126E+08         0.31500E+07         0.00000E+00
    0.31500E+07        -0.60921E+08         0.00000E+00
    0.00000E+00         0.00000E+00        -0.49353E+08
 
   -0.49820E+08         0.42804E+07         0.00000E+00
    0.42804E+07        -0.61012E+08         0.00000E+00
    0.00000E+00         0.00000E+00        -0.49309E+08
 
   -0.49554E+08         0.55229E+07         0.00000E+00
    0.55229E+07        -0.61101E+08         0.00000E+00
    0.00000E+00         0.00000E+00        -0.49274E+08
 
   -0.49333E+08         0.68664E+07         0.00000E+00
    0.68664E+07        -0.61186E+08         0.00000E+00
    0.00000E+00         0.00000E+00        -0.49246E+08
 
   -0.55347E+08        -0.28522E+06         0.00000E+00
   -0.28522E+06        -0.60010E+08         0.00000E+00
    0.00000E+00         0.00000E+00        -0.49002E+08
 
   -0.54823E+08        -0.74459E+06         0.00000E+00
   -0.74459E+06        -0.60053E+08         0.00000E+00
    0.00000E+00         0.00000E+00        -0.48907E+08
 
   -0.54240E+08        -0.10476E+07         0.00000E+00
   -0.10476E+07        -0.60125E+08         0.00000E+00
    0.00000E+00         0.00000E+00        -0.48805E+08
 
   -0.53622E+08        -0.11903E+07         0.00000E+00
   -0.11903E+07        -0.60217E+08         0.00000E+00
    0.00000E+00         0.00000E+00        -0.48699E+08
 
   -0.52989E+08        -0.11734E+07         0.00000E+00
   -0.11734E+07        -0.60319E+08         0.00000E+00
    0.00000E+00         0.00000E+00        -0.48593E+08
 
   -0.52358E+08        -0.10004E+07         0.00000E+00
   -0.10004E+07        -0.60425E+08         0.00000E+00
    0.00000E+00         0.00000E+00        -0.48487E+08
 
   -0.51739E+08        -0.67616E+06         0.00000E+00
   -0.67616E+06        -0.60534E+08         0.00000E+00
    0.00000E+00         0.00000E+00        -0.48384E+08
 
   -0.51142E+08        -0.20601E+06         0.00000E+00
   -0.20601E+06        -0.60645E+08         0.00000E+00
    0.00000E+00         0.00000E+00        -0.48286E+08
 
   -0.50571E+08         0.40509E+06         0.00000E+00
    0.40509E+06        -0.60757E+08         0.00000E+00
    0.00000E+00         0.00000E+00        -0.48193E+08
 
   -0.50031E+08         0.11527E+07         0.00000E+00
    0.11527E+07        -0.60873E+08         0.00000E+00
    0.00000E+00         0.00000E+00        -0.48107E+08
 
   -0.49524E+08         0.20327E+07         0.00000E+00
    0.20327E+07        -0.60994E+08         0.00000E+00
    0.00000E+00         0.00000E+00        -0.48029E+08
 
   -0.49056E+08         0.30407E+07         0.00000E+00
    0.30407E+07        -0.61118E+08         0.00000E+00
    0.00000E+00         0.00000E+00        -0.47961E+08
 
   -0.48631E+08         0.41713E+07         0.00000E+00
    0.41713E+07        -0.61245E+08         0.00000E+00
    0.00000E+00         0.00000E+00        -0.47901E+08
 
   -0.48257E+08         0.54167E+07         0.00000E+00
    0.54167E+07        -0.61371E+08         0.00000E+00
    0.00000E+00         0.00000E+00        -0.47852E+08
 
   -0.47940E+08         0.67666E+07         0.00000E+00
    0.67666E+07        -0.61493E+08         0.00000E+00
    0.00000E+00         0.00000E+00        -0.47814E+08
 
   -0.55905E+08        -0.31069E+06         0.00000E+00
   -0.31069E+06        -0.60012E+08         0.00000E+00
    0.00000E+00         0.00000E+00        -0.47900E+08
 
   -0.55221E+08        -0.80911E+06         0.00000E+00
   -0.80911E+06        -0.60060E+08         0.00000E+00
    0.00000E+00         0.00000E+00        -0.47774E+08
 
   -0.54472E+08        -0.11370E+07         0.00000E+00
   -0.11370E+07        -0.60142E+08         0.00000E+00
    0.00000E+00         0.00000E+00        -0.47640E+08
 
   -0.53689E+08        -0.12938E+07         0.00000E+00
   -0.12938E+07        -0.60243E+08         0.00000E+00
    0.00000E+00         0.00000E+00        -0.47503E+08
 
   -0.52896E+08        -0.12838E+07         0.00000E+00
   -0.12838E+07        -0.60354E+08         0.00000E+00
    0.00000E+00         0.00000E+00        -0.47365E+08
 
   -0.52109E+08        -0.11137E+07         0.00000E+00
   -0.11137E+07        -0.60469E+08         0.00000E+00
    0.00000E+00         0.00000E+00        -0.47229E+08
 
   -0.51343E+08        -0.79144E+06         0.00000E+00
   -0.79144E+06        -0.60587E+08         0.00000E+00
    0.00000E+00         0.00000E+00        -0.47098E+08
 
   -0.50603E+08        -0.32414E+06         0.00000E+00
   -0.32414E+06        -0.60708E+08         0.00000E+00
    0.00000E+00         0.00000E+00        -0.46972E+08
 
   -0.49894E+08         0.28231E+06         0.00000E+00
    0.28231E+06        -0.60834E+08         0.00000E+00
    0.00000E+00         0.00000E+00        -0.46855E+08
 
   -0.49220E+08         0.10236E+07         0.00000E+00
    0.10236E+07        -0.60969E+08         0.00000E+00
    0.00000E+00         0.00000E+00        -0.46746E+08
 
   -0.48583E+08         0.18965E+07         0.00000E+00
    0.18965E+07        -0.61113E+08         0.00000E+00
    0.00000E+00         0.00000E+00        -0.46647E+08
 
   -0.47988E+08         0.28983E+07         0.00000E+00
    0.28983E+07        -0.61267E+08         0.00000E+00
    0.00000E+00         0.00000E+00        -0.46559E+08
 
   -0.47443E+08         0.40253E+07         0.00000E+00
    0.40253E+07        -0.61428E+08         0.00000E+00
    0.00000E+00         0.00000E+00        -0.46483E+08
 
   -0.46956E+08         0.52719E+07         0.00000E+00
    0.52719E+07        -0.61593E+08         0.00000E+00
    0.00000E+00         0.00000E+00        -0.46420E+08
 
   -0.46538E+08         0.66286E+07         0.00000E+00
    0.66286E+07        -0.61755E+08         0.00000E+00
    0.00000E+00         0.00000E+00        -0.46370E+08
 
   -0.56512E+08        -0.33955E+06         0.00000E+00
   -0.33955E+06        -0.60013E+08         0.00000E+00
    0.00000E+00         0.00000E+00        -0.46809E+08
 
   -0.55651E+08        -0.88061E+06         0.00000E+00
   -0.88061E+06        -0.60066E+08         0.00000E+00
    0.00000E+00         0.00000E+00        -0.46647E+08
 
   -0.54724E+08        -0.12341E+07         0.00000E+00
   -0.12341E+07        -0.60154E+08         0.00000E+00
    0.00000E+00         0.00000E+00        -0.46477E+08
 
   -0.53766E+08        -0.14039E+07         0.00000E+00
   -0.14039E+07        -0.60259E+08         0.00000E+00
    0.00000E+00         0.00000E+00        -0.46305E+08
 
   -0.52806E+08        -0.13992E+07         0.00000E+00
   -0.13992E+07        -0.60372E+08         0.00000E+00
    0.00000E+00         0.00000E+00        -0.46134E+08
 
   -0.51863E+08        -0.12315E+07         0.00000E+00
   -0.12315E+07        -0.60488E+08         0.00000E+00
    0.00000E+00         0.00000E+00        -0.45966E+08
 
   -0.50949E+08        -0.91203E+06         0.00000E+00
   -0.91203E+06        -0.60606E+08         0.00000E+00
    0.00000E+00         0.00000E+00        -0.45805E+08
 
   -0.50069E+08        -0.45027E+06         0.00000E+00
   -0.45027E+06        -0.60729E+08         0.00000E+00
    0.00000E+00         0.00000E+00        -0.45651E+08
 
   -0.49225E+08         0.14706E+06         0.00000E+00
    0.14706E+06        -0.60861E+08         0.00000E+00
    0.00000E+00         0.00000E+00        -0.45508E+08
 
   -0.48419E+08         0.87609E+06         0.00000E+00
    0.87609E+06        -0.61008E+08         0.00000E+00
    0.00000E+00         0.00000E+00        -0.45375E+08
 
   -0.47652E+08         0.17352E+07         0.00000E+00
    0.17352E+07        -0.61171E+08         0.00000E+00
    0.00000E+00         0.00000E+00        -0.45254E+08
 
   -0.46929E+08         0.27242E+07         0.00000E+00
    0.27242E+07        -0.61352E+08         0.00000E+00
    0.00000E+00         0.00000E+00        -0.45147E+08
 
   -0.46258E+08         0.38423E+07         0.00000E+00
    0.38423E+07        -0.61548E+08         0.00000E+00
    0.00000E+00         0.00000E+00        -0.45053E+08
 
   -0.45651E+08         0.50865E+07         0.00000E+00
    0.50865E+07        -0.61752E+08         0.00000E+00
    0.00000E+00         0.00000E+00        -0.44975E+08
 
   -0.45126E+08         0.64496E+07         0.00000E+00
    0.64496E+07        -0.61957E+08         0.00000E+00
    0.00000E+00         0.00000E+00        -0.44912E+08
 
   -0.57174E+08        -0.37116E+06         0.00000E+00
   -0.37116E+06        -0.60014E+08         0.00000E+00
    0.00000E+00         0.00000E+00        -0.45728E+08
 
   -0.56115E+08        -0.95678E+06         0.00000E+00
   -0.95678E+06        -0.60070E+08         0.00000E+00
    0.00000E+00         0.00000E+00        -0.45526E+08
 
   -0.54993E+08        -0.13342E+07         0.00000E+00
   -0.13342E+07        -0.60159E+08         0.00000E+00
    0.00000E+00         0.00000E+00        -0.45317E+08
 
   -0.53850E+08        -0.15136E+07         0.00000E+00
   -0.15136E+07        -0.60262E+08         0.00000E+00
    0.00000E+00         0.00000E+00        -0.45106E+08
 
   -0.52719E+08        -0.15111E+07         0.00000E+00
   -0.15111E+07        -0.60368E+08         0.00000E+00
    0.00000E+00         0.00000E+00        -0.44898E+08
 
   -0.51619E+08        -0.13439E+07         0.00000E+00
   -0.13439E+07        -0.60474E+08         0.00000E+00
    0.00000E+00         0.00000E+00        -0.44697E+08
 
   -0.50560E+08        -0.10279E+07         0.00000E+00
   -0.10279E+07        -0.60581E+08         0.00000E+00
    0.00000E+00         0.00000E+00        -0.44504E+08
 
   -0.49544E+08        -0.57495E+06         0.00000E+00
   -0.57495E+06        -0.60695E+08         0.00000E+00
    0.00000E+00         0.00000E+00        -0.44321E+08
 
   -0.48570E+08         0.75396E+04         0.00000E+00
    0.75396E+04        -0.60824E+08         0.00000E+00
    0.00000E+00         0.00000E+00        -0.44151E+08
 
   -0.47635E+08         0.71660E+06         0.00000E+00
    0.71660E+06        -0.60974E+08         0.00000E+00
    0.00000E+00         0.00000E+00        -0.43993E+08
 
   -0.46739E+08         0.15530E+07         0.00000E+00
    0.15530E+07        -0.61151E+08         0.00000E+00
    0.00000E+00         0.00000E+00        -0.43850E+08
 
   -0.45885E+08         0.25200E+07         0.00000E+00
    0.25200E+07        -0.61356E+08         0.00000E+00
    0.00000E+00         0.00000E+00        -0.43721E+08
 
   -0.45082E+08         0.36210E+07         0.00000E+00
    0.36210E+07        -0.61586E+08         0.00000E+00
    0.00000E+00         0.00000E+00        -0.43609E+08
 
   -0.44347E+08         0.48576E+07         0.00000E+00
    0.48576E+07        -0.61833E+08         0.00000E+00
    0.00000E+00         0.00000E+00        -0.43514E+08
 
   -0.43702E+08         0.62258E+07         0.00000E+00
    0.62258E+07        -0.62084E+08         0.00000E+00
    0.00000E+00         0.00000E+00        -0.43438E+08
 
   -0.57895E+08        -0.40472E+06         0.00000E+00
   -0.40472E+06        -0.60015E+08         0.00000E+00
    0.00000E+00         0.00000E+00        -0.44659E+08
 
   -0.56611E+08        -0.10344E+07         0.00000E+00
   -0.10344E+07        -0.60072E+08         0.00000E+00
    0.00000E+00         0.00000E+00        -0.44411E+08
 
   -0.55274E+08        -0.14308E+07         0.00000E+00
   -0.14308E+07        -0.60157E+08         0.00000E+00
    0.00000E+00         0.00000E+00        -0.44157E+08
 
   -0.53936E+08        -0.16134E+07         0.00000E+00
   -0.16134E+07        -0.60248E+08         0.00000E+00
    0.00000E+00         0.00000E+00        -0.43904E+08
 
   -0.52630E+08        -0.16076E+07         0.00000E+00
   -0.16076E+07        -0.60335E+08         0.00000E+00
    0.00000E+00         0.00000E+00        -0.43656E+08
 
   -0.51376E+08        -0.14384E+07         0.00000E+00
   -0.14384E+07        -0.60416E+08         0.00000E+00
    0.00000E+00         0.00000E+00        -0.43418E+08
 
   -0.50179E+08        -0.11266E+07         0.00000E+00
   -0.11266E+07        -0.60498E+08         0.00000E+00
    0.00000E+00         0.00000E+00        -0.43192E+08
 
   -0.49034E+08        -0.68666E+06         0.00000E+00
   -0.68666E+06        -0.60590E+08         0.00000E+00
    0.00000E+00         0.00000E+00        -0.42979E+08
 
   -0.47937E+08        -0.12642E+06         0.00000E+00
   -0.12642E+06        -0.60704E+08         0.00000E+00
    0.00000E+00         0.00000E+00        -0.42781E+08
 
   -0.46878E+08         0.55268E+06         0.00000E+00
    0.55268E+06        -0.60848E+08         0.00000E+00
    0.00000E+00         0.00000E+00        -0.42598E+08
 
   -0.45855E+08         0.13545E+07         0.00000E+00
    0.13545E+07        -0.61032E+08         0.00000E+00
    0.00000E+00         0.00000E+00        -0.42431E+08
 
   -0.44867E+08         0.22870E+07         0.00000E+00
    0.22870E+07        -0.61258E+08         0.00000E+00
    0.00000E+00         0.00000E+00        -0.42281E+08
 
   -0.43924E+08         0.33597E+07         0.00000E+00
    0.33597E+07        -0.61523E+08         0.00000E+00
    0.00000E+00         0.00000E+00        -0.42148E+08
 
   -0.43047E+08         0.45803E+07         0.00000E+00
    0.45803E+07        -0.61817E+08         0.00000E+00
    0.00000E+00         0.00000E+00        -0.42035E+08
 
   -0.42265E+08         0.59505E+07         0.00000E+00
    0.59505E+07        -0.62122E+08         0.00000E+00
    0.00000E+00         0.00000E+00        -0.41943E+08
 
   -0.58675E+08        -0.43934E+06         0.00000E+00
   -0.43934E+06        -0.60016E+08         0.00000E+00
    0.00000E+00         0.00000E+00        -0.43602E+08
 
   -0.57135E+08        -0.11090E+07         0.00000E+00
   -0.11090E+07        -0.60070E+08         0.00000E+00
    0.00000E+00         0.00000E+00        -0.43300E+08
 
   -0.55561E+08        -0.15150E+07         0.00000E+00
   -0.15150E+07        -0.60143E+08         0.00000E+00
    0.00000E+00         0.00000E+00        -0.42995E+08
 
   -0.54016E+08        -0.16905E+07         0.00000E+00
   -0.16905E+07        -0.60210E+08         0.00000E+00
    0.00000E+00         0.00000E+00        -0.42695E+08
 
   -0.52535E+08        -0.16737E+07         0.00000E+00
   -0.16737E+07        -0.60261E+08         0.00000E+00
    0.00000E+00         0.00000E+00        -0.42404E+08
 
   -0.51133E+08        -0.14991E+07         0.00000E+00
   -0.14991E+07        -0.60302E+08         0.00000E+00
    0.00000E+00         0.00000E+00        -0.42128E+08
 
   -0.49807E+08        -0.11931E+07         0.00000E+00
   -0.11931E+07        -0.60342E+08         0.00000E+00
    0.00000E+00         0.00000E+00        -0.41868E+08
 
   -0.48546E+08        -0.77204E+06         0.00000E+00
   -0.77204E+06        -0.60397E+08         0.00000E+00
    0.00000E+00         0.00000E+00        -0.41624E+08
 
   -0.47336E+08        -0.24352E+06         0.00000E+00
   -0.24352E+06        -0.60482E+08         0.00000E+00
    0.00000E+00         0.00000E+00        -0.41398E+08
 
   -0.46162E+08         0.39299E+06         0.00000E+00
    0.39299E+06        -0.60611E+08         0.00000E+00
    0.00000E+00         0.00000E+00        -0.41189E+08
 
   -0.45014E+08         0.11452E+07         0.00000E+00
    0.11452E+07        -0.60794E+08         0.00000E+00
    0.00000E+00         0.00000E+00        -0.40998E+08
 
   -0.43889E+08         0.20267E+07         0.00000E+00
    0.20267E+07        -0.61037E+08         0.00000E+00
    0.00000E+00         0.00000E+00        -0.40824E+08
 
   -0.42797E+08         0.30552E+07         0.00000E+00
    0.30552E+07        -0.61338E+08         0.00000E+00
    0.00000E+00         0.00000E+00        -0.40669E+08
 
   -0.41760E+08         0.42476E+07         0.00000E+00
    0.42476E+07        -0.61684E+08         0.00000E+00
    0.00000E+00         0.00000E+00        -0.40535E+08
 
   -0.40817E+08         0.56144E+07         0.00000E+00
    0.56144E+07        -0.62053E+08         0.00000E+00
    0.00000E+00         0.00000E+00        -0.40424E+08
 
   -0.59512E+08        -0.47380E+06         0.00000E+00
   -0.47380E+06        -0.60015E+08         0.00000E+00
    0.00000E+00         0.00000E+00        -0.42556E+08
 
   -0.57675E+08        -0.11743E+07         0.00000E+00
   -0.11743E+07        -0.60062E+08         0.00000E+00
    0.00000E+00         0.00000E+00        -0.42192E+08
 
   -0.55839E+08        -0.15742E+07         0.00000E+00
   -0.15742E+07        -0.60112E+08         0.00000E+00
    0.00000E+00         0.00000E+00        -0.41828E+08
 
   -0.54079E+08        -0.17275E+07         0.00000E+00
   -0.17275E+07        -0.60136E+08         0.00000E+00
    0.00000E+00         0.00000E+00        -0.41475E+08
 
   -0.52428E+08        -0.16902E+07         0.00000E+00
   -0.16902E+07        -0.60132E+08         0.00000E+00
    0.00000E+00         0.00000E+00        -0.41138E+08
 
   -0.50890E+08        -0.15078E+07         0.00000E+00
   -0.15078E+07        -0.60110E+08         0.00000E+00
    0.00000E+00         0.00000E+00        -0.40822E+08
 
   -0.49451E+08        -0.12108E+07         0.00000E+00
   -0.12108E+07        -0.60091E+08         0.00000E+00
    0.00000E+00         0.00000E+00        -0.40527E+08
 
   -0.48088E+08        -0.81662E+06         0.00000E+00
   -0.81662E+06        -0.60093E+08         0.00000E+00
    0.00000E+00         0.00000E+00        -0.40253E+08
 
   -0.46779E+08        -0.33163E+06         0.00000E+00
   -0.33163E+06        -0.60136E+08         0.00000E+00
    0.00000E+00         0.00000E+00        -0.40000E+08
 
   -0.45500E+08         0.24711E+06         0.00000E+00
    0.24711E+06        -0.60238E+08         0.00000E+00
    0.00000E+00         0.00000E+00        -0.39765E+08
 
   -0.44234E+08         0.93116E+06         0.00000E+00
    0.93116E+06        -0.60412E+08         0.00000E+00
    0.00000E+00         0.00000E+00        -0.39548E+08
 
   -0.42971E+08         0.17407E+07         0.00000E+00
    0.17407E+07        -0.60668E+08         0.00000E+00
    0.00000E+00         0.00000E+00        -0.39350E+08
 
   -0.41716E+08         0.27032E+07         0.00000E+00
    0.27032E+07        -0.61006E+08         0.00000E+00
    0.00000E+00         0.00000E+00        -0.39170E+08
 
   -0.40495E+08         0.38494E+07         0.00000E+00
    0.38494E+07        -0.61414E+08         0.00000E+00
    0.00000E+00         0.00000E+00        -0.39012E+08
 
   -0.39359E+08         0.52037E+07         0.00000E+00
    0.52037E+07        -0.61861E+08         0.00000E+00
    0.00000E+00         0.00000E+00        -0.38879E+08
 
   -0.60401E+08        -0.50650E+06         0.00000E+00
   -0.50650E+06        -0.60014E+08         0.00000E+00
    0.00000E+00         0.00000E+00        -0.41520E+08
 
   -0.58213E+08        -0.12203E+07         0.00000E+00
   -0.12203E+07        -0.60047E+08         0.00000E+00
    0.00000E+00         0.00000E+00        -0.41081E+08
 
   -0.56089E+08        -0.15891E+07         0.00000E+00
   -0.15891E+07        -0.60055E+08         0.00000E+00
    0.00000E+00         0.00000E+00        -0.40649E+08
 
   -0.54112E+08        -0.17005E+07         0.00000E+00
   -0.17005E+07        -0.60010E+08         0.00000E+00
    0.00000E+00         0.00000E+00        -0.40238E+08
 
   -0.52304E+08        -0.16337E+07         0.00000E+00
   -0.16337E+07        -0.59923E+08         0.00000E+00
    0.00000E+00         0.00000E+00        -0.39853E+08
 
   -0.50649E+08        -0.14438E+07         0.00000E+00
   -0.14438E+07        -0.59817E+08         0.00000E+00
    0.00000E+00         0.00000E+00        -0.39496E+08
 
   -0.49117E+08        -0.11628E+07         0.00000E+00
   -0.11628E+07        -0.59719E+08         0.00000E+00
    0.00000E+00         0.00000E+00        -0.39167E+08
 
   -0.47672E+08        -0.80653E+06         0.00000E+00
   -0.80653E+06        -0.59654E+08         0.00000E+00
    0.00000E+00         0.00000E+00        -0.38864E+08
 
   -0.46281E+08        -0.37901E+06         0.00000E+00
   -0.37901E+06        -0.59644E+08         0.00000E+00
    0.00000E+00         0.00000E+00        -0.38584E+08
 
   -0.44911E+08         0.12493E+06         0.00000E+00
    0.12493E+06        -0.59709E+08         0.00000E+00
    0.00000E+00         0.00000E+00        -0.38324E+08
 
   -0.43537E+08         0.71984E+06         0.00000E+00
    0.71984E+06        -0.59865E+08         0.00000E+00
    0.00000E+00         0.00000E+00        -0.38083E+08
 
   -0.42137E+08         0.14315E+07         0.00000E+00
    0.14315E+07        -0.60127E+08         0.00000E+00
    0.00000E+00         0.00000E+00        -0.37859E+08
 
   -0.40708E+08         0.22991E+07         0.00000E+00
    0.22991E+07        -0.60503E+08         0.00000E+00
    0.00000E+00         0.00000E+00        -0.37652E+08
 
   -0.39273E+08         0.33721E+07         0.00000E+00
    0.33721E+07        -0.60982E+08         0.00000E+00
    0.00000E+00         0.00000E+00        -0.37466E+08
 
   -0.37896E+08         0.46982E+07         0.00000E+00
    0.46982E+07        -0.61527E+08         0.00000E+00
    0.00000E+00         0.00000E+00        -0.37305E+08
 
   -0.61329E+08        -0.53475E+06         0.00000E+00
   -0.53475E+06        -0.60012E+08         0.00000E+00
    0.00000E+00         0.00000E+00        -0.40491E+08
 
   -0.58720E+08        -0.12293E+07         0.00000E+00
   -0.12293E+07        -0.60016E+08         0.00000E+00
    0.00000E+00         0.00000E+00        -0.39960E+08
 
   -0.56284E+08        -0.15292E+07         0.00000E+00
   -0.15292E+07        -0.59949E+08         0.00000E+00
    0.00000E+00         0.00000E+00        -0.39449E+08
 
   -0.54101E+08        -0.15771E+07         0.00000E+00
   -0.15771E+07        -0.59797E+08         0.00000E+00
    0.00000E+00         0.00000E+00        -0.38974E+08
 
   -0.52162E+08        -0.14775E+07         0.00000E+00
   -0.14775E+07        -0.59595E+08         0.00000E+00
    0.00000E+00         0.00000E+00        -0.38540E+08
 
   -0.50418E+08        -0.12878E+07         0.00000E+00
   -0.12878E+07        -0.59382E+08         0.00000E+00
    0.00000E+00         0.00000E+00        -0.38145E+08
 
   -0.48817E+08        -0.10354E+07         0.00000E+00
   -0.10354E+07        -0.59193E+08         0.00000E+00
    0.00000E+00         0.00000E+00        -0.37784E+08
 
   -0.47311E+08        -0.73125E+06         0.00000E+00
   -0.73125E+06        -0.59052E+08         0.00000E+00
    0.00000E+00         0.00000E+00        -0.37454E+08
 
   -0.45857E+08        -0.37650E+06         0.00000E+00
   -0.37650E+06        -0.58982E+08         0.00000E+00
    0.00000E+00         0.00000E+00        -0.37150E+08
 
   -0.44414E+08         0.35457E+05         0.00000E+00
    0.35457E+05        -0.59002E+08         0.00000E+00
    0.00000E+00         0.00000E+00        -0.36867E+08
 
   -0.42946E+08         0.51998E+06         0.00000E+00
    0.51998E+06        -0.59132E+08         0.00000E+00
    0.00000E+00         0.00000E+00        -0.36602E+08
 
   -0.41418E+08         0.11051E+07         0.00000E+00
    0.11051E+07        -0.59392E+08         0.00000E+00
    0.00000E+00         0.00000E+00        -0.36352E+08
 
   -0.39807E+08         0.18396E+07         0.00000E+00
    0.18396E+07        -0.59801E+08         0.00000E+00
    0.00000E+00         0.00000E+00        -0.36116E+08
 
   -0.38122E+08         0.27982E+07         0.00000E+00
    0.27982E+07        -0.60360E+08         0.00000E+00
    0.00000E+00         0.00000E+00        -0.35896E+08
 
   -0.36437E+08         0.40687E+07         0.00000E+00
    0.40687E+07        -0.61031E+08         0.00000E+00
    0.00000E+00         0.00000E+00        -0.35700E+08
 
   -0.62267E+08        -0.55222E+06         0.00000E+00
   -0.55222E+06        -0.60004E+08         0.00000E+00
    0.00000E+00         0.00000E+00        -0.39463E+08
 
   -0.59143E+08        -0.11643E+07         0.00000E+00
   -0.11643E+07        -0.59948E+08         0.00000E+00
    0.00000E+00         0.00000E+00        -0.38813E+08
 
   -0.56390E+08        -0.13437E+07         0.00000E+00
   -0.13437E+07        -0.59744E+08         0.00000E+00
    0.00000E+00         0.00000E+00        -0.38211E+08
 
   -0.54042E+08        -0.13174E+07         0.00000E+00
   -0.13174E+07        -0.59433E+08         0.00000E+00
    0.00000E+00         0.00000E+00        -0.37671E+08
 
   -0.52012E+08        -0.11981E+07         0.00000E+00
   -0.11981E+07        -0.59088E+08         0.00000E+00
    0.00000E+00         0.00000E+00        -0.37190E+08
 
   -0.50211E+08        -0.10277E+07         0.00000E+00
   -0.10277E+07        -0.58758E+08         0.00000E+00
    0.00000E+00         0.00000E+00        -0.36761E+08
 
   -0.48567E+08        -0.82252E+06         0.00000E+00
   -0.82252E+06        -0.58474E+08         0.00000E+00
    0.00000E+00         0.00000E+00        -0.36373E+08
 
   -0.47021E+08        -0.58726E+06         0.00000E+00
   -0.58726E+06        -0.58258E+08         0.00000E+00
    0.00000E+00         0.00000E+00        -0.36021E+08
 
   -0.45523E+08        -0.32043E+06         0.00000E+00
   -0.32043E+06        -0.58129E+08         0.00000E+00
    0.00000E+00         0.00000E+00        -0.35696E+08
 
   -0.44027E+08        -0.15464E+05         0.00000E+00
   -0.15464E+05        -0.58103E+08         0.00000E+00
    0.00000E+00         0.00000E+00        -0.35394E+08
 
   -0.42486E+08         0.34084E+06         0.00000E+00
    0.34084E+06        -0.58201E+08         0.00000E+00
    0.00000E+00         0.00000E+00        -0.35108E+08
 
   -0.40849E+08         0.77302E+06         0.00000E+00
    0.77302E+06        -0.58447E+08         0.00000E+00
    0.00000E+00         0.00000E+00        -0.34834E+08
 
   -0.39061E+08         0.13286E+07         0.00000E+00
    0.13286E+07        -0.58874E+08         0.00000E+00
    0.00000E+00         0.00000E+00        -0.34567E+08
 
   -0.37092E+08         0.21085E+07         0.00000E+00
    0.21085E+07        -0.59517E+08         0.00000E+00
    0.00000E+00         0.00000E+00        -0.34307E+08
 
   -0.35003E+08         0.32709E+07         0.00000E+00
    0.32709E+07        -0.60351E+08         0.00000E+00
    0.00000E+00         0.00000E+00        -0.34063E+08
 
   -0.63149E+08        -0.53637E+06         0.00000E+00
   -0.53637E+06        -0.59979E+08         0.00000E+00
    0.00000E+00         0.00000E+00        -0.38419E+08
 
   -0.59403E+08        -0.93644E+06         0.00000E+00
   -0.93644E+06        -0.59761E+08         0.00000E+00
    0.00000E+00         0.00000E+00        -0.37610E+08
 
   -0.56395E+08        -0.96062E+06         0.00000E+00
   -0.96062E+06        -0.59315E+08         0.00000E+00
    0.00000E+00         0.00000E+00        -0.36908E+08
 
   -0.53955E+08        -0.89192E+06         0.00000E+00
   -0.89192E+06        -0.58810E+08         0.00000E+00
    0.00000E+00         0.00000E+00        -0.36311E+08
 
   -0.51880E+08        -0.78878E+06         0.00000E+00
   -0.78878E+06        -0.58322E+08         0.00000E+00
    0.00000E+00         0.00000E+00        -0.35794E+08
 
   -0.50051E+08        -0.66696E+06         0.00000E+00
   -0.66696E+06        -0.57887E+08         0.00000E+00
    0.00000E+00         0.00000E+00        -0.35338E+08
 
   -0.48385E+08        -0.53109E+06         0.00000E+00
   -0.53109E+06        -0.57523E+08         0.00000E+00
    0.00000E+00         0.00000E+00        -0.34931E+08
 
   -0.46816E+08        -0.38141E+06         0.00000E+00
   -0.38141E+06        -0.57246E+08         0.00000E+00
    0.00000E+00         0.00000E+00        -0.34562E+08
 
   -0.45293E+08        -0.21550E+06         0.00000E+00
   -0.21550E+06        -0.57068E+08         0.00000E+00
    0.00000E+00         0.00000E+00        -0.34223E+08
 
   -0.43762E+08        -0.28424E+05         0.00000E+00
   -0.28424E+05        -0.57004E+08         0.00000E+00
    0.00000E+00         0.00000E+00        -0.33907E+08
 
   -0.42172E+08         0.18841E+06         0.00000E+00
    0.18841E+06        -0.57071E+08         0.00000E+00
    0.00000E+00         0.00000E+00        -0.33605E+08
 
   -0.40458E+08         0.45093E+06         0.00000E+00
    0.45093E+06        -0.57296E+08         0.00000E+00
    0.00000E+00         0.00000E+00        -0.33312E+08
 
   -0.38535E+08         0.79178E+06         0.00000E+00
    0.79178E+06        -0.57718E+08         0.00000E+00
    0.00000E+00         0.00000E+00        -0.33017E+08
 
   -0.36273E+08         0.12935E+07         0.00000E+00
    0.12935E+07        -0.58407E+08         0.00000E+00
    0.00000E+00         0.00000E+00        -0.32707E+08
 
   -0.33643E+08         0.22292E+07         0.00000E+00
    0.22292E+07        -0.59457E+08         0.00000E+00
    0.00000E+00         0.00000E+00        -0.32398E+08
 
   -0.63787E+08        -0.33825E+06         0.00000E+00
   -0.33825E+06        -0.59758E+08         0.00000E+00
    0.00000E+00         0.00000E+00        -0.37287E+08
 
   -0.59441E+08        -0.38721E+06         0.00000E+00
   -0.38721E+06        -0.59139E+08         0.00000E+00
    0.00000E+00         0.00000E+00        -0.36276E+08
 
   -0.56357E+08        -0.35504E+06         0.00000E+00
   -0.35504E+06        -0.58445E+08         0.00000E+00
    0.00000E+00         0.00000E+00        -0.35509E+08
 
   -0.53888E+08        -0.31784E+06         0.00000E+00
   -0.31784E+06        -0.57795E+08         0.00000E+00
    0.00000E+00         0.00000E+00        -0.34878E+08
 
   -0.51801E+08        -0.27622E+06         0.00000E+00
   -0.27622E+06        -0.57214E+08         0.00000E+00
    0.00000E+00         0.00000E+00        -0.34340E+08
 
   -0.49963E+08        -0.23157E+06         0.00000E+00
   -0.23157E+06        -0.56714E+08         0.00000E+00
    0.00000E+00         0.00000E+00        -0.33871E+08
 
   -0.48288E+08        -0.18378E+06         0.00000E+00
   -0.18378E+06        -0.56305E+08         0.00000E+00
    0.00000E+00         0.00000E+00        -0.33453E+08
 
   -0.46711E+08        -0.13231E+06         0.00000E+00
   -0.13231E+06        -0.55993E+08         0.00000E+00
    0.00000E+00         0.00000E+00        -0.33076E+08
 
   -0.45175E+08        -0.75989E+05         0.00000E+00
   -0.75989E+05        -0.55788E+08         0.00000E+00
    0.00000E+00         0.00000E+00        -0.32730E+08
 
   -0.43628E+08        -0.12998E+05         0.00000E+00
   -0.12998E+05        -0.55702E+08         0.00000E+00
    0.00000E+00         0.00000E+00        -0.32406E+08
 
   -0.42014E+08         0.59622E+05         0.00000E+00
    0.59622E+05        -0.55750E+08         0.00000E+00
    0.00000E+00         0.00000E+00        -0.32097E+08
 
   -0.40261E+08         0.14715E+06         0.00000E+00
    0.14715E+06        -0.55958E+08         0.00000E+00
    0.00000E+00         0.00000E+00        -0.31792E+08
 
   -0.38265E+08         0.26104E+06         0.00000E+00
    0.26104E+06        -0.56367E+08         0.00000E+00
    0.00000E+00         0.00000E+00        -0.31480E+08
 
   -0.35844E+08         0.42736E+06         0.00000E+00
    0.42736E+06        -0.57055E+08         0.00000E+00
    0.00000E+00         0.00000E+00        -0.31139E+08
 
   -0.32478E+08         0.81762E+06         0.00000E+00
    0.81762E+06        -0.58241E+08         0.00000E+00
    0.00000E+00         0.00000E+00        -0.30708E+08
 
SCALARS stressS double 
LOOKUP_TABLE default
  -57588386.4825762     
  -57306812.6054059     
  -57480047.5674458     
  -58184710.2716148     
  -59468790.8786695     
  -61080108.1098481     
  -62642121.9997073     
  -63968787.5630642     
  -64972646.3627812     
  -65810368.9778862     
  -66552634.7129665     
  -67241974.4634068     
  -67915365.6441319     
  -68619706.8371246     
  -69477131.0443797     
  -58011495.8378362     
  -58334816.3080263     
  -58724429.2833284     
  -59359382.5598709     
  -60254943.1765510     
  -61262019.5188524     
  -62274643.8778127     
  -63212116.0125576     
  -64102549.5930019     
  -64884109.8892096     
  -65589550.8288969     
  -66246374.8679434     
  -66879782.0403338     
  -67518539.5644141     
  -68137869.0100411     
  -58323733.5628603     
  -59113349.2290165     
  -59716038.8841027     
  -60144207.8593644     
  -60590815.3815524     
  -61137200.0690603     
  -61835742.6161262     
  -62600683.2344763     
  -63337933.5039404     
  -64031905.3448352     
  -64674014.5682013     
  -65274206.2506411     
  -65843140.6113331     
  -66380410.3261629     
  -66871841.1180247     
  -58589741.8292501     
  -59120470.8792337     
  -59509807.8611468     
  -59876874.7002401     
  -60305319.1206994     
  -60817909.5573944     
  -61394317.9867299     
  -62011608.1566274     
  -62633860.0003293     
  -63233179.8070053     
  -63800275.1506754     
  -64332101.7604411     
  -64827623.2737181     
  -65281572.8403125     
  -65680084.8415922     
  -58248863.6652772     
  -58685206.3721885     
  -59121710.5333736     
  -59526603.0737983     
  -59949838.0694502     
  -60410728.7713322     
  -60908943.8369178     
  -61429949.3685728     
  -61955976.7572384     
  -62470562.9580631     
  -62962121.5035409     
  -63423925.2703594     
  -63850291.7910830     
  -64233772.9103535     
  -64563504.7932599     
  -57929773.4490788     
  -58350815.7477111     
  -58750602.6374577     
  -59146635.3461846     
  -59546737.3472202     
  -59963218.7299859     
  -60397741.0326380     
  -60844338.1325643     
  -61292798.1215399     
  -61732468.1929612     
  -62154136.5070605     
  -62550247.3546055     
  -62914036.6421108     
  -63238191.3928541     
  -63514187.8168609     
  -57644589.2338054     
  -58025463.1376054     
  -58394510.4456561     
  -58757679.6538074     
  -59122731.9239412     
  -59494029.8176952     
  -59873013.0642353     
  -60256685.3354421     
  -60639140.7662014     
  -61013244.7645007     
  -61371923.9841388     
  -61708527.4827795     
  -62016761.8994227     
  -62290267.8440080     
  -62522523.3589330     
  -57376740.1302403     
  -57713989.6160127     
  -58042639.8662530     
  -58366811.5992275     
  -58690091.0537383     
  -59015112.6931036     
  -59342280.5696588     
  -59669791.5319954     
  -59993901.9214823     
  -60309725.9535821     
  -60611909.6708117     
  -60895120.9594487     
  -61154080.8146660     
  -61383632.6850912     
  -61578863.8379276     
  -57120968.1769090     
  -57410777.4507784     
  -57695201.0273558     
  -57975894.7582494     
  -58254710.5594780     
  -58532822.3354689     
  -58810297.4002736     
  -59085799.0357180     
  -59356806.0084226     
  -59619843.3959432     
  -59870968.0533161     
  -60106051.6236460     
  -60320920.3859745     
  -60511595.6637917     
  -60674398.3566348     
  -56871590.8511029     
  -57113045.8077159     
  -57351183.3641967     
  -57586377.4869729     
  -57819315.4005467     
  -58050460.8009723     
  -58279642.3949683     
  -58505886.1920468     
  -58727423.2726012     
  -58941807.6900685     
  -59146160.2824193     
  -59337335.8303697     
  -59512219.8990230     
  -59667796.3244173     
  -59801380.6388497     
  -56625158.1693770     
  -56818652.5564430     
  -57009939.0799346     
  -57198759.2947185     
  -57385262.1089499     
  -57569577.2132851     
  -57751516.5411201     
  -57930417.9833543     
  -58105047.5549650     
  -58273768.1645060     
  -58434522.0018518     
  -58585093.4477894     
  -58723133.1329052     
  -58846420.9622825     
  -58953054.5580054     
  -56379915.6166075     
  -56526468.9291109     
  -56671021.0338585     
  -56813214.8267573     
  -56953085.1772380     
  -57090746.1492781     
  -57226156.7269314     
  -57358962.8785611     
  -57488481.1377267     
  -57613647.8721953     
  -57733147.9941428     
  -57845463.0714319     
  -57949011.1687904     
  -58042169.3386196     
  -58123483.9383631     
  -56135592.9280851     
  -56236235.6945996     
  -56334332.8760304     
  -56429805.1837492     
  -56522895.8557214     
  -56613940.3149353     
  -56703185.3905299     
  -56790675.6052106     
  -56876182.5772450     
  -56959224.7303263     
  -57039069.5965452     
  -57114792.1738842     
  -57185414.9175318     
  -57249944.6904678     
  -57307292.9745589     
  -55893084.5224960     
  -55948441.3038059     
  -56000127.1054452     
  -56048609.6565643     
  -56094575.6969103     
  -56138765.2632230     
  -56181837.0350681     
  -56224272.0227994     
  -56266326.7902790     
  -56308020.2172725     
  -56349174.1407266     
  -56389433.8786263     
  -56428266.2884324     
  -56465109.2270768     
  -56499428.5797605     
  -55654157.7895464     
  -55664154.2058966     
  -55668952.9094905     
  -55669756.4425954     
  -55667869.3577507     
  -55664574.3970644     
  -55661030.7204697     
  -55658206.5655806     
  -55656843.9112075     
  -55657455.1810709     
  -55660336.9242578     
  -55665611.0984429     
  -55673276.8532765     
  -55683176.7284676     
  -55695113.9262659     
  -55421184.7611191     
  -55384852.0165457     
  -55341560.8376609     
  -55293393.6282570     
  -55242400.7006880     
  -55190506.2878185     
  -55139436.5196685     
  -55090678.0834866     
  -55045462.4342000     
  -55004771.5477954     
  -54969363.3480953     
  -54939805.0140494     
  -54916496.4240229     
  -54899710.9311397     
  -54889518.4898581     
  -55196932.0033336     
  -55112241.4842638     
  -55018784.2884176     
  -54919617.8374222     
  -54817636.6817828     
  -54715476.0410297     
  -54615470.9522457     
  -54519639.3767802     
  -54429688.7715702     
  -54347042.9019142     
  -54272880.0845592     
  -54208170.8280997     
  -54153709.8870840     
  -54110118.1547465     
  -54077848.8677132     
  -54984306.6589700     
  -54848108.3832325     
  -54701404.0184287     
  -54548367.1382376     
  -54392807.2947304     
  -54238120.5949089     
  -54087267.6279618     
  -53942779.9266548     
  -53806799.9905066     
  -53681139.1967629     
  -53567341.2021194     
  -53466739.9818035     
  -53380502.3360099     
  -53309651.4572873     
  -53255045.2139072     
  -54786411.5963362     
  -54594118.4730584     
  -54389975.1446969     
  -54179270.1955744     
  -53966787.4768460     
  -53756717.8731887     
  -53552622.4073317     
  -53357491.8037016     
  -53173825.2478197     
  -53003734.3142700     
  -52849050.5574518     
  -52711422.2308678     
  -52592384.8988992     
  -52493388.6743215     
  -52415767.4480749     
  -54605663.0702009     
  -54351606.8344623     
  -54084631.0033090     
  -53811462.3808555     
  -53537961.5459495     
  -53269078.2023576     
  -53008932.2343898     
  -52760858.8180286     
  -52527577.2592486     
  -52311363.6143426     
  -52114226.6975958     
  -51938060.7926816     
  -51784752.5746449     
  -51656220.4769156     
  -51554376.1713821     
  -54444806.6202845     
  -54121383.6875723     
  -53784874.4723999     
  -53443459.2998427     
  -53104050.0660771     
  -52772431.9860039     
  -52453111.1661139     
  -52149601.8057679     
  -51864631.4948531     
  -51600435.4853906     
  -51359033.3542023     
  -51142460.7212152     
  -50952925.4318243     
  -50792868.0267160     
  -50664912.9268026     
  -54305733.1107474     
  -53903857.2508759     
  -53489577.6081462     
  -53072846.5897065     
  -52661946.1918909     
  -52263229.8674753     
  -51881471.1218045     
  -51520042.8334974     
  -51181359.9980928     
  -50867316.1021754     
  -50579699.5135123     
  -50320529.2227169     
  -50092280.2647384     
  -49897976.4546192     
  -49741131.3066765     
  -54189868.5126701     
  -53698048.5820164     
  -53196068.6792846     
  -52695911.1193087     
  -52207226.3158960     
  -51736910.4239448     
  -51289599.0761426     
  -50868074.3138151     
  -50473980.9162995     
  -50108453.1961784     
  -49772704.2479641     
  -49468495.5911920     
  -49198467.8496097     
  -48966290.2244228     
  -48776595.5554348     
  -54097408.5957053     
  -53501534.8501609     
  -52899743.7028890     
  -52306840.2150590     
  -51733732.9868865     
  -51187590.2275932     
  -50672201.3882533     
  -50189139.2197289     
  -49738653.2022011     
  -49320575.6957116     
  -48935066.0145633     
  -48583261.8350155     
  -48267768.8408888     
  -47992944.0210790     
  -47764859.0139719     
  -54027740.5277190     
  -53309548.4028317     
  -52593192.5143968     
  -51896947.5438051     
  -51232968.7695548     
  -50607644.9567554     
  -50022944.4466640     
  -49478249.1753944     
  -48971638.3090047     
  -48500983.9797392     
  -48064777.3076892     
  -47662937.1768747     
  -47297654.5951112     
  -46973941.4111441     
  -46699750.4653889     
  -53978399.6889398     
  -53113696.9890848     
  -52264392.5703846     
  -51453480.4443069     
  -50693242.0257311     
  -49987378.2708935     
  -49334374.7295436     
  -48730067.9167971     
  -48169534.4548950     
  -47647951.3367872     
  -47161348.2844589     
  -46707619.0855794     
  -46287689.1460939     
  -45906984.9779647     
  -45575838.3765029     
  -53943762.9586897     
  -52898598.8158152     
  -51893777.1253932     
  -50957511.3517442     
  -50098864.9943817     
  -49314986.2143687     
  -48598029.4031355     
  -47939106.8587310     
  -47329489.0903700     
  -46761025.3954470     
  -46226572.1180627     
  -45720520.0200210     
  -45241161.7323255     
  -44792848.9706822     
  -44389265.9111023     
  -53911244.0644904     
  -52634807.4190420     
  -51448394.8064864     
  -50381623.5007293     
  -49430130.2430492     
  -48576705.3672602     
  -47804879.9590113     
  -47100063.4585410     
  -46449387.2296137     
  -45841288.5006132     
  -45264867.3105503     
  -44709908.7234203     
  -44167313.1489996     
  -43638882.0095064     
  -43138890.6164719     
  -53848776.2560942     
  -52258053.9265073     
  -50872607.7739421     
  -49691828.9075069     
  -48665307.2323471     
  -47758668.3141024     
  -46946263.6973084     
  -46208177.7525528     
  -45527940.9875823     
  -44890863.6625612     
  -44282750.1233914     
  -43688356.4307555     
  -43089973.8032921     
  -42462597.6152725     
  -41832648.7436566     
  -53610986.2652292     
  -51618716.0621102     
  -50103922.6987732     
  -48853665.2669200     
  -47784922.7103414     
  -46849435.6270484     
  -46015494.5713814     
  -45259936.2702222     
  -44564206.5029213     
  -43911926.4856860     
  -43286845.1717353     
  -42670399.1809717     
  -42037273.2953631     
  -41346004.2121707     
  -40475576.8372530     
SCALARS 2waySource double 
LOOKUP_TABLE default
  0.000000000000000E+000
  0.000000000000000E+000
  0.000000000000000E+000
  0.000000000000000E+000
  0.000000000000000E+000
  0.000000000000000E+000
  0.000000000000000E+000
  0.000000000000000E+000
  0.000000000000000E+000
  0.000000000000000E+000
  0.000000000000000E+000
  0.000000000000000E+000
  0.000000000000000E+000
  0.000000000000000E+000
  0.000000000000000E+000
  0.000000000000000E+000
  0.000000000000000E+000
  0.000000000000000E+000
  0.000000000000000E+000
  0.000000000000000E+000
  0.000000000000000E+000
  0.000000000000000E+000
  0.000000000000000E+000
  0.000000000000000E+000
  0.000000000000000E+000
  0.000000000000000E+000
  0.000000000000000E+000
  0.000000000000000E+000
  0.000000000000000E+000
  0.000000000000000E+000
  0.000000000000000E+000
  0.000000000000000E+000
  0.000000000000000E+000
  0.000000000000000E+000
  0.000000000000000E+000
  0.000000000000000E+000
  0.000000000000000E+000
  0.000000000000000E+000
  0.000000000000000E+000
  0.000000000000000E+000
  0.000000000000000E+000
  0.000000000000000E+000
  0.000000000000000E+000
  0.000000000000000E+000
  0.000000000000000E+000
  0.000000000000000E+000
  0.000000000000000E+000
  0.000000000000000E+000
  0.000000000000000E+000
  0.000000000000000E+000
  0.000000000000000E+000
  0.000000000000000E+000
  0.000000000000000E+000
  0.000000000000000E+000
  0.000000000000000E+000
  0.000000000000000E+000
  0.000000000000000E+000
  0.000000000000000E+000
  0.000000000000000E+000
  0.000000000000000E+000
  0.000000000000000E+000
  0.000000000000000E+000
  0.000000000000000E+000
  0.000000000000000E+000
  0.000000000000000E+000
  0.000000000000000E+000
  0.000000000000000E+000
  0.000000000000000E+000
  0.000000000000000E+000
  0.000000000000000E+000
  0.000000000000000E+000
  0.000000000000000E+000
  0.000000000000000E+000
  0.000000000000000E+000
  0.000000000000000E+000
  0.000000000000000E+000
  0.000000000000000E+000
  0.000000000000000E+000
  0.000000000000000E+000
  0.000000000000000E+000
  0.000000000000000E+000
  0.000000000000000E+000
  0.000000000000000E+000
  0.000000000000000E+000
  0.000000000000000E+000
  0.000000000000000E+000
  0.000000000000000E+000
  0.000000000000000E+000
  0.000000000000000E+000
  0.000000000000000E+000
  0.000000000000000E+000
  0.000000000000000E+000
  0.000000000000000E+000
  0.000000000000000E+000
  0.000000000000000E+000
  0.000000000000000E+000
  0.000000000000000E+000
  0.000000000000000E+000
  0.000000000000000E+000
  0.000000000000000E+000
  0.000000000000000E+000
  0.000000000000000E+000
  0.000000000000000E+000
  0.000000000000000E+000
  0.000000000000000E+000
  0.000000000000000E+000
  0.000000000000000E+000
  0.000000000000000E+000
  0.000000000000000E+000
  0.000000000000000E+000
  0.000000000000000E+000
  0.000000000000000E+000
  0.000000000000000E+000
  0.000000000000000E+000
  0.000000000000000E+000
  0.000000000000000E+000
  0.000000000000000E+000
  0.000000000000000E+000
  0.000000000000000E+000
  0.000000000000000E+000
  0.000000000000000E+000
  0.000000000000000E+000
  0.000000000000000E+000
  0.000000000000000E+000
  0.000000000000000E+000
  0.000000000000000E+000
  0.000000000000000E+000
  0.000000000000000E+000
  0.000000000000000E+000
  0.000000000000000E+000
  0.000000000000000E+000
  0.000000000000000E+000
  0.000000000000000E+000
  0.000000000000000E+000
  0.000000000000000E+000
  0.000000000000000E+000
  0.000000000000000E+000
  0.000000000000000E+000
  0.000000000000000E+000
  0.000000000000000E+000
  0.000000000000000E+000
  0.000000000000000E+000
  0.000000000000000E+000
  0.000000000000000E+000
  0.000000000000000E+000
  0.000000000000000E+000
  0.000000000000000E+000
  0.000000000000000E+000
  0.000000000000000E+000
  0.000000000000000E+000
  0.000000000000000E+000
  0.000000000000000E+000
  0.000000000000000E+000
  0.000000000000000E+000
  0.000000000000000E+000
  0.000000000000000E+000
  0.000000000000000E+000
  0.000000000000000E+000
  0.000000000000000E+000
  0.000000000000000E+000
  0.000000000000000E+000
  0.000000000000000E+000
  0.000000000000000E+000
  0.000000000000000E+000
  0.000000000000000E+000
  0.000000000000000E+000
  0.000000000000000E+000
  0.000000000000000E+000
  0.000000000000000E+000
  0.000000000000000E+000
  0.000000000000000E+000
  0.000000000000000E+000
  0.000000000000000E+000
  0.000000000000000E+000
  0.000000000000000E+000
  0.000000000000000E+000
  0.000000000000000E+000
  0.000000000000000E+000
  0.000000000000000E+000
  0.000000000000000E+000
  0.000000000000000E+000
  0.000000000000000E+000
  0.000000000000000E+000
  0.000000000000000E+000
  0.000000000000000E+000
  0.000000000000000E+000
  0.000000000000000E+000
  0.000000000000000E+000
  0.000000000000000E+000
  0.000000000000000E+000
  0.000000000000000E+000
  0.000000000000000E+000
  0.000000000000000E+000
  0.000000000000000E+000
  0.000000000000000E+000
  0.000000000000000E+000
  0.000000000000000E+000
  0.000000000000000E+000
  0.000000000000000E+000
  0.000000000000000E+000
  0.000000000000000E+000
  0.000000000000000E+000
  0.000000000000000E+000
  0.000000000000000E+000
  0.000000000000000E+000
  0.000000000000000E+000
  0.000000000000000E+000
  0.000000000000000E+000
  0.000000000000000E+000
  0.000000000000000E+000
  0.000000000000000E+000
  0.000000000000000E+000
  0.000000000000000E+000
  0.000000000000000E+000
  0.000000000000000E+000
  0.000000000000000E+000
  0.000000000000000E+000
  0.000000000000000E+000
  0.000000000000000E+000
  0.000000000000000E+000
  0.000000000000000E+000
  0.000000000000000E+000
  0.000000000000000E+000
  0.000000000000000E+000
  0.000000000000000E+000
  0.000000000000000E+000
  0.000000000000000E+000
  0.000000000000000E+000
  0.000000000000000E+000
  0.000000000000000E+000
  0.000000000000000E+000
  0.000000000000000E+000
  0.000000000000000E+000
  0.000000000000000E+000
  0.000000000000000E+000
  0.000000000000000E+000
  0.000000000000000E+000
  0.000000000000000E+000
  0.000000000000000E+000
  0.000000000000000E+000
  0.000000000000000E+000
  0.000000000000000E+000
  0.000000000000000E+000
  0.000000000000000E+000
  0.000000000000000E+000
  0.000000000000000E+000
  0.000000000000000E+000
  0.000000000000000E+000
  0.000000000000000E+000
  0.000000000000000E+000
  0.000000000000000E+000
  0.000000000000000E+000
  0.000000000000000E+000
  0.000000000000000E+000
  0.000000000000000E+000
  0.000000000000000E+000
  0.000000000000000E+000
  0.000000000000000E+000
  0.000000000000000E+000
  0.000000000000000E+000
  0.000000000000000E+000
  0.000000000000000E+000
  0.000000000000000E+000
  0.000000000000000E+000
  0.000000000000000E+000
  0.000000000000000E+000
  0.000000000000000E+000
  0.000000000000000E+000
  0.000000000000000E+000
  0.000000000000000E+000
  0.000000000000000E+000
  0.000000000000000E+000
  0.000000000000000E+000
  0.000000000000000E+000
  0.000000000000000E+000
  0.000000000000000E+000
  0.000000000000000E+000
  0.000000000000000E+000
  0.000000000000000E+000
  0.000000000000000E+000
  0.000000000000000E+000
  0.000000000000000E+000
  0.000000000000000E+000
  0.000000000000000E+000
  0.000000000000000E+000
  0.000000000000000E+000
  0.000000000000000E+000
  0.000000000000000E+000
  0.000000000000000E+000
  0.000000000000000E+000
  0.000000000000000E+000
  0.000000000000000E+000
  0.000000000000000E+000
  0.000000000000000E+000
  0.000000000000000E+000
  0.000000000000000E+000
  0.000000000000000E+000
  0.000000000000000E+000
  0.000000000000000E+000
  0.000000000000000E+000
  0.000000000000000E+000
  0.000000000000000E+000
  0.000000000000000E+000
  0.000000000000000E+000
  0.000000000000000E+000
  0.000000000000000E+000
  0.000000000000000E+000
  0.000000000000000E+000
  0.000000000000000E+000
  0.000000000000000E+000
  0.000000000000000E+000
  0.000000000000000E+000
  0.000000000000000E+000
  0.000000000000000E+000
  0.000000000000000E+000
  0.000000000000000E+000
  0.000000000000000E+000
  0.000000000000000E+000
  0.000000000000000E+000
  0.000000000000000E+000
  0.000000000000000E+000
  0.000000000000000E+000
  0.000000000000000E+000
  0.000000000000000E+000
  0.000000000000000E+000
  0.000000000000000E+000
  0.000000000000000E+000
  0.000000000000000E+000
  0.000000000000000E+000
  0.000000000000000E+000
  0.000000000000000E+000
  0.000000000000000E+000
  0.000000000000000E+000
  0.000000000000000E+000
  0.000000000000000E+000
  0.000000000000000E+000
  0.000000000000000E+000
  0.000000000000000E+000
  0.000000000000000E+000
  0.000000000000000E+000
  0.000000000000000E+000
  0.000000000000000E+000
  0.000000000000000E+000
  0.000000000000000E+000
  0.000000000000000E+000
  0.000000000000000E+000
  0.000000000000000E+000
  0.000000000000000E+000
  0.000000000000000E+000
  0.000000000000000E+000
  0.000000000000000E+000
  0.000000000000000E+000
  0.000000000000000E+000
  0.000000000000000E+000
  0.000000000000000E+000
  0.000000000000000E+000
  0.000000000000000E+000
  0.000000000000000E+000
  0.000000000000000E+000
  0.000000000000000E+000
  0.000000000000000E+000
  0.000000000000000E+000
  0.000000000000000E+000
  0.000000000000000E+000
  0.000000000000000E+000
  0.000000000000000E+000
  0.000000000000000E+000
  0.000000000000000E+000
  0.000000000000000E+000
  0.000000000000000E+000
  0.000000000000000E+000
  0.000000000000000E+000
  0.000000000000000E+000
  0.000000000000000E+000
  0.000000000000000E+000
  0.000000000000000E+000
  0.000000000000000E+000
  0.000000000000000E+000
  0.000000000000000E+000
  0.000000000000000E+000
  0.000000000000000E+000
  0.000000000000000E+000
  0.000000000000000E+000
  0.000000000000000E+000
  0.000000000000000E+000
  0.000000000000000E+000
  0.000000000000000E+000
  0.000000000000000E+000
  0.000000000000000E+000
  0.000000000000000E+000
  0.000000000000000E+000
  0.000000000000000E+000
  0.000000000000000E+000
  0.000000000000000E+000
  0.000000000000000E+000
  0.000000000000000E+000
  0.000000000000000E+000
  0.000000000000000E+000
  0.000000000000000E+000
  0.000000000000000E+000
  0.000000000000000E+000
  0.000000000000000E+000
  0.000000000000000E+000
  0.000000000000000E+000
  0.000000000000000E+000
  0.000000000000000E+000
  0.000000000000000E+000
  0.000000000000000E+000
  0.000000000000000E+000
  0.000000000000000E+000
  0.000000000000000E+000
  0.000000000000000E+000
  0.000000000000000E+000
  0.000000000000000E+000
  0.000000000000000E+000
  0.000000000000000E+000
  0.000000000000000E+000
  0.000000000000000E+000
  0.000000000000000E+000
  0.000000000000000E+000
  0.000000000000000E+000
  0.000000000000000E+000
  0.000000000000000E+000
  0.000000000000000E+000
  0.000000000000000E+000
  0.000000000000000E+000
  0.000000000000000E+000
  0.000000000000000E+000
  0.000000000000000E+000
  0.000000000000000E+000
  0.000000000000000E+000
  0.000000000000000E+000
  0.000000000000000E+000
  0.000000000000000E+000
  0.000000000000000E+000
  0.000000000000000E+000
  0.000000000000000E+000
  0.000000000000000E+000
  0.000000000000000E+000
  0.000000000000000E+000
  0.000000000000000E+000
  0.000000000000000E+000
  0.000000000000000E+000
  0.000000000000000E+000
  0.000000000000000E+000
  0.000000000000000E+000
  0.000000000000000E+000
  0.000000000000000E+000
  0.000000000000000E+000
  0.000000000000000E+000
SCALARS poroP double 
LOOKUP_TABLE default
  7.104312869294811E-005
  6.295608739043720E-005
  5.100985278309375E-005
  3.902411636710546E-005
  2.981120900329156E-005
  2.316346018692328E-005
  1.832900412035160E-005
  1.725081919672612E-005
  1.722820320239415E-005
  1.720452472843193E-005
  1.717955789162498E-005
  1.715321016426914E-005
  1.712546860012096E-005
  1.709632276041599E-005
  1.706575897210809E-005
  5.136106507072791E-005
  4.139432675201781E-005
  3.277919062426632E-005
  2.645614508138002E-005
  2.149870143393808E-005
  1.795540971806304E-005
  1.727195391016373E-005
  1.725038801669596E-005
  1.722776292715092E-005
  1.720415436308756E-005
  1.717931746840328E-005
  1.715311430507237E-005
  1.712555331901253E-005
  1.709661988143557E-005
  1.706629799876583E-005
  3.150083692209104E-005
  2.357092899738209E-005
  1.959866093527972E-005
  1.765997601098546E-005
  1.731053753092270E-005
  1.729149007635114E-005
  1.727111855365050E-005
  1.724954934408012E-005
  1.722695015829400E-005
  1.720345471768321E-005
  1.717883533015436E-005
  1.715292228623890E-005
  1.712572584743878E-005
  1.709722155936374E-005
  1.706738287464734E-005
  1.923954239119362E-005
  1.735773728690729E-005
  1.734344566641892E-005
  1.732733675804085E-005
  1.730958911624792E-005
  1.729036820708732E-005
  1.726991171870312E-005
  1.724835202117344E-005
  1.722580510978376E-005
  1.720244450678374E-005
  1.717812727798572E-005
  1.715265568928932E-005
  1.712600507807946E-005
  1.709814360320233E-005
  1.706902610724897E-005
  1.736990754816108E-005
  1.735742822784409E-005
  1.734287940042776E-005
  1.732644384980885E-005
  1.730838783618279E-005
  1.728895945143569E-005
  1.726839951586070E-005
  1.724688041810484E-005
  1.722435586023820E-005
  1.720111440111307E-005
  1.717722588347818E-005
  1.715235910337497E-005
  1.712642892718475E-005
  1.709940902589684E-005
  1.707124482723416E-005
  1.736921845545797E-005
  1.735662234145666E-005
  1.734193841949831E-005
  1.732532375023509E-005
  1.730700985767843E-005
  1.728736948654173E-005
  1.726674012610582E-005
  1.724524322395457E-005
  1.722274381101964E-005
  1.719959393106883E-005
  1.717616722721923E-005
  1.715205999138953E-005
  1.712702826100112E-005
  1.710105120135221E-005
  1.707406299937566E-005
  1.736763076256014E-005
  1.735502649742503E-005
  1.734034851328452E-005
  1.732375207602773E-005
  1.730543471190364E-005
  1.728567856233720E-005
  1.726496741920848E-005
  1.724353198861543E-005
  1.722117646217011E-005
  1.719810853295710E-005
  1.717504641619952E-005
  1.715178814665585E-005
  1.712782604955116E-005
  1.710309927176037E-005
  1.707750902792610E-005
  1.736480618307362E-005
  1.735233330735930E-005
  1.733783708627322E-005
  1.732147835479757E-005
  1.730344108951366E-005
  1.728390054321584E-005
  1.726314601611702E-005
  1.724175765390464E-005
  1.721981230199785E-005
  1.719696968373199E-005
  1.717405572293755E-005
  1.715159640898680E-005
  1.712887399734930E-005
  1.710557891445271E-005
  1.708160954773978E-005
  1.736039070141961E-005
  1.734822406953827E-005
  1.733411234304748E-005
  1.731822318948688E-005
  1.730071521184799E-005
  1.728173680675340E-005
  1.726132620730017E-005
  1.724009231346917E-005
  1.721868744758844E-005
  1.719649110489210E-005
  1.717368932353533E-005
  1.715164840486780E-005
  1.713018796417375E-005
  1.710850535453424E-005
  1.708638914037910E-005
  1.735401851837357E-005
  1.734235968969152E-005
  1.732886289859877E-005
  1.731368981595886E-005
  1.729698745995760E-005
  1.727886726644530E-005
  1.725939932987745E-005
  1.723880457359589E-005
  1.721784653855943E-005
  1.719662214561858E-005
  1.717452088838352E-005
  1.715249637591895E-005
  1.713182763911728E-005
  1.711188448848374E-005
  1.709185913385276E-005
  1.734531285690903E-005
  1.733438510029401E-005
  1.732176864447194E-005
  1.730760441724674E-005
  1.729202755656337E-005
  1.727514061816710E-005
  1.725703203251075E-005
  1.723760775214933E-005
  1.721734092605409E-005
  1.719713122530440E-005
  1.717649046195502E-005
  1.715506451495501E-005
  1.713442299049413E-005
  1.711569125551363E-005
  1.709800569384470E-005
  1.733384961554622E-005
  1.732394196501223E-005
  1.731252688778230E-005
  1.729972498053600E-005
  1.728564490600171E-005
  1.727037486848504E-005
  1.725394209740804E-005
  1.723631799956457E-005
  1.721747886241896E-005
  1.719814315018383E-005
  1.717892742885681E-005
  1.715928582566129E-005
  1.713922534275784E-005
  1.712057250728738E-005
  1.710476536312922E-005
  1.731921753036719E-005
  1.731068111934241E-005
  1.730085833486447E-005
  1.728983026140984E-005
  1.727766013135206E-005
  1.726439217848985E-005
  1.725003793598461E-005
  1.723457265094024E-005
  1.721790870097790E-005
  1.720009134979392E-005
  1.718195820854783E-005
  1.716401535485506E-005
  1.714590410715851E-005
  1.712795133973796E-005
  1.711301194341621E-005
  1.730104697026503E-005
  1.729428902976868E-005
  1.728650833101197E-005
  1.727771662142699E-005
  1.726791580913261E-005
  1.725709494978245E-005
  1.724522707579871E-005
  1.723225637008859E-005
  1.721811194109028E-005
  1.720276318337670E-005
  1.718636021564638E-005
  1.716964312071867E-005
  1.715326814575306E-005
  1.713755531955967E-005
  1.712362934316507E-005
  1.727903857857719E-005
  1.727450762829497E-005
  1.726925244765388E-005
  1.726320095463759E-005
  1.725627326004052E-005
  1.724838699099033E-005
  1.723945180270954E-005
  1.722936842190466E-005
  1.721805503473784E-005
  1.720548630245287E-005
  1.719175949769736E-005
  1.717719618899154E-005
  1.716255785357165E-005
  1.714866284783026E-005
  1.713538741974819E-005
  1.725298680953177E-005
  1.725113391301355E-005
  1.724890328727447E-005
  1.724612275624285E-005
  1.724260097058751E-005
  1.723816620124317E-005
  1.723264904370980E-005
  1.722589017175555E-005
  1.721777927922725E-005
  1.720829502357142E-005
  1.719754473969150E-005
  1.718577833846093E-005
  1.717338131823949E-005
  1.716072179619296E-005
  1.714774376420659E-005
  1.722277890096480E-005
  1.722401578513409E-005
  1.722533314639705E-005
  1.722636244968056E-005
  1.722676870939260E-005
  1.722628519231443E-005
  1.722464858358852E-005
  1.722163854820078E-005
  1.721712057289644E-005
  1.721106389740171E-005
  1.720353390416382E-005
  1.719465878097410E-005
  1.718456015309241E-005
  1.717330663911914E-005
  1.716100249019234E-005
  1.718828752999698E-005
  1.719311740230228E-005
  1.719856122781738E-005
  1.720385842094163E-005
  1.720861007660761E-005
  1.721246596895007E-005
  1.721508313514386E-005
  1.721619431551657E-005
  1.721563357182982E-005
  1.721332173213610E-005
  1.720923730221044E-005
  1.720337716367195E-005
  1.719572420561954E-005
  1.718628887080904E-005
  1.717515647255732E-005
  1.715054497119021E-005
  1.715884269342120E-005
  1.716867806212265E-005
  1.717852301495811E-005
  1.718782446899229E-005
  1.719622448259849E-005
  1.720335858387314E-005
  1.720891952226336E-005
  1.721266813117719E-005
  1.721443562414287E-005
  1.721409521335000E-005
  1.721154221321626E-005
  1.720669576106273E-005
  1.719952864200515E-005
  1.719010171962895E-005
  1.711308887130070E-005
  1.712315678050252E-005
  1.713599252725762E-005
  1.715013958505809E-005
  1.716392968905975E-005
  1.717688685177325E-005
  1.718868636971690E-005
  1.719896724291567E-005
  1.720738742616605E-005
  1.721364600189777E-005
  1.721748648236209E-005
  1.721870766351127E-005
  1.721717789583422E-005
  1.721284689292250E-005
  1.720576581109240E-005
  1.707497251981304E-005
  1.708743439558244E-005
  1.710190809745190E-005
  1.711877382670395E-005
  1.713648888758952E-005
  1.715375600605130E-005
  1.717022364373505E-005
  1.718544022432710E-005
  1.719892030247275E-005
  1.721016928347178E-005
  1.721875672528084E-005
  1.722436523796008E-005
  1.722680829715202E-005
  1.722602601354734E-005
  1.722206575244818E-005
  1.703483395848225E-005
  1.705020864674627E-005
  1.706669397036032E-005
  1.708500387608439E-005
  1.710539004132316E-005
  1.712641365775150E-005
  1.714727400065888E-005
  1.716749761439690E-005
  1.718637147262674E-005
  1.720313956212122E-005
  1.721713490628686E-005
  1.722788209040123E-005
  1.723512336666146E-005
  1.723878056760533E-005
  1.723888950236504E-005
  1.699399408153828E-005
  1.701137757382661E-005
  1.702972455427228E-005
  1.704908595516387E-005
  1.707086716696088E-005
  1.709466268495561E-005
  1.711940019437864E-005
  1.714442421390326E-005
  1.716881997852012E-005
  1.719154895073921E-005
  1.721165842317291E-005
  1.722844941274888E-005
  1.724153010456841E-005
  1.725074774306234E-005
  1.725609662348292E-005
  1.695512293836246E-005
  1.697218112593623E-005
  1.699110836922086E-005
  1.701107040783982E-005
  1.703320630601676E-005
  1.705868300697076E-005
  1.708653400808346E-005
  1.711572988185476E-005
  1.714536035976558E-005
  1.717422348478512E-005
  1.720111592935558E-005
  1.722503288731577E-005
  1.724527376156680E-005
  1.726146710242340E-005
  1.727351770956204E-005
  1.691818416693939E-005
  1.693384272762212E-005
  1.695155458704188E-005
  1.697129815352897E-005
  1.699332814906495E-005
  1.701931890588477E-005
  1.704905655896006E-005
  1.708131337716682E-005
  1.711526328736624E-005
  1.714993116544383E-005
  1.718409713399281E-005
  1.721633713472709E-005
  1.724534928413329E-005
  1.727031187849382E-005
  1.729092234635387E-005
  1.688212007329634E-005
  1.689598978872570E-005
  1.691171680958588E-005
  1.693055769705298E-005
  1.695245437478766E-005
  1.697796920325545E-005
  1.700791808566953E-005
  1.704163689598166E-005
  1.707839690471204E-005
  1.711787448843667E-005
  1.715919863327525E-005
  1.720069226682778E-005
  1.724028481512404E-005
  1.727633174791264E-005
  1.730796216627402E-005
  1.684649920774991E-005
  1.685789989739231E-005
  1.687170360103138E-005
  1.688976049902247E-005
  1.691149527981028E-005
  1.693607657360234E-005
  1.696457075950192E-005
  1.699781165736140E-005
  1.703576943228614E-005
  1.707833739795576E-005
  1.712534705998853E-005
  1.717592373529152E-005
  1.722785996335454E-005
  1.727800678472200E-005
  1.732411562083091E-005
  1.681103425743315E-005
  1.681961638948536E-005
  1.683232066509099E-005
  1.684962214102807E-005
  1.687080727638783E-005
  1.689442891120334E-005
  1.692082872490229E-005
  1.695197661364221E-005
  1.698916398774660E-005
  1.703270353106080E-005
  1.708292556516043E-005
  1.714038072185327E-005
  1.720475713473101E-005
  1.727262449923960E-005
  1.733839104961829E-005
  1.677472321296133E-005
  1.678273164855121E-005
  1.679528029383840E-005
  1.681069930533397E-005
  1.682974185743654E-005
  1.685195013868169E-005
  1.687720144638991E-005
  1.690654334106781E-005
  1.694154605644108E-005
  1.698395719423363E-005
  1.703469226137223E-005
  1.709529242774814E-005
  1.716800379142891E-005
  1.725410968556755E-005
  1.734841926948959E-005
  1.674223229449198E-005
  1.674900217865936E-005
  1.675917198758510E-005
  1.677234847008001E-005
  1.678819709968681E-005
  1.680829949380219E-005
  1.683299169468708E-005
  1.686194621060494E-005
  1.689578496208762E-005
  1.693599248869722E-005
  1.698521170392248E-005
  1.704592028965537E-005
  1.712110503777190E-005
  1.721677814352317E-005
  1.734466384322242E-005
SCALARS elementIsPlast double 
LOOKUP_TABLE default
  0.000000000000000E+000
  0.000000000000000E+000
  0.000000000000000E+000
  0.000000000000000E+000
  0.000000000000000E+000
  0.000000000000000E+000
  0.000000000000000E+000
  0.000000000000000E+000
  0.000000000000000E+000
  0.000000000000000E+000
  0.000000000000000E+000
  0.000000000000000E+000
  0.000000000000000E+000
  0.000000000000000E+000
  0.000000000000000E+000
  0.000000000000000E+000
  0.000000000000000E+000
  0.000000000000000E+000
  0.000000000000000E+000
  0.000000000000000E+000
  0.000000000000000E+000
  0.000000000000000E+000
  0.000000000000000E+000
  0.000000000000000E+000
  0.000000000000000E+000
  0.000000000000000E+000
  0.000000000000000E+000
  0.000000000000000E+000
  0.000000000000000E+000
  0.000000000000000E+000
  0.000000000000000E+000
  0.000000000000000E+000
  0.000000000000000E+000
  0.000000000000000E+000
  0.000000000000000E+000
  0.000000000000000E+000
  0.000000000000000E+000
  0.000000000000000E+000
  0.000000000000000E+000
  0.000000000000000E+000
  0.000000000000000E+000
  0.000000000000000E+000
  0.000000000000000E+000
  0.000000000000000E+000
  0.000000000000000E+000
  0.000000000000000E+000
  0.000000000000000E+000
  0.000000000000000E+000
  0.000000000000000E+000
  0.000000000000000E+000
  0.000000000000000E+000
  0.000000000000000E+000
  0.000000000000000E+000
  0.000000000000000E+000
  0.000000000000000E+000
  0.000000000000000E+000
  0.000000000000000E+000
  0.000000000000000E+000
  0.000000000000000E+000
  0.000000000000000E+000
  0.000000000000000E+000
  0.000000000000000E+000
  0.000000000000000E+000
  0.000000000000000E+000
  0.000000000000000E+000
  0.000000000000000E+000
  0.000000000000000E+000
  0.000000000000000E+000
  0.000000000000000E+000
  0.000000000000000E+000
  0.000000000000000E+000
  0.000000000000000E+000
  0.000000000000000E+000
  0.000000000000000E+000
  0.000000000000000E+000
  0.000000000000000E+000
  0.000000000000000E+000
  0.000000000000000E+000
  0.000000000000000E+000
  0.000000000000000E+000
  0.000000000000000E+000
  0.000000000000000E+000
  0.000000000000000E+000
  0.000000000000000E+000
  0.000000000000000E+000
  0.000000000000000E+000
  0.000000000000000E+000
  0.000000000000000E+000
  0.000000000000000E+000
  0.000000000000000E+000
  0.000000000000000E+000
  0.000000000000000E+000
  0.000000000000000E+000
  0.000000000000000E+000
  0.000000000000000E+000
  0.000000000000000E+000
  0.000000000000000E+000
  0.000000000000000E+000
  0.000000000000000E+000
  0.000000000000000E+000
  0.000000000000000E+000
  0.000000000000000E+000
  0.000000000000000E+000
  0.000000000000000E+000
  0.000000000000000E+000
  0.000000000000000E+000
  0.000000000000000E+000
  0.000000000000000E+000
  0.000000000000000E+000
  0.000000000000000E+000
  0.000000000000000E+000
  0.000000000000000E+000
  0.000000000000000E+000
  0.000000000000000E+000
  0.000000000000000E+000
  0.000000000000000E+000
  0.000000000000000E+000
  0.000000000000000E+000
  0.000000000000000E+000
  0.000000000000000E+000
  0.000000000000000E+000
  0.000000000000000E+000
  0.000000000000000E+000
  0.000000000000000E+000
  0.000000000000000E+000
  0.000000000000000E+000
  0.000000000000000E+000
  0.000000000000000E+000
  0.000000000000000E+000
  0.000000000000000E+000
  0.000000000000000E+000
  0.000000000000000E+000
  0.000000000000000E+000
  0.000000000000000E+000
  0.000000000000000E+000
  0.000000000000000E+000
  0.000000000000000E+000
  0.000000000000000E+000
  0.000000000000000E+000
  0.000000000000000E+000
  0.000000000000000E+000
  0.000000000000000E+000
  0.000000000000000E+000
  0.000000000000000E+000
  0.000000000000000E+000
  0.000000000000000E+000
  0.000000000000000E+000
  0.000000000000000E+000
  0.000000000000000E+000
  0.000000000000000E+000
  0.000000000000000E+000
  0.000000000000000E+000
  0.000000000000000E+000
  0.000000000000000E+000
  0.000000000000000E+000
  0.000000000000000E+000
  0.000000000000000E+000
  0.000000000000000E+000
  0.000000000000000E+000
  0.000000000000000E+000
  0.000000000000000E+000
  0.000000000000000E+000
  0.000000000000000E+000
  0.000000000000000E+000
  0.000000000000000E+000
  0.000000000000000E+000
  0.000000000000000E+000
  0.000000000000000E+000
  0.000000000000000E+000
  0.000000000000000E+000
  0.000000000000000E+000
  0.000000000000000E+000
  0.000000000000000E+000
  0.000000000000000E+000
  0.000000000000000E+000
  0.000000000000000E+000
  0.000000000000000E+000
  0.000000000000000E+000
  0.000000000000000E+000
  0.000000000000000E+000
  0.000000000000000E+000
  0.000000000000000E+000
  0.000000000000000E+000
  0.000000000000000E+000
  0.000000000000000E+000
  0.000000000000000E+000
  0.000000000000000E+000
  0.000000000000000E+000
  0.000000000000000E+000
  0.000000000000000E+000
  0.000000000000000E+000
  0.000000000000000E+000
  0.000000000000000E+000
  0.000000000000000E+000
  0.000000000000000E+000
  0.000000000000000E+000
  0.000000000000000E+000
  0.000000000000000E+000
  0.000000000000000E+000
  0.000000000000000E+000
  0.000000000000000E+000
  0.000000000000000E+000
  0.000000000000000E+000
  0.000000000000000E+000
  0.000000000000000E+000
  0.000000000000000E+000
  0.000000000000000E+000
  0.000000000000000E+000
  0.000000000000000E+000
  0.000000000000000E+000
  0.000000000000000E+000
  0.000000000000000E+000
  0.000000000000000E+000
  0.000000000000000E+000
  0.000000000000000E+000
  0.000000000000000E+000
  0.000000000000000E+000
  0.000000000000000E+000
  0.000000000000000E+000
  0.000000000000000E+000
  0.000000000000000E+000
  0.000000000000000E+000
  0.000000000000000E+000
  0.000000000000000E+000
  0.000000000000000E+000
  0.000000000000000E+000
  0.000000000000000E+000
  0.000000000000000E+000
  0.000000000000000E+000
  0.000000000000000E+000
  0.000000000000000E+000
  0.000000000000000E+000
  0.000000000000000E+000
  0.000000000000000E+000
  0.000000000000000E+000
  0.000000000000000E+000
  0.000000000000000E+000
  0.000000000000000E+000
  0.000000000000000E+000
  0.000000000000000E+000
  0.000000000000000E+000
  0.000000000000000E+000
  0.000000000000000E+000
  0.000000000000000E+000
  0.000000000000000E+000
  0.000000000000000E+000
  0.000000000000000E+000
  0.000000000000000E+000
  0.000000000000000E+000
  0.000000000000000E+000
  0.000000000000000E+000
  0.000000000000000E+000
  0.000000000000000E+000
  0.000000000000000E+000
  0.000000000000000E+000
  0.000000000000000E+000
  0.000000000000000E+000
  0.000000000000000E+000
  0.000000000000000E+000
  0.000000000000000E+000
  0.000000000000000E+000
  0.000000000000000E+000
  0.000000000000000E+000
  0.000000000000000E+000
  0.000000000000000E+000
  0.000000000000000E+000
  0.000000000000000E+000
  0.000000000000000E+000
  0.000000000000000E+000
  0.000000000000000E+000
  0.000000000000000E+000
  0.000000000000000E+000
  0.000000000000000E+000
  0.000000000000000E+000
  0.000000000000000E+000
  0.000000000000000E+000
  0.000000000000000E+000
  0.000000000000000E+000
  0.000000000000000E+000
  0.000000000000000E+000
  0.000000000000000E+000
  0.000000000000000E+000
  0.000000000000000E+000
  0.000000000000000E+000
  0.000000000000000E+000
  0.000000000000000E+000
  0.000000000000000E+000
  0.000000000000000E+000
  0.000000000000000E+000
  0.000000000000000E+000
  0.000000000000000E+000
  0.000000000000000E+000
  0.000000000000000E+000
  0.000000000000000E+000
  0.000000000000000E+000
  0.000000000000000E+000
  0.000000000000000E+000
  0.000000000000000E+000
  0.000000000000000E+000
  0.000000000000000E+000
  0.000000000000000E+000
  0.000000000000000E+000
  0.000000000000000E+000
  0.000000000000000E+000
  0.000000000000000E+000
  0.000000000000000E+000
  0.000000000000000E+000
  0.000000000000000E+000
  0.000000000000000E+000
  0.000000000000000E+000
  0.000000000000000E+000
  0.000000000000000E+000
  0.000000000000000E+000
  0.000000000000000E+000
  0.000000000000000E+000
  0.000000000000000E+000
  0.000000000000000E+000
  0.000000000000000E+000
  0.000000000000000E+000
  0.000000000000000E+000
  0.000000000000000E+000
  0.000000000000000E+000
  0.000000000000000E+000
  0.000000000000000E+000
  0.000000000000000E+000
  0.000000000000000E+000
  0.000000000000000E+000
  0.000000000000000E+000
  0.000000000000000E+000
  0.000000000000000E+000
  0.000000000000000E+000
  0.000000000000000E+000
  0.000000000000000E+000
  0.000000000000000E+000
  0.000000000000000E+000
  0.000000000000000E+000
  0.000000000000000E+000
  0.000000000000000E+000
  0.000000000000000E+000
  0.000000000000000E+000
  0.000000000000000E+000
  0.000000000000000E+000
  0.000000000000000E+000
  0.000000000000000E+000
  0.000000000000000E+000
  0.000000000000000E+000
  0.000000000000000E+000
  0.000000000000000E+000
  0.000000000000000E+000
  0.000000000000000E+000
  0.000000000000000E+000
  0.000000000000000E+000
  0.000000000000000E+000
  0.000000000000000E+000
  0.000000000000000E+000
  0.000000000000000E+000
  0.000000000000000E+000
  0.000000000000000E+000
  0.000000000000000E+000
  0.000000000000000E+000
  0.000000000000000E+000
  0.000000000000000E+000
  0.000000000000000E+000
  0.000000000000000E+000
  0.000000000000000E+000
  0.000000000000000E+000
  0.000000000000000E+000
  0.000000000000000E+000
  0.000000000000000E+000
  0.000000000000000E+000
  0.000000000000000E+000
  0.000000000000000E+000
  0.000000000000000E+000
  0.000000000000000E+000
  0.000000000000000E+000
  0.000000000000000E+000
  0.000000000000000E+000
  0.000000000000000E+000
  0.000000000000000E+000
  0.000000000000000E+000
  0.000000000000000E+000
  0.000000000000000E+000
  0.000000000000000E+000
  0.000000000000000E+000
  0.000000000000000E+000
  0.000000000000000E+000
  0.000000000000000E+000
  0.000000000000000E+000
  0.000000000000000E+000
  0.000000000000000E+000
  0.000000000000000E+000
  0.000000000000000E+000
  0.000000000000000E+000
  0.000000000000000E+000
  0.000000000000000E+000
  0.000000000000000E+000
  0.000000000000000E+000
  0.000000000000000E+000
  0.000000000000000E+000
  0.000000000000000E+000
  0.000000000000000E+000
  0.000000000000000E+000
  0.000000000000000E+000
  0.000000000000000E+000
  0.000000000000000E+000
  0.000000000000000E+000
  0.000000000000000E+000
  0.000000000000000E+000
  0.000000000000000E+000
  0.000000000000000E+000
  0.000000000000000E+000
  0.000000000000000E+000
  0.000000000000000E+000
  0.000000000000000E+000
  0.000000000000000E+000
  0.000000000000000E+000
  0.000000000000000E+000
  0.000000000000000E+000
  0.000000000000000E+000
  0.000000000000000E+000
  0.000000000000000E+000
  0.000000000000000E+000
  0.000000000000000E+000
  0.000000000000000E+000
  0.000000000000000E+000
  0.000000000000000E+000
  0.000000000000000E+000
  0.000000000000000E+000
  0.000000000000000E+000
  0.000000000000000E+000
  0.000000000000000E+000
  0.000000000000000E+000
  0.000000000000000E+000
  0.000000000000000E+000
  0.000000000000000E+000
  0.000000000000000E+000
  0.000000000000000E+000
  0.000000000000000E+000
  0.000000000000000E+000
  0.000000000000000E+000
  0.000000000000000E+000
  0.000000000000000E+000
  0.000000000000000E+000
  0.000000000000000E+000
  0.000000000000000E+000
  0.000000000000000E+000
  0.000000000000000E+000
  0.000000000000000E+000
  0.000000000000000E+000
  0.000000000000000E+000
SCALARS poroL double 
LOOKUP_TABLE default
  0.156166348154920     
  0.156160429685614     
  0.156147155379492     
  0.156129754783089     
  0.156110670558777     
  0.156091634476570     
  0.156074790758087     
  0.156063513275973     
  0.156055774044535     
  0.156049311285861     
  0.156043581068095     
  0.156038256089221     
  0.156033051811391     
  0.156027607314187     
  0.156020982737767     
  0.156127831065942     
  0.156115378595290     
  0.156103768477887     
  0.156092563522917     
  0.156080719769459     
  0.156069432641382     
  0.156060962966492     
  0.156053733508747     
  0.156046864888850     
  0.156040832642465     
  0.156035384434976     
  0.156030308462248     
  0.156025410767873     
  0.156020469895707     
  0.156015676303654     
  0.156089977231638     
  0.156075973493921     
  0.156067365523136     
  0.156062133901764     
  0.156058350002281     
  0.156054129319929     
  0.156048737222833     
  0.156042833435023     
  0.156037141736237     
  0.156031782037926     
  0.156026820024469     
  0.156022178912607     
  0.156017776605862     
  0.156013616129664     
  0.156009806472446     
  0.156060069058124     
  0.156054104374958     
  0.156051094943482     
  0.156048255347927     
  0.156044942282737     
  0.156040980690043     
  0.156036527116660     
  0.156031758092255     
  0.156026949997170     
  0.156022317505419     
  0.156017931877089     
  0.156013816255020     
  0.156009978521992     
  0.156006459127220     
  0.156003364702921     
  0.156045215633330     
  0.156041846434351     
  0.156038473911618     
  0.156035342786569     
  0.156032069059620     
  0.156028504388037     
  0.156024651540981     
  0.156020622478591     
  0.156016553824196     
  0.156012572482798     
  0.156008767616917     
  0.156005190606061     
  0.156001885050709     
  0.155998908216845     
  0.155996343651626     
  0.156032060301184     
  0.156028808708365     
  0.156025718404361     
  0.156022655009342     
  0.156019558610102     
  0.156016334890222     
  0.156012971409347     
  0.156009514190173     
  0.156006041659373     
  0.156002636117331     
  0.155999368795776     
  0.155996297408335     
  0.155993473746355     
  0.155990954062558     
  0.155988803899728     
  0.156018640083010     
  0.156015697417715     
  0.156012843453160     
  0.156010032654868     
  0.156007205564527     
  0.156004328934152     
  0.156001392194690     
  0.155998418648666     
  0.155995453553814     
  0.155992552021374     
  0.155989769199532     
  0.155987156067013     
  0.155984760550869     
  0.155982631542232     
  0.155980819156339     
  0.156005082091584     
  0.156002475068945     
  0.155999931907055     
  0.155997421136788     
  0.155994915408579     
  0.155992394674896     
  0.155989856154198     
  0.155987314333193     
  0.155984798122359     
  0.155982344800108     
  0.155979996411543     
  0.155977794534058     
  0.155975779095315     
  0.155973989493876     
  0.155972463465994     
  0.155991426445528     
  0.155989184597979     
  0.155986981915678     
  0.155984805901003     
  0.155982642527883     
  0.155980482967878     
  0.155978326790421     
  0.155976184934172     
  0.155974077492278     
  0.155972030620689     
  0.155970074883115     
  0.155968243448089     
  0.155966568287119     
  0.155965079250575     
  0.155963804476876     
  0.155977716525906     
  0.155975847095725     
  0.155974000983078     
  0.155972175549629     
  0.155970365724210     
  0.155968568113616     
  0.155966784164213     
  0.155965021645823     
  0.155963294984583     
  0.155961623147022     
  0.155960027723812     
  0.155958533915461     
  0.155957167010224     
  0.155955949630340     
  0.155954901667621     
  0.155963978529694     
  0.155962478719832     
  0.155960993805009     
  0.155959525994769     
  0.155958074353317     
  0.155956638055527     
  0.155955218703236     
  0.155953821360099     
  0.155952456054371     
  0.155951136340115     
  0.155949877618258     
  0.155948696635966     
  0.155947613090858     
  0.155946645239265     
  0.155945806901389     
  0.155950225560981     
  0.155949087824817     
  0.155947963544682     
  0.155946855671959     
  0.155945764127036     
  0.155944688197225     
  0.155943628298919     
  0.155942587198115     
  0.155941570197652     
  0.155940586264710     
  0.155939646196427     
  0.155938761188996     
  0.155937943476853     
  0.155937207425585     
  0.155936565705348     
  0.155936459314607     
  0.155935676080619     
  0.155934910685112     
  0.155934163905875     
  0.155933434019827     
  0.155932718573282     
  0.155932015758730     
  0.155931325285948     
  0.155930648898434     
  0.155929990417380     
  0.155929356383097     
  0.155928754481792     
  0.155928191935017     
  0.155927676765115     
  0.155927220250583     
  0.155922672562767     
  0.155922239436451     
  0.155921833045966     
  0.155921449895037     
  0.155921084792202     
  0.155920732121340     
  0.155920386873619     
  0.155920045375107     
  0.155919705660092     
  0.155919367627984     
  0.155919032870792     
  0.155918704924024     
  0.155918388607255     
  0.155918088621455     
  0.155917810250386     
  0.155908851427625     
  0.155908769430692     
  0.155908726190822     
  0.155908712479142     
  0.155908718274502     
  0.155908733719528     
  0.155908749896868     
  0.155908759345523     
  0.155908756358600     
  0.155908737047350     
  0.155908699301740     
  0.155908642574178     
  0.155908567696261     
  0.155908476755072     
  0.155908371191286     
  0.155894977469105     
  0.155895254504809     
  0.155895584167574     
  0.155895950364762     
  0.155896337231965     
  0.155896729892615     
  0.155897114993279     
  0.155897481028522     
  0.155897818500795     
  0.155898119915815     
  0.155898379626449     
  0.155898593590100     
  0.155898759180920     
  0.155898874722517     
  0.155898939671707     
  0.155881029300319     
  0.155881681384313     
  0.155882400442988     
  0.155883162692823     
  0.155883945636957     
  0.155884728839409     
  0.155885494172871     
  0.155886225987269     
  0.155886911101620     
  0.155887538615553     
  0.155888099607461     
  0.155888586811490     
  0.155888994301257     
  0.155889317428236     
  0.155889552861790     
  0.155866984433984     
  0.155868036299009     
  0.155869169032384     
  0.155870349879672     
  0.155871549247597     
  0.155872740768513     
  0.155873901427089     
  0.155875011578202     
  0.155876054664467     
  0.155877016756353     
  0.155877886035640     
  0.155878652309791     
  0.155879306652452     
  0.155879841263164     
  0.155880249680758     
  0.155852820032529     
  0.155854306837813     
  0.155855885755042     
  0.155857514693677     
  0.155859156418405     
  0.155860778445089     
  0.155862353121265     
  0.155863857231159     
  0.155865271400899     
  0.155866579301995     
  0.155867766796043     
  0.155868821171361     
  0.155869730601633     
  0.155870483965738     
  0.155871071117788     
  0.155838521041944     
  0.155840484691184     
  0.155842549890291     
  0.155844663567070     
  0.155846779096003     
  0.155848858042706     
  0.155850868497976     
  0.155852784543119     
  0.155854585007315     
  0.155856252163263     
  0.155857770377954     
  0.155859124949869     
  0.155860301301218     
  0.155861284686558     
  0.155862060507922     
  0.155824065387401     
  0.155826564993462     
  0.155829166659272     
  0.155831807980441     
  0.155834434378226     
  0.155837000174530     
  0.155839470463750     
  0.155841817858450     
  0.155844020978127     
  0.155846062212606     
  0.155847925669398     
  0.155849595441905     
  0.155851054426741     
  0.155852283854150     
  0.155853263642669     
  0.155809437149064     
  0.155812543126092     
  0.155815744998799     
  0.155818967079311     
  0.155822146053043     
  0.155825231733249     
  0.155828186708008     
  0.155830984651945     
  0.155833606356803     
  0.155836036574831     
  0.155838260951118     
  0.155840263546114     
  0.155842025129269     
  0.155843522427679     
  0.155844728513298     
  0.155794626662280     
  0.155798426502519     
  0.155802304823859     
  0.155806169677250     
  0.155809948384971     
  0.155813587621632     
  0.155817050761716     
  0.155820315836865     
  0.155823369354413     
  0.155826201616370     
  0.155828802400847     
  0.155831157520984     
  0.155833246337127     
  0.155835040539520     
  0.155836504554071     
  0.155779635071686     
  0.155784234982395     
  0.155788881645698     
  0.155793460533037     
  0.155797889031110     
  0.155802113294470     
  0.155806103306555     
  0.155809846018047     
  0.155813338663456     
  0.155816581386308     
  0.155819571811440     
  0.155822300238888     
  0.155824745986711     
  0.155826875238318     
  0.155828641269977     
  0.155764467032765     
  0.155770006444024     
  0.155775533162378     
  0.155780906804326     
  0.155786034289490     
  0.155790868271302     
  0.155795393483708     
  0.155799613518414     
  0.155803542375617     
  0.155807195491971     
  0.155810583297164     
  0.155813705039028     
  0.155816542620207     
  0.155819056738826     
  0.155821186002668     
  0.155749140421256     
  0.155755805050207     
  0.155762352499146     
  0.155768607383628     
  0.155774475341828     
  0.155779928578809     
  0.155784979632332     
  0.155789659913578     
  0.155794006601519     
  0.155798056502506     
  0.155801839316378     
  0.155805369604750     
  0.155808638230092     
  0.155811601878851     
  0.155814180302554     
  0.155733698033234     
  0.155741748381379     
  0.155749490277698     
  0.155756708802628     
  0.155763333819226     
  0.155769386521476     
  0.155774928376389     
  0.155780028615125     
  0.155784754378546     
  0.155789168274583     
  0.155793325103476     
  0.155797267162223     
  0.155801005416712     
  0.155804503313007     
  0.155807653449721     
  0.155718236372065     
  0.155728062983122     
  0.155737200800028     
  0.155745422734006     
  0.155752761755839     
  0.155759348852944     
  0.155765311077190     
  0.155770762648032     
  0.155775803855385     
  0.155780523963113     
  0.155785007154429     
  0.155789332566972     
  0.155793569907032     
  0.155797701941918     
  0.155801613388616     
  0.155703001084750     
  0.155715244850935     
  0.155725913850164     
  0.155735011306362     
  0.155742925796940     
  0.155749921302491     
  0.155756195004885     
  0.155761901153162     
  0.155767168008219     
  0.155772110316893     
  0.155776838193013     
  0.155781470440647     
  0.155786145532401     
  0.155791057114457     
  0.155795996859008     
  0.155689115157701     
  0.155704446850437     
  0.155716108963752     
  0.155725739192974     
  0.155733975834398     
  0.155741191699441     
  0.155747631044149     
  0.155753471720578     
  0.155758857075575     
  0.155763914584193     
  0.155768771897046     
  0.155773574286527     
  0.155778519471838     
  0.155783932411673     
  0.155790755755357     
