# vtk DataFile Version 3.0
vtk output
ASCII
DATASET UNSTRUCTURED_GRID
POINTS       496 double 
  0.00000000E+00  3.00000000E+02  0.00000000E+00
  0.00000000E+00  2.80000000E+02  0.00000000E+00
  0.00000000E+00  2.60000000E+02  0.00000000E+00
  0.00000000E+00  2.40000000E+02  0.00000000E+00
  0.00000000E+00  2.20000000E+02  0.00000000E+00
  0.00000000E+00  2.00000000E+02  0.00000000E+00
  0.00000000E+00  1.80000000E+02  0.00000000E+00
  0.00000000E+00  1.60000000E+02  0.00000000E+00
  0.00000000E+00  1.40000000E+02  0.00000000E+00
  0.00000000E+00  1.20000000E+02  0.00000000E+00
  0.00000000E+00  1.00000000E+02  0.00000000E+00
  0.00000000E+00  8.00000000E+01  0.00000000E+00
  0.00000000E+00  6.00000000E+01  0.00000000E+00
  0.00000000E+00  4.00000000E+01  0.00000000E+00
  0.00000000E+00  2.00000000E+01  0.00000000E+00
  0.00000000E+00  4.99600361E-14  0.00000000E+00
  2.00000000E+01  3.00000000E+02  0.00000000E+00
  2.00000000E+01  2.80000000E+02  0.00000000E+00
  2.00000000E+01  2.60000000E+02  0.00000000E+00
  2.00000000E+01  2.40000000E+02  0.00000000E+00
  2.00000000E+01  2.20000000E+02  0.00000000E+00
  2.00000000E+01  2.00000000E+02  0.00000000E+00
  2.00000000E+01  1.80000000E+02  0.00000000E+00
  2.00000000E+01  1.60000000E+02  0.00000000E+00
  2.00000000E+01  1.40000000E+02  0.00000000E+00
  2.00000000E+01  1.20000000E+02  0.00000000E+00
  2.00000000E+01  1.00000000E+02  0.00000000E+00
  2.00000000E+01  8.00000000E+01  0.00000000E+00
  2.00000000E+01  6.00000000E+01  0.00000000E+00
  2.00000000E+01  4.00000000E+01  0.00000000E+00
  2.00000000E+01  2.00000000E+01  0.00000000E+00
  2.00000000E+01  4.99600361E-14  0.00000000E+00
  4.00000000E+01  3.00000000E+02  0.00000000E+00
  4.00000000E+01  2.80000000E+02  0.00000000E+00
  4.00000000E+01  2.60000000E+02  0.00000000E+00
  4.00000000E+01  2.40000000E+02  0.00000000E+00
  4.00000000E+01  2.20000000E+02  0.00000000E+00
  4.00000000E+01  2.00000000E+02  0.00000000E+00
  4.00000000E+01  1.80000000E+02  0.00000000E+00
  4.00000000E+01  1.60000000E+02  0.00000000E+00
  4.00000000E+01  1.40000000E+02  0.00000000E+00
  4.00000000E+01  1.20000000E+02  0.00000000E+00
  4.00000000E+01  1.00000000E+02  0.00000000E+00
  4.00000000E+01  8.00000000E+01  0.00000000E+00
  4.00000000E+01  6.00000000E+01  0.00000000E+00
  4.00000000E+01  4.00000000E+01  0.00000000E+00
  4.00000000E+01  2.00000000E+01  0.00000000E+00
  4.00000000E+01  4.99600361E-14  0.00000000E+00
  6.00000000E+01  3.00000000E+02  0.00000000E+00
  6.00000000E+01  2.80000000E+02  0.00000000E+00
  6.00000000E+01  2.60000000E+02  0.00000000E+00
  6.00000000E+01  2.40000000E+02  0.00000000E+00
  6.00000000E+01  2.20000000E+02  0.00000000E+00
  6.00000000E+01  2.00000000E+02  0.00000000E+00
  6.00000000E+01  1.80000000E+02  0.00000000E+00
  6.00000000E+01  1.60000000E+02  0.00000000E+00
  6.00000000E+01  1.40000000E+02  0.00000000E+00
  6.00000000E+01  1.20000000E+02  0.00000000E+00
  6.00000000E+01  1.00000000E+02  0.00000000E+00
  6.00000000E+01  8.00000000E+01  0.00000000E+00
  6.00000000E+01  6.00000000E+01  0.00000000E+00
  6.00000000E+01  4.00000000E+01  0.00000000E+00
  6.00000000E+01  2.00000000E+01  0.00000000E+00
  6.00000000E+01  4.99600361E-14  0.00000000E+00
  8.00000000E+01  3.00000000E+02  0.00000000E+00
  8.00000000E+01  2.80000000E+02  0.00000000E+00
  8.00000000E+01  2.60000000E+02  0.00000000E+00
  8.00000000E+01  2.40000000E+02  0.00000000E+00
  8.00000000E+01  2.20000000E+02  0.00000000E+00
  8.00000000E+01  2.00000000E+02  0.00000000E+00
  8.00000000E+01  1.80000000E+02  0.00000000E+00
  8.00000000E+01  1.60000000E+02  0.00000000E+00
  8.00000000E+01  1.40000000E+02  0.00000000E+00
  8.00000000E+01  1.20000000E+02  0.00000000E+00
  8.00000000E+01  1.00000000E+02  0.00000000E+00
  8.00000000E+01  8.00000000E+01  0.00000000E+00
  8.00000000E+01  6.00000000E+01  0.00000000E+00
  8.00000000E+01  4.00000000E+01  0.00000000E+00
  8.00000000E+01  2.00000000E+01  0.00000000E+00
  8.00000000E+01  4.99600361E-14  0.00000000E+00
  1.00000000E+02  3.00000000E+02  0.00000000E+00
  1.00000000E+02  2.80000000E+02  0.00000000E+00
  1.00000000E+02  2.60000000E+02  0.00000000E+00
  1.00000000E+02  2.40000000E+02  0.00000000E+00
  1.00000000E+02  2.20000000E+02  0.00000000E+00
  1.00000000E+02  2.00000000E+02  0.00000000E+00
  1.00000000E+02  1.80000000E+02  0.00000000E+00
  1.00000000E+02  1.60000000E+02  0.00000000E+00
  1.00000000E+02  1.40000000E+02  0.00000000E+00
  1.00000000E+02  1.20000000E+02  0.00000000E+00
  1.00000000E+02  1.00000000E+02  0.00000000E+00
  1.00000000E+02  8.00000000E+01  0.00000000E+00
  1.00000000E+02  6.00000000E+01  0.00000000E+00
  1.00000000E+02  4.00000000E+01  0.00000000E+00
  1.00000000E+02  2.00000000E+01  0.00000000E+00
  1.00000000E+02  4.99600361E-14  0.00000000E+00
  1.20000000E+02  3.00000000E+02  0.00000000E+00
  1.20000000E+02  2.80000000E+02  0.00000000E+00
  1.20000000E+02  2.60000000E+02  0.00000000E+00
  1.20000000E+02  2.40000000E+02  0.00000000E+00
  1.20000000E+02  2.20000000E+02  0.00000000E+00
  1.20000000E+02  2.00000000E+02  0.00000000E+00
  1.20000000E+02  1.80000000E+02  0.00000000E+00
  1.20000000E+02  1.60000000E+02  0.00000000E+00
  1.20000000E+02  1.40000000E+02  0.00000000E+00
  1.20000000E+02  1.20000000E+02  0.00000000E+00
  1.20000000E+02  1.00000000E+02  0.00000000E+00
  1.20000000E+02  8.00000000E+01  0.00000000E+00
  1.20000000E+02  6.00000000E+01  0.00000000E+00
  1.20000000E+02  4.00000000E+01  0.00000000E+00
  1.20000000E+02  2.00000000E+01  0.00000000E+00
  1.20000000E+02  4.99600361E-14  0.00000000E+00
  1.40000000E+02  3.00000000E+02  0.00000000E+00
  1.40000000E+02  2.80000000E+02  0.00000000E+00
  1.40000000E+02  2.60000000E+02  0.00000000E+00
  1.40000000E+02  2.40000000E+02  0.00000000E+00
  1.40000000E+02  2.20000000E+02  0.00000000E+00
  1.40000000E+02  2.00000000E+02  0.00000000E+00
  1.40000000E+02  1.80000000E+02  0.00000000E+00
  1.40000000E+02  1.60000000E+02  0.00000000E+00
  1.40000000E+02  1.40000000E+02  0.00000000E+00
  1.40000000E+02  1.20000000E+02  0.00000000E+00
  1.40000000E+02  1.00000000E+02  0.00000000E+00
  1.40000000E+02  8.00000000E+01  0.00000000E+00
  1.40000000E+02  6.00000000E+01  0.00000000E+00
  1.40000000E+02  4.00000000E+01  0.00000000E+00
  1.40000000E+02  2.00000000E+01  0.00000000E+00
  1.40000000E+02  4.99600361E-14  0.00000000E+00
  1.60000000E+02  3.00000000E+02  0.00000000E+00
  1.60000000E+02  2.80000000E+02  0.00000000E+00
  1.60000000E+02  2.60000000E+02  0.00000000E+00
  1.60000000E+02  2.40000000E+02  0.00000000E+00
  1.60000000E+02  2.20000000E+02  0.00000000E+00
  1.60000000E+02  2.00000000E+02  0.00000000E+00
  1.60000000E+02  1.80000000E+02  0.00000000E+00
  1.60000000E+02  1.60000000E+02  0.00000000E+00
  1.60000000E+02  1.40000000E+02  0.00000000E+00
  1.60000000E+02  1.20000000E+02  0.00000000E+00
  1.60000000E+02  1.00000000E+02  0.00000000E+00
  1.60000000E+02  8.00000000E+01  0.00000000E+00
  1.60000000E+02  6.00000000E+01  0.00000000E+00
  1.60000000E+02  4.00000000E+01  0.00000000E+00
  1.60000000E+02  2.00000000E+01  0.00000000E+00
  1.60000000E+02  4.99600361E-14  0.00000000E+00
  1.80000000E+02  3.00000000E+02  0.00000000E+00
  1.80000000E+02  2.80000000E+02  0.00000000E+00
  1.80000000E+02  2.60000000E+02  0.00000000E+00
  1.80000000E+02  2.40000000E+02  0.00000000E+00
  1.80000000E+02  2.20000000E+02  0.00000000E+00
  1.80000000E+02  2.00000000E+02  0.00000000E+00
  1.80000000E+02  1.80000000E+02  0.00000000E+00
  1.80000000E+02  1.60000000E+02  0.00000000E+00
  1.80000000E+02  1.40000000E+02  0.00000000E+00
  1.80000000E+02  1.20000000E+02  0.00000000E+00
  1.80000000E+02  1.00000000E+02  0.00000000E+00
  1.80000000E+02  8.00000000E+01  0.00000000E+00
  1.80000000E+02  6.00000000E+01  0.00000000E+00
  1.80000000E+02  4.00000000E+01  0.00000000E+00
  1.80000000E+02  2.00000000E+01  0.00000000E+00
  1.80000000E+02  4.99600361E-14  0.00000000E+00
  2.00000000E+02  3.00000000E+02  0.00000000E+00
  2.00000000E+02  2.80000000E+02  0.00000000E+00
  2.00000000E+02  2.60000000E+02  0.00000000E+00
  2.00000000E+02  2.40000000E+02  0.00000000E+00
  2.00000000E+02  2.20000000E+02  0.00000000E+00
  2.00000000E+02  2.00000000E+02  0.00000000E+00
  2.00000000E+02  1.80000000E+02  0.00000000E+00
  2.00000000E+02  1.60000000E+02  0.00000000E+00
  2.00000000E+02  1.40000000E+02  0.00000000E+00
  2.00000000E+02  1.20000000E+02  0.00000000E+00
  2.00000000E+02  1.00000000E+02  0.00000000E+00
  2.00000000E+02  8.00000000E+01  0.00000000E+00
  2.00000000E+02  6.00000000E+01  0.00000000E+00
  2.00000000E+02  4.00000000E+01  0.00000000E+00
  2.00000000E+02  2.00000000E+01  0.00000000E+00
  2.00000000E+02  4.99600361E-14  0.00000000E+00
  2.20000000E+02  3.00000000E+02  0.00000000E+00
  2.20000000E+02  2.80000000E+02  0.00000000E+00
  2.20000000E+02  2.60000000E+02  0.00000000E+00
  2.20000000E+02  2.40000000E+02  0.00000000E+00
  2.20000000E+02  2.20000000E+02  0.00000000E+00
  2.20000000E+02  2.00000000E+02  0.00000000E+00
  2.20000000E+02  1.80000000E+02  0.00000000E+00
  2.20000000E+02  1.60000000E+02  0.00000000E+00
  2.20000000E+02  1.40000000E+02  0.00000000E+00
  2.20000000E+02  1.20000000E+02  0.00000000E+00
  2.20000000E+02  1.00000000E+02  0.00000000E+00
  2.20000000E+02  8.00000000E+01  0.00000000E+00
  2.20000000E+02  6.00000000E+01  0.00000000E+00
  2.20000000E+02  4.00000000E+01  0.00000000E+00
  2.20000000E+02  2.00000000E+01  0.00000000E+00
  2.20000000E+02  4.99600361E-14  0.00000000E+00
  2.40000000E+02  3.00000000E+02  0.00000000E+00
  2.40000000E+02  2.80000000E+02  0.00000000E+00
  2.40000000E+02  2.60000000E+02  0.00000000E+00
  2.40000000E+02  2.40000000E+02  0.00000000E+00
  2.40000000E+02  2.20000000E+02  0.00000000E+00
  2.40000000E+02  2.00000000E+02  0.00000000E+00
  2.40000000E+02  1.80000000E+02  0.00000000E+00
  2.40000000E+02  1.60000000E+02  0.00000000E+00
  2.40000000E+02  1.40000000E+02  0.00000000E+00
  2.40000000E+02  1.20000000E+02  0.00000000E+00
  2.40000000E+02  1.00000000E+02  0.00000000E+00
  2.40000000E+02  8.00000000E+01  0.00000000E+00
  2.40000000E+02  6.00000000E+01  0.00000000E+00
  2.40000000E+02  4.00000000E+01  0.00000000E+00
  2.40000000E+02  2.00000000E+01  0.00000000E+00
  2.40000000E+02  4.99600361E-14  0.00000000E+00
  2.60000000E+02  3.00000000E+02  0.00000000E+00
  2.60000000E+02  2.80000000E+02  0.00000000E+00
  2.60000000E+02  2.60000000E+02  0.00000000E+00
  2.60000000E+02  2.40000000E+02  0.00000000E+00
  2.60000000E+02  2.20000000E+02  0.00000000E+00
  2.60000000E+02  2.00000000E+02  0.00000000E+00
  2.60000000E+02  1.80000000E+02  0.00000000E+00
  2.60000000E+02  1.60000000E+02  0.00000000E+00
  2.60000000E+02  1.40000000E+02  0.00000000E+00
  2.60000000E+02  1.20000000E+02  0.00000000E+00
  2.60000000E+02  1.00000000E+02  0.00000000E+00
  2.60000000E+02  8.00000000E+01  0.00000000E+00
  2.60000000E+02  6.00000000E+01  0.00000000E+00
  2.60000000E+02  4.00000000E+01  0.00000000E+00
  2.60000000E+02  2.00000000E+01  0.00000000E+00
  2.60000000E+02  4.99600361E-14  0.00000000E+00
  2.80000000E+02  3.00000000E+02  0.00000000E+00
  2.80000000E+02  2.80000000E+02  0.00000000E+00
  2.80000000E+02  2.60000000E+02  0.00000000E+00
  2.80000000E+02  2.40000000E+02  0.00000000E+00
  2.80000000E+02  2.20000000E+02  0.00000000E+00
  2.80000000E+02  2.00000000E+02  0.00000000E+00
  2.80000000E+02  1.80000000E+02  0.00000000E+00
  2.80000000E+02  1.60000000E+02  0.00000000E+00
  2.80000000E+02  1.40000000E+02  0.00000000E+00
  2.80000000E+02  1.20000000E+02  0.00000000E+00
  2.80000000E+02  1.00000000E+02  0.00000000E+00
  2.80000000E+02  8.00000000E+01  0.00000000E+00
  2.80000000E+02  6.00000000E+01  0.00000000E+00
  2.80000000E+02  4.00000000E+01  0.00000000E+00
  2.80000000E+02  2.00000000E+01  0.00000000E+00
  2.80000000E+02  4.99600361E-14  0.00000000E+00
  3.00000000E+02  3.00000000E+02  0.00000000E+00
  3.00000000E+02  2.80000000E+02  0.00000000E+00
  3.00000000E+02  2.60000000E+02  0.00000000E+00
  3.00000000E+02  2.40000000E+02  0.00000000E+00
  3.00000000E+02  2.20000000E+02  0.00000000E+00
  3.00000000E+02  2.00000000E+02  0.00000000E+00
  3.00000000E+02  1.80000000E+02  0.00000000E+00
  3.00000000E+02  1.60000000E+02  0.00000000E+00
  3.00000000E+02  1.40000000E+02  0.00000000E+00
  3.00000000E+02  1.20000000E+02  0.00000000E+00
  3.00000000E+02  1.00000000E+02  0.00000000E+00
  3.00000000E+02  8.00000000E+01  0.00000000E+00
  3.00000000E+02  6.00000000E+01  0.00000000E+00
  3.00000000E+02  4.00000000E+01  0.00000000E+00
  3.00000000E+02  2.00000000E+01  0.00000000E+00
  3.00000000E+02  4.99600361E-14  0.00000000E+00
  3.20000000E+02  3.00000000E+02  0.00000000E+00
  3.20000000E+02  2.80000000E+02  0.00000000E+00
  3.20000000E+02  2.60000000E+02  0.00000000E+00
  3.20000000E+02  2.40000000E+02  0.00000000E+00
  3.20000000E+02  2.20000000E+02  0.00000000E+00
  3.20000000E+02  2.00000000E+02  0.00000000E+00
  3.20000000E+02  1.80000000E+02  0.00000000E+00
  3.20000000E+02  1.60000000E+02  0.00000000E+00
  3.20000000E+02  1.40000000E+02  0.00000000E+00
  3.20000000E+02  1.20000000E+02  0.00000000E+00
  3.20000000E+02  1.00000000E+02  0.00000000E+00
  3.20000000E+02  8.00000000E+01  0.00000000E+00
  3.20000000E+02  6.00000000E+01  0.00000000E+00
  3.20000000E+02  4.00000000E+01  0.00000000E+00
  3.20000000E+02  2.00000000E+01  0.00000000E+00
  3.20000000E+02  4.99600361E-14  0.00000000E+00
  3.40000000E+02  3.00000000E+02  0.00000000E+00
  3.40000000E+02  2.80000000E+02  0.00000000E+00
  3.40000000E+02  2.60000000E+02  0.00000000E+00
  3.40000000E+02  2.40000000E+02  0.00000000E+00
  3.40000000E+02  2.20000000E+02  0.00000000E+00
  3.40000000E+02  2.00000000E+02  0.00000000E+00
  3.40000000E+02  1.80000000E+02  0.00000000E+00
  3.40000000E+02  1.60000000E+02  0.00000000E+00
  3.40000000E+02  1.40000000E+02  0.00000000E+00
  3.40000000E+02  1.20000000E+02  0.00000000E+00
  3.40000000E+02  1.00000000E+02  0.00000000E+00
  3.40000000E+02  8.00000000E+01  0.00000000E+00
  3.40000000E+02  6.00000000E+01  0.00000000E+00
  3.40000000E+02  4.00000000E+01  0.00000000E+00
  3.40000000E+02  2.00000000E+01  0.00000000E+00
  3.40000000E+02  4.99600361E-14  0.00000000E+00
  3.60000000E+02  3.00000000E+02  0.00000000E+00
  3.60000000E+02  2.80000000E+02  0.00000000E+00
  3.60000000E+02  2.60000000E+02  0.00000000E+00
  3.60000000E+02  2.40000000E+02  0.00000000E+00
  3.60000000E+02  2.20000000E+02  0.00000000E+00
  3.60000000E+02  2.00000000E+02  0.00000000E+00
  3.60000000E+02  1.80000000E+02  0.00000000E+00
  3.60000000E+02  1.60000000E+02  0.00000000E+00
  3.60000000E+02  1.40000000E+02  0.00000000E+00
  3.60000000E+02  1.20000000E+02  0.00000000E+00
  3.60000000E+02  1.00000000E+02  0.00000000E+00
  3.60000000E+02  8.00000000E+01  0.00000000E+00
  3.60000000E+02  6.00000000E+01  0.00000000E+00
  3.60000000E+02  4.00000000E+01  0.00000000E+00
  3.60000000E+02  2.00000000E+01  0.00000000E+00
  3.60000000E+02  4.99600361E-14  0.00000000E+00
  3.80000000E+02  3.00000000E+02  0.00000000E+00
  3.80000000E+02  2.80000000E+02  0.00000000E+00
  3.80000000E+02  2.60000000E+02  0.00000000E+00
  3.80000000E+02  2.40000000E+02  0.00000000E+00
  3.80000000E+02  2.20000000E+02  0.00000000E+00
  3.80000000E+02  2.00000000E+02  0.00000000E+00
  3.80000000E+02  1.80000000E+02  0.00000000E+00
  3.80000000E+02  1.60000000E+02  0.00000000E+00
  3.80000000E+02  1.40000000E+02  0.00000000E+00
  3.80000000E+02  1.20000000E+02  0.00000000E+00
  3.80000000E+02  1.00000000E+02  0.00000000E+00
  3.80000000E+02  8.00000000E+01  0.00000000E+00
  3.80000000E+02  6.00000000E+01  0.00000000E+00
  3.80000000E+02  4.00000000E+01  0.00000000E+00
  3.80000000E+02  2.00000000E+01  0.00000000E+00
  3.80000000E+02  4.99600361E-14  0.00000000E+00
  4.00000000E+02  3.00000000E+02  0.00000000E+00
  4.00000000E+02  2.80000000E+02  0.00000000E+00
  4.00000000E+02  2.60000000E+02  0.00000000E+00
  4.00000000E+02  2.40000000E+02  0.00000000E+00
  4.00000000E+02  2.20000000E+02  0.00000000E+00
  4.00000000E+02  2.00000000E+02  0.00000000E+00
  4.00000000E+02  1.80000000E+02  0.00000000E+00
  4.00000000E+02  1.60000000E+02  0.00000000E+00
  4.00000000E+02  1.40000000E+02  0.00000000E+00
  4.00000000E+02  1.20000000E+02  0.00000000E+00
  4.00000000E+02  1.00000000E+02  0.00000000E+00
  4.00000000E+02  8.00000000E+01  0.00000000E+00
  4.00000000E+02  6.00000000E+01  0.00000000E+00
  4.00000000E+02  4.00000000E+01  0.00000000E+00
  4.00000000E+02  2.00000000E+01  0.00000000E+00
  4.00000000E+02  4.99600361E-14  0.00000000E+00
  4.20000000E+02  3.00000000E+02  0.00000000E+00
  4.20000000E+02  2.80000000E+02  0.00000000E+00
  4.20000000E+02  2.60000000E+02  0.00000000E+00
  4.20000000E+02  2.40000000E+02  0.00000000E+00
  4.20000000E+02  2.20000000E+02  0.00000000E+00
  4.20000000E+02  2.00000000E+02  0.00000000E+00
  4.20000000E+02  1.80000000E+02  0.00000000E+00
  4.20000000E+02  1.60000000E+02  0.00000000E+00
  4.20000000E+02  1.40000000E+02  0.00000000E+00
  4.20000000E+02  1.20000000E+02  0.00000000E+00
  4.20000000E+02  1.00000000E+02  0.00000000E+00
  4.20000000E+02  8.00000000E+01  0.00000000E+00
  4.20000000E+02  6.00000000E+01  0.00000000E+00
  4.20000000E+02  4.00000000E+01  0.00000000E+00
  4.20000000E+02  2.00000000E+01  0.00000000E+00
  4.20000000E+02  4.99600361E-14  0.00000000E+00
  4.40000000E+02  3.00000000E+02  0.00000000E+00
  4.40000000E+02  2.80000000E+02  0.00000000E+00
  4.40000000E+02  2.60000000E+02  0.00000000E+00
  4.40000000E+02  2.40000000E+02  0.00000000E+00
  4.40000000E+02  2.20000000E+02  0.00000000E+00
  4.40000000E+02  2.00000000E+02  0.00000000E+00
  4.40000000E+02  1.80000000E+02  0.00000000E+00
  4.40000000E+02  1.60000000E+02  0.00000000E+00
  4.40000000E+02  1.40000000E+02  0.00000000E+00
  4.40000000E+02  1.20000000E+02  0.00000000E+00
  4.40000000E+02  1.00000000E+02  0.00000000E+00
  4.40000000E+02  8.00000000E+01  0.00000000E+00
  4.40000000E+02  6.00000000E+01  0.00000000E+00
  4.40000000E+02  4.00000000E+01  0.00000000E+00
  4.40000000E+02  2.00000000E+01  0.00000000E+00
  4.40000000E+02  4.99600361E-14  0.00000000E+00
  4.60000000E+02  3.00000000E+02  0.00000000E+00
  4.60000000E+02  2.80000000E+02  0.00000000E+00
  4.60000000E+02  2.60000000E+02  0.00000000E+00
  4.60000000E+02  2.40000000E+02  0.00000000E+00
  4.60000000E+02  2.20000000E+02  0.00000000E+00
  4.60000000E+02  2.00000000E+02  0.00000000E+00
  4.60000000E+02  1.80000000E+02  0.00000000E+00
  4.60000000E+02  1.60000000E+02  0.00000000E+00
  4.60000000E+02  1.40000000E+02  0.00000000E+00
  4.60000000E+02  1.20000000E+02  0.00000000E+00
  4.60000000E+02  1.00000000E+02  0.00000000E+00
  4.60000000E+02  8.00000000E+01  0.00000000E+00
  4.60000000E+02  6.00000000E+01  0.00000000E+00
  4.60000000E+02  4.00000000E+01  0.00000000E+00
  4.60000000E+02  2.00000000E+01  0.00000000E+00
  4.60000000E+02  4.99600361E-14  0.00000000E+00
  4.80000000E+02  3.00000000E+02  0.00000000E+00
  4.80000000E+02  2.80000000E+02  0.00000000E+00
  4.80000000E+02  2.60000000E+02  0.00000000E+00
  4.80000000E+02  2.40000000E+02  0.00000000E+00
  4.80000000E+02  2.20000000E+02  0.00000000E+00
  4.80000000E+02  2.00000000E+02  0.00000000E+00
  4.80000000E+02  1.80000000E+02  0.00000000E+00
  4.80000000E+02  1.60000000E+02  0.00000000E+00
  4.80000000E+02  1.40000000E+02  0.00000000E+00
  4.80000000E+02  1.20000000E+02  0.00000000E+00
  4.80000000E+02  1.00000000E+02  0.00000000E+00
  4.80000000E+02  8.00000000E+01  0.00000000E+00
  4.80000000E+02  6.00000000E+01  0.00000000E+00
  4.80000000E+02  4.00000000E+01  0.00000000E+00
  4.80000000E+02  2.00000000E+01  0.00000000E+00
  4.80000000E+02  4.99600361E-14  0.00000000E+00
  5.00000000E+02  3.00000000E+02  0.00000000E+00
  5.00000000E+02  2.80000000E+02  0.00000000E+00
  5.00000000E+02  2.60000000E+02  0.00000000E+00
  5.00000000E+02  2.40000000E+02  0.00000000E+00
  5.00000000E+02  2.20000000E+02  0.00000000E+00
  5.00000000E+02  2.00000000E+02  0.00000000E+00
  5.00000000E+02  1.80000000E+02  0.00000000E+00
  5.00000000E+02  1.60000000E+02  0.00000000E+00
  5.00000000E+02  1.40000000E+02  0.00000000E+00
  5.00000000E+02  1.20000000E+02  0.00000000E+00
  5.00000000E+02  1.00000000E+02  0.00000000E+00
  5.00000000E+02  8.00000000E+01  0.00000000E+00
  5.00000000E+02  6.00000000E+01  0.00000000E+00
  5.00000000E+02  4.00000000E+01  0.00000000E+00
  5.00000000E+02  2.00000000E+01  0.00000000E+00
  5.00000000E+02  4.99600361E-14  0.00000000E+00
  5.20000000E+02  3.00000000E+02  0.00000000E+00
  5.20000000E+02  2.80000000E+02  0.00000000E+00
  5.20000000E+02  2.60000000E+02  0.00000000E+00
  5.20000000E+02  2.40000000E+02  0.00000000E+00
  5.20000000E+02  2.20000000E+02  0.00000000E+00
  5.20000000E+02  2.00000000E+02  0.00000000E+00
  5.20000000E+02  1.80000000E+02  0.00000000E+00
  5.20000000E+02  1.60000000E+02  0.00000000E+00
  5.20000000E+02  1.40000000E+02  0.00000000E+00
  5.20000000E+02  1.20000000E+02  0.00000000E+00
  5.20000000E+02  1.00000000E+02  0.00000000E+00
  5.20000000E+02  8.00000000E+01  0.00000000E+00
  5.20000000E+02  6.00000000E+01  0.00000000E+00
  5.20000000E+02  4.00000000E+01  0.00000000E+00
  5.20000000E+02  2.00000000E+01  0.00000000E+00
  5.20000000E+02  4.99600361E-14  0.00000000E+00
  5.40000000E+02  3.00000000E+02  0.00000000E+00
  5.40000000E+02  2.80000000E+02  0.00000000E+00
  5.40000000E+02  2.60000000E+02  0.00000000E+00
  5.40000000E+02  2.40000000E+02  0.00000000E+00
  5.40000000E+02  2.20000000E+02  0.00000000E+00
  5.40000000E+02  2.00000000E+02  0.00000000E+00
  5.40000000E+02  1.80000000E+02  0.00000000E+00
  5.40000000E+02  1.60000000E+02  0.00000000E+00
  5.40000000E+02  1.40000000E+02  0.00000000E+00
  5.40000000E+02  1.20000000E+02  0.00000000E+00
  5.40000000E+02  1.00000000E+02  0.00000000E+00
  5.40000000E+02  8.00000000E+01  0.00000000E+00
  5.40000000E+02  6.00000000E+01  0.00000000E+00
  5.40000000E+02  4.00000000E+01  0.00000000E+00
  5.40000000E+02  2.00000000E+01  0.00000000E+00
  5.40000000E+02  4.99600361E-14  0.00000000E+00
  5.60000000E+02  3.00000000E+02  0.00000000E+00
  5.60000000E+02  2.80000000E+02  0.00000000E+00
  5.60000000E+02  2.60000000E+02  0.00000000E+00
  5.60000000E+02  2.40000000E+02  0.00000000E+00
  5.60000000E+02  2.20000000E+02  0.00000000E+00
  5.60000000E+02  2.00000000E+02  0.00000000E+00
  5.60000000E+02  1.80000000E+02  0.00000000E+00
  5.60000000E+02  1.60000000E+02  0.00000000E+00
  5.60000000E+02  1.40000000E+02  0.00000000E+00
  5.60000000E+02  1.20000000E+02  0.00000000E+00
  5.60000000E+02  1.00000000E+02  0.00000000E+00
  5.60000000E+02  8.00000000E+01  0.00000000E+00
  5.60000000E+02  6.00000000E+01  0.00000000E+00
  5.60000000E+02  4.00000000E+01  0.00000000E+00
  5.60000000E+02  2.00000000E+01  0.00000000E+00
  5.60000000E+02  4.99600361E-14  0.00000000E+00
  5.80000000E+02  3.00000000E+02  0.00000000E+00
  5.80000000E+02  2.80000000E+02  0.00000000E+00
  5.80000000E+02  2.60000000E+02  0.00000000E+00
  5.80000000E+02  2.40000000E+02  0.00000000E+00
  5.80000000E+02  2.20000000E+02  0.00000000E+00
  5.80000000E+02  2.00000000E+02  0.00000000E+00
  5.80000000E+02  1.80000000E+02  0.00000000E+00
  5.80000000E+02  1.60000000E+02  0.00000000E+00
  5.80000000E+02  1.40000000E+02  0.00000000E+00
  5.80000000E+02  1.20000000E+02  0.00000000E+00
  5.80000000E+02  1.00000000E+02  0.00000000E+00
  5.80000000E+02  8.00000000E+01  0.00000000E+00
  5.80000000E+02  6.00000000E+01  0.00000000E+00
  5.80000000E+02  4.00000000E+01  0.00000000E+00
  5.80000000E+02  2.00000000E+01  0.00000000E+00
  5.80000000E+02  4.99600361E-14  0.00000000E+00
  6.00000000E+02  3.00000000E+02  0.00000000E+00
  6.00000000E+02  2.80000000E+02  0.00000000E+00
  6.00000000E+02  2.60000000E+02  0.00000000E+00
  6.00000000E+02  2.40000000E+02  0.00000000E+00
  6.00000000E+02  2.20000000E+02  0.00000000E+00
  6.00000000E+02  2.00000000E+02  0.00000000E+00
  6.00000000E+02  1.80000000E+02  0.00000000E+00
  6.00000000E+02  1.60000000E+02  0.00000000E+00
  6.00000000E+02  1.40000000E+02  0.00000000E+00
  6.00000000E+02  1.20000000E+02  0.00000000E+00
  6.00000000E+02  1.00000000E+02  0.00000000E+00
  6.00000000E+02  8.00000000E+01  0.00000000E+00
  6.00000000E+02  6.00000000E+01  0.00000000E+00
  6.00000000E+02  4.00000000E+01  0.00000000E+00
  6.00000000E+02  2.00000000E+01  0.00000000E+00
  6.00000000E+02  4.99600361E-14  0.00000000E+00
CELLS       450      2250
         4           0           1          17          16
         4           1           2          18          17
         4           2           3          19          18
         4           3           4          20          19
         4           4           5          21          20
         4           5           6          22          21
         4           6           7          23          22
         4           7           8          24          23
         4           8           9          25          24
         4           9          10          26          25
         4          10          11          27          26
         4          11          12          28          27
         4          12          13          29          28
         4          13          14          30          29
         4          14          15          31          30
         4          16          17          33          32
         4          17          18          34          33
         4          18          19          35          34
         4          19          20          36          35
         4          20          21          37          36
         4          21          22          38          37
         4          22          23          39          38
         4          23          24          40          39
         4          24          25          41          40
         4          25          26          42          41
         4          26          27          43          42
         4          27          28          44          43
         4          28          29          45          44
         4          29          30          46          45
         4          30          31          47          46
         4          32          33          49          48
         4          33          34          50          49
         4          34          35          51          50
         4          35          36          52          51
         4          36          37          53          52
         4          37          38          54          53
         4          38          39          55          54
         4          39          40          56          55
         4          40          41          57          56
         4          41          42          58          57
         4          42          43          59          58
         4          43          44          60          59
         4          44          45          61          60
         4          45          46          62          61
         4          46          47          63          62
         4          48          49          65          64
         4          49          50          66          65
         4          50          51          67          66
         4          51          52          68          67
         4          52          53          69          68
         4          53          54          70          69
         4          54          55          71          70
         4          55          56          72          71
         4          56          57          73          72
         4          57          58          74          73
         4          58          59          75          74
         4          59          60          76          75
         4          60          61          77          76
         4          61          62          78          77
         4          62          63          79          78
         4          64          65          81          80
         4          65          66          82          81
         4          66          67          83          82
         4          67          68          84          83
         4          68          69          85          84
         4          69          70          86          85
         4          70          71          87          86
         4          71          72          88          87
         4          72          73          89          88
         4          73          74          90          89
         4          74          75          91          90
         4          75          76          92          91
         4          76          77          93          92
         4          77          78          94          93
         4          78          79          95          94
         4          80          81          97          96
         4          81          82          98          97
         4          82          83          99          98
         4          83          84         100          99
         4          84          85         101         100
         4          85          86         102         101
         4          86          87         103         102
         4          87          88         104         103
         4          88          89         105         104
         4          89          90         106         105
         4          90          91         107         106
         4          91          92         108         107
         4          92          93         109         108
         4          93          94         110         109
         4          94          95         111         110
         4          96          97         113         112
         4          97          98         114         113
         4          98          99         115         114
         4          99         100         116         115
         4         100         101         117         116
         4         101         102         118         117
         4         102         103         119         118
         4         103         104         120         119
         4         104         105         121         120
         4         105         106         122         121
         4         106         107         123         122
         4         107         108         124         123
         4         108         109         125         124
         4         109         110         126         125
         4         110         111         127         126
         4         112         113         129         128
         4         113         114         130         129
         4         114         115         131         130
         4         115         116         132         131
         4         116         117         133         132
         4         117         118         134         133
         4         118         119         135         134
         4         119         120         136         135
         4         120         121         137         136
         4         121         122         138         137
         4         122         123         139         138
         4         123         124         140         139
         4         124         125         141         140
         4         125         126         142         141
         4         126         127         143         142
         4         128         129         145         144
         4         129         130         146         145
         4         130         131         147         146
         4         131         132         148         147
         4         132         133         149         148
         4         133         134         150         149
         4         134         135         151         150
         4         135         136         152         151
         4         136         137         153         152
         4         137         138         154         153
         4         138         139         155         154
         4         139         140         156         155
         4         140         141         157         156
         4         141         142         158         157
         4         142         143         159         158
         4         144         145         161         160
         4         145         146         162         161
         4         146         147         163         162
         4         147         148         164         163
         4         148         149         165         164
         4         149         150         166         165
         4         150         151         167         166
         4         151         152         168         167
         4         152         153         169         168
         4         153         154         170         169
         4         154         155         171         170
         4         155         156         172         171
         4         156         157         173         172
         4         157         158         174         173
         4         158         159         175         174
         4         160         161         177         176
         4         161         162         178         177
         4         162         163         179         178
         4         163         164         180         179
         4         164         165         181         180
         4         165         166         182         181
         4         166         167         183         182
         4         167         168         184         183
         4         168         169         185         184
         4         169         170         186         185
         4         170         171         187         186
         4         171         172         188         187
         4         172         173         189         188
         4         173         174         190         189
         4         174         175         191         190
         4         176         177         193         192
         4         177         178         194         193
         4         178         179         195         194
         4         179         180         196         195
         4         180         181         197         196
         4         181         182         198         197
         4         182         183         199         198
         4         183         184         200         199
         4         184         185         201         200
         4         185         186         202         201
         4         186         187         203         202
         4         187         188         204         203
         4         188         189         205         204
         4         189         190         206         205
         4         190         191         207         206
         4         192         193         209         208
         4         193         194         210         209
         4         194         195         211         210
         4         195         196         212         211
         4         196         197         213         212
         4         197         198         214         213
         4         198         199         215         214
         4         199         200         216         215
         4         200         201         217         216
         4         201         202         218         217
         4         202         203         219         218
         4         203         204         220         219
         4         204         205         221         220
         4         205         206         222         221
         4         206         207         223         222
         4         208         209         225         224
         4         209         210         226         225
         4         210         211         227         226
         4         211         212         228         227
         4         212         213         229         228
         4         213         214         230         229
         4         214         215         231         230
         4         215         216         232         231
         4         216         217         233         232
         4         217         218         234         233
         4         218         219         235         234
         4         219         220         236         235
         4         220         221         237         236
         4         221         222         238         237
         4         222         223         239         238
         4         224         225         241         240
         4         225         226         242         241
         4         226         227         243         242
         4         227         228         244         243
         4         228         229         245         244
         4         229         230         246         245
         4         230         231         247         246
         4         231         232         248         247
         4         232         233         249         248
         4         233         234         250         249
         4         234         235         251         250
         4         235         236         252         251
         4         236         237         253         252
         4         237         238         254         253
         4         238         239         255         254
         4         240         241         257         256
         4         241         242         258         257
         4         242         243         259         258
         4         243         244         260         259
         4         244         245         261         260
         4         245         246         262         261
         4         246         247         263         262
         4         247         248         264         263
         4         248         249         265         264
         4         249         250         266         265
         4         250         251         267         266
         4         251         252         268         267
         4         252         253         269         268
         4         253         254         270         269
         4         254         255         271         270
         4         256         257         273         272
         4         257         258         274         273
         4         258         259         275         274
         4         259         260         276         275
         4         260         261         277         276
         4         261         262         278         277
         4         262         263         279         278
         4         263         264         280         279
         4         264         265         281         280
         4         265         266         282         281
         4         266         267         283         282
         4         267         268         284         283
         4         268         269         285         284
         4         269         270         286         285
         4         270         271         287         286
         4         272         273         289         288
         4         273         274         290         289
         4         274         275         291         290
         4         275         276         292         291
         4         276         277         293         292
         4         277         278         294         293
         4         278         279         295         294
         4         279         280         296         295
         4         280         281         297         296
         4         281         282         298         297
         4         282         283         299         298
         4         283         284         300         299
         4         284         285         301         300
         4         285         286         302         301
         4         286         287         303         302
         4         288         289         305         304
         4         289         290         306         305
         4         290         291         307         306
         4         291         292         308         307
         4         292         293         309         308
         4         293         294         310         309
         4         294         295         311         310
         4         295         296         312         311
         4         296         297         313         312
         4         297         298         314         313
         4         298         299         315         314
         4         299         300         316         315
         4         300         301         317         316
         4         301         302         318         317
         4         302         303         319         318
         4         304         305         321         320
         4         305         306         322         321
         4         306         307         323         322
         4         307         308         324         323
         4         308         309         325         324
         4         309         310         326         325
         4         310         311         327         326
         4         311         312         328         327
         4         312         313         329         328
         4         313         314         330         329
         4         314         315         331         330
         4         315         316         332         331
         4         316         317         333         332
         4         317         318         334         333
         4         318         319         335         334
         4         320         321         337         336
         4         321         322         338         337
         4         322         323         339         338
         4         323         324         340         339
         4         324         325         341         340
         4         325         326         342         341
         4         326         327         343         342
         4         327         328         344         343
         4         328         329         345         344
         4         329         330         346         345
         4         330         331         347         346
         4         331         332         348         347
         4         332         333         349         348
         4         333         334         350         349
         4         334         335         351         350
         4         336         337         353         352
         4         337         338         354         353
         4         338         339         355         354
         4         339         340         356         355
         4         340         341         357         356
         4         341         342         358         357
         4         342         343         359         358
         4         343         344         360         359
         4         344         345         361         360
         4         345         346         362         361
         4         346         347         363         362
         4         347         348         364         363
         4         348         349         365         364
         4         349         350         366         365
         4         350         351         367         366
         4         352         353         369         368
         4         353         354         370         369
         4         354         355         371         370
         4         355         356         372         371
         4         356         357         373         372
         4         357         358         374         373
         4         358         359         375         374
         4         359         360         376         375
         4         360         361         377         376
         4         361         362         378         377
         4         362         363         379         378
         4         363         364         380         379
         4         364         365         381         380
         4         365         366         382         381
         4         366         367         383         382
         4         368         369         385         384
         4         369         370         386         385
         4         370         371         387         386
         4         371         372         388         387
         4         372         373         389         388
         4         373         374         390         389
         4         374         375         391         390
         4         375         376         392         391
         4         376         377         393         392
         4         377         378         394         393
         4         378         379         395         394
         4         379         380         396         395
         4         380         381         397         396
         4         381         382         398         397
         4         382         383         399         398
         4         384         385         401         400
         4         385         386         402         401
         4         386         387         403         402
         4         387         388         404         403
         4         388         389         405         404
         4         389         390         406         405
         4         390         391         407         406
         4         391         392         408         407
         4         392         393         409         408
         4         393         394         410         409
         4         394         395         411         410
         4         395         396         412         411
         4         396         397         413         412
         4         397         398         414         413
         4         398         399         415         414
         4         400         401         417         416
         4         401         402         418         417
         4         402         403         419         418
         4         403         404         420         419
         4         404         405         421         420
         4         405         406         422         421
         4         406         407         423         422
         4         407         408         424         423
         4         408         409         425         424
         4         409         410         426         425
         4         410         411         427         426
         4         411         412         428         427
         4         412         413         429         428
         4         413         414         430         429
         4         414         415         431         430
         4         416         417         433         432
         4         417         418         434         433
         4         418         419         435         434
         4         419         420         436         435
         4         420         421         437         436
         4         421         422         438         437
         4         422         423         439         438
         4         423         424         440         439
         4         424         425         441         440
         4         425         426         442         441
         4         426         427         443         442
         4         427         428         444         443
         4         428         429         445         444
         4         429         430         446         445
         4         430         431         447         446
         4         432         433         449         448
         4         433         434         450         449
         4         434         435         451         450
         4         435         436         452         451
         4         436         437         453         452
         4         437         438         454         453
         4         438         439         455         454
         4         439         440         456         455
         4         440         441         457         456
         4         441         442         458         457
         4         442         443         459         458
         4         443         444         460         459
         4         444         445         461         460
         4         445         446         462         461
         4         446         447         463         462
         4         448         449         465         464
         4         449         450         466         465
         4         450         451         467         466
         4         451         452         468         467
         4         452         453         469         468
         4         453         454         470         469
         4         454         455         471         470
         4         455         456         472         471
         4         456         457         473         472
         4         457         458         474         473
         4         458         459         475         474
         4         459         460         476         475
         4         460         461         477         476
         4         461         462         478         477
         4         462         463         479         478
         4         464         465         481         480
         4         465         466         482         481
         4         466         467         483         482
         4         467         468         484         483
         4         468         469         485         484
         4         469         470         486         485
         4         470         471         487         486
         4         471         472         488         487
         4         472         473         489         488
         4         473         474         490         489
         4         474         475         491         490
         4         475         476         492         491
         4         476         477         493         492
         4         477         478         494         493
         4         478         479         495         494
CELL_TYPES        450
9
9
9
9
9
9
9
9
9
9
9
9
9
9
9
9
9
9
9
9
9
9
9
9
9
9
9
9
9
9
9
9
9
9
9
9
9
9
9
9
9
9
9
9
9
9
9
9
9
9
9
9
9
9
9
9
9
9
9
9
9
9
9
9
9
9
9
9
9
9
9
9
9
9
9
9
9
9
9
9
9
9
9
9
9
9
9
9
9
9
9
9
9
9
9
9
9
9
9
9
9
9
9
9
9
9
9
9
9
9
9
9
9
9
9
9
9
9
9
9
9
9
9
9
9
9
9
9
9
9
9
9
9
9
9
9
9
9
9
9
9
9
9
9
9
9
9
9
9
9
9
9
9
9
9
9
9
9
9
9
9
9
9
9
9
9
9
9
9
9
9
9
9
9
9
9
9
9
9
9
9
9
9
9
9
9
9
9
9
9
9
9
9
9
9
9
9
9
9
9
9
9
9
9
9
9
9
9
9
9
9
9
9
9
9
9
9
9
9
9
9
9
9
9
9
9
9
9
9
9
9
9
9
9
9
9
9
9
9
9
9
9
9
9
9
9
9
9
9
9
9
9
9
9
9
9
9
9
9
9
9
9
9
9
9
9
9
9
9
9
9
9
9
9
9
9
9
9
9
9
9
9
9
9
9
9
9
9
9
9
9
9
9
9
9
9
9
9
9
9
9
9
9
9
9
9
9
9
9
9
9
9
9
9
9
9
9
9
9
9
9
9
9
9
9
9
9
9
9
9
9
9
9
9
9
9
9
9
9
9
9
9
9
9
9
9
9
9
9
9
9
9
9
9
9
9
9
9
9
9
9
9
9
9
9
9
9
9
9
9
9
9
9
9
9
9
9
9
9
9
9
9
9
9
9
9
9
9
9
9
9
9
9
9
9
9
9
9
9
9
9
9
9
9
9
9
9
9
9
9
9
9
9
9
9
9
9
9
9
9
9
9
9
9
9
9
9
9
9
9
9
9
9
9
9
9
9
9
9
9
9
9
9
9
9
9
9
9
9
9
POINT_DATA       496
SCALARS p double 
LOOKUP_TABLE default
   42926745.1382194     
   42918995.7977127     
   42895746.6102536     
   42856644.5400977     
   42801288.5222281     
   42731246.8761055     
   42660945.8189364     
   42600022.7927532     
   42547520.5575442     
   42502666.7133699     
   42464909.0999162     
   42433908.3646000     
   42409518.9325454     
   42391769.1148261     
   42380842.8251618     
   42377062.2813516     
   42885343.6263242     
   42877585.2576326     
   42854307.1979058     
   42815165.5337849     
   42759756.0187979     
   42689797.8427470     
   42619813.2439643     
   42559168.9148368     
   42506883.5718296     
   42462188.0589900     
   42424541.2505052     
   42393614.6514962     
   42369271.4524153     
   42351546.9915711     
   42340631.2310909     
   42336852.2110963     
   42761129.7851178     
   42753344.6745338     
   42729980.7485467     
   42690707.1419724     
   42635129.7719210     
   42565449.9467922     
   42496447.1791418     
   42436641.7340038     
   42384999.4455718     
   42340772.3961891     
   42303455.1201872     
   42272750.5878499     
   42248547.0562250     
   42230900.0519322     
   42220017.0588587     
   42216243.1304679     
   42554061.7011286     
   42546235.3263788     
   42522740.5374142     
   42483237.5808618     
   42427330.7318426     
   42358237.5775586     
   42290959.5080989     
   42232541.7617923     
   42181942.1012063     
   42138477.6710134     
   42101702.6336808     
   42071368.4843883     
   42047401.6850889     
   42029888.7467836     
   42019064.4377634     
   42015300.7482044     
   42264035.2243856     
   42256154.0392685     
   42232512.3496553     
   42192730.8674845     
   42136330.9281662     
   42068309.1762504     
   42003546.2714491     
   41947005.8977490     
   41897816.9664158     
   41855394.2615959     
   41819371.0153543     
   41789559.9133836     
   41765934.9347772     
   41748621.1776026     
   41737887.9949249     
   41734142.3746368     
   41890905.8177784     
   41882951.3781859     
   41859118.7856052     
   41819004.5311072     
   41762174.2102979     
   41695944.1551322     
   41634363.4030565     
   41580179.0303052     
   41532753.2364249     
   41491646.0207596     
   41456588.4142252     
   41427464.2839228     
   41404300.4534305     
   41387264.4966455     
   41376664.6654416     
   41372948.7748755     
   41434544.1142869     
   41426489.1452630     
   41402372.1726283     
   41361826.2590357     
   41304874.4151526     
   41241452.8726943     
   41183640.0688767     
   41132244.8004343     
   41086920.5880730     
   41047402.1914401     
   41013536.4372045     
   40985282.9333929     
   40962721.3967555     
   40946061.2097223     
   40935650.3453922     
   40931980.8415384     
   40894872.8777278     
   40886694.1218532     
   40862209.5491677     
   40821085.2055555     
   40764988.3087715     
   40705548.9105167     
   40651762.4900255     
   40603477.8903213     
   40560551.1889673     
   40522895.4077524     
   40490468.2374563     
   40463298.3609955     
   40441510.6786872     
   40425350.0648322     
   40415201.0260055     
   40411600.7176500     
   40271878.8137247     
   40263550.4175965     
   40238674.6871016     
   40196907.4739028     
   40143025.4209803     
   40088796.6360382     
   40039185.5039342     
   39994210.9322779     
   39953947.2560292     
   39918439.2813535     
   39887730.1091694     
   39861897.5145102     
   39841095.1109192     
   39825590.6159251     
   39815797.4853629     
   39812296.4444443     
   39565653.7895913     
   39557132.9016699     
   39531703.4712484     
   39490093.6301950     
   39440273.6345658     
   39391558.7693945     
   39346252.1476788     
   39304806.2576251     
   39267487.8008086     
   39234449.3210340     
   39205786.6651300     
   39181598.1272819     
   39162041.9760931     
   39147389.8410006     
   39138071.8768326     
   39134708.4676247     
   38776421.6569768     
   38767709.4269643     
   38741682.7974019     
   38701986.8587879     
   38657553.8571855     
   38614248.3367244     
   38573371.2161877     
   38535701.2511919     
   38501661.8187180     
   38471473.9995226     
   38445250.5408403     
   38423076.7595529     
   38405085.7695997     
   38391528.2335344     
   38382833.5839322     
   38379655.3668311     
   37904751.7942019     
   37895719.7078800     
   37870039.8305473     
   37834167.5994947     
   37795566.8128692     
   37757419.5884038     
   37721087.1814983     
   37687485.5764958     
   37657121.4047457     
   37630235.3655962     
   37606915.1964470     
   37587195.8505290     
   37571151.4682661     
   37558981.3722116     
   37551090.3862388     
   37548154.8795425     
   36951609.2516211     
   36942397.5884910     
   36918808.5562796     
   36887997.4621800     
   36854921.0527208     
   36821789.0337233     
   36790155.9994809     
   36760966.8186064     
   36734737.9372497     
   36711672.9713930     
   36691787.3257961     
   36675025.6712441     
   36661368.7649552     
   36650930.7921214     
   36644059.0551259     
   36641434.4505060     
   35918333.5002079     
   35910239.7379940     
   35890160.2698102     
   35864476.5593627     
   35836461.1933095     
   35808332.3271420     
   35781611.5334349     
   35757232.9758464     
   35735656.0260210     
   35716987.6688087     
   35701116.9977733     
   35687857.3889664     
   35677069.3696246     
   35668754.0622343     
   35663156.3464596     
   35660922.7429595     
   34808669.4186186     
   34802010.9764578     
   34785740.9867754     
   34764630.5353183     
   34741458.8519244     
   34718378.0086951     
   34696840.6944662     
   34677713.2277535     
   34661347.6390097     
   34647687.9608276     
   34636429.5655643     
   34627208.4568696     
   34619757.7072114     
   34613976.0177172     
   34609953.7013387     
   34608208.0010349     
   33625068.3979179     
   33619859.1490204     
   33607051.4260267     
   33590086.7173733     
   33571650.1505366     
   33553716.3345000     
   33537655.9772788     
   33524240.3308733     
   33513669.7189494     
   33505646.4084678     
   33499569.9520029     
   33494836.6455514     
   33491061.6187726     
   33488132.9895054     
   33486068.0702775     
   33484928.3972121     
   32370056.4873355     
   32366069.1671648     
   32356148.6169268     
   32343113.0187306     
   32329339.8666404     
   32316667.2939868     
   32306368.0558947     
   32299117.8305381     
   32294931.9955719     
   32293172.7532145     
   32292769.7768490     
   32292782.4573540     
   32292750.1304239     
   32292603.2228482     
   32292615.5113033     
   32292712.4909370     
   31046342.6353679     
   31043288.5121065     
   31035913.6494304     
   31026604.0456895     
   31017455.2616802     
   31010144.5470458     
   31005863.9538691     
   31005204.2205977     
   31007998.8442393     
   31013121.3106686     
   31018707.4749605     
   31023404.4064314     
   31026816.6678617     
   31029183.5289517     
   31030891.9123853     
   31031871.7934621     
   29657037.6773897     
   29654821.7784569     
   29649808.4692617     
   29644105.5198628     
   29639562.4786466     
   29637708.6767747     
   29639679.5525628     
   29646067.7123479     
   29656475.2766776     
   29669271.5847631     
   29681555.8785475     
   29691019.7462842     
   29696985.7243200     
   29699817.2085884     
   29700440.2506310     
   29700449.9063041     
   28206019.1554246     
   28204613.9220087     
   28201909.0459868     
   28199782.4804042     
   28199870.9335606     
   28203581.6074664     
   28212061.5490514     
   28226036.0630203     
   28245221.6748590     
   28266333.8024237     
   28284080.8341457     
   28296323.3261583     
   28303591.6250017     
   28306544.4135234     
   28306666.0685866     
   28306223.0401615     
   26697860.7789816     
   26697286.0361660     
   26696925.8655718     
   26698419.0422034     
   26703198.6276920     
   26712587.9948210     
   26727841.0036912     
   26750155.2849672     
   26778587.7407530     
   26806410.2022222     
   26827948.0001474     
   26842686.8108380     
   26851132.2495782     
   26854452.3138344     
   26854589.7238276     
   26854148.0748228     
   25137835.2074034     
   25138142.5160797     
   25140216.0223042     
   25145401.0837370     
   25154910.7457941     
   25170006.5375724     
   25192157.6672763     
   25223073.2182309     
   25259489.2804033     
   25292253.3208103     
   25317051.8558130     
   25333986.7044825     
   25343813.2318302     
   25347956.2107881     
   25348554.3264337     
   25348263.9242748     
   23531926.4661071     
   23533181.2549104     
   23537783.7947722     
   23546693.2409910     
   23560853.2222203     
   23581449.7986661     
   23610157.4711833     
   23648787.5068173     
   23691393.5948874     
   23727914.3235173     
   23755563.8581076     
   23774667.1139813     
   23786084.7028401     
   23791353.3554841     
   23792629.6399924     
   23792564.9092558     
   21886842.9473110     
   21889102.7101794     
   21896279.3167842     
   21908822.8289213     
   21927325.2225512     
   21952821.9366692     
   21987114.0047447     
   22031658.3783452     
   22078661.6968488     
   22118058.0314005     
   22148185.1970311     
   22169336.9310525     
   22182391.8687710     
   22188868.9990237     
   22190885.4726930     
   22191067.6623444     
   20210028.0348123     
   20213316.5575573     
   20222996.3430221     
   20238872.1481818     
   20261086.5152148     
   20290409.3219267     
   20328569.2543516     
   20376625.1296579     
   20426242.0896941     
   20467718.1342973     
   20499755.9964892     
   20522615.7814370     
   20537111.0447702     
   20544679.0334633     
   20547366.4808437     
   20547775.5568398     
   18509668.9935811     
   18513946.0163168     
   18525864.9653188     
   18544462.1948607     
   18569355.7578953     
   18600945.4075254     
   18640640.5938753     
   18689338.7738123     
   18739564.5945646     
   18782019.8783057     
   18815090.9637156     
   18839006.9519713     
   18854482.0262920     
   18862822.0311538     
   18865984.1176185     
   18866559.5275222     
   16794710.2107894     
   16799833.9636122     
   16813435.8316242     
   16833708.4917299     
   16859747.8256730     
   16891564.0530319     
   16930075.4728709     
   16976109.3654121     
   17024263.4358579     
   17066046.9468282     
   17098829.1809875     
   17122785.6292948     
   17138480.4007428     
   17147056.2036562     
   17150350.5507765     
   17150985.2543175     
   15074887.6860099     
   15080563.0199691     
   15094854.4061344     
   15115140.4858173     
   15140136.6631301     
   15169596.4410378     
   15203963.2584623     
   15243746.1512173     
   15286119.1074832     
   15324678.6924723     
   15355348.9016189     
   15377860.4385976     
   15392660.1598321     
   15400679.6446456     
   15403605.3502483     
   15404144.7853842     
   13360830.8116519     
   13366511.0610873     
   13379808.5920166     
   13397561.8534549     
   13418481.5638557     
   13442308.9935511     
   13469242.2949774     
   13499406.1113842     
   13531714.8290494     
   13562624.4791700     
   13588597.2270466     
   13607606.1167232     
   13619952.7941582     
   13626336.1612463     
   13628282.9162550     
   13628566.8397306     
   11664341.5775348     
   11668998.1439316     
   11678317.0465880     
   11689768.6197622     
   11702623.4049125     
   11716800.9693859     
   11732457.1896106     
   11749599.5057044     
   11767694.7423623     
   11785808.0920003     
   11801871.0435692     
   11814570.5370854     
   11822388.5800093     
   11825792.7208493     
   11826348.9063885     
   11826474.0756604     
   10000000.0000000     
   10000000.0000000     
   10000000.0000000     
   10000000.0000000     
   10000000.0000000     
   10000000.0000000     
   10000000.0000000     
   10000000.0000000     
   10000000.0000000     
   10000000.0000000     
   10000000.0000000     
   10000000.0000000     
   10000000.0000000     
  10000000.00000000     
   10000000.0000000     
   10000000.0000000     
VECTORS u double 
    0.00000E+00        -0.21950E-01         0.00000E+00
    0.00000E+00        -0.20175E-01         0.00000E+00
    0.00000E+00        -0.18459E-01         0.00000E+00
    0.00000E+00        -0.16804E-01         0.00000E+00
    0.00000E+00        -0.15214E-01         0.00000E+00
    0.00000E+00        -0.13689E-01         0.00000E+00
    0.00000E+00        -0.12215E-01         0.00000E+00
    0.00000E+00        -0.10763E-01         0.00000E+00
    0.00000E+00        -0.93320E-02         0.00000E+00
    0.00000E+00        -0.79219E-02         0.00000E+00
    0.00000E+00        -0.65335E-02         0.00000E+00
    0.00000E+00        -0.51683E-02         0.00000E+00
    0.00000E+00        -0.38289E-02         0.00000E+00
    0.00000E+00        -0.25185E-02         0.00000E+00
    0.00000E+00        -0.12407E-02         0.00000E+00
    0.00000E+00         0.00000E+00         0.00000E+00
    0.11765E-02        -0.21994E-01         0.00000E+00
    0.10861E-02        -0.20218E-01         0.00000E+00
    0.99262E-03        -0.18501E-01         0.00000E+00
    0.89732E-03        -0.16845E-01         0.00000E+00
    0.80158E-03        -0.15253E-01         0.00000E+00
    0.70709E-03        -0.13726E-01         0.00000E+00
    0.61817E-03        -0.12249E-01         0.00000E+00
    0.53694E-03        -0.10794E-01         0.00000E+00
    0.46185E-03        -0.93600E-02         0.00000E+00
    0.39136E-03        -0.79464E-02         0.00000E+00
    0.32410E-03        -0.65542E-02         0.00000E+00
    0.25888E-03        -0.51851E-02         0.00000E+00
    0.19469E-03        -0.38417E-02         0.00000E+00
    0.13063E-03        -0.25271E-02         0.00000E+00
    0.65950E-04        -0.12451E-02         0.00000E+00
    0.00000E+00         0.00000E+00         0.00000E+00
    0.23446E-02        -0.22127E-01         0.00000E+00
    0.21636E-02        -0.20348E-01         0.00000E+00
    0.19768E-02        -0.18626E-01         0.00000E+00
    0.17867E-02        -0.16966E-01         0.00000E+00
    0.15959E-02        -0.15370E-01         0.00000E+00
    0.14077E-02        -0.13838E-01         0.00000E+00
    0.12308E-02        -0.12353E-01         0.00000E+00
    0.10693E-02        -0.10888E-01         0.00000E+00
    0.92008E-03        -0.94441E-02         0.00000E+00
    0.77989E-03        -0.80197E-02         0.00000E+00
    0.64603E-03        -0.66163E-02         0.00000E+00
    0.51617E-03        -0.52355E-02         0.00000E+00
    0.38826E-03        -0.38800E-02         0.00000E+00
    0.26057E-03        -0.25529E-02         0.00000E+00
    0.13158E-03        -0.12581E-02         0.00000E+00
    0.00000E+00         0.00000E+00         0.00000E+00
    0.34960E-02        -0.22349E-01         0.00000E+00
    0.32242E-02        -0.20564E-01         0.00000E+00
    0.29445E-02        -0.18836E-01         0.00000E+00
    0.26600E-02        -0.17169E-01         0.00000E+00
    0.23753E-02        -0.15565E-01         0.00000E+00
    0.20952E-02        -0.14024E-01         0.00000E+00
    0.18322E-02        -0.12525E-01         0.00000E+00
    0.15927E-02        -0.11045E-01         0.00000E+00
    0.13712E-02        -0.95839E-02         0.00000E+00
    0.11628E-02        -0.81416E-02         0.00000E+00
    0.96366E-03        -0.67194E-02         0.00000E+00
    0.77025E-03        -0.53191E-02         0.00000E+00
    0.57961E-03        -0.39435E-02         0.00000E+00
    0.38914E-03        -0.25958E-02         0.00000E+00
    0.19658E-03        -0.12798E-02         0.00000E+00
    0.00000E+00         0.00000E+00         0.00000E+00
    0.46221E-02        -0.22661E-01         0.00000E+00
    0.42599E-02        -0.20866E-01         0.00000E+00
    0.38875E-02        -0.19130E-01         0.00000E+00
    0.35094E-02        -0.17453E-01         0.00000E+00
    0.31319E-02        -0.15839E-01         0.00000E+00
    0.27625E-02        -0.14285E-01         0.00000E+00
    0.24173E-02        -0.12766E-01         0.00000E+00
    0.21030E-02        -0.11264E-01         0.00000E+00
    0.18118E-02        -0.97789E-02         0.00000E+00
    0.15375E-02        -0.83115E-02         0.00000E+00
    0.12749E-02        -0.68630E-02         0.00000E+00
    0.10196E-02        -0.54356E-02         0.00000E+00
    0.76759E-03        -0.40320E-02         0.00000E+00
    0.51561E-03        -0.26555E-02         0.00000E+00
    0.26060E-03        -0.13100E-02         0.00000E+00
    0.00000E+00         0.00000E+00         0.00000E+00
    0.57145E-02        -0.23061E-01         0.00000E+00
    0.52619E-02        -0.21256E-01         0.00000E+00
    0.47973E-02        -0.19508E-01         0.00000E+00
    0.43267E-02        -0.17820E-01         0.00000E+00
    0.38578E-02        -0.16192E-01         0.00000E+00
    0.34025E-02        -0.14621E-01         0.00000E+00
    0.29811E-02        -0.13075E-01         0.00000E+00
    0.25962E-02        -0.11544E-01         0.00000E+00
    0.22387E-02        -0.10028E-01         0.00000E+00
    0.19013E-02        -0.85285E-02         0.00000E+00
    0.15776E-02        -0.70464E-02         0.00000E+00
    0.12625E-02        -0.55843E-02         0.00000E+00
    0.95109E-03        -0.41450E-02         0.00000E+00
    0.63926E-03        -0.27318E-02         0.00000E+00
    0.32332E-03        -0.13486E-02         0.00000E+00
    0.00000E+00         0.00000E+00         0.00000E+00
    0.67638E-02        -0.23551E-01         0.00000E+00
    0.62207E-02        -0.21733E-01         0.00000E+00
    0.56649E-02        -0.19972E-01         0.00000E+00
    0.51037E-02        -0.18269E-01         0.00000E+00
    0.45465E-02        -0.16624E-01         0.00000E+00
    0.40102E-02        -0.15029E-01         0.00000E+00
    0.35194E-02        -0.13450E-01         0.00000E+00
    0.30687E-02        -0.11884E-01         0.00000E+00
    0.26489E-02        -0.10331E-01         0.00000E+00
    0.22517E-02        -0.87915E-02         0.00000E+00
    0.18699E-02        -0.72687E-02         0.00000E+00
    0.14975E-02        -0.57645E-02         0.00000E+00
    0.11289E-02        -0.42819E-02         0.00000E+00
    0.75934E-03        -0.28242E-02         0.00000E+00
    0.38434E-03        -0.13954E-02         0.00000E+00
    0.00000E+00         0.00000E+00         0.00000E+00
    0.77611E-02        -0.24130E-01         0.00000E+00
    0.71272E-02        -0.22297E-01         0.00000E+00
    0.64811E-02        -0.20522E-01         0.00000E+00
    0.58319E-02        -0.18803E-01         0.00000E+00
    0.51911E-02        -0.17137E-01         0.00000E+00
    0.45829E-02        -0.15508E-01         0.00000E+00
    0.40283E-02        -0.13891E-01         0.00000E+00
    0.35173E-02        -0.12282E-01         0.00000E+00
    0.30396E-02        -0.10684E-01         0.00000E+00
    0.25863E-02        -0.90990E-02         0.00000E+00
    0.21497E-02        -0.75285E-02         0.00000E+00
    0.17229E-02        -0.59752E-02         0.00000E+00
    0.12999E-02        -0.44420E-02         0.00000E+00
    0.87503E-03        -0.29324E-02         0.00000E+00
    0.44328E-03        -0.14502E-02         0.00000E+00
    0.00000E+00         0.00000E+00         0.00000E+00
    0.86970E-02        -0.24801E-01         0.00000E+00
    0.79723E-02        -0.22951E-01         0.00000E+00
    0.72374E-02        -0.21158E-01         0.00000E+00
    0.65037E-02        -0.19419E-01         0.00000E+00
    0.57864E-02        -0.17727E-01         0.00000E+00
    0.51162E-02        -0.16058E-01         0.00000E+00
    0.45048E-02        -0.14393E-01         0.00000E+00
    0.39389E-02        -0.12736E-01         0.00000E+00
    0.34080E-02        -0.11087E-01         0.00000E+00
    0.29028E-02        -0.94495E-02         0.00000E+00
    0.24149E-02        -0.78246E-02         0.00000E+00
    0.19371E-02        -0.62153E-02         0.00000E+00
    0.14627E-02        -0.46245E-02         0.00000E+00
    0.98546E-03        -0.30557E-02         0.00000E+00
    0.49969E-03        -0.15127E-02         0.00000E+00
    0.00000E+00         0.00000E+00         0.00000E+00
    0.95625E-02        -0.25563E-01         0.00000E+00
    0.87469E-02        -0.23694E-01         0.00000E+00
    0.79257E-02        -0.21882E-01         0.00000E+00
    0.71123E-02        -0.20119E-01         0.00000E+00
    0.63287E-02        -0.18392E-01         0.00000E+00
    0.56077E-02        -0.16673E-01         0.00000E+00
    0.49458E-02        -0.14956E-01         0.00000E+00
    0.43306E-02        -0.13244E-01         0.00000E+00
    0.37515E-02        -0.11538E-01         0.00000E+00
    0.31987E-02        -0.98412E-02         0.00000E+00
    0.26636E-02        -0.81556E-02         0.00000E+00
    0.21384E-02        -0.64837E-02         0.00000E+00
    0.16160E-02        -0.48286E-02         0.00000E+00
    0.10897E-02        -0.31937E-02         0.00000E+00
    0.55306E-03        -0.15827E-02         0.00000E+00
    0.00000E+00         0.00000E+00         0.00000E+00
    0.10349E-01        -0.26418E-01         0.00000E+00
    0.94430E-02        -0.24528E-01         0.00000E+00
    0.85388E-02        -0.22692E-01         0.00000E+00
    0.76532E-02        -0.20900E-01         0.00000E+00
    0.68188E-02        -0.19125E-01         0.00000E+00
    0.60543E-02        -0.17350E-01         0.00000E+00
    0.53483E-02        -0.15575E-01         0.00000E+00
    0.46896E-02        -0.13802E-01         0.00000E+00
    0.40673E-02        -0.12034E-01         0.00000E+00
    0.34716E-02        -0.10272E-01         0.00000E+00
    0.28935E-02        -0.85198E-02         0.00000E+00
    0.23249E-02        -0.67792E-02         0.00000E+00
    0.17583E-02        -0.50535E-02         0.00000E+00
    0.11866E-02        -0.33458E-02         0.00000E+00
    0.60281E-03        -0.16599E-02         0.00000E+00
    0.00000E+00         0.00000E+00         0.00000E+00
    0.11047E-01        -0.27365E-01         0.00000E+00
    0.10053E-01        -0.25452E-01         0.00000E+00
    0.90711E-02        -0.23589E-01         0.00000E+00
    0.81274E-02        -0.21754E-01         0.00000E+00
    0.72554E-02        -0.19922E-01         0.00000E+00
    0.64531E-02        -0.18086E-01         0.00000E+00
    0.57094E-02        -0.16247E-01         0.00000E+00
    0.50129E-02        -0.14409E-01         0.00000E+00
    0.43529E-02        -0.12573E-01         0.00000E+00
    0.37192E-02        -0.10741E-01         0.00000E+00
    0.31027E-02        -0.89160E-02         0.00000E+00
    0.24949E-02        -0.71007E-02         0.00000E+00
    0.18881E-02        -0.52982E-02         0.00000E+00
    0.12751E-02        -0.35115E-02         0.00000E+00
    0.64828E-03        -0.17441E-02         0.00000E+00
    0.00000E+00         0.00000E+00         0.00000E+00
    0.11651E-01        -0.28406E-01         0.00000E+00
    0.10572E-01        -0.26465E-01         0.00000E+00
    0.95220E-02        -0.24565E-01         0.00000E+00
    0.85389E-02        -0.22674E-01         0.00000E+00
    0.76352E-02        -0.20778E-01         0.00000E+00
    0.68011E-02        -0.18877E-01         0.00000E+00
    0.60258E-02        -0.16971E-01         0.00000E+00
    0.52976E-02        -0.15063E-01         0.00000E+00
    0.46055E-02        -0.13153E-01         0.00000E+00
    0.39391E-02        -0.11246E-01         0.00000E+00
    0.32889E-02        -0.93429E-02         0.00000E+00
    0.26463E-02        -0.74473E-02         0.00000E+00
    0.20038E-02        -0.55621E-02         0.00000E+00
    0.13538E-02        -0.36903E-02         0.00000E+00
    0.68868E-03        -0.18351E-02         0.00000E+00
    0.00000E+00         0.00000E+00         0.00000E+00
    0.12154E-01        -0.29537E-01         0.00000E+00
    0.10995E-01        -0.27562E-01         0.00000E+00
    0.98969E-02        -0.25610E-01         0.00000E+00
    0.88854E-02        -0.23654E-01         0.00000E+00
    0.79546E-02        -0.21691E-01         0.00000E+00
    0.70948E-02        -0.19721E-01         0.00000E+00
    0.62942E-02        -0.17743E-01         0.00000E+00
    0.55408E-02        -0.15760E-01         0.00000E+00
    0.48227E-02        -0.13773E-01         0.00000E+00
    0.41290E-02        -0.11786E-01         0.00000E+00
    0.34501E-02        -0.97994E-02         0.00000E+00
    0.27775E-02        -0.78181E-02         0.00000E+00
    0.21035E-02        -0.58447E-02         0.00000E+00
    0.14211E-02        -0.38820E-02         0.00000E+00
    0.72301E-03        -0.19328E-02         0.00000E+00
    0.00000E+00         0.00000E+00         0.00000E+00
    0.12551E-01        -0.30756E-01         0.00000E+00
    0.11329E-01        -0.28732E-01         0.00000E+00
    0.10199E-01        -0.26714E-01         0.00000E+00
    0.91614E-02        -0.24690E-01         0.00000E+00
    0.82092E-02        -0.22657E-01         0.00000E+00
    0.73303E-02        -0.20615E-01         0.00000E+00
    0.65115E-02        -0.18562E-01         0.00000E+00
    0.57395E-02        -0.16500E-01         0.00000E+00
    0.50017E-02        -0.14432E-01         0.00000E+00
    0.42866E-02        -0.12359E-01         0.00000E+00
    0.35843E-02        -0.10285E-01         0.00000E+00
    0.28864E-02        -0.82132E-02         0.00000E+00
    0.21855E-02        -0.61461E-02         0.00000E+00
    0.14755E-02        -0.40867E-02         0.00000E+00
    0.74995E-03        -0.20374E-02         0.00000E+00
    0.00000E+00         0.00000E+00         0.00000E+00
    0.12850E-01        -0.32050E-01         0.00000E+00
    0.11580E-01        -0.29961E-01         0.00000E+00
    0.10420E-01        -0.27874E-01         0.00000E+00
    0.93617E-02        -0.25779E-01         0.00000E+00
    0.83944E-02        -0.23674E-01         0.00000E+00
    0.75035E-02        -0.21556E-01         0.00000E+00
    0.66739E-02        -0.19424E-01         0.00000E+00
    0.58908E-02        -0.17281E-01         0.00000E+00
    0.51400E-02        -0.15127E-01         0.00000E+00
    0.44096E-02        -0.12966E-01         0.00000E+00
    0.36894E-02        -0.10801E-01         0.00000E+00
    0.29712E-02        -0.86334E-02         0.00000E+00
    0.22482E-02        -0.64675E-02         0.00000E+00
    0.15150E-02        -0.43055E-02         0.00000E+00
    0.76760E-03        -0.21495E-02         0.00000E+00
    0.00000E+00         0.00000E+00         0.00000E+00
    0.13053E-01        -0.33406E-01         0.00000E+00
    0.11739E-01        -0.31246E-01         0.00000E+00
    0.10553E-01        -0.29086E-01         0.00000E+00
    0.94804E-02        -0.26918E-01         0.00000E+00
    0.85053E-02        -0.24737E-01         0.00000E+00
    0.76104E-02        -0.22541E-01         0.00000E+00
    0.67781E-02        -0.20328E-01         0.00000E+00
    0.59916E-02        -0.18100E-01         0.00000E+00
    0.52350E-02        -0.15859E-01         0.00000E+00
    0.44954E-02        -0.13607E-01         0.00000E+00
    0.37629E-02        -0.11347E-01         0.00000E+00
    0.30298E-02        -0.90810E-02         0.00000E+00
    0.22897E-02        -0.68123E-02         0.00000E+00
    0.15380E-02        -0.45424E-02         0.00000E+00
    0.77314E-03        -0.22727E-02         0.00000E+00
    0.00000E+00         0.00000E+00         0.00000E+00
    0.13147E-01        -0.34815E-01         0.00000E+00
    0.11796E-01        -0.32581E-01         0.00000E+00
    0.10591E-01        -0.30346E-01         0.00000E+00
    0.95115E-02        -0.28101E-01         0.00000E+00
    0.85368E-02        -0.25841E-01         0.00000E+00
    0.76464E-02        -0.23564E-01         0.00000E+00
    0.68202E-02        -0.21269E-01         0.00000E+00
    0.60385E-02        -0.18955E-01         0.00000E+00
    0.52837E-02        -0.16625E-01         0.00000E+00
    0.45411E-02        -0.14281E-01         0.00000E+00
    0.38019E-02        -0.11925E-01         0.00000E+00
    0.30596E-02        -0.95601E-02         0.00000E+00
    0.23081E-02        -0.71852E-02         0.00000E+00
    0.15453E-02        -0.48015E-02         0.00000E+00
    0.77193E-03        -0.24077E-02         0.00000E+00
    0.00000E+00         0.00000E+00         0.00000E+00
    0.13121E-01        -0.36268E-01         0.00000E+00
    0.11742E-01        -0.33958E-01         0.00000E+00
    0.10527E-01        -0.31644E-01         0.00000E+00
    0.94489E-02        -0.29320E-01         0.00000E+00
    0.84836E-02        -0.26979E-01         0.00000E+00
    0.76070E-02        -0.24619E-01         0.00000E+00
    0.67960E-02        -0.22239E-01         0.00000E+00
    0.60279E-02        -0.19840E-01         0.00000E+00
    0.52821E-02        -0.17423E-01         0.00000E+00
    0.45454E-02        -0.14990E-01         0.00000E+00
    0.38098E-02        -0.12536E-01         0.00000E+00
    0.30703E-02        -0.10062E-01         0.00000E+00
    0.23218E-02        -0.75701E-02         0.00000E+00
    0.15601E-02        -0.50602E-02         0.00000E+00
    0.78568E-03        -0.25343E-02         0.00000E+00
    0.00000E+00         0.00000E+00         0.00000E+00
    0.12960E-01        -0.37752E-01         0.00000E+00
    0.11566E-01        -0.35363E-01         0.00000E+00
    0.10352E-01        -0.32969E-01         0.00000E+00
    0.92865E-02        -0.30562E-01         0.00000E+00
    0.83405E-02        -0.28138E-01         0.00000E+00
    0.74875E-02        -0.25694E-01         0.00000E+00
    0.67012E-02        -0.23230E-01         0.00000E+00
    0.59558E-02        -0.20746E-01         0.00000E+00
    0.52295E-02        -0.18244E-01         0.00000E+00
    0.45129E-02        -0.15715E-01         0.00000E+00
    0.37999E-02        -0.13156E-01         0.00000E+00
    0.30795E-02        -0.10568E-01         0.00000E+00
    0.23442E-02        -0.79520E-02         0.00000E+00
    0.15884E-02        -0.53133E-02         0.00000E+00
    0.80775E-03        -0.26588E-02         0.00000E+00
    0.00000E+00         0.00000E+00         0.00000E+00
    0.12654E-01        -0.39252E-01         0.00000E+00
    0.11261E-01        -0.36784E-01         0.00000E+00
    0.10060E-01        -0.34306E-01         0.00000E+00
    0.90184E-02        -0.31815E-01         0.00000E+00
    0.81027E-02        -0.29305E-01         0.00000E+00
    0.72834E-02        -0.26776E-01         0.00000E+00
    0.65319E-02        -0.24227E-01         0.00000E+00
    0.58196E-02        -0.21659E-01         0.00000E+00
    0.51279E-02        -0.19066E-01         0.00000E+00
    0.44498E-02        -0.16437E-01         0.00000E+00
    0.37728E-02        -0.13771E-01         0.00000E+00
    0.30833E-02        -0.11067E-01         0.00000E+00
    0.23699E-02        -0.83301E-02         0.00000E+00
    0.16229E-02        -0.55655E-02         0.00000E+00
    0.83418E-03        -0.27841E-02         0.00000E+00
    0.00000E+00         0.00000E+00         0.00000E+00
    0.12194E-01        -0.40753E-01         0.00000E+00
    0.10817E-01        -0.38202E-01         0.00000E+00
    0.96451E-02        -0.35639E-01         0.00000E+00
    0.86398E-02        -0.33061E-01         0.00000E+00
    0.77658E-02        -0.30464E-01         0.00000E+00
    0.69910E-02        -0.27847E-01         0.00000E+00
    0.62849E-02        -0.25212E-01         0.00000E+00
    0.56181E-02        -0.22558E-01         0.00000E+00
    0.49771E-02        -0.19871E-01         0.00000E+00
    0.43509E-02        -0.17143E-01         0.00000E+00
    0.37218E-02        -0.14371E-01         0.00000E+00
    0.30736E-02        -0.11556E-01         0.00000E+00
    0.23904E-02        -0.87025E-02         0.00000E+00
    0.16577E-02        -0.58163E-02         0.00000E+00
    0.86311E-03        -0.29099E-02         0.00000E+00
    0.00000E+00         0.00000E+00         0.00000E+00
    0.11569E-01        -0.42234E-01         0.00000E+00
    0.10228E-01        -0.39599E-01         0.00000E+00
    0.91008E-02        -0.36949E-01         0.00000E+00
    0.81464E-02        -0.34281E-01         0.00000E+00
    0.73265E-02        -0.31594E-01         0.00000E+00
    0.66073E-02        -0.28889E-01         0.00000E+00
    0.59574E-02        -0.26165E-01         0.00000E+00
    0.53501E-02        -0.23422E-01         0.00000E+00
    0.47720E-02        -0.20642E-01         0.00000E+00
    0.42078E-02        -0.17817E-01         0.00000E+00
    0.36369E-02        -0.14946E-01         0.00000E+00
    0.30396E-02        -0.12028E-01         0.00000E+00
    0.23960E-02        -0.90650E-02         0.00000E+00
    0.16865E-02        -0.60634E-02         0.00000E+00
    0.89229E-03        -0.30351E-02         0.00000E+00
    0.00000E+00         0.00000E+00         0.00000E+00
    0.10774E-01        -0.43675E-01         0.00000E+00
    0.94878E-02        -0.40955E-01         0.00000E+00
    0.84236E-02        -0.38216E-01         0.00000E+00
    0.75354E-02        -0.35456E-01         0.00000E+00
    0.67825E-02        -0.32677E-01         0.00000E+00
    0.61299E-02        -0.29880E-01         0.00000E+00
    0.55471E-02        -0.27067E-01         0.00000E+00
    0.50100E-02        -0.24234E-01         0.00000E+00
    0.45042E-02        -0.21363E-01         0.00000E+00
    0.40102E-02        -0.18448E-01         0.00000E+00
    0.35057E-02        -0.15486E-01         0.00000E+00
    0.29685E-02        -0.12474E-01         0.00000E+00
    0.23753E-02        -0.94118E-02         0.00000E+00
    0.17011E-02        -0.63033E-02         0.00000E+00
    0.91822E-03        -0.31585E-02         0.00000E+00
    0.00000E+00         0.00000E+00         0.00000E+00
    0.98006E-02        -0.45054E-01         0.00000E+00
    0.85928E-02        -0.42247E-01         0.00000E+00
    0.76111E-02        -0.39417E-01         0.00000E+00
    0.68053E-02        -0.36563E-01         0.00000E+00
    0.61324E-02        -0.33689E-01         0.00000E+00
    0.55570E-02        -0.30799E-01         0.00000E+00
    0.50504E-02        -0.27896E-01         0.00000E+00
    0.45914E-02        -0.24976E-01         0.00000E+00
    0.41638E-02        -0.22019E-01         0.00000E+00
    0.37457E-02        -0.19022E-01         0.00000E+00
    0.33142E-02        -0.15979E-01         0.00000E+00
    0.28454E-02        -0.12885E-01         0.00000E+00
    0.23139E-02        -0.97361E-02         0.00000E+00
    0.16899E-02        -0.65321E-02         0.00000E+00
    0.93499E-03        -0.32789E-02         0.00000E+00
    0.00000E+00         0.00000E+00         0.00000E+00
    0.86449E-02        -0.46346E-01         0.00000E+00
    0.75399E-02        -0.43452E-01         0.00000E+00
    0.66624E-02        -0.40529E-01         0.00000E+00
    0.59565E-02        -0.37579E-01         0.00000E+00
    0.53764E-02        -0.34610E-01         0.00000E+00
    0.48870E-02        -0.31626E-01         0.00000E+00
    0.44631E-02        -0.28634E-01         0.00000E+00
    0.40868E-02        -0.25629E-01         0.00000E+00
    0.37403E-02        -0.22595E-01         0.00000E+00
    0.34009E-02        -0.19525E-01         0.00000E+00
    0.30466E-02        -0.16413E-01         0.00000E+00
    0.26537E-02        -0.13251E-01         0.00000E+00
    0.21951E-02        -0.10031E-01         0.00000E+00
    0.16376E-02        -0.67450E-02         0.00000E+00
    0.93351E-03        -0.33942E-02         0.00000E+00
    0.00000E+00         0.00000E+00         0.00000E+00
    0.73019E-02        -0.47525E-01         0.00000E+00
    0.63282E-02        -0.44542E-01         0.00000E+00
    0.55789E-02        -0.41525E-01         0.00000E+00
    0.49905E-02        -0.38479E-01         0.00000E+00
    0.45150E-02        -0.35415E-01         0.00000E+00
    0.41189E-02        -0.32341E-01         0.00000E+00
    0.37807E-02        -0.29262E-01         0.00000E+00
    0.34877E-02        -0.26178E-01         0.00000E+00
    0.32220E-02        -0.23075E-01         0.00000E+00
    0.29614E-02        -0.19944E-01         0.00000E+00
    0.26863E-02        -0.16777E-01         0.00000E+00
    0.23746E-02        -0.13563E-01         0.00000E+00
    0.19995E-02        -0.10288E-01         0.00000E+00
    0.15256E-02        -0.69379E-02         0.00000E+00
    0.89863E-03        -0.35039E-02         0.00000E+00
    0.00000E+00         0.00000E+00         0.00000E+00
    0.57676E-02        -0.48558E-01         0.00000E+00
    0.49591E-02        -0.45487E-01         0.00000E+00
    0.43645E-02        -0.42375E-01         0.00000E+00
    0.39106E-02        -0.39235E-01         0.00000E+00
    0.35494E-02        -0.36081E-01         0.00000E+00
    0.32512E-02        -0.32922E-01         0.00000E+00
    0.29992E-02        -0.29765E-01         0.00000E+00
    0.27855E-02        -0.26610E-01         0.00000E+00
    0.25972E-02        -0.23449E-01         0.00000E+00
    0.24133E-02        -0.20269E-01         0.00000E+00
    0.22161E-02        -0.17060E-01         0.00000E+00
    0.19880E-02        -0.13810E-01         0.00000E+00
    0.17053E-02        -0.10500E-01         0.00000E+00
    0.13326E-02        -0.71069E-02         0.00000E+00
    0.81266E-03        -0.36081E-02         0.00000E+00
    0.00000E+00         0.00000E+00         0.00000E+00
    0.40382E-02        -0.49404E-01         0.00000E+00
    0.34382E-02        -0.46245E-01         0.00000E+00
    0.30259E-02        -0.43040E-01         0.00000E+00
    0.27199E-02        -0.39814E-01         0.00000E+00
    0.24786E-02        -0.36583E-01         0.00000E+00
    0.22805E-02        -0.33355E-01         0.00000E+00
    0.21140E-02        -0.30133E-01         0.00000E+00
    0.19732E-02        -0.26918E-01         0.00000E+00
    0.18546E-02        -0.23708E-01         0.00000E+00
    0.17426E-02        -0.20493E-01         0.00000E+00
    0.16203E-02        -0.17257E-01         0.00000E+00
    0.14742E-02        -0.13985E-01         0.00000E+00
    0.12878E-02        -0.10658E-01         0.00000E+00
    0.10339E-02        -0.72458E-02         0.00000E+00
    0.65520E-03        -0.37050E-02         0.00000E+00
    0.00000E+00         0.00000E+00         0.00000E+00
    0.21116E-02        -0.50008E-01         0.00000E+00
    0.17786E-02        -0.46762E-01         0.00000E+00
    0.15713E-02        -0.43474E-01         0.00000E+00
    0.14184E-02        -0.40182E-01         0.00000E+00
    0.12984E-02        -0.36897E-01         0.00000E+00
    0.12001E-02        -0.33622E-01         0.00000E+00
    0.11176E-02        -0.30359E-01         0.00000E+00
    0.10481E-02        -0.27105E-01         0.00000E+00
    0.98874E-03        -0.23858E-01         0.00000E+00
    0.93754E-03        -0.20615E-01         0.00000E+00
    0.88501E-03        -0.17363E-01         0.00000E+00
    0.81587E-03        -0.14084E-01         0.00000E+00
    0.72442E-03        -0.10754E-01         0.00000E+00
    0.59851E-03        -0.73402E-02         0.00000E+00
    0.40111E-03        -0.37898E-02         0.00000E+00
    0.00000E+00         0.00000E+00         0.00000E+00
    0.00000E+00        -0.50266E-01         0.00000E+00
    0.00000E+00        -0.46953E-01         0.00000E+00
    0.00000E+00        -0.43627E-01         0.00000E+00
    0.00000E+00        -0.40309E-01         0.00000E+00
    0.00000E+00        -0.37004E-01         0.00000E+00
    0.00000E+00        -0.33713E-01         0.00000E+00
    0.00000E+00        -0.30435E-01         0.00000E+00
    0.00000E+00        -0.27168E-01         0.00000E+00
    0.00000E+00        -0.23908E-01         0.00000E+00
    0.00000E+00        -0.20652E-01         0.00000E+00
    0.00000E+00        -0.17394E-01         0.00000E+00
    0.00000E+00        -0.14115E-01         0.00000E+00
    0.00000E+00        -0.10785E-01         0.00000E+00
    0.00000E+00        -0.73743E-02         0.00000E+00
    0.00000E+00        -0.38299E-02         0.00000E+00
    0.00000E+00         0.00000E+00         0.00000E+00
CELL_DATA        450
VECTORS vDarcy double 
    0.29560E-09        -0.55355E-10         0.00000E+00
    0.29573E-09        -0.16608E-09         0.00000E+00
    0.29596E-09        -0.27928E-09         0.00000E+00
    0.29629E-09        -0.39535E-09         0.00000E+00
    0.29617E-09        -0.49968E-09         0.00000E+00
    0.29474E-09        -0.50068E-09         0.00000E+00
    0.29260E-09        -0.43386E-09         0.00000E+00
    0.29081E-09        -0.37395E-09         0.00000E+00
    0.28946E-09        -0.31956E-09         0.00000E+00
    0.28849E-09        -0.26907E-09         0.00000E+00
    0.28782E-09        -0.22097E-09         0.00000E+00
    0.28738E-09        -0.17389E-09         0.00000E+00
    0.28712E-09        -0.12657E-09         0.00000E+00
    0.28698E-09        -0.77931E-10         0.00000E+00
    0.28693E-09        -0.26971E-10         0.00000E+00
    0.88686E-09        -0.55482E-10         0.00000E+00
    0.88724E-09        -0.16648E-09         0.00000E+00
    0.88799E-09        -0.27989E-09         0.00000E+00
    0.88904E-09        -0.39614E-09         0.00000E+00
    0.88862E-09        -0.49839E-09         0.00000E+00
    0.88409E-09        -0.49605E-09         0.00000E+00
    0.87755E-09        -0.42986E-09         0.00000E+00
    0.87222E-09        -0.37088E-09         0.00000E+00
    0.86821E-09        -0.31732E-09         0.00000E+00
    0.86533E-09        -0.26750E-09         0.00000E+00
    0.86333E-09        -0.21991E-09         0.00000E+00
    0.86202E-09        -0.17322E-09         0.00000E+00
    0.86122E-09        -0.12621E-09         0.00000E+00
    0.86080E-09        -0.77776E-10         0.00000E+00
    0.86065E-09        -0.26948E-10         0.00000E+00
    0.14784E-08        -0.55724E-10         0.00000E+00
    0.14790E-08        -0.16725E-09         0.00000E+00
    0.14802E-08        -0.28117E-09         0.00000E+00
    0.14822E-08        -0.39790E-09         0.00000E+00
    0.14812E-08        -0.49529E-09         0.00000E+00
    0.14729E-08        -0.48638E-09         0.00000E+00
    0.14617E-08        -0.42191E-09         0.00000E+00
    0.14530E-08        -0.36486E-09         0.00000E+00
    0.14465E-08        -0.31292E-09         0.00000E+00
    0.14418E-08        -0.26438E-09         0.00000E+00
    0.14385E-08        -0.21780E-09         0.00000E+00
    0.14362E-08        -0.17187E-09         0.00000E+00
    0.14349E-08        -0.12545E-09         0.00000E+00
    0.14342E-08        -0.77449E-10         0.00000E+00
    0.14339E-08        -0.26893E-10         0.00000E+00
    0.20706E-08        -0.56066E-10         0.00000E+00
    0.20713E-08        -0.16824E-09         0.00000E+00
    0.20727E-08        -0.28298E-09         0.00000E+00
    0.20754E-08        -0.40083E-09         0.00000E+00
    0.20733E-08        -0.48936E-09         0.00000E+00
    0.20604E-08        -0.47123E-09         0.00000E+00
    0.20447E-08        -0.41025E-09         0.00000E+00
    0.20328E-08        -0.35609E-09         0.00000E+00
    0.20240E-08        -0.30647E-09         0.00000E+00
    0.20175E-08        -0.25976E-09         0.00000E+00
    0.20129E-08        -0.21460E-09         0.00000E+00
    0.20098E-08        -0.16981E-09         0.00000E+00
    0.20078E-08        -0.12426E-09         0.00000E+00
    0.20067E-08        -0.76913E-10         0.00000E+00
    0.20062E-08        -0.26791E-10         0.00000E+00
    0.26638E-08        -0.56521E-10         0.00000E+00
    0.26647E-08        -0.16944E-09         0.00000E+00
    0.26665E-08        -0.28515E-09         0.00000E+00
    0.26691E-08        -0.40411E-09         0.00000E+00
    0.26642E-08        -0.47912E-09         0.00000E+00
    0.26464E-08        -0.45088E-09         0.00000E+00
    0.26265E-08        -0.39512E-09         0.00000E+00
    0.26117E-08        -0.34476E-09         0.00000E+00
    0.26006E-08        -0.29805E-09         0.00000E+00
    0.25923E-08        -0.25362E-09         0.00000E+00
    0.25863E-08        -0.21028E-09         0.00000E+00
    0.25822E-08        -0.16694E-09         0.00000E+00
    0.25795E-08        -0.12255E-09         0.00000E+00
    0.25779E-08        -0.76109E-10         0.00000E+00
    0.25773E-08        -0.26620E-10         0.00000E+00
    0.32579E-08        -0.57138E-10         0.00000E+00
    0.32592E-08        -0.17113E-09         0.00000E+00
    0.32617E-08        -0.28786E-09         0.00000E+00
    0.32636E-08        -0.40606E-09         0.00000E+00
    0.32539E-08        -0.46268E-09         0.00000E+00
    0.32303E-08        -0.42606E-09         0.00000E+00
    0.32067E-08        -0.37675E-09         0.00000E+00
    0.31891E-08        -0.33095E-09         0.00000E+00
    0.31759E-08        -0.28768E-09         0.00000E+00
    0.31658E-08        -0.24592E-09         0.00000E+00
    0.31584E-08        -0.20471E-09         0.00000E+00
    0.31530E-08        -0.16314E-09         0.00000E+00
    0.31494E-08        -0.12022E-09         0.00000E+00
    0.31474E-08        -0.74957E-10         0.00000E+00
    0.31465E-08        -0.26347E-10         0.00000E+00
    0.38525E-08        -0.57936E-10         0.00000E+00
    0.38541E-08        -0.17345E-09         0.00000E+00
    0.38574E-08        -0.29145E-09         0.00000E+00
    0.38563E-08        -0.40342E-09         0.00000E+00
    0.38389E-08        -0.43843E-09         0.00000E+00
    0.38102E-08        -0.39822E-09         0.00000E+00
    0.37846E-08        -0.35567E-09         0.00000E+00
    0.37648E-08        -0.31488E-09         0.00000E+00
    0.37494E-08        -0.27535E-09         0.00000E+00
    0.37375E-08        -0.23652E-09         0.00000E+00
    0.37284E-08        -0.19773E-09         0.00000E+00
    0.37217E-08        -0.15822E-09         0.00000E+00
    0.37170E-08        -0.11709E-09         0.00000E+00
    0.37142E-08        -0.73345E-10         0.00000E+00
    0.37130E-08        -0.25934E-10         0.00000E+00
    0.44470E-08        -0.58908E-10         0.00000E+00
    0.44488E-08        -0.17614E-09         0.00000E+00
    0.44524E-08        -0.29579E-09         0.00000E+00
    0.44467E-08        -0.39244E-09         0.00000E+00
    0.44200E-08        -0.40559E-09         0.00000E+00
    0.43863E-08        -0.36893E-09         0.00000E+00
    0.43595E-08        -0.33274E-09         0.00000E+00
    0.43380E-08        -0.29681E-09         0.00000E+00
    0.43207E-08        -0.26103E-09         0.00000E+00
    0.43068E-08        -0.22524E-09         0.00000E+00
    0.42957E-08        -0.18909E-09         0.00000E+00
    0.42873E-08        -0.15194E-09         0.00000E+00
    0.42814E-08        -0.11296E-09         0.00000E+00
    0.42777E-08        -0.71138E-10         0.00000E+00
    0.42760E-08        -0.25332E-10         0.00000E+00
    0.50408E-08        -0.60124E-10         0.00000E+00
    0.50434E-08        -0.17950E-09         0.00000E+00
    0.50446E-08        -0.29750E-09         0.00000E+00
    0.50295E-08        -0.37002E-09         0.00000E+00
    0.49951E-08        -0.36730E-09         0.00000E+00
    0.49599E-08        -0.33865E-09         0.00000E+00
    0.49318E-08        -0.30832E-09         0.00000E+00
    0.49085E-08        -0.27678E-09         0.00000E+00
    0.48890E-08        -0.24454E-09         0.00000E+00
    0.48728E-08        -0.21180E-09         0.00000E+00
    0.48595E-08        -0.17844E-09         0.00000E+00
    0.48490E-08        -0.14397E-09         0.00000E+00
    0.48414E-08        -0.10757E-09         0.00000E+00
    0.48366E-08        -0.68170E-10         0.00000E+00
    0.48343E-08        -0.24485E-10         0.00000E+00
    0.56328E-08        -0.61489E-10         0.00000E+00
    0.56354E-08        -0.18359E-09         0.00000E+00
    0.56306E-08        -0.29009E-09         0.00000E+00
    0.56044E-08        -0.33627E-09         0.00000E+00
    0.55657E-08        -0.32830E-09         0.00000E+00
    0.55304E-08        -0.30746E-09         0.00000E+00
    0.55009E-08        -0.28224E-09         0.00000E+00
    0.54756E-08        -0.25456E-09         0.00000E+00
    0.54535E-08        -0.22554E-09         0.00000E+00
    0.54345E-08        -0.19578E-09         0.00000E+00
    0.54185E-08        -0.16538E-09         0.00000E+00
    0.54056E-08        -0.13393E-09         0.00000E+00
    0.53960E-08        -0.10062E-09         0.00000E+00
    0.53898E-08        -0.64247E-10         0.00000E+00
    0.53868E-08        -0.23332E-10         0.00000E+00
    0.62209E-08        -0.63307E-10         0.00000E+00
    0.62207E-08        -0.18447E-09         0.00000E+00
    0.62057E-08        -0.26959E-09         0.00000E+00
    0.61710E-08        -0.29622E-09         0.00000E+00
    0.61316E-08        -0.29057E-09         0.00000E+00
    0.60968E-08        -0.27542E-09         0.00000E+00
    0.60659E-08        -0.25423E-09         0.00000E+00
    0.60381E-08        -0.22973E-09         0.00000E+00
    0.60130E-08        -0.20358E-09         0.00000E+00
    0.59908E-08        -0.17671E-09         0.00000E+00
    0.59715E-08        -0.14942E-09         0.00000E+00
    0.59557E-08        -0.12139E-09         0.00000E+00
    0.59437E-08        -0.91760E-10         0.00000E+00
    0.59358E-08        -0.59153E-10         0.00000E+00
    0.59319E-08        -0.21804E-10         0.00000E+00
    0.68011E-08        -0.65083E-10         0.00000E+00
    0.67941E-08        -0.17576E-09         0.00000E+00
    0.67684E-08        -0.23787E-09         0.00000E+00
    0.67305E-08        -0.25568E-09         0.00000E+00
    0.66927E-08        -0.25425E-09         0.00000E+00
    0.66578E-08        -0.24243E-09         0.00000E+00
    0.66251E-08        -0.22396E-09         0.00000E+00
    0.65945E-08        -0.20185E-09         0.00000E+00
    0.65659E-08        -0.17816E-09         0.00000E+00
    0.65399E-08        -0.15410E-09         0.00000E+00
    0.65170E-08        -0.13011E-09         0.00000E+00
    0.64978E-08        -0.10593E-09         0.00000E+00
    0.64830E-08        -0.80628E-10         0.00000E+00
    0.64731E-08        -0.52648E-10         0.00000E+00
    0.64682E-08        -0.19829E-10         0.00000E+00
    0.73675E-08        -0.61729E-10         0.00000E+00
    0.73508E-08        -0.15576E-09         0.00000E+00
    0.73197E-08        -0.20151E-09         0.00000E+00
    0.72832E-08        -0.21790E-09         0.00000E+00
    0.72471E-08        -0.21849E-09         0.00000E+00
    0.72115E-08        -0.20812E-09         0.00000E+00
    0.71767E-08        -0.19105E-09         0.00000E+00
    0.71428E-08        -0.17049E-09         0.00000E+00
    0.71104E-08        -0.14883E-09         0.00000E+00
    0.70802E-08        -0.12751E-09         0.00000E+00
    0.70533E-08        -0.10706E-09         0.00000E+00
    0.70304E-08        -0.87173E-10         0.00000E+00
    0.70125E-08        -0.66875E-10         0.00000E+00
    0.70003E-08        -0.44466E-10         0.00000E+00
    0.69943E-08        -0.17324E-10         0.00000E+00
    0.79104E-08        -0.52615E-10         0.00000E+00
    0.78914E-08        -0.12964E-09         0.00000E+00
    0.78613E-08        -0.16689E-09         0.00000E+00
    0.78275E-08        -0.18255E-09         0.00000E+00
    0.77921E-08        -0.18263E-09         0.00000E+00
    0.77554E-08        -0.17210E-09         0.00000E+00
    0.77180E-08        -0.15515E-09         0.00000E+00
    0.76806E-08        -0.13530E-09         0.00000E+00
    0.76440E-08        -0.11528E-09         0.00000E+00
    0.76095E-08        -0.96739E-10         0.00000E+00
    0.75786E-08        -0.80162E-10         0.00000E+00
    0.75521E-08        -0.65035E-10         0.00000E+00
    0.75311E-08        -0.50266E-10         0.00000E+00
    0.75163E-08        -0.34302E-10         0.00000E+00
    0.75089E-08        -0.14189E-10         0.00000E+00
    0.84367E-08        -0.42322E-10         0.00000E+00
    0.84189E-08        -0.10369E-09         0.00000E+00
    0.83916E-08        -0.13578E-09         0.00000E+00
    0.83597E-08        -0.14837E-09         0.00000E+00
    0.83243E-08        -0.14625E-09         0.00000E+00
    0.82863E-08        -0.13406E-09         0.00000E+00
    0.82462E-08        -0.11604E-09         0.00000E+00
    0.82051E-08        -0.96045E-10         0.00000E+00
    0.81642E-08        -0.77312E-10         0.00000E+00
    0.81255E-08        -0.61808E-10         0.00000E+00
    0.80909E-08        -0.49754E-10         0.00000E+00
    0.80616E-08        -0.40025E-10         0.00000E+00
    0.80382E-08        -0.31055E-10         0.00000E+00
    0.80210E-08        -0.21703E-10         0.00000E+00
    0.80118E-08        -0.10287E-10         0.00000E+00
    0.89456E-08        -0.32792E-10         0.00000E+00
    0.89307E-08        -0.81040E-10         0.00000E+00
    0.89062E-08        -0.10697E-09         0.00000E+00
    0.88754E-08        -0.11484E-09         0.00000E+00
    0.88399E-08        -0.10912E-09         0.00000E+00
    0.88005E-08        -0.93981E-10         0.00000E+00
    0.87578E-08        -0.73680E-10         0.00000E+00
    0.87130E-08        -0.52610E-10         0.00000E+00
    0.86677E-08        -0.34877E-10         0.00000E+00
    0.86251E-08        -0.23100E-10         0.00000E+00
    0.85878E-08        -0.16829E-10         0.00000E+00
    0.85574E-08        -0.13573E-10         0.00000E+00
    0.85340E-08        -0.10964E-10         0.00000E+00
    0.85166E-08        -0.73175E-11         0.00000E+00
    0.85047E-08        -0.37171E-11         0.00000E+00
    0.94352E-08        -0.25104E-10         0.00000E+00
    0.94226E-08        -0.61660E-10         0.00000E+00
    0.94001E-08        -0.79661E-10         0.00000E+00
    0.93702E-08        -0.81716E-10         0.00000E+00
    0.93345E-08        -0.71239E-10         0.00000E+00
    0.92938E-08        -0.51976E-10         0.00000E+00
    0.92488E-08        -0.28198E-10         0.00000E+00
    0.92003E-08        -0.49594E-11         0.00000E+00
    0.91508E-08         0.11989E-10         0.00000E+00
    0.91048E-08         0.18477E-10         0.00000E+00
    0.90666E-08         0.16788E-10         0.00000E+00
    0.90375E-08         0.12048E-10         0.00000E+00
    0.90162E-08         0.79133E-11         0.00000E+00
    0.90011E-08         0.61335E-11         0.00000E+00
    0.89918E-08         0.38385E-11         0.00000E+00
    0.99017E-08        -0.18786E-10         0.00000E+00
    0.98901E-08        -0.44158E-10         0.00000E+00
    0.98687E-08        -0.53512E-10         0.00000E+00
    0.98394E-08        -0.48804E-10         0.00000E+00
    0.98034E-08        -0.32667E-10         0.00000E+00
    0.97617E-08        -0.82329E-11         0.00000E+00
    0.97142E-08         0.20419E-10         0.00000E+00
    0.96619E-08         0.47058E-10         0.00000E+00
    0.96074E-08         0.63870E-10         0.00000E+00
    0.95561E-08         0.63697E-10         0.00000E+00
    0.95151E-08         0.50474E-10         0.00000E+00
    0.94889E-08         0.33427E-10         0.00000E+00
    0.94781E-08         0.18528E-10         0.00000E+00
    0.94802E-08         0.83097E-11         0.00000E+00
    0.94874E-08         0.35269E-11         0.00000E+00
    0.10340E-07        -0.12906E-10         0.00000E+00
    0.10329E-07        -0.27507E-10         0.00000E+00
    0.10308E-07        -0.27904E-10         0.00000E+00
    0.10279E-07        -0.15876E-10         0.00000E+00
    0.10242E-07         0.66178E-11         0.00000E+00
    0.10199E-07         0.37247E-10         0.00000E+00
    0.10149E-07         0.72572E-10         0.00000E+00
    0.10091E-07         0.10547E-09         0.00000E+00
    0.10030E-07         0.12085E-09         0.00000E+00
    0.99806E-08         0.10703E-09         0.00000E+00
    0.99512E-08         0.77361E-10         0.00000E+00
    0.99366E-08         0.47166E-10         0.00000E+00
    0.99315E-08         0.20615E-10         0.00000E+00
    0.99327E-08         0.26540E-11         0.00000E+00
    0.99359E-08        -0.15445E-11         0.00000E+00
    0.10745E-07        -0.70554E-11         0.00000E+00
    0.10734E-07        -0.10922E-10         0.00000E+00
    0.10713E-07        -0.22570E-11         0.00000E+00
    0.10683E-07         0.17347E-10         0.00000E+00
    0.10646E-07         0.46681E-10         0.00000E+00
    0.10602E-07         0.84572E-10         0.00000E+00
    0.10548E-07         0.12932E-09         0.00000E+00
    0.10486E-07         0.16969E-09         0.00000E+00
    0.10429E-07         0.17438E-09         0.00000E+00
    0.10392E-07         0.14000E-09         0.00000E+00
    0.10369E-07         0.96151E-10         0.00000E+00
    0.10356E-07         0.55997E-10         0.00000E+00
    0.10351E-07         0.22354E-10         0.00000E+00
    0.10349E-07         0.92318E-12         0.00000E+00
    0.10349E-07        -0.31525E-11         0.00000E+00
    0.11113E-07        -0.95279E-12         0.00000E+00
    0.11101E-07         0.61042E-11         0.00000E+00
    0.11079E-07         0.23793E-10         0.00000E+00
    0.11050E-07         0.50911E-10         0.00000E+00
    0.11013E-07         0.87239E-10         0.00000E+00
    0.10968E-07         0.13327E-09         0.00000E+00
    0.10913E-07         0.18966E-09         0.00000E+00
    0.10854E-07         0.23106E-09         0.00000E+00
    0.10808E-07         0.21588E-09         0.00000E+00
    0.10779E-07         0.16511E-09         0.00000E+00
    0.10759E-07         0.11286E-09         0.00000E+00
    0.10747E-07         0.65107E-10         0.00000E+00
    0.10739E-07         0.26592E-10         0.00000E+00
    0.10734E-07         0.26208E-11         0.00000E+00
    0.10732E-07        -0.26084E-11         0.00000E+00
    0.11437E-07         0.55642E-11         0.00000E+00
    0.11425E-07         0.23781E-10         0.00000E+00
    0.11403E-07         0.50207E-10         0.00000E+00
    0.11374E-07         0.84318E-10         0.00000E+00
    0.11338E-07         0.12715E-09         0.00000E+00
    0.11295E-07         0.18118E-09         0.00000E+00
    0.11245E-07         0.24776E-09         0.00000E+00
    0.11195E-07         0.28153E-09         0.00000E+00
    0.11160E-07         0.24684E-09         0.00000E+00
    0.11137E-07         0.18686E-09         0.00000E+00
    0.11119E-07         0.12840E-09         0.00000E+00
    0.11105E-07         0.75689E-10         0.00000E+00
    0.11096E-07         0.33532E-10         0.00000E+00
    0.11089E-07         0.66781E-11         0.00000E+00
    0.11086E-07        -0.12652E-11         0.00000E+00
    0.11714E-07         0.12516E-10         0.00000E+00
    0.11701E-07         0.41950E-10         0.00000E+00
    0.11680E-07         0.76406E-10         0.00000E+00
    0.11652E-07         0.11633E-09         0.00000E+00
    0.11619E-07         0.16418E-09         0.00000E+00
    0.11582E-07         0.22440E-09         0.00000E+00
    0.11542E-07         0.29628E-09         0.00000E+00
    0.11505E-07         0.31921E-09         0.00000E+00
    0.11480E-07         0.27044E-09         0.00000E+00
    0.11461E-07         0.20582E-09         0.00000E+00
    0.11445E-07         0.14340E-09         0.00000E+00
    0.11432E-07         0.87182E-10         0.00000E+00
    0.11422E-07         0.41843E-10         0.00000E+00
    0.11415E-07         0.11730E-10         0.00000E+00
    0.11411E-07         0.41843E-12         0.00000E+00
    0.11937E-07         0.19755E-10         0.00000E+00
    0.11925E-07         0.60021E-10         0.00000E+00
    0.11905E-07         0.10120E-09         0.00000E+00
    0.11880E-07         0.14500E-09         0.00000E+00
    0.11854E-07         0.19523E-09         0.00000E+00
    0.11827E-07         0.25803E-09         0.00000E+00
    0.11802E-07         0.32981E-09         0.00000E+00
    0.11780E-07         0.34414E-09         0.00000E+00
    0.11764E-07         0.28805E-09         0.00000E+00
    0.11750E-07         0.22143E-09         0.00000E+00
    0.11737E-07         0.15677E-09         0.00000E+00
    0.11726E-07         0.98134E-10         0.00000E+00
    0.11717E-07         0.50029E-10         0.00000E+00
    0.11711E-07         0.16755E-10         0.00000E+00
    0.11708E-07         0.21061E-11         0.00000E+00
    0.12102E-07         0.26932E-10         0.00000E+00
    0.12092E-07         0.76892E-10         0.00000E+00
    0.12075E-07         0.12273E-09         0.00000E+00
    0.12056E-07         0.16773E-09         0.00000E+00
    0.12039E-07         0.21689E-09         0.00000E+00
    0.12027E-07         0.27723E-09         0.00000E+00
    0.12019E-07         0.34455E-09         0.00000E+00
    0.12016E-07         0.35556E-09         0.00000E+00
    0.12010E-07         0.29891E-09         0.00000E+00
    0.12003E-07         0.23188E-09         0.00000E+00
    0.11996E-07         0.16659E-09         0.00000E+00
    0.11989E-07         0.10674E-09         0.00000E+00
    0.11983E-07         0.56658E-10         0.00000E+00
    0.11979E-07         0.20834E-10         0.00000E+00
    0.11976E-07         0.35063E-11         0.00000E+00
    0.12204E-07         0.33458E-10         0.00000E+00
    0.12196E-07         0.90836E-10         0.00000E+00
    0.12185E-07         0.13836E-09         0.00000E+00
    0.12176E-07         0.18131E-09         0.00000E+00
    0.12172E-07         0.22573E-09         0.00000E+00
    0.12176E-07         0.27844E-09         0.00000E+00
    0.12191E-07         0.33730E-09         0.00000E+00
    0.12208E-07         0.35031E-09         0.00000E+00
    0.12218E-07         0.29997E-09         0.00000E+00
    0.12222E-07         0.23450E-09         0.00000E+00
    0.12223E-07         0.17048E-09         0.00000E+00
    0.12223E-07         0.11100E-09         0.00000E+00
    0.12221E-07         0.60241E-10         0.00000E+00
    0.12220E-07         0.22993E-10         0.00000E+00
    0.12219E-07         0.43095E-11         0.00000E+00
    0.12237E-07         0.38426E-10         0.00000E+00
    0.12234E-07         0.99261E-10         0.00000E+00
    0.12233E-07         0.14435E-09         0.00000E+00
    0.12237E-07         0.18165E-09         0.00000E+00
    0.12250E-07         0.21812E-09         0.00000E+00
    0.12275E-07         0.25943E-09         0.00000E+00
    0.12312E-07         0.30551E-09         0.00000E+00
    0.12356E-07         0.32230E-09         0.00000E+00
    0.12388E-07         0.28605E-09         0.00000E+00
    0.12408E-07         0.22593E-09         0.00000E+00
    0.12421E-07         0.16546E-09         0.00000E+00
    0.12430E-07         0.10858E-09         0.00000E+00
    0.12435E-07         0.59092E-10         0.00000E+00
    0.12438E-07         0.22148E-10         0.00000E+00
    0.12440E-07         0.41809E-11         0.00000E+00
    0.12195E-07         0.40397E-10         0.00000E+00
    0.12200E-07         0.98159E-10         0.00000E+00
    0.12214E-07         0.13536E-09         0.00000E+00
    0.12239E-07         0.16340E-09         0.00000E+00
    0.12275E-07         0.18965E-09         0.00000E+00
    0.12322E-07         0.21819E-09         0.00000E+00
    0.12384E-07         0.24898E-09         0.00000E+00
    0.12455E-07         0.26585E-09         0.00000E+00
    0.12518E-07         0.24731E-09         0.00000E+00
    0.12563E-07         0.20165E-09         0.00000E+00
    0.12592E-07         0.14782E-09         0.00000E+00
    0.12614E-07         0.96649E-10         0.00000E+00
    0.12629E-07         0.51279E-10         0.00000E+00
    0.12638E-07         0.17348E-10         0.00000E+00
    0.12643E-07         0.29315E-11         0.00000E+00
    0.12072E-07         0.36765E-10         0.00000E+00
    0.12091E-07         0.80453E-10         0.00000E+00
    0.12129E-07         0.10390E-09         0.00000E+00
    0.12182E-07         0.12018E-09         0.00000E+00
    0.12246E-07         0.13524E-09         0.00000E+00
    0.12322E-07         0.15157E-09         0.00000E+00
    0.12409E-07         0.16837E-09         0.00000E+00
    0.12507E-07         0.17940E-09         0.00000E+00
    0.12603E-07         0.17450E-09         0.00000E+00
    0.12685E-07         0.14963E-09         0.00000E+00
    0.12743E-07         0.11287E-09         0.00000E+00
    0.12782E-07         0.71783E-10         0.00000E+00
    0.12809E-07         0.34843E-10         0.00000E+00
    0.12825E-07         0.89104E-11         0.00000E+00
    0.12830E-07         0.14564E-11         0.00000E+00
    0.11854E-07         0.16559E-10         0.00000E+00
    0.11906E-07         0.33145E-10         0.00000E+00
    0.11981E-07         0.40737E-10         0.00000E+00
    0.12069E-07         0.45734E-10         0.00000E+00
    0.12167E-07         0.50445E-10         0.00000E+00
    0.12274E-07         0.55711E-10         0.00000E+00
    0.12391E-07         0.61003E-10         0.00000E+00
    0.12518E-07         0.64398E-10         0.00000E+00
    0.12647E-07         0.64466E-10         0.00000E+00
    0.12769E-07         0.57171E-10         0.00000E+00
    0.12872E-07         0.45201E-10         0.00000E+00
    0.12945E-07         0.27827E-10         0.00000E+00
    0.12985E-07         0.12117E-10         0.00000E+00
    0.13000E-07         0.19798E-11         0.00000E+00
    0.13003E-07         0.44556E-12         0.00000E+00
POINT_DATA        496
VECTORS vDarcyNodal double 
    0.29557E-09        -0.55323E-10         0.00000E+00
    0.29563E-09        -0.11065E-09         0.00000E+00
    0.29583E-09        -0.22255E-09         0.00000E+00
    0.29610E-09        -0.33715E-09         0.00000E+00
    0.29648E-09        -0.44757E-09         0.00000E+00
    0.29587E-09        -0.50090E-09         0.00000E+00
    0.29360E-09        -0.46833E-09         0.00000E+00
    0.29160E-09        -0.40479E-09         0.00000E+00
    0.29003E-09        -0.34743E-09         0.00000E+00
    0.28889E-09        -0.29480E-09         0.00000E+00
    0.28809E-09        -0.24535E-09         0.00000E+00
    0.28755E-09        -0.19764E-09         0.00000E+00
    0.28721E-09        -0.15036E-09         0.00000E+00
    0.28702E-09        -0.10232E-09         0.00000E+00
    0.28694E-09        -0.52473E-10         0.00000E+00
    0.28693E-09        -0.26977E-10         0.00000E+00
    0.59117E-09        -0.55387E-10         0.00000E+00
    0.59128E-09        -0.11078E-09         0.00000E+00
    0.59168E-09        -0.22280E-09         0.00000E+00
    0.59227E-09        -0.33748E-09         0.00000E+00
    0.59305E-09        -0.44746E-09         0.00000E+00
    0.59174E-09        -0.49947E-09         0.00000E+00
    0.58708E-09        -0.46621E-09         0.00000E+00
    0.58306E-09        -0.40302E-09         0.00000E+00
    0.57997E-09        -0.34609E-09         0.00000E+00
    0.57771E-09        -0.29383E-09         0.00000E+00
    0.57612E-09        -0.24469E-09         0.00000E+00
    0.57504E-09        -0.19721E-09         0.00000E+00
    0.57436E-09        -0.15010E-09         0.00000E+00
    0.57398E-09        -0.10219E-09         0.00000E+00
    0.57381E-09        -0.52430E-10         0.00000E+00
    0.57378E-09        -0.26966E-10         0.00000E+00
    0.11825E-08        -0.55577E-10         0.00000E+00
    0.11827E-08        -0.11118E-09         0.00000E+00
    0.11835E-08        -0.22357E-09         0.00000E+00
    0.11847E-08        -0.33854E-09         0.00000E+00
    0.11865E-08        -0.44706E-09         0.00000E+00
    0.11833E-08        -0.49496E-09         0.00000E+00
    0.11736E-08        -0.45970E-09         0.00000E+00
    0.11656E-08        -0.39772E-09         0.00000E+00
    0.11596E-08        -0.34211E-09         0.00000E+00
    0.11551E-08        -0.29098E-09         0.00000E+00
    0.11520E-08        -0.24272E-09         0.00000E+00
    0.11498E-08        -0.19592E-09         0.00000E+00
    0.11484E-08        -0.14932E-09         0.00000E+00
    0.11477E-08        -0.10179E-09         0.00000E+00
    0.11473E-08        -0.52294E-10         0.00000E+00
    0.11472E-08        -0.26929E-10         0.00000E+00
    0.17743E-08        -0.55871E-10         0.00000E+00
    0.17746E-08        -0.11180E-09         0.00000E+00
    0.17756E-08        -0.22485E-09         0.00000E+00
    0.17773E-08        -0.34053E-09         0.00000E+00
    0.17802E-08        -0.44613E-09         0.00000E+00
    0.17743E-08        -0.48670E-09         0.00000E+00
    0.17591E-08        -0.44858E-09         0.00000E+00
    0.17473E-08        -0.38904E-09         0.00000E+00
    0.17385E-08        -0.33566E-09         0.00000E+00
    0.17320E-08        -0.28632E-09         0.00000E+00
    0.17273E-08        -0.23946E-09         0.00000E+00
    0.17241E-08        -0.19375E-09         0.00000E+00
    0.17219E-08        -0.14800E-09         0.00000E+00
    0.17207E-08        -0.10110E-09         0.00000E+00
    0.17201E-08        -0.52047E-10         0.00000E+00
    0.17200E-08        -0.26856E-10         0.00000E+00
    0.23670E-08        -0.56260E-10         0.00000E+00
    0.23674E-08        -0.11251E-09         0.00000E+00
    0.23685E-08        -0.22636E-09         0.00000E+00
    0.23707E-08        -0.34327E-09         0.00000E+00
    0.23739E-08        -0.44405E-09         0.00000E+00
    0.23636E-08        -0.47389E-09         0.00000E+00
    0.23432E-08        -0.43289E-09         0.00000E+00
    0.23280E-08        -0.37730E-09         0.00000E+00
    0.23165E-08        -0.32690E-09         0.00000E+00
    0.23080E-08        -0.27991E-09         0.00000E+00
    0.23018E-08        -0.23490E-09         0.00000E+00
    0.22974E-08        -0.19066E-09         0.00000E+00
    0.22945E-08        -0.14606E-09         0.00000E+00
    0.22927E-08        -0.10007E-09         0.00000E+00
    0.22919E-08        -0.51656E-10         0.00000E+00
    0.22917E-08        -0.26726E-10         0.00000E+00
    0.29606E-08        -0.56781E-10         0.00000E+00
    0.29611E-08        -0.11345E-09         0.00000E+00
    0.29628E-08        -0.22822E-09         0.00000E+00
    0.29654E-08        -0.34598E-09         0.00000E+00
    0.29673E-08        -0.43918E-09         0.00000E+00
    0.29508E-08        -0.45612E-09         0.00000E+00
    0.29258E-08        -0.41311E-09         0.00000E+00
    0.29074E-08        -0.36258E-09         0.00000E+00
    0.28934E-08        -0.31591E-09         0.00000E+00
    0.28830E-08        -0.27176E-09         0.00000E+00
    0.28752E-08        -0.22900E-09         0.00000E+00
    0.28695E-08        -0.18656E-09         0.00000E+00
    0.28657E-08        -0.14342E-09         0.00000E+00
    0.28633E-08        -0.98595E-10         0.00000E+00
    0.28620E-08        -0.51073E-10         0.00000E+00
    0.28617E-08        -0.26513E-10         0.00000E+00
    0.35548E-08        -0.57496E-10         0.00000E+00
    0.35555E-08        -0.11482E-09         0.00000E+00
    0.35578E-08        -0.23077E-09         0.00000E+00
    0.35613E-08        -0.34794E-09         0.00000E+00
    0.35586E-08        -0.42957E-09         0.00000E+00
    0.35342E-08        -0.43262E-09         0.00000E+00
    0.35062E-08        -0.38969E-09         0.00000E+00
    0.34850E-08        -0.34511E-09         0.00000E+00
    0.34689E-08        -0.30272E-09         0.00000E+00
    0.34564E-08        -0.26183E-09         0.00000E+00
    0.34469E-08        -0.22163E-09         0.00000E+00
    0.34399E-08        -0.18129E-09         0.00000E+00
    0.34348E-08        -0.13993E-09         0.00000E+00
    0.34316E-08        -0.96577E-10         0.00000E+00
    0.34300E-08        -0.50231E-10         0.00000E+00
    0.34295E-08        -0.26181E-10         0.00000E+00
    0.41492E-08        -0.58376E-10         0.00000E+00
    0.41502E-08        -0.11656E-09         0.00000E+00
    0.41528E-08        -0.23413E-09         0.00000E+00
    0.41570E-08        -0.34693E-09         0.00000E+00
    0.41459E-08        -0.41228E-09         0.00000E+00
    0.41130E-08        -0.40402E-09         0.00000E+00
    0.40835E-08        -0.36420E-09         0.00000E+00
    0.40605E-08        -0.32544E-09         0.00000E+00
    0.40423E-08        -0.28751E-09         0.00000E+00
    0.40278E-08        -0.25004E-09         0.00000E+00
    0.40164E-08        -0.21262E-09         0.00000E+00
    0.40077E-08        -0.17466E-09         0.00000E+00
    0.40013E-08        -0.13538E-09         0.00000E+00
    0.39971E-08        -0.93856E-10         0.00000E+00
    0.39948E-08        -0.49048E-10         0.00000E+00
    0.39942E-08        -0.25686E-10         0.00000E+00
    0.47433E-08        -0.59440E-10         0.00000E+00
    0.47445E-08        -0.11849E-09         0.00000E+00
    0.47477E-08        -0.23780E-09         0.00000E+00
    0.47493E-08        -0.34130E-09         0.00000E+00
    0.47268E-08        -0.38576E-09         0.00000E+00
    0.46883E-08        -0.37050E-09         0.00000E+00
    0.46579E-08        -0.33747E-09         0.00000E+00
    0.46333E-08        -0.30411E-09         0.00000E+00
    0.46132E-08        -0.27033E-09         0.00000E+00
    0.45965E-08        -0.23623E-09         0.00000E+00
    0.45830E-08        -0.20171E-09         0.00000E+00
    0.45722E-08        -0.16636E-09         0.00000E+00
    0.45642E-08        -0.12952E-09         0.00000E+00
    0.45587E-08        -0.90241E-10         0.00000E+00
    0.45556E-08        -0.47422E-10         0.00000E+00
    0.45547E-08        -0.24977E-10         0.00000E+00
    0.53361E-08        -0.60809E-10         0.00000E+00
    0.53374E-08        -0.12114E-09         0.00000E+00
    0.53414E-08        -0.23920E-09         0.00000E+00
    0.53338E-08        -0.32622E-09         0.00000E+00
    0.53000E-08        -0.35156E-09         0.00000E+00
    0.52608E-08        -0.33544E-09         0.00000E+00
    0.52295E-08        -0.30950E-09         0.00000E+00
    0.52032E-08        -0.28099E-09         0.00000E+00
    0.51809E-08        -0.25099E-09         0.00000E+00
    0.51617E-08        -0.22011E-09         0.00000E+00
    0.51456E-08        -0.18853E-09         0.00000E+00
    0.51324E-08        -0.15604E-09         0.00000E+00
    0.51223E-08        -0.12202E-09         0.00000E+00
    0.51152E-08        -0.85500E-10         0.00000E+00
    0.51112E-08        -0.45233E-10         0.00000E+00
    0.51100E-08        -0.23993E-10         0.00000E+00
    0.59259E-08        -0.62169E-10         0.00000E+00
    0.59277E-08        -0.12394E-09         0.00000E+00
    0.59284E-08        -0.23448E-09         0.00000E+00
    0.59078E-08        -0.30014E-09         0.00000E+00
    0.58676E-08        -0.31301E-09         0.00000E+00
    0.58297E-08        -0.30032E-09         0.00000E+00
    0.57975E-08        -0.28020E-09         0.00000E+00
    0.57693E-08        -0.25580E-09         0.00000E+00
    0.57443E-08        -0.22911E-09         0.00000E+00
    0.57222E-08        -0.20122E-09         0.00000E+00
    0.57030E-08        -0.17263E-09         0.00000E+00
    0.56870E-08        -0.14326E-09         0.00000E+00
    0.56743E-08        -0.11253E-09         0.00000E+00
    0.56654E-08        -0.79367E-10         0.00000E+00
    0.56602E-08        -0.42346E-10         0.00000E+00
    0.56586E-08        -0.22671E-10         0.00000E+00
    0.65101E-08        -0.64445E-10         0.00000E+00
    0.65118E-08        -0.12384E-09         0.00000E+00
    0.65030E-08        -0.21958E-09         0.00000E+00
    0.64711E-08        -0.26567E-09         0.00000E+00
    0.64304E-08        -0.27378E-09         0.00000E+00
    0.63939E-08        -0.26568E-09         0.00000E+00
    0.63607E-08        -0.24946E-09         0.00000E+00
    0.63303E-08        -0.22816E-09         0.00000E+00
    0.63023E-08        -0.20420E-09         0.00000E+00
    0.62767E-08        -0.17907E-09         0.00000E+00
    0.62540E-08        -0.15351E-09         0.00000E+00
    0.62345E-08        -0.12755E-09         0.00000E+00
    0.62190E-08        -0.10063E-09         0.00000E+00
    0.62077E-08        -0.71547E-10         0.00000E+00
    0.62011E-08        -0.38611E-10         0.00000E+00
    0.61991E-08        -0.20938E-10         0.00000E+00
    0.70860E-08        -0.65720E-10         0.00000E+00
    0.70825E-08        -0.11700E-09         0.00000E+00
    0.70624E-08        -0.19405E-09         0.00000E+00
    0.70258E-08        -0.22788E-09         0.00000E+00
    0.69878E-08        -0.23616E-09         0.00000E+00
    0.69519E-08        -0.23100E-09         0.00000E+00
    0.69175E-08        -0.21693E-09         0.00000E+00
    0.68844E-08        -0.19765E-09         0.00000E+00
    0.68529E-08        -0.17581E-09         0.00000E+00
    0.68234E-08        -0.15318E-09         0.00000E+00
    0.67967E-08        -0.13070E-09         0.00000E+00
    0.67735E-08        -0.10848E-09         0.00000E+00
    0.67547E-08        -0.85927E-10         0.00000E+00
    0.67408E-08        -0.61729E-10         0.00000E+00
    0.67325E-08        -0.33865E-10         0.00000E+00
    0.67300E-08        -0.18719E-10         0.00000E+00
    0.76435E-08        -0.57738E-10         0.00000E+00
    0.76343E-08        -0.10049E-09         0.00000E+00
    0.76079E-08        -0.16322E-09         0.00000E+00
    0.75731E-08        -0.19152E-09         0.00000E+00
    0.75376E-08        -0.20024E-09         0.00000E+00
    0.75016E-08        -0.19562E-09         0.00000E+00
    0.74654E-08        -0.18224E-09         0.00000E+00
    0.74293E-08        -0.16389E-09         0.00000E+00
    0.73940E-08        -0.14352E-09         0.00000E+00
    0.73603E-08        -0.12317E-09         0.00000E+00
    0.73294E-08        -0.10388E-09         0.00000E+00
    0.73024E-08        -0.85753E-10         0.00000E+00
    0.72802E-08        -0.68121E-10         0.00000E+00
    0.72634E-08        -0.49612E-10         0.00000E+00
    0.72532E-08        -0.27925E-10         0.00000E+00
    0.72500E-08        -0.15929E-10         0.00000E+00
    0.81787E-08        -0.47493E-10         0.00000E+00
    0.81683E-08        -0.81770E-10         0.00000E+00
    0.81421E-08        -0.13331E-09         0.00000E+00
    0.81108E-08        -0.15792E-09         0.00000E+00
    0.80765E-08        -0.16494E-09         0.00000E+00
    0.80399E-08        -0.15911E-09         0.00000E+00
    0.80018E-08        -0.14501E-09         0.00000E+00
    0.79625E-08        -0.12656E-09         0.00000E+00
    0.79231E-08        -0.10706E-09         0.00000E+00
    0.78850E-08        -0.88851E-10         0.00000E+00
    0.78500E-08        -0.73023E-10         0.00000E+00
    0.78195E-08        -0.59445E-10         0.00000E+00
    0.77943E-08        -0.47181E-10         0.00000E+00
    0.77750E-08        -0.34956E-10         0.00000E+00
    0.77623E-08        -0.20566E-10         0.00000E+00
    0.77584E-08        -0.12448E-10         0.00000E+00
    0.86959E-08        -0.37152E-10         0.00000E+00
    0.86863E-08        -0.64246E-10         0.00000E+00
    0.86634E-08        -0.10616E-09         0.00000E+00
    0.86344E-08        -0.12623E-09         0.00000E+00
    0.86007E-08        -0.12968E-09         0.00000E+00
    0.85635E-08        -0.12121E-09         0.00000E+00
    0.85233E-08        -0.10510E-09         0.00000E+00
    0.84808E-08        -0.85522E-10         0.00000E+00
    0.84372E-08        -0.66295E-10         0.00000E+00
    0.83947E-08        -0.50271E-10         0.00000E+00
    0.83559E-08        -0.38540E-10         0.00000E+00
    0.83228E-08        -0.30334E-10         0.00000E+00
    0.82962E-08        -0.23900E-10         0.00000E+00
    0.82760E-08        -0.17803E-10         0.00000E+00
    0.82616E-08        -0.11425E-10         0.00000E+00
    0.82550E-08        -0.81261E-11         0.00000E+00
    0.91943E-08        -0.28433E-10         0.00000E+00
    0.91865E-08        -0.49587E-10         0.00000E+00
    0.91669E-08        -0.81846E-10         0.00000E+00
    0.91394E-08        -0.95580E-10         0.00000E+00
    0.91062E-08        -0.94284E-10         0.00000E+00
    0.90682E-08        -0.81898E-10         0.00000E+00
    0.90261E-08        -0.62566E-10         0.00000E+00
    0.89805E-08        -0.40770E-10         0.00000E+00
    0.89328E-08        -0.21194E-10         0.00000E+00
    0.88858E-08        -0.77083E-11         0.00000E+00
    0.88441E-08        -0.13914E-11         0.00000E+00
    0.88103E-08        -0.70036E-13         0.00000E+00
    0.87846E-08        -0.63894E-12         0.00000E+00
    0.87656E-08        -0.47989E-12         0.00000E+00
    0.87521E-08         0.38951E-12         0.00000E+00
    0.87445E-08         0.69141E-12         0.00000E+00
    0.96716E-08        -0.21775E-10         0.00000E+00
    0.96652E-08        -0.37178E-10         0.00000E+00
    0.96475E-08        -0.59477E-10         0.00000E+00
    0.96213E-08        -0.65800E-10         0.00000E+00
    0.95883E-08        -0.58673E-10         0.00000E+00
    0.95496E-08        -0.41319E-10         0.00000E+00
    0.95058E-08        -0.17611E-10         0.00000E+00
    0.94572E-08         0.76101E-11         0.00000E+00
    0.94051E-08         0.28221E-10         0.00000E+00
    0.93531E-08         0.38172E-10         0.00000E+00
    0.93078E-08         0.36655E-10         0.00000E+00
    0.92740E-08         0.28905E-10         0.00000E+00
    0.92525E-08         0.20599E-10         0.00000E+00
    0.92418E-08         0.14526E-10         0.00000E+00
    0.92395E-08         0.95820E-11         0.00000E+00
    0.92397E-08         0.69853E-11         0.00000E+00
    0.10124E-07        -0.15796E-10         0.00000E+00
    0.10118E-07        -0.25767E-10         0.00000E+00
    0.10101E-07        -0.38195E-10         0.00000E+00
    0.10075E-07        -0.36519E-10         0.00000E+00
    0.10042E-07        -0.22800E-10         0.00000E+00
    0.10003E-07         0.41727E-12         0.00000E+00
    0.99577E-08         0.29793E-10         0.00000E+00
    0.99055E-08         0.59864E-10         0.00000E+00
    0.98471E-08         0.82703E-10         0.00000E+00
    0.97901E-08         0.89392E-10         0.00000E+00
    0.97466E-08         0.77514E-10         0.00000E+00
    0.97197E-08         0.54994E-10         0.00000E+00
    0.97059E-08         0.31355E-10         0.00000E+00
    0.97037E-08         0.12312E-10         0.00000E+00
    0.97092E-08         0.22550E-11         0.00000E+00
    0.97142E-08         0.68826E-13         0.00000E+00
    0.10546E-07        -0.10016E-10         0.00000E+00
    0.10540E-07        -0.14647E-10         0.00000E+00
    0.10523E-07        -0.17218E-10         0.00000E+00
    0.10497E-07        -0.72632E-11         0.00000E+00
    0.10464E-07         0.13539E-10         0.00000E+00
    0.10424E-07         0.43444E-10         0.00000E+00
    0.10377E-07         0.80022E-10         0.00000E+00
    0.10320E-07         0.11818E-09         0.00000E+00
    0.10256E-07         0.14361E-09         0.00000E+00
    0.10203E-07         0.13849E-09         0.00000E+00
    0.10170E-07         0.10688E-09         0.00000E+00
    0.10151E-07         0.69532E-10         0.00000E+00
    0.10142E-07         0.36426E-10         0.00000E+00
    0.10140E-07         0.10957E-10         0.00000E+00
    0.10142E-07        -0.11452E-11         0.00000E+00
    0.10143E-07        -0.31576E-11         0.00000E+00
    0.10932E-07        -0.40957E-11         0.00000E+00
    0.10926E-07        -0.33311E-11         0.00000E+00
    0.10909E-07         0.40370E-11         0.00000E+00
    0.10883E-07         0.22351E-10         0.00000E+00
    0.10850E-07         0.50486E-10         0.00000E+00
    0.10809E-07         0.87806E-10         0.00000E+00
    0.10761E-07         0.13386E-09         0.00000E+00
    0.10701E-07         0.18083E-09         0.00000E+00
    0.10639E-07         0.20046E-09         0.00000E+00
    0.10598E-07         0.17589E-09         0.00000E+00
    0.10573E-07         0.12927E-09         0.00000E+00
    0.10556E-07         0.82615E-10         0.00000E+00
    0.10547E-07         0.41925E-10         0.00000E+00
    0.10542E-07         0.12320E-10         0.00000E+00
    0.10541E-07        -0.10841E-11         0.00000E+00
    0.10540E-07        -0.31474E-11         0.00000E+00
    0.11278E-07         0.21895E-11         0.00000E+00
    0.11272E-07         0.84814E-11         0.00000E+00
    0.11254E-07         0.25858E-10         0.00000E+00
    0.11228E-07         0.52351E-10         0.00000E+00
    0.11195E-07         0.87660E-10         0.00000E+00
    0.11155E-07         0.13270E-09         0.00000E+00
    0.11108E-07         0.18907E-09         0.00000E+00
    0.11050E-07         0.23989E-09         0.00000E+00
    0.10999E-07         0.24648E-09         0.00000E+00
    0.10969E-07         0.20509E-09         0.00000E+00
    0.10947E-07         0.14870E-09         0.00000E+00
    0.10931E-07         0.95351E-10         0.00000E+00
    0.10921E-07         0.49774E-10         0.00000E+00
    0.10914E-07         0.16892E-10         0.00000E+00
    0.10910E-07         0.10964E-11         0.00000E+00
    0.10908E-07        -0.20693E-11         0.00000E+00
    0.11579E-07         0.89382E-11         0.00000E+00
    0.11572E-07         0.20862E-10         0.00000E+00
    0.11554E-07         0.48127E-10         0.00000E+00
    0.11528E-07         0.82172E-10         0.00000E+00
    0.11497E-07         0.12380E-09         0.00000E+00
    0.11460E-07         0.17563E-09         0.00000E+00
    0.11417E-07         0.23988E-09         0.00000E+00
    0.11369E-07         0.28940E-09         0.00000E+00
    0.11332E-07         0.28189E-09         0.00000E+00
    0.11308E-07         0.22861E-09         0.00000E+00
    0.11289E-07         0.16656E-09         0.00000E+00
    0.11274E-07         0.10873E-09         0.00000E+00
    0.11263E-07         0.59447E-10         0.00000E+00
    0.11255E-07         0.23317E-10         0.00000E+00
    0.11249E-07         0.43163E-11         0.00000E+00
    0.11248E-07        -0.46121E-12         0.00000E+00
    0.11829E-07         0.16094E-10         0.00000E+00
    0.11822E-07         0.33603E-10         0.00000E+00
    0.11804E-07         0.70227E-10         0.00000E+00
    0.11780E-07         0.11056E-09         0.00000E+00
    0.11752E-07         0.15670E-09         0.00000E+00
    0.11721E-07         0.21295E-09         0.00000E+00
    0.11688E-07         0.28080E-09         0.00000E+00
    0.11655E-07         0.32609E-09         0.00000E+00
    0.11631E-07         0.30776E-09         0.00000E+00
    0.11613E-07         0.24765E-09         0.00000E+00
    0.11598E-07         0.18266E-09         0.00000E+00
    0.11584E-07         0.12185E-09         0.00000E+00
    0.11574E-07         0.69578E-10         0.00000E+00
    0.11565E-07         0.30256E-10         0.00000E+00
    0.11560E-07         0.78321E-11         0.00000E+00
    0.11558E-07         0.12980E-11         0.00000E+00
    0.12023E-07         0.23415E-10         0.00000E+00
    0.12016E-07         0.46171E-10         0.00000E+00
    0.12000E-07         0.90990E-10         0.00000E+00
    0.11979E-07         0.13563E-09         0.00000E+00
    0.11957E-07         0.18352E-09         0.00000E+00
    0.11936E-07         0.24031E-09         0.00000E+00
    0.11918E-07         0.30704E-09         0.00000E+00
    0.11903E-07         0.34785E-09         0.00000E+00
    0.11892E-07         0.32443E-09         0.00000E+00
    0.11882E-07         0.26183E-09         0.00000E+00
    0.11872E-07         0.19553E-09         0.00000E+00
    0.11862E-07         0.13305E-09         0.00000E+00
    0.11853E-07         0.78585E-10         0.00000E+00
    0.11847E-07         0.36528E-10         0.00000E+00
    0.11843E-07         0.11029E-10         0.00000E+00
    0.11841E-07         0.29141E-11         0.00000E+00
    0.12156E-07         0.30447E-10         0.00000E+00
    0.12150E-07         0.57651E-10         0.00000E+00
    0.12137E-07         0.10863E-09         0.00000E+00
    0.12123E-07         0.15483E-09         0.00000E+00
    0.12110E-07         0.20110E-09         0.00000E+00
    0.12102E-07         0.25381E-09         0.00000E+00
    0.12101E-07         0.31475E-09         0.00000E+00
    0.12109E-07         0.35226E-09         0.00000E+00
    0.12115E-07         0.33004E-09         0.00000E+00
    0.12114E-07         0.26896E-09         0.00000E+00
    0.12112E-07         0.20295E-09         0.00000E+00
    0.12108E-07         0.14029E-09         0.00000E+00
    0.12104E-07         0.84815E-10         0.00000E+00
    0.12100E-07         0.40964E-10         0.00000E+00
    0.12098E-07         0.13311E-10         0.00000E+00
    0.12097E-07         0.40985E-11         0.00000E+00
    0.12223E-07         0.36467E-10         0.00000E+00
    0.12219E-07         0.66642E-10         0.00000E+00
    0.12211E-07         0.12056E-09         0.00000E+00
    0.12206E-07         0.16484E-09         0.00000E+00
    0.12207E-07         0.20595E-09         0.00000E+00
    0.12215E-07         0.25036E-09         0.00000E+00
    0.12235E-07         0.30100E-09         0.00000E+00
    0.12268E-07         0.33535E-09         0.00000E+00
    0.12296E-07         0.32023E-09         0.00000E+00
    0.12311E-07         0.26551E-09         0.00000E+00
    0.12320E-07         0.20204E-09         0.00000E+00
    0.12325E-07         0.14119E-09         0.00000E+00
    0.12327E-07         0.86427E-10         0.00000E+00
    0.12329E-07         0.42270E-10         0.00000E+00
    0.12330E-07         0.13991E-10         0.00000E+00
    0.12330E-07         0.45204E-11         0.00000E+00
    0.12217E-07         0.40384E-10         0.00000E+00
    0.12216E-07         0.71045E-10         0.00000E+00
    0.12218E-07         0.12304E-09         0.00000E+00
    0.12229E-07         0.16115E-09         0.00000E+00
    0.12248E-07         0.19382E-09         0.00000E+00
    0.12277E-07         0.22719E-09         0.00000E+00
    0.12319E-07         0.26395E-09         0.00000E+00
    0.12377E-07         0.29247E-09         0.00000E+00
    0.12434E-07         0.28813E-09         0.00000E+00
    0.12473E-07         0.24647E-09         0.00000E+00
    0.12498E-07         0.18935E-09         0.00000E+00
    0.12516E-07         0.13285E-09         0.00000E+00
    0.12528E-07         0.81249E-10         0.00000E+00
    0.12536E-07         0.38971E-10         0.00000E+00
    0.12541E-07         0.12338E-10         0.00000E+00
    0.12542E-07         0.38415E-11         0.00000E+00
    0.12132E-07         0.40410E-10         0.00000E+00
    0.12136E-07         0.67513E-10         0.00000E+00
    0.12155E-07         0.11047E-09         0.00000E+00
    0.12188E-07         0.13761E-09         0.00000E+00
    0.12233E-07         0.15924E-09         0.00000E+00
    0.12288E-07         0.18065E-09         0.00000E+00
    0.12356E-07         0.20322E-09         0.00000E+00
    0.12437E-07         0.22237E-09         0.00000E+00
    0.12524E-07         0.22503E-09         0.00000E+00
    0.12598E-07         0.20249E-09         0.00000E+00
    0.12650E-07         0.16013E-09         0.00000E+00
    0.12685E-07         0.11163E-09         0.00000E+00
    0.12711E-07         0.66681E-10         0.00000E+00
    0.12727E-07         0.29656E-10         0.00000E+00
    0.12736E-07         0.79416E-11         0.00000E+00
    0.12737E-07         0.20217E-11         0.00000E+00
    0.11952E-07         0.33121E-10         0.00000E+00
    0.11974E-07         0.49708E-10         0.00000E+00
    0.12023E-07         0.73887E-10         0.00000E+00
    0.12088E-07         0.86476E-10         0.00000E+00
    0.12163E-07         0.96185E-10         0.00000E+00
    0.12249E-07         0.10616E-09         0.00000E+00
    0.12346E-07         0.11672E-09         0.00000E+00
    0.12454E-07         0.12541E-09         0.00000E+00
    0.12570E-07         0.12887E-09         0.00000E+00
    0.12681E-07         0.12164E-09         0.00000E+00
    0.12773E-07         0.10238E-09         0.00000E+00
    0.12841E-07         0.73033E-10         0.00000E+00
    0.12886E-07         0.39947E-10         0.00000E+00
    0.12909E-07         0.14098E-10         0.00000E+00
    0.12916E-07         0.24255E-11         0.00000E+00
    0.12917E-07         0.89116E-12         0.00000E+00
    0.11837E-07         0.00000E+00         0.00000E+00
    0.11871E-07         0.00000E+00         0.00000E+00
    0.11940E-07        -0.33130E-22         0.00000E+00
    0.12023E-07         0.40103E-26         0.00000E+00
    0.12116E-07         0.37276E-22         0.00000E+00
    0.12218E-07         0.00000E+00         0.00000E+00
    0.12330E-07         0.00000E+00         0.00000E+00
    0.12453E-07        -0.33144E-22         0.00000E+00
    0.12582E-07        -0.33144E-22         0.00000E+00
    0.12712E-07         0.37291E-22         0.00000E+00
    0.12827E-07         0.41434E-22         0.00000E+00
    0.12917E-07        -0.41436E-22         0.00000E+00
    0.12973E-07        -0.41429E-23         0.00000E+00
    0.12998E-07         0.41437E-22         0.00000E+00
    0.13002E-07         0.82876E-23         0.00000E+00
    0.13003E-07         0.00000E+00         0.00000E+00
CELL_DATA        450
TENSORS stressef double 
    0.44942E+07         0.57576E+04         0.00000E+00
    0.57576E+04        -0.17088E+08         0.00000E+00
    0.00000E+00         0.00000E+00        -0.34282E+07
 
    0.44717E+07         0.16333E+05         0.00000E+00
    0.16333E+05        -0.17081E+08         0.00000E+00
    0.00000E+00         0.00000E+00        -0.33370E+07
 
    0.44370E+07         0.26192E+05         0.00000E+00
    0.26192E+05        -0.17070E+08         0.00000E+00
    0.00000E+00         0.00000E+00        -0.32021E+07
 
    0.43824E+07         0.35183E+05         0.00000E+00
    0.35183E+05        -0.17057E+08         0.00000E+00
    0.00000E+00         0.00000E+00        -0.30109E+07
 
    0.42990E+07         0.42696E+05         0.00000E+00
    0.42696E+05        -0.17043E+08         0.00000E+00
    0.00000E+00         0.00000E+00        -0.27512E+07
 
    0.38179E+07         0.42067E+05         0.00000E+00
    0.42067E+05        -0.17032E+08         0.00000E+00
    0.00000E+00         0.00000E+00        -0.26427E+07
 
    0.27844E+07         0.37554E+05         0.00000E+00
    0.37554E+05        -0.17018E+08         0.00000E+00
    0.00000E+00         0.00000E+00        -0.28468E+07
 
    0.18364E+07         0.38186E+05         0.00000E+00
    0.38186E+05        -0.17000E+08         0.00000E+00
    0.00000E+00         0.00000E+00        -0.30327E+07
 
    0.95738E+06         0.43797E+05         0.00000E+00
    0.43797E+05        -0.16967E+08         0.00000E+00
    0.00000E+00         0.00000E+00        -0.32020E+07
 
    0.13192E+06         0.53779E+05         0.00000E+00
    0.53779E+05        -0.16912E+08         0.00000E+00
    0.00000E+00         0.00000E+00        -0.33559E+07
 
   -0.65372E+06         0.67479E+05         0.00000E+00
    0.67479E+05        -0.16825E+08         0.00000E+00
    0.00000E+00         0.00000E+00        -0.34958E+07
 
   -0.14114E+07         0.84359E+05         0.00000E+00
    0.84359E+05        -0.16701E+08         0.00000E+00
    0.00000E+00         0.00000E+00        -0.36225E+07
 
   -0.21512E+07         0.10399E+06         0.00000E+00
    0.10399E+06        -0.16534E+08         0.00000E+00
    0.00000E+00         0.00000E+00        -0.37371E+07
 
   -0.28818E+07         0.12602E+06         0.00000E+00
    0.12602E+06        -0.16319E+08         0.00000E+00
    0.00000E+00         0.00000E+00        -0.38402E+07
 
   -0.36107E+07         0.15013E+06         0.00000E+00
    0.15013E+06        -0.16051E+08         0.00000E+00
    0.00000E+00         0.00000E+00        -0.39323E+07
 
    0.44335E+07         0.17025E+05         0.00000E+00
    0.17025E+05        -0.17171E+08         0.00000E+00
    0.00000E+00         0.00000E+00        -0.34556E+07
 
    0.44095E+07         0.48781E+05         0.00000E+00
    0.48781E+05        -0.17165E+08         0.00000E+00
    0.00000E+00         0.00000E+00        -0.33635E+07
 
    0.43732E+07         0.78234E+05         0.00000E+00
    0.78234E+05        -0.17155E+08         0.00000E+00
    0.00000E+00         0.00000E+00        -0.32273E+07
 
    0.43160E+07         0.10464E+06         0.00000E+00
    0.10464E+06        -0.17142E+08         0.00000E+00
    0.00000E+00         0.00000E+00        -0.30348E+07
 
    0.42289E+07         0.12634E+06         0.00000E+00
    0.12634E+06        -0.17131E+08         0.00000E+00
    0.00000E+00         0.00000E+00        -0.27739E+07
 
    0.37214E+07         0.12383E+06         0.00000E+00
    0.12383E+06        -0.17123E+08         0.00000E+00
    0.00000E+00         0.00000E+00        -0.26804E+07
 
    0.26986E+07         0.11017E+06         0.00000E+00
    0.11017E+06        -0.17115E+08         0.00000E+00
    0.00000E+00         0.00000E+00        -0.28832E+07
 
    0.17615E+07         0.11251E+06         0.00000E+00
    0.11251E+06        -0.17100E+08         0.00000E+00
    0.00000E+00         0.00000E+00        -0.30678E+07
 
    0.89224E+06         0.12988E+06         0.00000E+00
    0.12988E+06        -0.17071E+08         0.00000E+00
    0.00000E+00         0.00000E+00        -0.32357E+07
 
    0.75040E+05         0.16019E+06         0.00000E+00
    0.16019E+06        -0.17017E+08         0.00000E+00
    0.00000E+00         0.00000E+00        -0.33885E+07
 
   -0.70360E+06         0.20150E+06         0.00000E+00
    0.20150E+06        -0.16933E+08         0.00000E+00
    0.00000E+00         0.00000E+00        -0.35273E+07
 
   -0.14552E+07         0.25225E+06         0.00000E+00
    0.25225E+06        -0.16811E+08         0.00000E+00
    0.00000E+00         0.00000E+00        -0.36532E+07
 
   -0.21899E+07         0.31120E+06         0.00000E+00
    0.31120E+06        -0.16645E+08         0.00000E+00
    0.00000E+00         0.00000E+00        -0.37670E+07
 
   -0.29160E+07         0.37732E+06         0.00000E+00
    0.37732E+06        -0.16431E+08         0.00000E+00
    0.00000E+00         0.00000E+00        -0.38695E+07
 
   -0.36411E+07         0.44966E+06         0.00000E+00
    0.44966E+06        -0.16164E+08         0.00000E+00
    0.00000E+00         0.00000E+00        -0.39611E+07
 
    0.43116E+07         0.27663E+05         0.00000E+00
    0.27663E+05        -0.17337E+08         0.00000E+00
    0.00000E+00         0.00000E+00        -0.35108E+07
 
    0.42850E+07         0.80524E+05         0.00000E+00
    0.80524E+05        -0.17332E+08         0.00000E+00
    0.00000E+00         0.00000E+00        -0.34170E+07
 
    0.42446E+07         0.12928E+06         0.00000E+00
    0.12928E+06        -0.17323E+08         0.00000E+00
    0.00000E+00         0.00000E+00        -0.32782E+07
 
    0.41818E+07         0.17131E+06         0.00000E+00
    0.17131E+06        -0.17313E+08         0.00000E+00
    0.00000E+00         0.00000E+00        -0.30812E+07
 
    0.40869E+07         0.20455E+06         0.00000E+00
    0.20455E+06        -0.17307E+08         0.00000E+00
    0.00000E+00         0.00000E+00        -0.28185E+07
 
    0.35275E+07         0.19800E+06         0.00000E+00
    0.19800E+06        -0.17308E+08         0.00000E+00
    0.00000E+00         0.00000E+00        -0.27561E+07
 
    0.25276E+07         0.17530E+06         0.00000E+00
    0.17530E+06        -0.17308E+08         0.00000E+00
    0.00000E+00         0.00000E+00        -0.29562E+07
 
    0.16129E+07         0.18103E+06         0.00000E+00
    0.18103E+06        -0.17302E+08         0.00000E+00
    0.00000E+00         0.00000E+00        -0.31378E+07
 
    0.76288E+06         0.21168E+06         0.00000E+00
    0.21168E+06        -0.17278E+08         0.00000E+00
    0.00000E+00         0.00000E+00        -0.33030E+07
 
   -0.38155E+05         0.26331E+06         0.00000E+00
    0.26331E+06        -0.17229E+08         0.00000E+00
    0.00000E+00         0.00000E+00        -0.34534E+07
 
   -0.80305E+06         0.33279E+06         0.00000E+00
    0.33279E+06        -0.17148E+08         0.00000E+00
    0.00000E+00         0.00000E+00        -0.35901E+07
 
   -0.15428E+07         0.41770E+06         0.00000E+00
    0.41770E+06        -0.17029E+08         0.00000E+00
    0.00000E+00         0.00000E+00        -0.37143E+07
 
   -0.22671E+07         0.51610E+06         0.00000E+00
    0.51610E+06        -0.16866E+08         0.00000E+00
    0.00000E+00         0.00000E+00        -0.38267E+07
 
   -0.29843E+07         0.62638E+06         0.00000E+00
    0.62638E+06        -0.16655E+08         0.00000E+00
    0.00000E+00         0.00000E+00        -0.39279E+07
 
   -0.37017E+07         0.74702E+06         0.00000E+00
    0.74702E+06        -0.16391E+08         0.00000E+00
    0.00000E+00         0.00000E+00        -0.40186E+07
 
    0.41276E+07         0.37758E+05         0.00000E+00
    0.37758E+05        -0.17586E+08         0.00000E+00
    0.00000E+00         0.00000E+00        -0.35941E+07
 
    0.40974E+07         0.11067E+06         0.00000E+00
    0.11067E+06        -0.17582E+08         0.00000E+00
    0.00000E+00         0.00000E+00        -0.34980E+07
 
    0.40502E+07         0.17759E+06         0.00000E+00
    0.17759E+06        -0.17577E+08         0.00000E+00
    0.00000E+00         0.00000E+00        -0.33542E+07
 
    0.39765E+07         0.23360E+06         0.00000E+00
    0.23360E+06        -0.17572E+08         0.00000E+00
    0.00000E+00         0.00000E+00        -0.31492E+07
 
    0.38701E+07         0.27315E+06         0.00000E+00
    0.27315E+06        -0.17574E+08         0.00000E+00
    0.00000E+00         0.00000E+00        -0.28832E+07
 
    0.32345E+07         0.25831E+06         0.00000E+00
    0.25831E+06        -0.17589E+08         0.00000E+00
    0.00000E+00         0.00000E+00        -0.28708E+07
 
    0.22739E+07         0.22873E+06         0.00000E+00
    0.22873E+06        -0.17602E+08         0.00000E+00
    0.00000E+00         0.00000E+00        -0.30656E+07
 
    0.13930E+07         0.24104E+06         0.00000E+00
    0.24104E+06        -0.17605E+08         0.00000E+00
    0.00000E+00         0.00000E+00        -0.32424E+07
 
    0.57085E+06         0.28707E+06         0.00000E+00
    0.28707E+06        -0.17588E+08         0.00000E+00
    0.00000E+00         0.00000E+00        -0.34035E+07
 
   -0.20671E+06         0.36133E+06         0.00000E+00
    0.36133E+06        -0.17545E+08         0.00000E+00
    0.00000E+00         0.00000E+00        -0.35504E+07
 
   -0.95151E+06         0.45974E+06         0.00000E+00
    0.45974E+06        -0.17469E+08         0.00000E+00
    0.00000E+00         0.00000E+00        -0.36841E+07
 
   -0.16739E+07         0.57917E+06         0.00000E+00
    0.57917E+06        -0.17354E+08         0.00000E+00
    0.00000E+00         0.00000E+00        -0.38056E+07
 
   -0.23828E+07         0.71718E+06         0.00000E+00
    0.71718E+06        -0.17196E+08         0.00000E+00
    0.00000E+00         0.00000E+00        -0.39158E+07
 
   -0.30866E+07         0.87168E+06         0.00000E+00
    0.87168E+06        -0.16990E+08         0.00000E+00
    0.00000E+00         0.00000E+00        -0.40153E+07
 
   -0.37924E+07         0.10407E+07         0.00000E+00
    0.10407E+07        -0.16730E+08         0.00000E+00
    0.00000E+00         0.00000E+00        -0.41045E+07
 
    0.38799E+07         0.47464E+05         0.00000E+00
    0.47464E+05        -0.17917E+08         0.00000E+00
    0.00000E+00         0.00000E+00        -0.37043E+07
 
    0.38453E+07         0.13807E+06         0.00000E+00
    0.13807E+06        -0.17915E+08         0.00000E+00
    0.00000E+00         0.00000E+00        -0.36045E+07
 
    0.37879E+07         0.22027E+06         0.00000E+00
    0.22027E+06        -0.17915E+08         0.00000E+00
    0.00000E+00         0.00000E+00        -0.34527E+07
 
    0.36978E+07         0.28734E+06         0.00000E+00
    0.28734E+06        -0.17921E+08         0.00000E+00
    0.00000E+00         0.00000E+00        -0.32377E+07
 
    0.35694E+07         0.32841E+06         0.00000E+00
    0.32841E+06        -0.17940E+08         0.00000E+00
    0.00000E+00         0.00000E+00        -0.29704E+07
 
    0.28438E+07         0.29863E+06         0.00000E+00
    0.29863E+06        -0.17967E+08         0.00000E+00
    0.00000E+00         0.00000E+00        -0.30247E+07
 
    0.19422E+07         0.26845E+06         0.00000E+00
    0.26845E+06        -0.17997E+08         0.00000E+00
    0.00000E+00         0.00000E+00        -0.32109E+07
 
    0.11046E+07         0.29089E+06         0.00000E+00
    0.29089E+06        -0.18010E+08         0.00000E+00
    0.00000E+00         0.00000E+00        -0.33811E+07
 
    0.31800E+06         0.35455E+06         0.00000E+00
    0.35455E+06        -0.18002E+08         0.00000E+00
    0.00000E+00         0.00000E+00        -0.35368E+07
 
   -0.42947E+06         0.45283E+06         0.00000E+00
    0.45283E+06        -0.17965E+08         0.00000E+00
    0.00000E+00         0.00000E+00        -0.36789E+07
 
   -0.11483E+07         0.58093E+06         0.00000E+00
    0.58093E+06        -0.17895E+08         0.00000E+00
    0.00000E+00         0.00000E+00        -0.38087E+07
 
   -0.18479E+07         0.73525E+06         0.00000E+00
    0.73525E+06        -0.17786E+08         0.00000E+00
    0.00000E+00         0.00000E+00        -0.39268E+07
 
   -0.25368E+07         0.91295E+06         0.00000E+00
    0.91295E+06        -0.17634E+08         0.00000E+00
    0.00000E+00         0.00000E+00        -0.40341E+07
 
   -0.32226E+07         0.11117E+07         0.00000E+00
    0.11117E+07        -0.17433E+08         0.00000E+00
    0.00000E+00         0.00000E+00        -0.41312E+07
 
   -0.39127E+07         0.13292E+07         0.00000E+00
    0.13292E+07        -0.17180E+08         0.00000E+00
    0.00000E+00         0.00000E+00        -0.42185E+07
 
    0.35666E+07         0.56387E+05         0.00000E+00
    0.56387E+05        -0.18333E+08         0.00000E+00
    0.00000E+00         0.00000E+00        -0.38396E+07
 
    0.35254E+07         0.16184E+06         0.00000E+00
    0.16184E+06        -0.18333E+08         0.00000E+00
    0.00000E+00         0.00000E+00        -0.37330E+07
 
    0.34539E+07         0.25515E+06         0.00000E+00
    0.25515E+06        -0.18340E+08         0.00000E+00
    0.00000E+00         0.00000E+00        -0.35692E+07
 
    0.33447E+07         0.32957E+06         0.00000E+00
    0.32957E+06        -0.18357E+08         0.00000E+00
    0.00000E+00         0.00000E+00        -0.33445E+07
 
    0.31597E+07         0.36420E+06         0.00000E+00
    0.36420E+06        -0.18397E+08         0.00000E+00
    0.00000E+00         0.00000E+00        -0.31001E+07
 
    0.23729E+07         0.31345E+06         0.00000E+00
    0.31345E+06        -0.18444E+08         0.00000E+00
    0.00000E+00         0.00000E+00        -0.32142E+07
 
    0.15372E+07         0.29312E+06         0.00000E+00
    0.29312E+06        -0.18490E+08         0.00000E+00
    0.00000E+00         0.00000E+00        -0.33906E+07
 
    0.75058E+06         0.32935E+06         0.00000E+00
    0.32935E+06        -0.18516E+08         0.00000E+00
    0.00000E+00         0.00000E+00        -0.35530E+07
 
    0.62848E+04         0.41298E+06         0.00000E+00
    0.41298E+06        -0.18516E+08         0.00000E+00
    0.00000E+00         0.00000E+00        -0.37020E+07
 
   -0.70527E+06         0.53665E+06         0.00000E+00
    0.53665E+06        -0.18487E+08         0.00000E+00
    0.00000E+00         0.00000E+00        -0.38385E+07
 
   -0.13929E+07         0.69514E+06         0.00000E+00
    0.69514E+06        -0.18424E+08         0.00000E+00
    0.00000E+00         0.00000E+00        -0.39633E+07
 
   -0.20648E+07         0.88455E+06         0.00000E+00
    0.88455E+06        -0.18322E+08         0.00000E+00
    0.00000E+00         0.00000E+00        -0.40773E+07
 
   -0.27287E+07         0.11019E+07         0.00000E+00
    0.11019E+07        -0.18177E+08         0.00000E+00
    0.00000E+00         0.00000E+00        -0.41811E+07
 
   -0.33922E+07         0.13448E+07         0.00000E+00
    0.13448E+07        -0.17983E+08         0.00000E+00
    0.00000E+00         0.00000E+00        -0.42751E+07
 
   -0.40624E+07         0.16109E+07         0.00000E+00
    0.16109E+07        -0.17737E+08         0.00000E+00
    0.00000E+00         0.00000E+00        -0.43600E+07
 
    0.31854E+07         0.63831E+05         0.00000E+00
    0.63831E+05        -0.18831E+08         0.00000E+00
    0.00000E+00         0.00000E+00        -0.39984E+07
 
    0.31334E+07         0.18123E+06         0.00000E+00
    0.18123E+06        -0.18836E+08         0.00000E+00
    0.00000E+00         0.00000E+00        -0.38800E+07
 
    0.30440E+07         0.28054E+06         0.00000E+00
    0.28054E+06        -0.18851E+08         0.00000E+00
    0.00000E+00         0.00000E+00        -0.37007E+07
 
    0.29105E+07         0.35500E+06         0.00000E+00
    0.35500E+06        -0.18883E+08         0.00000E+00
    0.00000E+00         0.00000E+00        -0.34661E+07
 
    0.26261E+07         0.36954E+06         0.00000E+00
    0.36954E+06        -0.18946E+08         0.00000E+00
    0.00000E+00         0.00000E+00        -0.32862E+07
 
    0.18361E+07         0.30639E+06         0.00000E+00
    0.30639E+06        -0.19019E+08         0.00000E+00
    0.00000E+00         0.00000E+00        -0.34365E+07
 
    0.10642E+07         0.30079E+06         0.00000E+00
    0.30079E+06        -0.19081E+08         0.00000E+00
    0.00000E+00         0.00000E+00        -0.36035E+07
 
    0.33452E+06         0.35547E+06         0.00000E+00
    0.35547E+06        -0.19119E+08         0.00000E+00
    0.00000E+00         0.00000E+00        -0.37569E+07
 
   -0.36233E+06         0.46147E+06         0.00000E+00
    0.46147E+06        -0.19129E+08         0.00000E+00
    0.00000E+00         0.00000E+00        -0.38982E+07
 
   -0.10330E+07         0.61178E+06         0.00000E+00
    0.61178E+06        -0.19108E+08         0.00000E+00
    0.00000E+00         0.00000E+00        -0.40282E+07
 
   -0.16846E+07         0.80116E+06         0.00000E+00
    0.80116E+06        -0.19053E+08         0.00000E+00
    0.00000E+00         0.00000E+00        -0.41474E+07
 
   -0.23241E+07         0.10257E+07         0.00000E+00
    0.10257E+07        -0.18959E+08         0.00000E+00
    0.00000E+00         0.00000E+00        -0.42565E+07
 
   -0.29587E+07         0.12826E+07         0.00000E+00
    0.12826E+07        -0.18822E+08         0.00000E+00
    0.00000E+00         0.00000E+00        -0.43561E+07
 
   -0.35952E+07         0.15693E+07         0.00000E+00
    0.15693E+07        -0.18638E+08         0.00000E+00
    0.00000E+00         0.00000E+00        -0.44465E+07
 
   -0.42411E+07         0.18838E+07         0.00000E+00
    0.18838E+07        -0.18401E+08         0.00000E+00
    0.00000E+00         0.00000E+00        -0.45284E+07
 
    0.27329E+07         0.69471E+05         0.00000E+00
    0.69471E+05        -0.19414E+08         0.00000E+00
    0.00000E+00         0.00000E+00        -0.41779E+07
 
    0.26658E+07         0.19383E+06         0.00000E+00
    0.19383E+06        -0.19424E+08         0.00000E+00
    0.00000E+00         0.00000E+00        -0.40427E+07
 
    0.25498E+07         0.29335E+06         0.00000E+00
    0.29335E+06        -0.19453E+08         0.00000E+00
    0.00000E+00         0.00000E+00        -0.38427E+07
 
    0.23892E+07         0.35896E+06         0.00000E+00
    0.35896E+06        -0.19505E+08         0.00000E+00
    0.00000E+00         0.00000E+00        -0.36052E+07
 
    0.19743E+07         0.33769E+06         0.00000E+00
    0.33769E+06        -0.19603E+08         0.00000E+00
    0.00000E+00         0.00000E+00        -0.35267E+07
 
    0.12297E+07         0.27772E+06         0.00000E+00
    0.27772E+06        -0.19694E+08         0.00000E+00
    0.00000E+00         0.00000E+00        -0.36929E+07
 
    0.53020E+06         0.29237E+06         0.00000E+00
    0.29237E+06        -0.19769E+08         0.00000E+00
    0.00000E+00         0.00000E+00        -0.38478E+07
 
   -0.14049E+06         0.36899E+06         0.00000E+00
    0.36899E+06        -0.19818E+08         0.00000E+00
    0.00000E+00         0.00000E+00        -0.39916E+07
 
   -0.78596E+06         0.49933E+06         0.00000E+00
    0.49933E+06        -0.19837E+08         0.00000E+00
    0.00000E+00         0.00000E+00        -0.41246E+07
 
   -0.14116E+07         0.67724E+06         0.00000E+00
    0.67724E+06        -0.19825E+08         0.00000E+00
    0.00000E+00         0.00000E+00        -0.42473E+07
 
   -0.20229E+07         0.89783E+06         0.00000E+00
    0.89783E+06        -0.19778E+08         0.00000E+00
    0.00000E+00         0.00000E+00        -0.43602E+07
 
   -0.26258E+07         0.11574E+07         0.00000E+00
    0.11574E+07        -0.19693E+08         0.00000E+00
    0.00000E+00         0.00000E+00        -0.44638E+07
 
   -0.32265E+07         0.14533E+07         0.00000E+00
    0.14533E+07        -0.19566E+08         0.00000E+00
    0.00000E+00         0.00000E+00        -0.45585E+07
 
   -0.38315E+07         0.17835E+07         0.00000E+00
    0.17835E+07        -0.19392E+08         0.00000E+00
    0.00000E+00         0.00000E+00        -0.46448E+07
 
   -0.44481E+07         0.21461E+07         0.00000E+00
    0.21461E+07        -0.19167E+08         0.00000E+00
    0.00000E+00         0.00000E+00        -0.47231E+07
 
    0.22045E+07         0.72499E+05         0.00000E+00
    0.72499E+05        -0.20081E+08         0.00000E+00
    0.00000E+00         0.00000E+00        -0.43739E+07
 
    0.21147E+07         0.19588E+06         0.00000E+00
    0.19588E+06        -0.20099E+08         0.00000E+00
    0.00000E+00         0.00000E+00        -0.42132E+07
 
    0.19653E+07         0.28589E+06         0.00000E+00
    0.28589E+06        -0.20146E+08         0.00000E+00
    0.00000E+00         0.00000E+00        -0.39930E+07
 
    0.17658E+07         0.32871E+06         0.00000E+00
    0.32871E+06        -0.20240E+08         0.00000E+00
    0.00000E+00         0.00000E+00        -0.37753E+07
 
    0.12121E+07         0.27177E+06         0.00000E+00
    0.27177E+06        -0.20349E+08         0.00000E+00
    0.00000E+00         0.00000E+00        -0.38274E+07
 
    0.56626E+06         0.23370E+06         0.00000E+00
    0.23370E+06        -0.20464E+08         0.00000E+00
    0.00000E+00         0.00000E+00        -0.39795E+07
 
   -0.62977E+05         0.27036E+06         0.00000E+00
    0.27036E+06        -0.20549E+08         0.00000E+00
    0.00000E+00         0.00000E+00        -0.41225E+07
 
   -0.67195E+06         0.37009E+06         0.00000E+00
    0.37009E+06        -0.20607E+08         0.00000E+00
    0.00000E+00         0.00000E+00        -0.42559E+07
 
   -0.12632E+07         0.52587E+06         0.00000E+00
    0.52587E+06        -0.20636E+08         0.00000E+00
    0.00000E+00         0.00000E+00        -0.43799E+07
 
   -0.18402E+07         0.73198E+06         0.00000E+00
    0.73198E+06        -0.20634E+08         0.00000E+00
    0.00000E+00         0.00000E+00        -0.44948E+07
 
   -0.24076E+07         0.98386E+06         0.00000E+00
    0.98386E+06        -0.20597E+08         0.00000E+00
    0.00000E+00         0.00000E+00        -0.46008E+07
 
   -0.29699E+07         0.12781E+07         0.00000E+00
    0.12781E+07        -0.20522E+08         0.00000E+00
    0.00000E+00         0.00000E+00        -0.46983E+07
 
   -0.35324E+07         0.16123E+07         0.00000E+00
    0.16123E+07        -0.20406E+08         0.00000E+00
    0.00000E+00         0.00000E+00        -0.47877E+07
 
   -0.41010E+07         0.19851E+07         0.00000E+00
    0.19851E+07        -0.20245E+08         0.00000E+00
    0.00000E+00         0.00000E+00        -0.48692E+07
 
   -0.46832E+07         0.23955E+07         0.00000E+00
    0.23955E+07        -0.20033E+08         0.00000E+00
    0.00000E+00         0.00000E+00        -0.49433E+07
 
    0.15940E+07         0.71126E+05         0.00000E+00
    0.71126E+05        -0.20831E+08         0.00000E+00
    0.00000E+00         0.00000E+00        -0.45817E+07
 
    0.14698E+07         0.18442E+06         0.00000E+00
    0.18442E+06        -0.20862E+08         0.00000E+00
    0.00000E+00         0.00000E+00        -0.43852E+07
 
    0.12848E+07         0.25432E+06         0.00000E+00
    0.25432E+06        -0.20931E+08         0.00000E+00
    0.00000E+00         0.00000E+00        -0.41536E+07
 
    0.98232E+06         0.25237E+06         0.00000E+00
    0.25237E+06        -0.21065E+08         0.00000E+00
    0.00000E+00         0.00000E+00        -0.40323E+07
 
    0.40915E+06         0.18353E+06         0.00000E+00
    0.18353E+06        -0.21194E+08         0.00000E+00
    0.00000E+00         0.00000E+00        -0.41569E+07
 
   -0.15528E+06         0.17469E+06         0.00000E+00
    0.17469E+06        -0.21319E+08         0.00000E+00
    0.00000E+00         0.00000E+00        -0.42948E+07
 
   -0.71316E+06         0.23458E+06         0.00000E+00
    0.23458E+06        -0.21415E+08         0.00000E+00
    0.00000E+00         0.00000E+00        -0.44256E+07
 
   -0.12587E+07         0.35827E+06         0.00000E+00
    0.35827E+06        -0.21483E+08         0.00000E+00
    0.00000E+00         0.00000E+00        -0.45484E+07
 
   -0.17928E+07         0.54004E+06         0.00000E+00
    0.54004E+06        -0.21523E+08         0.00000E+00
    0.00000E+00         0.00000E+00        -0.46631E+07
 
   -0.23182E+07         0.77469E+06         0.00000E+00
    0.77469E+06        -0.21531E+08         0.00000E+00
    0.00000E+00         0.00000E+00        -0.47697E+07
 
   -0.28382E+07         0.10578E+07         0.00000E+00
    0.10578E+07        -0.21504E+08         0.00000E+00
    0.00000E+00         0.00000E+00        -0.48685E+07
 
   -0.33563E+07         0.13861E+07         0.00000E+00
    0.13861E+07        -0.21441E+08         0.00000E+00
    0.00000E+00         0.00000E+00        -0.49595E+07
 
   -0.38765E+07         0.17577E+07         0.00000E+00
    0.17577E+07        -0.21338E+08         0.00000E+00
    0.00000E+00         0.00000E+00        -0.50429E+07
 
   -0.44040E+07         0.21720E+07         0.00000E+00
    0.21720E+07        -0.21192E+08         0.00000E+00
    0.00000E+00         0.00000E+00        -0.51191E+07
 
   -0.49458E+07         0.26292E+07         0.00000E+00
    0.26292E+07        -0.20996E+08         0.00000E+00
    0.00000E+00         0.00000E+00        -0.51884E+07
 
    0.89059E+06         0.63265E+05         0.00000E+00
    0.63265E+05        -0.21667E+08         0.00000E+00
    0.00000E+00         0.00000E+00        -0.47878E+07
 
    0.72403E+06         0.15368E+06         0.00000E+00
    0.15368E+06        -0.21712E+08         0.00000E+00
    0.00000E+00         0.00000E+00        -0.45546E+07
 
    0.49676E+06         0.18901E+06         0.00000E+00
    0.18901E+06        -0.21828E+08         0.00000E+00
    0.00000E+00         0.00000E+00        -0.43520E+07
 
    0.58969E+05         0.13492E+06         0.00000E+00
    0.13492E+06        -0.21967E+08         0.00000E+00
    0.00000E+00         0.00000E+00        -0.43815E+07
 
   -0.43829E+06         0.83557E+05         0.00000E+00
    0.83557E+05        -0.22119E+08         0.00000E+00
    0.00000E+00         0.00000E+00        -0.45114E+07
 
   -0.93229E+06         0.10068E+06         0.00000E+00
    0.10068E+06        -0.22252E+08         0.00000E+00
    0.00000E+00         0.00000E+00        -0.46368E+07
 
   -0.14195E+07         0.18397E+06         0.00000E+00
    0.18397E+06        -0.22359E+08         0.00000E+00
    0.00000E+00         0.00000E+00        -0.47557E+07
 
   -0.18996E+07         0.33190E+06         0.00000E+00
    0.33190E+06        -0.22440E+08         0.00000E+00
    0.00000E+00         0.00000E+00        -0.48679E+07
 
   -0.23738E+07         0.54013E+06         0.00000E+00
    0.54013E+06        -0.22491E+08         0.00000E+00
    0.00000E+00         0.00000E+00        -0.49730E+07
 
   -0.28445E+07         0.80369E+06         0.00000E+00
    0.80369E+06        -0.22511E+08         0.00000E+00
    0.00000E+00         0.00000E+00        -0.50712E+07
 
   -0.33142E+07         0.11180E+07         0.00000E+00
    0.11180E+07        -0.22497E+08         0.00000E+00
    0.00000E+00         0.00000E+00        -0.51623E+07
 
   -0.37851E+07         0.14798E+07         0.00000E+00
    0.14798E+07        -0.22447E+08         0.00000E+00
    0.00000E+00         0.00000E+00        -0.52464E+07
 
   -0.42595E+07         0.18875E+07         0.00000E+00
    0.18875E+07        -0.22359E+08         0.00000E+00
    0.00000E+00         0.00000E+00        -0.53236E+07
 
   -0.47409E+07         0.23417E+07         0.00000E+00
    0.23417E+07        -0.22229E+08         0.00000E+00
    0.00000E+00         0.00000E+00        -0.53939E+07
 
   -0.52360E+07         0.28443E+07         0.00000E+00
    0.28443E+07        -0.22052E+08         0.00000E+00
    0.00000E+00         0.00000E+00        -0.54577E+07
 
    0.83028E+05         0.47341E+05         0.00000E+00
    0.47341E+05        -0.22585E+08         0.00000E+00
    0.00000E+00         0.00000E+00        -0.49861E+07
 
   -0.12883E+06         0.10240E+06         0.00000E+00
    0.10240E+06        -0.22656E+08         0.00000E+00
    0.00000E+00         0.00000E+00        -0.47395E+07
 
   -0.46641E+06         0.74061E+05         0.00000E+00
    0.74061E+05        -0.22798E+08         0.00000E+00
    0.00000E+00         0.00000E+00        -0.46642E+07
 
   -0.91540E+06        -0.13149E+04         0.00000E+00
   -0.13149E+04        -0.22949E+08         0.00000E+00
    0.00000E+00         0.00000E+00        -0.47729E+07
 
   -0.13431E+07        -0.26738E+05         0.00000E+00
   -0.26738E+05        -0.23114E+08         0.00000E+00
    0.00000E+00         0.00000E+00        -0.48913E+07
 
   -0.17652E+07         0.10718E+05         0.00000E+00
    0.10718E+05        -0.23257E+08         0.00000E+00
    0.00000E+00         0.00000E+00        -0.50044E+07
 
   -0.21813E+07         0.11628E+06         0.00000E+00
    0.11628E+06        -0.23377E+08         0.00000E+00
    0.00000E+00         0.00000E+00        -0.51117E+07
 
   -0.25934E+07         0.28861E+06         0.00000E+00
    0.28861E+06        -0.23472E+08         0.00000E+00
    0.00000E+00         0.00000E+00        -0.52131E+07
 
   -0.30048E+07         0.52384E+06         0.00000E+00
    0.52384E+06        -0.23538E+08         0.00000E+00
    0.00000E+00         0.00000E+00        -0.53086E+07
 
   -0.34181E+07         0.81682E+06         0.00000E+00
    0.81682E+06        -0.23572E+08         0.00000E+00
    0.00000E+00         0.00000E+00        -0.53980E+07
 
   -0.38351E+07         0.11626E+07         0.00000E+00
    0.11626E+07        -0.23572E+08         0.00000E+00
    0.00000E+00         0.00000E+00        -0.54814E+07
 
   -0.42564E+07         0.15573E+07         0.00000E+00
    0.15573E+07        -0.23536E+08         0.00000E+00
    0.00000E+00         0.00000E+00        -0.55586E+07
 
   -0.46819E+07         0.19996E+07         0.00000E+00
    0.19996E+07        -0.23464E+08         0.00000E+00
    0.00000E+00         0.00000E+00        -0.56292E+07
 
   -0.51126E+07         0.24912E+07         0.00000E+00
    0.24912E+07        -0.23353E+08         0.00000E+00
    0.00000E+00         0.00000E+00        -0.56932E+07
 
   -0.55537E+07         0.30370E+07         0.00000E+00
    0.30370E+07        -0.23199E+08         0.00000E+00
    0.00000E+00         0.00000E+00        -0.57506E+07
 
   -0.83898E+06         0.21971E+05         0.00000E+00
    0.21971E+05        -0.23587E+08         0.00000E+00
    0.00000E+00         0.00000E+00        -0.51770E+07
 
   -0.11260E+07         0.13952E+05         0.00000E+00
    0.13952E+05        -0.23702E+08         0.00000E+00
    0.00000E+00         0.00000E+00        -0.50012E+07
 
   -0.15609E+07        -0.71758E+05         0.00000E+00
   -0.71758E+05        -0.23829E+08         0.00000E+00
    0.00000E+00         0.00000E+00        -0.50779E+07
 
   -0.19431E+07        -0.14075E+06         0.00000E+00
   -0.14075E+06        -0.24002E+08         0.00000E+00
    0.00000E+00         0.00000E+00        -0.51889E+07
 
   -0.23073E+07        -0.15261E+06         0.00000E+00
   -0.15261E+06        -0.24171E+08         0.00000E+00
    0.00000E+00         0.00000E+00        -0.52957E+07
 
   -0.26564E+07        -0.97541E+05         0.00000E+00
   -0.97541E+05        -0.24328E+08         0.00000E+00
    0.00000E+00         0.00000E+00        -0.53968E+07
 
   -0.29981E+07         0.28834E+05         0.00000E+00
    0.28834E+05        -0.24464E+08         0.00000E+00
    0.00000E+00         0.00000E+00        -0.54924E+07
 
   -0.33390E+07         0.22562E+06         0.00000E+00
    0.22562E+06        -0.24576E+08         0.00000E+00
    0.00000E+00         0.00000E+00        -0.55829E+07
 
   -0.36843E+07         0.48842E+06         0.00000E+00
    0.48842E+06        -0.24658E+08         0.00000E+00
    0.00000E+00         0.00000E+00        -0.56685E+07
 
   -0.40375E+07         0.81145E+06         0.00000E+00
    0.81145E+06        -0.24708E+08         0.00000E+00
    0.00000E+00         0.00000E+00        -0.57492E+07
 
   -0.43997E+07         0.11889E+07         0.00000E+00
    0.11889E+07        -0.24725E+08         0.00000E+00
    0.00000E+00         0.00000E+00        -0.58249E+07
 
   -0.47698E+07         0.16163E+07         0.00000E+00
    0.16163E+07        -0.24706E+08         0.00000E+00
    0.00000E+00         0.00000E+00        -0.58952E+07
 
   -0.51447E+07         0.20915E+07         0.00000E+00
    0.20915E+07        -0.24652E+08         0.00000E+00
    0.00000E+00         0.00000E+00        -0.59594E+07
 
   -0.55209E+07         0.26174E+07         0.00000E+00
    0.26174E+07        -0.24563E+08         0.00000E+00
    0.00000E+00         0.00000E+00        -0.60168E+07
 
   -0.58998E+07         0.32028E+07         0.00000E+00
    0.32028E+07        -0.24436E+08         0.00000E+00
    0.00000E+00         0.00000E+00        -0.60672E+07
 
   -0.18838E+07        -0.19416E+05         0.00000E+00
   -0.19416E+05        -0.24695E+08         0.00000E+00
    0.00000E+00         0.00000E+00        -0.54096E+07
 
   -0.23200E+07        -0.10754E+06         0.00000E+00
   -0.10754E+06        -0.24777E+08         0.00000E+00
    0.00000E+00         0.00000E+00        -0.54194E+07
 
   -0.27122E+07        -0.22262E+06         0.00000E+00
   -0.22262E+06        -0.24929E+08         0.00000E+00
    0.00000E+00         0.00000E+00        -0.55282E+07
 
   -0.30433E+07        -0.29014E+06         0.00000E+00
   -0.29014E+06        -0.25108E+08         0.00000E+00
    0.00000E+00         0.00000E+00        -0.56303E+07
 
   -0.33356E+07        -0.29558E+06         0.00000E+00
   -0.29558E+06        -0.25289E+08         0.00000E+00
    0.00000E+00         0.00000E+00        -0.57249E+07
 
   -0.36066E+07        -0.22688E+06         0.00000E+00
   -0.22688E+06        -0.25460E+08         0.00000E+00
    0.00000E+00         0.00000E+00        -0.58134E+07
 
   -0.38692E+07        -0.80958E+05         0.00000E+00
   -0.80958E+05        -0.25615E+08         0.00000E+00
    0.00000E+00         0.00000E+00        -0.58968E+07
 
   -0.41345E+07         0.14017E+06         0.00000E+00
    0.14017E+06        -0.25745E+08         0.00000E+00
    0.00000E+00         0.00000E+00        -0.59759E+07
 
   -0.44103E+07         0.43096E+06         0.00000E+00
    0.43096E+06        -0.25846E+08         0.00000E+00
    0.00000E+00         0.00000E+00        -0.60513E+07
 
   -0.47008E+07         0.78432E+06         0.00000E+00
    0.78432E+06        -0.25916E+08         0.00000E+00
    0.00000E+00         0.00000E+00        -0.61233E+07
 
   -0.50065E+07         0.11936E+07         0.00000E+00
    0.11936E+07        -0.25952E+08         0.00000E+00
    0.00000E+00         0.00000E+00        -0.61916E+07
 
   -0.53247E+07         0.16534E+07         0.00000E+00
    0.16534E+07        -0.25954E+08         0.00000E+00
    0.00000E+00         0.00000E+00        -0.62557E+07
 
   -0.56491E+07         0.21604E+07         0.00000E+00
    0.21604E+07        -0.25922E+08         0.00000E+00
    0.00000E+00         0.00000E+00        -0.63142E+07
 
   -0.59690E+07         0.27164E+07         0.00000E+00
    0.27164E+07        -0.25858E+08         0.00000E+00
    0.00000E+00         0.00000E+00        -0.63653E+07
 
   -0.62766E+07         0.33354E+07         0.00000E+00
    0.33354E+07        -0.25763E+08         0.00000E+00
    0.00000E+00         0.00000E+00        -0.64079E+07
 
   -0.31269E+07        -0.76522E+05         0.00000E+00
   -0.76522E+05        -0.25836E+08         0.00000E+00
    0.00000E+00         0.00000E+00        -0.58006E+07
 
   -0.36075E+07        -0.23977E+06         0.00000E+00
   -0.23977E+06        -0.25921E+08         0.00000E+00
    0.00000E+00         0.00000E+00        -0.59057E+07
 
   -0.39537E+07        -0.37617E+06         0.00000E+00
   -0.37617E+06        -0.26085E+08         0.00000E+00
    0.00000E+00         0.00000E+00        -0.60076E+07
 
   -0.42181E+07        -0.45467E+06         0.00000E+00
   -0.45467E+06        -0.26270E+08         0.00000E+00
    0.00000E+00         0.00000E+00        -0.60976E+07
 
   -0.44314E+07        -0.45809E+06         0.00000E+00
   -0.45809E+06        -0.26463E+08         0.00000E+00
    0.00000E+00         0.00000E+00        -0.61789E+07
 
   -0.46167E+07        -0.37885E+06         0.00000E+00
   -0.37885E+06        -0.26651E+08         0.00000E+00
    0.00000E+00         0.00000E+00        -0.62535E+07
 
   -0.47938E+07        -0.21497E+06         0.00000E+00
   -0.21497E+06        -0.26823E+08         0.00000E+00
    0.00000E+00         0.00000E+00        -0.63234E+07
 
   -0.49784E+07         0.30061E+05         0.00000E+00
    0.30061E+05        -0.26973E+08         0.00000E+00
    0.00000E+00         0.00000E+00        -0.63903E+07
 
   -0.51812E+07         0.34860E+06         0.00000E+00
    0.34860E+06        -0.27095E+08         0.00000E+00
    0.00000E+00         0.00000E+00        -0.64551E+07
 
   -0.54068E+07         0.73162E+06         0.00000E+00
    0.73162E+06        -0.27186E+08         0.00000E+00
    0.00000E+00         0.00000E+00        -0.65185E+07
 
   -0.56544E+07         0.11714E+07         0.00000E+00
    0.11714E+07        -0.27246E+08         0.00000E+00
    0.00000E+00         0.00000E+00        -0.65801E+07
 
   -0.59200E+07         0.16627E+07         0.00000E+00
    0.16627E+07        -0.27275E+08         0.00000E+00
    0.00000E+00         0.00000E+00        -0.66391E+07
 
   -0.61954E+07         0.22010E+07         0.00000E+00
    0.22010E+07        -0.27273E+08         0.00000E+00
    0.00000E+00         0.00000E+00        -0.66937E+07
 
   -0.64618E+07         0.27838E+07         0.00000E+00
    0.27838E+07        -0.27241E+08         0.00000E+00
    0.00000E+00         0.00000E+00        -0.67405E+07
 
   -0.66891E+07         0.34258E+07         0.00000E+00
    0.34258E+07        -0.27187E+08         0.00000E+00
    0.00000E+00         0.00000E+00        -0.67751E+07
 
   -0.45543E+07        -0.13785E+06         0.00000E+00
   -0.13785E+06        -0.27031E+08         0.00000E+00
    0.00000E+00         0.00000E+00        -0.63171E+07
 
   -0.50036E+07        -0.36885E+06         0.00000E+00
   -0.36885E+06        -0.27135E+08         0.00000E+00
    0.00000E+00         0.00000E+00        -0.64276E+07
 
   -0.52882E+07        -0.53981E+06         0.00000E+00
   -0.53981E+06        -0.27296E+08         0.00000E+00
    0.00000E+00         0.00000E+00        -0.65169E+07
 
   -0.54731E+07        -0.63341E+06         0.00000E+00
   -0.63341E+06        -0.27488E+08         0.00000E+00
    0.00000E+00         0.00000E+00        -0.65923E+07
 
   -0.55960E+07        -0.63951E+06         0.00000E+00
   -0.63951E+06        -0.27691E+08         0.00000E+00
    0.00000E+00         0.00000E+00        -0.66575E+07
 
   -0.56871E+07        -0.55288E+06         0.00000E+00
   -0.55288E+06        -0.27892E+08         0.00000E+00
    0.00000E+00         0.00000E+00        -0.67159E+07
 
   -0.57711E+07        -0.37344E+06         0.00000E+00
   -0.37344E+06        -0.28081E+08         0.00000E+00
    0.00000E+00         0.00000E+00        -0.67705E+07
 
   -0.58692E+07        -0.10595E+06         0.00000E+00
   -0.10595E+06        -0.28250E+08         0.00000E+00
    0.00000E+00         0.00000E+00        -0.68238E+07
 
   -0.59960E+07         0.23926E+06         0.00000E+00
    0.23926E+06        -0.28392E+08         0.00000E+00
    0.00000E+00         0.00000E+00        -0.68776E+07
 
   -0.61556E+07         0.64904E+06         0.00000E+00
    0.64904E+06        -0.28507E+08         0.00000E+00
    0.00000E+00         0.00000E+00        -0.69326E+07
 
   -0.63441E+07         0.11157E+07         0.00000E+00
    0.11157E+07        -0.28598E+08         0.00000E+00
    0.00000E+00         0.00000E+00        -0.69884E+07
 
   -0.65557E+07         0.16348E+07         0.00000E+00
    0.16348E+07        -0.28662E+08         0.00000E+00
    0.00000E+00         0.00000E+00        -0.70436E+07
 
   -0.67831E+07         0.22015E+07         0.00000E+00
    0.22015E+07        -0.28703E+08         0.00000E+00
    0.00000E+00         0.00000E+00        -0.70972E+07
 
   -0.70066E+07         0.28083E+07         0.00000E+00
    0.28083E+07        -0.28720E+08         0.00000E+00
    0.00000E+00         0.00000E+00        -0.71454E+07
 
   -0.71502E+07         0.34552E+07         0.00000E+00
    0.34552E+07        -0.28736E+08         0.00000E+00
    0.00000E+00         0.00000E+00        -0.71772E+07
 
   -0.61525E+07        -0.19152E+06         0.00000E+00
   -0.19152E+06        -0.28317E+08         0.00000E+00
    0.00000E+00         0.00000E+00        -0.68939E+07
 
   -0.65203E+07        -0.49785E+06         0.00000E+00
   -0.49785E+06        -0.28413E+08         0.00000E+00
    0.00000E+00         0.00000E+00        -0.69866E+07
 
   -0.67203E+07        -0.70854E+06         0.00000E+00
   -0.70854E+06        -0.28571E+08         0.00000E+00
    0.00000E+00         0.00000E+00        -0.70583E+07
 
   -0.68096E+07        -0.82236E+06         0.00000E+00
   -0.82236E+06        -0.28763E+08         0.00000E+00
    0.00000E+00         0.00000E+00        -0.71145E+07
 
   -0.68311E+07        -0.83510E+06         0.00000E+00
   -0.83510E+06        -0.28969E+08         0.00000E+00
    0.00000E+00         0.00000E+00        -0.71601E+07
 
   -0.68184E+07        -0.74491E+06         0.00000E+00
   -0.74491E+06        -0.29177E+08         0.00000E+00
    0.00000E+00         0.00000E+00        -0.71991E+07
 
   -0.68016E+07        -0.55318E+06         0.00000E+00
   -0.55318E+06        -0.29376E+08         0.00000E+00
    0.00000E+00         0.00000E+00        -0.72355E+07
 
   -0.68065E+07        -0.26730E+06         0.00000E+00
   -0.26730E+06        -0.29558E+08         0.00000E+00
    0.00000E+00         0.00000E+00        -0.72728E+07
 
   -0.68549E+07         0.10091E+06         0.00000E+00
    0.10091E+06        -0.29721E+08         0.00000E+00
    0.00000E+00         0.00000E+00        -0.73152E+07
 
   -0.69501E+07         0.53238E+06         0.00000E+00
    0.53238E+06        -0.29865E+08         0.00000E+00
    0.00000E+00         0.00000E+00        -0.73629E+07
 
   -0.70783E+07         0.10176E+07         0.00000E+00
    0.10176E+07        -0.29989E+08         0.00000E+00
    0.00000E+00         0.00000E+00        -0.74135E+07
 
   -0.72327E+07         0.15590E+07         0.00000E+00
    0.15590E+07        -0.30105E+08         0.00000E+00
    0.00000E+00         0.00000E+00        -0.74675E+07
 
   -0.74107E+07         0.21484E+07         0.00000E+00
    0.21484E+07        -0.30193E+08         0.00000E+00
    0.00000E+00         0.00000E+00        -0.75359E+07
 
   -0.75972E+07         0.27751E+07         0.00000E+00
    0.27751E+07        -0.30252E+08         0.00000E+00
    0.00000E+00         0.00000E+00        -0.76269E+07
 
   -0.77572E+07         0.33945E+07         0.00000E+00
    0.33945E+07        -0.30301E+08         0.00000E+00
    0.00000E+00         0.00000E+00        -0.77514E+07
 
   -0.79111E+07        -0.24052E+06         0.00000E+00
   -0.24052E+06        -0.29671E+08         0.00000E+00
    0.00000E+00         0.00000E+00        -0.75164E+07
 
   -0.81618E+07        -0.62047E+06         0.00000E+00
   -0.62047E+06        -0.29759E+08         0.00000E+00
    0.00000E+00         0.00000E+00        -0.75842E+07
 
   -0.82508E+07        -0.87563E+06         0.00000E+00
   -0.87563E+06        -0.29908E+08         0.00000E+00
    0.00000E+00         0.00000E+00        -0.76317E+07
 
   -0.82286E+07        -0.10132E+07         0.00000E+00
   -0.10132E+07        -0.30091E+08         0.00000E+00
    0.00000E+00         0.00000E+00        -0.76639E+07
 
   -0.81369E+07        -0.10362E+07         0.00000E+00
   -0.10362E+07        -0.30291E+08         0.00000E+00
    0.00000E+00         0.00000E+00        -0.76856E+07
 
   -0.80112E+07        -0.94617E+06         0.00000E+00
   -0.94617E+06        -0.30494E+08         0.00000E+00
    0.00000E+00         0.00000E+00        -0.77011E+07
 
   -0.78848E+07        -0.74617E+06         0.00000E+00
   -0.74617E+06        -0.30691E+08         0.00000E+00
    0.00000E+00         0.00000E+00        -0.77152E+07
 
   -0.77929E+07        -0.44437E+06         0.00000E+00
   -0.44437E+06        -0.30875E+08         0.00000E+00
    0.00000E+00         0.00000E+00        -0.77335E+07
 
   -0.77570E+07        -0.65710E+05         0.00000E+00
   -0.65710E+05        -0.31037E+08         0.00000E+00
    0.00000E+00         0.00000E+00        -0.77699E+07
 
   -0.77912E+07         0.37858E+06         0.00000E+00
    0.37858E+06        -0.31195E+08         0.00000E+00
    0.00000E+00         0.00000E+00        -0.78500E+07
 
   -0.78431E+07         0.89279E+06         0.00000E+00
    0.89279E+06        -0.31334E+08         0.00000E+00
    0.00000E+00         0.00000E+00        -0.79328E+07
 
   -0.79474E+07         0.14702E+07         0.00000E+00
    0.14702E+07        -0.31423E+08         0.00000E+00
    0.00000E+00         0.00000E+00        -0.80649E+07
 
   -0.80862E+07         0.20913E+07         0.00000E+00
    0.20913E+07        -0.31482E+08         0.00000E+00
    0.00000E+00         0.00000E+00        -0.82232E+07
 
   -0.82699E+07         0.27249E+07         0.00000E+00
    0.27249E+07        -0.31532E+08         0.00000E+00
    0.00000E+00         0.00000E+00        -0.84075E+07
 
   -0.85252E+07         0.33115E+07         0.00000E+00
    0.33115E+07        -0.31600E+08         0.00000E+00
    0.00000E+00         0.00000E+00        -0.85919E+07
 
   -0.98197E+07        -0.28547E+06         0.00000E+00
   -0.28547E+06        -0.31089E+08         0.00000E+00
    0.00000E+00         0.00000E+00        -0.81817E+07
 
   -0.99242E+07        -0.73417E+06         0.00000E+00
   -0.73417E+06        -0.31168E+08         0.00000E+00
    0.00000E+00         0.00000E+00        -0.82184E+07
 
   -0.98787E+07        -0.10334E+07         0.00000E+00
   -0.10334E+07        -0.31302E+08         0.00000E+00
    0.00000E+00         0.00000E+00        -0.82361E+07
 
   -0.97286E+07        -0.11961E+07         0.00000E+00
   -0.11961E+07        -0.31468E+08         0.00000E+00
    0.00000E+00         0.00000E+00        -0.82394E+07
 
   -0.95125E+07        -0.12308E+07         0.00000E+00
   -0.12308E+07        -0.31650E+08         0.00000E+00
    0.00000E+00         0.00000E+00        -0.82325E+07
 
   -0.92643E+07        -0.11429E+07         0.00000E+00
   -0.11429E+07        -0.31834E+08         0.00000E+00
    0.00000E+00         0.00000E+00        -0.82197E+07
 
   -0.90198E+07        -0.93554E+06         0.00000E+00
   -0.93554E+06        -0.32011E+08         0.00000E+00
    0.00000E+00         0.00000E+00        -0.82061E+07
 
   -0.88213E+07        -0.62159E+06         0.00000E+00
   -0.62159E+06        -0.32166E+08         0.00000E+00
    0.00000E+00         0.00000E+00        -0.82138E+07
 
   -0.87060E+07        -0.22444E+06         0.00000E+00
   -0.22444E+06        -0.32312E+08         0.00000E+00
    0.00000E+00         0.00000E+00        -0.82941E+07
 
   -0.86674E+07         0.24678E+06         0.00000E+00
    0.24678E+06        -0.32432E+08         0.00000E+00
    0.00000E+00         0.00000E+00        -0.84655E+07
 
   -0.86557E+07         0.78726E+06         0.00000E+00
    0.78726E+06        -0.32527E+08         0.00000E+00
    0.00000E+00         0.00000E+00        -0.86551E+07
 
   -0.87003E+07         0.13833E+07         0.00000E+00
    0.13833E+07        -0.32615E+08         0.00000E+00
    0.00000E+00         0.00000E+00        -0.88530E+07
 
   -0.88170E+07         0.20142E+07         0.00000E+00
    0.20142E+07        -0.32702E+08         0.00000E+00
    0.00000E+00         0.00000E+00        -0.90589E+07
 
   -0.90187E+07         0.26459E+07         0.00000E+00
    0.26459E+07        -0.32789E+08         0.00000E+00
    0.00000E+00         0.00000E+00        -0.92574E+07
 
   -0.93059E+07         0.32592E+07         0.00000E+00
    0.32592E+07        -0.32856E+08         0.00000E+00
    0.00000E+00         0.00000E+00        -0.94107E+07
 
   -0.11866E+08        -0.32576E+06         0.00000E+00
   -0.32576E+06        -0.32566E+08         0.00000E+00
    0.00000E+00         0.00000E+00        -0.88864E+07
 
   -0.11799E+08        -0.83625E+06         0.00000E+00
   -0.83625E+06        -0.32634E+08         0.00000E+00
    0.00000E+00         0.00000E+00        -0.88866E+07
 
   -0.11598E+08        -0.11753E+07         0.00000E+00
   -0.11753E+07        -0.32749E+08         0.00000E+00
    0.00000E+00         0.00000E+00        -0.88695E+07
 
   -0.11305E+08        -0.13608E+07         0.00000E+00
   -0.13608E+07        -0.32891E+08         0.00000E+00
    0.00000E+00         0.00000E+00        -0.88391E+07
 
   -0.10953E+08        -0.14057E+07         0.00000E+00
   -0.14057E+07        -0.33043E+08         0.00000E+00
    0.00000E+00         0.00000E+00        -0.87992E+07
 
   -0.10574E+08        -0.13183E+07         0.00000E+00
   -0.13183E+07        -0.33194E+08         0.00000E+00
    0.00000E+00         0.00000E+00        -0.87535E+07
 
   -0.10195E+08        -0.11008E+07         0.00000E+00
   -0.11008E+07        -0.33333E+08         0.00000E+00
    0.00000E+00         0.00000E+00        -0.87056E+07
 
   -0.98881E+07        -0.76862E+06         0.00000E+00
   -0.76862E+06        -0.33446E+08         0.00000E+00
    0.00000E+00         0.00000E+00        -0.87343E+07
 
   -0.97105E+07        -0.35888E+06         0.00000E+00
   -0.35888E+06        -0.33558E+08         0.00000E+00
    0.00000E+00         0.00000E+00        -0.89244E+07
 
   -0.95813E+07         0.12371E+06         0.00000E+00
    0.12371E+06        -0.33657E+08         0.00000E+00
    0.00000E+00         0.00000E+00        -0.91627E+07
 
   -0.95067E+07         0.67664E+06         0.00000E+00
    0.67664E+06        -0.33759E+08         0.00000E+00
    0.00000E+00         0.00000E+00        -0.94091E+07
 
   -0.95069E+07         0.12793E+07         0.00000E+00
    0.12793E+07        -0.33861E+08         0.00000E+00
    0.00000E+00         0.00000E+00        -0.96552E+07
 
   -0.96032E+07         0.19144E+07         0.00000E+00
    0.19144E+07        -0.33964E+08         0.00000E+00
    0.00000E+00         0.00000E+00        -0.98885E+07
 
   -0.98042E+07         0.25654E+07         0.00000E+00
    0.25654E+07        -0.34056E+08         0.00000E+00
    0.00000E+00         0.00000E+00        -0.10087E+08
 
   -0.10105E+08         0.32164E+07         0.00000E+00
    0.32164E+07        -0.34119E+08         0.00000E+00
    0.00000E+00         0.00000E+00        -0.10227E+08
 
   -0.14037E+08        -0.36069E+06         0.00000E+00
   -0.36069E+06        -0.34097E+08         0.00000E+00
    0.00000E+00         0.00000E+00        -0.96267E+07
 
   -0.13775E+08        -0.92408E+06         0.00000E+00
   -0.92408E+06        -0.34153E+08         0.00000E+00
    0.00000E+00         0.00000E+00        -0.95856E+07
 
   -0.13400E+08        -0.12960E+07         0.00000E+00
   -0.12960E+07        -0.34246E+08         0.00000E+00
    0.00000E+00         0.00000E+00        -0.95292E+07
 
   -0.12949E+08        -0.14984E+07         0.00000E+00
   -0.14984E+07        -0.34356E+08         0.00000E+00
    0.00000E+00         0.00000E+00        -0.94610E+07
 
   -0.12452E+08        -0.15491E+07         0.00000E+00
   -0.15491E+07        -0.34469E+08         0.00000E+00
    0.00000E+00         0.00000E+00        -0.93843E+07
 
   -0.11931E+08        -0.14591E+07         0.00000E+00
   -0.14591E+07        -0.34576E+08         0.00000E+00
    0.00000E+00         0.00000E+00        -0.93015E+07
 
   -0.11410E+08        -0.12293E+07         0.00000E+00
   -0.12293E+07        -0.34667E+08         0.00000E+00
    0.00000E+00         0.00000E+00        -0.92244E+07
 
   -0.11009E+08        -0.89259E+06         0.00000E+00
   -0.89259E+06        -0.34752E+08         0.00000E+00
    0.00000E+00         0.00000E+00        -0.93118E+07
 
   -0.10756E+08        -0.48259E+06         0.00000E+00
   -0.48259E+06        -0.34832E+08         0.00000E+00
    0.00000E+00         0.00000E+00        -0.95825E+07
 
   -0.10546E+08         0.36113E+04         0.00000E+00
    0.36113E+04        -0.34921E+08         0.00000E+00
    0.00000E+00         0.00000E+00        -0.98660E+07
 
   -0.10408E+08         0.55659E+06         0.00000E+00
    0.55659E+06        -0.35020E+08         0.00000E+00
    0.00000E+00         0.00000E+00        -0.10153E+08
 
   -0.10364E+08         0.11625E+07         0.00000E+00
    0.11625E+07        -0.35128E+08         0.00000E+00
    0.00000E+00         0.00000E+00        -0.10435E+08
 
   -0.10430E+08         0.18092E+07         0.00000E+00
    0.18092E+07        -0.35236E+08         0.00000E+00
    0.00000E+00         0.00000E+00        -0.10692E+08
 
   -0.10615E+08         0.24855E+07         0.00000E+00
    0.24855E+07        -0.35331E+08         0.00000E+00
    0.00000E+00         0.00000E+00        -0.10904E+08
 
   -0.10921E+08         0.31737E+07         0.00000E+00
    0.31737E+07        -0.35397E+08         0.00000E+00
    0.00000E+00         0.00000E+00        -0.11050E+08
 
   -0.16314E+08        -0.38990E+06         0.00000E+00
   -0.38990E+06        -0.35677E+08         0.00000E+00
    0.00000E+00         0.00000E+00        -0.10398E+08
 
   -0.15837E+08        -0.99594E+06         0.00000E+00
   -0.99594E+06        -0.35720E+08         0.00000E+00
    0.00000E+00         0.00000E+00        -0.10311E+08
 
   -0.15270E+08        -0.13913E+07         0.00000E+00
   -0.13913E+07        -0.35788E+08         0.00000E+00
    0.00000E+00         0.00000E+00        -0.10212E+08
 
   -0.14649E+08        -0.16025E+07         0.00000E+00
   -0.16025E+07        -0.35863E+08         0.00000E+00
    0.00000E+00         0.00000E+00        -0.10102E+08
 
   -0.13998E+08        -0.16525E+07         0.00000E+00
   -0.16525E+07        -0.35931E+08         0.00000E+00
    0.00000E+00         0.00000E+00        -0.99859E+07
 
   -0.13331E+08        -0.15566E+07         0.00000E+00
   -0.15566E+07        -0.35988E+08         0.00000E+00
    0.00000E+00         0.00000E+00        -0.98638E+07
 
   -0.12663E+08        -0.13236E+07         0.00000E+00
   -0.13236E+07        -0.36029E+08         0.00000E+00
    0.00000E+00         0.00000E+00        -0.97650E+07
 
   -0.12195E+08        -0.99527E+06         0.00000E+00
   -0.99527E+06        -0.36075E+08         0.00000E+00
    0.00000E+00         0.00000E+00        -0.99337E+07
 
   -0.11850E+08        -0.59200E+06         0.00000E+00
   -0.59200E+06        -0.36130E+08         0.00000E+00
    0.00000E+00         0.00000E+00        -0.10234E+08
 
   -0.11565E+08        -0.11101E+06         0.00000E+00
   -0.11101E+06        -0.36202E+08         0.00000E+00
    0.00000E+00         0.00000E+00        -0.10546E+08
 
   -0.11364E+08         0.43644E+06         0.00000E+00
    0.43644E+06        -0.36292E+08         0.00000E+00
    0.00000E+00         0.00000E+00        -0.10863E+08
 
   -0.11267E+08         0.10422E+07         0.00000E+00
    0.10422E+07        -0.36396E+08         0.00000E+00
    0.00000E+00         0.00000E+00        -0.11174E+08
 
   -0.11289E+08         0.16996E+07         0.00000E+00
    0.16996E+07        -0.36506E+08         0.00000E+00
    0.00000E+00         0.00000E+00        -0.11462E+08
 
   -0.11447E+08         0.23992E+07         0.00000E+00
    0.23992E+07        -0.36608E+08         0.00000E+00
    0.00000E+00         0.00000E+00        -0.11703E+08
 
   -0.11748E+08         0.31235E+07         0.00000E+00
    0.31235E+07        -0.36686E+08         0.00000E+00
    0.00000E+00         0.00000E+00        -0.11872E+08
 
   -0.18682E+08        -0.41371E+06         0.00000E+00
   -0.41371E+06        -0.37300E+08         0.00000E+00
    0.00000E+00         0.00000E+00        -0.11196E+08
 
   -0.17968E+08        -0.10513E+07         0.00000E+00
   -0.10513E+07        -0.37331E+08         0.00000E+00
    0.00000E+00         0.00000E+00        -0.11060E+08
 
   -0.17193E+08        -0.14587E+07         0.00000E+00
   -0.14587E+07        -0.37373E+08         0.00000E+00
    0.00000E+00         0.00000E+00        -0.10913E+08
 
   -0.16391E+08        -0.16680E+07         0.00000E+00
   -0.16680E+07        -0.37409E+08         0.00000E+00
    0.00000E+00         0.00000E+00        -0.10760E+08
 
   -0.15581E+08        -0.17102E+07         0.00000E+00
   -0.17102E+07        -0.37428E+08         0.00000E+00
    0.00000E+00         0.00000E+00        -0.10602E+08
 
   -0.14767E+08        -0.16080E+07         0.00000E+00
   -0.16080E+07        -0.37430E+08         0.00000E+00
    0.00000E+00         0.00000E+00        -0.10439E+08
 
   -0.13977E+08        -0.13819E+07         0.00000E+00
   -0.13819E+07        -0.37418E+08         0.00000E+00
    0.00000E+00         0.00000E+00        -0.10332E+08
 
   -0.13436E+08        -0.10674E+07         0.00000E+00
   -0.10674E+07        -0.37422E+08         0.00000E+00
    0.00000E+00         0.00000E+00        -0.10548E+08
 
   -0.13002E+08        -0.67770E+06         0.00000E+00
   -0.67770E+06        -0.37440E+08         0.00000E+00
    0.00000E+00         0.00000E+00        -0.10858E+08
 
   -0.12641E+08        -0.21137E+06         0.00000E+00
   -0.21137E+06        -0.37484E+08         0.00000E+00
    0.00000E+00         0.00000E+00        -0.11184E+08
 
   -0.12374E+08         0.32331E+06         0.00000E+00
    0.32331E+06        -0.37557E+08         0.00000E+00
    0.00000E+00         0.00000E+00        -0.11521E+08
 
   -0.12215E+08         0.92215E+06         0.00000E+00
    0.92215E+06        -0.37655E+08         0.00000E+00
    0.00000E+00         0.00000E+00        -0.11861E+08
 
   -0.12183E+08         0.15824E+07         0.00000E+00
    0.15824E+07        -0.37767E+08         0.00000E+00
    0.00000E+00         0.00000E+00        -0.12187E+08
 
   -0.12298E+08         0.22988E+07         0.00000E+00
    0.22988E+07        -0.37882E+08         0.00000E+00
    0.00000E+00         0.00000E+00        -0.12474E+08
 
   -0.12583E+08         0.30566E+07         0.00000E+00
    0.30566E+07        -0.37979E+08         0.00000E+00
    0.00000E+00         0.00000E+00        -0.12685E+08
 
   -0.21123E+08        -0.43305E+06         0.00000E+00
   -0.43305E+06        -0.38958E+08         0.00000E+00
    0.00000E+00         0.00000E+00        -0.12016E+08
 
   -0.20150E+08        -0.10908E+07         0.00000E+00
   -0.10908E+07        -0.38978E+08         0.00000E+00
    0.00000E+00         0.00000E+00        -0.11826E+08
 
   -0.19149E+08        -0.14964E+07         0.00000E+00
   -0.14964E+07        -0.38994E+08         0.00000E+00
    0.00000E+00         0.00000E+00        -0.11629E+08
 
   -0.18157E+08        -0.16909E+07         0.00000E+00
   -0.16909E+07        -0.38988E+08         0.00000E+00
    0.00000E+00         0.00000E+00        -0.11429E+08
 
   -0.17191E+08        -0.17163E+07         0.00000E+00
   -0.17163E+07        -0.38953E+08         0.00000E+00
    0.00000E+00         0.00000E+00        -0.11229E+08
 
   -0.16242E+08        -0.16079E+07         0.00000E+00
   -0.16079E+07        -0.38895E+08         0.00000E+00
    0.00000E+00         0.00000E+00        -0.11027E+08
 
   -0.15349E+08        -0.13939E+07         0.00000E+00
   -0.13939E+07        -0.38828E+08         0.00000E+00
    0.00000E+00         0.00000E+00        -0.10906E+08
 
   -0.14731E+08        -0.10985E+07         0.00000E+00
   -0.10985E+07        -0.38774E+08         0.00000E+00
    0.00000E+00         0.00000E+00        -0.11135E+08
 
   -0.14215E+08        -0.72930E+06         0.00000E+00
   -0.72930E+06        -0.38746E+08         0.00000E+00
    0.00000E+00         0.00000E+00        -0.11437E+08
 
   -0.13780E+08        -0.28841E+06         0.00000E+00
   -0.28841E+06        -0.38755E+08         0.00000E+00
    0.00000E+00         0.00000E+00        -0.11762E+08
 
   -0.13442E+08         0.22203E+06         0.00000E+00
    0.22203E+06        -0.38806E+08         0.00000E+00
    0.00000E+00         0.00000E+00        -0.12113E+08
 
   -0.13215E+08         0.80249E+06         0.00000E+00
    0.80249E+06        -0.38894E+08         0.00000E+00
    0.00000E+00         0.00000E+00        -0.12482E+08
 
   -0.13115E+08         0.14539E+07         0.00000E+00
    0.14539E+07        -0.39012E+08         0.00000E+00
    0.00000E+00         0.00000E+00        -0.12855E+08
 
   -0.13171E+08         0.21763E+07         0.00000E+00
    0.21763E+07        -0.39144E+08         0.00000E+00
    0.00000E+00         0.00000E+00        -0.13205E+08
 
   -0.13422E+08         0.29630E+07         0.00000E+00
    0.29630E+07        -0.39272E+08         0.00000E+00
    0.00000E+00         0.00000E+00        -0.13481E+08
 
   -0.23620E+08        -0.44925E+06         0.00000E+00
   -0.44925E+06        -0.40645E+08         0.00000E+00
    0.00000E+00         0.00000E+00        -0.12853E+08
 
   -0.22360E+08        -0.11145E+07         0.00000E+00
   -0.11145E+07        -0.40654E+08         0.00000E+00
    0.00000E+00         0.00000E+00        -0.12603E+08
 
   -0.21114E+08        -0.15016E+07         0.00000E+00
   -0.15016E+07        -0.40642E+08         0.00000E+00
    0.00000E+00         0.00000E+00        -0.12351E+08
 
   -0.19927E+08        -0.16657E+07         0.00000E+00
   -0.16657E+07        -0.40589E+08         0.00000E+00
    0.00000E+00         0.00000E+00        -0.12103E+08
 
   -0.18813E+08        -0.16640E+07         0.00000E+00
   -0.16640E+07        -0.40493E+08         0.00000E+00
    0.00000E+00         0.00000E+00        -0.11861E+08
 
   -0.17753E+08        -0.15464E+07         0.00000E+00
   -0.15464E+07        -0.40367E+08         0.00000E+00
    0.00000E+00         0.00000E+00        -0.11624E+08
 
   -0.16778E+08        -0.13479E+07         0.00000E+00
   -0.13479E+07        -0.40233E+08         0.00000E+00
    0.00000E+00         0.00000E+00        -0.11480E+08
 
   -0.16082E+08        -0.10773E+07         0.00000E+00
   -0.10773E+07        -0.40116E+08         0.00000E+00
    0.00000E+00         0.00000E+00        -0.11680E+08
 
   -0.15494E+08        -0.73768E+06         0.00000E+00
   -0.73768E+06        -0.40034E+08         0.00000E+00
    0.00000E+00         0.00000E+00        -0.11955E+08
 
   -0.14990E+08        -0.33493E+06         0.00000E+00
   -0.33493E+06        -0.40001E+08         0.00000E+00
    0.00000E+00         0.00000E+00        -0.12266E+08
 
   -0.14579E+08         0.13556E+06         0.00000E+00
    0.13556E+06        -0.40025E+08         0.00000E+00
    0.00000E+00         0.00000E+00        -0.12621E+08
 
   -0.14275E+08         0.68166E+06         0.00000E+00
    0.68166E+06        -0.40105E+08         0.00000E+00
    0.00000E+00         0.00000E+00        -0.13020E+08
 
   -0.14096E+08         0.13097E+07         0.00000E+00
    0.13097E+07        -0.40232E+08         0.00000E+00
    0.00000E+00         0.00000E+00        -0.13450E+08
 
   -0.14071E+08         0.20236E+07         0.00000E+00
    0.20236E+07        -0.40390E+08         0.00000E+00
    0.00000E+00         0.00000E+00        -0.13882E+08
 
   -0.14264E+08         0.28239E+07         0.00000E+00
    0.28239E+07        -0.40560E+08         0.00000E+00
    0.00000E+00         0.00000E+00        -0.14250E+08
 
   -0.26155E+08        -0.46334E+06         0.00000E+00
   -0.46334E+06        -0.42352E+08         0.00000E+00
    0.00000E+00         0.00000E+00        -0.13701E+08
 
   -0.24573E+08        -0.11200E+07         0.00000E+00
   -0.11200E+07        -0.42348E+08         0.00000E+00
    0.00000E+00         0.00000E+00        -0.13384E+08
 
   -0.23063E+08        -0.14666E+07         0.00000E+00
   -0.14666E+07        -0.42299E+08         0.00000E+00
    0.00000E+00         0.00000E+00        -0.13072E+08
 
   -0.21682E+08        -0.15830E+07         0.00000E+00
   -0.15830E+07        -0.42187E+08         0.00000E+00
    0.00000E+00         0.00000E+00        -0.12774E+08
 
   -0.20435E+08        -0.15449E+07         0.00000E+00
   -0.15449E+07        -0.42021E+08         0.00000E+00
    0.00000E+00         0.00000E+00        -0.12491E+08
 
   -0.19294E+08        -0.14139E+07         0.00000E+00
   -0.14139E+07        -0.41822E+08         0.00000E+00
    0.00000E+00         0.00000E+00        -0.12223E+08
 
   -0.18261E+08        -0.12330E+07         0.00000E+00
   -0.12330E+07        -0.41620E+08         0.00000E+00
    0.00000E+00         0.00000E+00        -0.12033E+08
 
   -0.17492E+08        -0.99394E+06         0.00000E+00
   -0.99394E+06        -0.41429E+08         0.00000E+00
    0.00000E+00         0.00000E+00        -0.12167E+08
 
   -0.16846E+08        -0.69513E+06         0.00000E+00
   -0.69513E+06        -0.41289E+08         0.00000E+00
    0.00000E+00         0.00000E+00        -0.12400E+08
 
   -0.16281E+08        -0.34431E+06         0.00000E+00
   -0.34431E+06        -0.41209E+08         0.00000E+00
    0.00000E+00         0.00000E+00        -0.12681E+08
 
   -0.15798E+08         0.67204E+05         0.00000E+00
    0.67204E+05        -0.41201E+08         0.00000E+00
    0.00000E+00         0.00000E+00        -0.13029E+08
 
   -0.15410E+08         0.55621E+06         0.00000E+00
    0.55621E+06        -0.41272E+08         0.00000E+00
    0.00000E+00         0.00000E+00        -0.13455E+08
 
   -0.15137E+08         0.11402E+07         0.00000E+00
    0.11402E+07        -0.41418E+08         0.00000E+00
    0.00000E+00         0.00000E+00        -0.13952E+08
 
   -0.15012E+08         0.18292E+07         0.00000E+00
    0.18292E+07        -0.41616E+08         0.00000E+00
    0.00000E+00         0.00000E+00        -0.14488E+08
 
   -0.15111E+08         0.26309E+07         0.00000E+00
    0.26309E+07        -0.41839E+08         0.00000E+00
    0.00000E+00         0.00000E+00        -0.14984E+08
 
   -0.28709E+08        -0.47490E+06         0.00000E+00
   -0.47490E+06        -0.44067E+08         0.00000E+00
    0.00000E+00         0.00000E+00        -0.14555E+08
 
   -0.26754E+08        -0.10972E+07         0.00000E+00
   -0.10972E+07        -0.44042E+08         0.00000E+00
    0.00000E+00         0.00000E+00        -0.14159E+08
 
   -0.24965E+08        -0.13732E+07         0.00000E+00
   -0.13732E+07        -0.43935E+08         0.00000E+00
    0.00000E+00         0.00000E+00        -0.13780E+08
 
   -0.23401E+08        -0.14257E+07         0.00000E+00
   -0.14257E+07        -0.43741E+08         0.00000E+00
    0.00000E+00         0.00000E+00        -0.13428E+08
 
   -0.22045E+08        -0.13494E+07         0.00000E+00
   -0.13494E+07        -0.43491E+08         0.00000E+00
    0.00000E+00         0.00000E+00        -0.13107E+08
 
   -0.20855E+08        -0.12062E+07         0.00000E+00
   -0.12062E+07        -0.43217E+08         0.00000E+00
    0.00000E+00         0.00000E+00        -0.12814E+08
 
   -0.19799E+08        -0.10422E+07         0.00000E+00
   -0.10422E+07        -0.42948E+08         0.00000E+00
    0.00000E+00         0.00000E+00        -0.12576E+08
 
   -0.18963E+08        -0.84514E+06         0.00000E+00
   -0.84514E+06        -0.42691E+08         0.00000E+00
    0.00000E+00         0.00000E+00        -0.12586E+08
 
   -0.18278E+08        -0.59822E+06         0.00000E+00
   -0.59822E+06        -0.42493E+08         0.00000E+00
    0.00000E+00         0.00000E+00        -0.12761E+08
 
   -0.17665E+08        -0.31106E+06         0.00000E+00
   -0.31106E+06        -0.42366E+08         0.00000E+00
    0.00000E+00         0.00000E+00        -0.13001E+08
 
   -0.17120E+08         0.22803E+05         0.00000E+00
    0.22803E+05        -0.42324E+08         0.00000E+00
    0.00000E+00         0.00000E+00        -0.13326E+08
 
   -0.16642E+08         0.42590E+06         0.00000E+00
    0.42590E+06        -0.42381E+08         0.00000E+00
    0.00000E+00         0.00000E+00        -0.13763E+08
 
   -0.16258E+08         0.93320E+06         0.00000E+00
    0.93320E+06        -0.42547E+08         0.00000E+00
    0.00000E+00         0.00000E+00        -0.14328E+08
 
   -0.16005E+08         0.15751E+07         0.00000E+00
    0.15751E+07        -0.42804E+08         0.00000E+00
    0.00000E+00         0.00000E+00        -0.14997E+08
 
   -0.15961E+08         0.23690E+07         0.00000E+00
    0.23690E+07        -0.43104E+08         0.00000E+00
    0.00000E+00         0.00000E+00        -0.15680E+08
 
   -0.31252E+08        -0.47936E+06         0.00000E+00
   -0.47936E+06        -0.45779E+08         0.00000E+00
    0.00000E+00         0.00000E+00        -0.15406E+08
 
   -0.28851E+08        -0.10177E+07         0.00000E+00
   -0.10177E+07        -0.45705E+08         0.00000E+00
    0.00000E+00         0.00000E+00        -0.14911E+08
 
   -0.26786E+08        -0.11831E+07         0.00000E+00
   -0.11831E+07        -0.45492E+08         0.00000E+00
    0.00000E+00         0.00000E+00        -0.14456E+08
 
   -0.25075E+08        -0.11667E+07         0.00000E+00
   -0.11667E+07        -0.45178E+08         0.00000E+00
    0.00000E+00         0.00000E+00        -0.14051E+08
 
   -0.23647E+08        -0.10677E+07         0.00000E+00
   -0.10677E+07        -0.44828E+08         0.00000E+00
    0.00000E+00         0.00000E+00        -0.13695E+08
 
   -0.22430E+08        -0.93079E+06         0.00000E+00
   -0.93079E+06        -0.44482E+08         0.00000E+00
    0.00000E+00         0.00000E+00        -0.13382E+08
 
   -0.21385E+08        -0.78622E+06         0.00000E+00
   -0.78622E+06        -0.44163E+08         0.00000E+00
    0.00000E+00         0.00000E+00        -0.13109E+08
 
   -0.20506E+08        -0.63392E+06         0.00000E+00
   -0.63392E+06        -0.43884E+08         0.00000E+00
    0.00000E+00         0.00000E+00        -0.12958E+08
 
   -0.19791E+08        -0.44792E+06         0.00000E+00
   -0.44792E+06        -0.43622E+08         0.00000E+00
    0.00000E+00         0.00000E+00        -0.13033E+08
 
   -0.19151E+08        -0.23629E+06         0.00000E+00
   -0.23629E+06        -0.43456E+08         0.00000E+00
    0.00000E+00         0.00000E+00        -0.13222E+08
 
   -0.18560E+08         0.83341E+04         0.00000E+00
    0.83341E+04        -0.43384E+08         0.00000E+00
    0.00000E+00         0.00000E+00        -0.13510E+08
 
   -0.18006E+08         0.30101E+06         0.00000E+00
    0.30101E+06        -0.43421E+08         0.00000E+00
    0.00000E+00         0.00000E+00        -0.13933E+08
 
   -0.17492E+08         0.68239E+06         0.00000E+00
    0.68239E+06        -0.43597E+08         0.00000E+00
    0.00000E+00         0.00000E+00        -0.14545E+08
 
   -0.17070E+08         0.12326E+07         0.00000E+00
    0.12326E+07        -0.43930E+08         0.00000E+00
    0.00000E+00         0.00000E+00        -0.15371E+08
 
   -0.16823E+08         0.19943E+07         0.00000E+00
    0.19943E+07        -0.44356E+08         0.00000E+00
    0.00000E+00         0.00000E+00        -0.16327E+08
 
   -0.33719E+08        -0.45709E+06         0.00000E+00
   -0.45709E+06        -0.47463E+08         0.00000E+00
    0.00000E+00         0.00000E+00        -0.16236E+08
 
   -0.30792E+08        -0.80693E+06         0.00000E+00
   -0.80693E+06        -0.47259E+08         0.00000E+00
    0.00000E+00         0.00000E+00        -0.15610E+08
 
   -0.28508E+08        -0.83647E+06         0.00000E+00
   -0.83647E+06        -0.46852E+08         0.00000E+00
    0.00000E+00         0.00000E+00        -0.15072E+08
 
   -0.26720E+08        -0.78165E+06         0.00000E+00
   -0.78165E+06        -0.46390E+08         0.00000E+00
    0.00000E+00         0.00000E+00        -0.14622E+08
 
   -0.25260E+08        -0.69471E+06         0.00000E+00
   -0.69471E+06        -0.45939E+08         0.00000E+00
    0.00000E+00         0.00000E+00        -0.14240E+08
 
   -0.24037E+08        -0.59501E+06         0.00000E+00
   -0.59501E+06        -0.45529E+08         0.00000E+00
    0.00000E+00         0.00000E+00        -0.13913E+08
 
   -0.23001E+08        -0.49128E+06         0.00000E+00
   -0.49128E+06        -0.45169E+08         0.00000E+00
    0.00000E+00         0.00000E+00        -0.13634E+08
 
   -0.22134E+08        -0.38629E+06         0.00000E+00
   -0.38629E+06        -0.44879E+08         0.00000E+00
    0.00000E+00         0.00000E+00        -0.13403E+08
 
   -0.21381E+08        -0.26579E+06         0.00000E+00
   -0.26579E+06        -0.44662E+08         0.00000E+00
    0.00000E+00         0.00000E+00        -0.13254E+08
 
   -0.20739E+08        -0.12930E+06         0.00000E+00
   -0.12930E+06        -0.44467E+08         0.00000E+00
    0.00000E+00         0.00000E+00        -0.13356E+08
 
   -0.20126E+08         0.22448E+05         0.00000E+00
    0.22448E+05        -0.44366E+08         0.00000E+00
    0.00000E+00         0.00000E+00        -0.13590E+08
 
   -0.19532E+08         0.18855E+06         0.00000E+00
    0.18855E+06        -0.44403E+08         0.00000E+00
    0.00000E+00         0.00000E+00        -0.13985E+08
 
   -0.18907E+08         0.40781E+06         0.00000E+00
    0.40781E+06        -0.44584E+08         0.00000E+00
    0.00000E+00         0.00000E+00        -0.14605E+08
 
   -0.18249E+08         0.77096E+06         0.00000E+00
    0.77096E+06        -0.44951E+08         0.00000E+00
    0.00000E+00         0.00000E+00        -0.15551E+08
 
   -0.17709E+08         0.14484E+07         0.00000E+00
    0.14484E+07        -0.45578E+08         0.00000E+00
    0.00000E+00         0.00000E+00        -0.16903E+08
 
   -0.35945E+08        -0.28301E+06         0.00000E+00
   -0.28301E+06        -0.48961E+08         0.00000E+00
    0.00000E+00         0.00000E+00        -0.16983E+08
 
   -0.32521E+08        -0.33147E+06         0.00000E+00
   -0.33147E+06        -0.48430E+08         0.00000E+00
    0.00000E+00         0.00000E+00        -0.16190E+08
 
   -0.30175E+08        -0.30848E+06         0.00000E+00
   -0.30848E+06        -0.47825E+08         0.00000E+00
    0.00000E+00         0.00000E+00        -0.15600E+08
 
   -0.28369E+08        -0.27837E+06         0.00000E+00
   -0.27837E+06        -0.47252E+08         0.00000E+00
    0.00000E+00         0.00000E+00        -0.15124E+08
 
   -0.26909E+08        -0.24336E+06         0.00000E+00
   -0.24336E+06        -0.46735E+08         0.00000E+00
    0.00000E+00         0.00000E+00        -0.14729E+08
 
   -0.25695E+08        -0.20650E+06         0.00000E+00
   -0.20650E+06        -0.46286E+08         0.00000E+00
    0.00000E+00         0.00000E+00        -0.14396E+08
 
   -0.24674E+08        -0.17060E+06         0.00000E+00
   -0.17060E+06        -0.45908E+08         0.00000E+00
    0.00000E+00         0.00000E+00        -0.14116E+08
 
   -0.23812E+08        -0.13094E+06         0.00000E+00
   -0.13094E+06        -0.45599E+08         0.00000E+00
    0.00000E+00         0.00000E+00        -0.13882E+08
 
   -0.23082E+08        -0.84752E+05         0.00000E+00
   -0.84752E+05        -0.45377E+08         0.00000E+00
    0.00000E+00         0.00000E+00        -0.13692E+08
 
   -0.22425E+08        -0.35610E+05         0.00000E+00
   -0.35610E+05        -0.45276E+08         0.00000E+00
    0.00000E+00         0.00000E+00        -0.13540E+08
 
   -0.21811E+08         0.16558E+05         0.00000E+00
    0.16558E+05        -0.45268E+08         0.00000E+00
    0.00000E+00         0.00000E+00        -0.13596E+08
 
   -0.21223E+08         0.66939E+05         0.00000E+00
    0.66939E+05        -0.45348E+08         0.00000E+00
    0.00000E+00         0.00000E+00        -0.13978E+08
 
   -0.20539E+08         0.13469E+06         0.00000E+00
    0.13469E+06        -0.45554E+08         0.00000E+00
    0.00000E+00         0.00000E+00        -0.14581E+08
 
   -0.19709E+08         0.25263E+06         0.00000E+00
    0.25263E+06        -0.45949E+08         0.00000E+00
    0.00000E+00         0.00000E+00        -0.15563E+08
 
   -0.18653E+08         0.56332E+06         0.00000E+00
    0.56332E+06        -0.46686E+08         0.00000E+00
    0.00000E+00         0.00000E+00        -0.17311E+08
 
TENSORS stresstot double 
   -0.38408E+08         0.57576E+04         0.00000E+00
    0.57576E+04        -0.59990E+08         0.00000E+00
    0.00000E+00         0.00000E+00        -0.46330E+08
 
   -0.38415E+08         0.16333E+05         0.00000E+00
    0.16333E+05        -0.59968E+08         0.00000E+00
    0.00000E+00         0.00000E+00        -0.46224E+08
 
   -0.38418E+08         0.26192E+05         0.00000E+00
    0.26192E+05        -0.59926E+08         0.00000E+00
    0.00000E+00         0.00000E+00        -0.46058E+08
 
   -0.38426E+08         0.35183E+05         0.00000E+00
    0.35183E+05        -0.59865E+08         0.00000E+00
    0.00000E+00         0.00000E+00        -0.45819E+08
 
   -0.38446E+08         0.42696E+05         0.00000E+00
    0.42696E+05        -0.59788E+08         0.00000E+00
    0.00000E+00         0.00000E+00        -0.45497E+08
 
   -0.38858E+08         0.42067E+05         0.00000E+00
    0.42067E+05        -0.59707E+08         0.00000E+00
    0.00000E+00         0.00000E+00        -0.45318E+08
 
   -0.39826E+08         0.37554E+05         0.00000E+00
    0.37554E+05        -0.59628E+08         0.00000E+00
    0.00000E+00         0.00000E+00        -0.45457E+08
 
   -0.40717E+08         0.38186E+05         0.00000E+00
    0.38186E+05        -0.59553E+08         0.00000E+00
    0.00000E+00         0.00000E+00        -0.45586E+08
 
   -0.41547E+08         0.43797E+05         0.00000E+00
    0.43797E+05        -0.59472E+08         0.00000E+00
    0.00000E+00         0.00000E+00        -0.45707E+08
 
   -0.42332E+08         0.53779E+05         0.00000E+00
    0.53779E+05        -0.59375E+08         0.00000E+00
    0.00000E+00         0.00000E+00        -0.45820E+08
 
   -0.43083E+08         0.67479E+05         0.00000E+00
    0.67479E+05        -0.59254E+08         0.00000E+00
    0.00000E+00         0.00000E+00        -0.45925E+08
 
   -0.43813E+08         0.84359E+05         0.00000E+00
    0.84359E+05        -0.59103E+08         0.00000E+00
    0.00000E+00         0.00000E+00        -0.46024E+08
 
   -0.44532E+08         0.10399E+06         0.00000E+00
    0.10399E+06        -0.58915E+08         0.00000E+00
    0.00000E+00         0.00000E+00        -0.46118E+08
 
   -0.45248E+08         0.12602E+06         0.00000E+00
    0.12602E+06        -0.58685E+08         0.00000E+00
    0.00000E+00         0.00000E+00        -0.46206E+08
 
   -0.45970E+08         0.15013E+06         0.00000E+00
    0.15013E+06        -0.58409E+08         0.00000E+00
    0.00000E+00         0.00000E+00        -0.46291E+08
 
   -0.38386E+08         0.17025E+05         0.00000E+00
    0.17025E+05        -0.59990E+08         0.00000E+00
    0.00000E+00         0.00000E+00        -0.46275E+08
 
   -0.38394E+08         0.48781E+05         0.00000E+00
    0.48781E+05        -0.59969E+08         0.00000E+00
    0.00000E+00         0.00000E+00        -0.46167E+08
 
   -0.38399E+08         0.78234E+05         0.00000E+00
    0.78234E+05        -0.59927E+08         0.00000E+00
    0.00000E+00         0.00000E+00        -0.46000E+08
 
   -0.38409E+08         0.10464E+06         0.00000E+00
    0.10464E+06        -0.59868E+08         0.00000E+00
    0.00000E+00         0.00000E+00        -0.45760E+08
 
   -0.38434E+08         0.12634E+06         0.00000E+00
    0.12634E+06        -0.59793E+08         0.00000E+00
    0.00000E+00         0.00000E+00        -0.45436E+08
 
   -0.38871E+08         0.12383E+06         0.00000E+00
    0.12383E+06        -0.59716E+08         0.00000E+00
    0.00000E+00         0.00000E+00        -0.45273E+08
 
   -0.39829E+08         0.11017E+06         0.00000E+00
    0.11017E+06        -0.59643E+08         0.00000E+00
    0.00000E+00         0.00000E+00        -0.45411E+08
 
   -0.40710E+08         0.11251E+06         0.00000E+00
    0.11251E+06        -0.59572E+08         0.00000E+00
    0.00000E+00         0.00000E+00        -0.45540E+08
 
   -0.41531E+08         0.12988E+06         0.00000E+00
    0.12988E+06        -0.59494E+08         0.00000E+00
    0.00000E+00         0.00000E+00        -0.45659E+08
 
   -0.42308E+08         0.16019E+06         0.00000E+00
    0.16019E+06        -0.59400E+08         0.00000E+00
    0.00000E+00         0.00000E+00        -0.45771E+08
 
   -0.43052E+08         0.20150E+06         0.00000E+00
    0.20150E+06        -0.59281E+08         0.00000E+00
    0.00000E+00         0.00000E+00        -0.45876E+08
 
   -0.43776E+08         0.25225E+06         0.00000E+00
    0.25225E+06        -0.59132E+08         0.00000E+00
    0.00000E+00         0.00000E+00        -0.45974E+08
 
   -0.44490E+08         0.31120E+06         0.00000E+00
    0.31120E+06        -0.58945E+08         0.00000E+00
    0.00000E+00         0.00000E+00        -0.46067E+08
 
   -0.45202E+08         0.37732E+06         0.00000E+00
    0.37732E+06        -0.58717E+08         0.00000E+00
    0.00000E+00         0.00000E+00        -0.46155E+08
 
   -0.45920E+08         0.44966E+06         0.00000E+00
    0.44966E+06        -0.58443E+08         0.00000E+00
    0.00000E+00         0.00000E+00        -0.46240E+08
 
   -0.38342E+08         0.27663E+05         0.00000E+00
    0.27663E+05        -0.59991E+08         0.00000E+00
    0.00000E+00         0.00000E+00        -0.46165E+08
 
   -0.38353E+08         0.80524E+05         0.00000E+00
    0.80524E+05        -0.59971E+08         0.00000E+00
    0.00000E+00         0.00000E+00        -0.46055E+08
 
   -0.38362E+08         0.12928E+06         0.00000E+00
    0.12928E+06        -0.59930E+08         0.00000E+00
    0.00000E+00         0.00000E+00        -0.45885E+08
 
   -0.38377E+08         0.17131E+06         0.00000E+00
    0.17131E+06        -0.59872E+08         0.00000E+00
    0.00000E+00         0.00000E+00        -0.45640E+08
 
   -0.38410E+08         0.20455E+06         0.00000E+00
    0.20455E+06        -0.59803E+08         0.00000E+00
    0.00000E+00         0.00000E+00        -0.45315E+08
 
   -0.38900E+08         0.19800E+06         0.00000E+00
    0.19800E+06        -0.59736E+08         0.00000E+00
    0.00000E+00         0.00000E+00        -0.45184E+08
 
   -0.39837E+08         0.17530E+06         0.00000E+00
    0.17530E+06        -0.59673E+08         0.00000E+00
    0.00000E+00         0.00000E+00        -0.45320E+08
 
   -0.40696E+08         0.18103E+06         0.00000E+00
    0.18103E+06        -0.59611E+08         0.00000E+00
    0.00000E+00         0.00000E+00        -0.45447E+08
 
   -0.41499E+08         0.21168E+06         0.00000E+00
    0.21168E+06        -0.59539E+08         0.00000E+00
    0.00000E+00         0.00000E+00        -0.45565E+08
 
   -0.42259E+08         0.26331E+06         0.00000E+00
    0.26331E+06        -0.59450E+08         0.00000E+00
    0.00000E+00         0.00000E+00        -0.45674E+08
 
   -0.42990E+08         0.33279E+06         0.00000E+00
    0.33279E+06        -0.59335E+08         0.00000E+00
    0.00000E+00         0.00000E+00        -0.45777E+08
 
   -0.43703E+08         0.41770E+06         0.00000E+00
    0.41770E+06        -0.59189E+08         0.00000E+00
    0.00000E+00         0.00000E+00        -0.45874E+08
 
   -0.44406E+08         0.51610E+06         0.00000E+00
    0.51610E+06        -0.59005E+08         0.00000E+00
    0.00000E+00         0.00000E+00        -0.45966E+08
 
   -0.45109E+08         0.62638E+06         0.00000E+00
    0.62638E+06        -0.58780E+08         0.00000E+00
    0.00000E+00         0.00000E+00        -0.46053E+08
 
   -0.45819E+08         0.74702E+06         0.00000E+00
    0.74702E+06        -0.58509E+08         0.00000E+00
    0.00000E+00         0.00000E+00        -0.46136E+08
 
   -0.38278E+08         0.37758E+05         0.00000E+00
    0.37758E+05        -0.59991E+08         0.00000E+00
    0.00000E+00         0.00000E+00        -0.45999E+08
 
   -0.38292E+08         0.11067E+06         0.00000E+00
    0.11067E+06        -0.59972E+08         0.00000E+00
    0.00000E+00         0.00000E+00        -0.45887E+08
 
   -0.38308E+08         0.17759E+06         0.00000E+00
    0.17759E+06        -0.59934E+08         0.00000E+00
    0.00000E+00         0.00000E+00        -0.45712E+08
 
   -0.38333E+08         0.23360E+06         0.00000E+00
    0.23360E+06        -0.59882E+08         0.00000E+00
    0.00000E+00         0.00000E+00        -0.45459E+08
 
   -0.38377E+08         0.27315E+06         0.00000E+00
    0.27315E+06        -0.59821E+08         0.00000E+00
    0.00000E+00         0.00000E+00        -0.45131E+08
 
   -0.38946E+08         0.25831E+06         0.00000E+00
    0.25831E+06        -0.59769E+08         0.00000E+00
    0.00000E+00         0.00000E+00        -0.45051E+08
 
   -0.39845E+08         0.22873E+06         0.00000E+00
    0.22873E+06        -0.59721E+08         0.00000E+00
    0.00000E+00         0.00000E+00        -0.45184E+08
 
   -0.40672E+08         0.24104E+06         0.00000E+00
    0.24104E+06        -0.59670E+08         0.00000E+00
    0.00000E+00         0.00000E+00        -0.45307E+08
 
   -0.41448E+08         0.28707E+06         0.00000E+00
    0.28707E+06        -0.59607E+08         0.00000E+00
    0.00000E+00         0.00000E+00        -0.45422E+08
 
   -0.42185E+08         0.36133E+06         0.00000E+00
    0.36133E+06        -0.59524E+08         0.00000E+00
    0.00000E+00         0.00000E+00        -0.45529E+08
 
   -0.42897E+08         0.45974E+06         0.00000E+00
    0.45974E+06        -0.59414E+08         0.00000E+00
    0.00000E+00         0.00000E+00        -0.45630E+08
 
   -0.43592E+08         0.57917E+06         0.00000E+00
    0.57917E+06        -0.59273E+08         0.00000E+00
    0.00000E+00         0.00000E+00        -0.45724E+08
 
   -0.44281E+08         0.71718E+06         0.00000E+00
    0.71718E+06        -0.59094E+08         0.00000E+00
    0.00000E+00         0.00000E+00        -0.45814E+08
 
   -0.44970E+08         0.87168E+06         0.00000E+00
    0.87168E+06        -0.58874E+08         0.00000E+00
    0.00000E+00         0.00000E+00        -0.45899E+08
 
   -0.45669E+08         0.10407E+07         0.00000E+00
    0.10407E+07        -0.58607E+08         0.00000E+00
    0.00000E+00         0.00000E+00        -0.45981E+08
 
   -0.38194E+08         0.47464E+05         0.00000E+00
    0.47464E+05        -0.59991E+08         0.00000E+00
    0.00000E+00         0.00000E+00        -0.45778E+08
 
   -0.38212E+08         0.13807E+06         0.00000E+00
    0.13807E+06        -0.59973E+08         0.00000E+00
    0.00000E+00         0.00000E+00        -0.45662E+08
 
   -0.38238E+08         0.22027E+06         0.00000E+00
    0.22027E+06        -0.59941E+08         0.00000E+00
    0.00000E+00         0.00000E+00        -0.45479E+08
 
   -0.38280E+08         0.28734E+06         0.00000E+00
    0.28734E+06        -0.59898E+08         0.00000E+00
    0.00000E+00         0.00000E+00        -0.45215E+08
 
   -0.38346E+08         0.32841E+06         0.00000E+00
    0.32841E+06        -0.59856E+08         0.00000E+00
    0.00000E+00         0.00000E+00        -0.44886E+08
 
   -0.39007E+08         0.29863E+06         0.00000E+00
    0.29863E+06        -0.59818E+08         0.00000E+00
    0.00000E+00         0.00000E+00        -0.44875E+08
 
   -0.39849E+08         0.26845E+06         0.00000E+00
    0.26845E+06        -0.59788E+08         0.00000E+00
    0.00000E+00         0.00000E+00        -0.45002E+08
 
   -0.40635E+08         0.29089E+06         0.00000E+00
    0.29089E+06        -0.59750E+08         0.00000E+00
    0.00000E+00         0.00000E+00        -0.45121E+08
 
   -0.41376E+08         0.35455E+06         0.00000E+00
    0.35455E+06        -0.59696E+08         0.00000E+00
    0.00000E+00         0.00000E+00        -0.45231E+08
 
   -0.42085E+08         0.45283E+06         0.00000E+00
    0.45283E+06        -0.59621E+08         0.00000E+00
    0.00000E+00         0.00000E+00        -0.45335E+08
 
   -0.42772E+08         0.58093E+06         0.00000E+00
    0.58093E+06        -0.59518E+08         0.00000E+00
    0.00000E+00         0.00000E+00        -0.45432E+08
 
   -0.43445E+08         0.73525E+06         0.00000E+00
    0.73525E+06        -0.59383E+08         0.00000E+00
    0.00000E+00         0.00000E+00        -0.45524E+08
 
   -0.44113E+08         0.91295E+06         0.00000E+00
    0.91295E+06        -0.59210E+08         0.00000E+00
    0.00000E+00         0.00000E+00        -0.45611E+08
 
   -0.44785E+08         0.11117E+07         0.00000E+00
    0.11117E+07        -0.58996E+08         0.00000E+00
    0.00000E+00         0.00000E+00        -0.45694E+08
 
   -0.45468E+08         0.13292E+07         0.00000E+00
    0.13292E+07        -0.58735E+08         0.00000E+00
    0.00000E+00         0.00000E+00        -0.45774E+08
 
   -0.38092E+08         0.56387E+05         0.00000E+00
    0.56387E+05        -0.59991E+08         0.00000E+00
    0.00000E+00         0.00000E+00        -0.45498E+08
 
   -0.38117E+08         0.16184E+06         0.00000E+00
    0.16184E+06        -0.59976E+08         0.00000E+00
    0.00000E+00         0.00000E+00        -0.45376E+08
 
   -0.38157E+08         0.25515E+06         0.00000E+00
    0.25515E+06        -0.59950E+08         0.00000E+00
    0.00000E+00         0.00000E+00        -0.45180E+08
 
   -0.38217E+08         0.32957E+06         0.00000E+00
    0.32957E+06        -0.59919E+08         0.00000E+00
    0.00000E+00         0.00000E+00        -0.44907E+08
 
   -0.38341E+08         0.36420E+06         0.00000E+00
    0.36420E+06        -0.59898E+08         0.00000E+00
    0.00000E+00         0.00000E+00        -0.44601E+08
 
   -0.39066E+08         0.31345E+06         0.00000E+00
    0.31345E+06        -0.59883E+08         0.00000E+00
    0.00000E+00         0.00000E+00        -0.44653E+08
 
   -0.39845E+08         0.29312E+06         0.00000E+00
    0.29312E+06        -0.59873E+08         0.00000E+00
    0.00000E+00         0.00000E+00        -0.44773E+08
 
   -0.40582E+08         0.32935E+06         0.00000E+00
    0.32935E+06        -0.59849E+08         0.00000E+00
    0.00000E+00         0.00000E+00        -0.44886E+08
 
   -0.41283E+08         0.41298E+06         0.00000E+00
    0.41298E+06        -0.59806E+08         0.00000E+00
    0.00000E+00         0.00000E+00        -0.44992E+08
 
   -0.41958E+08         0.53665E+06         0.00000E+00
    0.53665E+06        -0.59739E+08         0.00000E+00
    0.00000E+00         0.00000E+00        -0.45091E+08
 
   -0.42614E+08         0.69514E+06         0.00000E+00
    0.69514E+06        -0.59645E+08         0.00000E+00
    0.00000E+00         0.00000E+00        -0.45184E+08
 
   -0.43260E+08         0.88455E+06         0.00000E+00
    0.88455E+06        -0.59517E+08         0.00000E+00
    0.00000E+00         0.00000E+00        -0.45272E+08
 
   -0.43904E+08         0.11019E+07         0.00000E+00
    0.11019E+07        -0.59352E+08         0.00000E+00
    0.00000E+00         0.00000E+00        -0.45356E+08
 
   -0.44554E+08         0.13448E+07         0.00000E+00
    0.13448E+07        -0.59145E+08         0.00000E+00
    0.00000E+00         0.00000E+00        -0.45437E+08
 
   -0.45217E+08         0.16109E+07         0.00000E+00
    0.16109E+07        -0.58892E+08         0.00000E+00
    0.00000E+00         0.00000E+00        -0.45514E+08
 
   -0.37975E+08         0.63831E+05         0.00000E+00
    0.63831E+05        -0.59992E+08         0.00000E+00
    0.00000E+00         0.00000E+00        -0.45159E+08
 
   -0.38011E+08         0.18123E+06         0.00000E+00
    0.18123E+06        -0.59981E+08         0.00000E+00
    0.00000E+00         0.00000E+00        -0.45024E+08
 
   -0.38068E+08         0.28054E+06         0.00000E+00
    0.28054E+06        -0.59963E+08         0.00000E+00
    0.00000E+00         0.00000E+00        -0.44813E+08
 
   -0.38153E+08         0.35500E+06         0.00000E+00
    0.35500E+06        -0.59947E+08         0.00000E+00
    0.00000E+00         0.00000E+00        -0.44529E+08
 
   -0.38378E+08         0.36954E+06         0.00000E+00
    0.36954E+06        -0.59950E+08         0.00000E+00
    0.00000E+00         0.00000E+00        -0.44290E+08
 
   -0.39110E+08         0.30639E+06         0.00000E+00
    0.30639E+06        -0.59964E+08         0.00000E+00
    0.00000E+00         0.00000E+00        -0.44382E+08
 
   -0.39829E+08         0.30079E+06         0.00000E+00
    0.30079E+06        -0.59974E+08         0.00000E+00
    0.00000E+00         0.00000E+00        -0.44496E+08
 
   -0.40511E+08         0.35547E+06         0.00000E+00
    0.35547E+06        -0.59965E+08         0.00000E+00
    0.00000E+00         0.00000E+00        -0.44603E+08
 
   -0.41167E+08         0.46147E+06         0.00000E+00
    0.46147E+06        -0.59933E+08         0.00000E+00
    0.00000E+00         0.00000E+00        -0.44703E+08
 
   -0.41802E+08         0.61178E+06         0.00000E+00
    0.61178E+06        -0.59877E+08         0.00000E+00
    0.00000E+00         0.00000E+00        -0.44797E+08
 
   -0.42423E+08         0.80116E+06         0.00000E+00
    0.80116E+06        -0.59791E+08         0.00000E+00
    0.00000E+00         0.00000E+00        -0.44886E+08
 
   -0.43037E+08         0.10257E+07         0.00000E+00
    0.10257E+07        -0.59672E+08         0.00000E+00
    0.00000E+00         0.00000E+00        -0.44970E+08
 
   -0.43653E+08         0.12826E+07         0.00000E+00
    0.12826E+07        -0.59516E+08         0.00000E+00
    0.00000E+00         0.00000E+00        -0.45050E+08
 
   -0.44276E+08         0.15693E+07         0.00000E+00
    0.15693E+07        -0.59318E+08         0.00000E+00
    0.00000E+00         0.00000E+00        -0.45127E+08
 
   -0.44915E+08         0.18838E+07         0.00000E+00
    0.18838E+07        -0.59074E+08         0.00000E+00
    0.00000E+00         0.00000E+00        -0.45202E+08
 
   -0.37846E+08         0.69471E+05         0.00000E+00
    0.69471E+05        -0.59993E+08         0.00000E+00
    0.00000E+00         0.00000E+00        -0.44757E+08
 
   -0.37897E+08         0.19383E+06         0.00000E+00
    0.19383E+06        -0.59987E+08         0.00000E+00
    0.00000E+00         0.00000E+00        -0.44605E+08
 
   -0.37980E+08         0.29335E+06         0.00000E+00
    0.29335E+06        -0.59982E+08         0.00000E+00
    0.00000E+00         0.00000E+00        -0.44372E+08
 
   -0.38092E+08         0.35896E+06         0.00000E+00
    0.35896E+06        -0.59987E+08         0.00000E+00
    0.00000E+00         0.00000E+00        -0.44087E+08
 
   -0.38451E+08         0.33769E+06         0.00000E+00
    0.33769E+06        -0.60029E+08         0.00000E+00
    0.00000E+00         0.00000E+00        -0.43952E+08
 
   -0.39142E+08         0.27772E+06         0.00000E+00
    0.27772E+06        -0.60066E+08         0.00000E+00
    0.00000E+00         0.00000E+00        -0.44064E+08
 
   -0.39792E+08         0.29237E+06         0.00000E+00
    0.29237E+06        -0.60091E+08         0.00000E+00
    0.00000E+00         0.00000E+00        -0.44170E+08
 
   -0.40419E+08         0.36899E+06         0.00000E+00
    0.36899E+06        -0.60096E+08         0.00000E+00
    0.00000E+00         0.00000E+00        -0.44270E+08
 
   -0.41025E+08         0.49933E+06         0.00000E+00
    0.49933E+06        -0.60076E+08         0.00000E+00
    0.00000E+00         0.00000E+00        -0.44364E+08
 
   -0.41616E+08         0.67724E+06         0.00000E+00
    0.67724E+06        -0.60030E+08         0.00000E+00
    0.00000E+00         0.00000E+00        -0.44452E+08
 
   -0.42199E+08         0.89783E+06         0.00000E+00
    0.89783E+06        -0.59954E+08         0.00000E+00
    0.00000E+00         0.00000E+00        -0.44536E+08
 
   -0.42778E+08         0.11574E+07         0.00000E+00
    0.11574E+07        -0.59845E+08         0.00000E+00
    0.00000E+00         0.00000E+00        -0.44616E+08
 
   -0.43360E+08         0.14533E+07         0.00000E+00
    0.14533E+07        -0.59699E+08         0.00000E+00
    0.00000E+00         0.00000E+00        -0.44692E+08
 
   -0.43952E+08         0.17835E+07         0.00000E+00
    0.17835E+07        -0.59513E+08         0.00000E+00
    0.00000E+00         0.00000E+00        -0.44765E+08
 
   -0.44562E+08         0.21461E+07         0.00000E+00
    0.21461E+07        -0.59281E+08         0.00000E+00
    0.00000E+00         0.00000E+00        -0.44837E+08
 
   -0.37710E+08         0.72499E+05         0.00000E+00
    0.72499E+05        -0.59995E+08         0.00000E+00
    0.00000E+00         0.00000E+00        -0.44288E+08
 
   -0.37783E+08         0.19588E+06         0.00000E+00
    0.19588E+06        -0.59997E+08         0.00000E+00
    0.00000E+00         0.00000E+00        -0.44111E+08
 
   -0.37899E+08         0.28589E+06         0.00000E+00
    0.28589E+06        -0.60010E+08         0.00000E+00
    0.00000E+00         0.00000E+00        -0.43857E+08
 
   -0.38052E+08         0.32871E+06         0.00000E+00
    0.32871E+06        -0.60058E+08         0.00000E+00
    0.00000E+00         0.00000E+00        -0.43593E+08
 
   -0.38554E+08         0.27177E+06         0.00000E+00
    0.27177E+06        -0.60115E+08         0.00000E+00
    0.00000E+00         0.00000E+00        -0.43593E+08
 
   -0.39150E+08         0.23370E+06         0.00000E+00
    0.23370E+06        -0.60180E+08         0.00000E+00
    0.00000E+00         0.00000E+00        -0.43696E+08
 
   -0.39734E+08         0.27036E+06         0.00000E+00
    0.27036E+06        -0.60220E+08         0.00000E+00
    0.00000E+00         0.00000E+00        -0.43794E+08
 
   -0.40302E+08         0.37009E+06         0.00000E+00
    0.37009E+06        -0.60237E+08         0.00000E+00
    0.00000E+00         0.00000E+00        -0.43886E+08
 
   -0.40857E+08         0.52587E+06         0.00000E+00
    0.52587E+06        -0.60230E+08         0.00000E+00
    0.00000E+00         0.00000E+00        -0.43973E+08
 
   -0.41402E+08         0.73198E+06         0.00000E+00
    0.73198E+06        -0.60195E+08         0.00000E+00
    0.00000E+00         0.00000E+00        -0.44056E+08
 
   -0.41942E+08         0.98386E+06         0.00000E+00
    0.98386E+06        -0.60131E+08         0.00000E+00
    0.00000E+00         0.00000E+00        -0.44135E+08
 
   -0.42482E+08         0.12781E+07         0.00000E+00
    0.12781E+07        -0.60033E+08         0.00000E+00
    0.00000E+00         0.00000E+00        -0.44210E+08
 
   -0.43026E+08         0.16123E+07         0.00000E+00
    0.16123E+07        -0.59900E+08         0.00000E+00
    0.00000E+00         0.00000E+00        -0.44282E+08
 
   -0.43583E+08         0.19851E+07         0.00000E+00
    0.19851E+07        -0.59727E+08         0.00000E+00
    0.00000E+00         0.00000E+00        -0.44351E+08
 
   -0.44158E+08         0.23955E+07         0.00000E+00
    0.23955E+07        -0.59509E+08         0.00000E+00
    0.00000E+00         0.00000E+00        -0.44419E+08
 
   -0.37573E+08         0.71126E+05         0.00000E+00
    0.71126E+05        -0.59998E+08         0.00000E+00
    0.00000E+00         0.00000E+00        -0.43748E+08
 
   -0.37680E+08         0.18442E+06         0.00000E+00
    0.18442E+06        -0.60012E+08         0.00000E+00
    0.00000E+00         0.00000E+00        -0.43535E+08
 
   -0.37832E+08         0.25432E+06         0.00000E+00
    0.25432E+06        -0.60047E+08         0.00000E+00
    0.00000E+00         0.00000E+00        -0.43270E+08
 
   -0.38090E+08         0.25237E+06         0.00000E+00
    0.25237E+06        -0.60137E+08         0.00000E+00
    0.00000E+00         0.00000E+00        -0.43105E+08
 
   -0.38617E+08         0.18353E+06         0.00000E+00
    0.18353E+06        -0.60220E+08         0.00000E+00
    0.00000E+00         0.00000E+00        -0.43183E+08
 
   -0.39137E+08         0.17469E+06         0.00000E+00
    0.17469E+06        -0.60300E+08         0.00000E+00
    0.00000E+00         0.00000E+00        -0.43276E+08
 
   -0.39653E+08         0.23458E+06         0.00000E+00
    0.23458E+06        -0.60355E+08         0.00000E+00
    0.00000E+00         0.00000E+00        -0.43366E+08
 
   -0.40161E+08         0.35827E+06         0.00000E+00
    0.35827E+06        -0.60386E+08         0.00000E+00
    0.00000E+00         0.00000E+00        -0.43451E+08
 
   -0.40662E+08         0.54004E+06         0.00000E+00
    0.54004E+06        -0.60391E+08         0.00000E+00
    0.00000E+00         0.00000E+00        -0.43532E+08
 
   -0.41157E+08         0.77469E+06         0.00000E+00
    0.77469E+06        -0.60370E+08         0.00000E+00
    0.00000E+00         0.00000E+00        -0.43609E+08
 
   -0.41652E+08         0.10578E+07         0.00000E+00
    0.10578E+07        -0.60318E+08         0.00000E+00
    0.00000E+00         0.00000E+00        -0.43682E+08
 
   -0.42149E+08         0.13861E+07         0.00000E+00
    0.13861E+07        -0.60234E+08         0.00000E+00
    0.00000E+00         0.00000E+00        -0.43752E+08
 
   -0.42653E+08         0.17577E+07         0.00000E+00
    0.17577E+07        -0.60115E+08         0.00000E+00
    0.00000E+00         0.00000E+00        -0.43819E+08
 
   -0.43169E+08         0.21720E+07         0.00000E+00
    0.21720E+07        -0.59956E+08         0.00000E+00
    0.00000E+00         0.00000E+00        -0.43884E+08
 
   -0.43705E+08         0.26292E+07         0.00000E+00
    0.26292E+07        -0.59755E+08         0.00000E+00
    0.00000E+00         0.00000E+00        -0.43947E+08
 
   -0.37446E+08         0.63265E+05         0.00000E+00
    0.63265E+05        -0.60003E+08         0.00000E+00
    0.00000E+00         0.00000E+00        -0.43124E+08
 
   -0.37595E+08         0.15368E+06         0.00000E+00
    0.15368E+06        -0.60031E+08         0.00000E+00
    0.00000E+00         0.00000E+00        -0.42873E+08
 
   -0.37790E+08         0.18901E+06         0.00000E+00
    0.18901E+06        -0.60115E+08         0.00000E+00
    0.00000E+00         0.00000E+00        -0.42639E+08
 
   -0.38188E+08         0.13492E+06         0.00000E+00
    0.13492E+06        -0.60214E+08         0.00000E+00
    0.00000E+00         0.00000E+00        -0.42629E+08
 
   -0.38644E+08         0.83557E+05         0.00000E+00
    0.83557E+05        -0.60325E+08         0.00000E+00
    0.00000E+00         0.00000E+00        -0.42718E+08
 
   -0.39099E+08         0.10068E+06         0.00000E+00
    0.10068E+06        -0.60418E+08         0.00000E+00
    0.00000E+00         0.00000E+00        -0.42803E+08
 
   -0.39549E+08         0.18397E+06         0.00000E+00
    0.18397E+06        -0.60489E+08         0.00000E+00
    0.00000E+00         0.00000E+00        -0.42885E+08
 
   -0.39995E+08         0.33190E+06         0.00000E+00
    0.33190E+06        -0.60535E+08         0.00000E+00
    0.00000E+00         0.00000E+00        -0.42963E+08
 
   -0.40439E+08         0.54013E+06         0.00000E+00
    0.54013E+06        -0.60557E+08         0.00000E+00
    0.00000E+00         0.00000E+00        -0.43038E+08
 
   -0.40883E+08         0.80369E+06         0.00000E+00
    0.80369E+06        -0.60550E+08         0.00000E+00
    0.00000E+00         0.00000E+00        -0.43110E+08
 
   -0.41330E+08         0.11180E+07         0.00000E+00
    0.11180E+07        -0.60513E+08         0.00000E+00
    0.00000E+00         0.00000E+00        -0.43178E+08
 
   -0.41782E+08         0.14798E+07         0.00000E+00
    0.14798E+07        -0.60444E+08         0.00000E+00
    0.00000E+00         0.00000E+00        -0.43243E+08
 
   -0.42241E+08         0.18875E+07         0.00000E+00
    0.18875E+07        -0.60340E+08         0.00000E+00
    0.00000E+00         0.00000E+00        -0.43305E+08
 
   -0.42712E+08         0.23417E+07         0.00000E+00
    0.23417E+07        -0.60200E+08         0.00000E+00
    0.00000E+00         0.00000E+00        -0.43365E+08
 
   -0.43201E+08         0.28443E+07         0.00000E+00
    0.28443E+07        -0.60018E+08         0.00000E+00
    0.00000E+00         0.00000E+00        -0.43423E+08
 
   -0.37341E+08         0.47341E+05         0.00000E+00
    0.47341E+05        -0.60009E+08         0.00000E+00
    0.00000E+00         0.00000E+00        -0.42410E+08
 
   -0.37536E+08         0.10240E+06         0.00000E+00
    0.10240E+06        -0.60062E+08         0.00000E+00
    0.00000E+00         0.00000E+00        -0.42146E+08
 
   -0.37844E+08         0.74061E+05         0.00000E+00
    0.74061E+05        -0.60175E+08         0.00000E+00
    0.00000E+00         0.00000E+00        -0.42042E+08
 
   -0.38259E+08        -0.13149E+04         0.00000E+00
   -0.13149E+04        -0.60292E+08         0.00000E+00
    0.00000E+00         0.00000E+00        -0.42116E+08
 
   -0.38650E+08        -0.26738E+05         0.00000E+00
   -0.26738E+05        -0.60421E+08         0.00000E+00
    0.00000E+00         0.00000E+00        -0.42199E+08
 
   -0.39038E+08         0.10718E+05         0.00000E+00
    0.10718E+05        -0.60529E+08         0.00000E+00
    0.00000E+00         0.00000E+00        -0.42277E+08
 
   -0.39421E+08         0.11628E+06         0.00000E+00
    0.11628E+06        -0.60617E+08         0.00000E+00
    0.00000E+00         0.00000E+00        -0.42352E+08
 
   -0.39804E+08         0.28861E+06         0.00000E+00
    0.28861E+06        -0.60682E+08         0.00000E+00
    0.00000E+00         0.00000E+00        -0.42423E+08
 
   -0.40188E+08         0.52384E+06         0.00000E+00
    0.52384E+06        -0.60722E+08         0.00000E+00
    0.00000E+00         0.00000E+00        -0.42492E+08
 
   -0.40578E+08         0.81682E+06         0.00000E+00
    0.81682E+06        -0.60732E+08         0.00000E+00
    0.00000E+00         0.00000E+00        -0.42558E+08
 
   -0.40975E+08         0.11626E+07         0.00000E+00
    0.11626E+07        -0.60712E+08         0.00000E+00
    0.00000E+00         0.00000E+00        -0.42622E+08
 
   -0.41380E+08         0.15573E+07         0.00000E+00
    0.15573E+07        -0.60660E+08         0.00000E+00
    0.00000E+00         0.00000E+00        -0.42682E+08
 
   -0.41792E+08         0.19996E+07         0.00000E+00
    0.19996E+07        -0.60575E+08         0.00000E+00
    0.00000E+00         0.00000E+00        -0.42740E+08
 
   -0.42214E+08         0.24912E+07         0.00000E+00
    0.24912E+07        -0.60454E+08         0.00000E+00
    0.00000E+00         0.00000E+00        -0.42794E+08
 
   -0.42650E+08         0.30370E+07         0.00000E+00
    0.30370E+07        -0.60296E+08         0.00000E+00
    0.00000E+00         0.00000E+00        -0.42847E+08
 
   -0.37270E+08         0.21971E+05         0.00000E+00
    0.21971E+05        -0.60018E+08         0.00000E+00
    0.00000E+00         0.00000E+00        -0.41608E+08
 
   -0.37541E+08         0.13952E+05         0.00000E+00
    0.13952E+05        -0.60117E+08         0.00000E+00
    0.00000E+00         0.00000E+00        -0.41417E+08
 
   -0.37951E+08        -0.71758E+05         0.00000E+00
   -0.71758E+05        -0.60219E+08         0.00000E+00
    0.00000E+00         0.00000E+00        -0.41468E+08
 
   -0.38304E+08        -0.14075E+06         0.00000E+00
   -0.14075E+06        -0.60363E+08         0.00000E+00
    0.00000E+00         0.00000E+00        -0.41550E+08
 
   -0.38638E+08        -0.15261E+06         0.00000E+00
   -0.15261E+06        -0.60502E+08         0.00000E+00
    0.00000E+00         0.00000E+00        -0.41626E+08
 
   -0.38957E+08        -0.97541E+05         0.00000E+00
   -0.97541E+05        -0.60628E+08         0.00000E+00
    0.00000E+00         0.00000E+00        -0.41697E+08
 
   -0.39271E+08         0.28834E+05         0.00000E+00
    0.28834E+05        -0.60737E+08         0.00000E+00
    0.00000E+00         0.00000E+00        -0.41765E+08
 
   -0.39586E+08         0.22562E+06         0.00000E+00
    0.22562E+06        -0.60823E+08         0.00000E+00
    0.00000E+00         0.00000E+00        -0.41830E+08
 
   -0.39909E+08         0.48842E+06         0.00000E+00
    0.48842E+06        -0.60883E+08         0.00000E+00
    0.00000E+00         0.00000E+00        -0.41893E+08
 
   -0.40243E+08         0.81145E+06         0.00000E+00
    0.81145E+06        -0.60914E+08         0.00000E+00
    0.00000E+00         0.00000E+00        -0.41955E+08
 
   -0.40589E+08         0.11889E+07         0.00000E+00
    0.11889E+07        -0.60914E+08         0.00000E+00
    0.00000E+00         0.00000E+00        -0.42014E+08
 
   -0.40945E+08         0.16163E+07         0.00000E+00
    0.16163E+07        -0.60881E+08         0.00000E+00
    0.00000E+00         0.00000E+00        -0.42071E+08
 
   -0.41309E+08         0.20915E+07         0.00000E+00
    0.20915E+07        -0.60817E+08         0.00000E+00
    0.00000E+00         0.00000E+00        -0.42124E+08
 
   -0.41678E+08         0.26174E+07         0.00000E+00
    0.26174E+07        -0.60720E+08         0.00000E+00
    0.00000E+00         0.00000E+00        -0.42174E+08
 
   -0.42052E+08         0.32028E+07         0.00000E+00
    0.32028E+07        -0.60588E+08         0.00000E+00
    0.00000E+00         0.00000E+00        -0.42220E+08
 
   -0.37244E+08        -0.19416E+05         0.00000E+00
   -0.19416E+05        -0.60055E+08         0.00000E+00
    0.00000E+00         0.00000E+00        -0.40769E+08
 
   -0.37667E+08        -0.10754E+06         0.00000E+00
   -0.10754E+06        -0.60124E+08         0.00000E+00
    0.00000E+00         0.00000E+00        -0.40766E+08
 
   -0.38038E+08        -0.22262E+06         0.00000E+00
   -0.22262E+06        -0.60255E+08         0.00000E+00
    0.00000E+00         0.00000E+00        -0.40854E+08
 
   -0.38345E+08        -0.29014E+06         0.00000E+00
   -0.29014E+06        -0.60410E+08         0.00000E+00
    0.00000E+00         0.00000E+00        -0.40932E+08
 
   -0.38612E+08        -0.29558E+06         0.00000E+00
   -0.29558E+06        -0.60565E+08         0.00000E+00
    0.00000E+00         0.00000E+00        -0.41001E+08
 
   -0.38858E+08        -0.22688E+06         0.00000E+00
   -0.22688E+06        -0.60712E+08         0.00000E+00
    0.00000E+00         0.00000E+00        -0.41065E+08
 
   -0.39098E+08        -0.80958E+05         0.00000E+00
   -0.80958E+05        -0.60843E+08         0.00000E+00
    0.00000E+00         0.00000E+00        -0.41125E+08
 
   -0.39342E+08         0.14017E+06         0.00000E+00
    0.14017E+06        -0.60953E+08         0.00000E+00
    0.00000E+00         0.00000E+00        -0.41184E+08
 
   -0.39601E+08         0.43096E+06         0.00000E+00
    0.43096E+06        -0.61037E+08         0.00000E+00
    0.00000E+00         0.00000E+00        -0.41242E+08
 
   -0.39876E+08         0.78432E+06         0.00000E+00
    0.78432E+06        -0.61091E+08         0.00000E+00
    0.00000E+00         0.00000E+00        -0.41299E+08
 
   -0.40170E+08         0.11936E+07         0.00000E+00
    0.11936E+07        -0.61115E+08         0.00000E+00
    0.00000E+00         0.00000E+00        -0.41355E+08
 
   -0.40478E+08         0.16534E+07         0.00000E+00
    0.16534E+07        -0.61107E+08         0.00000E+00
    0.00000E+00         0.00000E+00        -0.41409E+08
 
   -0.40794E+08         0.21604E+07         0.00000E+00
    0.21604E+07        -0.61067E+08         0.00000E+00
    0.00000E+00         0.00000E+00        -0.41459E+08
 
   -0.41108E+08         0.27164E+07         0.00000E+00
    0.27164E+07        -0.60997E+08         0.00000E+00
    0.00000E+00         0.00000E+00        -0.41504E+08
 
   -0.41412E+08         0.33354E+07         0.00000E+00
    0.33354E+07        -0.60898E+08         0.00000E+00
    0.00000E+00         0.00000E+00        -0.41543E+08
 
   -0.37341E+08        -0.76522E+05         0.00000E+00
   -0.76522E+05        -0.60050E+08         0.00000E+00
    0.00000E+00         0.00000E+00        -0.40014E+08
 
   -0.37811E+08        -0.23977E+06         0.00000E+00
   -0.23977E+06        -0.60124E+08         0.00000E+00
    0.00000E+00         0.00000E+00        -0.40109E+08
 
   -0.38141E+08        -0.37617E+06         0.00000E+00
   -0.37617E+06        -0.60271E+08         0.00000E+00
    0.00000E+00         0.00000E+00        -0.40195E+08
 
   -0.38385E+08        -0.45467E+06         0.00000E+00
   -0.45467E+06        -0.60437E+08         0.00000E+00
    0.00000E+00         0.00000E+00        -0.40265E+08
 
   -0.38578E+08        -0.45809E+06         0.00000E+00
   -0.45809E+06        -0.60609E+08         0.00000E+00
    0.00000E+00         0.00000E+00        -0.40325E+08
 
   -0.38743E+08        -0.37885E+06         0.00000E+00
   -0.37885E+06        -0.60777E+08         0.00000E+00
    0.00000E+00         0.00000E+00        -0.40380E+08
 
   -0.38903E+08        -0.21497E+06         0.00000E+00
   -0.21497E+06        -0.60932E+08         0.00000E+00
    0.00000E+00         0.00000E+00        -0.40433E+08
 
   -0.39073E+08         0.30061E+05         0.00000E+00
    0.30061E+05        -0.61067E+08         0.00000E+00
    0.00000E+00         0.00000E+00        -0.40485E+08
 
   -0.39263E+08         0.34860E+06         0.00000E+00
    0.34860E+06        -0.61177E+08         0.00000E+00
    0.00000E+00         0.00000E+00        -0.40537E+08
 
   -0.39479E+08         0.73162E+06         0.00000E+00
    0.73162E+06        -0.61258E+08         0.00000E+00
    0.00000E+00         0.00000E+00        -0.40591E+08
 
   -0.39719E+08         0.11714E+07         0.00000E+00
    0.11714E+07        -0.61311E+08         0.00000E+00
    0.00000E+00         0.00000E+00        -0.40645E+08
 
   -0.39978E+08         0.16627E+07         0.00000E+00
    0.16627E+07        -0.61334E+08         0.00000E+00
    0.00000E+00         0.00000E+00        -0.40697E+08
 
   -0.40249E+08         0.22010E+07         0.00000E+00
    0.22010E+07        -0.61326E+08         0.00000E+00
    0.00000E+00         0.00000E+00        -0.40747E+08
 
   -0.40511E+08         0.27838E+07         0.00000E+00
    0.27838E+07        -0.61290E+08         0.00000E+00
    0.00000E+00         0.00000E+00        -0.40790E+08
 
   -0.40736E+08         0.34258E+07         0.00000E+00
    0.34258E+07        -0.61234E+08         0.00000E+00
    0.00000E+00         0.00000E+00        -0.40822E+08
 
   -0.37550E+08        -0.13785E+06         0.00000E+00
   -0.13785E+06        -0.60026E+08         0.00000E+00
    0.00000E+00         0.00000E+00        -0.39312E+08
 
   -0.37991E+08        -0.36885E+06         0.00000E+00
   -0.36885E+06        -0.60122E+08         0.00000E+00
    0.00000E+00         0.00000E+00        -0.39415E+08
 
   -0.38262E+08        -0.53981E+06         0.00000E+00
   -0.53981E+06        -0.60270E+08         0.00000E+00
    0.00000E+00         0.00000E+00        -0.39491E+08
 
   -0.38432E+08        -0.63341E+06         0.00000E+00
   -0.63341E+06        -0.60447E+08         0.00000E+00
    0.00000E+00         0.00000E+00        -0.39551E+08
 
   -0.38539E+08        -0.63951E+06         0.00000E+00
   -0.63951E+06        -0.60634E+08         0.00000E+00
    0.00000E+00         0.00000E+00        -0.39600E+08
 
   -0.38616E+08        -0.55288E+06         0.00000E+00
   -0.55288E+06        -0.60821E+08         0.00000E+00
    0.00000E+00         0.00000E+00        -0.39645E+08
 
   -0.38688E+08        -0.37344E+06         0.00000E+00
   -0.37344E+06        -0.60998E+08         0.00000E+00
    0.00000E+00         0.00000E+00        -0.39687E+08
 
   -0.38777E+08        -0.10595E+06         0.00000E+00
   -0.10595E+06        -0.61158E+08         0.00000E+00
    0.00000E+00         0.00000E+00        -0.39732E+08
 
   -0.38898E+08         0.23926E+06         0.00000E+00
    0.23926E+06        -0.61294E+08         0.00000E+00
    0.00000E+00         0.00000E+00        -0.39779E+08
 
   -0.39053E+08         0.64904E+06         0.00000E+00
    0.64904E+06        -0.61405E+08         0.00000E+00
    0.00000E+00         0.00000E+00        -0.39830E+08
 
   -0.39239E+08         0.11157E+07         0.00000E+00
    0.11157E+07        -0.61493E+08         0.00000E+00
    0.00000E+00         0.00000E+00        -0.39883E+08
 
   -0.39449E+08         0.16348E+07         0.00000E+00
    0.16348E+07        -0.61555E+08         0.00000E+00
    0.00000E+00         0.00000E+00        -0.39936E+08
 
   -0.39674E+08         0.22015E+07         0.00000E+00
    0.22015E+07        -0.61594E+08         0.00000E+00
    0.00000E+00         0.00000E+00        -0.39988E+08
 
   -0.39896E+08         0.28083E+07         0.00000E+00
    0.28083E+07        -0.61610E+08         0.00000E+00
    0.00000E+00         0.00000E+00        -0.40035E+08
 
   -0.40039E+08         0.34552E+07         0.00000E+00
    0.34552E+07        -0.61625E+08         0.00000E+00
    0.00000E+00         0.00000E+00        -0.40066E+08
 
   -0.37859E+08        -0.19152E+06         0.00000E+00
   -0.19152E+06        -0.60023E+08         0.00000E+00
    0.00000E+00         0.00000E+00        -0.38600E+08
 
   -0.38221E+08        -0.49785E+06         0.00000E+00
   -0.49785E+06        -0.60113E+08         0.00000E+00
    0.00000E+00         0.00000E+00        -0.38687E+08
 
   -0.38411E+08        -0.70854E+06         0.00000E+00
   -0.70854E+06        -0.60261E+08         0.00000E+00
    0.00000E+00         0.00000E+00        -0.38749E+08
 
   -0.38489E+08        -0.82236E+06         0.00000E+00
   -0.82236E+06        -0.60442E+08         0.00000E+00
    0.00000E+00         0.00000E+00        -0.38794E+08
 
   -0.38499E+08        -0.83510E+06         0.00000E+00
   -0.83510E+06        -0.60638E+08         0.00000E+00
    0.00000E+00         0.00000E+00        -0.38828E+08
 
   -0.38478E+08        -0.74491E+06         0.00000E+00
   -0.74491E+06        -0.60837E+08         0.00000E+00
    0.00000E+00         0.00000E+00        -0.38859E+08
 
   -0.38456E+08        -0.55318E+06         0.00000E+00
   -0.55318E+06        -0.61030E+08         0.00000E+00
    0.00000E+00         0.00000E+00        -0.38890E+08
 
   -0.38458E+08        -0.26730E+06         0.00000E+00
   -0.26730E+06        -0.61209E+08         0.00000E+00
    0.00000E+00         0.00000E+00        -0.38925E+08
 
   -0.38507E+08         0.10091E+06         0.00000E+00
    0.10091E+06        -0.61373E+08         0.00000E+00
    0.00000E+00         0.00000E+00        -0.38967E+08
 
   -0.38605E+08         0.53238E+06         0.00000E+00
    0.53238E+06        -0.61519E+08         0.00000E+00
    0.00000E+00         0.00000E+00        -0.39017E+08
 
   -0.38735E+08         0.10176E+07         0.00000E+00
    0.10176E+07        -0.61646E+08         0.00000E+00
    0.00000E+00         0.00000E+00        -0.39070E+08
 
   -0.38892E+08         0.15590E+07         0.00000E+00
    0.15590E+07        -0.61764E+08         0.00000E+00
    0.00000E+00         0.00000E+00        -0.39126E+08
 
   -0.39071E+08         0.21484E+07         0.00000E+00
    0.21484E+07        -0.61853E+08         0.00000E+00
    0.00000E+00         0.00000E+00        -0.39196E+08
 
   -0.39259E+08         0.27751E+07         0.00000E+00
    0.27751E+07        -0.61913E+08         0.00000E+00
    0.00000E+00         0.00000E+00        -0.39288E+08
 
   -0.39419E+08         0.33945E+07         0.00000E+00
    0.33945E+07        -0.61963E+08         0.00000E+00
    0.00000E+00         0.00000E+00        -0.39413E+08
 
   -0.38261E+08        -0.24052E+06         0.00000E+00
   -0.24052E+06        -0.60021E+08         0.00000E+00
    0.00000E+00         0.00000E+00        -0.37867E+08
 
   -0.38508E+08        -0.62047E+06         0.00000E+00
   -0.62047E+06        -0.60105E+08         0.00000E+00
    0.00000E+00         0.00000E+00        -0.37930E+08
 
   -0.38590E+08        -0.87563E+06         0.00000E+00
   -0.87563E+06        -0.60247E+08         0.00000E+00
    0.00000E+00         0.00000E+00        -0.37971E+08
 
   -0.38561E+08        -0.10132E+07         0.00000E+00
   -0.10132E+07        -0.60423E+08         0.00000E+00
    0.00000E+00         0.00000E+00        -0.37996E+08
 
   -0.38463E+08        -0.10362E+07         0.00000E+00
   -0.10362E+07        -0.60617E+08         0.00000E+00
    0.00000E+00         0.00000E+00        -0.38012E+08
 
   -0.38335E+08        -0.94617E+06         0.00000E+00
   -0.94617E+06        -0.60818E+08         0.00000E+00
    0.00000E+00         0.00000E+00        -0.38024E+08
 
   -0.38209E+08        -0.74617E+06         0.00000E+00
   -0.74617E+06        -0.61015E+08         0.00000E+00
    0.00000E+00         0.00000E+00        -0.38039E+08
 
   -0.38122E+08        -0.44437E+06         0.00000E+00
   -0.44437E+06        -0.61204E+08         0.00000E+00
    0.00000E+00         0.00000E+00        -0.38062E+08
 
   -0.38094E+08        -0.65710E+05         0.00000E+00
   -0.65710E+05        -0.61373E+08         0.00000E+00
    0.00000E+00         0.00000E+00        -0.38107E+08
 
   -0.38137E+08         0.37858E+06         0.00000E+00
    0.37858E+06        -0.61541E+08         0.00000E+00
    0.00000E+00         0.00000E+00        -0.38196E+08
 
   -0.38197E+08         0.89279E+06         0.00000E+00
    0.89279E+06        -0.61687E+08         0.00000E+00
    0.00000E+00         0.00000E+00        -0.38287E+08
 
   -0.38307E+08         0.14702E+07         0.00000E+00
    0.14702E+07        -0.61782E+08         0.00000E+00
    0.00000E+00         0.00000E+00        -0.38424E+08
 
   -0.38449E+08         0.20913E+07         0.00000E+00
    0.20913E+07        -0.61846E+08         0.00000E+00
    0.00000E+00         0.00000E+00        -0.38586E+08
 
   -0.38635E+08         0.27249E+07         0.00000E+00
    0.27249E+07        -0.61897E+08         0.00000E+00
    0.00000E+00         0.00000E+00        -0.38773E+08
 
   -0.38891E+08         0.33115E+07         0.00000E+00
    0.33115E+07        -0.61966E+08         0.00000E+00
    0.00000E+00         0.00000E+00        -0.38958E+08
 
   -0.38750E+08        -0.28547E+06         0.00000E+00
   -0.28547E+06        -0.60019E+08         0.00000E+00
    0.00000E+00         0.00000E+00        -0.37112E+08
 
   -0.38852E+08        -0.73417E+06         0.00000E+00
   -0.73417E+06        -0.60096E+08         0.00000E+00
    0.00000E+00         0.00000E+00        -0.37146E+08
 
   -0.38803E+08        -0.10334E+07         0.00000E+00
   -0.10334E+07        -0.60226E+08         0.00000E+00
    0.00000E+00         0.00000E+00        -0.37160E+08
 
   -0.38649E+08        -0.11961E+07         0.00000E+00
   -0.11961E+07        -0.60389E+08         0.00000E+00
    0.00000E+00         0.00000E+00        -0.37160E+08
 
   -0.38433E+08        -0.12308E+07         0.00000E+00
   -0.12308E+07        -0.60570E+08         0.00000E+00
    0.00000E+00         0.00000E+00        -0.37153E+08
 
   -0.38188E+08        -0.11429E+07         0.00000E+00
   -0.11429E+07        -0.60758E+08         0.00000E+00
    0.00000E+00         0.00000E+00        -0.37143E+08
 
   -0.37951E+08        -0.93554E+06         0.00000E+00
   -0.93554E+06        -0.60942E+08         0.00000E+00
    0.00000E+00         0.00000E+00        -0.37137E+08
 
   -0.37765E+08        -0.62159E+06         0.00000E+00
   -0.62159E+06        -0.61109E+08         0.00000E+00
    0.00000E+00         0.00000E+00        -0.37157E+08
 
   -0.37665E+08        -0.22444E+06         0.00000E+00
   -0.22444E+06        -0.61271E+08         0.00000E+00
    0.00000E+00         0.00000E+00        -0.37253E+08
 
   -0.37643E+08         0.24678E+06         0.00000E+00
    0.24678E+06        -0.61407E+08         0.00000E+00
    0.00000E+00         0.00000E+00        -0.37441E+08
 
   -0.37644E+08         0.78726E+06         0.00000E+00
    0.78726E+06        -0.61515E+08         0.00000E+00
    0.00000E+00         0.00000E+00        -0.37643E+08
 
   -0.37697E+08         0.13833E+07         0.00000E+00
    0.13833E+07        -0.61612E+08         0.00000E+00
    0.00000E+00         0.00000E+00        -0.37850E+08
 
   -0.37819E+08         0.20142E+07         0.00000E+00
    0.20142E+07        -0.61703E+08         0.00000E+00
    0.00000E+00         0.00000E+00        -0.38061E+08
 
   -0.38022E+08         0.26459E+07         0.00000E+00
    0.26459E+07        -0.61792E+08         0.00000E+00
    0.00000E+00         0.00000E+00        -0.38261E+08
 
   -0.38309E+08         0.32592E+07         0.00000E+00
    0.32592E+07        -0.61860E+08         0.00000E+00
    0.00000E+00         0.00000E+00        -0.38414E+08
 
   -0.39318E+08        -0.32576E+06         0.00000E+00
   -0.32576E+06        -0.60017E+08         0.00000E+00
    0.00000E+00         0.00000E+00        -0.36338E+08
 
   -0.39249E+08        -0.83625E+06         0.00000E+00
   -0.83625E+06        -0.60084E+08         0.00000E+00
    0.00000E+00         0.00000E+00        -0.36337E+08
 
   -0.39048E+08        -0.11753E+07         0.00000E+00
   -0.11753E+07        -0.60198E+08         0.00000E+00
    0.00000E+00         0.00000E+00        -0.36319E+08
 
   -0.38755E+08        -0.13608E+07         0.00000E+00
   -0.13608E+07        -0.60341E+08         0.00000E+00
    0.00000E+00         0.00000E+00        -0.36289E+08
 
   -0.38408E+08        -0.14057E+07         0.00000E+00
   -0.14057E+07        -0.60498E+08         0.00000E+00
    0.00000E+00         0.00000E+00        -0.36254E+08
 
   -0.38038E+08        -0.13183E+07         0.00000E+00
   -0.13183E+07        -0.60658E+08         0.00000E+00
    0.00000E+00         0.00000E+00        -0.36218E+08
 
   -0.37674E+08        -0.11008E+07         0.00000E+00
   -0.11008E+07        -0.60812E+08         0.00000E+00
    0.00000E+00         0.00000E+00        -0.36185E+08
 
   -0.37388E+08        -0.76862E+06         0.00000E+00
   -0.76862E+06        -0.60946E+08         0.00000E+00
    0.00000E+00         0.00000E+00        -0.36234E+08
 
   -0.37235E+08        -0.35888E+06         0.00000E+00
   -0.35888E+06        -0.61082E+08         0.00000E+00
    0.00000E+00         0.00000E+00        -0.36449E+08
 
   -0.37128E+08         0.12371E+06         0.00000E+00
    0.12371E+06        -0.61204E+08         0.00000E+00
    0.00000E+00         0.00000E+00        -0.36709E+08
 
   -0.37069E+08         0.67664E+06         0.00000E+00
    0.67664E+06        -0.61322E+08         0.00000E+00
    0.00000E+00         0.00000E+00        -0.36972E+08
 
   -0.37080E+08         0.12793E+07         0.00000E+00
    0.12793E+07        -0.61434E+08         0.00000E+00
    0.00000E+00         0.00000E+00        -0.37229E+08
 
   -0.37182E+08         0.19144E+07         0.00000E+00
    0.19144E+07        -0.61543E+08         0.00000E+00
    0.00000E+00         0.00000E+00        -0.37467E+08
 
   -0.37385E+08         0.25654E+07         0.00000E+00
    0.25654E+07        -0.61637E+08         0.00000E+00
    0.00000E+00         0.00000E+00        -0.37668E+08
 
   -0.37686E+08         0.32164E+07         0.00000E+00
    0.32164E+07        -0.61700E+08         0.00000E+00
    0.00000E+00         0.00000E+00        -0.37808E+08
 
   -0.39954E+08        -0.36069E+06         0.00000E+00
   -0.36069E+06        -0.60015E+08         0.00000E+00
    0.00000E+00         0.00000E+00        -0.35544E+08
 
   -0.39693E+08        -0.92408E+06         0.00000E+00
   -0.92408E+06        -0.60071E+08         0.00000E+00
    0.00000E+00         0.00000E+00        -0.35504E+08
 
   -0.39320E+08        -0.12960E+07         0.00000E+00
   -0.12960E+07        -0.60166E+08         0.00000E+00
    0.00000E+00         0.00000E+00        -0.35449E+08
 
   -0.38875E+08        -0.14984E+07         0.00000E+00
   -0.14984E+07        -0.60281E+08         0.00000E+00
    0.00000E+00         0.00000E+00        -0.35387E+08
 
   -0.38387E+08        -0.15491E+07         0.00000E+00
   -0.15491E+07        -0.60405E+08         0.00000E+00
    0.00000E+00         0.00000E+00        -0.35319E+08
 
   -0.37882E+08        -0.14591E+07         0.00000E+00
   -0.14591E+07        -0.60527E+08         0.00000E+00
    0.00000E+00         0.00000E+00        -0.35252E+08
 
   -0.37383E+08        -0.12293E+07         0.00000E+00
   -0.12293E+07        -0.60641E+08         0.00000E+00
    0.00000E+00         0.00000E+00        -0.35198E+08
 
   -0.37012E+08        -0.89259E+06         0.00000E+00
   -0.89259E+06        -0.60755E+08         0.00000E+00
    0.00000E+00         0.00000E+00        -0.35315E+08
 
   -0.36790E+08        -0.48259E+06         0.00000E+00
   -0.48259E+06        -0.60866E+08         0.00000E+00
    0.00000E+00         0.00000E+00        -0.35617E+08
 
   -0.36607E+08         0.36113E+04         0.00000E+00
    0.36113E+04        -0.60982E+08         0.00000E+00
    0.00000E+00         0.00000E+00        -0.35927E+08
 
   -0.36489E+08         0.55659E+06         0.00000E+00
    0.55659E+06        -0.61100E+08         0.00000E+00
    0.00000E+00         0.00000E+00        -0.36233E+08
 
   -0.36457E+08         0.11625E+07         0.00000E+00
    0.11625E+07        -0.61221E+08         0.00000E+00
    0.00000E+00         0.00000E+00        -0.36527E+08
 
   -0.36529E+08         0.18092E+07         0.00000E+00
    0.18092E+07        -0.61335E+08         0.00000E+00
    0.00000E+00         0.00000E+00        -0.36791E+08
 
   -0.36716E+08         0.24855E+07         0.00000E+00
    0.24855E+07        -0.61432E+08         0.00000E+00
    0.00000E+00         0.00000E+00        -0.37005E+08
 
   -0.37022E+08         0.31737E+07         0.00000E+00
    0.31737E+07        -0.61498E+08         0.00000E+00
    0.00000E+00         0.00000E+00        -0.37151E+08
 
   -0.40650E+08        -0.38990E+06         0.00000E+00
   -0.38990E+06        -0.60012E+08         0.00000E+00
    0.00000E+00         0.00000E+00        -0.34734E+08
 
   -0.40174E+08        -0.99594E+06         0.00000E+00
   -0.99594E+06        -0.60058E+08         0.00000E+00
    0.00000E+00         0.00000E+00        -0.34649E+08
 
   -0.39613E+08        -0.13913E+07         0.00000E+00
   -0.13913E+07        -0.60131E+08         0.00000E+00
    0.00000E+00         0.00000E+00        -0.34554E+08
 
   -0.39001E+08        -0.16025E+07         0.00000E+00
   -0.16025E+07        -0.60215E+08         0.00000E+00
    0.00000E+00         0.00000E+00        -0.34454E+08
 
   -0.38365E+08        -0.16525E+07         0.00000E+00
   -0.16525E+07        -0.60298E+08         0.00000E+00
    0.00000E+00         0.00000E+00        -0.34353E+08
 
   -0.37719E+08        -0.15566E+07         0.00000E+00
   -0.15566E+07        -0.60376E+08         0.00000E+00
    0.00000E+00         0.00000E+00        -0.34252E+08
 
   -0.37082E+08        -0.13236E+07         0.00000E+00
   -0.13236E+07        -0.60448E+08         0.00000E+00
    0.00000E+00         0.00000E+00        -0.34184E+08
 
   -0.36651E+08        -0.99527E+06         0.00000E+00
   -0.99527E+06        -0.60531E+08         0.00000E+00
    0.00000E+00         0.00000E+00        -0.34389E+08
 
   -0.36343E+08        -0.59200E+06         0.00000E+00
   -0.59200E+06        -0.60623E+08         0.00000E+00
    0.00000E+00         0.00000E+00        -0.34727E+08
 
   -0.36088E+08        -0.11101E+06         0.00000E+00
   -0.11101E+06        -0.60725E+08         0.00000E+00
    0.00000E+00         0.00000E+00        -0.35069E+08
 
   -0.35909E+08         0.43644E+06         0.00000E+00
    0.43644E+06        -0.60837E+08         0.00000E+00
    0.00000E+00         0.00000E+00        -0.35408E+08
 
   -0.35826E+08         0.10422E+07         0.00000E+00
    0.10422E+07        -0.60956E+08         0.00000E+00
    0.00000E+00         0.00000E+00        -0.35734E+08
 
   -0.35857E+08         0.16996E+07         0.00000E+00
    0.16996E+07        -0.61074E+08         0.00000E+00
    0.00000E+00         0.00000E+00        -0.36029E+08
 
   -0.36017E+08         0.23992E+07         0.00000E+00
    0.23992E+07        -0.61179E+08         0.00000E+00
    0.00000E+00         0.00000E+00        -0.36273E+08
 
   -0.36318E+08         0.31235E+07         0.00000E+00
    0.31235E+07        -0.61256E+08         0.00000E+00
    0.00000E+00         0.00000E+00        -0.36442E+08
 
   -0.41393E+08        -0.41371E+06         0.00000E+00
   -0.41371E+06        -0.60010E+08         0.00000E+00
    0.00000E+00         0.00000E+00        -0.33907E+08
 
   -0.40682E+08        -0.10513E+07         0.00000E+00
   -0.10513E+07        -0.60045E+08         0.00000E+00
    0.00000E+00         0.00000E+00        -0.33774E+08
 
   -0.39916E+08        -0.14587E+07         0.00000E+00
   -0.14587E+07        -0.60096E+08         0.00000E+00
    0.00000E+00         0.00000E+00        -0.33636E+08
 
   -0.39127E+08        -0.16680E+07         0.00000E+00
   -0.16680E+07        -0.60145E+08         0.00000E+00
    0.00000E+00         0.00000E+00        -0.33496E+08
 
   -0.38337E+08        -0.17102E+07         0.00000E+00
   -0.17102E+07        -0.60183E+08         0.00000E+00
    0.00000E+00         0.00000E+00        -0.33357E+08
 
   -0.37550E+08        -0.16080E+07         0.00000E+00
   -0.16080E+07        -0.60213E+08         0.00000E+00
    0.00000E+00         0.00000E+00        -0.33222E+08
 
   -0.36796E+08        -0.13819E+07         0.00000E+00
   -0.13819E+07        -0.60237E+08         0.00000E+00
    0.00000E+00         0.00000E+00        -0.33151E+08
 
   -0.36299E+08        -0.10674E+07         0.00000E+00
   -0.10674E+07        -0.60284E+08         0.00000E+00
    0.00000E+00         0.00000E+00        -0.33411E+08
 
   -0.35906E+08        -0.67770E+06         0.00000E+00
   -0.67770E+06        -0.60344E+08         0.00000E+00
    0.00000E+00         0.00000E+00        -0.33762E+08
 
   -0.35579E+08        -0.21137E+06         0.00000E+00
   -0.21137E+06        -0.60422E+08         0.00000E+00
    0.00000E+00         0.00000E+00        -0.34121E+08
 
   -0.35335E+08         0.32331E+06         0.00000E+00
    0.32331E+06        -0.60519E+08         0.00000E+00
    0.00000E+00         0.00000E+00        -0.34483E+08
 
   -0.35193E+08         0.92215E+06         0.00000E+00
    0.92215E+06        -0.60633E+08         0.00000E+00
    0.00000E+00         0.00000E+00        -0.34839E+08
 
   -0.35170E+08         0.15824E+07         0.00000E+00
    0.15824E+07        -0.60754E+08         0.00000E+00
    0.00000E+00         0.00000E+00        -0.35174E+08
 
   -0.35289E+08         0.22988E+07         0.00000E+00
    0.22988E+07        -0.60873E+08         0.00000E+00
    0.00000E+00         0.00000E+00        -0.35465E+08
 
   -0.35574E+08         0.30566E+07         0.00000E+00
    0.30566E+07        -0.60971E+08         0.00000E+00
    0.00000E+00         0.00000E+00        -0.35677E+08
 
   -0.42173E+08        -0.43305E+06         0.00000E+00
   -0.43305E+06        -0.60008E+08         0.00000E+00
    0.00000E+00         0.00000E+00        -0.33066E+08
 
   -0.41206E+08        -0.10908E+07         0.00000E+00
   -0.10908E+07        -0.60034E+08         0.00000E+00
    0.00000E+00         0.00000E+00        -0.32881E+08
 
   -0.40215E+08        -0.14964E+07         0.00000E+00
   -0.14964E+07        -0.60061E+08         0.00000E+00
    0.00000E+00         0.00000E+00        -0.32695E+08
 
   -0.39241E+08        -0.16909E+07         0.00000E+00
   -0.16909E+07        -0.60072E+08         0.00000E+00
    0.00000E+00         0.00000E+00        -0.32513E+08
 
   -0.38299E+08        -0.17163E+07         0.00000E+00
   -0.17163E+07        -0.60061E+08         0.00000E+00
    0.00000E+00         0.00000E+00        -0.32337E+08
 
   -0.37381E+08        -0.16079E+07         0.00000E+00
   -0.16079E+07        -0.60034E+08         0.00000E+00
    0.00000E+00         0.00000E+00        -0.32167E+08
 
   -0.36530E+08        -0.13939E+07         0.00000E+00
   -0.13939E+07        -0.60009E+08         0.00000E+00
    0.00000E+00         0.00000E+00        -0.32087E+08
 
   -0.35960E+08        -0.10985E+07         0.00000E+00
   -0.10985E+07        -0.60002E+08         0.00000E+00
    0.00000E+00         0.00000E+00        -0.32363E+08
 
   -0.35487E+08        -0.72930E+06         0.00000E+00
   -0.72930E+06        -0.60019E+08         0.00000E+00
    0.00000E+00         0.00000E+00        -0.32710E+08
 
   -0.35089E+08        -0.28841E+06         0.00000E+00
   -0.28841E+06        -0.60064E+08         0.00000E+00
    0.00000E+00         0.00000E+00        -0.33071E+08
 
   -0.34777E+08         0.22203E+06         0.00000E+00
    0.22203E+06        -0.60141E+08         0.00000E+00
    0.00000E+00         0.00000E+00        -0.33448E+08
 
   -0.34568E+08         0.80249E+06         0.00000E+00
    0.80249E+06        -0.60247E+08         0.00000E+00
    0.00000E+00         0.00000E+00        -0.33835E+08
 
   -0.34479E+08         0.14539E+07         0.00000E+00
    0.14539E+07        -0.60375E+08         0.00000E+00
    0.00000E+00         0.00000E+00        -0.34218E+08
 
   -0.34539E+08         0.21763E+07         0.00000E+00
    0.21763E+07        -0.60512E+08         0.00000E+00
    0.00000E+00         0.00000E+00        -0.34573E+08
 
   -0.34791E+08         0.29630E+07         0.00000E+00
    0.29630E+07        -0.60641E+08         0.00000E+00
    0.00000E+00         0.00000E+00        -0.34851E+08
 
   -0.42982E+08        -0.44925E+06         0.00000E+00
   -0.44925E+06        -0.60007E+08         0.00000E+00
    0.00000E+00         0.00000E+00        -0.32215E+08
 
   -0.41730E+08        -0.11145E+07         0.00000E+00
   -0.11145E+07        -0.60023E+08         0.00000E+00
    0.00000E+00         0.00000E+00        -0.31972E+08
 
   -0.40497E+08        -0.15016E+07         0.00000E+00
   -0.15016E+07        -0.60025E+08         0.00000E+00
    0.00000E+00         0.00000E+00        -0.31734E+08
 
   -0.39331E+08        -0.16657E+07         0.00000E+00
   -0.16657E+07        -0.59992E+08         0.00000E+00
    0.00000E+00         0.00000E+00        -0.31507E+08
 
   -0.38244E+08        -0.16640E+07         0.00000E+00
   -0.16640E+07        -0.59923E+08         0.00000E+00
    0.00000E+00         0.00000E+00        -0.31292E+08
 
   -0.37218E+08        -0.15464E+07         0.00000E+00
   -0.15464E+07        -0.59832E+08         0.00000E+00
    0.00000E+00         0.00000E+00        -0.31089E+08
 
   -0.36287E+08        -0.13479E+07         0.00000E+00
   -0.13479E+07        -0.59742E+08         0.00000E+00
    0.00000E+00         0.00000E+00        -0.30989E+08
 
   -0.35640E+08        -0.10773E+07         0.00000E+00
   -0.10773E+07        -0.59674E+08         0.00000E+00
    0.00000E+00         0.00000E+00        -0.31238E+08
 
   -0.35098E+08        -0.73768E+06         0.00000E+00
   -0.73768E+06        -0.59638E+08         0.00000E+00
    0.00000E+00         0.00000E+00        -0.31559E+08
 
   -0.34631E+08        -0.33493E+06         0.00000E+00
   -0.33493E+06        -0.59642E+08         0.00000E+00
    0.00000E+00         0.00000E+00        -0.31907E+08
 
   -0.34248E+08         0.13556E+06         0.00000E+00
    0.13556E+06        -0.59694E+08         0.00000E+00
    0.00000E+00         0.00000E+00        -0.32290E+08
 
   -0.33963E+08         0.68166E+06         0.00000E+00
    0.68166E+06        -0.59793E+08         0.00000E+00
    0.00000E+00         0.00000E+00        -0.32708E+08
 
   -0.33796E+08         0.13097E+07         0.00000E+00
    0.13097E+07        -0.59932E+08         0.00000E+00
    0.00000E+00         0.00000E+00        -0.33150E+08
 
   -0.33776E+08         0.20236E+07         0.00000E+00
    0.20236E+07        -0.60095E+08         0.00000E+00
    0.00000E+00         0.00000E+00        -0.33587E+08
 
   -0.33971E+08         0.28239E+07         0.00000E+00
    0.28239E+07        -0.60267E+08         0.00000E+00
    0.00000E+00         0.00000E+00        -0.33957E+08
 
   -0.43810E+08        -0.46334E+06         0.00000E+00
   -0.46334E+06        -0.60006E+08         0.00000E+00
    0.00000E+00         0.00000E+00        -0.31356E+08
 
   -0.42237E+08        -0.11200E+07         0.00000E+00
   -0.11200E+07        -0.60011E+08         0.00000E+00
    0.00000E+00         0.00000E+00        -0.31047E+08
 
   -0.40743E+08        -0.14666E+07         0.00000E+00
   -0.14666E+07        -0.59978E+08         0.00000E+00
    0.00000E+00         0.00000E+00        -0.30752E+08
 
   -0.39383E+08        -0.15830E+07         0.00000E+00
   -0.15830E+07        -0.59889E+08         0.00000E+00
    0.00000E+00         0.00000E+00        -0.30476E+08
 
   -0.38165E+08        -0.15449E+07         0.00000E+00
   -0.15449E+07        -0.59752E+08         0.00000E+00
    0.00000E+00         0.00000E+00        -0.30222E+08
 
   -0.37060E+08        -0.14139E+07         0.00000E+00
   -0.14139E+07        -0.59588E+08         0.00000E+00
    0.00000E+00         0.00000E+00        -0.29989E+08
 
   -0.36070E+08        -0.12330E+07         0.00000E+00
   -0.12330E+07        -0.59429E+08         0.00000E+00
    0.00000E+00         0.00000E+00        -0.29842E+08
 
   -0.35349E+08        -0.99394E+06         0.00000E+00
   -0.99394E+06        -0.59286E+08         0.00000E+00
    0.00000E+00         0.00000E+00        -0.30025E+08
 
   -0.34749E+08        -0.69513E+06         0.00000E+00
   -0.69513E+06        -0.59192E+08         0.00000E+00
    0.00000E+00         0.00000E+00        -0.30303E+08
 
   -0.34222E+08        -0.34431E+06         0.00000E+00
   -0.34431E+06        -0.59149E+08         0.00000E+00
    0.00000E+00         0.00000E+00        -0.30622E+08
 
   -0.33767E+08         0.67204E+05         0.00000E+00
    0.67204E+05        -0.59170E+08         0.00000E+00
    0.00000E+00         0.00000E+00        -0.30998E+08
 
   -0.33398E+08         0.55621E+06         0.00000E+00
    0.55621E+06        -0.59261E+08         0.00000E+00
    0.00000E+00         0.00000E+00        -0.31444E+08
 
   -0.33138E+08         0.11402E+07         0.00000E+00
    0.11402E+07        -0.59418E+08         0.00000E+00
    0.00000E+00         0.00000E+00        -0.31952E+08
 
   -0.33019E+08         0.18292E+07         0.00000E+00
    0.18292E+07        -0.59623E+08         0.00000E+00
    0.00000E+00         0.00000E+00        -0.32495E+08
 
   -0.33119E+08         0.26309E+07         0.00000E+00
    0.26309E+07        -0.59847E+08         0.00000E+00
    0.00000E+00         0.00000E+00        -0.32992E+08
 
   -0.44647E+08        -0.47490E+06         0.00000E+00
   -0.47490E+06        -0.60005E+08         0.00000E+00
    0.00000E+00         0.00000E+00        -0.30493E+08
 
   -0.42701E+08        -0.10972E+07         0.00000E+00
   -0.10972E+07        -0.59989E+08         0.00000E+00
    0.00000E+00         0.00000E+00        -0.30106E+08
 
   -0.40929E+08        -0.13732E+07         0.00000E+00
   -0.13732E+07        -0.59899E+08         0.00000E+00
    0.00000E+00         0.00000E+00        -0.29744E+08
 
   -0.39388E+08        -0.14257E+07         0.00000E+00
   -0.14257E+07        -0.59728E+08         0.00000E+00
    0.00000E+00         0.00000E+00        -0.29416E+08
 
   -0.38060E+08        -0.13494E+07         0.00000E+00
   -0.13494E+07        -0.59506E+08         0.00000E+00
    0.00000E+00         0.00000E+00        -0.29122E+08
 
   -0.36903E+08        -0.12062E+07         0.00000E+00
   -0.12062E+07        -0.59266E+08         0.00000E+00
    0.00000E+00         0.00000E+00        -0.28863E+08
 
   -0.35888E+08        -0.10422E+07         0.00000E+00
   -0.10422E+07        -0.59037E+08         0.00000E+00
    0.00000E+00         0.00000E+00        -0.28665E+08
 
   -0.35096E+08        -0.84514E+06         0.00000E+00
   -0.84514E+06        -0.58824E+08         0.00000E+00
    0.00000E+00         0.00000E+00        -0.28718E+08
 
   -0.34454E+08        -0.59822E+06         0.00000E+00
   -0.59822E+06        -0.58668E+08         0.00000E+00
    0.00000E+00         0.00000E+00        -0.28937E+08
 
   -0.33877E+08        -0.31106E+06         0.00000E+00
   -0.31106E+06        -0.58577E+08         0.00000E+00
    0.00000E+00         0.00000E+00        -0.29212E+08
 
   -0.33358E+08         0.22803E+05         0.00000E+00
    0.22803E+05        -0.58562E+08         0.00000E+00
    0.00000E+00         0.00000E+00        -0.29564E+08
 
   -0.32900E+08         0.42590E+06         0.00000E+00
    0.42590E+06        -0.58639E+08         0.00000E+00
    0.00000E+00         0.00000E+00        -0.30021E+08
 
   -0.32528E+08         0.93320E+06         0.00000E+00
    0.93320E+06        -0.58816E+08         0.00000E+00
    0.00000E+00         0.00000E+00        -0.30598E+08
 
   -0.32280E+08         0.15751E+07         0.00000E+00
    0.15751E+07        -0.59079E+08         0.00000E+00
    0.00000E+00         0.00000E+00        -0.31273E+08
 
   -0.32239E+08         0.23690E+07         0.00000E+00
    0.23690E+07        -0.59382E+08         0.00000E+00
    0.00000E+00         0.00000E+00        -0.31957E+08
 
   -0.45472E+08        -0.47936E+06         0.00000E+00
   -0.47936E+06        -0.59999E+08         0.00000E+00
    0.00000E+00         0.00000E+00        -0.29627E+08
 
   -0.43082E+08        -0.10177E+07         0.00000E+00
   -0.10177E+07        -0.59936E+08         0.00000E+00
    0.00000E+00         0.00000E+00        -0.29142E+08
 
   -0.41032E+08        -0.11831E+07         0.00000E+00
   -0.11831E+07        -0.59739E+08         0.00000E+00
    0.00000E+00         0.00000E+00        -0.28702E+08
 
   -0.39343E+08        -0.11667E+07         0.00000E+00
   -0.11667E+07        -0.59446E+08         0.00000E+00
    0.00000E+00         0.00000E+00        -0.28318E+08
 
   -0.37940E+08        -0.10677E+07         0.00000E+00
   -0.10677E+07        -0.59120E+08         0.00000E+00
    0.00000E+00         0.00000E+00        -0.27988E+08
 
   -0.36751E+08        -0.93079E+06         0.00000E+00
   -0.93079E+06        -0.58803E+08         0.00000E+00
    0.00000E+00         0.00000E+00        -0.27704E+08
 
   -0.35739E+08        -0.78622E+06         0.00000E+00
   -0.78622E+06        -0.58517E+08         0.00000E+00
    0.00000E+00         0.00000E+00        -0.27464E+08
 
   -0.34896E+08        -0.63392E+06         0.00000E+00
   -0.63392E+06        -0.58275E+08         0.00000E+00
    0.00000E+00         0.00000E+00        -0.27348E+08
 
   -0.34217E+08        -0.44792E+06         0.00000E+00
   -0.44792E+06        -0.58049E+08         0.00000E+00
    0.00000E+00         0.00000E+00        -0.27460E+08
 
   -0.33609E+08        -0.23629E+06         0.00000E+00
   -0.23629E+06        -0.57914E+08         0.00000E+00
    0.00000E+00         0.00000E+00        -0.27680E+08
 
   -0.33043E+08         0.83341E+04         0.00000E+00
    0.83341E+04        -0.57867E+08         0.00000E+00
    0.00000E+00         0.00000E+00        -0.27993E+08
 
   -0.32506E+08         0.30101E+06         0.00000E+00
    0.30101E+06        -0.57921E+08         0.00000E+00
    0.00000E+00         0.00000E+00        -0.28433E+08
 
   -0.32002E+08         0.68239E+06         0.00000E+00
    0.68239E+06        -0.58107E+08         0.00000E+00
    0.00000E+00         0.00000E+00        -0.29055E+08
 
   -0.31585E+08         0.12326E+07         0.00000E+00
    0.12326E+07        -0.58445E+08         0.00000E+00
    0.00000E+00         0.00000E+00        -0.29886E+08
 
   -0.31339E+08         0.19943E+07         0.00000E+00
    0.19943E+07        -0.58872E+08         0.00000E+00
    0.00000E+00         0.00000E+00        -0.30843E+08
 
   -0.46234E+08        -0.45709E+06         0.00000E+00
   -0.45709E+06        -0.59978E+08         0.00000E+00
    0.00000E+00         0.00000E+00        -0.28752E+08
 
   -0.43315E+08        -0.80693E+06         0.00000E+00
   -0.80693E+06        -0.59782E+08         0.00000E+00
    0.00000E+00         0.00000E+00        -0.28134E+08
 
   -0.41044E+08        -0.83647E+06         0.00000E+00
   -0.83647E+06        -0.59389E+08         0.00000E+00
    0.00000E+00         0.00000E+00        -0.27608E+08
 
   -0.39272E+08        -0.78165E+06         0.00000E+00
   -0.78165E+06        -0.58942E+08         0.00000E+00
    0.00000E+00         0.00000E+00        -0.27174E+08
 
   -0.37830E+08        -0.69471E+06         0.00000E+00
   -0.69471E+06        -0.58509E+08         0.00000E+00
    0.00000E+00         0.00000E+00        -0.26810E+08
 
   -0.36628E+08        -0.59501E+06         0.00000E+00
   -0.59501E+06        -0.58119E+08         0.00000E+00
    0.00000E+00         0.00000E+00        -0.26503E+08
 
   -0.35614E+08        -0.49128E+06         0.00000E+00
   -0.49128E+06        -0.57782E+08         0.00000E+00
    0.00000E+00         0.00000E+00        -0.26247E+08
 
   -0.34771E+08        -0.38629E+06         0.00000E+00
   -0.38629E+06        -0.57516E+08         0.00000E+00
    0.00000E+00         0.00000E+00        -0.26040E+08
 
   -0.34043E+08        -0.26579E+06         0.00000E+00
   -0.26579E+06        -0.57324E+08         0.00000E+00
    0.00000E+00         0.00000E+00        -0.25916E+08
 
   -0.33424E+08        -0.12930E+06         0.00000E+00
   -0.12930E+06        -0.57151E+08         0.00000E+00
    0.00000E+00         0.00000E+00        -0.26040E+08
 
   -0.32829E+08         0.22448E+05         0.00000E+00
    0.22448E+05        -0.57069E+08         0.00000E+00
    0.00000E+00         0.00000E+00        -0.26293E+08
 
   -0.32248E+08         0.18855E+06         0.00000E+00
    0.18855E+06        -0.57119E+08         0.00000E+00
    0.00000E+00         0.00000E+00        -0.26702E+08
 
   -0.31631E+08         0.40781E+06         0.00000E+00
    0.40781E+06        -0.57308E+08         0.00000E+00
    0.00000E+00         0.00000E+00        -0.27329E+08
 
   -0.30976E+08         0.77096E+06         0.00000E+00
    0.77096E+06        -0.57678E+08         0.00000E+00
    0.00000E+00         0.00000E+00        -0.28278E+08
 
   -0.30437E+08         0.14484E+07         0.00000E+00
    0.14484E+07        -0.58305E+08         0.00000E+00
    0.00000E+00         0.00000E+00        -0.29630E+08
 
   -0.46778E+08        -0.28301E+06         0.00000E+00
   -0.28301E+06        -0.59794E+08         0.00000E+00
    0.00000E+00         0.00000E+00        -0.27817E+08
 
   -0.43358E+08        -0.33147E+06         0.00000E+00
   -0.33147E+06        -0.59267E+08         0.00000E+00
    0.00000E+00         0.00000E+00        -0.27027E+08
 
   -0.41017E+08        -0.30848E+06         0.00000E+00
   -0.30848E+06        -0.58667E+08         0.00000E+00
    0.00000E+00         0.00000E+00        -0.26442E+08
 
   -0.39217E+08        -0.27837E+06         0.00000E+00
   -0.27837E+06        -0.58100E+08         0.00000E+00
    0.00000E+00         0.00000E+00        -0.25972E+08
 
   -0.37764E+08        -0.24336E+06         0.00000E+00
   -0.24336E+06        -0.57590E+08         0.00000E+00
    0.00000E+00         0.00000E+00        -0.25584E+08
 
   -0.36557E+08        -0.20650E+06         0.00000E+00
   -0.20650E+06        -0.57148E+08         0.00000E+00
    0.00000E+00         0.00000E+00        -0.25259E+08
 
   -0.35545E+08        -0.17060E+06         0.00000E+00
   -0.17060E+06        -0.56778E+08         0.00000E+00
    0.00000E+00         0.00000E+00        -0.24987E+08
 
   -0.34691E+08        -0.13094E+06         0.00000E+00
   -0.13094E+06        -0.56479E+08         0.00000E+00
    0.00000E+00         0.00000E+00        -0.24761E+08
 
   -0.33971E+08        -0.84752E+05         0.00000E+00
   -0.84752E+05        -0.56265E+08         0.00000E+00
    0.00000E+00         0.00000E+00        -0.24580E+08
 
   -0.33322E+08        -0.35610E+05         0.00000E+00
   -0.35610E+05        -0.56173E+08         0.00000E+00
    0.00000E+00         0.00000E+00        -0.24437E+08
 
   -0.32715E+08         0.16558E+05         0.00000E+00
    0.16558E+05        -0.56173E+08         0.00000E+00
    0.00000E+00         0.00000E+00        -0.24500E+08
 
   -0.32132E+08         0.66939E+05         0.00000E+00
    0.66939E+05        -0.56257E+08         0.00000E+00
    0.00000E+00         0.00000E+00        -0.24887E+08
 
   -0.31451E+08         0.13469E+06         0.00000E+00
    0.13469E+06        -0.56466E+08         0.00000E+00
    0.00000E+00         0.00000E+00        -0.25493E+08
 
   -0.30622E+08         0.25263E+06         0.00000E+00
    0.25263E+06        -0.56862E+08         0.00000E+00
    0.00000E+00         0.00000E+00        -0.26476E+08
 
   -0.29566E+08         0.56332E+06         0.00000E+00
    0.56332E+06        -0.57600E+08         0.00000E+00
    0.00000E+00         0.00000E+00        -0.28224E+08
 
SCALARS stressS double 
LOOKUP_TABLE default
  -48242767.2331561     
  -48202230.0446974     
  -48133986.1862622     
  -48036735.8001493     
  -47910486.6153014     
  -47960897.3256011     
  -48303537.6422582     
  -48618851.7496114     
  -48908794.8354337     
  -49175434.6759988     
  -49420772.4067814     
  -49646652.8695879     
  -49854744.1703849     
  -50046538.3620669     
  -50223352.0752677     
  -48217099.9137550     
  -48176918.0115887     
  -48108861.6256088     
  -48012275.4412941     
  -47887794.4614590     
  -47953714.8806596     
  -48294418.1966683     
  -48607468.3336625     
  -48895126.8896969     
  -49159661.7710676     
  -49403131.0430572     
  -49627382.3243880     
  -49834076.8066619     
  -50024702.1912701     
  -50200577.6897726     
  -48165877.4667199     
  -48126263.1212309     
  -48058983.5439421     
  -47963328.2103609     
  -47842717.3989651     
  -47940070.0588515     
  -48276474.5491322     
  -48584581.9436858     
  -48867535.4854156     
  -49127847.0882871     
  -49367593.9236402     
  -49588604.9283640     
  -49792518.6979076     
  -49980811.0688404     
  -50154805.7446350     
  -48089232.4566774     
  -48050322.3817916     
  -47984641.9556353     
  -47891613.2438862     
  -47776465.0339267     
  -47921915.1465844     
  -48249783.1809588     
  -48549685.3125874     
  -48825446.8552065     
  -49079438.3826514     
  -49313654.8806319     
  -49529856.9700800     
  -49729634.0906710     
  -49914438.6939455     
  -50085599.9860937     
  -47987349.7552150     
  -47949216.9809533     
  -47885838.9376059     
  -47797788.8092056     
  -47696158.2885903     
  -47899890.1225664     
  -48213009.6738079     
  -48501702.7996549     
  -48767906.7795452     
  -49013592.8107792     
  -49240569.2411929     
  -49450467.9874536     
  -49644798.3257041     
  -49824974.8719275     
  -49992332.7648403     
  -47860613.7628797     
  -47823103.3417569     
  -47762233.1896170     
  -47680810.8278259     
  -47613516.0445007     
  -47867296.8882033     
  -48163765.2191522     
  -48439007.2312063     
  -48693588.9552377     
  -48929203.7580946     
  -49147385.6131283     
  -49349597.0114965     
  -49537235.6442539     
  -49711663.1953826     
  -49874220.5787610     
  -47708811.1657900     
  -47672082.7077995     
  -47614433.7685388     
  -47542874.5104584     
  -47539619.3114112     
  -47818684.6768020     
  -48099684.3447825     
  -48359550.4142930     
  -48600906.0730422     
  -48824958.5864266     
  -49033000.9261594     
  -49226285.5953662     
  -49406072.7453541     
  -49573654.3658371     
  -49730375.6345898     
  -47532257.6645686     
  -47496517.9899596     
  -47444868.4775389     
  -47388602.6578749     
  -47477377.3564381     
  -47757107.7470626     
  -48017799.0115427     
  -48261254.9578130     
  -48488094.3921174     
  -48699428.8949731     
  -48896230.9717727     
  -49079526.7357533     
  -49250408.2587936     
  -49410076.5269450     
  -49559875.1168885     
  -47331261.6009509     
  -47296950.9722387     
  -47255556.9445703     
  -47234232.2961540     
  -47420772.0993948     
  -47675454.9435744     
  -47916029.6337920     
  -48141835.8730850     
  -48353364.2599659     
  -48551151.6196090     
  -48735891.6375575     
  -48908345.0600900     
  -49069398.0311748     
  -49220124.4543476     
  -49361850.1644095     
  -47106462.9682674     
  -47075480.1959086     
  -47049663.7328946     
  -47110708.0757379     
  -47339797.2164896     
  -47570931.8126265     
  -47791162.1746295     
  -47999183.1153366     
  -48194943.7113619     
  -48378716.3633375     
  -48550874.7390206     
  -48711883.9257574     
  -48862356.6332159     
  -49003172.1052863     
  -49135599.2702223     
  -46857438.7134020     
  -46833133.3729630     
  -46847920.6747136     
  -47010349.0962734     
  -47229004.9939992     
  -47440163.9239864     
  -47640880.8963530     
  -47831254.8506448     
  -48011195.4033605     
  -48180811.3271568     
  -48340209.1550966     
  -48489491.4534580     
  -48628878.1272714     
  -48758919.9053204     
  -48880738.7037184     
  -46586360.9385696     
  -46581393.8582352     
  -46687150.1196912     
  -46888955.5383348     
  -47090070.0233951     
  -47281317.6850847     
  -47463371.8828704     
  -47636354.1669175     
  -47800606.4660849     
  -47956229.3399121     
  -48103079.0331941     
  -48240792.5467248     
  -48368983.0876566     
  -48487602.4220535     
  -48597422.7255951     
  -46298436.6110467     
  -46358321.0987494     
  -46546159.4756257     
  -46738850.9800853     
  -46921779.4970410     
  -47094056.6955766     
  -47257370.0264258     
  -47413005.2536073     
  -47561730.6948452     
  -47703777.5518146     
  -47838759.3474831     
  -47965715.7465563     
  -48083291.7895826     
  -48190319.7014374     
  -48286712.8360107     
  -46022682.4287730     
  -46185830.8131261     
  -46382571.1439802     
  -46562406.6916512     
  -46725895.8614204     
  -46878118.7176003     
  -47021934.5891048     
  -47159745.0243617     
  -47292994.5152649     
  -47422081.7898255     
  -47546409.1198096     
  -47664347.5184878     
  -47773214.3429327     
  -47869589.9715816     
  -47951347.1964926     
  -45801698.7832406     
  -46014989.4797059     
  -46202170.5193164     
  -46362145.6754632     
  -46504059.1563547     
  -46633611.2806980     
  -46755962.3878572     
  -46874800.2562500     
  -46992384.3719128     
  -47109347.8669810     
  -47224691.8314670     
  -47336382.0961158     
  -47440613.9767815     
  -47530610.9442832     
  -47597525.2139196     
  -45629412.7907950     
  -45842580.5837440     
  -46007927.2466877     
  -46143087.3004047     
  -46257780.3022706     
  -46360433.4051574     
  -46457784.9038926     
  -46555591.1862369     
  -46657111.9948829     
  -46762919.7701182     
  -46871776.5842911     
  -46980077.3444998     
  -47085458.2320835     
  -47180617.7297416     
  -47243522.3725199     
  -45494152.5745673     
  -45673511.6589809     
  -45806978.6705667     
  -45908087.8104460     
  -45988561.0046539     
  -46057977.8098757     
  -46125187.5853523     
  -46197418.5834881     
  -46282658.8228117     
  -46380335.8935568     
  -46483863.8865077     
  -46593967.0656156     
  -46706766.9830903     
  -46820019.2537011     
  -46932016.6394965     
  -45383212.7686789     
  -45514319.0907037     
  -45602425.5253457     
  -45659748.9442769     
  -45697332.5539711     
  -45725536.3242028     
  -45754508.8897614     
  -45796014.6826997     
  -45857889.9293081     
  -45957794.8073010     
  -46056825.2363457     
  -46171311.5976414     
  -46293828.5849380     
  -46434999.9936856     
  -46604817.5079700     
  -45294025.8680379     
  -45364628.5163204     
  -45396140.9045985     
  -45399561.0264238     
  -45385140.2918947     
  -45362669.7248031     
  -45343221.2843044     
  -45343781.5878113     
  -45396670.0614477     
  -45496930.3978208     
  -45600709.0846614     
  -45719788.5380504     
  -45860925.3060498     
  -46025014.8251105     
  -46194373.8167947     
  -45224249.7862062     
  -45223469.7743088     
  -45188329.3445227     
  -45128604.3898882     
  -45053265.0523580     
  -44971083.1200022     
  -44890272.7898701     
  -44856175.2592355     
  -44921889.0849252     
  -45013367.5456465     
  -45121022.0760559     
  -45247708.7211138     
  -45397367.7418383     
  -45563024.5200848     
  -45731008.9021550     
  -45171173.0683047     
  -45089325.7465422     
  -44978621.5029904     
  -44847574.2704591     
  -44703773.7246304     
  -44553562.9243268     
  -44407096.1983000     
  -44360516.7380235     
  -44424293.4396941     
  -44505341.3753790     
  -44607471.5432125     
  -44734994.0671400     
  -44885230.2434265     
  -45051269.6562645     
  -45223703.6465539     
  -45131789.9544014     
  -44960231.4377873     
  -44766070.4587872     
  -44556837.2680088     
  -44338566.5101874     
  -44115971.5040422     
  -43904431.9871606     
  -43857038.1101300     
  -43897548.7953699     
  -43960707.8564284     
  -44051383.6110242     
  -44171836.8979375     
  -44319812.0129617     
  -44489580.5862230     
  -44672241.9050181     
  -45103105.9285466     
  -44833743.2068250     
  -44548906.4561208     
  -44255759.1401833     
  -43959303.2057551     
  -43661432.8749439     
  -43394836.0724797     
  -43331221.4571568     
  -43337303.6615127     
  -43373931.2584792     
  -43445983.2787890     
  -43554942.8358182     
  -43699574.0301321     
  -43875772.1077802     
  -44073910.0213038     
  -45082486.4360074     
  -44706754.4173424     
  -44323926.2200666     
  -43941950.6668043     
  -43565303.6225772     
  -43194283.9052410     
  -42875269.6841448     
  -42775037.6694078     
  -42738709.1544305     
  -42741092.2977993     
  -42788507.6210063     
  -42883116.3341337     
  -43023868.0814589     
  -43208003.9973835     
  -43427779.3815064     
  -45067840.9700728     
  -44574969.3242160     
  -44085552.2972221     
  -43609861.7611600     
  -43152846.2145306     
  -42713136.4438984     
  -42339294.8780498     
  -42183775.4620380     
  -42098359.5745076     
  -42060063.7967808     
  -42077349.8264766     
  -42154929.8805716     
  -42292429.9981812     
  -42485852.5911858     
  -42731417.2747400     
  -45057341.8587335     
  -44431727.7635733     
  -43824272.0509573     
  -43249330.6729304     
  -42712752.8650003     
  -42212282.4734342     
  -41780316.9447106     
  -41553446.0028198     
  -41414646.2049659     
  -41330936.8836839     
  -41311859.1345242     
  -41367735.7083944     
  -41502749.4312039     
  -41712218.3566607     
  -41986121.0137893     
  -45048211.3874379     
  -44265370.3797955     
  -43524078.4119542     
  -42843833.2338267     
  -42229580.2618444     
  -41677309.1779280     
  -41196265.0262217     
  -40879092.7251451     
  -40686077.6579302     
  -40555082.5523283     
  -40494938.3000346     
  -40520007.0532585     
  -40647193.4009006     
  -40877426.7274877     
  -41192353.3425947     
  -45032904.2696852     
  -44053147.1979041     
  -43157875.0073793     
  -42369141.2446034     
  -41682701.3239377     
  -41085815.7640414     
  -40573019.7473649     
  -40173068.8047692     
  -39908511.0108424     
  -39733956.4057482     
  -39634038.8691609     
  -39619640.8699984     
  -39721368.2955633     
  -39971751.8487296     
  -40351314.4959643     
  -44987985.5746819     
  -43743740.8212112     
  -42680444.7334895     
  -41795990.4236766     
  -41049699.4457750     
  -40416674.8762958     
  -39880838.6951759     
  -39442154.9439133     
  -39094248.6730524     
  -38871960.2132109     
  -38730396.0022769     
  -38689691.4711827     
  -38755588.9765862     
  -38977208.7869222     
  -39457491.8562321     
  -44796369.8814259     
  -43217078.3236550     
  -42042121.0846975     
  -41096226.1560986     
  -40312495.7922191     
  -39654736.0624017     
  -39103168.9090064     
  -38643641.2578450     
  -38272109.2538541     
  -37977374.8106134     
  -37795941.6383314     
  -37758710.5400335     
  -37803315.8569196     
  -37986832.8419296     
  -38463021.5668928     
SCALARS 2waySource double 
LOOKUP_TABLE default
 -9.268378261680877E-005
 -9.166217874233862E-005
 -9.022540447778705E-005
 -8.833297300195061E-005
 -9.667091146763252E-005
 -1.521435313878172E-004
 -1.537967589853358E-004
 -1.553570179126851E-004
 -1.569145029240955E-004
 -1.585048699581651E-004
 -1.601101659459453E-004
 -1.616993855507096E-004
 -1.632396344502445E-004
 -1.646974967708627E-004
 -1.660384632232702E-004
 -9.257152342016293E-005
 -9.160767624926335E-005
 -9.013716759324607E-005
 -8.810614376487422E-005
 -9.818469953277718E-005
 -1.524405174471954E-004
 -1.539041602898230E-004
 -1.552975041129658E-004
 -1.567906330396354E-004
 -1.583538322037543E-004
 -1.599455472091031E-004
 -1.615289644156460E-004
 -1.630694360698791E-004
 -1.645332741595888E-004
 -1.658862133485848E-004
 -9.221496699547251E-005
 -9.123495305143038E-005
 -8.990400433062147E-005
 -8.782454923882480E-005
 -1.015605826029984E-004
 -1.530144414899279E-004
 -1.538005469041873E-004
 -1.550104168674550E-004
 -1.564519107119728E-004
 -1.579931777261077E-004
 -1.595765332374321E-004
 -1.611605567436939E-004
 -1.627104781440589E-004
 -1.641938116439086E-004
 -1.655779755611933E-004
 -9.165446550023844E-005
 -9.054100278111144E-005
 -8.909600900601623E-005
 -8.747732345556157E-005
 -1.083466029045110E-004
 -1.527631131905728E-004
 -1.531869421701232E-004
 -1.544217020998435E-004
 -1.558545646798496E-004
 -1.573910722749447E-004
 -1.589749316154648E-004
 -1.605669719425533E-004
 -1.621351741350673E-004
 -1.636502708536005E-004
 -1.650829753484496E-004
 -9.094676240476750E-005
 -8.973720243089201E-005
 -8.795885178147734E-005
 -8.651728982598419E-005
 -1.182210702874765E-004
 -1.509016281247545E-004
 -1.521697404051822E-004
 -1.535025343823104E-004
 -1.549641123985807E-004
 -1.565127499993277E-004
 -1.581063219628937E-004
 -1.597129122754362E-004
 -1.613064363081613E-004
 -1.628631752724588E-004
 -1.643588295089864E-004
 -8.998391548760927E-005
 -8.878601428151628E-005
 -8.699618716907347E-005
 -8.711940809275683E-005
 -1.311128459268046E-004
 -1.490848369891173E-004
 -1.508209170259644E-004
 -1.522350301240071E-004
 -1.537475209856412E-004
 -1.553217846831732E-004
 -1.569320393598433E-004
 -1.585566571145899E-004
 -1.601791166787111E-004
 -1.617838600975576E-004
 -1.633533482345797E-004
 -8.873161198265695E-005
 -8.745608189001823E-005
 -8.602569497571088E-005
 -9.210203708403154E-005
 -1.422359944487776E-004
 -1.478350022286341E-004
 -1.490366375374739E-004
 -1.505924247309163E-004
 -1.521722010986650E-004
 -1.537832349960772E-004
 -1.554112478385623E-004
 -1.570515279992930E-004
 -1.587010763861008E-004
 -1.603555204924535E-004
 -1.620059407344843E-004
 -8.712006765200003E-005
 -8.573413975791432E-005
 -8.507955759263960E-005
 -1.049616384324029E-004
 -1.450059195784748E-004
 -1.452707537446190E-004
 -1.468881577532950E-004
 -1.485544158793322E-004
 -1.502229357742252E-004
 -1.518670271689672E-004
 -1.535028704444351E-004
 -1.551466223351837E-004
 -1.568134756857050E-004
 -1.585133984091968E-004
 -1.602481001098390E-004
 -8.521000064520974E-005
 -8.400541988860488E-005
 -8.766250769225463E-005
 -1.211470342482514E-004
 -1.400137869218882E-004
 -1.423610598075625E-004
 -1.443178084477406E-004
 -1.461630000002147E-004
 -1.478958236120652E-004
 -1.495495723216269E-004
 -1.511652894526320E-004
 -1.527862870126180E-004
 -1.544498099817127E-004
 -1.561836145268362E-004
 -1.580023964678291E-004
 -8.320821205971905E-005
 -8.288112965369976E-005
 -9.858230901976995E-005
 -1.306646311329923E-004
 -1.357942592095886E-004
 -1.390685740787538E-004
 -1.414416128994294E-004
 -1.434391531360146E-004
 -1.451972638806679E-004
 -1.468088362696740E-004
 -1.483545261203712E-004
 -1.499080799463625E-004
 -1.515333960059970E-004
 -1.532801244259697E-004
 -1.551792684037555E-004
 -8.130096556123971E-005
 -8.648813770861842E-005
 -1.125019822136022E-004
 -1.286429475858336E-004
 -1.325766264972291E-004
 -1.357790097538861E-004
 -1.383812607963554E-004
 -1.404314332724889E-004
 -1.421329206952921E-004
 -1.436226807310851E-004
 -1.450217657236953E-004
 -1.464398417108367E-004
 -1.479732258549852E-004
 -1.496990693630656E-004
 -1.516705402370678E-004
 -8.071880558995870E-005
 -9.760090485738871E-005
 -1.192023303649051E-004
 -1.246743408855260E-004
 -1.292555797541250E-004
 -1.326582220134024E-004
 -1.352240726648509E-004
 -1.371877845294490E-004
 -1.387125286903772E-004
 -1.399682606870217E-004
 -1.411125985665045E-004
 -1.422970415959909E-004
 -1.436578388716233E-004
 -1.453097128215811E-004
 -1.473371237016028E-004
 -8.656806298902493E-005
 -1.072943436960109E-004
 -1.157799467505406E-004
 -1.219921265863082E-004
 -1.263046042930472E-004
 -1.296208997333666E-004
 -1.320341127216208E-004
 -1.337464224678381E-004
 -1.349485212359870E-004
 -1.358253366163322E-004
 -1.365707083802702E-004
 -1.373810272054843E-004
 -1.384502428913735E-004
 -1.399373324367141E-004
 -1.419859524668160E-004
 -9.083747535954601E-005
 -1.073409120800468E-004
 -1.140617711883404E-004
 -1.194589885968588E-004
 -1.237169545538172E-004
 -1.267530656163511E-004
 -1.288435051019413E-004
 -1.301493526956292E-004
 -1.308581589418303E-004
 -1.311812741123305E-004
 -1.313456536443346E-004
 -1.315974302671677E-004
 -1.321758755336634E-004
 -1.333488762134662E-004
 -1.353051583641304E-004
 -9.548439500070346E-005
 -1.058615668246982E-004
 -1.124546045227409E-004
 -1.176114684202909E-004
 -1.214114643934629E-004
 -1.240896087174968E-004
 -1.257203723338588E-004
 -1.264582671833743E-004
 -1.264770259611733E-004
 -1.260140367565993E-004
 -1.254032491264329E-004
 -1.248968141219386E-004
 -1.247361903223050E-004
 -1.251301082604835E-004
 -1.267335358421928E-004
 -9.914072508112682E-005
 -1.055423195624145E-004
 -1.114863967664878E-004
 -1.160435052846371E-004
 -1.194417398186490E-004
 -1.216781676407108E-004
 -1.228010512032184E-004
 -1.228009373591800E-004
 -1.218678148473763E-004
 -1.202984229597119E-004
 -1.185542912422737E-004
 -1.173694166817121E-004
 -1.163997293167367E-004
 -1.154898012299605E-004
 -1.139681831705454E-004
 -1.001907590021222E-004
 -1.057001907608771E-004
 -1.106885874298764E-004
 -1.147604039981095E-004
 -1.177454347565731E-004
 -1.196121996025834E-004
 -1.202601791902940E-004
 -1.196464100355922E-004
 -1.172464436377420E-004
 -1.136086157107480E-004
 -1.106967144908616E-004
 -1.081038340619232E-004
 -1.055432490161826E-004
 -1.010834036695169E-004
 -9.550219031448834E-005
 -1.004472877792399E-004
 -1.055496840079157E-004
 -1.099837360586907E-004
 -1.135937724191819E-004
 -1.162754186017619E-004
 -1.179338718526898E-004
 -1.184198960056730E-004
 -1.171728539834427E-004
 -1.128774477495718E-004
 -1.015882325991274E-004
 -9.435792161731497E-005
 -9.010612701340960E-005
 -9.241867400378424E-005
 -9.660634345125946E-005
 -1.037371709249708E-004
 -1.002747446132512E-004
 -1.051249647937681E-004
 -1.091651857833778E-004
 -1.124085182176173E-004
 -1.148599789429603E-004
 -1.165254532903107E-004
 -1.173007102357170E-004
 -1.147288108294286E-004
 -9.985123543744129E-005
 -8.323336002689853E-005
 -8.384924100630195E-005
 -8.641340185507724E-005
 -9.073711811395070E-005
 -9.598003530289075E-005
 -1.032324989782552E-004
 -9.994540506762898E-005
 -1.045180672919354E-004
 -1.081560609219321E-004
 -1.110179336618446E-004
 -1.132412662899980E-004
 -1.149250436200862E-004
 -1.162124914373464E-004
 -1.060527549870829E-004
 -8.020756954601159E-005
 -7.360530647075405E-005
 -7.607740552521993E-005
 -7.885420982478957E-005
 -8.383198931202076E-005
 -9.067289981766171E-005
 -9.761810747033615E-005
 -9.971677607963010E-005
 -1.038233625041350E-004
 -1.069072211735170E-004
 -1.092530608454849E-004
 -1.110953050327576E-004
 -1.126913391071276E-004
 -1.132542695923718E-004
 -9.059449644518983E-005
 -6.581871549088896E-005
 -6.508829710071663E-005
 -6.691670353698797E-005
 -7.076991365292836E-005
 -7.616057913253322E-005
 -8.272291672893658E-005
 -8.961253006573383E-005
 -9.981198519572562E-005
 -1.031220539372596E-004
 -1.053797381933707E-004
 -1.069667557150808E-004
 -1.081979384131476E-004
 -1.093067170902673E-004
 -1.077839709373614E-004
 -7.286189963967813E-005
 -5.541889430621111E-005
 -5.593693800716671E-005
 -5.813250527360020E-005
 -6.188313847867745E-005
 -6.707219698152451E-005
 -7.320451714734868E-005
 -7.991005176636577E-005
 -1.003971694111797E-004
 -1.024657997649707E-004
 -1.035296346062344E-004
 -1.040451678681410E-004
 -1.043739041891591E-004
 -1.048084227806203E-004
 -9.879928068493883E-005
 -5.724356045508129E-005
 -4.658753795013902E-005
 -4.685188146107933E-005
 -4.868637327183520E-005
 -5.202795301497299E-005
 -5.667077802456202E-005
 -6.237546340048862E-005
 -6.889214512564173E-005
 -1.015602666247920E-004
 -1.018608853918254E-004
 -1.012951663176192E-004
 -1.003667879103302E-004
 -9.949420756233786E-005
 -9.898869132270608E-005
 -8.900153247369317E-005
 -4.643216236665725E-005
 -3.781855367802436E-005
 -3.732436073949689E-005
 -3.840077334221751E-005
 -4.102632541940554E-005
 -4.505031252778954E-005
 -5.030790028049712E-005
 -5.665803163458301E-005
 -1.032956479737905E-004
 -1.012564233200770E-004
 -9.858516584373807E-005
 -9.580017875971971E-005
 -9.334919438475713E-005
 -9.165498951954927E-005
 -8.040836209516970E-005
 -3.869361666528033E-005
 -2.857807249198677E-005
 -2.701411224037046E-005
 -2.717747363757230E-005
 -2.886509950915879E-005
 -3.214641154953466E-005
 -3.694841922657514E-005
 -4.317959203863531E-005
 -1.054961164933176E-004
 -1.005320396275996E-004
 -9.527475967860166E-005
 -9.022089294500902E-005
 -8.576419458704838E-005
 -8.234732701659312E-005
 -7.292740244354063E-005
 -3.402944826387662E-005
 -1.867673414611814E-005
 -1.608463594184654E-005
 -1.496230288308142E-005
 -1.549882730888876E-005
 -1.782152430209346E-005
 -2.214704144856333E-005
 -2.842918334099216E-005
 -1.079529212302181E-004
 -9.946695726902181E-005
 -9.117531634064710E-005
 -8.354084444874257E-005
 -7.677492566104493E-005
 -7.095312109278146E-005
 -6.355722156790847E-005
 -3.523987232779102E-005
 -1.024041535005934E-005
 -4.309311875096485E-006
 -1.863325196798799E-006
 -8.108822445195531E-007
 -1.986985145933861E-006
 -5.623662943559425E-006
 -1.251067019389923E-005
 -1.103448887749799E-004
 -9.764162772208896E-005
 -8.593063983937361E-005
 -7.566678298848171E-005
 -6.667764496152453E-005
 -5.847750462196156E-005
 -5.021038977194700E-005
 -3.438239070658758E-005
 -8.186126554995188E-006
  6.674065080372002E-006
  1.291464359346226E-005
  1.468340720024065E-005
  1.597786695248889E-005
  1.254535182298734E-005
  4.100747014486283E-006
 -1.121512687291600E-004
 -9.407218504462039E-005
 -7.883911330964512E-005
 -6.645527384618813E-005
 -5.582009604048674E-005
 -4.602178529816282E-005
 -3.616392622247254E-005
 -2.463827731928663E-005
 -1.068641161867622E-005
  1.318265024217776E-005
  2.418987855112151E-005
  3.430670211194524E-005
  3.539837259868995E-005
  3.130490639408359E-005
  2.088405825616679E-005
 -1.110679321357991E-004
 -8.637443773571888E-005
 -6.922115448233311E-005
 -5.575797235057982E-005
 -4.435465638960020E-005
 -3.390421642265680E-005
 -2.351395226238443E-005
 -1.240047079001668E-005
  3.586426594232142E-008
  1.215879288352535E-005
  3.365602426138963E-005
  5.654979722284157E-005
  5.266019537929374E-005
  4.842529097424552E-005
  3.793327932384837E-005
SCALARS poroP double 
LOOKUP_TABLE default
  8.891289820493195E-006
  7.010887514683781E-006
  5.080911778547754E-006
  3.127497234099063E-006
  1.180693048641697E-006
  0.000000000000000E+000
  0.000000000000000E+000
  0.000000000000000E+000
  0.000000000000000E+000
  0.000000000000000E+000
  0.000000000000000E+000
  0.000000000000000E+000
  0.000000000000000E+000
  0.000000000000000E+000
  0.000000000000000E+000
  8.784682861227762E-006
  6.906134669405874E-006
  4.983930103233403E-006
  3.044555182179423E-006
  1.115641555666614E-006
  0.000000000000000E+000
  0.000000000000000E+000
  0.000000000000000E+000
  0.000000000000000E+000
  0.000000000000000E+000
  0.000000000000000E+000
  0.000000000000000E+000
  0.000000000000000E+000
  0.000000000000000E+000
  0.000000000000000E+000
  8.576735903595862E-006
  6.703535281622384E-006
  4.794308772696764E-006
  2.876709346789678E-006
  9.838525066559126E-007
  0.000000000000000E+000
  0.000000000000000E+000
  0.000000000000000E+000
  0.000000000000000E+000
  0.000000000000000E+000
  0.000000000000000E+000
  0.000000000000000E+000
  0.000000000000000E+000
  0.000000000000000E+000
  0.000000000000000E+000
  8.270040341248253E-006
  6.406477789821890E-006
  4.513927288053102E-006
  2.622834965927210E-006
  7.786506820151315E-007
  0.000000000000000E+000
  0.000000000000000E+000
  0.000000000000000E+000
  0.000000000000000E+000
  0.000000000000000E+000
  0.000000000000000E+000
  0.000000000000000E+000
  0.000000000000000E+000
  0.000000000000000E+000
  0.000000000000000E+000
  7.857270160163752E-006
  6.005763076623486E-006
  4.138960071855858E-006
  2.286389521305816E-006
  5.093381032176027E-007
  0.000000000000000E+000
  0.000000000000000E+000
  0.000000000000000E+000
  0.000000000000000E+000
  0.000000000000000E+000
  0.000000000000000E+000
  0.000000000000000E+000
  0.000000000000000E+000
  0.000000000000000E+000
  0.000000000000000E+000
  7.329412589269010E-006
  5.491594965052526E-006
  3.664176212974677E-006
  1.876607675304919E-006
  2.690358439709881E-007
  0.000000000000000E+000
  0.000000000000000E+000
  0.000000000000000E+000
  0.000000000000000E+000
  0.000000000000000E+000
  0.000000000000000E+000
  0.000000000000000E+000
  0.000000000000000E+000
  0.000000000000000E+000
  0.000000000000000E+000
  6.691038445176243E-006
  4.869467699418283E-006
  3.092419493935663E-006
  1.399068349339671E-006
  1.070651281105996E-007
  0.000000000000000E+000
  0.000000000000000E+000
  0.000000000000000E+000
  0.000000000000000E+000
  0.000000000000000E+000
  0.000000000000000E+000
  0.000000000000000E+000
  0.000000000000000E+000
  0.000000000000000E+000
  0.000000000000000E+000
  5.945800745458691E-006
  4.150843352117432E-006
  2.442682199121686E-006
  8.787645762951425E-007
  4.344241424369916E-009
  0.000000000000000E+000
  0.000000000000000E+000
  0.000000000000000E+000
  0.000000000000000E+000
  0.000000000000000E+000
  0.000000000000000E+000
  0.000000000000000E+000
  0.000000000000000E+000
  0.000000000000000E+000
  0.000000000000000E+000
  5.102639628095034E-006
  3.348289048675559E-006
  1.735566660143686E-006
  3.658488595222512E-007
  0.000000000000000E+000
  0.000000000000000E+000
  0.000000000000000E+000
  0.000000000000000E+000
  0.000000000000000E+000
  0.000000000000000E+000
  0.000000000000000E+000
  0.000000000000000E+000
  0.000000000000000E+000
  0.000000000000000E+000
  0.000000000000000E+000
  4.176573563941123E-006
  2.483362712705947E-006
  1.008398244991899E-006
  6.776224857329073E-008
  0.000000000000000E+000
  0.000000000000000E+000
  0.000000000000000E+000
  0.000000000000000E+000
  0.000000000000000E+000
  0.000000000000000E+000
  0.000000000000000E+000
  0.000000000000000E+000
  0.000000000000000E+000
  0.000000000000000E+000
  0.000000000000000E+000
  3.191340814613744E-006
  1.591337930138618E-006
  3.593705771779752E-007
  0.000000000000000E+000
  0.000000000000000E+000
  0.000000000000000E+000
  0.000000000000000E+000
  0.000000000000000E+000
  0.000000000000000E+000
  0.000000000000000E+000
  0.000000000000000E+000
  0.000000000000000E+000
  0.000000000000000E+000
  0.000000000000000E+000
  0.000000000000000E+000
  2.177242256878135E-006
  7.478981374843219E-007
  4.470907734299730E-008
  0.000000000000000E+000
  0.000000000000000E+000
  0.000000000000000E+000
  0.000000000000000E+000
  0.000000000000000E+000
  0.000000000000000E+000
  0.000000000000000E+000
  0.000000000000000E+000
  0.000000000000000E+000
  0.000000000000000E+000
  0.000000000000000E+000
  0.000000000000000E+000
  1.181854562114557E-006
  1.366426531975344E-007
  0.000000000000000E+000
  0.000000000000000E+000
  0.000000000000000E+000
  0.000000000000000E+000
  0.000000000000000E+000
  0.000000000000000E+000
  0.000000000000000E+000
  0.000000000000000E+000
  0.000000000000000E+000
  0.000000000000000E+000
  0.000000000000000E+000
  0.000000000000000E+000
  0.000000000000000E+000
  3.521177190143839E-007
  0.000000000000000E+000
  0.000000000000000E+000
  0.000000000000000E+000
  0.000000000000000E+000
  0.000000000000000E+000
  0.000000000000000E+000
  0.000000000000000E+000
  0.000000000000000E+000
  0.000000000000000E+000
  0.000000000000000E+000
  0.000000000000000E+000
  0.000000000000000E+000
  0.000000000000000E+000
  0.000000000000000E+000
  2.814538413680137E-008
  0.000000000000000E+000
  0.000000000000000E+000
  0.000000000000000E+000
  0.000000000000000E+000
  0.000000000000000E+000
  0.000000000000000E+000
  0.000000000000000E+000
  0.000000000000000E+000
  0.000000000000000E+000
  0.000000000000000E+000
  0.000000000000000E+000
  0.000000000000000E+000
  0.000000000000000E+000
  0.000000000000000E+000
  0.000000000000000E+000
  0.000000000000000E+000
  0.000000000000000E+000
  0.000000000000000E+000
  0.000000000000000E+000
  0.000000000000000E+000
  0.000000000000000E+000
  0.000000000000000E+000
  0.000000000000000E+000
  0.000000000000000E+000
  0.000000000000000E+000
  0.000000000000000E+000
  0.000000000000000E+000
  0.000000000000000E+000
  0.000000000000000E+000
  0.000000000000000E+000
  0.000000000000000E+000
  0.000000000000000E+000
  0.000000000000000E+000
  0.000000000000000E+000
  0.000000000000000E+000
  0.000000000000000E+000
  0.000000000000000E+000
  0.000000000000000E+000
  0.000000000000000E+000
  0.000000000000000E+000
  0.000000000000000E+000
  4.514402432534731E-008
  1.700138119995391E-007
  4.203093292458191E-007
  0.000000000000000E+000
  0.000000000000000E+000
  0.000000000000000E+000
  0.000000000000000E+000
  0.000000000000000E+000
  0.000000000000000E+000
  0.000000000000000E+000
  0.000000000000000E+000
  3.288761145912917E-008
  1.550034967595467E-007
  2.873086594905353E-007
  5.635871124001858E-007
  9.177805803483653E-007
  1.334214882384114E-006
  1.708659912138310E-006
  0.000000000000000E+000
  0.000000000000000E+000
  0.000000000000000E+000
  0.000000000000000E+000
  0.000000000000000E+000
  0.000000000000000E+000
  0.000000000000000E+000
  4.647386677151170E-008
  2.598340865766409E-007
  7.105468214398823E-007
  1.221203427853336E-006
  1.735387117393963E-006
  2.240684442941428E-006
  2.683673276223785E-006
  2.962632556572013E-006
  0.000000000000000E+000
  0.000000000000000E+000
  0.000000000000000E+000
  0.000000000000000E+000
  0.000000000000000E+000
  0.000000000000000E+000
  0.000000000000000E+000
  1.875159376958092E-007
  7.620215550679872E-007
  1.469390642473580E-006
  2.185928307159858E-006
  2.876275045176782E-006
  3.487192290984187E-006
  3.951364898304501E-006
  4.209298176241148E-006
  0.000000000000000E+000
  0.000000000000000E+000
  0.000000000000000E+000
  0.000000000000000E+000
  0.000000000000000E+000
  0.000000000000000E+000
  2.405045141266741E-008
  4.334553325146536E-007
  1.284486119935753E-006
  2.171833082817755E-006
  3.054079374123571E-006
  3.891020159556154E-006
  4.618333205502282E-006
  5.165138578795329E-006
  5.469666717622920E-006
  0.000000000000000E+000
  0.000000000000000E+000
  0.000000000000000E+000
  0.000000000000000E+000
  0.000000000000000E+000
  0.000000000000000E+000
  6.900850807358839E-008
  7.420320249632928E-007
  1.727373502306920E-006
  2.743306711934456E-006
  3.760011302540272E-006
  4.735674843526703E-006
  5.611008643822333E-006
  6.308105922196010E-006
  6.733435358559380E-006
  0.000000000000000E+000
  0.000000000000000E+000
  0.000000000000000E+000
  0.000000000000000E+000
  0.000000000000000E+000
  0.000000000000000E+000
  1.335662843246792E-007
  9.750269885317779E-007
  2.039317751609039E-006
  3.138610500025930E-006
  4.258554204739259E-006
  5.369177594950375E-006
  6.422786448417908E-006
  7.337951024572918E-006
  7.978152069811700E-006
  0.000000000000000E+000
  0.000000000000000E+000
  0.000000000000000E+000
  0.000000000000000E+000
  0.000000000000000E+000
  0.000000000000000E+000
  1.742588850978471E-007
  1.096256383537026E-006
  2.184044191815013E-006
  3.321335679531599E-006
  4.513130003835553E-006
  5.747852219873156E-006
  6.995391183098104E-006
  8.188340819025771E-006
  9.164449651743139E-006
  0.000000000000000E+000
  0.000000000000000E+000
  0.000000000000000E+000
  0.000000000000000E+000
  0.000000000000000E+000
  0.000000000000000E+000
  1.868870598324717E-007
  1.084505557085060E-006
  2.137820226278575E-006
  3.264698577918570E-006
  4.492434729018013E-006
  5.831721088371016E-006
  7.274575060612058E-006
  8.790860660636650E-006
  1.024626209964482E-005
  0.000000000000000E+000
  0.000000000000000E+000
  0.000000000000000E+000
  0.000000000000000E+000
  0.000000000000000E+000
  0.000000000000000E+000
  1.342140573296468E-007
  9.185603826333618E-007
  1.889988912653553E-006
  2.957346526427726E-006
  4.174539190996259E-006
  5.585711232552347E-006
  7.212361676172160E-006
  9.062163733246620E-006
  1.111860464960810E-005
  0.000000000000000E+000
  0.000000000000000E+000
  0.000000000000000E+000
  0.000000000000000E+000
  0.000000000000000E+000
  0.000000000000000E+000
  6.113775076956394E-008
  5.942076694045763E-007
  1.442436356519975E-006
  2.408375365651118E-006
  3.559216340477554E-006
  4.984887966895059E-006
  6.763390301188822E-006
  8.953376072046231E-006
  1.170473232550749E-005
  0.000000000000000E+000
  0.000000000000000E+000
  0.000000000000000E+000
  0.000000000000000E+000
  0.000000000000000E+000
  0.000000000000000E+000
  0.000000000000000E+000
  1.817315861829428E-007
  8.084544934858889E-007
  1.643099273818142E-006
  2.682581532186940E-006
  4.037786535636707E-006
  5.892801800963113E-006
  8.426816770712662E-006
  1.196848062673198E-005
  0.000000000000000E+000
  0.000000000000000E+000
  0.000000000000000E+000
  0.000000000000000E+000
  0.000000000000000E+000
  0.000000000000000E+000
  0.000000000000000E+000
  0.000000000000000E+000
  1.028486272018565E-007
  7.144887478330347E-007
  1.597233531020050E-006
  2.827110193861064E-006
  4.631217162807803E-006
  7.407338326388940E-006
  1.189380941443278E-005
  3.991557844373531E-009
  0.000000000000000E+000
  0.000000000000000E+000
  0.000000000000000E+000
  0.000000000000000E+000
  0.000000000000000E+000
  0.000000000000000E+000
  0.000000000000000E+000
  0.000000000000000E+000
  0.000000000000000E+000
  4.018758275890312E-007
  1.508630545153411E-006
  3.175001205267294E-006
  5.899094934006807E-006
  1.140071972270360E-005
SCALARS elementIsPlast double 
LOOKUP_TABLE default
   1.00000000000000     
   1.00000000000000     
   1.00000000000000     
   1.00000000000000     
   1.00000000000000     
  0.000000000000000E+000
  0.000000000000000E+000
  0.000000000000000E+000
  0.000000000000000E+000
  0.000000000000000E+000
  0.000000000000000E+000
  0.000000000000000E+000
  0.000000000000000E+000
  0.000000000000000E+000
  0.000000000000000E+000
   1.00000000000000     
   1.00000000000000     
   1.00000000000000     
   1.00000000000000     
   1.00000000000000     
  0.000000000000000E+000
  0.000000000000000E+000
  0.000000000000000E+000
  0.000000000000000E+000
  0.000000000000000E+000
  0.000000000000000E+000
  0.000000000000000E+000
  0.000000000000000E+000
  0.000000000000000E+000
  0.000000000000000E+000
   1.00000000000000     
   1.00000000000000     
   1.00000000000000     
   1.00000000000000     
   1.00000000000000     
  0.000000000000000E+000
  0.000000000000000E+000
  0.000000000000000E+000
  0.000000000000000E+000
  0.000000000000000E+000
  0.000000000000000E+000
  0.000000000000000E+000
  0.000000000000000E+000
  0.000000000000000E+000
  0.000000000000000E+000
   1.00000000000000     
   1.00000000000000     
   1.00000000000000     
   1.00000000000000     
   1.00000000000000     
  0.000000000000000E+000
  0.000000000000000E+000
  0.000000000000000E+000
  0.000000000000000E+000
  0.000000000000000E+000
  0.000000000000000E+000
  0.000000000000000E+000
  0.000000000000000E+000
  0.000000000000000E+000
  0.000000000000000E+000
   1.00000000000000     
   1.00000000000000     
   1.00000000000000     
   1.00000000000000     
   1.00000000000000     
  0.000000000000000E+000
  0.000000000000000E+000
  0.000000000000000E+000
  0.000000000000000E+000
  0.000000000000000E+000
  0.000000000000000E+000
  0.000000000000000E+000
  0.000000000000000E+000
  0.000000000000000E+000
  0.000000000000000E+000
   1.00000000000000     
   1.00000000000000     
   1.00000000000000     
   1.00000000000000     
   1.00000000000000     
  0.000000000000000E+000
  0.000000000000000E+000
  0.000000000000000E+000
  0.000000000000000E+000
  0.000000000000000E+000
  0.000000000000000E+000
  0.000000000000000E+000
  0.000000000000000E+000
  0.000000000000000E+000
  0.000000000000000E+000
   1.00000000000000     
   1.00000000000000     
   1.00000000000000     
   1.00000000000000     
   1.00000000000000     
  0.000000000000000E+000
  0.000000000000000E+000
  0.000000000000000E+000
  0.000000000000000E+000
  0.000000000000000E+000
  0.000000000000000E+000
  0.000000000000000E+000
  0.000000000000000E+000
  0.000000000000000E+000
  0.000000000000000E+000
   1.00000000000000     
   1.00000000000000     
   1.00000000000000     
   1.00000000000000     
   1.00000000000000     
  0.000000000000000E+000
  0.000000000000000E+000
  0.000000000000000E+000
  0.000000000000000E+000
  0.000000000000000E+000
  0.000000000000000E+000
  0.000000000000000E+000
  0.000000000000000E+000
  0.000000000000000E+000
  0.000000000000000E+000
   1.00000000000000     
   1.00000000000000     
   1.00000000000000     
   1.00000000000000     
  0.000000000000000E+000
  0.000000000000000E+000
  0.000000000000000E+000
  0.000000000000000E+000
  0.000000000000000E+000
  0.000000000000000E+000
  0.000000000000000E+000
  0.000000000000000E+000
  0.000000000000000E+000
  0.000000000000000E+000
  0.000000000000000E+000
   1.00000000000000     
   1.00000000000000     
   1.00000000000000     
   1.00000000000000     
  0.000000000000000E+000
  0.000000000000000E+000
  0.000000000000000E+000
  0.000000000000000E+000
  0.000000000000000E+000
  0.000000000000000E+000
  0.000000000000000E+000
  0.000000000000000E+000
  0.000000000000000E+000
  0.000000000000000E+000
  0.000000000000000E+000
   1.00000000000000     
   1.00000000000000     
   1.00000000000000     
  0.000000000000000E+000
  0.000000000000000E+000
  0.000000000000000E+000
  0.000000000000000E+000
  0.000000000000000E+000
  0.000000000000000E+000
  0.000000000000000E+000
  0.000000000000000E+000
  0.000000000000000E+000
  0.000000000000000E+000
  0.000000000000000E+000
  0.000000000000000E+000
   1.00000000000000     
   1.00000000000000     
   1.00000000000000     
  0.000000000000000E+000
  0.000000000000000E+000
  0.000000000000000E+000
  0.000000000000000E+000
  0.000000000000000E+000
  0.000000000000000E+000
  0.000000000000000E+000
  0.000000000000000E+000
  0.000000000000000E+000
  0.000000000000000E+000
  0.000000000000000E+000
  0.000000000000000E+000
   1.00000000000000     
   1.00000000000000     
  0.000000000000000E+000
  0.000000000000000E+000
  0.000000000000000E+000
  0.000000000000000E+000
  0.000000000000000E+000
  0.000000000000000E+000
  0.000000000000000E+000
  0.000000000000000E+000
  0.000000000000000E+000
  0.000000000000000E+000
  0.000000000000000E+000
  0.000000000000000E+000
  0.000000000000000E+000
   1.00000000000000     
  0.000000000000000E+000
  0.000000000000000E+000
  0.000000000000000E+000
  0.000000000000000E+000
  0.000000000000000E+000
  0.000000000000000E+000
  0.000000000000000E+000
  0.000000000000000E+000
  0.000000000000000E+000
  0.000000000000000E+000
  0.000000000000000E+000
  0.000000000000000E+000
  0.000000000000000E+000
  0.000000000000000E+000
   1.00000000000000     
  0.000000000000000E+000
  0.000000000000000E+000
  0.000000000000000E+000
  0.000000000000000E+000
  0.000000000000000E+000
  0.000000000000000E+000
  0.000000000000000E+000
  0.000000000000000E+000
  0.000000000000000E+000
  0.000000000000000E+000
  0.000000000000000E+000
  0.000000000000000E+000
  0.000000000000000E+000
  0.000000000000000E+000
  0.000000000000000E+000
  0.000000000000000E+000
  0.000000000000000E+000
  0.000000000000000E+000
  0.000000000000000E+000
  0.000000000000000E+000
  0.000000000000000E+000
  0.000000000000000E+000
  0.000000000000000E+000
  0.000000000000000E+000
  0.000000000000000E+000
  0.000000000000000E+000
  0.000000000000000E+000
  0.000000000000000E+000
  0.000000000000000E+000
  0.000000000000000E+000
  0.000000000000000E+000
  0.000000000000000E+000
  0.000000000000000E+000
  0.000000000000000E+000
  0.000000000000000E+000
  0.000000000000000E+000
  0.000000000000000E+000
  0.000000000000000E+000
  0.000000000000000E+000
  0.000000000000000E+000
  0.000000000000000E+000
   1.00000000000000     
   1.00000000000000     
   1.00000000000000     
  0.000000000000000E+000
  0.000000000000000E+000
  0.000000000000000E+000
  0.000000000000000E+000
  0.000000000000000E+000
  0.000000000000000E+000
  0.000000000000000E+000
  0.000000000000000E+000
   1.00000000000000     
   1.00000000000000     
   1.00000000000000     
   1.00000000000000     
   1.00000000000000     
   1.00000000000000     
   1.00000000000000     
  0.000000000000000E+000
  0.000000000000000E+000
  0.000000000000000E+000
  0.000000000000000E+000
  0.000000000000000E+000
  0.000000000000000E+000
  0.000000000000000E+000
   1.00000000000000     
   1.00000000000000     
   1.00000000000000     
   1.00000000000000     
   1.00000000000000     
   1.00000000000000     
   1.00000000000000     
   1.00000000000000     
  0.000000000000000E+000
  0.000000000000000E+000
  0.000000000000000E+000
  0.000000000000000E+000
  0.000000000000000E+000
  0.000000000000000E+000
  0.000000000000000E+000
   1.00000000000000     
   1.00000000000000     
   1.00000000000000     
   1.00000000000000     
   1.00000000000000     
   1.00000000000000     
   1.00000000000000     
   1.00000000000000     
  0.000000000000000E+000
  0.000000000000000E+000
  0.000000000000000E+000
  0.000000000000000E+000
  0.000000000000000E+000
  0.000000000000000E+000
   1.00000000000000     
   1.00000000000000     
   1.00000000000000     
   1.00000000000000     
   1.00000000000000     
   1.00000000000000     
   1.00000000000000     
   1.00000000000000     
   1.00000000000000     
  0.000000000000000E+000
  0.000000000000000E+000
  0.000000000000000E+000
  0.000000000000000E+000
  0.000000000000000E+000
  0.000000000000000E+000
   1.00000000000000     
   1.00000000000000     
   1.00000000000000     
   1.00000000000000     
   1.00000000000000     
   1.00000000000000     
   1.00000000000000     
   1.00000000000000     
   1.00000000000000     
  0.000000000000000E+000
  0.000000000000000E+000
  0.000000000000000E+000
  0.000000000000000E+000
  0.000000000000000E+000
  0.000000000000000E+000
   1.00000000000000     
   1.00000000000000     
   1.00000000000000     
   1.00000000000000     
   1.00000000000000     
   1.00000000000000     
   1.00000000000000     
   1.00000000000000     
   1.00000000000000     
  0.000000000000000E+000
  0.000000000000000E+000
  0.000000000000000E+000
  0.000000000000000E+000
  0.000000000000000E+000
  0.000000000000000E+000
   1.00000000000000     
   1.00000000000000     
   1.00000000000000     
   1.00000000000000     
   1.00000000000000     
   1.00000000000000     
   1.00000000000000     
   1.00000000000000     
   1.00000000000000     
  0.000000000000000E+000
  0.000000000000000E+000
  0.000000000000000E+000
  0.000000000000000E+000
  0.000000000000000E+000
  0.000000000000000E+000
   1.00000000000000     
   1.00000000000000     
   1.00000000000000     
   1.00000000000000     
   1.00000000000000     
   1.00000000000000     
   1.00000000000000     
   1.00000000000000     
   1.00000000000000     
  0.000000000000000E+000
  0.000000000000000E+000
  0.000000000000000E+000
  0.000000000000000E+000
  0.000000000000000E+000
  0.000000000000000E+000
   1.00000000000000     
   1.00000000000000     
   1.00000000000000     
   1.00000000000000     
   1.00000000000000     
   1.00000000000000     
   1.00000000000000     
   1.00000000000000     
   1.00000000000000     
  0.000000000000000E+000
  0.000000000000000E+000
  0.000000000000000E+000
  0.000000000000000E+000
  0.000000000000000E+000
  0.000000000000000E+000
   1.00000000000000     
   1.00000000000000     
   1.00000000000000     
   1.00000000000000     
   1.00000000000000     
   1.00000000000000     
   1.00000000000000     
   1.00000000000000     
   1.00000000000000     
  0.000000000000000E+000
  0.000000000000000E+000
  0.000000000000000E+000
  0.000000000000000E+000
  0.000000000000000E+000
  0.000000000000000E+000
  0.000000000000000E+000
   1.00000000000000     
   1.00000000000000     
   1.00000000000000     
   1.00000000000000     
   1.00000000000000     
   1.00000000000000     
   1.00000000000000     
   1.00000000000000     
  0.000000000000000E+000
  0.000000000000000E+000
  0.000000000000000E+000
  0.000000000000000E+000
  0.000000000000000E+000
  0.000000000000000E+000
  0.000000000000000E+000
  0.000000000000000E+000
   1.00000000000000     
   1.00000000000000     
   1.00000000000000     
   1.00000000000000     
   1.00000000000000     
   1.00000000000000     
   1.00000000000000     
  0.000000000000000E+000
  0.000000000000000E+000
  0.000000000000000E+000
  0.000000000000000E+000
  0.000000000000000E+000
  0.000000000000000E+000
  0.000000000000000E+000
  0.000000000000000E+000
  0.000000000000000E+000
  0.000000000000000E+000
   1.00000000000000     
   1.00000000000000     
   1.00000000000000     
   1.00000000000000     
   1.00000000000000     
SCALARS poroL double 
LOOKUP_TABLE default
  0.155967809753065     
  0.155966121877293     
  0.155964476910119     
  0.155962908096108     
  0.155961450198431     
  0.155959342720153     
  0.155956203461926     
  0.155953342670843     
  0.155950738614538     
  0.155948370320036     
  0.155946219007191     
  0.155944268657544     
  0.155942506018865     
  0.155940920455220     
  0.155939503808169     
  0.155967263536109     
  0.155965574492039     
  0.155963935303410     
  0.155962374664223     
  0.155960921325660     
  0.155958762785942     
  0.155955643073626     
  0.155952803500638     
  0.155950219876757     
  0.155947869826426     
  0.155945734302765     
  0.155943797412405     
  0.155942046073703     
  0.155940469781862     
  0.155939060447832     
  0.155966175315943     
  0.155964486706055     
  0.155962853408452     
  0.155961305733164     
  0.155959859387953     
  0.155957597719185     
  0.155954520561513     
  0.155951726533207     
  0.155949184710908     
  0.155946871191284     
  0.155944767117561     
  0.155942857015577     
  0.155941128197593     
  0.155939570434654     
  0.155938175773840     
  0.155964546110465     
  0.155962861002262     
  0.155961230568659     
  0.155959686637144     
  0.155958248551217     
  0.155955833446052     
  0.155952836385991     
  0.155950116472071     
  0.155947638160730     
  0.155945379215483     
  0.155943321889470     
  0.155941451609879     
  0.155939756365734     
  0.155938226360733     
  0.155936853837714     
  0.155962366207542     
  0.155960686279671     
  0.155959062057732     
  0.155957515399714     
  0.155956044194479     
  0.155953466543299     
  0.155950602030591     
  0.155947982584485     
  0.155945588429552     
  0.155943401208594     
  0.155941405205119     
  0.155939587283915     
  0.155937936399538     
  0.155936443343936     
  0.155935100601443     
  0.155959622557597     
  0.155957950283647     
  0.155956343770424     
  0.155954808600184     
  0.155953250538681     
  0.155950550409513     
  0.155947837243127     
  0.155945338593712     
  0.155943046858107     
  0.155940946842368     
  0.155939025633877     
  0.155937271886580     
  0.155935675778807     
  0.155934228822953     
  0.155932923773677     
  0.155956320568437     
  0.155954656841080     
  0.155953072723556     
  0.155951555368631     
  0.155949834732939     
  0.155947130126221     
  0.155944562284366     
  0.155942201909251     
  0.155940027202085     
  0.155938027822939     
  0.155936193427432     
  0.155934514751901     
  0.155932983369940     
  0.155931591625351     
  0.155930332558447     
  0.155952461119154     
  0.155950814414152     
  0.155949249226441     
  0.155947747217995     
  0.155945759824723     
  0.155943186274139     
  0.155940802770712     
  0.155938590706608     
  0.155936545106857     
  0.155934657341261     
  0.155932920135260     
  0.155931326336004     
  0.155929869064298     
  0.155928541602085     
  0.155927337298473     
  0.155948051042549     
  0.155946431476719     
  0.155944880088745     
  0.155943314639196     
  0.155941116473199     
  0.155938776871698     
  0.155936577569820     
  0.155934525209143     
  0.155932617051191     
  0.155930849613266     
  0.155929218165127     
  0.155927717793247     
  0.155926343318114     
  0.155925089138465     
  0.155923948987724     
  0.155943101700299     
  0.155941514723893     
  0.155939983036372     
  0.155938235215475     
  0.155936047011023     
  0.155933926352345     
  0.155931914388796     
  0.155930024855129     
  0.155928260188644     
  0.155926619413602     
  0.155925100409878     
  0.155923700513326     
  0.155922416575553     
  0.155921244490604     
  0.155920178600412     
  0.155937642971069     
  0.155936096373067     
  0.155934505898245     
  0.155932592074506     
  0.155930593785806     
  0.155928664366590     
  0.155926834849308     
  0.155925109520478     
  0.155923491751875     
  0.155921981980373     
  0.155920580003321     
  0.155919285661604     
  0.155918098527566     
  0.155917016834528     
  0.155916036114234     
  0.155931694616464     
  0.155930173648619     
  0.155928433964788     
  0.155926570828411     
  0.155924748877681     
  0.155923009963582     
  0.155921358092393     
  0.155919797875134     
  0.155918329503490     
  0.155916953256730     
  0.155915670399829     
  0.155914483791477     
  0.155913397115475     
  0.155912412792149     
  0.155911528938210     
  0.155925275765397     
  0.155923652646033     
  0.155921878471048     
  0.155920170100668     
  0.155918527664651     
  0.155916972427137     
  0.155915500936965     
  0.155914108793737     
  0.155912792561200     
  0.155911550874532     
  0.155910386057680     
  0.155909304727324     
  0.155908317222751     
  0.155907433887404     
  0.155906659079329     
  0.155918330048331     
  0.155916624670613     
  0.155914951391876     
  0.155913379616103     
  0.155911925090260     
  0.155910562860949     
  0.155909280115529     
  0.155908063403406     
  0.155906903271603     
  0.155905795951988     
  0.155904744184481     
  0.155903758659324     
  0.155902859038048     
  0.155902072077387     
  0.155901417023088     
  0.155910891246940     
  0.155909143662730     
  0.155907574668439     
  0.155906190852987     
  0.155904940320616     
  0.155903792588254     
  0.155902716539767     
  0.155901688019022     
  0.155900690027384     
  0.155899715273883     
  0.155898767840950     
  0.155897860261623     
  0.155897020139281     
  0.155896299398080     
  0.155895767417912     
  0.155902814234689     
  0.155901113088508     
  0.155899739789985     
  0.155898580462599     
  0.155897577408532     
  0.155896678219310     
  0.155895838928037     
  0.155895018452175     
  0.155894190332494     
  0.155893345153481     
  0.155892486254797     
  0.155891636772066     
  0.155890812913525     
  0.155890071055529     
  0.155889581221115     
  0.155893940666353     
  0.155892514179442     
  0.155891411278170     
  0.155890546463367     
  0.155889844928751     
  0.155889244485791     
  0.155888684237922     
  0.155888110727994     
  0.155887458826178     
  0.155886723899503     
  0.155885946554941     
  0.155885115164230     
  0.155884303385597     
  0.155883564662198     
  0.155882958819233     
  0.155884362768324     
  0.155883320300089     
  0.155882589864582     
  0.155882093714478     
  0.155881760655285     
  0.155881521637372     
  0.155881305345924     
  0.155881022475621     
  0.155880639247802     
  0.155880061690073     
  0.155879493821276     
  0.155878934702794     
  0.155878374489792     
  0.155877719470509     
  0.155876794013433     
  0.155874127671271     
  0.155873562767597     
  0.155873290465187     
  0.155873240533282     
  0.155873346466402     
  0.155873542985551     
  0.155873751845653     
  0.155873890078435     
  0.155873818722727     
  0.155873621163184     
  0.155873433017748     
  0.155873098399174     
  0.155872554603188     
  0.155871747920663     
  0.155870724717169     
  0.155863286116823     
  0.155863282414947     
  0.155863545613569     
  0.155864013179854     
  0.155864627267219     
  0.155865330268606     
  0.155866067312964     
  0.155866678476950     
  0.155866933169787     
  0.155867106511135     
  0.155867122371898     
  0.155866920311828     
  0.155866422287742     
  0.155865624738820     
  0.155864589281443     
  0.155851896985126     
  0.155852529360488     
  0.155853397069234     
  0.155854445446957     
  0.155855626171168     
  0.155856900656742     
  0.155858225670415     
  0.155859220452587     
  0.155859822114553     
  0.155860291636693     
  0.155860538285525     
  0.155860490333098     
  0.155860111473652     
  0.155859396819252     
  0.155858374938762     
  0.155840026780052     
  0.155841362303533     
  0.155842895792897     
  0.155844577902348     
  0.155846371065891     
  0.155848249779728     
  0.155850177562190     
  0.155851500861178     
  0.155852459787614     
  0.155853223983505     
  0.155853713348011     
  0.155853872605923     
  0.155853668622969     
  0.155853081512053     
  0.155852104676089     
  0.155827747364739     
  0.155829848796633     
  0.155832103756456     
  0.155834462803758     
  0.155836894687225     
  0.155839395791753     
  0.155841861206806     
  0.155843524287274     
  0.155844860111984     
  0.155845934757377     
  0.155846688977253     
  0.155847085926198     
  0.155847096637998     
  0.155846685353017     
  0.155845807974376     
  0.155815133354819     
  0.155818066687035     
  0.155821098587994     
  0.155824169815476     
  0.155827250824050     
  0.155830349574801     
  0.155833295197405     
  0.155835352096031     
  0.155837060665989     
  0.155838454697541     
  0.155839485944277     
  0.155840130525854     
  0.155840375350068     
  0.155840187925428     
  0.155839483637434     
  0.155802260761004     
  0.155806108166510     
  0.155809980743197     
  0.155813796787638     
  0.155817520023355     
  0.155821169266927     
  0.155824567645213     
  0.155827039637749     
  0.155829103409455     
  0.155830811486627     
  0.155832121416244     
  0.155833011521631     
  0.155833484909951     
  0.155833555170850     
  0.155833134755530     
  0.155789209214903     
  0.155794088787928     
  0.155798885352461     
  0.155803480676112     
  0.155807828079969     
  0.155811950183911     
  0.155815739784110     
  0.155818640660687     
  0.155821030969751     
  0.155823030883902     
  0.155824613531860     
  0.155825746888492     
  0.155826427444247     
  0.155826710893496     
  0.155826675134256     
  0.155776071441020     
  0.155782167703273     
  0.155788001587630     
  0.155793410385637     
  0.155798351392184     
  0.155802857620219     
  0.155806924280334     
  0.155810236259899     
  0.155812897816262     
  0.155815147939813     
  0.155816972814322     
  0.155818353654150     
  0.155819244357234     
  0.155819707193071     
  0.155820050256499     
  0.155762983029808     
  0.155770594515938     
  0.155777607433284     
  0.155783836068438     
  0.155789307150704     
  0.155794118938331     
  0.155798315920820     
  0.155801852329625     
  0.155804791325772     
  0.155807211221730     
  0.155809208076162     
  0.155810806086592     
  0.155811958485604     
  0.155812603541150     
  0.155813236445834     
  0.155750209114030     
  0.155759843599151     
  0.155768122456111     
  0.155775047064899     
  0.155780925802209     
  0.155785950211428     
  0.155790244904463     
  0.155793807298871     
  0.155796777555263     
  0.155799274219496     
  0.155801387735291     
  0.155803030479700     
  0.155804385283220     
  0.155805480272090     
  0.155806277858093     
  0.155738749876550     
  0.155750921157492     
  0.155759999233322     
  0.155767322091154     
  0.155773402771549     
  0.155778519834441     
  0.155782825732806     
  0.155786428325417     
  0.155789355895806     
  0.155791688807487     
  0.155793541635496     
  0.155794974240078     
  0.155796319074038     
  0.155797639114664     
  0.155799479059558     
