# vtk DataFile Version 3.0
vtk output
ASCII
DATASET UNSTRUCTURED_GRID
POINTS       496 double 
  0.00000000E+00  3.00000000E+02  0.00000000E+00
  0.00000000E+00  2.80000000E+02  0.00000000E+00
  0.00000000E+00  2.60000000E+02  0.00000000E+00
  0.00000000E+00  2.40000000E+02  0.00000000E+00
  0.00000000E+00  2.20000000E+02  0.00000000E+00
  0.00000000E+00  2.00000000E+02  0.00000000E+00
  0.00000000E+00  1.80000000E+02  0.00000000E+00
  0.00000000E+00  1.60000000E+02  0.00000000E+00
  0.00000000E+00  1.40000000E+02  0.00000000E+00
  0.00000000E+00  1.20000000E+02  0.00000000E+00
  0.00000000E+00  1.00000000E+02  0.00000000E+00
  0.00000000E+00  8.00000000E+01  0.00000000E+00
  0.00000000E+00  6.00000000E+01  0.00000000E+00
  0.00000000E+00  4.00000000E+01  0.00000000E+00
  0.00000000E+00  2.00000000E+01  0.00000000E+00
  0.00000000E+00  4.99600361E-14  0.00000000E+00
  2.00000000E+01  3.00000000E+02  0.00000000E+00
  2.00000000E+01  2.80000000E+02  0.00000000E+00
  2.00000000E+01  2.60000000E+02  0.00000000E+00
  2.00000000E+01  2.40000000E+02  0.00000000E+00
  2.00000000E+01  2.20000000E+02  0.00000000E+00
  2.00000000E+01  2.00000000E+02  0.00000000E+00
  2.00000000E+01  1.80000000E+02  0.00000000E+00
  2.00000000E+01  1.60000000E+02  0.00000000E+00
  2.00000000E+01  1.40000000E+02  0.00000000E+00
  2.00000000E+01  1.20000000E+02  0.00000000E+00
  2.00000000E+01  1.00000000E+02  0.00000000E+00
  2.00000000E+01  8.00000000E+01  0.00000000E+00
  2.00000000E+01  6.00000000E+01  0.00000000E+00
  2.00000000E+01  4.00000000E+01  0.00000000E+00
  2.00000000E+01  2.00000000E+01  0.00000000E+00
  2.00000000E+01  4.99600361E-14  0.00000000E+00
  4.00000000E+01  3.00000000E+02  0.00000000E+00
  4.00000000E+01  2.80000000E+02  0.00000000E+00
  4.00000000E+01  2.60000000E+02  0.00000000E+00
  4.00000000E+01  2.40000000E+02  0.00000000E+00
  4.00000000E+01  2.20000000E+02  0.00000000E+00
  4.00000000E+01  2.00000000E+02  0.00000000E+00
  4.00000000E+01  1.80000000E+02  0.00000000E+00
  4.00000000E+01  1.60000000E+02  0.00000000E+00
  4.00000000E+01  1.40000000E+02  0.00000000E+00
  4.00000000E+01  1.20000000E+02  0.00000000E+00
  4.00000000E+01  1.00000000E+02  0.00000000E+00
  4.00000000E+01  8.00000000E+01  0.00000000E+00
  4.00000000E+01  6.00000000E+01  0.00000000E+00
  4.00000000E+01  4.00000000E+01  0.00000000E+00
  4.00000000E+01  2.00000000E+01  0.00000000E+00
  4.00000000E+01  4.99600361E-14  0.00000000E+00
  6.00000000E+01  3.00000000E+02  0.00000000E+00
  6.00000000E+01  2.80000000E+02  0.00000000E+00
  6.00000000E+01  2.60000000E+02  0.00000000E+00
  6.00000000E+01  2.40000000E+02  0.00000000E+00
  6.00000000E+01  2.20000000E+02  0.00000000E+00
  6.00000000E+01  2.00000000E+02  0.00000000E+00
  6.00000000E+01  1.80000000E+02  0.00000000E+00
  6.00000000E+01  1.60000000E+02  0.00000000E+00
  6.00000000E+01  1.40000000E+02  0.00000000E+00
  6.00000000E+01  1.20000000E+02  0.00000000E+00
  6.00000000E+01  1.00000000E+02  0.00000000E+00
  6.00000000E+01  8.00000000E+01  0.00000000E+00
  6.00000000E+01  6.00000000E+01  0.00000000E+00
  6.00000000E+01  4.00000000E+01  0.00000000E+00
  6.00000000E+01  2.00000000E+01  0.00000000E+00
  6.00000000E+01  4.99600361E-14  0.00000000E+00
  8.00000000E+01  3.00000000E+02  0.00000000E+00
  8.00000000E+01  2.80000000E+02  0.00000000E+00
  8.00000000E+01  2.60000000E+02  0.00000000E+00
  8.00000000E+01  2.40000000E+02  0.00000000E+00
  8.00000000E+01  2.20000000E+02  0.00000000E+00
  8.00000000E+01  2.00000000E+02  0.00000000E+00
  8.00000000E+01  1.80000000E+02  0.00000000E+00
  8.00000000E+01  1.60000000E+02  0.00000000E+00
  8.00000000E+01  1.40000000E+02  0.00000000E+00
  8.00000000E+01  1.20000000E+02  0.00000000E+00
  8.00000000E+01  1.00000000E+02  0.00000000E+00
  8.00000000E+01  8.00000000E+01  0.00000000E+00
  8.00000000E+01  6.00000000E+01  0.00000000E+00
  8.00000000E+01  4.00000000E+01  0.00000000E+00
  8.00000000E+01  2.00000000E+01  0.00000000E+00
  8.00000000E+01  4.99600361E-14  0.00000000E+00
  1.00000000E+02  3.00000000E+02  0.00000000E+00
  1.00000000E+02  2.80000000E+02  0.00000000E+00
  1.00000000E+02  2.60000000E+02  0.00000000E+00
  1.00000000E+02  2.40000000E+02  0.00000000E+00
  1.00000000E+02  2.20000000E+02  0.00000000E+00
  1.00000000E+02  2.00000000E+02  0.00000000E+00
  1.00000000E+02  1.80000000E+02  0.00000000E+00
  1.00000000E+02  1.60000000E+02  0.00000000E+00
  1.00000000E+02  1.40000000E+02  0.00000000E+00
  1.00000000E+02  1.20000000E+02  0.00000000E+00
  1.00000000E+02  1.00000000E+02  0.00000000E+00
  1.00000000E+02  8.00000000E+01  0.00000000E+00
  1.00000000E+02  6.00000000E+01  0.00000000E+00
  1.00000000E+02  4.00000000E+01  0.00000000E+00
  1.00000000E+02  2.00000000E+01  0.00000000E+00
  1.00000000E+02  4.99600361E-14  0.00000000E+00
  1.20000000E+02  3.00000000E+02  0.00000000E+00
  1.20000000E+02  2.80000000E+02  0.00000000E+00
  1.20000000E+02  2.60000000E+02  0.00000000E+00
  1.20000000E+02  2.40000000E+02  0.00000000E+00
  1.20000000E+02  2.20000000E+02  0.00000000E+00
  1.20000000E+02  2.00000000E+02  0.00000000E+00
  1.20000000E+02  1.80000000E+02  0.00000000E+00
  1.20000000E+02  1.60000000E+02  0.00000000E+00
  1.20000000E+02  1.40000000E+02  0.00000000E+00
  1.20000000E+02  1.20000000E+02  0.00000000E+00
  1.20000000E+02  1.00000000E+02  0.00000000E+00
  1.20000000E+02  8.00000000E+01  0.00000000E+00
  1.20000000E+02  6.00000000E+01  0.00000000E+00
  1.20000000E+02  4.00000000E+01  0.00000000E+00
  1.20000000E+02  2.00000000E+01  0.00000000E+00
  1.20000000E+02  4.99600361E-14  0.00000000E+00
  1.40000000E+02  3.00000000E+02  0.00000000E+00
  1.40000000E+02  2.80000000E+02  0.00000000E+00
  1.40000000E+02  2.60000000E+02  0.00000000E+00
  1.40000000E+02  2.40000000E+02  0.00000000E+00
  1.40000000E+02  2.20000000E+02  0.00000000E+00
  1.40000000E+02  2.00000000E+02  0.00000000E+00
  1.40000000E+02  1.80000000E+02  0.00000000E+00
  1.40000000E+02  1.60000000E+02  0.00000000E+00
  1.40000000E+02  1.40000000E+02  0.00000000E+00
  1.40000000E+02  1.20000000E+02  0.00000000E+00
  1.40000000E+02  1.00000000E+02  0.00000000E+00
  1.40000000E+02  8.00000000E+01  0.00000000E+00
  1.40000000E+02  6.00000000E+01  0.00000000E+00
  1.40000000E+02  4.00000000E+01  0.00000000E+00
  1.40000000E+02  2.00000000E+01  0.00000000E+00
  1.40000000E+02  4.99600361E-14  0.00000000E+00
  1.60000000E+02  3.00000000E+02  0.00000000E+00
  1.60000000E+02  2.80000000E+02  0.00000000E+00
  1.60000000E+02  2.60000000E+02  0.00000000E+00
  1.60000000E+02  2.40000000E+02  0.00000000E+00
  1.60000000E+02  2.20000000E+02  0.00000000E+00
  1.60000000E+02  2.00000000E+02  0.00000000E+00
  1.60000000E+02  1.80000000E+02  0.00000000E+00
  1.60000000E+02  1.60000000E+02  0.00000000E+00
  1.60000000E+02  1.40000000E+02  0.00000000E+00
  1.60000000E+02  1.20000000E+02  0.00000000E+00
  1.60000000E+02  1.00000000E+02  0.00000000E+00
  1.60000000E+02  8.00000000E+01  0.00000000E+00
  1.60000000E+02  6.00000000E+01  0.00000000E+00
  1.60000000E+02  4.00000000E+01  0.00000000E+00
  1.60000000E+02  2.00000000E+01  0.00000000E+00
  1.60000000E+02  4.99600361E-14  0.00000000E+00
  1.80000000E+02  3.00000000E+02  0.00000000E+00
  1.80000000E+02  2.80000000E+02  0.00000000E+00
  1.80000000E+02  2.60000000E+02  0.00000000E+00
  1.80000000E+02  2.40000000E+02  0.00000000E+00
  1.80000000E+02  2.20000000E+02  0.00000000E+00
  1.80000000E+02  2.00000000E+02  0.00000000E+00
  1.80000000E+02  1.80000000E+02  0.00000000E+00
  1.80000000E+02  1.60000000E+02  0.00000000E+00
  1.80000000E+02  1.40000000E+02  0.00000000E+00
  1.80000000E+02  1.20000000E+02  0.00000000E+00
  1.80000000E+02  1.00000000E+02  0.00000000E+00
  1.80000000E+02  8.00000000E+01  0.00000000E+00
  1.80000000E+02  6.00000000E+01  0.00000000E+00
  1.80000000E+02  4.00000000E+01  0.00000000E+00
  1.80000000E+02  2.00000000E+01  0.00000000E+00
  1.80000000E+02  4.99600361E-14  0.00000000E+00
  2.00000000E+02  3.00000000E+02  0.00000000E+00
  2.00000000E+02  2.80000000E+02  0.00000000E+00
  2.00000000E+02  2.60000000E+02  0.00000000E+00
  2.00000000E+02  2.40000000E+02  0.00000000E+00
  2.00000000E+02  2.20000000E+02  0.00000000E+00
  2.00000000E+02  2.00000000E+02  0.00000000E+00
  2.00000000E+02  1.80000000E+02  0.00000000E+00
  2.00000000E+02  1.60000000E+02  0.00000000E+00
  2.00000000E+02  1.40000000E+02  0.00000000E+00
  2.00000000E+02  1.20000000E+02  0.00000000E+00
  2.00000000E+02  1.00000000E+02  0.00000000E+00
  2.00000000E+02  8.00000000E+01  0.00000000E+00
  2.00000000E+02  6.00000000E+01  0.00000000E+00
  2.00000000E+02  4.00000000E+01  0.00000000E+00
  2.00000000E+02  2.00000000E+01  0.00000000E+00
  2.00000000E+02  4.99600361E-14  0.00000000E+00
  2.20000000E+02  3.00000000E+02  0.00000000E+00
  2.20000000E+02  2.80000000E+02  0.00000000E+00
  2.20000000E+02  2.60000000E+02  0.00000000E+00
  2.20000000E+02  2.40000000E+02  0.00000000E+00
  2.20000000E+02  2.20000000E+02  0.00000000E+00
  2.20000000E+02  2.00000000E+02  0.00000000E+00
  2.20000000E+02  1.80000000E+02  0.00000000E+00
  2.20000000E+02  1.60000000E+02  0.00000000E+00
  2.20000000E+02  1.40000000E+02  0.00000000E+00
  2.20000000E+02  1.20000000E+02  0.00000000E+00
  2.20000000E+02  1.00000000E+02  0.00000000E+00
  2.20000000E+02  8.00000000E+01  0.00000000E+00
  2.20000000E+02  6.00000000E+01  0.00000000E+00
  2.20000000E+02  4.00000000E+01  0.00000000E+00
  2.20000000E+02  2.00000000E+01  0.00000000E+00
  2.20000000E+02  4.99600361E-14  0.00000000E+00
  2.40000000E+02  3.00000000E+02  0.00000000E+00
  2.40000000E+02  2.80000000E+02  0.00000000E+00
  2.40000000E+02  2.60000000E+02  0.00000000E+00
  2.40000000E+02  2.40000000E+02  0.00000000E+00
  2.40000000E+02  2.20000000E+02  0.00000000E+00
  2.40000000E+02  2.00000000E+02  0.00000000E+00
  2.40000000E+02  1.80000000E+02  0.00000000E+00
  2.40000000E+02  1.60000000E+02  0.00000000E+00
  2.40000000E+02  1.40000000E+02  0.00000000E+00
  2.40000000E+02  1.20000000E+02  0.00000000E+00
  2.40000000E+02  1.00000000E+02  0.00000000E+00
  2.40000000E+02  8.00000000E+01  0.00000000E+00
  2.40000000E+02  6.00000000E+01  0.00000000E+00
  2.40000000E+02  4.00000000E+01  0.00000000E+00
  2.40000000E+02  2.00000000E+01  0.00000000E+00
  2.40000000E+02  4.99600361E-14  0.00000000E+00
  2.60000000E+02  3.00000000E+02  0.00000000E+00
  2.60000000E+02  2.80000000E+02  0.00000000E+00
  2.60000000E+02  2.60000000E+02  0.00000000E+00
  2.60000000E+02  2.40000000E+02  0.00000000E+00
  2.60000000E+02  2.20000000E+02  0.00000000E+00
  2.60000000E+02  2.00000000E+02  0.00000000E+00
  2.60000000E+02  1.80000000E+02  0.00000000E+00
  2.60000000E+02  1.60000000E+02  0.00000000E+00
  2.60000000E+02  1.40000000E+02  0.00000000E+00
  2.60000000E+02  1.20000000E+02  0.00000000E+00
  2.60000000E+02  1.00000000E+02  0.00000000E+00
  2.60000000E+02  8.00000000E+01  0.00000000E+00
  2.60000000E+02  6.00000000E+01  0.00000000E+00
  2.60000000E+02  4.00000000E+01  0.00000000E+00
  2.60000000E+02  2.00000000E+01  0.00000000E+00
  2.60000000E+02  4.99600361E-14  0.00000000E+00
  2.80000000E+02  3.00000000E+02  0.00000000E+00
  2.80000000E+02  2.80000000E+02  0.00000000E+00
  2.80000000E+02  2.60000000E+02  0.00000000E+00
  2.80000000E+02  2.40000000E+02  0.00000000E+00
  2.80000000E+02  2.20000000E+02  0.00000000E+00
  2.80000000E+02  2.00000000E+02  0.00000000E+00
  2.80000000E+02  1.80000000E+02  0.00000000E+00
  2.80000000E+02  1.60000000E+02  0.00000000E+00
  2.80000000E+02  1.40000000E+02  0.00000000E+00
  2.80000000E+02  1.20000000E+02  0.00000000E+00
  2.80000000E+02  1.00000000E+02  0.00000000E+00
  2.80000000E+02  8.00000000E+01  0.00000000E+00
  2.80000000E+02  6.00000000E+01  0.00000000E+00
  2.80000000E+02  4.00000000E+01  0.00000000E+00
  2.80000000E+02  2.00000000E+01  0.00000000E+00
  2.80000000E+02  4.99600361E-14  0.00000000E+00
  3.00000000E+02  3.00000000E+02  0.00000000E+00
  3.00000000E+02  2.80000000E+02  0.00000000E+00
  3.00000000E+02  2.60000000E+02  0.00000000E+00
  3.00000000E+02  2.40000000E+02  0.00000000E+00
  3.00000000E+02  2.20000000E+02  0.00000000E+00
  3.00000000E+02  2.00000000E+02  0.00000000E+00
  3.00000000E+02  1.80000000E+02  0.00000000E+00
  3.00000000E+02  1.60000000E+02  0.00000000E+00
  3.00000000E+02  1.40000000E+02  0.00000000E+00
  3.00000000E+02  1.20000000E+02  0.00000000E+00
  3.00000000E+02  1.00000000E+02  0.00000000E+00
  3.00000000E+02  8.00000000E+01  0.00000000E+00
  3.00000000E+02  6.00000000E+01  0.00000000E+00
  3.00000000E+02  4.00000000E+01  0.00000000E+00
  3.00000000E+02  2.00000000E+01  0.00000000E+00
  3.00000000E+02  4.99600361E-14  0.00000000E+00
  3.20000000E+02  3.00000000E+02  0.00000000E+00
  3.20000000E+02  2.80000000E+02  0.00000000E+00
  3.20000000E+02  2.60000000E+02  0.00000000E+00
  3.20000000E+02  2.40000000E+02  0.00000000E+00
  3.20000000E+02  2.20000000E+02  0.00000000E+00
  3.20000000E+02  2.00000000E+02  0.00000000E+00
  3.20000000E+02  1.80000000E+02  0.00000000E+00
  3.20000000E+02  1.60000000E+02  0.00000000E+00
  3.20000000E+02  1.40000000E+02  0.00000000E+00
  3.20000000E+02  1.20000000E+02  0.00000000E+00
  3.20000000E+02  1.00000000E+02  0.00000000E+00
  3.20000000E+02  8.00000000E+01  0.00000000E+00
  3.20000000E+02  6.00000000E+01  0.00000000E+00
  3.20000000E+02  4.00000000E+01  0.00000000E+00
  3.20000000E+02  2.00000000E+01  0.00000000E+00
  3.20000000E+02  4.99600361E-14  0.00000000E+00
  3.40000000E+02  3.00000000E+02  0.00000000E+00
  3.40000000E+02  2.80000000E+02  0.00000000E+00
  3.40000000E+02  2.60000000E+02  0.00000000E+00
  3.40000000E+02  2.40000000E+02  0.00000000E+00
  3.40000000E+02  2.20000000E+02  0.00000000E+00
  3.40000000E+02  2.00000000E+02  0.00000000E+00
  3.40000000E+02  1.80000000E+02  0.00000000E+00
  3.40000000E+02  1.60000000E+02  0.00000000E+00
  3.40000000E+02  1.40000000E+02  0.00000000E+00
  3.40000000E+02  1.20000000E+02  0.00000000E+00
  3.40000000E+02  1.00000000E+02  0.00000000E+00
  3.40000000E+02  8.00000000E+01  0.00000000E+00
  3.40000000E+02  6.00000000E+01  0.00000000E+00
  3.40000000E+02  4.00000000E+01  0.00000000E+00
  3.40000000E+02  2.00000000E+01  0.00000000E+00
  3.40000000E+02  4.99600361E-14  0.00000000E+00
  3.60000000E+02  3.00000000E+02  0.00000000E+00
  3.60000000E+02  2.80000000E+02  0.00000000E+00
  3.60000000E+02  2.60000000E+02  0.00000000E+00
  3.60000000E+02  2.40000000E+02  0.00000000E+00
  3.60000000E+02  2.20000000E+02  0.00000000E+00
  3.60000000E+02  2.00000000E+02  0.00000000E+00
  3.60000000E+02  1.80000000E+02  0.00000000E+00
  3.60000000E+02  1.60000000E+02  0.00000000E+00
  3.60000000E+02  1.40000000E+02  0.00000000E+00
  3.60000000E+02  1.20000000E+02  0.00000000E+00
  3.60000000E+02  1.00000000E+02  0.00000000E+00
  3.60000000E+02  8.00000000E+01  0.00000000E+00
  3.60000000E+02  6.00000000E+01  0.00000000E+00
  3.60000000E+02  4.00000000E+01  0.00000000E+00
  3.60000000E+02  2.00000000E+01  0.00000000E+00
  3.60000000E+02  4.99600361E-14  0.00000000E+00
  3.80000000E+02  3.00000000E+02  0.00000000E+00
  3.80000000E+02  2.80000000E+02  0.00000000E+00
  3.80000000E+02  2.60000000E+02  0.00000000E+00
  3.80000000E+02  2.40000000E+02  0.00000000E+00
  3.80000000E+02  2.20000000E+02  0.00000000E+00
  3.80000000E+02  2.00000000E+02  0.00000000E+00
  3.80000000E+02  1.80000000E+02  0.00000000E+00
  3.80000000E+02  1.60000000E+02  0.00000000E+00
  3.80000000E+02  1.40000000E+02  0.00000000E+00
  3.80000000E+02  1.20000000E+02  0.00000000E+00
  3.80000000E+02  1.00000000E+02  0.00000000E+00
  3.80000000E+02  8.00000000E+01  0.00000000E+00
  3.80000000E+02  6.00000000E+01  0.00000000E+00
  3.80000000E+02  4.00000000E+01  0.00000000E+00
  3.80000000E+02  2.00000000E+01  0.00000000E+00
  3.80000000E+02  4.99600361E-14  0.00000000E+00
  4.00000000E+02  3.00000000E+02  0.00000000E+00
  4.00000000E+02  2.80000000E+02  0.00000000E+00
  4.00000000E+02  2.60000000E+02  0.00000000E+00
  4.00000000E+02  2.40000000E+02  0.00000000E+00
  4.00000000E+02  2.20000000E+02  0.00000000E+00
  4.00000000E+02  2.00000000E+02  0.00000000E+00
  4.00000000E+02  1.80000000E+02  0.00000000E+00
  4.00000000E+02  1.60000000E+02  0.00000000E+00
  4.00000000E+02  1.40000000E+02  0.00000000E+00
  4.00000000E+02  1.20000000E+02  0.00000000E+00
  4.00000000E+02  1.00000000E+02  0.00000000E+00
  4.00000000E+02  8.00000000E+01  0.00000000E+00
  4.00000000E+02  6.00000000E+01  0.00000000E+00
  4.00000000E+02  4.00000000E+01  0.00000000E+00
  4.00000000E+02  2.00000000E+01  0.00000000E+00
  4.00000000E+02  4.99600361E-14  0.00000000E+00
  4.20000000E+02  3.00000000E+02  0.00000000E+00
  4.20000000E+02  2.80000000E+02  0.00000000E+00
  4.20000000E+02  2.60000000E+02  0.00000000E+00
  4.20000000E+02  2.40000000E+02  0.00000000E+00
  4.20000000E+02  2.20000000E+02  0.00000000E+00
  4.20000000E+02  2.00000000E+02  0.00000000E+00
  4.20000000E+02  1.80000000E+02  0.00000000E+00
  4.20000000E+02  1.60000000E+02  0.00000000E+00
  4.20000000E+02  1.40000000E+02  0.00000000E+00
  4.20000000E+02  1.20000000E+02  0.00000000E+00
  4.20000000E+02  1.00000000E+02  0.00000000E+00
  4.20000000E+02  8.00000000E+01  0.00000000E+00
  4.20000000E+02  6.00000000E+01  0.00000000E+00
  4.20000000E+02  4.00000000E+01  0.00000000E+00
  4.20000000E+02  2.00000000E+01  0.00000000E+00
  4.20000000E+02  4.99600361E-14  0.00000000E+00
  4.40000000E+02  3.00000000E+02  0.00000000E+00
  4.40000000E+02  2.80000000E+02  0.00000000E+00
  4.40000000E+02  2.60000000E+02  0.00000000E+00
  4.40000000E+02  2.40000000E+02  0.00000000E+00
  4.40000000E+02  2.20000000E+02  0.00000000E+00
  4.40000000E+02  2.00000000E+02  0.00000000E+00
  4.40000000E+02  1.80000000E+02  0.00000000E+00
  4.40000000E+02  1.60000000E+02  0.00000000E+00
  4.40000000E+02  1.40000000E+02  0.00000000E+00
  4.40000000E+02  1.20000000E+02  0.00000000E+00
  4.40000000E+02  1.00000000E+02  0.00000000E+00
  4.40000000E+02  8.00000000E+01  0.00000000E+00
  4.40000000E+02  6.00000000E+01  0.00000000E+00
  4.40000000E+02  4.00000000E+01  0.00000000E+00
  4.40000000E+02  2.00000000E+01  0.00000000E+00
  4.40000000E+02  4.99600361E-14  0.00000000E+00
  4.60000000E+02  3.00000000E+02  0.00000000E+00
  4.60000000E+02  2.80000000E+02  0.00000000E+00
  4.60000000E+02  2.60000000E+02  0.00000000E+00
  4.60000000E+02  2.40000000E+02  0.00000000E+00
  4.60000000E+02  2.20000000E+02  0.00000000E+00
  4.60000000E+02  2.00000000E+02  0.00000000E+00
  4.60000000E+02  1.80000000E+02  0.00000000E+00
  4.60000000E+02  1.60000000E+02  0.00000000E+00
  4.60000000E+02  1.40000000E+02  0.00000000E+00
  4.60000000E+02  1.20000000E+02  0.00000000E+00
  4.60000000E+02  1.00000000E+02  0.00000000E+00
  4.60000000E+02  8.00000000E+01  0.00000000E+00
  4.60000000E+02  6.00000000E+01  0.00000000E+00
  4.60000000E+02  4.00000000E+01  0.00000000E+00
  4.60000000E+02  2.00000000E+01  0.00000000E+00
  4.60000000E+02  4.99600361E-14  0.00000000E+00
  4.80000000E+02  3.00000000E+02  0.00000000E+00
  4.80000000E+02  2.80000000E+02  0.00000000E+00
  4.80000000E+02  2.60000000E+02  0.00000000E+00
  4.80000000E+02  2.40000000E+02  0.00000000E+00
  4.80000000E+02  2.20000000E+02  0.00000000E+00
  4.80000000E+02  2.00000000E+02  0.00000000E+00
  4.80000000E+02  1.80000000E+02  0.00000000E+00
  4.80000000E+02  1.60000000E+02  0.00000000E+00
  4.80000000E+02  1.40000000E+02  0.00000000E+00
  4.80000000E+02  1.20000000E+02  0.00000000E+00
  4.80000000E+02  1.00000000E+02  0.00000000E+00
  4.80000000E+02  8.00000000E+01  0.00000000E+00
  4.80000000E+02  6.00000000E+01  0.00000000E+00
  4.80000000E+02  4.00000000E+01  0.00000000E+00
  4.80000000E+02  2.00000000E+01  0.00000000E+00
  4.80000000E+02  4.99600361E-14  0.00000000E+00
  5.00000000E+02  3.00000000E+02  0.00000000E+00
  5.00000000E+02  2.80000000E+02  0.00000000E+00
  5.00000000E+02  2.60000000E+02  0.00000000E+00
  5.00000000E+02  2.40000000E+02  0.00000000E+00
  5.00000000E+02  2.20000000E+02  0.00000000E+00
  5.00000000E+02  2.00000000E+02  0.00000000E+00
  5.00000000E+02  1.80000000E+02  0.00000000E+00
  5.00000000E+02  1.60000000E+02  0.00000000E+00
  5.00000000E+02  1.40000000E+02  0.00000000E+00
  5.00000000E+02  1.20000000E+02  0.00000000E+00
  5.00000000E+02  1.00000000E+02  0.00000000E+00
  5.00000000E+02  8.00000000E+01  0.00000000E+00
  5.00000000E+02  6.00000000E+01  0.00000000E+00
  5.00000000E+02  4.00000000E+01  0.00000000E+00
  5.00000000E+02  2.00000000E+01  0.00000000E+00
  5.00000000E+02  4.99600361E-14  0.00000000E+00
  5.20000000E+02  3.00000000E+02  0.00000000E+00
  5.20000000E+02  2.80000000E+02  0.00000000E+00
  5.20000000E+02  2.60000000E+02  0.00000000E+00
  5.20000000E+02  2.40000000E+02  0.00000000E+00
  5.20000000E+02  2.20000000E+02  0.00000000E+00
  5.20000000E+02  2.00000000E+02  0.00000000E+00
  5.20000000E+02  1.80000000E+02  0.00000000E+00
  5.20000000E+02  1.60000000E+02  0.00000000E+00
  5.20000000E+02  1.40000000E+02  0.00000000E+00
  5.20000000E+02  1.20000000E+02  0.00000000E+00
  5.20000000E+02  1.00000000E+02  0.00000000E+00
  5.20000000E+02  8.00000000E+01  0.00000000E+00
  5.20000000E+02  6.00000000E+01  0.00000000E+00
  5.20000000E+02  4.00000000E+01  0.00000000E+00
  5.20000000E+02  2.00000000E+01  0.00000000E+00
  5.20000000E+02  4.99600361E-14  0.00000000E+00
  5.40000000E+02  3.00000000E+02  0.00000000E+00
  5.40000000E+02  2.80000000E+02  0.00000000E+00
  5.40000000E+02  2.60000000E+02  0.00000000E+00
  5.40000000E+02  2.40000000E+02  0.00000000E+00
  5.40000000E+02  2.20000000E+02  0.00000000E+00
  5.40000000E+02  2.00000000E+02  0.00000000E+00
  5.40000000E+02  1.80000000E+02  0.00000000E+00
  5.40000000E+02  1.60000000E+02  0.00000000E+00
  5.40000000E+02  1.40000000E+02  0.00000000E+00
  5.40000000E+02  1.20000000E+02  0.00000000E+00
  5.40000000E+02  1.00000000E+02  0.00000000E+00
  5.40000000E+02  8.00000000E+01  0.00000000E+00
  5.40000000E+02  6.00000000E+01  0.00000000E+00
  5.40000000E+02  4.00000000E+01  0.00000000E+00
  5.40000000E+02  2.00000000E+01  0.00000000E+00
  5.40000000E+02  4.99600361E-14  0.00000000E+00
  5.60000000E+02  3.00000000E+02  0.00000000E+00
  5.60000000E+02  2.80000000E+02  0.00000000E+00
  5.60000000E+02  2.60000000E+02  0.00000000E+00
  5.60000000E+02  2.40000000E+02  0.00000000E+00
  5.60000000E+02  2.20000000E+02  0.00000000E+00
  5.60000000E+02  2.00000000E+02  0.00000000E+00
  5.60000000E+02  1.80000000E+02  0.00000000E+00
  5.60000000E+02  1.60000000E+02  0.00000000E+00
  5.60000000E+02  1.40000000E+02  0.00000000E+00
  5.60000000E+02  1.20000000E+02  0.00000000E+00
  5.60000000E+02  1.00000000E+02  0.00000000E+00
  5.60000000E+02  8.00000000E+01  0.00000000E+00
  5.60000000E+02  6.00000000E+01  0.00000000E+00
  5.60000000E+02  4.00000000E+01  0.00000000E+00
  5.60000000E+02  2.00000000E+01  0.00000000E+00
  5.60000000E+02  4.99600361E-14  0.00000000E+00
  5.80000000E+02  3.00000000E+02  0.00000000E+00
  5.80000000E+02  2.80000000E+02  0.00000000E+00
  5.80000000E+02  2.60000000E+02  0.00000000E+00
  5.80000000E+02  2.40000000E+02  0.00000000E+00
  5.80000000E+02  2.20000000E+02  0.00000000E+00
  5.80000000E+02  2.00000000E+02  0.00000000E+00
  5.80000000E+02  1.80000000E+02  0.00000000E+00
  5.80000000E+02  1.60000000E+02  0.00000000E+00
  5.80000000E+02  1.40000000E+02  0.00000000E+00
  5.80000000E+02  1.20000000E+02  0.00000000E+00
  5.80000000E+02  1.00000000E+02  0.00000000E+00
  5.80000000E+02  8.00000000E+01  0.00000000E+00
  5.80000000E+02  6.00000000E+01  0.00000000E+00
  5.80000000E+02  4.00000000E+01  0.00000000E+00
  5.80000000E+02  2.00000000E+01  0.00000000E+00
  5.80000000E+02  4.99600361E-14  0.00000000E+00
  6.00000000E+02  3.00000000E+02  0.00000000E+00
  6.00000000E+02  2.80000000E+02  0.00000000E+00
  6.00000000E+02  2.60000000E+02  0.00000000E+00
  6.00000000E+02  2.40000000E+02  0.00000000E+00
  6.00000000E+02  2.20000000E+02  0.00000000E+00
  6.00000000E+02  2.00000000E+02  0.00000000E+00
  6.00000000E+02  1.80000000E+02  0.00000000E+00
  6.00000000E+02  1.60000000E+02  0.00000000E+00
  6.00000000E+02  1.40000000E+02  0.00000000E+00
  6.00000000E+02  1.20000000E+02  0.00000000E+00
  6.00000000E+02  1.00000000E+02  0.00000000E+00
  6.00000000E+02  8.00000000E+01  0.00000000E+00
  6.00000000E+02  6.00000000E+01  0.00000000E+00
  6.00000000E+02  4.00000000E+01  0.00000000E+00
  6.00000000E+02  2.00000000E+01  0.00000000E+00
  6.00000000E+02  4.99600361E-14  0.00000000E+00
CELLS       450      2250
         4           0           1          17          16
         4           1           2          18          17
         4           2           3          19          18
         4           3           4          20          19
         4           4           5          21          20
         4           5           6          22          21
         4           6           7          23          22
         4           7           8          24          23
         4           8           9          25          24
         4           9          10          26          25
         4          10          11          27          26
         4          11          12          28          27
         4          12          13          29          28
         4          13          14          30          29
         4          14          15          31          30
         4          16          17          33          32
         4          17          18          34          33
         4          18          19          35          34
         4          19          20          36          35
         4          20          21          37          36
         4          21          22          38          37
         4          22          23          39          38
         4          23          24          40          39
         4          24          25          41          40
         4          25          26          42          41
         4          26          27          43          42
         4          27          28          44          43
         4          28          29          45          44
         4          29          30          46          45
         4          30          31          47          46
         4          32          33          49          48
         4          33          34          50          49
         4          34          35          51          50
         4          35          36          52          51
         4          36          37          53          52
         4          37          38          54          53
         4          38          39          55          54
         4          39          40          56          55
         4          40          41          57          56
         4          41          42          58          57
         4          42          43          59          58
         4          43          44          60          59
         4          44          45          61          60
         4          45          46          62          61
         4          46          47          63          62
         4          48          49          65          64
         4          49          50          66          65
         4          50          51          67          66
         4          51          52          68          67
         4          52          53          69          68
         4          53          54          70          69
         4          54          55          71          70
         4          55          56          72          71
         4          56          57          73          72
         4          57          58          74          73
         4          58          59          75          74
         4          59          60          76          75
         4          60          61          77          76
         4          61          62          78          77
         4          62          63          79          78
         4          64          65          81          80
         4          65          66          82          81
         4          66          67          83          82
         4          67          68          84          83
         4          68          69          85          84
         4          69          70          86          85
         4          70          71          87          86
         4          71          72          88          87
         4          72          73          89          88
         4          73          74          90          89
         4          74          75          91          90
         4          75          76          92          91
         4          76          77          93          92
         4          77          78          94          93
         4          78          79          95          94
         4          80          81          97          96
         4          81          82          98          97
         4          82          83          99          98
         4          83          84         100          99
         4          84          85         101         100
         4          85          86         102         101
         4          86          87         103         102
         4          87          88         104         103
         4          88          89         105         104
         4          89          90         106         105
         4          90          91         107         106
         4          91          92         108         107
         4          92          93         109         108
         4          93          94         110         109
         4          94          95         111         110
         4          96          97         113         112
         4          97          98         114         113
         4          98          99         115         114
         4          99         100         116         115
         4         100         101         117         116
         4         101         102         118         117
         4         102         103         119         118
         4         103         104         120         119
         4         104         105         121         120
         4         105         106         122         121
         4         106         107         123         122
         4         107         108         124         123
         4         108         109         125         124
         4         109         110         126         125
         4         110         111         127         126
         4         112         113         129         128
         4         113         114         130         129
         4         114         115         131         130
         4         115         116         132         131
         4         116         117         133         132
         4         117         118         134         133
         4         118         119         135         134
         4         119         120         136         135
         4         120         121         137         136
         4         121         122         138         137
         4         122         123         139         138
         4         123         124         140         139
         4         124         125         141         140
         4         125         126         142         141
         4         126         127         143         142
         4         128         129         145         144
         4         129         130         146         145
         4         130         131         147         146
         4         131         132         148         147
         4         132         133         149         148
         4         133         134         150         149
         4         134         135         151         150
         4         135         136         152         151
         4         136         137         153         152
         4         137         138         154         153
         4         138         139         155         154
         4         139         140         156         155
         4         140         141         157         156
         4         141         142         158         157
         4         142         143         159         158
         4         144         145         161         160
         4         145         146         162         161
         4         146         147         163         162
         4         147         148         164         163
         4         148         149         165         164
         4         149         150         166         165
         4         150         151         167         166
         4         151         152         168         167
         4         152         153         169         168
         4         153         154         170         169
         4         154         155         171         170
         4         155         156         172         171
         4         156         157         173         172
         4         157         158         174         173
         4         158         159         175         174
         4         160         161         177         176
         4         161         162         178         177
         4         162         163         179         178
         4         163         164         180         179
         4         164         165         181         180
         4         165         166         182         181
         4         166         167         183         182
         4         167         168         184         183
         4         168         169         185         184
         4         169         170         186         185
         4         170         171         187         186
         4         171         172         188         187
         4         172         173         189         188
         4         173         174         190         189
         4         174         175         191         190
         4         176         177         193         192
         4         177         178         194         193
         4         178         179         195         194
         4         179         180         196         195
         4         180         181         197         196
         4         181         182         198         197
         4         182         183         199         198
         4         183         184         200         199
         4         184         185         201         200
         4         185         186         202         201
         4         186         187         203         202
         4         187         188         204         203
         4         188         189         205         204
         4         189         190         206         205
         4         190         191         207         206
         4         192         193         209         208
         4         193         194         210         209
         4         194         195         211         210
         4         195         196         212         211
         4         196         197         213         212
         4         197         198         214         213
         4         198         199         215         214
         4         199         200         216         215
         4         200         201         217         216
         4         201         202         218         217
         4         202         203         219         218
         4         203         204         220         219
         4         204         205         221         220
         4         205         206         222         221
         4         206         207         223         222
         4         208         209         225         224
         4         209         210         226         225
         4         210         211         227         226
         4         211         212         228         227
         4         212         213         229         228
         4         213         214         230         229
         4         214         215         231         230
         4         215         216         232         231
         4         216         217         233         232
         4         217         218         234         233
         4         218         219         235         234
         4         219         220         236         235
         4         220         221         237         236
         4         221         222         238         237
         4         222         223         239         238
         4         224         225         241         240
         4         225         226         242         241
         4         226         227         243         242
         4         227         228         244         243
         4         228         229         245         244
         4         229         230         246         245
         4         230         231         247         246
         4         231         232         248         247
         4         232         233         249         248
         4         233         234         250         249
         4         234         235         251         250
         4         235         236         252         251
         4         236         237         253         252
         4         237         238         254         253
         4         238         239         255         254
         4         240         241         257         256
         4         241         242         258         257
         4         242         243         259         258
         4         243         244         260         259
         4         244         245         261         260
         4         245         246         262         261
         4         246         247         263         262
         4         247         248         264         263
         4         248         249         265         264
         4         249         250         266         265
         4         250         251         267         266
         4         251         252         268         267
         4         252         253         269         268
         4         253         254         270         269
         4         254         255         271         270
         4         256         257         273         272
         4         257         258         274         273
         4         258         259         275         274
         4         259         260         276         275
         4         260         261         277         276
         4         261         262         278         277
         4         262         263         279         278
         4         263         264         280         279
         4         264         265         281         280
         4         265         266         282         281
         4         266         267         283         282
         4         267         268         284         283
         4         268         269         285         284
         4         269         270         286         285
         4         270         271         287         286
         4         272         273         289         288
         4         273         274         290         289
         4         274         275         291         290
         4         275         276         292         291
         4         276         277         293         292
         4         277         278         294         293
         4         278         279         295         294
         4         279         280         296         295
         4         280         281         297         296
         4         281         282         298         297
         4         282         283         299         298
         4         283         284         300         299
         4         284         285         301         300
         4         285         286         302         301
         4         286         287         303         302
         4         288         289         305         304
         4         289         290         306         305
         4         290         291         307         306
         4         291         292         308         307
         4         292         293         309         308
         4         293         294         310         309
         4         294         295         311         310
         4         295         296         312         311
         4         296         297         313         312
         4         297         298         314         313
         4         298         299         315         314
         4         299         300         316         315
         4         300         301         317         316
         4         301         302         318         317
         4         302         303         319         318
         4         304         305         321         320
         4         305         306         322         321
         4         306         307         323         322
         4         307         308         324         323
         4         308         309         325         324
         4         309         310         326         325
         4         310         311         327         326
         4         311         312         328         327
         4         312         313         329         328
         4         313         314         330         329
         4         314         315         331         330
         4         315         316         332         331
         4         316         317         333         332
         4         317         318         334         333
         4         318         319         335         334
         4         320         321         337         336
         4         321         322         338         337
         4         322         323         339         338
         4         323         324         340         339
         4         324         325         341         340
         4         325         326         342         341
         4         326         327         343         342
         4         327         328         344         343
         4         328         329         345         344
         4         329         330         346         345
         4         330         331         347         346
         4         331         332         348         347
         4         332         333         349         348
         4         333         334         350         349
         4         334         335         351         350
         4         336         337         353         352
         4         337         338         354         353
         4         338         339         355         354
         4         339         340         356         355
         4         340         341         357         356
         4         341         342         358         357
         4         342         343         359         358
         4         343         344         360         359
         4         344         345         361         360
         4         345         346         362         361
         4         346         347         363         362
         4         347         348         364         363
         4         348         349         365         364
         4         349         350         366         365
         4         350         351         367         366
         4         352         353         369         368
         4         353         354         370         369
         4         354         355         371         370
         4         355         356         372         371
         4         356         357         373         372
         4         357         358         374         373
         4         358         359         375         374
         4         359         360         376         375
         4         360         361         377         376
         4         361         362         378         377
         4         362         363         379         378
         4         363         364         380         379
         4         364         365         381         380
         4         365         366         382         381
         4         366         367         383         382
         4         368         369         385         384
         4         369         370         386         385
         4         370         371         387         386
         4         371         372         388         387
         4         372         373         389         388
         4         373         374         390         389
         4         374         375         391         390
         4         375         376         392         391
         4         376         377         393         392
         4         377         378         394         393
         4         378         379         395         394
         4         379         380         396         395
         4         380         381         397         396
         4         381         382         398         397
         4         382         383         399         398
         4         384         385         401         400
         4         385         386         402         401
         4         386         387         403         402
         4         387         388         404         403
         4         388         389         405         404
         4         389         390         406         405
         4         390         391         407         406
         4         391         392         408         407
         4         392         393         409         408
         4         393         394         410         409
         4         394         395         411         410
         4         395         396         412         411
         4         396         397         413         412
         4         397         398         414         413
         4         398         399         415         414
         4         400         401         417         416
         4         401         402         418         417
         4         402         403         419         418
         4         403         404         420         419
         4         404         405         421         420
         4         405         406         422         421
         4         406         407         423         422
         4         407         408         424         423
         4         408         409         425         424
         4         409         410         426         425
         4         410         411         427         426
         4         411         412         428         427
         4         412         413         429         428
         4         413         414         430         429
         4         414         415         431         430
         4         416         417         433         432
         4         417         418         434         433
         4         418         419         435         434
         4         419         420         436         435
         4         420         421         437         436
         4         421         422         438         437
         4         422         423         439         438
         4         423         424         440         439
         4         424         425         441         440
         4         425         426         442         441
         4         426         427         443         442
         4         427         428         444         443
         4         428         429         445         444
         4         429         430         446         445
         4         430         431         447         446
         4         432         433         449         448
         4         433         434         450         449
         4         434         435         451         450
         4         435         436         452         451
         4         436         437         453         452
         4         437         438         454         453
         4         438         439         455         454
         4         439         440         456         455
         4         440         441         457         456
         4         441         442         458         457
         4         442         443         459         458
         4         443         444         460         459
         4         444         445         461         460
         4         445         446         462         461
         4         446         447         463         462
         4         448         449         465         464
         4         449         450         466         465
         4         450         451         467         466
         4         451         452         468         467
         4         452         453         469         468
         4         453         454         470         469
         4         454         455         471         470
         4         455         456         472         471
         4         456         457         473         472
         4         457         458         474         473
         4         458         459         475         474
         4         459         460         476         475
         4         460         461         477         476
         4         461         462         478         477
         4         462         463         479         478
         4         464         465         481         480
         4         465         466         482         481
         4         466         467         483         482
         4         467         468         484         483
         4         468         469         485         484
         4         469         470         486         485
         4         470         471         487         486
         4         471         472         488         487
         4         472         473         489         488
         4         473         474         490         489
         4         474         475         491         490
         4         475         476         492         491
         4         476         477         493         492
         4         477         478         494         493
         4         478         479         495         494
CELL_TYPES        450
9
9
9
9
9
9
9
9
9
9
9
9
9
9
9
9
9
9
9
9
9
9
9
9
9
9
9
9
9
9
9
9
9
9
9
9
9
9
9
9
9
9
9
9
9
9
9
9
9
9
9
9
9
9
9
9
9
9
9
9
9
9
9
9
9
9
9
9
9
9
9
9
9
9
9
9
9
9
9
9
9
9
9
9
9
9
9
9
9
9
9
9
9
9
9
9
9
9
9
9
9
9
9
9
9
9
9
9
9
9
9
9
9
9
9
9
9
9
9
9
9
9
9
9
9
9
9
9
9
9
9
9
9
9
9
9
9
9
9
9
9
9
9
9
9
9
9
9
9
9
9
9
9
9
9
9
9
9
9
9
9
9
9
9
9
9
9
9
9
9
9
9
9
9
9
9
9
9
9
9
9
9
9
9
9
9
9
9
9
9
9
9
9
9
9
9
9
9
9
9
9
9
9
9
9
9
9
9
9
9
9
9
9
9
9
9
9
9
9
9
9
9
9
9
9
9
9
9
9
9
9
9
9
9
9
9
9
9
9
9
9
9
9
9
9
9
9
9
9
9
9
9
9
9
9
9
9
9
9
9
9
9
9
9
9
9
9
9
9
9
9
9
9
9
9
9
9
9
9
9
9
9
9
9
9
9
9
9
9
9
9
9
9
9
9
9
9
9
9
9
9
9
9
9
9
9
9
9
9
9
9
9
9
9
9
9
9
9
9
9
9
9
9
9
9
9
9
9
9
9
9
9
9
9
9
9
9
9
9
9
9
9
9
9
9
9
9
9
9
9
9
9
9
9
9
9
9
9
9
9
9
9
9
9
9
9
9
9
9
9
9
9
9
9
9
9
9
9
9
9
9
9
9
9
9
9
9
9
9
9
9
9
9
9
9
9
9
9
9
9
9
9
9
9
9
9
9
9
9
9
9
9
9
9
9
9
9
9
9
9
9
9
9
9
9
9
9
9
9
9
9
9
9
9
9
9
9
9
9
9
9
9
9
9
9
9
9
9
9
9
POINT_DATA       496
SCALARS p double 
LOOKUP_TABLE default
   10000000.0535832     
   10000000.0535832     
   10000000.0535832     
   10000000.0535832     
   10000000.0535832     
   10000000.0535832     
   10000000.0535832     
   10000000.0535832     
   10000000.0535831     
   10000000.0535832     
   10000000.0535832     
   10000000.0535832     
   10000000.0535832     
   10000000.0535832     
   10000000.0535832     
   10000000.0535832     
   10000000.0535097     
   10000000.0535097     
   10000000.0535097     
   10000000.0535097     
   10000000.0535097     
   10000000.0535097     
   10000000.0535097     
   10000000.0535097     
   10000000.0535097     
   10000000.0535097     
   10000000.0535097     
   10000000.0535097     
   10000000.0535097     
   10000000.0535097     
   10000000.0535097     
   10000000.0535097     
   10000000.0532896     
   10000000.0532896     
   10000000.0532896     
   10000000.0532896     
   10000000.0532896     
   10000000.0532896     
   10000000.0532896     
   10000000.0532896     
   10000000.0532896     
   10000000.0532896     
   10000000.0532896     
   10000000.0532896     
   10000000.0532896     
   10000000.0532896     
   10000000.0532896     
   10000000.0532896     
   10000000.0529235     
   10000000.0529235     
   10000000.0529235     
   10000000.0529235     
   10000000.0529235     
   10000000.0529235     
   10000000.0529235     
   10000000.0529235     
   10000000.0529235     
   10000000.0529235     
   10000000.0529235     
   10000000.0529235     
   10000000.0529235     
   10000000.0529235     
   10000000.0529235     
   10000000.0529235     
   10000000.0524123     
   10000000.0524123     
   10000000.0524123     
   10000000.0524123     
   10000000.0524122     
   10000000.0524122     
   10000000.0524122     
   10000000.0524122     
   10000000.0524122     
   10000000.0524122     
   10000000.0524122     
   10000000.0524122     
   10000000.0524122     
   10000000.0524123     
   10000000.0524123     
   10000000.0524123     
   10000000.0517574     
   10000000.0517574     
   10000000.0517574     
   10000000.0517574     
   10000000.0517574     
   10000000.0517574     
   10000000.0517574     
   10000000.0517574     
   10000000.0517574     
   10000000.0517574     
   10000000.0517574     
   10000000.0517574     
   10000000.0517574     
   10000000.0517574     
   10000000.0517574     
   10000000.0517574     
   10000000.0509606     
   10000000.0509606     
   10000000.0509606     
   10000000.0509606     
   10000000.0509606     
   10000000.0509606     
   10000000.0509606     
   10000000.0509606     
   10000000.0509606     
   10000000.0509606     
   10000000.0509606     
   10000000.0509606     
   10000000.0509606     
   10000000.0509606     
   10000000.0509606     
   10000000.0509606     
   10000000.0500242     
   10000000.0500242     
   10000000.0500242     
   10000000.0500242     
   10000000.0500242     
   10000000.0500242     
   10000000.0500242     
   10000000.0500242     
   10000000.0500242     
   10000000.0500242     
   10000000.0500242     
   10000000.0500242     
   10000000.0500242     
   10000000.0500242     
   10000000.0500242     
   10000000.0500242     
   10000000.0489507     
   10000000.0489507     
   10000000.0489507     
   10000000.0489507     
   10000000.0489507     
   10000000.0489507     
   10000000.0489507     
   10000000.0489507     
   10000000.0489507     
   10000000.0489507     
   10000000.0489507     
   10000000.0489507     
   10000000.0489507     
   10000000.0489507     
   10000000.0489507     
   10000000.0489507     
   10000000.0477430     
   10000000.0477430     
   10000000.0477430     
   10000000.0477430     
   10000000.0477430     
   10000000.0477430     
   10000000.0477430     
   10000000.0477430     
   10000000.0477430     
   10000000.0477430     
   10000000.0477430     
   10000000.0477430     
   10000000.0477430     
   10000000.0477430     
   10000000.0477430     
   10000000.0477430     
   10000000.0464044     
   10000000.0464045     
   10000000.0464045     
   10000000.0464045     
   10000000.0464044     
   10000000.0464044     
   10000000.0464044     
   10000000.0464044     
   10000000.0464044     
   10000000.0464044     
   10000000.0464044     
   10000000.0464044     
   10000000.0464044     
   10000000.0464044     
   10000000.0464044     
   10000000.0464044     
   10000000.0449387     
   10000000.0449387     
   10000000.0449387     
   10000000.0449387     
   10000000.0449387     
   10000000.0449387     
   10000000.0449387     
   10000000.0449387     
   10000000.0449387     
   10000000.0449387     
   10000000.0449387     
   10000000.0449387     
   10000000.0449387     
   10000000.0449387     
   10000000.0449387     
   10000000.0449387     
   10000000.0433498     
   10000000.0433498     
   10000000.0433498     
   10000000.0433498     
   10000000.0433498     
   10000000.0433498     
   10000000.0433498     
   10000000.0433498     
   10000000.0433498     
   10000000.0433498     
   10000000.0433498     
   10000000.0433498     
   10000000.0433498     
   10000000.0433498     
   10000000.0433497     
   10000000.0433497     
   10000000.0416420     
   10000000.0416420     
   10000000.0416420     
   10000000.0416420     
   10000000.0416420     
   10000000.0416420     
   10000000.0416420     
   10000000.0416420     
   10000000.0416420     
   10000000.0416420     
   10000000.0416420     
   10000000.0416420     
   10000000.0416420     
   10000000.0416420     
   10000000.0416420     
   10000000.0416420     
   10000000.0398202     
   10000000.0398202     
   10000000.0398202     
   10000000.0398202     
   10000000.0398202     
   10000000.0398202     
   10000000.0398201     
   10000000.0398201     
   10000000.0398201     
   10000000.0398201     
   10000000.0398201     
   10000000.0398201     
   10000000.0398201     
   10000000.0398201     
   10000000.0398201     
   10000000.0398201     
   10000000.0378891     
   10000000.0378891     
   10000000.0378891     
   10000000.0378891     
   10000000.0378891     
   10000000.0378891     
   10000000.0378891     
   10000000.0378891     
   10000000.0378891     
   10000000.0378891     
   10000000.0378891     
   10000000.0378891     
   10000000.0378891     
   10000000.0378891     
   10000000.0378891     
   10000000.0378891     
   10000000.0358543     
   10000000.0358543     
   10000000.0358543     
   10000000.0358543     
   10000000.0358543     
   10000000.0358543     
   10000000.0358543     
   10000000.0358543     
   10000000.0358543     
   10000000.0358542     
   10000000.0358542     
   10000000.0358542     
   10000000.0358542     
   10000000.0358542     
   10000000.0358542     
   10000000.0358542     
   10000000.0337211     
   10000000.0337211     
   10000000.0337211     
   10000000.0337211     
   10000000.0337211     
   10000000.0337211     
   10000000.0337211     
   10000000.0337211     
   10000000.0337211     
   10000000.0337211     
   10000000.0337211     
   10000000.0337211     
   10000000.0337211     
   10000000.0337211     
   10000000.0337211     
   10000000.0337211     
   10000000.0314955     
   10000000.0314955     
   10000000.0314955     
   10000000.0314955     
   10000000.0314955     
   10000000.0314955     
   10000000.0314955     
   10000000.0314955     
   10000000.0314955     
   10000000.0314955     
   10000000.0314955     
   10000000.0314955     
   10000000.0314955     
   10000000.0314955     
   10000000.0314955     
   10000000.0314955     
   10000000.0291836     
   10000000.0291836     
   10000000.0291836     
   10000000.0291836     
   10000000.0291836     
   10000000.0291836     
   10000000.0291836     
   10000000.0291836     
   10000000.0291836     
   10000000.0291836     
   10000000.0291836     
   10000000.0291836     
   10000000.0291836     
   10000000.0291836     
   10000000.0291836     
   10000000.0291836     
   10000000.0267917     
   10000000.0267917     
   10000000.0267917     
   10000000.0267917     
   10000000.0267917     
   10000000.0267917     
   10000000.0267917     
   10000000.0267917     
   10000000.0267917     
   10000000.0267917     
   10000000.0267917     
   10000000.0267917     
   10000000.0267917     
   10000000.0267917     
   10000000.0267917     
   10000000.0267917     
   10000000.0243264     
   10000000.0243264     
   10000000.0243264     
   10000000.0243264     
   10000000.0243264     
   10000000.0243264     
   10000000.0243264     
   10000000.0243264     
   10000000.0243264     
   10000000.0243264     
   10000000.0243264     
   10000000.0243264     
   10000000.0243264     
   10000000.0243264     
   10000000.0243264     
   10000000.0243264     
   10000000.0217944     
   10000000.0217944     
   10000000.0217944     
   10000000.0217944     
   10000000.0217944     
   10000000.0217944     
   10000000.0217944     
   10000000.0217944     
   10000000.0217944     
   10000000.0217944     
   10000000.0217944     
   10000000.0217944     
   10000000.0217944     
   10000000.0217944     
   10000000.0217944     
   10000000.0217944     
   10000000.0192026     
   10000000.0192026     
   10000000.0192026     
   10000000.0192026     
   10000000.0192026     
   10000000.0192027     
   10000000.0192026     
   10000000.0192027     
   10000000.0192027     
   10000000.0192027     
   10000000.0192027     
   10000000.0192027     
   10000000.0192026     
   10000000.0192026     
   10000000.0192026     
   10000000.0192026     
   10000000.0165583     
   10000000.0165583     
   10000000.0165583     
   10000000.0165583     
   10000000.0165583     
   10000000.0165583     
   10000000.0165583     
   10000000.0165583     
   10000000.0165583     
   10000000.0165583     
   10000000.0165583     
   10000000.0165583     
   10000000.0165583     
   10000000.0165583     
   10000000.0165583     
   10000000.0165583     
   10000000.0138685     
   10000000.0138685     
   10000000.0138685     
   10000000.0138685     
   10000000.0138685     
   10000000.0138685     
   10000000.0138685     
   10000000.0138685     
   10000000.0138685     
   10000000.0138685     
   10000000.0138685     
   10000000.0138685     
   10000000.0138685     
   10000000.0138685     
   10000000.0138685     
   10000000.0138685     
   10000000.0111407     
   10000000.0111407     
   10000000.0111407     
   10000000.0111407     
   10000000.0111407     
   10000000.0111407     
   10000000.0111407     
   10000000.0111407     
   10000000.0111407     
   10000000.0111407     
   10000000.0111407     
   10000000.0111407     
   10000000.0111407     
   10000000.0111407     
   10000000.0111407     
   10000000.0111407     
   10000000.0083823     
   10000000.0083823     
   10000000.0083823     
   10000000.0083823     
   10000000.0083824     
   10000000.0083824     
   10000000.0083824     
   10000000.0083824     
   10000000.0083824     
   10000000.0083824     
   10000000.0083824     
   10000000.0083824     
   10000000.0083824     
   10000000.0083824     
   10000000.0083824     
   10000000.0083824     
   10000000.0056010     
   10000000.0056010     
   10000000.0056010     
   10000000.0056010     
   10000000.0056010     
   10000000.0056010     
   10000000.0056010     
   10000000.0056010     
   10000000.0056010     
   10000000.0056010     
   10000000.0056011     
   10000000.0056011     
   10000000.0056011     
   10000000.0056010     
   10000000.0056010     
   10000000.0056010     
   10000000.0028044     
   10000000.0028044     
   10000000.0028044     
   10000000.0028044     
   10000000.0028044     
   10000000.0028044     
   10000000.0028044     
   10000000.0028044     
   10000000.0028044     
   10000000.0028044     
   10000000.0028044     
   10000000.0028044     
   10000000.0028044     
   10000000.0028044     
   10000000.0028044     
   10000000.0028044     
   10000000.0000000     
   10000000.0000000     
   10000000.0000000     
   10000000.0000000     
   10000000.0000000     
   10000000.0000000     
   10000000.0000000     
   10000000.0000000     
   10000000.0000000     
   10000000.0000000     
   10000000.0000000     
   10000000.0000000     
   10000000.0000000     
  10000000.00000000     
   10000000.0000000     
   10000000.0000000     
VECTORS u double 
    0.00000E+00        -0.64182E-01         0.00000E+00
    0.00000E+00        -0.59898E-01         0.00000E+00
    0.00000E+00        -0.55614E-01         0.00000E+00
    0.00000E+00        -0.51329E-01         0.00000E+00
    0.00000E+00        -0.47045E-01         0.00000E+00
    0.00000E+00        -0.42762E-01         0.00000E+00
    0.00000E+00        -0.38479E-01         0.00000E+00
    0.00000E+00        -0.34196E-01         0.00000E+00
    0.00000E+00        -0.29916E-01         0.00000E+00
    0.00000E+00        -0.25636E-01         0.00000E+00
    0.00000E+00        -0.21358E-01         0.00000E+00
    0.00000E+00        -0.17082E-01         0.00000E+00
    0.00000E+00        -0.12808E-01         0.00000E+00
    0.00000E+00        -0.85363E-02         0.00000E+00
    0.00000E+00        -0.42669E-02         0.00000E+00
    0.00000E+00         0.00000E+00         0.00000E+00
    0.19677E-04        -0.64181E-01         0.00000E+00
    0.20421E-04        -0.59898E-01         0.00000E+00
    0.20858E-04        -0.55613E-01         0.00000E+00
    0.20990E-04        -0.51329E-01         0.00000E+00
    0.20820E-04        -0.47045E-01         0.00000E+00
    0.20347E-04        -0.42761E-01         0.00000E+00
    0.19574E-04        -0.38478E-01         0.00000E+00
    0.18500E-04        -0.34196E-01         0.00000E+00
    0.17129E-04        -0.29915E-01         0.00000E+00
    0.15467E-04        -0.25636E-01         0.00000E+00
    0.13521E-04        -0.21358E-01         0.00000E+00
    0.11302E-04        -0.17082E-01         0.00000E+00
    0.88225E-05        -0.12808E-01         0.00000E+00
    0.60986E-05        -0.85363E-02         0.00000E+00
    0.31499E-05        -0.42669E-02         0.00000E+00
    0.00000E+00         0.00000E+00         0.00000E+00
    0.39252E-04        -0.64180E-01         0.00000E+00
    0.40739E-04        -0.59896E-01         0.00000E+00
    0.41614E-04        -0.55612E-01         0.00000E+00
    0.41881E-04        -0.51328E-01         0.00000E+00
    0.41543E-04        -0.47044E-01         0.00000E+00
    0.40601E-04        -0.42760E-01         0.00000E+00
    0.39059E-04        -0.38478E-01         0.00000E+00
    0.36918E-04        -0.34196E-01         0.00000E+00
    0.34184E-04        -0.29915E-01         0.00000E+00
    0.30868E-04        -0.25636E-01         0.00000E+00
    0.26987E-04        -0.21358E-01         0.00000E+00
    0.22560E-04        -0.17082E-01         0.00000E+00
    0.17612E-04        -0.12808E-01         0.00000E+00
    0.12176E-04        -0.85362E-02         0.00000E+00
    0.62894E-05        -0.42668E-02         0.00000E+00
    0.00000E+00         0.00000E+00         0.00000E+00
    0.58621E-04        -0.64178E-01         0.00000E+00
    0.60852E-04        -0.59894E-01         0.00000E+00
    0.62167E-04        -0.55610E-01         0.00000E+00
    0.62571E-04        -0.51326E-01         0.00000E+00
    0.62070E-04        -0.47042E-01         0.00000E+00
    0.60667E-04        -0.42759E-01         0.00000E+00
    0.58367E-04        -0.38476E-01         0.00000E+00
    0.55172E-04        -0.34195E-01         0.00000E+00
    0.51091E-04        -0.29914E-01         0.00000E+00
    0.46140E-04        -0.25635E-01         0.00000E+00
    0.40344E-04        -0.21357E-01         0.00000E+00
    0.33730E-04        -0.17081E-01         0.00000E+00
    0.26337E-04        -0.12808E-01         0.00000E+00
    0.18210E-04        -0.85361E-02         0.00000E+00
    0.94081E-05        -0.42668E-02         0.00000E+00
    0.00000E+00         0.00000E+00         0.00000E+00
    0.77675E-04        -0.64175E-01         0.00000E+00
    0.80650E-04        -0.59891E-01         0.00000E+00
    0.82407E-04        -0.55608E-01         0.00000E+00
    0.82956E-04        -0.51324E-01         0.00000E+00
    0.82301E-04        -0.47040E-01         0.00000E+00
    0.80449E-04        -0.42757E-01         0.00000E+00
    0.77406E-04        -0.38475E-01         0.00000E+00
    0.73178E-04        -0.34193E-01         0.00000E+00
    0.67774E-04        -0.29913E-01         0.00000E+00
    0.61217E-04        -0.25634E-01         0.00000E+00
    0.53536E-04        -0.21357E-01         0.00000E+00
    0.44768E-04        -0.17081E-01         0.00000E+00
    0.34963E-04        -0.12807E-01         0.00000E+00
    0.24180E-04        -0.85359E-02         0.00000E+00
    0.12496E-04        -0.42667E-02         0.00000E+00
    0.00000E+00         0.00000E+00         0.00000E+00
    0.96301E-04        -0.64171E-01         0.00000E+00
    0.10002E-03        -0.59888E-01         0.00000E+00
    0.10222E-03        -0.55604E-01         0.00000E+00
    0.10292E-03        -0.51321E-01         0.00000E+00
    0.10213E-03        -0.47038E-01         0.00000E+00
    0.99843E-04        -0.42755E-01         0.00000E+00
    0.96081E-04        -0.38473E-01         0.00000E+00
    0.90848E-04        -0.34192E-01         0.00000E+00
    0.84156E-04        -0.29912E-01         0.00000E+00
    0.76031E-04        -0.25633E-01         0.00000E+00
    0.66507E-04        -0.21356E-01         0.00000E+00
    0.55630E-04        -0.17080E-01         0.00000E+00
    0.43458E-04        -0.12807E-01         0.00000E+00
    0.30065E-04        -0.85357E-02         0.00000E+00
    0.15542E-04        -0.42666E-02         0.00000E+00
    0.00000E+00         0.00000E+00         0.00000E+00
    0.11438E-03        -0.64166E-01         0.00000E+00
    0.11884E-03        -0.59883E-01         0.00000E+00
    0.12149E-03        -0.55600E-01         0.00000E+00
    0.12236E-03        -0.51317E-01         0.00000E+00
    0.12144E-03        -0.47034E-01         0.00000E+00
    0.11874E-03        -0.42752E-01         0.00000E+00
    0.11429E-03        -0.38470E-01         0.00000E+00
    0.10809E-03        -0.34189E-01         0.00000E+00
    0.10016E-03        -0.29910E-01         0.00000E+00
    0.90513E-04        -0.25632E-01         0.00000E+00
    0.79201E-04        -0.21355E-01         0.00000E+00
    0.66271E-04        -0.17080E-01         0.00000E+00
    0.51791E-04        -0.12807E-01         0.00000E+00
    0.35844E-04        -0.85355E-02         0.00000E+00
    0.18537E-04        -0.42666E-02         0.00000E+00
    0.00000E+00         0.00000E+00         0.00000E+00
    0.13177E-03        -0.64160E-01         0.00000E+00
    0.13697E-03        -0.59878E-01         0.00000E+00
    0.14009E-03        -0.55595E-01         0.00000E+00
    0.14113E-03        -0.51313E-01         0.00000E+00
    0.14011E-03        -0.47030E-01         0.00000E+00
    0.13704E-03        -0.42749E-01         0.00000E+00
    0.13194E-03        -0.38467E-01         0.00000E+00
    0.12482E-03        -0.34187E-01         0.00000E+00
    0.11569E-03        -0.29908E-01         0.00000E+00
    0.10459E-03        -0.25630E-01         0.00000E+00
    0.91560E-04        -0.21354E-01         0.00000E+00
    0.76647E-04        -0.17079E-01         0.00000E+00
    0.59927E-04        -0.12806E-01         0.00000E+00
    0.41495E-04        -0.85352E-02         0.00000E+00
    0.21471E-04        -0.42665E-02         0.00000E+00
    0.00000E+00         0.00000E+00         0.00000E+00
    0.14834E-03        -0.64153E-01         0.00000E+00
    0.15428E-03        -0.59872E-01         0.00000E+00
    0.15786E-03        -0.55590E-01         0.00000E+00
    0.15910E-03        -0.51308E-01         0.00000E+00
    0.15801E-03        -0.47026E-01         0.00000E+00
    0.15460E-03        -0.42745E-01         0.00000E+00
    0.14890E-03        -0.38464E-01         0.00000E+00
    0.14092E-03        -0.34185E-01         0.00000E+00
    0.13068E-03        -0.29906E-01         0.00000E+00
    0.11820E-03        -0.25629E-01         0.00000E+00
    0.10353E-03        -0.21353E-01         0.00000E+00
    0.86711E-04        -0.17078E-01         0.00000E+00
    0.67834E-04        -0.12806E-01         0.00000E+00
    0.46998E-04        -0.85350E-02         0.00000E+00
    0.24333E-04        -0.42664E-02         0.00000E+00
    0.00000E+00         0.00000E+00         0.00000E+00
    0.16393E-03        -0.64146E-01         0.00000E+00
    0.17060E-03        -0.59865E-01         0.00000E+00
    0.17466E-03        -0.55584E-01         0.00000E+00
    0.17612E-03        -0.51302E-01         0.00000E+00
    0.17500E-03        -0.47021E-01         0.00000E+00
    0.17131E-03        -0.42741E-01         0.00000E+00
    0.16507E-03        -0.38461E-01         0.00000E+00
    0.15631E-03        -0.34182E-01         0.00000E+00
    0.14503E-03        -0.29904E-01         0.00000E+00
    0.13126E-03        -0.25627E-01         0.00000E+00
    0.11504E-03        -0.21351E-01         0.00000E+00
    0.96415E-04        -0.17077E-01         0.00000E+00
    0.75478E-04        -0.12805E-01         0.00000E+00
    0.52331E-04        -0.85348E-02         0.00000E+00
    0.27113E-04        -0.42663E-02         0.00000E+00
    0.00000E+00         0.00000E+00         0.00000E+00
    0.17836E-03        -0.64137E-01         0.00000E+00
    0.18577E-03        -0.59857E-01         0.00000E+00
    0.19032E-03        -0.55577E-01         0.00000E+00
    0.19203E-03        -0.51296E-01         0.00000E+00
    0.19093E-03        -0.47016E-01         0.00000E+00
    0.18702E-03        -0.42736E-01         0.00000E+00
    0.18032E-03        -0.38457E-01         0.00000E+00
    0.17086E-03        -0.34179E-01         0.00000E+00
    0.15864E-03        -0.29901E-01         0.00000E+00
    0.14369E-03        -0.25625E-01         0.00000E+00
    0.12603E-03        -0.21350E-01         0.00000E+00
    0.10571E-03        -0.17077E-01         0.00000E+00
    0.82823E-04        -0.12805E-01         0.00000E+00
    0.57470E-04        -0.85346E-02         0.00000E+00
    0.29799E-04        -0.42663E-02         0.00000E+00
    0.00000E+00         0.00000E+00         0.00000E+00
    0.19145E-03        -0.64128E-01         0.00000E+00
    0.19958E-03        -0.59849E-01         0.00000E+00
    0.20464E-03        -0.55569E-01         0.00000E+00
    0.20665E-03        -0.51290E-01         0.00000E+00
    0.20563E-03        -0.47011E-01         0.00000E+00
    0.20158E-03        -0.42732E-01         0.00000E+00
    0.19452E-03        -0.38453E-01         0.00000E+00
    0.18446E-03        -0.34176E-01         0.00000E+00
    0.17142E-03        -0.29899E-01         0.00000E+00
    0.15540E-03        -0.25624E-01         0.00000E+00
    0.13643E-03        -0.21349E-01         0.00000E+00
    0.11455E-03        -0.17076E-01         0.00000E+00
    0.89830E-04        -0.12804E-01         0.00000E+00
    0.62390E-04        -0.85345E-02         0.00000E+00
    0.32381E-04        -0.42663E-02         0.00000E+00
    0.00000E+00         0.00000E+00         0.00000E+00
    0.20298E-03        -0.64118E-01         0.00000E+00
    0.21184E-03        -0.59840E-01         0.00000E+00
    0.21744E-03        -0.55561E-01         0.00000E+00
    0.21980E-03        -0.51283E-01         0.00000E+00
    0.21893E-03        -0.47005E-01         0.00000E+00
    0.21483E-03        -0.42727E-01         0.00000E+00
    0.20752E-03        -0.38449E-01         0.00000E+00
    0.19700E-03        -0.34173E-01         0.00000E+00
    0.18326E-03        -0.29897E-01         0.00000E+00
    0.16631E-03        -0.25622E-01         0.00000E+00
    0.14617E-03        -0.21348E-01         0.00000E+00
    0.12286E-03        -0.17076E-01         0.00000E+00
    0.96455E-04        -0.12804E-01         0.00000E+00
    0.67064E-04        -0.85345E-02         0.00000E+00
    0.34843E-04        -0.42664E-02         0.00000E+00
    0.00000E+00         0.00000E+00         0.00000E+00
    0.21276E-03        -0.64107E-01         0.00000E+00
    0.22233E-03        -0.59830E-01         0.00000E+00
    0.22850E-03        -0.55553E-01         0.00000E+00
    0.23127E-03        -0.51276E-01         0.00000E+00
    0.23064E-03        -0.46999E-01         0.00000E+00
    0.22661E-03        -0.42722E-01         0.00000E+00
    0.21918E-03        -0.38445E-01         0.00000E+00
    0.20833E-03        -0.34170E-01         0.00000E+00
    0.19404E-03        -0.29895E-01         0.00000E+00
    0.17632E-03        -0.25620E-01         0.00000E+00
    0.15516E-03        -0.21347E-01         0.00000E+00
    0.13059E-03        -0.17075E-01         0.00000E+00
    0.10265E-03        -0.12804E-01         0.00000E+00
    0.71459E-04        -0.85346E-02         0.00000E+00
    0.37170E-04        -0.42665E-02         0.00000E+00
    0.00000E+00         0.00000E+00         0.00000E+00
    0.22055E-03        -0.64095E-01         0.00000E+00
    0.23082E-03        -0.59820E-01         0.00000E+00
    0.23759E-03        -0.55544E-01         0.00000E+00
    0.24085E-03        -0.51268E-01         0.00000E+00
    0.24057E-03        -0.46992E-01         0.00000E+00
    0.23673E-03        -0.42717E-01         0.00000E+00
    0.22932E-03        -0.38441E-01         0.00000E+00
    0.21830E-03        -0.34167E-01         0.00000E+00
    0.20365E-03        -0.29893E-01         0.00000E+00
    0.18532E-03        -0.25619E-01         0.00000E+00
    0.16332E-03        -0.21347E-01         0.00000E+00
    0.13765E-03        -0.17075E-01         0.00000E+00
    0.10836E-03        -0.12804E-01         0.00000E+00
    0.75538E-04        -0.85349E-02         0.00000E+00
    0.39343E-04        -0.42668E-02         0.00000E+00
    0.00000E+00         0.00000E+00         0.00000E+00
    0.22612E-03        -0.64083E-01         0.00000E+00
    0.23709E-03        -0.59809E-01         0.00000E+00
    0.24450E-03        -0.55535E-01         0.00000E+00
    0.24832E-03        -0.51260E-01         0.00000E+00
    0.24850E-03        -0.46986E-01         0.00000E+00
    0.24500E-03        -0.42712E-01         0.00000E+00
    0.23778E-03        -0.38438E-01         0.00000E+00
    0.22677E-03        -0.34164E-01         0.00000E+00
    0.21192E-03        -0.29891E-01         0.00000E+00
    0.19319E-03        -0.25618E-01         0.00000E+00
    0.17054E-03        -0.21346E-01         0.00000E+00
    0.14397E-03        -0.17075E-01         0.00000E+00
    0.11351E-03        -0.12805E-01         0.00000E+00
    0.79255E-04        -0.85353E-02         0.00000E+00
    0.41342E-04        -0.42671E-02         0.00000E+00
    0.00000E+00         0.00000E+00         0.00000E+00
    0.22927E-03        -0.64070E-01         0.00000E+00
    0.24091E-03        -0.59798E-01         0.00000E+00
    0.24900E-03        -0.55525E-01         0.00000E+00
    0.25347E-03        -0.51252E-01         0.00000E+00
    0.25423E-03        -0.46979E-01         0.00000E+00
    0.25121E-03        -0.42706E-01         0.00000E+00
    0.24435E-03        -0.38434E-01         0.00000E+00
    0.23354E-03        -0.34161E-01         0.00000E+00
    0.21870E-03        -0.29889E-01         0.00000E+00
    0.19977E-03        -0.25617E-01         0.00000E+00
    0.17668E-03        -0.21346E-01         0.00000E+00
    0.14943E-03        -0.17075E-01         0.00000E+00
    0.11803E-03        -0.12805E-01         0.00000E+00
    0.82557E-04        -0.85360E-02         0.00000E+00
    0.43140E-04        -0.42675E-02         0.00000E+00
    0.00000E+00         0.00000E+00         0.00000E+00
    0.22980E-03        -0.64056E-01         0.00000E+00
    0.24209E-03        -0.59786E-01         0.00000E+00
    0.25088E-03        -0.55515E-01         0.00000E+00
    0.25607E-03        -0.51244E-01         0.00000E+00
    0.25753E-03        -0.46973E-01         0.00000E+00
    0.25515E-03        -0.42701E-01         0.00000E+00
    0.24882E-03        -0.38430E-01         0.00000E+00
    0.23840E-03        -0.34159E-01         0.00000E+00
    0.22379E-03        -0.29888E-01         0.00000E+00
    0.20489E-03        -0.25617E-01         0.00000E+00
    0.18161E-03        -0.21346E-01         0.00000E+00
    0.15392E-03        -0.17076E-01         0.00000E+00
    0.12182E-03        -0.12806E-01         0.00000E+00
    0.85382E-04        -0.85369E-02         0.00000E+00
    0.44708E-04        -0.42681E-02         0.00000E+00
    0.00000E+00         0.00000E+00         0.00000E+00
    0.22756E-03        -0.64042E-01         0.00000E+00
    0.24044E-03        -0.59774E-01         0.00000E+00
    0.24995E-03        -0.55505E-01         0.00000E+00
    0.25593E-03        -0.51235E-01         0.00000E+00
    0.25819E-03        -0.46966E-01         0.00000E+00
    0.25659E-03        -0.42696E-01         0.00000E+00
    0.25096E-03        -0.38426E-01         0.00000E+00
    0.24113E-03        -0.34156E-01         0.00000E+00
    0.22697E-03        -0.29887E-01         0.00000E+00
    0.20833E-03        -0.25617E-01         0.00000E+00
    0.18512E-03        -0.21347E-01         0.00000E+00
    0.15728E-03        -0.17077E-01         0.00000E+00
    0.12478E-03        -0.12807E-01         0.00000E+00
    0.87659E-04        -0.85380E-02         0.00000E+00
    0.46011E-04        -0.42688E-02         0.00000E+00
    0.00000E+00         0.00000E+00         0.00000E+00
    0.22242E-03        -0.64028E-01         0.00000E+00
    0.23584E-03        -0.59761E-01         0.00000E+00
    0.24606E-03        -0.55494E-01         0.00000E+00
    0.25285E-03        -0.51226E-01         0.00000E+00
    0.25600E-03        -0.46959E-01         0.00000E+00
    0.25529E-03        -0.42691E-01         0.00000E+00
    0.25051E-03        -0.38423E-01         0.00000E+00
    0.24146E-03        -0.34154E-01         0.00000E+00
    0.22796E-03        -0.29886E-01         0.00000E+00
    0.20985E-03        -0.25617E-01         0.00000E+00
    0.18701E-03        -0.21348E-01         0.00000E+00
    0.15933E-03        -0.17079E-01         0.00000E+00
    0.12676E-03        -0.12809E-01         0.00000E+00
    0.89303E-04        -0.85395E-02         0.00000E+00
    0.47008E-04        -0.42697E-02         0.00000E+00
    0.00000E+00         0.00000E+00         0.00000E+00
    0.21436E-03        -0.64013E-01         0.00000E+00
    0.22820E-03        -0.59748E-01         0.00000E+00
    0.23907E-03        -0.55483E-01         0.00000E+00
    0.24668E-03        -0.51217E-01         0.00000E+00
    0.25075E-03        -0.46952E-01         0.00000E+00
    0.25101E-03        -0.42686E-01         0.00000E+00
    0.24720E-03        -0.38419E-01         0.00000E+00
    0.23909E-03        -0.34153E-01         0.00000E+00
    0.22647E-03        -0.29885E-01         0.00000E+00
    0.20916E-03        -0.25618E-01         0.00000E+00
    0.18699E-03        -0.21349E-01         0.00000E+00
    0.15984E-03        -0.17081E-01         0.00000E+00
    0.12760E-03        -0.12811E-01         0.00000E+00
    0.90207E-04        -0.85412E-02         0.00000E+00
    0.47654E-04        -0.42708E-02         0.00000E+00
    0.00000E+00         0.00000E+00         0.00000E+00
    0.20340E-03        -0.63997E-01         0.00000E+00
    0.21752E-03        -0.59734E-01         0.00000E+00
    0.22894E-03        -0.55471E-01         0.00000E+00
    0.23730E-03        -0.51208E-01         0.00000E+00
    0.24225E-03        -0.46945E-01         0.00000E+00
    0.24349E-03        -0.42681E-01         0.00000E+00
    0.24072E-03        -0.38416E-01         0.00000E+00
    0.23368E-03        -0.34151E-01         0.00000E+00
    0.22214E-03        -0.29885E-01         0.00000E+00
    0.20590E-03        -0.25619E-01         0.00000E+00
    0.18477E-03        -0.21351E-01         0.00000E+00
    0.15856E-03        -0.17083E-01         0.00000E+00
    0.12710E-03        -0.12814E-01         0.00000E+00
    0.90241E-04        -0.85433E-02         0.00000E+00
    0.47887E-04        -0.42720E-02         0.00000E+00
    0.00000E+00         0.00000E+00         0.00000E+00
    0.18962E-03        -0.63982E-01         0.00000E+00
    0.20386E-03        -0.59721E-01         0.00000E+00
    0.21566E-03        -0.55460E-01         0.00000E+00
    0.22461E-03        -0.51199E-01         0.00000E+00
    0.23034E-03        -0.46937E-01         0.00000E+00
    0.23250E-03        -0.42676E-01         0.00000E+00
    0.23076E-03        -0.38413E-01         0.00000E+00
    0.22487E-03        -0.34150E-01         0.00000E+00
    0.21459E-03        -0.29886E-01         0.00000E+00
    0.19971E-03        -0.25620E-01         0.00000E+00
    0.17999E-03        -0.21354E-01         0.00000E+00
    0.15517E-03        -0.17086E-01         0.00000E+00
    0.12501E-03        -0.12816E-01         0.00000E+00
    0.89244E-04        -0.85456E-02         0.00000E+00
    0.47631E-04        -0.42734E-02         0.00000E+00
    0.00000E+00         0.00000E+00         0.00000E+00
    0.17316E-03        -0.63967E-01         0.00000E+00
    0.18730E-03        -0.59708E-01         0.00000E+00
    0.19926E-03        -0.55449E-01         0.00000E+00
    0.20860E-03        -0.51190E-01         0.00000E+00
    0.21490E-03        -0.46930E-01         0.00000E+00
    0.21780E-03        -0.42671E-01         0.00000E+00
    0.21701E-03        -0.38410E-01         0.00000E+00
    0.21228E-03        -0.34149E-01         0.00000E+00
    0.20340E-03        -0.29886E-01         0.00000E+00
    0.19015E-03        -0.25622E-01         0.00000E+00
    0.17224E-03        -0.21357E-01         0.00000E+00
    0.14933E-03        -0.17089E-01         0.00000E+00
    0.12106E-03        -0.12820E-01         0.00000E+00
    0.87012E-04        -0.85481E-02         0.00000E+00
    0.46783E-04        -0.42749E-02         0.00000E+00
    0.00000E+00         0.00000E+00         0.00000E+00
    0.15420E-03        -0.63952E-01         0.00000E+00
    0.16797E-03        -0.59694E-01         0.00000E+00
    0.17980E-03        -0.55437E-01         0.00000E+00
    0.18923E-03        -0.51180E-01         0.00000E+00
    0.19580E-03        -0.46923E-01         0.00000E+00
    0.19919E-03        -0.42666E-01         0.00000E+00
    0.19917E-03        -0.38407E-01         0.00000E+00
    0.19556E-03        -0.34148E-01         0.00000E+00
    0.18819E-03        -0.29887E-01         0.00000E+00
    0.17680E-03        -0.25624E-01         0.00000E+00
    0.16108E-03        -0.21359E-01         0.00000E+00
    0.14061E-03        -0.17092E-01         0.00000E+00
    0.11487E-03        -0.12823E-01         0.00000E+00
    0.83280E-04        -0.85509E-02         0.00000E+00
    0.45204E-04        -0.42765E-02         0.00000E+00
    0.00000E+00         0.00000E+00         0.00000E+00
    0.13297E-03        -0.63938E-01         0.00000E+00
    0.14602E-03        -0.59682E-01         0.00000E+00
    0.15736E-03        -0.55427E-01         0.00000E+00
    0.16648E-03        -0.51172E-01         0.00000E+00
    0.17294E-03        -0.46917E-01         0.00000E+00
    0.17649E-03        -0.42661E-01         0.00000E+00
    0.17702E-03        -0.38405E-01         0.00000E+00
    0.17443E-03        -0.34147E-01         0.00000E+00
    0.16858E-03        -0.29888E-01         0.00000E+00
    0.15924E-03        -0.25626E-01         0.00000E+00
    0.14605E-03        -0.21362E-01         0.00000E+00
    0.12852E-03        -0.17096E-01         0.00000E+00
    0.10600E-03        -0.12826E-01         0.00000E+00
    0.77698E-04        -0.85537E-02         0.00000E+00
    0.42703E-04        -0.42782E-02         0.00000E+00
    0.00000E+00         0.00000E+00         0.00000E+00
    0.10970E-03        -0.63924E-01         0.00000E+00
    0.12160E-03        -0.59670E-01         0.00000E+00
    0.13198E-03        -0.55417E-01         0.00000E+00
    0.14029E-03        -0.51164E-01         0.00000E+00
    0.14619E-03        -0.46911E-01         0.00000E+00
    0.14958E-03        -0.42657E-01         0.00000E+00
    0.15043E-03        -0.38402E-01         0.00000E+00
    0.14872E-03        -0.34146E-01         0.00000E+00
    0.14434E-03        -0.29888E-01         0.00000E+00
    0.13711E-03        -0.25628E-01         0.00000E+00
    0.12667E-03        -0.21365E-01         0.00000E+00
    0.11250E-03        -0.17099E-01         0.00000E+00
    0.93878E-04        -0.12829E-01         0.00000E+00
    0.69802E-04        -0.85565E-02         0.00000E+00
    0.39011E-04        -0.42800E-02         0.00000E+00
    0.00000E+00         0.00000E+00         0.00000E+00
    0.84639E-04        -0.63913E-01         0.00000E+00
    0.94830E-04        -0.59660E-01         0.00000E+00
    0.10365E-03        -0.55408E-01         0.00000E+00
    0.11058E-03        -0.51157E-01         0.00000E+00
    0.11549E-03        -0.46906E-01         0.00000E+00
    0.11840E-03        -0.42654E-01         0.00000E+00
    0.11935E-03        -0.38400E-01         0.00000E+00
    0.11836E-03        -0.34145E-01         0.00000E+00
    0.11534E-03        -0.29888E-01         0.00000E+00
    0.11015E-03        -0.25629E-01         0.00000E+00
    0.10252E-03        -0.21367E-01         0.00000E+00
    0.91994E-04        -0.17101E-01         0.00000E+00
    0.77848E-04        -0.12832E-01         0.00000E+00
    0.58966E-04        -0.85592E-02         0.00000E+00
    0.33736E-04        -0.42818E-02         0.00000E+00
    0.00000E+00         0.00000E+00         0.00000E+00
    0.57988E-04        -0.63903E-01         0.00000E+00
    0.65713E-04        -0.59652E-01         0.00000E+00
    0.72244E-04        -0.55402E-01         0.00000E+00
    0.77270E-04        -0.51152E-01         0.00000E+00
    0.80826E-04        -0.46902E-01         0.00000E+00
    0.83005E-04        -0.42651E-01         0.00000E+00
    0.83852E-04        -0.38399E-01         0.00000E+00
    0.83378E-04        -0.34145E-01         0.00000E+00
    0.81548E-04        -0.29888E-01         0.00000E+00
    0.78268E-04        -0.25630E-01         0.00000E+00
    0.73363E-04        -0.21368E-01         0.00000E+00
    0.66518E-04        -0.17103E-01         0.00000E+00
    0.57176E-04        -0.12835E-01         0.00000E+00
    0.44363E-04        -0.85616E-02         0.00000E+00
    0.26285E-04        -0.42836E-02         0.00000E+00
    0.00000E+00         0.00000E+00         0.00000E+00
    0.29805E-04        -0.63897E-01         0.00000E+00
    0.34098E-04        -0.59647E-01         0.00000E+00
    0.37693E-04        -0.55398E-01         0.00000E+00
    0.40386E-04        -0.51149E-01         0.00000E+00
    0.42301E-04        -0.46899E-01         0.00000E+00
    0.43502E-04        -0.42649E-01         0.00000E+00
    0.44023E-04        -0.38397E-01         0.00000E+00
    0.43874E-04        -0.34144E-01         0.00000E+00
    0.43045E-04        -0.29888E-01         0.00000E+00
    0.41496E-04        -0.25630E-01         0.00000E+00
    0.39144E-04        -0.21369E-01         0.00000E+00
    0.35833E-04        -0.17104E-01         0.00000E+00
    0.31282E-04        -0.12836E-01         0.00000E+00
    0.24931E-04        -0.85634E-02         0.00000E+00
    0.15656E-04        -0.42853E-02         0.00000E+00
    0.00000E+00         0.00000E+00         0.00000E+00
    0.00000E+00        -0.63895E-01         0.00000E+00
    0.00000E+00        -0.59645E-01         0.00000E+00
    0.00000E+00        -0.55396E-01         0.00000E+00
    0.00000E+00        -0.51148E-01         0.00000E+00
    0.00000E+00        -0.46898E-01         0.00000E+00
    0.00000E+00        -0.42648E-01         0.00000E+00
    0.00000E+00        -0.38397E-01         0.00000E+00
    0.00000E+00        -0.34143E-01         0.00000E+00
    0.00000E+00        -0.29888E-01         0.00000E+00
    0.00000E+00        -0.25630E-01         0.00000E+00
    0.00000E+00        -0.21369E-01         0.00000E+00
    0.00000E+00        -0.17105E-01         0.00000E+00
    0.00000E+00        -0.12837E-01         0.00000E+00
    0.00000E+00        -0.85642E-02         0.00000E+00
    0.00000E+00        -0.42862E-02         0.00000E+00
    0.00000E+00         0.00000E+00         0.00000E+00
CELL_DATA        450
VECTORS vDarcy double 
    0.41814E-16        -0.14501E-20         0.00000E+00
    0.41813E-16        -0.91148E-21         0.00000E+00
    0.41814E-16        -0.33145E-21         0.00000E+00
    0.41815E-16        -0.12429E-20         0.00000E+00
    0.41816E-16        -0.18230E-20         0.00000E+00
    0.41815E-16        -0.33145E-20         0.00000E+00
    0.41816E-16        -0.15744E-20         0.00000E+00
    0.41814E-16        -0.82862E-22         0.00000E+00
    0.41813E-16         0.21544E-20         0.00000E+00
    0.41815E-16        -0.41431E-21         0.00000E+00
    0.41814E-16         0.16572E-21         0.00000E+00
    0.41815E-16         0.34802E-20         0.00000E+00
    0.41816E-16         0.49717E-21         0.00000E+00
    0.41816E-16         0.16572E-20         0.00000E+00
    0.41815E-16        -0.20715E-20         0.00000E+00
    0.12533E-15        -0.16158E-20         0.00000E+00
    0.12533E-15        -0.62146E-21         0.00000E+00
    0.12533E-15        -0.87005E-21         0.00000E+00
    0.12533E-15        -0.18644E-20         0.00000E+00
    0.12533E-15        -0.12429E-20         0.00000E+00
    0.12533E-15        -0.44331E-20         0.00000E+00
    0.12533E-15        -0.18230E-20         0.00000E+00
    0.12533E-15         0.22373E-20         0.00000E+00
    0.12533E-15         0.19058E-20         0.00000E+00
    0.12533E-15         0.16572E-21         0.00000E+00
    0.12533E-15         0.33145E-21         0.00000E+00
    0.12533E-15         0.15744E-20         0.00000E+00
    0.12533E-15         0.66289E-21         0.00000E+00
    0.12533E-15         0.00000E+00         0.00000E+00
    0.12533E-15        -0.62146E-21         0.00000E+00
    0.20850E-15        -0.49717E-21         0.00000E+00
    0.20850E-15        -0.16987E-20         0.00000E+00
    0.20850E-15        -0.14915E-20         0.00000E+00
    0.20850E-15        -0.28587E-20         0.00000E+00
    0.20850E-15        -0.24030E-20         0.00000E+00
    0.20850E-15        -0.15744E-20         0.00000E+00
    0.20850E-15        -0.33145E-21         0.00000E+00
    0.20850E-15         0.58003E-21         0.00000E+00
    0.20850E-15         0.30659E-20         0.00000E+00
    0.20850E-15         0.82862E-22         0.00000E+00
    0.20850E-15         0.00000E+00         0.00000E+00
    0.20850E-15         0.99434E-21         0.00000E+00
    0.20850E-15         0.00000E+00         0.00000E+00
    0.20850E-15         0.12429E-20         0.00000E+00
    0.20850E-15        -0.15329E-20         0.00000E+00
    0.29110E-15        -0.87005E-21         0.00000E+00
    0.29110E-15        -0.13258E-20         0.00000E+00
    0.29110E-15        -0.23616E-20         0.00000E+00
    0.29110E-15        -0.45160E-20         0.00000E+00
    0.29110E-15        -0.21130E-20         0.00000E+00
    0.29110E-15         0.49717E-21         0.00000E+00
    0.29110E-15         0.00000E+00         0.00000E+00
    0.29110E-15        -0.33145E-21         0.00000E+00
    0.29110E-15         0.28173E-20         0.00000E+00
    0.29110E-15        -0.82862E-21         0.00000E+00
    0.29110E-15         0.00000E+00         0.00000E+00
    0.29110E-15         0.00000E+00         0.00000E+00
    0.29110E-15         0.12429E-20         0.00000E+00
    0.29110E-15         0.13258E-20         0.00000E+00
    0.29110E-15        -0.22787E-20         0.00000E+00
    0.37290E-15        -0.21958E-20         0.00000E+00
    0.37290E-15        -0.62146E-21         0.00000E+00
    0.37290E-15        -0.17401E-20         0.00000E+00
    0.37290E-15        -0.23616E-20         0.00000E+00
    0.37289E-15        -0.19887E-20         0.00000E+00
    0.37290E-15        -0.18230E-20         0.00000E+00
    0.37290E-15        -0.12429E-20         0.00000E+00
    0.37290E-15         0.74575E-21         0.00000E+00
    0.37290E-15         0.99434E-21         0.00000E+00
    0.37290E-15         0.00000E+00         0.00000E+00
    0.37290E-15         0.49717E-21         0.00000E+00
    0.37290E-15         0.00000E+00         0.00000E+00
    0.37290E-15         0.22373E-20         0.00000E+00
    0.37290E-15         0.74575E-21         0.00000E+00
    0.37290E-15        -0.91148E-21         0.00000E+00
    0.45368E-15        -0.11601E-20         0.00000E+00
    0.45368E-15        -0.16987E-20         0.00000E+00
    0.45368E-15        -0.49717E-21         0.00000E+00
    0.45368E-15         0.49717E-21         0.00000E+00
    0.45368E-15        -0.37702E-20         0.00000E+00
    0.45368E-15        -0.19472E-20         0.00000E+00
    0.45368E-15        -0.13258E-20         0.00000E+00
    0.45368E-15        -0.12429E-21         0.00000E+00
    0.45368E-15        -0.19472E-20         0.00000E+00
    0.45368E-15        -0.16572E-21         0.00000E+00
    0.45368E-15        -0.24858E-21         0.00000E+00
    0.45368E-15         0.26930E-20         0.00000E+00
    0.45368E-15         0.14501E-20         0.00000E+00
    0.45368E-15         0.82862E-21         0.00000E+00
    0.45368E-15         0.11601E-20         0.00000E+00
    0.53322E-15        -0.74575E-21         0.00000E+00
    0.53322E-15        -0.82862E-22         0.00000E+00
    0.53321E-15         0.00000E+00         0.00000E+00
    0.53321E-15        -0.11601E-20         0.00000E+00
    0.53322E-15        -0.39774E-20         0.00000E+00
    0.53321E-15        -0.12429E-20         0.00000E+00
    0.53322E-15        -0.11601E-20         0.00000E+00
    0.53322E-15        -0.99434E-21         0.00000E+00
    0.53322E-15        -0.47231E-20         0.00000E+00
    0.53322E-15        -0.58003E-21         0.00000E+00
    0.53322E-15        -0.33145E-21         0.00000E+00
    0.53322E-15         0.51374E-20         0.00000E+00
    0.53322E-15         0.19887E-20         0.00000E+00
    0.53321E-15         0.16572E-20         0.00000E+00
    0.53322E-15        -0.33145E-21         0.00000E+00
    0.61129E-15        -0.10358E-20         0.00000E+00
    0.61129E-15         0.16572E-21         0.00000E+00
    0.61129E-15         0.41431E-21         0.00000E+00
    0.61129E-15        -0.28173E-20         0.00000E+00
    0.61129E-15        -0.25687E-20         0.00000E+00
    0.61129E-15        -0.22373E-20         0.00000E+00
    0.61129E-15        -0.21544E-20         0.00000E+00
    0.61129E-15        -0.37288E-21         0.00000E+00
    0.61129E-15        -0.35630E-20         0.00000E+00
    0.61129E-15        -0.49717E-21         0.00000E+00
    0.61129E-15        -0.41431E-22         0.00000E+00
    0.61129E-15         0.21544E-20         0.00000E+00
    0.61129E-15         0.25687E-20         0.00000E+00
    0.61129E-15         0.29416E-20         0.00000E+00
    0.61129E-15        -0.33973E-20         0.00000E+00
    0.68769E-15         0.78718E-21         0.00000E+00
    0.68769E-15        -0.24444E-20         0.00000E+00
    0.68769E-15         0.95291E-21         0.00000E+00
    0.68769E-15        -0.16158E-20         0.00000E+00
    0.68769E-15        -0.35630E-20         0.00000E+00
    0.68769E-15        -0.28587E-20         0.00000E+00
    0.68769E-15        -0.14915E-20         0.00000E+00
    0.68769E-15        -0.15744E-20         0.00000E+00
    0.68769E-15        -0.29830E-20         0.00000E+00
    0.68769E-15         0.91148E-21         0.00000E+00
    0.68769E-15        -0.91148E-21         0.00000E+00
    0.68769E-15         0.41431E-21         0.00000E+00
    0.68769E-15         0.13258E-20         0.00000E+00
    0.68769E-15         0.12429E-20         0.00000E+00
    0.68769E-15        -0.16572E-20         0.00000E+00
    0.76220E-15         0.23201E-20         0.00000E+00
    0.76220E-15        -0.16158E-20         0.00000E+00
    0.76220E-15        -0.41431E-22         0.00000E+00
    0.76220E-15        -0.20715E-20         0.00000E+00
    0.76220E-15        -0.38945E-20         0.00000E+00
    0.76220E-15        -0.38945E-20         0.00000E+00
    0.76220E-15        -0.20301E-20         0.00000E+00
    0.76220E-15        -0.74575E-21         0.00000E+00
    0.76220E-15        -0.24030E-20         0.00000E+00
    0.76220E-15        -0.33145E-21         0.00000E+00
    0.76220E-15        -0.22373E-20         0.00000E+00
    0.76220E-15         0.14086E-20         0.00000E+00
    0.76220E-15         0.33145E-21         0.00000E+00
    0.76220E-15         0.91148E-21         0.00000E+00
    0.76220E-15        -0.41431E-21         0.00000E+00
    0.83462E-15        -0.24858E-21         0.00000E+00
    0.83462E-15         0.10358E-20         0.00000E+00
    0.83462E-15        -0.41431E-21         0.00000E+00
    0.83462E-15        -0.31073E-20         0.00000E+00
    0.83462E-15        -0.33559E-20         0.00000E+00
    0.83462E-15        -0.47231E-20         0.00000E+00
    0.83462E-15        -0.25687E-20         0.00000E+00
    0.83463E-15        -0.53860E-21         0.00000E+00
    0.83463E-15        -0.18230E-20         0.00000E+00
    0.83463E-15        -0.14915E-20         0.00000E+00
    0.83463E-15        -0.30659E-20         0.00000E+00
    0.83463E-15         0.78718E-21         0.00000E+00
    0.83463E-15         0.12429E-20         0.00000E+00
    0.83463E-15         0.00000E+00         0.00000E+00
    0.83463E-15        -0.12429E-20         0.00000E+00
    0.90476E-15        -0.17401E-20         0.00000E+00
    0.90476E-15        -0.16572E-21         0.00000E+00
    0.90476E-15         0.91148E-21         0.00000E+00
    0.90476E-15        -0.35630E-20         0.00000E+00
    0.90476E-15        -0.22787E-20         0.00000E+00
    0.90476E-15        -0.58003E-20         0.00000E+00
    0.90476E-15        -0.18230E-20         0.00000E+00
    0.90476E-15        -0.22373E-20         0.00000E+00
    0.90476E-15        -0.29830E-20         0.00000E+00
    0.90477E-15        -0.74575E-21         0.00000E+00
    0.90476E-15        -0.28173E-20         0.00000E+00
    0.90476E-15         0.13258E-20         0.00000E+00
    0.90476E-15         0.49717E-21         0.00000E+00
    0.90476E-15        -0.13258E-20         0.00000E+00
    0.90476E-15        -0.91148E-21         0.00000E+00
    0.97242E-15        -0.24858E-21         0.00000E+00
    0.97242E-15        -0.14086E-20         0.00000E+00
    0.97242E-15         0.91148E-21         0.00000E+00
    0.97242E-15        -0.43088E-20         0.00000E+00
    0.97242E-15        -0.11601E-20         0.00000E+00
    0.97242E-15        -0.38116E-20         0.00000E+00
    0.97242E-15        -0.23201E-20         0.00000E+00
    0.97242E-15        -0.29830E-20         0.00000E+00
    0.97242E-15        -0.28173E-20         0.00000E+00
    0.97242E-15         0.12429E-21         0.00000E+00
    0.97242E-15        -0.10772E-20         0.00000E+00
    0.97242E-15         0.16572E-21         0.00000E+00
    0.97242E-15        -0.66289E-21         0.00000E+00
    0.97242E-15        -0.24858E-20         0.00000E+00
    0.97242E-15         0.49717E-21         0.00000E+00
    0.10374E-14        -0.29001E-21         0.00000E+00
    0.10374E-14        -0.12015E-20         0.00000E+00
    0.10374E-14        -0.33145E-21         0.00000E+00
    0.10374E-14        -0.33145E-20         0.00000E+00
    0.10374E-14         0.91148E-21         0.00000E+00
    0.10374E-14        -0.35216E-20         0.00000E+00
    0.10374E-14        -0.17401E-20         0.00000E+00
    0.10374E-14        -0.40188E-20         0.00000E+00
    0.10374E-14        -0.91148E-21         0.00000E+00
    0.10374E-14        -0.17815E-20         0.00000E+00
    0.10374E-14        -0.91148E-21         0.00000E+00
    0.10374E-14        -0.14086E-20         0.00000E+00
    0.10374E-14        -0.91148E-21         0.00000E+00
    0.10374E-14        -0.70432E-21         0.00000E+00
    0.10374E-14        -0.74575E-21         0.00000E+00
    0.10996E-14         0.58003E-21         0.00000E+00
    0.10996E-14        -0.21544E-20         0.00000E+00
    0.10996E-14        -0.78718E-21         0.00000E+00
    0.10996E-14        -0.37288E-21         0.00000E+00
    0.10996E-14        -0.24858E-21         0.00000E+00
    0.10996E-14        -0.33973E-20         0.00000E+00
    0.10996E-14        -0.19887E-20         0.00000E+00
    0.10996E-14        -0.37288E-20         0.00000E+00
    0.10996E-14         0.66289E-21         0.00000E+00
    0.10996E-14        -0.42259E-20         0.00000E+00
    0.10996E-14         0.00000E+00         0.00000E+00
    0.10996E-14        -0.82862E-21         0.00000E+00
    0.10996E-14        -0.24858E-20         0.00000E+00
    0.10996E-14         0.18644E-20         0.00000E+00
    0.10996E-14        -0.82861E-21         0.00000E+00
    0.11587E-14         0.33144E-21         0.00000E+00
    0.11587E-14        -0.20301E-20         0.00000E+00
    0.11587E-14         0.45574E-21         0.00000E+00
    0.11587E-14         0.95290E-21         0.00000E+00
    0.11587E-14        -0.16572E-21         0.00000E+00
    0.11587E-14        -0.23615E-20         0.00000E+00
    0.11587E-14        -0.18230E-20         0.00000E+00
    0.11587E-14        -0.14915E-20         0.00000E+00
    0.11587E-14        -0.16572E-20         0.00000E+00
    0.11587E-14        -0.31487E-20         0.00000E+00
    0.11587E-14         0.33145E-21         0.00000E+00
    0.11587E-14        -0.10772E-20         0.00000E+00
    0.11587E-14        -0.17815E-20         0.00000E+00
    0.11587E-14         0.20715E-20         0.00000E+00
    0.11587E-14         0.66289E-21         0.00000E+00
    0.12147E-14        -0.29001E-21         0.00000E+00
    0.12147E-14        -0.14086E-20         0.00000E+00
    0.12147E-14         0.30659E-20         0.00000E+00
    0.12147E-14        -0.91147E-21         0.00000E+00
    0.12147E-14         0.13672E-20         0.00000E+00
    0.12147E-14        -0.14086E-20         0.00000E+00
    0.12147E-14        -0.33145E-21         0.00000E+00
    0.12147E-14        -0.16987E-20         0.00000E+00
    0.12147E-14        -0.24858E-20         0.00000E+00
    0.12147E-14        -0.13258E-20         0.00000E+00
    0.12147E-14        -0.16572E-20         0.00000E+00
    0.12147E-14        -0.22373E-20         0.00000E+00
    0.12147E-14         0.00000E+00         0.00000E+00
    0.12147E-14         0.66289E-21         0.00000E+00
    0.12147E-14         0.82861E-22         0.00000E+00
    0.12673E-14         0.82861E-21         0.00000E+00
    0.12673E-14         0.37287E-21         0.00000E+00
    0.12673E-14         0.13258E-20         0.00000E+00
    0.12673E-14        -0.14915E-20         0.00000E+00
    0.12673E-14         0.21958E-20         0.00000E+00
    0.12673E-14         0.11601E-20         0.00000E+00
    0.12673E-14        -0.58003E-21         0.00000E+00
    0.12673E-14        -0.19472E-20         0.00000E+00
    0.12673E-14        -0.99434E-21         0.00000E+00
    0.12673E-14        -0.82861E-21         0.00000E+00
    0.12673E-14        -0.29001E-20         0.00000E+00
    0.12673E-14        -0.14915E-20         0.00000E+00
    0.12673E-14        -0.49717E-21         0.00000E+00
    0.12673E-14        -0.62146E-21         0.00000E+00
    0.12673E-14         0.33145E-21         0.00000E+00
    0.13164E-14         0.10772E-20         0.00000E+00
    0.13164E-14         0.16572E-20         0.00000E+00
    0.13164E-14         0.12429E-21         0.00000E+00
    0.13164E-14         0.00000E+00         0.00000E+00
    0.13164E-14         0.22373E-20         0.00000E+00
    0.13164E-14         0.99433E-21         0.00000E+00
    0.13164E-14         0.82861E-22         0.00000E+00
    0.13164E-14        -0.99433E-21         0.00000E+00
    0.13164E-14        -0.41431E-21         0.00000E+00
    0.13164E-14        -0.13258E-20         0.00000E+00
    0.13164E-14        -0.38945E-20         0.00000E+00
    0.13164E-14         0.24858E-21         0.00000E+00
    0.13164E-14        -0.21958E-20         0.00000E+00
    0.13164E-14        -0.10358E-20         0.00000E+00
    0.13164E-14        -0.66289E-21         0.00000E+00
    0.13620E-14         0.10772E-20         0.00000E+00
    0.13620E-14         0.35216E-20         0.00000E+00
    0.13620E-14         0.16158E-20         0.00000E+00
    0.13620E-14        -0.62146E-21         0.00000E+00
    0.13620E-14         0.20715E-21         0.00000E+00
    0.13620E-14         0.16572E-20         0.00000E+00
    0.13620E-14         0.14086E-20         0.00000E+00
    0.13620E-14         0.00000E+00         0.00000E+00
    0.13620E-14         0.16572E-21         0.00000E+00
    0.13620E-14        -0.21544E-20         0.00000E+00
    0.13620E-14        -0.42259E-20         0.00000E+00
    0.13620E-14         0.99433E-21         0.00000E+00
    0.13620E-14        -0.18229E-20         0.00000E+00
    0.13620E-14        -0.16572E-21         0.00000E+00
    0.13620E-14        -0.18229E-20         0.00000E+00
    0.14038E-14         0.13258E-20         0.00000E+00
    0.14038E-14         0.30244E-20         0.00000E+00
    0.14038E-14         0.19058E-20         0.00000E+00
    0.14038E-14         0.11186E-20         0.00000E+00
    0.14038E-14        -0.16572E-21         0.00000E+00
    0.14038E-14         0.13258E-20         0.00000E+00
    0.14038E-14         0.19058E-20         0.00000E+00
    0.14038E-14        -0.41431E-21         0.00000E+00
    0.14038E-14        -0.82861E-22         0.00000E+00
    0.14038E-14        -0.19887E-20         0.00000E+00
    0.14038E-14        -0.13258E-20         0.00000E+00
    0.14038E-14        -0.20715E-20         0.00000E+00
    0.14038E-14        -0.14501E-20         0.00000E+00
    0.14038E-14         0.45574E-21         0.00000E+00
    0.14038E-14         0.15744E-20         0.00000E+00
    0.14418E-14         0.17401E-20         0.00000E+00
    0.14418E-14         0.29001E-20         0.00000E+00
    0.14418E-14         0.12429E-21         0.00000E+00
    0.14418E-14         0.22372E-20         0.00000E+00
    0.14418E-14         0.62146E-21         0.00000E+00
    0.14418E-14         0.16572E-20         0.00000E+00
    0.14418E-14         0.99433E-21         0.00000E+00
    0.14418E-14         0.49717E-21         0.00000E+00
    0.14418E-14        -0.19058E-20         0.00000E+00
    0.14418E-14        -0.49717E-21         0.00000E+00
    0.14418E-14        -0.41430E-21         0.00000E+00
    0.14418E-14        -0.20301E-20         0.00000E+00
    0.14418E-14        -0.14915E-20         0.00000E+00
    0.14418E-14        -0.29001E-21         0.00000E+00
    0.14418E-14        -0.20715E-21         0.00000E+00
    0.14758E-14         0.20715E-20         0.00000E+00
    0.14758E-14         0.19058E-20         0.00000E+00
    0.14758E-14         0.00000E+00         0.00000E+00
    0.14758E-14         0.24858E-20         0.00000E+00
    0.14758E-14         0.12015E-20         0.00000E+00
    0.14758E-14         0.78718E-21         0.00000E+00
    0.14758E-14         0.12429E-20         0.00000E+00
    0.14758E-14         0.24858E-20         0.00000E+00
    0.14758E-14        -0.28173E-20         0.00000E+00
    0.14758E-14        -0.16572E-21         0.00000E+00
    0.14758E-14        -0.11601E-20         0.00000E+00
    0.14758E-14        -0.66289E-21         0.00000E+00
    0.14758E-14        -0.17401E-20         0.00000E+00
    0.14758E-14        -0.74575E-21         0.00000E+00
    0.14758E-14        -0.23201E-20         0.00000E+00
    0.15058E-14         0.58002E-21         0.00000E+00
    0.15058E-14        -0.16572E-21         0.00000E+00
    0.15058E-14         0.16572E-20         0.00000E+00
    0.15058E-14         0.22372E-20         0.00000E+00
    0.15058E-14         0.22372E-20         0.00000E+00
    0.15058E-14        -0.17401E-20         0.00000E+00
    0.15058E-14         0.29830E-20         0.00000E+00
    0.15058E-14         0.12429E-20         0.00000E+00
    0.15058E-14         0.82861E-21         0.00000E+00
    0.15057E-14         0.12015E-20         0.00000E+00
    0.15057E-14        -0.34801E-20         0.00000E+00
    0.15058E-14        -0.21544E-20         0.00000E+00
    0.15058E-14        -0.15744E-20         0.00000E+00
    0.15058E-14        -0.15744E-20         0.00000E+00
    0.15058E-14        -0.78718E-21         0.00000E+00
    0.15316E-14        -0.66288E-21         0.00000E+00
    0.15316E-14         0.41430E-21         0.00000E+00
    0.15316E-14         0.21544E-20         0.00000E+00
    0.15316E-14         0.27344E-20         0.00000E+00
    0.15316E-14         0.30658E-20         0.00000E+00
    0.15316E-14        -0.11600E-20         0.00000E+00
    0.15316E-14         0.14086E-20         0.00000E+00
    0.15316E-14         0.37287E-21         0.00000E+00
    0.15316E-14         0.36459E-20         0.00000E+00
    0.15316E-14         0.99433E-21         0.00000E+00
    0.15316E-14        -0.35216E-20         0.00000E+00
    0.15316E-14        -0.21958E-20         0.00000E+00
    0.15316E-14        -0.12843E-20         0.00000E+00
    0.15316E-14        -0.26515E-20         0.00000E+00
    0.15316E-14         0.41430E-21         0.00000E+00
    0.15532E-14        -0.41430E-21         0.00000E+00
    0.15532E-14         0.14915E-20         0.00000E+00
    0.15532E-14         0.10772E-20         0.00000E+00
    0.15532E-14         0.43916E-20         0.00000E+00
    0.15532E-14         0.33973E-20         0.00000E+00
    0.15532E-14        -0.16572E-20         0.00000E+00
    0.15532E-14        -0.58002E-21         0.00000E+00
    0.15532E-14         0.49716E-21         0.00000E+00
    0.15532E-14         0.37701E-20         0.00000E+00
    0.15532E-14         0.00000E+00         0.00000E+00
    0.15532E-14        -0.14501E-20         0.00000E+00
    0.15532E-14        -0.12843E-20         0.00000E+00
    0.15532E-14        -0.26515E-20         0.00000E+00
    0.15532E-14        -0.24858E-20         0.00000E+00
    0.15532E-14        -0.24858E-21         0.00000E+00
    0.15706E-14        -0.15743E-20         0.00000E+00
    0.15706E-14         0.12429E-20         0.00000E+00
    0.15706E-14         0.14501E-20         0.00000E+00
    0.15706E-14         0.43087E-20         0.00000E+00
    0.15706E-14         0.44330E-20         0.00000E+00
    0.15706E-14        -0.66288E-21         0.00000E+00
    0.15706E-14         0.00000E+00         0.00000E+00
    0.15706E-14         0.13258E-20         0.00000E+00
    0.15706E-14        -0.41430E-22         0.00000E+00
    0.15706E-14         0.00000E+00         0.00000E+00
    0.15706E-14         0.99432E-21         0.00000E+00
    0.15706E-14        -0.16572E-20         0.00000E+00
    0.15706E-14        -0.27758E-20         0.00000E+00
    0.15706E-14        -0.18229E-20         0.00000E+00
    0.15706E-14        -0.14086E-20         0.00000E+00
    0.15837E-14        -0.12429E-20         0.00000E+00
    0.15837E-14         0.23201E-20         0.00000E+00
    0.15837E-14         0.16572E-20         0.00000E+00
    0.15837E-14         0.28172E-20         0.00000E+00
    0.15837E-14         0.23201E-20         0.00000E+00
    0.15837E-14         0.95289E-21         0.00000E+00
    0.15837E-14         0.00000E+00         0.00000E+00
    0.15837E-14         0.28172E-20         0.00000E+00
    0.15837E-14        -0.19886E-20         0.00000E+00
    0.15837E-14         0.91146E-21         0.00000E+00
    0.15837E-14         0.17401E-20         0.00000E+00
    0.15837E-14        -0.17815E-20         0.00000E+00
    0.15837E-14        -0.24029E-20         0.00000E+00
    0.15837E-14        -0.70431E-21         0.00000E+00
    0.15837E-14        -0.14915E-20         0.00000E+00
    0.15925E-14        -0.41430E-22         0.00000E+00
    0.15925E-14         0.31901E-20         0.00000E+00
    0.15925E-14         0.27344E-20         0.00000E+00
    0.15925E-14         0.66288E-21         0.00000E+00
    0.15924E-14         0.00000E+00         0.00000E+00
    0.15924E-14         0.12015E-20         0.00000E+00
    0.15924E-14         0.13258E-20         0.00000E+00
    0.15924E-14         0.13258E-20         0.00000E+00
    0.15924E-14        -0.24858E-21         0.00000E+00
    0.15924E-14         0.29001E-21         0.00000E+00
    0.15924E-14         0.12429E-21         0.00000E+00
    0.15924E-14        -0.66287E-21         0.00000E+00
    0.15924E-14        -0.12429E-20         0.00000E+00
    0.15924E-14        -0.74574E-21         0.00000E+00
    0.15924E-14        -0.66288E-21         0.00000E+00
    0.15968E-14         0.00000E+00         0.00000E+00
    0.15968E-14         0.12429E-20         0.00000E+00
    0.15968E-14         0.20715E-20         0.00000E+00
    0.15968E-14        -0.74574E-21         0.00000E+00
    0.15968E-14         0.00000E+00         0.00000E+00
    0.15968E-14         0.00000E+00         0.00000E+00
    0.15968E-14         0.13257E-20         0.00000E+00
    0.15968E-14         0.82859E-22         0.00000E+00
    0.15968E-14         0.82859E-22         0.00000E+00
    0.15968E-14        -0.33144E-21         0.00000E+00
    0.15968E-14         0.82859E-22         0.00000E+00
    0.15968E-14         0.82859E-22         0.00000E+00
    0.15968E-14        -0.37287E-21         0.00000E+00
    0.15968E-14        -0.91145E-21         0.00000E+00
    0.15968E-14         0.66288E-21         0.00000E+00
POINT_DATA        496
VECTORS vDarcyNodal double 
    0.41813E-16        -0.66289E-21         0.00000E+00
    0.41814E-16        -0.99434E-21         0.00000E+00
    0.41813E-16        -0.66289E-21         0.00000E+00
    0.41815E-16         0.00000E+00         0.00000E+00
    0.41816E-16        -0.16572E-20         0.00000E+00
    0.41815E-16        -0.33145E-20         0.00000E+00
    0.41815E-16        -0.19887E-20         0.00000E+00
    0.41816E-16        -0.13258E-20         0.00000E+00
    0.41812E-16         0.33145E-21         0.00000E+00
    0.41814E-16         0.13258E-20         0.00000E+00
    0.41815E-16        -0.33145E-21         0.00000E+00
    0.41813E-16         0.23201E-20         0.00000E+00
    0.41817E-16         0.23201E-20         0.00000E+00
    0.41815E-16         0.99434E-21         0.00000E+00
    0.41818E-16        -0.66289E-21         0.00000E+00
    0.41813E-16        -0.39774E-20         0.00000E+00
    0.83572E-16        -0.24773E-20         0.00000E+00
    0.83572E-16        -0.99434E-21         0.00000E+00
    0.83572E-16        -0.49717E-21         0.00000E+00
    0.83572E-16        -0.14915E-20         0.00000E+00
    0.83573E-16        -0.14129E-20         0.00000E+00
    0.83572E-16        -0.23987E-20         0.00000E+00
    0.83573E-16        -0.32273E-20         0.00000E+00
    0.83573E-16        -0.39594E-28         0.00000E+00
    0.83571E-16         0.16572E-20         0.00000E+00
    0.83571E-16         0.33145E-21         0.00000E+00
    0.83571E-16         0.33145E-21         0.00000E+00
    0.83570E-16         0.99434E-21         0.00000E+00
    0.83572E-16         0.13258E-20         0.00000E+00
    0.83571E-16         0.99434E-21         0.00000E+00
    0.83573E-16         0.78573E-22         0.00000E+00
    0.83571E-16         0.15715E-21         0.00000E+00
    0.16691E-15        -0.97718E-21         0.00000E+00
    0.16691E-15        -0.99434E-21         0.00000E+00
    0.16691E-15        -0.33145E-21         0.00000E+00
    0.16691E-15        -0.11601E-20         0.00000E+00
    0.16691E-15        -0.24944E-20         0.00000E+00
    0.16692E-15        -0.34716E-20         0.00000E+00
    0.16691E-15        -0.28087E-20         0.00000E+00
    0.16691E-15         0.49717E-21         0.00000E+00
    0.16691E-15         0.23201E-20         0.00000E+00
    0.16691E-15         0.16572E-20         0.00000E+00
    0.16691E-15         0.33145E-21         0.00000E+00
    0.16691E-15         0.99434E-21         0.00000E+00
    0.16691E-15         0.99434E-21         0.00000E+00
    0.16691E-15         0.00000E+00         0.00000E+00
    0.16691E-15        -0.50575E-21         0.00000E+00
    0.16691E-15        -0.10115E-20         0.00000E+00
    0.24980E-15         0.00000E+00         0.00000E+00
    0.24980E-15        -0.99434E-21         0.00000E+00
    0.24980E-15        -0.26516E-20         0.00000E+00
    0.24980E-15        -0.33145E-20         0.00000E+00
    0.24980E-15        -0.31573E-20         0.00000E+00
    0.24980E-15        -0.99434E-21         0.00000E+00
    0.24980E-15         0.50575E-21         0.00000E+00
    0.24980E-15        -0.33145E-21         0.00000E+00
    0.24980E-15         0.18315E-20         0.00000E+00
    0.24980E-15         0.16572E-20         0.00000E+00
    0.24980E-15        -0.50575E-21         0.00000E+00
    0.24980E-15         0.00000E+00         0.00000E+00
    0.24980E-15         0.00000E+00         0.00000E+00
    0.24980E-15         0.99434E-21         0.00000E+00
    0.24980E-15         0.17430E-21         0.00000E+00
    0.24980E-15        -0.23030E-20         0.00000E+00
    0.33200E-15        -0.22858E-20         0.00000E+00
    0.33200E-15        -0.99434E-21         0.00000E+00
    0.33200E-15        -0.99434E-21         0.00000E+00
    0.33200E-15        -0.36459E-20         0.00000E+00
    0.33200E-15        -0.33316E-20         0.00000E+00
    0.33200E-15        -0.48001E-21         0.00000E+00
    0.33200E-15         0.17155E-22         0.00000E+00
    0.33200E-15         0.00000E+00         0.00000E+00
    0.33200E-15         0.13258E-20         0.00000E+00
    0.33200E-15         0.11601E-20         0.00000E+00
    0.33200E-15         0.00000E+00         0.00000E+00
    0.33200E-15         0.00000E+00         0.00000E+00
    0.33200E-15         0.99434E-21         0.00000E+00
    0.33200E-15         0.99434E-21         0.00000E+00
    0.33200E-15        -0.68005E-21         0.00000E+00
    0.33200E-15        -0.10286E-20         0.00000E+00
    0.41329E-15        -0.19887E-20         0.00000E+00
    0.41329E-15        -0.16744E-20         0.00000E+00
    0.41329E-15        -0.99434E-21         0.00000E+00
    0.41329E-15         0.57862E-28         0.00000E+00
    0.41329E-15        -0.13258E-20         0.00000E+00
    0.41329E-15        -0.29659E-20         0.00000E+00
    0.41329E-15        -0.26516E-20         0.00000E+00
    0.41329E-15        -0.66289E-21         0.00000E+00
    0.41329E-15         0.66289E-21         0.00000E+00
    0.41329E-15         0.00000E+00         0.00000E+00
    0.41329E-15         0.66289E-21         0.00000E+00
    0.41329E-15         0.66289E-21         0.00000E+00
    0.41329E-15         0.99434E-21         0.00000E+00
    0.41329E-15         0.16572E-20         0.00000E+00
    0.41329E-15         0.27839E-27         0.00000E+00
    0.41329E-15        -0.13258E-20         0.00000E+00
    0.49345E-15         0.00000E+00         0.00000E+00
    0.49345E-15        -0.99434E-21         0.00000E+00
    0.49345E-15        -0.99434E-21         0.00000E+00
    0.49345E-15         0.00000E+00         0.00000E+00
    0.49345E-15        -0.20058E-20         0.00000E+00
    0.49345E-15        -0.26516E-20         0.00000E+00
    0.49345E-15        -0.64574E-21         0.00000E+00
    0.49345E-15        -0.33145E-21         0.00000E+00
    0.49345E-15        -0.24687E-20         0.00000E+00
    0.49345E-15        -0.23201E-20         0.00000E+00
    0.49345E-15        -0.34860E-21         0.00000E+00
    0.49345E-15         0.23201E-20         0.00000E+00
    0.49345E-15         0.29830E-20         0.00000E+00
    0.49345E-15         0.33145E-21         0.00000E+00
    0.49345E-15         0.13429E-20         0.00000E+00
    0.49345E-15         0.30173E-20         0.00000E+00
    0.57225E-15        -0.12572E-20         0.00000E+00
    0.57225E-15         0.15081E-27         0.00000E+00
    0.57225E-15         0.62858E-21         0.00000E+00
    0.57225E-15        -0.96003E-21         0.00000E+00
    0.57225E-15        -0.27830E-20         0.00000E+00
    0.57225E-15        -0.23544E-20         0.00000E+00
    0.57225E-15        -0.16915E-20         0.00000E+00
    0.57225E-15        -0.96003E-21         0.00000E+00
    0.57225E-15        -0.26173E-20         0.00000E+00
    0.57225E-15        -0.33145E-20         0.00000E+00
    0.57225E-15        -0.86293E-21         0.00000E+00
    0.57225E-15         0.21201E-20         0.00000E+00
    0.57225E-15         0.36459E-20         0.00000E+00
    0.57225E-15         0.33488E-20         0.00000E+00
    0.57225E-15        -0.66289E-21         0.00000E+00
    0.57226E-15        -0.47089E-20         0.00000E+00
    0.64949E-15        -0.92572E-21         0.00000E+00
    0.64949E-15        -0.99434E-21         0.00000E+00
    0.64949E-15         0.17975E-27         0.00000E+00
    0.64949E-15        -0.99434E-21         0.00000E+00
    0.64949E-15        -0.26859E-20         0.00000E+00
    0.64949E-15        -0.32802E-20         0.00000E+00
    0.64949E-15        -0.26173E-20         0.00000E+00
    0.64949E-15        -0.99434E-21         0.00000E+00
    0.64949E-15        -0.16572E-20         0.00000E+00
    0.64949E-15        -0.99434E-21         0.00000E+00
    0.64949E-15         0.00000E+00         0.00000E+00
    0.64949E-15         0.00000E+00         0.00000E+00
    0.64949E-15         0.99434E-21         0.00000E+00
    0.64949E-15         0.23201E-20         0.00000E+00
    0.64949E-15        -0.36576E-21         0.00000E+00
    0.64949E-15        -0.33831E-20         0.00000E+00
    0.72494E-15         0.30516E-20         0.00000E+00
    0.72494E-15        -0.33145E-21         0.00000E+00
    0.72494E-15        -0.16572E-20         0.00000E+00
    0.72494E-15         0.53148E-21         0.00000E+00
    0.72494E-15        -0.26516E-20         0.00000E+00
    0.72494E-15        -0.36459E-20         0.00000E+00
    0.72494E-15        -0.19887E-20         0.00000E+00
    0.72495E-15        -0.19887E-20         0.00000E+00
    0.72494E-15        -0.26516E-20         0.00000E+00
    0.72494E-15        -0.66289E-21         0.00000E+00
    0.72495E-15         0.80753E-28         0.00000E+00
    0.72495E-15        -0.33145E-21         0.00000E+00
    0.72495E-15         0.62858E-21         0.00000E+00
    0.72495E-15         0.33145E-21         0.00000E+00
    0.72495E-15         0.53148E-21         0.00000E+00
    0.72495E-15         0.00000E+00         0.00000E+00
    0.79841E-15         0.66289E-21         0.00000E+00
    0.79841E-15         0.79430E-21         0.00000E+00
    0.79841E-15        -0.18755E-27         0.00000E+00
    0.79841E-15        -0.26516E-20         0.00000E+00
    0.79841E-15        -0.29830E-20         0.00000E+00
    0.79841E-15        -0.36116E-20         0.00000E+00
    0.79841E-15        -0.36459E-20         0.00000E+00
    0.79841E-15        -0.66289E-21         0.00000E+00
    0.79841E-15        -0.66289E-21         0.00000E+00
    0.79841E-15        -0.26516E-20         0.00000E+00
    0.79841E-15        -0.26516E-20         0.00000E+00
    0.79842E-15        -0.14365E-27         0.00000E+00
    0.79842E-15         0.16572E-20         0.00000E+00
    0.79841E-15         0.66289E-21         0.00000E+00
    0.79841E-15        -0.66289E-21         0.00000E+00
    0.79842E-15        -0.13258E-20         0.00000E+00
    0.86969E-15        -0.19887E-20         0.00000E+00
    0.86969E-15        -0.33145E-21         0.00000E+00
    0.86969E-15         0.66289E-21         0.00000E+00
    0.86969E-15        -0.99434E-21         0.00000E+00
    0.86969E-15        -0.33145E-20         0.00000E+00
    0.86969E-15        -0.43088E-20         0.00000E+00
    0.86969E-15        -0.29830E-20         0.00000E+00
    0.86969E-15        -0.23201E-20         0.00000E+00
    0.86970E-15        -0.23201E-20         0.00000E+00
    0.86970E-15        -0.99434E-21         0.00000E+00
    0.86969E-15        -0.20230E-20         0.00000E+00
    0.86969E-15        -0.21544E-20         0.00000E+00
    0.86969E-15         0.10286E-20         0.00000E+00
    0.86970E-15         0.99434E-21         0.00000E+00
    0.86970E-15        -0.99434E-21         0.00000E+00
    0.86969E-15        -0.19887E-20         0.00000E+00
    0.93859E-15        -0.66289E-21         0.00000E+00
    0.93859E-15        -0.99434E-21         0.00000E+00
    0.93859E-15         0.33145E-21         0.00000E+00
    0.93859E-15        -0.16572E-20         0.00000E+00
    0.93859E-15        -0.30173E-20         0.00000E+00
    0.93859E-15        -0.36459E-20         0.00000E+00
    0.93859E-15        -0.36116E-20         0.00000E+00
    0.93859E-15        -0.16572E-20         0.00000E+00
    0.93859E-15        -0.27830E-20         0.00000E+00
    0.93859E-15        -0.19887E-20         0.00000E+00
    0.93859E-15        -0.13601E-20         0.00000E+00
    0.93859E-15         0.33145E-21         0.00000E+00
    0.93859E-15         0.33145E-21         0.00000E+00
    0.93859E-15        -0.23201E-20         0.00000E+00
    0.93859E-15        -0.11258E-20         0.00000E+00
    0.93859E-15         0.13944E-20         0.00000E+00
    0.10049E-14         0.66289E-21         0.00000E+00
    0.10049E-14        -0.99781E-28         0.00000E+00
    0.10049E-14        -0.99434E-21         0.00000E+00
    0.10049E-14        -0.23201E-20         0.00000E+00
    0.10049E-14        -0.19887E-20         0.00000E+00
    0.10049E-14        -0.16572E-20         0.00000E+00
    0.10049E-14        -0.26516E-20         0.00000E+00
    0.10049E-14        -0.27487E-20         0.00000E+00
    0.10049E-14        -0.33145E-20         0.00000E+00
    0.10049E-14        -0.10630E-20         0.00000E+00
    0.10049E-14        -0.22469E-28         0.00000E+00
    0.10049E-14        -0.16572E-20         0.00000E+00
    0.10049E-14        -0.99434E-21         0.00000E+00
    0.10049E-14        -0.99434E-21         0.00000E+00
    0.10049E-14        -0.99434E-21         0.00000E+00
    0.10049E-14         0.00000E+00         0.00000E+00
    0.10685E-14        -0.11885E-20         0.00000E+00
    0.10685E-14        -0.16572E-20         0.00000E+00
    0.10685E-14        -0.10630E-20         0.00000E+00
    0.10685E-14        -0.15886E-20         0.00000E+00
    0.10685E-14        -0.59427E-21         0.00000E+00
    0.10685E-14        -0.18916E-20         0.00000E+00
    0.10685E-14        -0.28859E-20         0.00000E+00
    0.10685E-14        -0.25829E-20         0.00000E+00
    0.10685E-14        -0.75999E-21         0.00000E+00
    0.10685E-14        -0.99434E-21         0.00000E+00
    0.10685E-14        -0.27202E-20         0.00000E+00
    0.10685E-14        -0.10630E-20         0.00000E+00
    0.10685E-14        -0.16572E-20         0.00000E+00
    0.10685E-14        -0.26283E-21         0.00000E+00
    0.10685E-14        -0.49717E-21         0.00000E+00
    0.10685E-14        -0.21259E-20         0.00000E+00
    0.11291E-14         0.13258E-20         0.00000E+00
    0.11291E-14        -0.33145E-21         0.00000E+00
    0.11291E-14        -0.15886E-20         0.00000E+00
    0.11291E-14         0.33145E-21         0.00000E+00
    0.11291E-14         0.97103E-22         0.00000E+00
    0.11291E-14        -0.13258E-20         0.00000E+00
    0.11291E-14        -0.19887E-20         0.00000E+00
    0.11291E-14        -0.32458E-20         0.00000E+00
    0.11291E-14        -0.15886E-20         0.00000E+00
    0.11291E-14        -0.20573E-20         0.00000E+00
    0.11291E-14        -0.17258E-20         0.00000E+00
    0.11291E-14         0.40007E-21         0.00000E+00
    0.11291E-14        -0.16572E-20         0.00000E+00
    0.11291E-14        -0.56579E-21         0.00000E+00
    0.11291E-14         0.13258E-20         0.00000E+00
    0.11291E-14         0.66289E-21         0.00000E+00
    0.11867E-14         0.13724E-21         0.00000E+00
    0.11867E-14        -0.99433E-21         0.00000E+00
    0.11867E-14         0.43701E-27         0.00000E+00
    0.11867E-14         0.99433E-21         0.00000E+00
    0.11867E-14         0.59427E-21         0.00000E+00
    0.11867E-14        -0.92572E-21         0.00000E+00
    0.11867E-14        -0.22515E-20         0.00000E+00
    0.11867E-14        -0.66289E-21         0.00000E+00
    0.11867E-14        -0.13258E-20         0.00000E+00
    0.11867E-14        -0.26516E-20         0.00000E+00
    0.11867E-14        -0.13258E-20         0.00000E+00
    0.11867E-14        -0.99434E-21         0.00000E+00
    0.11867E-14        -0.99434E-21         0.00000E+00
    0.11867E-14         0.66289E-21         0.00000E+00
    0.11867E-14         0.59427E-21         0.00000E+00
    0.11867E-14        -0.13724E-21         0.00000E+00
    0.12410E-14         0.13724E-21         0.00000E+00
    0.12410E-14         0.68619E-22         0.00000E+00
    0.12410E-14         0.16572E-20         0.00000E+00
    0.12410E-14         0.59427E-21         0.00000E+00
    0.12410E-14        -0.16572E-21         0.00000E+00
    0.12410E-14         0.10630E-20         0.00000E+00
    0.12410E-14        -0.68620E-22         0.00000E+00
    0.12410E-14        -0.16572E-20         0.00000E+00
    0.12410E-14        -0.25829E-20         0.00000E+00
    0.12410E-14        -0.99434E-21         0.00000E+00
    0.12410E-14        -0.16572E-20         0.00000E+00
    0.12410E-14        -0.26516E-20         0.00000E+00
    0.12410E-14        -0.99434E-21         0.00000E+00
    0.12410E-14         0.00000E+00         0.00000E+00
    0.12410E-14        -0.68620E-22         0.00000E+00
    0.12410E-14        -0.13724E-21         0.00000E+00
    0.12919E-14         0.14630E-20         0.00000E+00
    0.12919E-14         0.66289E-21         0.00000E+00
    0.12919E-14         0.26940E-28         0.00000E+00
    0.12919E-14         0.68619E-22         0.00000E+00
    0.12919E-14         0.99433E-21         0.00000E+00
    0.12919E-14         0.19887E-20         0.00000E+00
    0.12919E-14         0.66289E-21         0.00000E+00
    0.12919E-14        -0.99434E-21         0.00000E+00
    0.12919E-14        -0.66289E-21         0.00000E+00
    0.12919E-14        -0.99434E-21         0.00000E+00
    0.12919E-14        -0.19887E-20         0.00000E+00
    0.12919E-14        -0.16572E-20         0.00000E+00
    0.12919E-14        -0.18916E-20         0.00000E+00
    0.12919E-14        -0.16572E-20         0.00000E+00
    0.12919E-14         0.23434E-21         0.00000E+00
    0.12919E-14         0.13258E-20         0.00000E+00
    0.13392E-14         0.13258E-20         0.00000E+00
    0.13392E-14         0.23887E-20         0.00000E+00
    0.13392E-14         0.17258E-20         0.00000E+00
    0.13392E-14         0.00000E+00         0.00000E+00
    0.13392E-14         0.99433E-21         0.00000E+00
    0.13392E-14         0.99433E-21         0.00000E+00
    0.13392E-14         0.33144E-21         0.00000E+00
    0.13392E-14         0.33144E-21         0.00000E+00
    0.13392E-14        -0.33144E-21         0.00000E+00
    0.13392E-14        -0.33144E-21         0.00000E+00
    0.13392E-14        -0.26516E-20         0.00000E+00
    0.13392E-14        -0.16572E-20         0.00000E+00
    0.13392E-14         0.15247E-27         0.00000E+00
    0.13392E-14        -0.15886E-20         0.00000E+00
    0.13392E-14        -0.19887E-20         0.00000E+00
    0.13392E-14        -0.27888E-20         0.00000E+00
    0.13829E-14         0.13258E-20         0.00000E+00
    0.13829E-14         0.22515E-20         0.00000E+00
    0.13829E-14         0.29830E-20         0.00000E+00
    0.13829E-14         0.99433E-21         0.00000E+00
    0.13829E-14        -0.99433E-21         0.00000E+00
    0.13829E-14         0.10630E-20         0.00000E+00
    0.13829E-14         0.23201E-20         0.00000E+00
    0.13829E-14         0.66289E-21         0.00000E+00
    0.13829E-14         0.33144E-21         0.00000E+00
    0.13829E-14        -0.16572E-20         0.00000E+00
    0.13829E-14        -0.29830E-20         0.00000E+00
    0.13829E-14        -0.99433E-21         0.00000E+00
    0.13829E-14        -0.99433E-21         0.00000E+00
    0.13829E-14        -0.99433E-21         0.00000E+00
    0.13829E-14         0.00000E+00         0.00000E+00
    0.13829E-14         0.00000E+00         0.00000E+00
    0.14228E-14         0.52565E-21         0.00000E+00
    0.14228E-14         0.20858E-20         0.00000E+00
    0.14228E-14         0.17258E-20         0.00000E+00
    0.14228E-14         0.16572E-20         0.00000E+00
    0.14228E-14         0.23201E-20         0.00000E+00
    0.14228E-14         0.56578E-21         0.00000E+00
    0.14228E-14         0.99433E-21         0.00000E+00
    0.14228E-14         0.33144E-21         0.00000E+00
    0.14228E-14        -0.99433E-21         0.00000E+00
    0.14228E-14        -0.33144E-21         0.00000E+00
    0.14228E-14         0.00000E+00         0.00000E+00
    0.14228E-14        -0.19887E-20         0.00000E+00
    0.14228E-14        -0.26516E-20         0.00000E+00
    0.14228E-14        -0.26283E-21         0.00000E+00
    0.14228E-14         0.16572E-20         0.00000E+00
    0.14228E-14         0.25143E-20         0.00000E+00
    0.14588E-14         0.19887E-20         0.00000E+00
    0.14588E-14         0.19887E-20         0.00000E+00
    0.14588E-14         0.99433E-21         0.00000E+00
    0.14588E-14         0.99433E-21         0.00000E+00
    0.14588E-14         0.99433E-21         0.00000E+00
    0.14588E-14         0.16572E-20         0.00000E+00
    0.14588E-14         0.16572E-20         0.00000E+00
    0.14588E-14         0.99433E-21         0.00000E+00
    0.14588E-14        -0.23532E-27         0.00000E+00
    0.14588E-14        -0.16572E-20         0.00000E+00
    0.14588E-14        -0.12287E-20         0.00000E+00
    0.14588E-14         0.16572E-21         0.00000E+00
    0.14588E-14        -0.26282E-21         0.00000E+00
    0.14588E-14        -0.13258E-20         0.00000E+00
    0.14588E-14        -0.13258E-20         0.00000E+00
    0.14588E-14        -0.19887E-20         0.00000E+00
    0.14908E-14         0.18514E-20         0.00000E+00
    0.14908E-14         0.16572E-20         0.00000E+00
    0.14908E-14         0.66289E-21         0.00000E+00
    0.14908E-14         0.16572E-20         0.00000E+00
    0.14908E-14         0.26515E-20         0.00000E+00
    0.14908E-14        -0.63892E-28         0.00000E+00
    0.14908E-14         0.53445E-28         0.00000E+00
    0.14908E-14         0.26515E-20         0.00000E+00
    0.14908E-14         0.13724E-21         0.00000E+00
    0.14908E-14        -0.92571E-21         0.00000E+00
    0.14908E-14         0.28483E-22         0.00000E+00
    0.14908E-14        -0.18916E-20         0.00000E+00
    0.14908E-14        -0.14229E-20         0.00000E+00
    0.14908E-14        -0.89723E-21         0.00000E+00
    0.14908E-14        -0.14229E-20         0.00000E+00
    0.14908E-14        -0.20456E-20         0.00000E+00
    0.15187E-14        -0.66288E-21         0.00000E+00
    0.15187E-14        -0.99433E-21         0.00000E+00
    0.15187E-14         0.99433E-21         0.00000E+00
    0.15187E-14         0.26515E-20         0.00000E+00
    0.15187E-14         0.19200E-20         0.00000E+00
    0.15187E-14         0.66288E-21         0.00000E+00
    0.15187E-14         0.13944E-20         0.00000E+00
    0.15187E-14         0.99433E-21         0.00000E+00
    0.15187E-14         0.13944E-20         0.00000E+00
    0.15187E-14         0.34801E-20         0.00000E+00
    0.15187E-14        -0.15601E-20         0.00000E+00
    0.15187E-14        -0.39773E-20         0.00000E+00
    0.15187E-14        -0.23201E-20         0.00000E+00
    0.15187E-14        -0.19887E-20         0.00000E+00
    0.15187E-14        -0.92571E-21         0.00000E+00
    0.15187E-14         0.13724E-21         0.00000E+00
    0.15424E-14         0.00000E+00         0.00000E+00
    0.15424E-14         0.66288E-21         0.00000E+00
    0.15424E-14         0.99433E-21         0.00000E+00
    0.15424E-14         0.19200E-20         0.00000E+00
    0.15424E-14         0.35772E-20         0.00000E+00
    0.15424E-14         0.96584E-21         0.00000E+00
    0.15424E-14        -0.14229E-20         0.00000E+00
    0.15424E-14         0.66288E-21         0.00000E+00
    0.15424E-14         0.27201E-20         0.00000E+00
    0.15424E-14         0.16572E-20         0.00000E+00
    0.15424E-14        -0.12287E-20         0.00000E+00
    0.15424E-14        -0.23201E-20         0.00000E+00
    0.15424E-14        -0.16572E-20         0.00000E+00
    0.15424E-14        -0.23887E-20         0.00000E+00
    0.15424E-14        -0.92571E-21         0.00000E+00
    0.15424E-14         0.14630E-20         0.00000E+00
    0.15619E-14        -0.13258E-20         0.00000E+00
    0.15619E-14         0.33144E-21         0.00000E+00
    0.15619E-14         0.16572E-20         0.00000E+00
    0.15619E-14         0.33144E-20         0.00000E+00
    0.15619E-14         0.43087E-20         0.00000E+00
    0.15619E-14         0.99432E-21         0.00000E+00
    0.15619E-14        -0.66288E-21         0.00000E+00
    0.15619E-14        -0.10228E-20         0.00000E+00
    0.15619E-14         0.99432E-21         0.00000E+00
    0.15619E-14         0.20171E-20         0.00000E+00
    0.15619E-14         0.00000E+00         0.00000E+00
    0.15619E-14        -0.66288E-21         0.00000E+00
    0.15619E-14        -0.23201E-20         0.00000E+00
    0.15619E-14        -0.26515E-20         0.00000E+00
    0.15619E-14        -0.19886E-20         0.00000E+00
    0.15619E-14        -0.19886E-20         0.00000E+00
    0.15772E-14        -0.19887E-20         0.00000E+00
    0.15772E-14        -0.10228E-20         0.00000E+00
    0.15772E-14         0.99432E-21         0.00000E+00
    0.15772E-14         0.26800E-20         0.00000E+00
    0.15772E-14         0.42802E-20         0.00000E+00
    0.15772E-14         0.26230E-20         0.00000E+00
    0.15772E-14         0.00000E+00         0.00000E+00
    0.15772E-14         0.20171E-20         0.00000E+00
    0.15772E-14         0.66288E-21         0.00000E+00
    0.15772E-14        -0.13542E-20         0.00000E+00
    0.15772E-14         0.10228E-20         0.00000E+00
    0.15772E-14        -0.49207E-27         0.00000E+00
    0.15772E-14        -0.19886E-20         0.00000E+00
    0.15772E-14        -0.19886E-20         0.00000E+00
    0.15772E-14        -0.13542E-20         0.00000E+00
    0.15772E-14        -0.66288E-21         0.00000E+00
    0.15881E-14        -0.56967E-22         0.00000E+00
    0.15881E-14         0.19886E-20         0.00000E+00
    0.15881E-14         0.26800E-20         0.00000E+00
    0.15881E-14         0.16287E-20         0.00000E+00
    0.15881E-14         0.96584E-21         0.00000E+00
    0.15881E-14         0.10228E-20         0.00000E+00
    0.15881E-14         0.10228E-20         0.00000E+00
    0.15881E-14         0.96583E-21         0.00000E+00
    0.15881E-14         0.63439E-21         0.00000E+00
    0.15881E-14         0.66288E-21         0.00000E+00
    0.15881E-14         0.16857E-20         0.00000E+00
    0.15881E-14         0.28483E-22         0.00000E+00
    0.15881E-14        -0.19886E-20         0.00000E+00
    0.15881E-14        -0.85708E-21         0.00000E+00
    0.15881E-14        -0.33144E-21         0.00000E+00
    0.15881E-14        -0.19317E-20         0.00000E+00
    0.15946E-14         0.00000E+00         0.00000E+00
    0.15946E-14         0.10228E-20         0.00000E+00
    0.15946E-14         0.35086E-20         0.00000E+00
    0.15946E-14         0.16572E-20         0.00000E+00
    0.15946E-14        -0.66288E-21         0.00000E+00
    0.15946E-14         0.00000E+00         0.00000E+00
    0.15946E-14         0.16572E-20         0.00000E+00
    0.15946E-14         0.16572E-20         0.00000E+00
    0.15946E-14        -0.28483E-22         0.00000E+00
    0.15946E-14        -0.66287E-21         0.00000E+00
    0.15946E-14        -0.66287E-21         0.00000E+00
    0.15946E-14         0.13724E-21         0.00000E+00
    0.15946E-14         0.66287E-21         0.00000E+00
    0.15946E-14        -0.33144E-21         0.00000E+00
    0.15946E-14        -0.33144E-21         0.00000E+00
    0.15946E-14         0.13258E-20         0.00000E+00
    0.15968E-14         0.00000E+00         0.00000E+00
    0.15968E-14         0.00000E+00         0.00000E+00
    0.15968E-14         0.00000E+00         0.00000E+00
    0.15968E-14         0.00000E+00         0.00000E+00
    0.15968E-14         0.33144E-21         0.00000E+00
    0.15968E-14         0.00000E+00         0.00000E+00
    0.15968E-14         0.00000E+00         0.00000E+00
    0.15968E-14         0.00000E+00         0.00000E+00
    0.15968E-14         0.00000E+00         0.00000E+00
    0.15968E-14         0.00000E+00         0.00000E+00
    0.15968E-14         0.33144E-21         0.00000E+00
    0.15968E-14        -0.33144E-21         0.00000E+00
    0.15968E-14        -0.33144E-21         0.00000E+00
    0.15968E-14         0.33144E-21         0.00000E+00
    0.15968E-14         0.66287E-21         0.00000E+00
    0.15968E-14         0.00000E+00         0.00000E+00
CELL_DATA        450
TENSORS stressef double 
   -0.20302E+08         0.19339E+03         0.00000E+00
    0.19339E+03        -0.50000E+08         0.00000E+00
    0.00000E+00         0.00000E+00        -0.19936E+08
 
   -0.20270E+08         0.55121E+03         0.00000E+00
    0.55121E+03        -0.49999E+08         0.00000E+00
    0.00000E+00         0.00000E+00        -0.19966E+08
 
   -0.20240E+08         0.87216E+03         0.00000E+00
    0.87216E+03        -0.49997E+08         0.00000E+00
    0.00000E+00         0.00000E+00        -0.19993E+08
 
   -0.20213E+08         0.11586E+04         0.00000E+00
    0.11586E+04        -0.49995E+08         0.00000E+00
    0.00000E+00         0.00000E+00        -0.20017E+08
 
   -0.20189E+08         0.14131E+04         0.00000E+00
    0.14131E+04        -0.49993E+08         0.00000E+00
    0.00000E+00         0.00000E+00        -0.20037E+08
 
   -0.20167E+08         0.16380E+04         0.00000E+00
    0.16380E+04        -0.49990E+08         0.00000E+00
    0.00000E+00         0.00000E+00        -0.20055E+08
 
   -0.20148E+08         0.18361E+04         0.00000E+00
    0.18361E+04        -0.49986E+08         0.00000E+00
    0.00000E+00         0.00000E+00        -0.20069E+08
 
   -0.20132E+08         0.20091E+04         0.00000E+00
    0.20091E+04        -0.49982E+08         0.00000E+00
    0.00000E+00         0.00000E+00        -0.20081E+08
 
   -0.20118E+08         0.21590E+04         0.00000E+00
    0.21590E+04        -0.49978E+08         0.00000E+00
    0.00000E+00         0.00000E+00        -0.20089E+08
 
   -0.20106E+08         0.22882E+04         0.00000E+00
    0.22882E+04        -0.49974E+08         0.00000E+00
    0.00000E+00         0.00000E+00        -0.20095E+08
 
   -0.20096E+08         0.23988E+04         0.00000E+00
    0.23988E+04        -0.49969E+08         0.00000E+00
    0.00000E+00         0.00000E+00        -0.20098E+08
 
   -0.20089E+08         0.24930E+04         0.00000E+00
    0.24930E+04        -0.49964E+08         0.00000E+00
    0.00000E+00         0.00000E+00        -0.20099E+08
 
   -0.20085E+08         0.25729E+04         0.00000E+00
    0.25729E+04        -0.49959E+08         0.00000E+00
    0.00000E+00         0.00000E+00        -0.20097E+08
 
   -0.20082E+08         0.26406E+04         0.00000E+00
    0.26406E+04        -0.49954E+08         0.00000E+00
    0.00000E+00         0.00000E+00        -0.20093E+08
 
   -0.20082E+08         0.26979E+04         0.00000E+00
    0.26979E+04        -0.49949E+08         0.00000E+00
    0.00000E+00         0.00000E+00        -0.20086E+08
 
   -0.20301E+08         0.58437E+03         0.00000E+00
    0.58437E+03        -0.50000E+08         0.00000E+00
    0.00000E+00         0.00000E+00        -0.19936E+08
 
   -0.20269E+08         0.16644E+04         0.00000E+00
    0.16644E+04        -0.49999E+08         0.00000E+00
    0.00000E+00         0.00000E+00        -0.19967E+08
 
   -0.20240E+08         0.26316E+04         0.00000E+00
    0.26316E+04        -0.49997E+08         0.00000E+00
    0.00000E+00         0.00000E+00        -0.19993E+08
 
   -0.20213E+08         0.34936E+04         0.00000E+00
    0.34936E+04        -0.49995E+08         0.00000E+00
    0.00000E+00         0.00000E+00        -0.20017E+08
 
   -0.20189E+08         0.42576E+04         0.00000E+00
    0.42576E+04        -0.49993E+08         0.00000E+00
    0.00000E+00         0.00000E+00        -0.20038E+08
 
   -0.20167E+08         0.49316E+04         0.00000E+00
    0.49316E+04        -0.49990E+08         0.00000E+00
    0.00000E+00         0.00000E+00        -0.20055E+08
 
   -0.20148E+08         0.55237E+04         0.00000E+00
    0.55237E+04        -0.49986E+08         0.00000E+00
    0.00000E+00         0.00000E+00        -0.20069E+08
 
   -0.20131E+08         0.60395E+04         0.00000E+00
    0.60395E+04        -0.49982E+08         0.00000E+00
    0.00000E+00         0.00000E+00        -0.20081E+08
 
   -0.20117E+08         0.64856E+04         0.00000E+00
    0.64856E+04        -0.49978E+08         0.00000E+00
    0.00000E+00         0.00000E+00        -0.20089E+08
 
   -0.20106E+08         0.68689E+04         0.00000E+00
    0.68689E+04        -0.49974E+08         0.00000E+00
    0.00000E+00         0.00000E+00        -0.20095E+08
 
   -0.20096E+08         0.71963E+04         0.00000E+00
    0.71963E+04        -0.49969E+08         0.00000E+00
    0.00000E+00         0.00000E+00        -0.20098E+08
 
   -0.20089E+08         0.74742E+04         0.00000E+00
    0.74742E+04        -0.49964E+08         0.00000E+00
    0.00000E+00         0.00000E+00        -0.20099E+08
 
   -0.20084E+08         0.77092E+04         0.00000E+00
    0.77092E+04        -0.49959E+08         0.00000E+00
    0.00000E+00         0.00000E+00        -0.20097E+08
 
   -0.20082E+08         0.79073E+04         0.00000E+00
    0.79073E+04        -0.49954E+08         0.00000E+00
    0.00000E+00         0.00000E+00        -0.20093E+08
 
   -0.20082E+08         0.80749E+04         0.00000E+00
    0.80749E+04        -0.49949E+08         0.00000E+00
    0.00000E+00         0.00000E+00        -0.20086E+08
 
   -0.20300E+08         0.98794E+03         0.00000E+00
    0.98794E+03        -0.50000E+08         0.00000E+00
    0.00000E+00         0.00000E+00        -0.19938E+08
 
   -0.20268E+08         0.28096E+04         0.00000E+00
    0.28096E+04        -0.49999E+08         0.00000E+00
    0.00000E+00         0.00000E+00        -0.19968E+08
 
   -0.20238E+08         0.44362E+04         0.00000E+00
    0.44362E+04        -0.49997E+08         0.00000E+00
    0.00000E+00         0.00000E+00        -0.19995E+08
 
   -0.20212E+08         0.58808E+04         0.00000E+00
    0.58808E+04        -0.49995E+08         0.00000E+00
    0.00000E+00         0.00000E+00        -0.20018E+08
 
   -0.20188E+08         0.71566E+04         0.00000E+00
    0.71566E+04        -0.49992E+08         0.00000E+00
    0.00000E+00         0.00000E+00        -0.20038E+08
 
   -0.20166E+08         0.82770E+04         0.00000E+00
    0.82770E+04        -0.49989E+08         0.00000E+00
    0.00000E+00         0.00000E+00        -0.20055E+08
 
   -0.20147E+08         0.92567E+04         0.00000E+00
    0.92567E+04        -0.49986E+08         0.00000E+00
    0.00000E+00         0.00000E+00        -0.20069E+08
 
   -0.20131E+08         0.10106E+05         0.00000E+00
    0.10106E+05        -0.49982E+08         0.00000E+00
    0.00000E+00         0.00000E+00        -0.20081E+08
 
   -0.20117E+08         0.10838E+05         0.00000E+00
    0.10838E+05        -0.49978E+08         0.00000E+00
    0.00000E+00         0.00000E+00        -0.20089E+08
 
   -0.20105E+08         0.11462E+05         0.00000E+00
    0.11462E+05        -0.49973E+08         0.00000E+00
    0.00000E+00         0.00000E+00        -0.20095E+08
 
   -0.20096E+08         0.11993E+05         0.00000E+00
    0.11993E+05        -0.49968E+08         0.00000E+00
    0.00000E+00         0.00000E+00        -0.20098E+08
 
   -0.20089E+08         0.12440E+05         0.00000E+00
    0.12440E+05        -0.49964E+08         0.00000E+00
    0.00000E+00         0.00000E+00        -0.20099E+08
 
   -0.20084E+08         0.12816E+05         0.00000E+00
    0.12816E+05        -0.49959E+08         0.00000E+00
    0.00000E+00         0.00000E+00        -0.20097E+08
 
   -0.20082E+08         0.13131E+05         0.00000E+00
    0.13131E+05        -0.49953E+08         0.00000E+00
    0.00000E+00         0.00000E+00        -0.20092E+08
 
   -0.20081E+08         0.13395E+05         0.00000E+00
    0.13395E+05        -0.49948E+08         0.00000E+00
    0.00000E+00         0.00000E+00        -0.20086E+08
 
   -0.20297E+08         0.14122E+04         0.00000E+00
    0.14122E+04        -0.50000E+08         0.00000E+00
    0.00000E+00         0.00000E+00        -0.19940E+08
 
   -0.20266E+08         0.40076E+04         0.00000E+00
    0.40076E+04        -0.49999E+08         0.00000E+00
    0.00000E+00         0.00000E+00        -0.19970E+08
 
   -0.20237E+08         0.63149E+04         0.00000E+00
    0.63149E+04        -0.49997E+08         0.00000E+00
    0.00000E+00         0.00000E+00        -0.19996E+08
 
   -0.20210E+08         0.83540E+04         0.00000E+00
    0.83540E+04        -0.49995E+08         0.00000E+00
    0.00000E+00         0.00000E+00        -0.20019E+08
 
   -0.20186E+08         0.10145E+05         0.00000E+00
    0.10145E+05        -0.49992E+08         0.00000E+00
    0.00000E+00         0.00000E+00        -0.20039E+08
 
   -0.20165E+08         0.11707E+05         0.00000E+00
    0.11707E+05        -0.49989E+08         0.00000E+00
    0.00000E+00         0.00000E+00        -0.20056E+08
 
   -0.20146E+08         0.13064E+05         0.00000E+00
    0.13064E+05        -0.49985E+08         0.00000E+00
    0.00000E+00         0.00000E+00        -0.20070E+08
 
   -0.20130E+08         0.14232E+05         0.00000E+00
    0.14232E+05        -0.49981E+08         0.00000E+00
    0.00000E+00         0.00000E+00        -0.20081E+08
 
   -0.20116E+08         0.15230E+05         0.00000E+00
    0.15230E+05        -0.49977E+08         0.00000E+00
    0.00000E+00         0.00000E+00        -0.20089E+08
 
   -0.20104E+08         0.16075E+05         0.00000E+00
    0.16075E+05        -0.49972E+08         0.00000E+00
    0.00000E+00         0.00000E+00        -0.20095E+08
 
   -0.20095E+08         0.16786E+05         0.00000E+00
    0.16786E+05        -0.49968E+08         0.00000E+00
    0.00000E+00         0.00000E+00        -0.20098E+08
 
   -0.20088E+08         0.17379E+05         0.00000E+00
    0.17379E+05        -0.49963E+08         0.00000E+00
    0.00000E+00         0.00000E+00        -0.20098E+08
 
   -0.20084E+08         0.17872E+05         0.00000E+00
    0.17872E+05        -0.49958E+08         0.00000E+00
    0.00000E+00         0.00000E+00        -0.20096E+08
 
   -0.20081E+08         0.18280E+05         0.00000E+00
    0.18280E+05        -0.49953E+08         0.00000E+00
    0.00000E+00         0.00000E+00        -0.20092E+08
 
   -0.20081E+08         0.18618E+05         0.00000E+00
    0.18618E+05        -0.49948E+08         0.00000E+00
    0.00000E+00         0.00000E+00        -0.20085E+08
 
   -0.20294E+08         0.18649E+04         0.00000E+00
    0.18649E+04        -0.50000E+08         0.00000E+00
    0.00000E+00         0.00000E+00        -0.19943E+08
 
   -0.20263E+08         0.52778E+04         0.00000E+00
    0.52778E+04        -0.49999E+08         0.00000E+00
    0.00000E+00         0.00000E+00        -0.19972E+08
 
   -0.20234E+08         0.82952E+04         0.00000E+00
    0.82952E+04        -0.49997E+08         0.00000E+00
    0.00000E+00         0.00000E+00        -0.19998E+08
 
   -0.20208E+08         0.10945E+05         0.00000E+00
    0.10945E+05        -0.49995E+08         0.00000E+00
    0.00000E+00         0.00000E+00        -0.20021E+08
 
   -0.20184E+08         0.13254E+05         0.00000E+00
    0.13254E+05        -0.49992E+08         0.00000E+00
    0.00000E+00         0.00000E+00        -0.20041E+08
 
   -0.20163E+08         0.15252E+05         0.00000E+00
    0.15252E+05        -0.49988E+08         0.00000E+00
    0.00000E+00         0.00000E+00        -0.20057E+08
 
   -0.20145E+08         0.16971E+05         0.00000E+00
    0.16971E+05        -0.49985E+08         0.00000E+00
    0.00000E+00         0.00000E+00        -0.20070E+08
 
   -0.20129E+08         0.18437E+05         0.00000E+00
    0.18437E+05        -0.49980E+08         0.00000E+00
    0.00000E+00         0.00000E+00        -0.20081E+08
 
   -0.20115E+08         0.19675E+05         0.00000E+00
    0.19675E+05        -0.49976E+08         0.00000E+00
    0.00000E+00         0.00000E+00        -0.20089E+08
 
   -0.20104E+08         0.20711E+05         0.00000E+00
    0.20711E+05        -0.49972E+08         0.00000E+00
    0.00000E+00         0.00000E+00        -0.20094E+08
 
   -0.20095E+08         0.21571E+05         0.00000E+00
    0.21571E+05        -0.49967E+08         0.00000E+00
    0.00000E+00         0.00000E+00        -0.20097E+08
 
   -0.20088E+08         0.22278E+05         0.00000E+00
    0.22278E+05        -0.49962E+08         0.00000E+00
    0.00000E+00         0.00000E+00        -0.20098E+08
 
   -0.20083E+08         0.22855E+05         0.00000E+00
    0.22855E+05        -0.49957E+08         0.00000E+00
    0.00000E+00         0.00000E+00        -0.20096E+08
 
   -0.20081E+08         0.23322E+05         0.00000E+00
    0.23322E+05        -0.49952E+08         0.00000E+00
    0.00000E+00         0.00000E+00        -0.20091E+08
 
   -0.20081E+08         0.23703E+05         0.00000E+00
    0.23703E+05        -0.49947E+08         0.00000E+00
    0.00000E+00         0.00000E+00        -0.20085E+08
 
   -0.20290E+08         0.23529E+04         0.00000E+00
    0.23529E+04        -0.50000E+08         0.00000E+00
    0.00000E+00         0.00000E+00        -0.19947E+08
 
   -0.20259E+08         0.66382E+04         0.00000E+00
    0.66382E+04        -0.49999E+08         0.00000E+00
    0.00000E+00         0.00000E+00        -0.19976E+08
 
   -0.20231E+08         0.10402E+05         0.00000E+00
    0.10402E+05        -0.49997E+08         0.00000E+00
    0.00000E+00         0.00000E+00        -0.20001E+08
 
   -0.20205E+08         0.13680E+05         0.00000E+00
    0.13680E+05        -0.49994E+08         0.00000E+00
    0.00000E+00         0.00000E+00        -0.20023E+08
 
   -0.20182E+08         0.16513E+05         0.00000E+00
    0.16513E+05        -0.49991E+08         0.00000E+00
    0.00000E+00         0.00000E+00        -0.20042E+08
 
   -0.20161E+08         0.18938E+05         0.00000E+00
    0.18938E+05        -0.49988E+08         0.00000E+00
    0.00000E+00         0.00000E+00        -0.20058E+08
 
   -0.20143E+08         0.21000E+05         0.00000E+00
    0.21000E+05        -0.49984E+08         0.00000E+00
    0.00000E+00         0.00000E+00        -0.20071E+08
 
   -0.20127E+08         0.22736E+05         0.00000E+00
    0.22736E+05        -0.49980E+08         0.00000E+00
    0.00000E+00         0.00000E+00        -0.20081E+08
 
   -0.20114E+08         0.24182E+05         0.00000E+00
    0.24182E+05        -0.49975E+08         0.00000E+00
    0.00000E+00         0.00000E+00        -0.20089E+08
 
   -0.20103E+08         0.25372E+05         0.00000E+00
    0.25372E+05        -0.49970E+08         0.00000E+00
    0.00000E+00         0.00000E+00        -0.20094E+08
 
   -0.20094E+08         0.26340E+05         0.00000E+00
    0.26340E+05        -0.49966E+08         0.00000E+00
    0.00000E+00         0.00000E+00        -0.20097E+08
 
   -0.20087E+08         0.27119E+05         0.00000E+00
    0.27119E+05        -0.49961E+08         0.00000E+00
    0.00000E+00         0.00000E+00        -0.20097E+08
 
   -0.20083E+08         0.27737E+05         0.00000E+00
    0.27737E+05        -0.49956E+08         0.00000E+00
    0.00000E+00         0.00000E+00        -0.20095E+08
 
   -0.20081E+08         0.28223E+05         0.00000E+00
    0.28223E+05        -0.49951E+08         0.00000E+00
    0.00000E+00         0.00000E+00        -0.20091E+08
 
   -0.20080E+08         0.28605E+05         0.00000E+00
    0.28605E+05        -0.49947E+08         0.00000E+00
    0.00000E+00         0.00000E+00        -0.20085E+08
 
   -0.20285E+08         0.28832E+04         0.00000E+00
    0.28832E+04        -0.50000E+08         0.00000E+00
    0.00000E+00         0.00000E+00        -0.19952E+08
 
   -0.20255E+08         0.81041E+04         0.00000E+00
    0.81041E+04        -0.49998E+08         0.00000E+00
    0.00000E+00         0.00000E+00        -0.19980E+08
 
   -0.20227E+08         0.12655E+05         0.00000E+00
    0.12655E+05        -0.49997E+08         0.00000E+00
    0.00000E+00         0.00000E+00        -0.20005E+08
 
   -0.20202E+08         0.16585E+05         0.00000E+00
    0.16585E+05        -0.49994E+08         0.00000E+00
    0.00000E+00         0.00000E+00        -0.20026E+08
 
   -0.20179E+08         0.19944E+05         0.00000E+00
    0.19944E+05        -0.49991E+08         0.00000E+00
    0.00000E+00         0.00000E+00        -0.20044E+08
 
   -0.20159E+08         0.22787E+05         0.00000E+00
    0.22787E+05        -0.49987E+08         0.00000E+00
    0.00000E+00         0.00000E+00        -0.20060E+08
 
   -0.20141E+08         0.25168E+05         0.00000E+00
    0.25168E+05        -0.49983E+08         0.00000E+00
    0.00000E+00         0.00000E+00        -0.20072E+08
 
   -0.20125E+08         0.27141E+05         0.00000E+00
    0.27141E+05        -0.49978E+08         0.00000E+00
    0.00000E+00         0.00000E+00        -0.20082E+08
 
   -0.20112E+08         0.28755E+05         0.00000E+00
    0.28755E+05        -0.49974E+08         0.00000E+00
    0.00000E+00         0.00000E+00        -0.20089E+08
 
   -0.20101E+08         0.30054E+05         0.00000E+00
    0.30054E+05        -0.49969E+08         0.00000E+00
    0.00000E+00         0.00000E+00        -0.20094E+08
 
   -0.20093E+08         0.31082E+05         0.00000E+00
    0.31082E+05        -0.49965E+08         0.00000E+00
    0.00000E+00         0.00000E+00        -0.20096E+08
 
   -0.20086E+08         0.31881E+05         0.00000E+00
    0.31881E+05        -0.49960E+08         0.00000E+00
    0.00000E+00         0.00000E+00        -0.20096E+08
 
   -0.20082E+08         0.32488E+05         0.00000E+00
    0.32488E+05        -0.49955E+08         0.00000E+00
    0.00000E+00         0.00000E+00        -0.20094E+08
 
   -0.20080E+08         0.32941E+05         0.00000E+00
    0.32941E+05        -0.49951E+08         0.00000E+00
    0.00000E+00         0.00000E+00        -0.20090E+08
 
   -0.20080E+08         0.33275E+05         0.00000E+00
    0.33275E+05        -0.49946E+08         0.00000E+00
    0.00000E+00         0.00000E+00        -0.20084E+08
 
   -0.20279E+08         0.34608E+04         0.00000E+00
    0.34608E+04        -0.50000E+08         0.00000E+00
    0.00000E+00         0.00000E+00        -0.19958E+08
 
   -0.20249E+08         0.96883E+04         0.00000E+00
    0.96883E+04        -0.49998E+08         0.00000E+00
    0.00000E+00         0.00000E+00        -0.19985E+08
 
   -0.20222E+08         0.15072E+05         0.00000E+00
    0.15072E+05        -0.49996E+08         0.00000E+00
    0.00000E+00         0.00000E+00        -0.20009E+08
 
   -0.20198E+08         0.19676E+05         0.00000E+00
    0.19676E+05        -0.49993E+08         0.00000E+00
    0.00000E+00         0.00000E+00        -0.20029E+08
 
   -0.20176E+08         0.23566E+05         0.00000E+00
    0.23566E+05        -0.49990E+08         0.00000E+00
    0.00000E+00         0.00000E+00        -0.20047E+08
 
   -0.20156E+08         0.26813E+05         0.00000E+00
    0.26813E+05        -0.49986E+08         0.00000E+00
    0.00000E+00         0.00000E+00        -0.20061E+08
 
   -0.20139E+08         0.29486E+05         0.00000E+00
    0.29486E+05        -0.49982E+08         0.00000E+00
    0.00000E+00         0.00000E+00        -0.20073E+08
 
   -0.20124E+08         0.31658E+05         0.00000E+00
    0.31658E+05        -0.49977E+08         0.00000E+00
    0.00000E+00         0.00000E+00        -0.20082E+08
 
   -0.20111E+08         0.33394E+05         0.00000E+00
    0.33394E+05        -0.49973E+08         0.00000E+00
    0.00000E+00         0.00000E+00        -0.20089E+08
 
   -0.20100E+08         0.34749E+05         0.00000E+00
    0.34749E+05        -0.49968E+08         0.00000E+00
    0.00000E+00         0.00000E+00        -0.20093E+08
 
   -0.20092E+08         0.35780E+05         0.00000E+00
    0.35780E+05        -0.49963E+08         0.00000E+00
    0.00000E+00         0.00000E+00        -0.20095E+08
 
   -0.20086E+08         0.36539E+05         0.00000E+00
    0.36539E+05        -0.49959E+08         0.00000E+00
    0.00000E+00         0.00000E+00        -0.20095E+08
 
   -0.20082E+08         0.37075E+05         0.00000E+00
    0.37075E+05        -0.49954E+08         0.00000E+00
    0.00000E+00         0.00000E+00        -0.20093E+08
 
   -0.20080E+08         0.37433E+05         0.00000E+00
    0.37433E+05        -0.49950E+08         0.00000E+00
    0.00000E+00         0.00000E+00        -0.20090E+08
 
   -0.20080E+08         0.37659E+05         0.00000E+00
    0.37659E+05        -0.49946E+08         0.00000E+00
    0.00000E+00         0.00000E+00        -0.20084E+08
 
   -0.20272E+08         0.40881E+04         0.00000E+00
    0.40881E+04        -0.49999E+08         0.00000E+00
    0.00000E+00         0.00000E+00        -0.19965E+08
 
   -0.20243E+08         0.11399E+05         0.00000E+00
    0.11399E+05        -0.49998E+08         0.00000E+00
    0.00000E+00         0.00000E+00        -0.19991E+08
 
   -0.20217E+08         0.17662E+05         0.00000E+00
    0.17662E+05        -0.49996E+08         0.00000E+00
    0.00000E+00         0.00000E+00        -0.20014E+08
 
   -0.20193E+08         0.22964E+05         0.00000E+00
    0.22964E+05        -0.49993E+08         0.00000E+00
    0.00000E+00         0.00000E+00        -0.20033E+08
 
   -0.20172E+08         0.27388E+05         0.00000E+00
    0.27388E+05        -0.49989E+08         0.00000E+00
    0.00000E+00         0.00000E+00        -0.20050E+08
 
   -0.20153E+08         0.31023E+05         0.00000E+00
    0.31023E+05        -0.49985E+08         0.00000E+00
    0.00000E+00         0.00000E+00        -0.20063E+08
 
   -0.20136E+08         0.33960E+05         0.00000E+00
    0.33960E+05        -0.49981E+08         0.00000E+00
    0.00000E+00         0.00000E+00        -0.20074E+08
 
   -0.20122E+08         0.36289E+05         0.00000E+00
    0.36289E+05        -0.49976E+08         0.00000E+00
    0.00000E+00         0.00000E+00        -0.20083E+08
 
   -0.20109E+08         0.38093E+05         0.00000E+00
    0.38093E+05        -0.49971E+08         0.00000E+00
    0.00000E+00         0.00000E+00        -0.20089E+08
 
   -0.20099E+08         0.39444E+05         0.00000E+00
    0.39444E+05        -0.49967E+08         0.00000E+00
    0.00000E+00         0.00000E+00        -0.20093E+08
 
   -0.20091E+08         0.40412E+05         0.00000E+00
    0.40412E+05        -0.49962E+08         0.00000E+00
    0.00000E+00         0.00000E+00        -0.20095E+08
 
   -0.20085E+08         0.41063E+05         0.00000E+00
    0.41063E+05        -0.49958E+08         0.00000E+00
    0.00000E+00         0.00000E+00        -0.20095E+08
 
   -0.20081E+08         0.41455E+05         0.00000E+00
    0.41455E+05        -0.49953E+08         0.00000E+00
    0.00000E+00         0.00000E+00        -0.20093E+08
 
   -0.20080E+08         0.41647E+05         0.00000E+00
    0.41647E+05        -0.49949E+08         0.00000E+00
    0.00000E+00         0.00000E+00        -0.20089E+08
 
   -0.20080E+08         0.41697E+05         0.00000E+00
    0.41697E+05        -0.49945E+08         0.00000E+00
    0.00000E+00         0.00000E+00        -0.20084E+08
 
   -0.20263E+08         0.47659E+04         0.00000E+00
    0.47659E+04        -0.49999E+08         0.00000E+00
    0.00000E+00         0.00000E+00        -0.19973E+08
 
   -0.20236E+08         0.13236E+05         0.00000E+00
    0.13236E+05        -0.49998E+08         0.00000E+00
    0.00000E+00         0.00000E+00        -0.19998E+08
 
   -0.20211E+08         0.20430E+05         0.00000E+00
    0.20430E+05        -0.49996E+08         0.00000E+00
    0.00000E+00         0.00000E+00        -0.20020E+08
 
   -0.20188E+08         0.26452E+05         0.00000E+00
    0.26452E+05        -0.49993E+08         0.00000E+00
    0.00000E+00         0.00000E+00        -0.20038E+08
 
   -0.20168E+08         0.31412E+05         0.00000E+00
    0.31412E+05        -0.49989E+08         0.00000E+00
    0.00000E+00         0.00000E+00        -0.20053E+08
 
   -0.20149E+08         0.35420E+05         0.00000E+00
    0.35420E+05        -0.49984E+08         0.00000E+00
    0.00000E+00         0.00000E+00        -0.20066E+08
 
   -0.20133E+08         0.38587E+05         0.00000E+00
    0.38587E+05        -0.49980E+08         0.00000E+00
    0.00000E+00         0.00000E+00        -0.20076E+08
 
   -0.20119E+08         0.41026E+05         0.00000E+00
    0.41026E+05        -0.49975E+08         0.00000E+00
    0.00000E+00         0.00000E+00        -0.20083E+08
 
   -0.20108E+08         0.42839E+05         0.00000E+00
    0.42839E+05        -0.49970E+08         0.00000E+00
    0.00000E+00         0.00000E+00        -0.20089E+08
 
   -0.20098E+08         0.44120E+05         0.00000E+00
    0.44120E+05        -0.49966E+08         0.00000E+00
    0.00000E+00         0.00000E+00        -0.20092E+08
 
   -0.20090E+08         0.44952E+05         0.00000E+00
    0.44952E+05        -0.49961E+08         0.00000E+00
    0.00000E+00         0.00000E+00        -0.20094E+08
 
   -0.20085E+08         0.45415E+05         0.00000E+00
    0.45415E+05        -0.49957E+08         0.00000E+00
    0.00000E+00         0.00000E+00        -0.20094E+08
 
   -0.20081E+08         0.45582E+05         0.00000E+00
    0.45582E+05        -0.49953E+08         0.00000E+00
    0.00000E+00         0.00000E+00        -0.20092E+08
 
   -0.20080E+08         0.45527E+05         0.00000E+00
    0.45527E+05        -0.49949E+08         0.00000E+00
    0.00000E+00         0.00000E+00        -0.20088E+08
 
   -0.20080E+08         0.45321E+05         0.00000E+00
    0.45321E+05        -0.49945E+08         0.00000E+00
    0.00000E+00         0.00000E+00        -0.20083E+08
 
   -0.20253E+08         0.54924E+04         0.00000E+00
    0.54924E+04        -0.49999E+08         0.00000E+00
    0.00000E+00         0.00000E+00        -0.19983E+08
 
   -0.20227E+08         0.15194E+05         0.00000E+00
    0.15194E+05        -0.49998E+08         0.00000E+00
    0.00000E+00         0.00000E+00        -0.20006E+08
 
   -0.20204E+08         0.23366E+05         0.00000E+00
    0.23366E+05        -0.49996E+08         0.00000E+00
    0.00000E+00         0.00000E+00        -0.20026E+08
 
   -0.20182E+08         0.30133E+05         0.00000E+00
    0.30133E+05        -0.49992E+08         0.00000E+00
    0.00000E+00         0.00000E+00        -0.20043E+08
 
   -0.20163E+08         0.35630E+05         0.00000E+00
    0.35630E+05        -0.49988E+08         0.00000E+00
    0.00000E+00         0.00000E+00        -0.20057E+08
 
   -0.20146E+08         0.39994E+05         0.00000E+00
    0.39994E+05        -0.49984E+08         0.00000E+00
    0.00000E+00         0.00000E+00        -0.20068E+08
 
   -0.20131E+08         0.43358E+05         0.00000E+00
    0.43358E+05        -0.49979E+08         0.00000E+00
    0.00000E+00         0.00000E+00        -0.20077E+08
 
   -0.20117E+08         0.45857E+05         0.00000E+00
    0.45857E+05        -0.49974E+08         0.00000E+00
    0.00000E+00         0.00000E+00        -0.20084E+08
 
   -0.20106E+08         0.47617E+05         0.00000E+00
    0.47617E+05        -0.49969E+08         0.00000E+00
    0.00000E+00         0.00000E+00        -0.20089E+08
 
   -0.20097E+08         0.48754E+05         0.00000E+00
    0.48754E+05        -0.49964E+08         0.00000E+00
    0.00000E+00         0.00000E+00        -0.20092E+08
 
   -0.20090E+08         0.49366E+05         0.00000E+00
    0.49366E+05        -0.49960E+08         0.00000E+00
    0.00000E+00         0.00000E+00        -0.20093E+08
 
   -0.20085E+08         0.49551E+05         0.00000E+00
    0.49551E+05        -0.49956E+08         0.00000E+00
    0.00000E+00         0.00000E+00        -0.20093E+08
 
   -0.20081E+08         0.49402E+05         0.00000E+00
    0.49402E+05        -0.49952E+08         0.00000E+00
    0.00000E+00         0.00000E+00        -0.20091E+08
 
   -0.20080E+08         0.49006E+05         0.00000E+00
    0.49006E+05        -0.49949E+08         0.00000E+00
    0.00000E+00         0.00000E+00        -0.20088E+08
 
   -0.20080E+08         0.48456E+05         0.00000E+00
    0.48456E+05        -0.49946E+08         0.00000E+00
    0.00000E+00         0.00000E+00        -0.20084E+08
 
   -0.20242E+08         0.62619E+04         0.00000E+00
    0.62619E+04        -0.49999E+08         0.00000E+00
    0.00000E+00         0.00000E+00        -0.19994E+08
 
   -0.20218E+08         0.17260E+05         0.00000E+00
    0.17260E+05        -0.49998E+08         0.00000E+00
    0.00000E+00         0.00000E+00        -0.20016E+08
 
   -0.20196E+08         0.26453E+05         0.00000E+00
    0.26453E+05        -0.49995E+08         0.00000E+00
    0.00000E+00         0.00000E+00        -0.20034E+08
 
   -0.20176E+08         0.33988E+05         0.00000E+00
    0.33988E+05        -0.49992E+08         0.00000E+00
    0.00000E+00         0.00000E+00        -0.20049E+08
 
   -0.20158E+08         0.40025E+05         0.00000E+00
    0.40025E+05        -0.49988E+08         0.00000E+00
    0.00000E+00         0.00000E+00        -0.20061E+08
 
   -0.20142E+08         0.44726E+05         0.00000E+00
    0.44726E+05        -0.49983E+08         0.00000E+00
    0.00000E+00         0.00000E+00        -0.20071E+08
 
   -0.20128E+08         0.48254E+05         0.00000E+00
    0.48254E+05        -0.49978E+08         0.00000E+00
    0.00000E+00         0.00000E+00        -0.20079E+08
 
   -0.20115E+08         0.50761E+05         0.00000E+00
    0.50761E+05        -0.49973E+08         0.00000E+00
    0.00000E+00         0.00000E+00        -0.20085E+08
 
   -0.20105E+08         0.52401E+05         0.00000E+00
    0.52401E+05        -0.49968E+08         0.00000E+00
    0.00000E+00         0.00000E+00        -0.20089E+08
 
   -0.20096E+08         0.53309E+05         0.00000E+00
    0.53309E+05        -0.49964E+08         0.00000E+00
    0.00000E+00         0.00000E+00        -0.20091E+08
 
   -0.20090E+08         0.53611E+05         0.00000E+00
    0.53611E+05        -0.49959E+08         0.00000E+00
    0.00000E+00         0.00000E+00        -0.20092E+08
 
   -0.20085E+08         0.53420E+05         0.00000E+00
    0.53420E+05        -0.49955E+08         0.00000E+00
    0.00000E+00         0.00000E+00        -0.20092E+08
 
   -0.20082E+08         0.52849E+05         0.00000E+00
    0.52849E+05        -0.49952E+08         0.00000E+00
    0.00000E+00         0.00000E+00        -0.20091E+08
 
   -0.20081E+08         0.52010E+05         0.00000E+00
    0.52010E+05        -0.49949E+08         0.00000E+00
    0.00000E+00         0.00000E+00        -0.20088E+08
 
   -0.20081E+08         0.51016E+05         0.00000E+00
    0.51016E+05        -0.49946E+08         0.00000E+00
    0.00000E+00         0.00000E+00        -0.20084E+08
 
   -0.20229E+08         0.70652E+04         0.00000E+00
    0.70652E+04        -0.49999E+08         0.00000E+00
    0.00000E+00         0.00000E+00        -0.20006E+08
 
   -0.20207E+08         0.19412E+05         0.00000E+00
    0.19412E+05        -0.49998E+08         0.00000E+00
    0.00000E+00         0.00000E+00        -0.20026E+08
 
   -0.20187E+08         0.29661E+05         0.00000E+00
    0.29661E+05        -0.49995E+08         0.00000E+00
    0.00000E+00         0.00000E+00        -0.20042E+08
 
   -0.20169E+08         0.37986E+05         0.00000E+00
    0.37986E+05        -0.49992E+08         0.00000E+00
    0.00000E+00         0.00000E+00        -0.20056E+08
 
   -0.20152E+08         0.44566E+05         0.00000E+00
    0.44566E+05        -0.49987E+08         0.00000E+00
    0.00000E+00         0.00000E+00        -0.20066E+08
 
   -0.20138E+08         0.49590E+05         0.00000E+00
    0.49590E+05        -0.49982E+08         0.00000E+00
    0.00000E+00         0.00000E+00        -0.20075E+08
 
   -0.20125E+08         0.53245E+05         0.00000E+00
    0.53245E+05        -0.49977E+08         0.00000E+00
    0.00000E+00         0.00000E+00        -0.20081E+08
 
   -0.20113E+08         0.55711E+05         0.00000E+00
    0.55711E+05        -0.49972E+08         0.00000E+00
    0.00000E+00         0.00000E+00        -0.20086E+08
 
   -0.20104E+08         0.57156E+05         0.00000E+00
    0.57156E+05        -0.49968E+08         0.00000E+00
    0.00000E+00         0.00000E+00        -0.20089E+08
 
   -0.20096E+08         0.57748E+05         0.00000E+00
    0.57748E+05        -0.49963E+08         0.00000E+00
    0.00000E+00         0.00000E+00        -0.20091E+08
 
   -0.20090E+08         0.57635E+05         0.00000E+00
    0.57635E+05        -0.49959E+08         0.00000E+00
    0.00000E+00         0.00000E+00        -0.20092E+08
 
   -0.20085E+08         0.56957E+05         0.00000E+00
    0.56957E+05        -0.49955E+08         0.00000E+00
    0.00000E+00         0.00000E+00        -0.20091E+08
 
   -0.20083E+08         0.55851E+05         0.00000E+00
    0.55851E+05        -0.49952E+08         0.00000E+00
    0.00000E+00         0.00000E+00        -0.20090E+08
 
   -0.20082E+08         0.54455E+05         0.00000E+00
    0.54455E+05        -0.49950E+08         0.00000E+00
    0.00000E+00         0.00000E+00        -0.20088E+08
 
   -0.20082E+08         0.52908E+05         0.00000E+00
    0.52908E+05        -0.49948E+08         0.00000E+00
    0.00000E+00         0.00000E+00        -0.20085E+08
 
   -0.20215E+08         0.78889E+04         0.00000E+00
    0.78889E+04        -0.49999E+08         0.00000E+00
    0.00000E+00         0.00000E+00        -0.20020E+08
 
   -0.20195E+08         0.21616E+05         0.00000E+00
    0.21616E+05        -0.49998E+08         0.00000E+00
    0.00000E+00         0.00000E+00        -0.20038E+08
 
   -0.20177E+08         0.32950E+05         0.00000E+00
    0.32950E+05        -0.49995E+08         0.00000E+00
    0.00000E+00         0.00000E+00        -0.20052E+08
 
   -0.20161E+08         0.42081E+05         0.00000E+00
    0.42081E+05        -0.49991E+08         0.00000E+00
    0.00000E+00         0.00000E+00        -0.20063E+08
 
   -0.20146E+08         0.49211E+05         0.00000E+00
    0.49211E+05        -0.49987E+08         0.00000E+00
    0.00000E+00         0.00000E+00        -0.20072E+08
 
   -0.20133E+08         0.54546E+05         0.00000E+00
    0.54546E+05        -0.49982E+08         0.00000E+00
    0.00000E+00         0.00000E+00        -0.20079E+08
 
   -0.20121E+08         0.58296E+05         0.00000E+00
    0.58296E+05        -0.49977E+08         0.00000E+00
    0.00000E+00         0.00000E+00        -0.20084E+08
 
   -0.20111E+08         0.60662E+05         0.00000E+00
    0.60662E+05        -0.49972E+08         0.00000E+00
    0.00000E+00         0.00000E+00        -0.20088E+08
 
   -0.20103E+08         0.61840E+05         0.00000E+00
    0.61840E+05        -0.49967E+08         0.00000E+00
    0.00000E+00         0.00000E+00        -0.20090E+08
 
   -0.20096E+08         0.62017E+05         0.00000E+00
    0.62017E+05        -0.49963E+08         0.00000E+00
    0.00000E+00         0.00000E+00        -0.20091E+08
 
   -0.20090E+08         0.61375E+05         0.00000E+00
    0.61375E+05        -0.49959E+08         0.00000E+00
    0.00000E+00         0.00000E+00        -0.20091E+08
 
   -0.20087E+08         0.60088E+05         0.00000E+00
    0.60088E+05        -0.49956E+08         0.00000E+00
    0.00000E+00         0.00000E+00        -0.20091E+08
 
   -0.20084E+08         0.58322E+05         0.00000E+00
    0.58322E+05        -0.49953E+08         0.00000E+00
    0.00000E+00         0.00000E+00        -0.20090E+08
 
   -0.20084E+08         0.56247E+05         0.00000E+00
    0.56247E+05        -0.49952E+08         0.00000E+00
    0.00000E+00         0.00000E+00        -0.20088E+08
 
   -0.20084E+08         0.54031E+05         0.00000E+00
    0.54031E+05        -0.49951E+08         0.00000E+00
    0.00000E+00         0.00000E+00        -0.20086E+08
 
   -0.20199E+08         0.87155E+04         0.00000E+00
    0.87155E+04        -0.49999E+08         0.00000E+00
    0.00000E+00         0.00000E+00        -0.20036E+08
 
   -0.20182E+08         0.23832E+05         0.00000E+00
    0.23832E+05        -0.49998E+08         0.00000E+00
    0.00000E+00         0.00000E+00        -0.20051E+08
 
   -0.20167E+08         0.36266E+05         0.00000E+00
    0.36266E+05        -0.49995E+08         0.00000E+00
    0.00000E+00         0.00000E+00        -0.20063E+08
 
   -0.20153E+08         0.46220E+05         0.00000E+00
    0.46220E+05        -0.49991E+08         0.00000E+00
    0.00000E+00         0.00000E+00        -0.20072E+08
 
   -0.20140E+08         0.53905E+05         0.00000E+00
    0.53905E+05        -0.49987E+08         0.00000E+00
    0.00000E+00         0.00000E+00        -0.20079E+08
 
   -0.20129E+08         0.59542E+05         0.00000E+00
    0.59542E+05        -0.49982E+08         0.00000E+00
    0.00000E+00         0.00000E+00        -0.20084E+08
 
   -0.20118E+08         0.63354E+05         0.00000E+00
    0.63354E+05        -0.49977E+08         0.00000E+00
    0.00000E+00         0.00000E+00        -0.20087E+08
 
   -0.20110E+08         0.65563E+05         0.00000E+00
    0.65563E+05        -0.49972E+08         0.00000E+00
    0.00000E+00         0.00000E+00        -0.20089E+08
 
   -0.20102E+08         0.66388E+05         0.00000E+00
    0.66388E+05        -0.49967E+08         0.00000E+00
    0.00000E+00         0.00000E+00        -0.20091E+08
 
   -0.20096E+08         0.66046E+05         0.00000E+00
    0.66046E+05        -0.49963E+08         0.00000E+00
    0.00000E+00         0.00000E+00        -0.20091E+08
 
   -0.20092E+08         0.64754E+05         0.00000E+00
    0.64754E+05        -0.49960E+08         0.00000E+00
    0.00000E+00         0.00000E+00        -0.20091E+08
 
   -0.20088E+08         0.62723E+05         0.00000E+00
    0.62723E+05        -0.49957E+08         0.00000E+00
    0.00000E+00         0.00000E+00        -0.20091E+08
 
   -0.20087E+08         0.60165E+05         0.00000E+00
    0.60165E+05        -0.49955E+08         0.00000E+00
    0.00000E+00         0.00000E+00        -0.20090E+08
 
   -0.20086E+08         0.57285E+05         0.00000E+00
    0.57285E+05        -0.49954E+08         0.00000E+00
    0.00000E+00         0.00000E+00        -0.20089E+08
 
   -0.20087E+08         0.54279E+05         0.00000E+00
    0.54279E+05        -0.49954E+08         0.00000E+00
    0.00000E+00         0.00000E+00        -0.20088E+08
 
   -0.20182E+08         0.95246E+04         0.00000E+00
    0.95246E+04        -0.49999E+08         0.00000E+00
    0.00000E+00         0.00000E+00        -0.20053E+08
 
   -0.20168E+08         0.26011E+05         0.00000E+00
    0.26011E+05        -0.49998E+08         0.00000E+00
    0.00000E+00         0.00000E+00        -0.20065E+08
 
   -0.20155E+08         0.39545E+05         0.00000E+00
    0.39545E+05        -0.49995E+08         0.00000E+00
    0.00000E+00         0.00000E+00        -0.20074E+08
 
   -0.20143E+08         0.50331E+05         0.00000E+00
    0.50331E+05        -0.49992E+08         0.00000E+00
    0.00000E+00         0.00000E+00        -0.20081E+08
 
   -0.20133E+08         0.58579E+05         0.00000E+00
    0.58579E+05        -0.49987E+08         0.00000E+00
    0.00000E+00         0.00000E+00        -0.20086E+08
 
   -0.20124E+08         0.64510E+05         0.00000E+00
    0.64510E+05        -0.49982E+08         0.00000E+00
    0.00000E+00         0.00000E+00        -0.20089E+08
 
   -0.20116E+08         0.68353E+05         0.00000E+00
    0.68353E+05        -0.49978E+08         0.00000E+00
    0.00000E+00         0.00000E+00        -0.20091E+08
 
   -0.20108E+08         0.70343E+05         0.00000E+00
    0.70343E+05        -0.49973E+08         0.00000E+00
    0.00000E+00         0.00000E+00        -0.20091E+08
 
   -0.20102E+08         0.70725E+05         0.00000E+00
    0.70725E+05        -0.49968E+08         0.00000E+00
    0.00000E+00         0.00000E+00        -0.20092E+08
 
   -0.20098E+08         0.69749E+05         0.00000E+00
    0.69749E+05        -0.49964E+08         0.00000E+00
    0.00000E+00         0.00000E+00        -0.20091E+08
 
   -0.20094E+08         0.67674E+05         0.00000E+00
    0.67674E+05        -0.49961E+08         0.00000E+00
    0.00000E+00         0.00000E+00        -0.20091E+08
 
   -0.20091E+08         0.64765E+05         0.00000E+00
    0.64765E+05        -0.49959E+08         0.00000E+00
    0.00000E+00         0.00000E+00        -0.20091E+08
 
   -0.20090E+08         0.61277E+05         0.00000E+00
    0.61277E+05        -0.49958E+08         0.00000E+00
    0.00000E+00         0.00000E+00        -0.20091E+08
 
   -0.20089E+08         0.57464E+05         0.00000E+00
    0.57464E+05        -0.49958E+08         0.00000E+00
    0.00000E+00         0.00000E+00        -0.20091E+08
 
   -0.20090E+08         0.53554E+05         0.00000E+00
    0.53554E+05        -0.49959E+08         0.00000E+00
    0.00000E+00         0.00000E+00        -0.20091E+08
 
   -0.20163E+08         0.10294E+05         0.00000E+00
    0.10294E+05        -0.50000E+08         0.00000E+00
    0.00000E+00         0.00000E+00        -0.20072E+08
 
   -0.20152E+08         0.28098E+05         0.00000E+00
    0.28098E+05        -0.49998E+08         0.00000E+00
    0.00000E+00         0.00000E+00        -0.20081E+08
 
   -0.20142E+08         0.42714E+05         0.00000E+00
    0.42714E+05        -0.49996E+08         0.00000E+00
    0.00000E+00         0.00000E+00        -0.20087E+08
 
   -0.20134E+08         0.54332E+05         0.00000E+00
    0.54332E+05        -0.49992E+08         0.00000E+00
    0.00000E+00         0.00000E+00        -0.20092E+08
 
   -0.20126E+08         0.63147E+05         0.00000E+00
    0.63147E+05        -0.49988E+08         0.00000E+00
    0.00000E+00         0.00000E+00        -0.20094E+08
 
   -0.20119E+08         0.69363E+05         0.00000E+00
    0.69363E+05        -0.49983E+08         0.00000E+00
    0.00000E+00         0.00000E+00        -0.20095E+08
 
   -0.20113E+08         0.73203E+05         0.00000E+00
    0.73203E+05        -0.49978E+08         0.00000E+00
    0.00000E+00         0.00000E+00        -0.20095E+08
 
   -0.20107E+08         0.74909E+05         0.00000E+00
    0.74909E+05        -0.49974E+08         0.00000E+00
    0.00000E+00         0.00000E+00        -0.20094E+08
 
   -0.20103E+08         0.74748E+05         0.00000E+00
    0.74748E+05        -0.49970E+08         0.00000E+00
    0.00000E+00         0.00000E+00        -0.20093E+08
 
   -0.20099E+08         0.73015E+05         0.00000E+00
    0.73015E+05        -0.49966E+08         0.00000E+00
    0.00000E+00         0.00000E+00        -0.20092E+08
 
   -0.20097E+08         0.70022E+05         0.00000E+00
    0.70022E+05        -0.49964E+08         0.00000E+00
    0.00000E+00         0.00000E+00        -0.20091E+08
 
   -0.20095E+08         0.66093E+05         0.00000E+00
    0.66093E+05        -0.49962E+08         0.00000E+00
    0.00000E+00         0.00000E+00        -0.20091E+08
 
   -0.20094E+08         0.61552E+05         0.00000E+00
    0.61552E+05        -0.49962E+08         0.00000E+00
    0.00000E+00         0.00000E+00        -0.20092E+08
 
   -0.20094E+08         0.56688E+05         0.00000E+00
    0.56688E+05        -0.49963E+08         0.00000E+00
    0.00000E+00         0.00000E+00        -0.20093E+08
 
   -0.20095E+08         0.51769E+05         0.00000E+00
    0.51769E+05        -0.49965E+08         0.00000E+00
    0.00000E+00         0.00000E+00        -0.20094E+08
 
   -0.20143E+08         0.11004E+05         0.00000E+00
    0.11004E+05        -0.50000E+08         0.00000E+00
    0.00000E+00         0.00000E+00        -0.20092E+08
 
   -0.20135E+08         0.30041E+05         0.00000E+00
    0.30041E+05        -0.49998E+08         0.00000E+00
    0.00000E+00         0.00000E+00        -0.20098E+08
 
   -0.20129E+08         0.45697E+05         0.00000E+00
    0.45697E+05        -0.49996E+08         0.00000E+00
    0.00000E+00         0.00000E+00        -0.20101E+08
 
   -0.20123E+08         0.58129E+05         0.00000E+00
    0.58129E+05        -0.49993E+08         0.00000E+00
    0.00000E+00         0.00000E+00        -0.20103E+08
 
   -0.20118E+08         0.67501E+05         0.00000E+00
    0.67501E+05        -0.49989E+08         0.00000E+00
    0.00000E+00         0.00000E+00        -0.20103E+08
 
   -0.20114E+08         0.73986E+05         0.00000E+00
    0.73986E+05        -0.49984E+08         0.00000E+00
    0.00000E+00         0.00000E+00        -0.20101E+08
 
   -0.20110E+08         0.77782E+05         0.00000E+00
    0.77782E+05        -0.49980E+08         0.00000E+00
    0.00000E+00         0.00000E+00        -0.20099E+08
 
   -0.20107E+08         0.79130E+05         0.00000E+00
    0.79130E+05        -0.49976E+08         0.00000E+00
    0.00000E+00         0.00000E+00        -0.20097E+08
 
   -0.20104E+08         0.78324E+05         0.00000E+00
    0.78324E+05        -0.49972E+08         0.00000E+00
    0.00000E+00         0.00000E+00        -0.20095E+08
 
   -0.20102E+08         0.75707E+05         0.00000E+00
    0.75707E+05        -0.49969E+08         0.00000E+00
    0.00000E+00         0.00000E+00        -0.20093E+08
 
   -0.20101E+08         0.71663E+05         0.00000E+00
    0.71663E+05        -0.49967E+08         0.00000E+00
    0.00000E+00         0.00000E+00        -0.20092E+08
 
   -0.20100E+08         0.66594E+05         0.00000E+00
    0.66594E+05        -0.49967E+08         0.00000E+00
    0.00000E+00         0.00000E+00        -0.20092E+08
 
   -0.20099E+08         0.60885E+05         0.00000E+00
    0.60885E+05        -0.49967E+08         0.00000E+00
    0.00000E+00         0.00000E+00        -0.20093E+08
 
   -0.20099E+08         0.54885E+05         0.00000E+00
    0.54885E+05        -0.49969E+08         0.00000E+00
    0.00000E+00         0.00000E+00        -0.20096E+08
 
   -0.20100E+08         0.48866E+05         0.00000E+00
    0.48866E+05        -0.49972E+08         0.00000E+00
    0.00000E+00         0.00000E+00        -0.20099E+08
 
   -0.20122E+08         0.11637E+05         0.00000E+00
    0.11637E+05        -0.50000E+08         0.00000E+00
    0.00000E+00         0.00000E+00        -0.20113E+08
 
   -0.20117E+08         0.31793E+05         0.00000E+00
    0.31793E+05        -0.49999E+08         0.00000E+00
    0.00000E+00         0.00000E+00        -0.20116E+08
 
   -0.20114E+08         0.48414E+05         0.00000E+00
    0.48414E+05        -0.49996E+08         0.00000E+00
    0.00000E+00         0.00000E+00        -0.20117E+08
 
   -0.20112E+08         0.61615E+05         0.00000E+00
    0.61615E+05        -0.49993E+08         0.00000E+00
    0.00000E+00         0.00000E+00        -0.20115E+08
 
   -0.20110E+08         0.71511E+05         0.00000E+00
    0.71511E+05        -0.49990E+08         0.00000E+00
    0.00000E+00         0.00000E+00        -0.20113E+08
 
   -0.20109E+08         0.78228E+05         0.00000E+00
    0.78228E+05        -0.49986E+08         0.00000E+00
    0.00000E+00         0.00000E+00        -0.20109E+08
 
   -0.20108E+08         0.81925E+05         0.00000E+00
    0.81925E+05        -0.49982E+08         0.00000E+00
    0.00000E+00         0.00000E+00        -0.20105E+08
 
   -0.20107E+08         0.82835E+05         0.00000E+00
    0.82835E+05        -0.49978E+08         0.00000E+00
    0.00000E+00         0.00000E+00        -0.20100E+08
 
   -0.20107E+08         0.81276E+05         0.00000E+00
    0.81276E+05        -0.49975E+08         0.00000E+00
    0.00000E+00         0.00000E+00        -0.20097E+08
 
   -0.20106E+08         0.77659E+05         0.00000E+00
    0.77659E+05        -0.49973E+08         0.00000E+00
    0.00000E+00         0.00000E+00        -0.20095E+08
 
   -0.20106E+08         0.72453E+05         0.00000E+00
    0.72453E+05        -0.49972E+08         0.00000E+00
    0.00000E+00         0.00000E+00        -0.20094E+08
 
   -0.20106E+08         0.66148E+05         0.00000E+00
    0.66148E+05        -0.49973E+08         0.00000E+00
    0.00000E+00         0.00000E+00        -0.20094E+08
 
   -0.20106E+08         0.59201E+05         0.00000E+00
    0.59201E+05        -0.49974E+08         0.00000E+00
    0.00000E+00         0.00000E+00        -0.20096E+08
 
   -0.20106E+08         0.52000E+05         0.00000E+00
    0.52000E+05        -0.49977E+08         0.00000E+00
    0.00000E+00         0.00000E+00        -0.20100E+08
 
   -0.20107E+08         0.44829E+05         0.00000E+00
    0.44829E+05        -0.49981E+08         0.00000E+00
    0.00000E+00         0.00000E+00        -0.20104E+08
 
   -0.20099E+08         0.12187E+05         0.00000E+00
    0.12187E+05        -0.50000E+08         0.00000E+00
    0.00000E+00         0.00000E+00        -0.20136E+08
 
   -0.20099E+08         0.33314E+05         0.00000E+00
    0.33314E+05        -0.49999E+08         0.00000E+00
    0.00000E+00         0.00000E+00        -0.20135E+08
 
   -0.20099E+08         0.50788E+05         0.00000E+00
    0.50788E+05        -0.49997E+08         0.00000E+00
    0.00000E+00         0.00000E+00        -0.20133E+08
 
   -0.20100E+08         0.64671E+05         0.00000E+00
    0.64671E+05        -0.49994E+08         0.00000E+00
    0.00000E+00         0.00000E+00        -0.20128E+08
 
   -0.20101E+08         0.75016E+05         0.00000E+00
    0.75016E+05        -0.49991E+08         0.00000E+00
    0.00000E+00         0.00000E+00        -0.20123E+08
 
   -0.20103E+08         0.81891E+05         0.00000E+00
    0.81891E+05        -0.49988E+08         0.00000E+00
    0.00000E+00         0.00000E+00        -0.20117E+08
 
   -0.20105E+08         0.85409E+05         0.00000E+00
    0.85409E+05        -0.49985E+08         0.00000E+00
    0.00000E+00         0.00000E+00        -0.20111E+08
 
   -0.20108E+08         0.85788E+05         0.00000E+00
    0.85788E+05        -0.49982E+08         0.00000E+00
    0.00000E+00         0.00000E+00        -0.20105E+08
 
   -0.20110E+08         0.83383E+05         0.00000E+00
    0.83383E+05        -0.49980E+08         0.00000E+00
    0.00000E+00         0.00000E+00        -0.20100E+08
 
   -0.20111E+08         0.78680E+05         0.00000E+00
    0.78680E+05        -0.49979E+08         0.00000E+00
    0.00000E+00         0.00000E+00        -0.20097E+08
 
   -0.20112E+08         0.72247E+05         0.00000E+00
    0.72247E+05        -0.49979E+08         0.00000E+00
    0.00000E+00         0.00000E+00        -0.20096E+08
 
   -0.20113E+08         0.64664E+05         0.00000E+00
    0.64664E+05        -0.49981E+08         0.00000E+00
    0.00000E+00         0.00000E+00        -0.20097E+08
 
   -0.20113E+08         0.56456E+05         0.00000E+00
    0.56456E+05        -0.49983E+08         0.00000E+00
    0.00000E+00         0.00000E+00        -0.20100E+08
 
   -0.20114E+08         0.48038E+05         0.00000E+00
    0.48038E+05        -0.49987E+08         0.00000E+00
    0.00000E+00         0.00000E+00        -0.20105E+08
 
   -0.20114E+08         0.39698E+05         0.00000E+00
    0.39698E+05        -0.49992E+08         0.00000E+00
    0.00000E+00         0.00000E+00        -0.20111E+08
 
   -0.20076E+08         0.12656E+05         0.00000E+00
    0.12656E+05        -0.50000E+08         0.00000E+00
    0.00000E+00         0.00000E+00        -0.20160E+08
 
   -0.20079E+08         0.34579E+05         0.00000E+00
    0.34579E+05        -0.49999E+08         0.00000E+00
    0.00000E+00         0.00000E+00        -0.20155E+08
 
   -0.20083E+08         0.52745E+05         0.00000E+00
    0.52745E+05        -0.49998E+08         0.00000E+00
    0.00000E+00         0.00000E+00        -0.20149E+08
 
   -0.20088E+08         0.67166E+05         0.00000E+00
    0.67166E+05        -0.49996E+08         0.00000E+00
    0.00000E+00         0.00000E+00        -0.20142E+08
 
   -0.20093E+08         0.77820E+05         0.00000E+00
    0.77820E+05        -0.49993E+08         0.00000E+00
    0.00000E+00         0.00000E+00        -0.20134E+08
 
   -0.20098E+08         0.84715E+05         0.00000E+00
    0.84715E+05        -0.49991E+08         0.00000E+00
    0.00000E+00         0.00000E+00        -0.20126E+08
 
   -0.20104E+08         0.87929E+05         0.00000E+00
    0.87929E+05        -0.49989E+08         0.00000E+00
    0.00000E+00         0.00000E+00        -0.20117E+08
 
   -0.20109E+08         0.87682E+05         0.00000E+00
    0.87682E+05        -0.49987E+08         0.00000E+00
    0.00000E+00         0.00000E+00        -0.20110E+08
 
   -0.20114E+08         0.84373E+05         0.00000E+00
    0.84373E+05        -0.49986E+08         0.00000E+00
    0.00000E+00         0.00000E+00        -0.20104E+08
 
   -0.20117E+08         0.78566E+05         0.00000E+00
    0.78566E+05        -0.49987E+08         0.00000E+00
    0.00000E+00         0.00000E+00        -0.20101E+08
 
   -0.20120E+08         0.70919E+05         0.00000E+00
    0.70919E+05        -0.49988E+08         0.00000E+00
    0.00000E+00         0.00000E+00        -0.20100E+08
 
   -0.20122E+08         0.62093E+05         0.00000E+00
    0.62093E+05        -0.49991E+08         0.00000E+00
    0.00000E+00         0.00000E+00        -0.20101E+08
 
   -0.20122E+08         0.52661E+05         0.00000E+00
    0.52661E+05        -0.49994E+08         0.00000E+00
    0.00000E+00         0.00000E+00        -0.20106E+08
 
   -0.20123E+08         0.43063E+05         0.00000E+00
    0.43063E+05        -0.49999E+08         0.00000E+00
    0.00000E+00         0.00000E+00        -0.20112E+08
 
   -0.20123E+08         0.33574E+05         0.00000E+00
    0.33574E+05        -0.50005E+08         0.00000E+00
    0.00000E+00         0.00000E+00        -0.20119E+08
 
   -0.20052E+08         0.13030E+05         0.00000E+00
    0.13030E+05        -0.50000E+08         0.00000E+00
    0.00000E+00         0.00000E+00        -0.20184E+08
 
   -0.20059E+08         0.35578E+05         0.00000E+00
    0.35578E+05        -0.49999E+08         0.00000E+00
    0.00000E+00         0.00000E+00        -0.20176E+08
 
   -0.20066E+08         0.54235E+05         0.00000E+00
    0.54235E+05        -0.49998E+08         0.00000E+00
    0.00000E+00         0.00000E+00        -0.20167E+08
 
   -0.20075E+08         0.68953E+05         0.00000E+00
    0.68953E+05        -0.49997E+08         0.00000E+00
    0.00000E+00         0.00000E+00        -0.20157E+08
 
   -0.20084E+08         0.79679E+05         0.00000E+00
    0.79679E+05        -0.49995E+08         0.00000E+00
    0.00000E+00         0.00000E+00        -0.20146E+08
 
   -0.20093E+08         0.86361E+05         0.00000E+00
    0.86361E+05        -0.49994E+08         0.00000E+00
    0.00000E+00         0.00000E+00        -0.20135E+08
 
   -0.20102E+08         0.89089E+05         0.00000E+00
    0.89089E+05        -0.49994E+08         0.00000E+00
    0.00000E+00         0.00000E+00        -0.20125E+08
 
   -0.20111E+08         0.88127E+05         0.00000E+00
    0.88127E+05        -0.49994E+08         0.00000E+00
    0.00000E+00         0.00000E+00        -0.20117E+08
 
   -0.20119E+08         0.83933E+05         0.00000E+00
    0.83933E+05        -0.49995E+08         0.00000E+00
    0.00000E+00         0.00000E+00        -0.20110E+08
 
   -0.20125E+08         0.77122E+05         0.00000E+00
    0.77122E+05        -0.49996E+08         0.00000E+00
    0.00000E+00         0.00000E+00        -0.20106E+08
 
   -0.20129E+08         0.68396E+05         0.00000E+00
    0.68396E+05        -0.49999E+08         0.00000E+00
    0.00000E+00         0.00000E+00        -0.20105E+08
 
   -0.20131E+08         0.58455E+05         0.00000E+00
    0.58455E+05        -0.50003E+08         0.00000E+00
    0.00000E+00         0.00000E+00        -0.20108E+08
 
   -0.20133E+08         0.47909E+05         0.00000E+00
    0.47909E+05        -0.50007E+08         0.00000E+00
    0.00000E+00         0.00000E+00        -0.20113E+08
 
   -0.20133E+08         0.37210E+05         0.00000E+00
    0.37210E+05        -0.50013E+08         0.00000E+00
    0.00000E+00         0.00000E+00        -0.20120E+08
 
   -0.20133E+08         0.26625E+05         0.00000E+00
    0.26625E+05        -0.50020E+08         0.00000E+00
    0.00000E+00         0.00000E+00        -0.20128E+08
 
   -0.20027E+08         0.13312E+05         0.00000E+00
    0.13312E+05        -0.50000E+08         0.00000E+00
    0.00000E+00         0.00000E+00        -0.20209E+08
 
   -0.20038E+08         0.36268E+05         0.00000E+00
    0.36268E+05        -0.50000E+08         0.00000E+00
    0.00000E+00         0.00000E+00        -0.20198E+08
 
   -0.20050E+08         0.55173E+05         0.00000E+00
    0.55173E+05        -0.49999E+08         0.00000E+00
    0.00000E+00         0.00000E+00        -0.20185E+08
 
   -0.20062E+08         0.69884E+05         0.00000E+00
    0.69884E+05        -0.49998E+08         0.00000E+00
    0.00000E+00         0.00000E+00        -0.20172E+08
 
   -0.20075E+08         0.80286E+05         0.00000E+00
    0.80286E+05        -0.49998E+08         0.00000E+00
    0.00000E+00         0.00000E+00        -0.20158E+08
 
   -0.20089E+08         0.86400E+05         0.00000E+00
    0.86400E+05        -0.49999E+08         0.00000E+00
    0.00000E+00         0.00000E+00        -0.20146E+08
 
   -0.20102E+08         0.88397E+05         0.00000E+00
    0.88397E+05        -0.50000E+08         0.00000E+00
    0.00000E+00         0.00000E+00        -0.20134E+08
 
   -0.20114E+08         0.86669E+05         0.00000E+00
    0.86669E+05        -0.50002E+08         0.00000E+00
    0.00000E+00         0.00000E+00        -0.20125E+08
 
   -0.20125E+08         0.81736E+05         0.00000E+00
    0.81736E+05        -0.50005E+08         0.00000E+00
    0.00000E+00         0.00000E+00        -0.20118E+08
 
   -0.20133E+08         0.74189E+05         0.00000E+00
    0.74189E+05        -0.50009E+08         0.00000E+00
    0.00000E+00         0.00000E+00        -0.20114E+08
 
   -0.20139E+08         0.64672E+05         0.00000E+00
    0.64672E+05        -0.50013E+08         0.00000E+00
    0.00000E+00         0.00000E+00        -0.20114E+08
 
   -0.20142E+08         0.53859E+05         0.00000E+00
    0.53859E+05        -0.50017E+08         0.00000E+00
    0.00000E+00         0.00000E+00        -0.20116E+08
 
   -0.20144E+08         0.42372E+05         0.00000E+00
    0.42372E+05        -0.50023E+08         0.00000E+00
    0.00000E+00         0.00000E+00        -0.20122E+08
 
   -0.20144E+08         0.30692E+05         0.00000E+00
    0.30692E+05        -0.50029E+08         0.00000E+00
    0.00000E+00         0.00000E+00        -0.20130E+08
 
   -0.20144E+08         0.19096E+05         0.00000E+00
    0.19096E+05        -0.50036E+08         0.00000E+00
    0.00000E+00         0.00000E+00        -0.20139E+08
 
   -0.20002E+08         0.13504E+05         0.00000E+00
    0.13504E+05        -0.50000E+08         0.00000E+00
    0.00000E+00         0.00000E+00        -0.20235E+08
 
   -0.20017E+08         0.36617E+05         0.00000E+00
    0.36617E+05        -0.50000E+08         0.00000E+00
    0.00000E+00         0.00000E+00        -0.20219E+08
 
   -0.20033E+08         0.55427E+05         0.00000E+00
    0.55427E+05        -0.50000E+08         0.00000E+00
    0.00000E+00         0.00000E+00        -0.20203E+08
 
   -0.20050E+08         0.69683E+05         0.00000E+00
    0.69683E+05        -0.50000E+08         0.00000E+00
    0.00000E+00         0.00000E+00        -0.20187E+08
 
   -0.20067E+08         0.79260E+05         0.00000E+00
    0.79260E+05        -0.50002E+08         0.00000E+00
    0.00000E+00         0.00000E+00        -0.20171E+08
 
   -0.20085E+08         0.84310E+05         0.00000E+00
    0.84310E+05        -0.50004E+08         0.00000E+00
    0.00000E+00         0.00000E+00        -0.20157E+08
 
   -0.20102E+08         0.85314E+05         0.00000E+00
    0.85314E+05        -0.50008E+08         0.00000E+00
    0.00000E+00         0.00000E+00        -0.20145E+08
 
   -0.20118E+08         0.82855E+05         0.00000E+00
    0.82855E+05        -0.50013E+08         0.00000E+00
    0.00000E+00         0.00000E+00        -0.20135E+08
 
   -0.20131E+08         0.77485E+05         0.00000E+00
    0.77485E+05        -0.50018E+08         0.00000E+00
    0.00000E+00         0.00000E+00        -0.20129E+08
 
   -0.20142E+08         0.69658E+05         0.00000E+00
    0.69658E+05        -0.50024E+08         0.00000E+00
    0.00000E+00         0.00000E+00        -0.20125E+08
 
   -0.20149E+08         0.59818E+05         0.00000E+00
    0.59818E+05        -0.50029E+08         0.00000E+00
    0.00000E+00         0.00000E+00        -0.20125E+08
 
   -0.20154E+08         0.48499E+05         0.00000E+00
    0.48499E+05        -0.50035E+08         0.00000E+00
    0.00000E+00         0.00000E+00        -0.20127E+08
 
   -0.20156E+08         0.36312E+05         0.00000E+00
    0.36312E+05        -0.50040E+08         0.00000E+00
    0.00000E+00         0.00000E+00        -0.20133E+08
 
   -0.20156E+08         0.23800E+05         0.00000E+00
    0.23800E+05        -0.50047E+08         0.00000E+00
    0.00000E+00         0.00000E+00        -0.20141E+08
 
   -0.20156E+08         0.11293E+05         0.00000E+00
    0.11293E+05        -0.50054E+08         0.00000E+00
    0.00000E+00         0.00000E+00        -0.20151E+08
 
   -0.19977E+08         0.13606E+05         0.00000E+00
    0.13606E+05        -0.50000E+08         0.00000E+00
    0.00000E+00         0.00000E+00        -0.20260E+08
 
   -0.19996E+08         0.36560E+05         0.00000E+00
    0.36560E+05        -0.50000E+08         0.00000E+00
    0.00000E+00         0.00000E+00        -0.20241E+08
 
   -0.20017E+08         0.54783E+05         0.00000E+00
    0.54783E+05        -0.50001E+08         0.00000E+00
    0.00000E+00         0.00000E+00        -0.20221E+08
 
   -0.20038E+08         0.67923E+05         0.00000E+00
    0.67923E+05        -0.50003E+08         0.00000E+00
    0.00000E+00         0.00000E+00        -0.20201E+08
 
   -0.20061E+08         0.75992E+05         0.00000E+00
    0.75992E+05        -0.50007E+08         0.00000E+00
    0.00000E+00         0.00000E+00        -0.20184E+08
 
   -0.20083E+08         0.79528E+05         0.00000E+00
    0.79528E+05        -0.50012E+08         0.00000E+00
    0.00000E+00         0.00000E+00        -0.20169E+08
 
   -0.20103E+08         0.79384E+05         0.00000E+00
    0.79384E+05        -0.50019E+08         0.00000E+00
    0.00000E+00         0.00000E+00        -0.20158E+08
 
   -0.20122E+08         0.76365E+05         0.00000E+00
    0.76365E+05        -0.50027E+08         0.00000E+00
    0.00000E+00         0.00000E+00        -0.20149E+08
 
   -0.20138E+08         0.70978E+05         0.00000E+00
    0.70978E+05        -0.50034E+08         0.00000E+00
    0.00000E+00         0.00000E+00        -0.20143E+08
 
   -0.20150E+08         0.63455E+05         0.00000E+00
    0.63455E+05        -0.50042E+08         0.00000E+00
    0.00000E+00         0.00000E+00        -0.20140E+08
 
   -0.20160E+08         0.53924E+05         0.00000E+00
    0.53924E+05        -0.50048E+08         0.00000E+00
    0.00000E+00         0.00000E+00        -0.20140E+08
 
   -0.20166E+08         0.42626E+05         0.00000E+00
    0.42626E+05        -0.50055E+08         0.00000E+00
    0.00000E+00         0.00000E+00        -0.20142E+08
 
   -0.20168E+08         0.30075E+05         0.00000E+00
    0.30075E+05        -0.50061E+08         0.00000E+00
    0.00000E+00         0.00000E+00        -0.20147E+08
 
   -0.20169E+08         0.16910E+05         0.00000E+00
    0.16910E+05        -0.50067E+08         0.00000E+00
    0.00000E+00         0.00000E+00        -0.20155E+08
 
   -0.20169E+08         0.36031E+04         0.00000E+00
    0.36031E+04        -0.50074E+08         0.00000E+00
    0.00000E+00         0.00000E+00        -0.20164E+08
 
   -0.19952E+08         0.13610E+05         0.00000E+00
    0.13610E+05        -0.50000E+08         0.00000E+00
    0.00000E+00         0.00000E+00        -0.20286E+08
 
   -0.19976E+08         0.35954E+05         0.00000E+00
    0.35954E+05        -0.50001E+08         0.00000E+00
    0.00000E+00         0.00000E+00        -0.20262E+08
 
   -0.20002E+08         0.52826E+05         0.00000E+00
    0.52826E+05        -0.50002E+08         0.00000E+00
    0.00000E+00         0.00000E+00        -0.20238E+08
 
   -0.20029E+08         0.63903E+05         0.00000E+00
    0.63903E+05        -0.50007E+08         0.00000E+00
    0.00000E+00         0.00000E+00        -0.20216E+08
 
   -0.20056E+08         0.69726E+05         0.00000E+00
    0.69726E+05        -0.50014E+08         0.00000E+00
    0.00000E+00         0.00000E+00        -0.20198E+08
 
   -0.20082E+08         0.71500E+05         0.00000E+00
    0.71500E+05        -0.50022E+08         0.00000E+00
    0.00000E+00         0.00000E+00        -0.20184E+08
 
   -0.20105E+08         0.70391E+05         0.00000E+00
    0.70391E+05        -0.50033E+08         0.00000E+00
    0.00000E+00         0.00000E+00        -0.20173E+08
 
   -0.20126E+08         0.67154E+05         0.00000E+00
    0.67154E+05        -0.50043E+08         0.00000E+00
    0.00000E+00         0.00000E+00        -0.20166E+08
 
   -0.20144E+08         0.62170E+05         0.00000E+00
    0.62170E+05        -0.50053E+08         0.00000E+00
    0.00000E+00         0.00000E+00        -0.20162E+08
 
   -0.20158E+08         0.55512E+05         0.00000E+00
    0.55512E+05        -0.50063E+08         0.00000E+00
    0.00000E+00         0.00000E+00        -0.20160E+08
 
   -0.20170E+08         0.47004E+05         0.00000E+00
    0.47004E+05        -0.50071E+08         0.00000E+00
    0.00000E+00         0.00000E+00        -0.20159E+08
 
   -0.20177E+08         0.36467E+05         0.00000E+00
    0.36467E+05        -0.50078E+08         0.00000E+00
    0.00000E+00         0.00000E+00        -0.20160E+08
 
   -0.20181E+08         0.24070E+05         0.00000E+00
    0.24070E+05        -0.50083E+08         0.00000E+00
    0.00000E+00         0.00000E+00        -0.20164E+08
 
   -0.20183E+08         0.10502E+05         0.00000E+00
    0.10502E+05        -0.50089E+08         0.00000E+00
    0.00000E+00         0.00000E+00        -0.20170E+08
 
   -0.20183E+08        -0.34970E+04         0.00000E+00
   -0.34970E+04        -0.50096E+08         0.00000E+00
    0.00000E+00         0.00000E+00        -0.20178E+08
 
   -0.19927E+08         0.13487E+05         0.00000E+00
    0.13487E+05        -0.50000E+08         0.00000E+00
    0.00000E+00         0.00000E+00        -0.20311E+08
 
   -0.19957E+08         0.34455E+05         0.00000E+00
    0.34455E+05        -0.50001E+08         0.00000E+00
    0.00000E+00         0.00000E+00        -0.20282E+08
 
   -0.19989E+08         0.48709E+05         0.00000E+00
    0.48709E+05        -0.50005E+08         0.00000E+00
    0.00000E+00         0.00000E+00        -0.20255E+08
 
   -0.20022E+08         0.56564E+05         0.00000E+00
    0.56564E+05        -0.50013E+08         0.00000E+00
    0.00000E+00         0.00000E+00        -0.20232E+08
 
   -0.20053E+08         0.59761E+05         0.00000E+00
    0.59761E+05        -0.50024E+08         0.00000E+00
    0.00000E+00         0.00000E+00        -0.20214E+08
 
   -0.20082E+08         0.60042E+05         0.00000E+00
    0.60042E+05        -0.50036E+08         0.00000E+00
    0.00000E+00         0.00000E+00        -0.20202E+08
 
   -0.20108E+08         0.58431E+05         0.00000E+00
    0.58431E+05        -0.50050E+08         0.00000E+00
    0.00000E+00         0.00000E+00        -0.20193E+08
 
   -0.20130E+08         0.55428E+05         0.00000E+00
    0.55428E+05        -0.50063E+08         0.00000E+00
    0.00000E+00         0.00000E+00        -0.20188E+08
 
   -0.20149E+08         0.51228E+05         0.00000E+00
    0.51228E+05        -0.50075E+08         0.00000E+00
    0.00000E+00         0.00000E+00        -0.20185E+08
 
   -0.20165E+08         0.45802E+05         0.00000E+00
    0.45802E+05        -0.50086E+08         0.00000E+00
    0.00000E+00         0.00000E+00        -0.20183E+08
 
   -0.20178E+08         0.38906E+05         0.00000E+00
    0.38906E+05        -0.50096E+08         0.00000E+00
    0.00000E+00         0.00000E+00        -0.20183E+08
 
   -0.20188E+08         0.30033E+05         0.00000E+00
    0.30033E+05        -0.50103E+08         0.00000E+00
    0.00000E+00         0.00000E+00        -0.20183E+08
 
   -0.20194E+08         0.18698E+05         0.00000E+00
    0.18698E+05        -0.50109E+08         0.00000E+00
    0.00000E+00         0.00000E+00        -0.20185E+08
 
   -0.20196E+08         0.51865E+04         0.00000E+00
    0.51865E+04        -0.50114E+08         0.00000E+00
    0.00000E+00         0.00000E+00        -0.20189E+08
 
   -0.20197E+08        -0.93884E+04         0.00000E+00
   -0.93884E+04        -0.50119E+08         0.00000E+00
    0.00000E+00         0.00000E+00        -0.20194E+08
 
   -0.19904E+08         0.13128E+05         0.00000E+00
    0.13128E+05        -0.50000E+08         0.00000E+00
    0.00000E+00         0.00000E+00        -0.20335E+08
 
   -0.19941E+08         0.31133E+05         0.00000E+00
    0.31133E+05        -0.50003E+08         0.00000E+00
    0.00000E+00         0.00000E+00        -0.20301E+08
 
   -0.19980E+08         0.40846E+05         0.00000E+00
    0.40846E+05        -0.50011E+08         0.00000E+00
    0.00000E+00         0.00000E+00        -0.20272E+08
 
   -0.20018E+08         0.44860E+05         0.00000E+00
    0.44860E+05        -0.50023E+08         0.00000E+00
    0.00000E+00         0.00000E+00        -0.20249E+08
 
   -0.20052E+08         0.45977E+05         0.00000E+00
    0.45977E+05        -0.50038E+08         0.00000E+00
    0.00000E+00         0.00000E+00        -0.20234E+08
 
   -0.20083E+08         0.45482E+05         0.00000E+00
    0.45482E+05        -0.50054E+08         0.00000E+00
    0.00000E+00         0.00000E+00        -0.20224E+08
 
   -0.20110E+08         0.43927E+05         0.00000E+00
    0.43927E+05        -0.50070E+08         0.00000E+00
    0.00000E+00         0.00000E+00        -0.20217E+08
 
   -0.20133E+08         0.41545E+05         0.00000E+00
    0.41545E+05        -0.50085E+08         0.00000E+00
    0.00000E+00         0.00000E+00        -0.20214E+08
 
   -0.20153E+08         0.38403E+05         0.00000E+00
    0.38403E+05        -0.50099E+08         0.00000E+00
    0.00000E+00         0.00000E+00        -0.20212E+08
 
   -0.20171E+08         0.34437E+05         0.00000E+00
    0.34437E+05        -0.50112E+08         0.00000E+00
    0.00000E+00         0.00000E+00        -0.20212E+08
 
   -0.20185E+08         0.29434E+05         0.00000E+00
    0.29434E+05        -0.50123E+08         0.00000E+00
    0.00000E+00         0.00000E+00        -0.20212E+08
 
   -0.20197E+08         0.22928E+05         0.00000E+00
    0.22928E+05        -0.50132E+08         0.00000E+00
    0.00000E+00         0.00000E+00        -0.20212E+08
 
   -0.20205E+08         0.14029E+05         0.00000E+00
    0.14029E+05        -0.50138E+08         0.00000E+00
    0.00000E+00         0.00000E+00        -0.20211E+08
 
   -0.20210E+08         0.17398E+04         0.00000E+00
    0.17398E+04        -0.50141E+08         0.00000E+00
    0.00000E+00         0.00000E+00        -0.20211E+08
 
   -0.20212E+08        -0.13154E+05         0.00000E+00
   -0.13154E+05        -0.50143E+08         0.00000E+00
    0.00000E+00         0.00000E+00        -0.20212E+08
 
   -0.19883E+08         0.11911E+05         0.00000E+00
    0.11911E+05        -0.50001E+08         0.00000E+00
    0.00000E+00         0.00000E+00        -0.20358E+08
 
   -0.19930E+08         0.23538E+05         0.00000E+00
    0.23538E+05        -0.50008E+08         0.00000E+00
    0.00000E+00         0.00000E+00        -0.20320E+08
 
   -0.19975E+08         0.27512E+05         0.00000E+00
    0.27512E+05        -0.50022E+08         0.00000E+00
    0.00000E+00         0.00000E+00        -0.20291E+08
 
   -0.20016E+08         0.28887E+05         0.00000E+00
    0.28887E+05        -0.50039E+08         0.00000E+00
    0.00000E+00         0.00000E+00        -0.20271E+08
 
   -0.20053E+08         0.29054E+05         0.00000E+00
    0.29054E+05        -0.50057E+08         0.00000E+00
    0.00000E+00         0.00000E+00        -0.20258E+08
 
   -0.20084E+08         0.28492E+05         0.00000E+00
    0.28492E+05        -0.50075E+08         0.00000E+00
    0.00000E+00         0.00000E+00        -0.20250E+08
 
   -0.20112E+08         0.27409E+05         0.00000E+00
    0.27409E+05        -0.50092E+08         0.00000E+00
    0.00000E+00         0.00000E+00        -0.20246E+08
 
   -0.20135E+08         0.25899E+05         0.00000E+00
    0.25899E+05        -0.50109E+08         0.00000E+00
    0.00000E+00         0.00000E+00        -0.20244E+08
 
   -0.20156E+08         0.23977E+05         0.00000E+00
    0.23977E+05        -0.50125E+08         0.00000E+00
    0.00000E+00         0.00000E+00        -0.20244E+08
 
   -0.20174E+08         0.21584E+05         0.00000E+00
    0.21584E+05        -0.50139E+08         0.00000E+00
    0.00000E+00         0.00000E+00        -0.20245E+08
 
   -0.20190E+08         0.18576E+05         0.00000E+00
    0.18576E+05        -0.50152E+08         0.00000E+00
    0.00000E+00         0.00000E+00        -0.20245E+08
 
   -0.20203E+08         0.14664E+05         0.00000E+00
    0.14664E+05        -0.50162E+08         0.00000E+00
    0.00000E+00         0.00000E+00        -0.20245E+08
 
   -0.20214E+08         0.92096E+04         0.00000E+00
    0.92096E+04        -0.50169E+08         0.00000E+00
    0.00000E+00         0.00000E+00        -0.20243E+08
 
   -0.20222E+08         0.70341E+03         0.00000E+00
    0.70341E+03        -0.50171E+08         0.00000E+00
    0.00000E+00         0.00000E+00        -0.20238E+08
 
   -0.20227E+08        -0.13308E+05         0.00000E+00
   -0.13308E+05        -0.50171E+08         0.00000E+00
    0.00000E+00         0.00000E+00        -0.20232E+08
 
   -0.19870E+08         0.60890E+04         0.00000E+00
    0.60890E+04        -0.50008E+08         0.00000E+00
    0.00000E+00         0.00000E+00        -0.20381E+08
 
   -0.19925E+08         0.85376E+04         0.00000E+00
    0.85376E+04        -0.50022E+08         0.00000E+00
    0.00000E+00         0.00000E+00        -0.20342E+08
 
   -0.19974E+08         0.96167E+04         0.00000E+00
    0.96167E+04        -0.50040E+08         0.00000E+00
    0.00000E+00         0.00000E+00        -0.20316E+08
 
   -0.20016E+08         0.99795E+04         0.00000E+00
    0.99795E+04        -0.50059E+08         0.00000E+00
    0.00000E+00         0.00000E+00        -0.20299E+08
 
   -0.20053E+08         0.99684E+04         0.00000E+00
    0.99684E+04        -0.50079E+08         0.00000E+00
    0.00000E+00         0.00000E+00        -0.20288E+08
 
   -0.20085E+08         0.97402E+04         0.00000E+00
    0.97402E+04        -0.50099E+08         0.00000E+00
    0.00000E+00         0.00000E+00        -0.20282E+08
 
   -0.20112E+08         0.93562E+04         0.00000E+00
    0.93562E+04        -0.50118E+08         0.00000E+00
    0.00000E+00         0.00000E+00        -0.20279E+08
 
   -0.20137E+08         0.88415E+04         0.00000E+00
    0.88415E+04        -0.50136E+08         0.00000E+00
    0.00000E+00         0.00000E+00        -0.20278E+08
 
   -0.20158E+08         0.81977E+04         0.00000E+00
    0.81977E+04        -0.50153E+08         0.00000E+00
    0.00000E+00         0.00000E+00        -0.20279E+08
 
   -0.20176E+08         0.74029E+04         0.00000E+00
    0.74029E+04        -0.50169E+08         0.00000E+00
    0.00000E+00         0.00000E+00        -0.20281E+08
 
   -0.20192E+08         0.64043E+04         0.00000E+00
    0.64043E+04        -0.50182E+08         0.00000E+00
    0.00000E+00         0.00000E+00        -0.20284E+08
 
   -0.20206E+08         0.50951E+04         0.00000E+00
    0.50951E+04        -0.50194E+08         0.00000E+00
    0.00000E+00         0.00000E+00        -0.20285E+08
 
   -0.20219E+08         0.32824E+04         0.00000E+00
    0.32824E+04        -0.50202E+08         0.00000E+00
    0.00000E+00         0.00000E+00        -0.20283E+08
 
   -0.20230E+08         0.40068E+03         0.00000E+00
    0.40068E+03        -0.50206E+08         0.00000E+00
    0.00000E+00         0.00000E+00        -0.20276E+08
 
   -0.20239E+08        -0.60421E+04         0.00000E+00
   -0.60421E+04        -0.50200E+08         0.00000E+00
    0.00000E+00         0.00000E+00        -0.20259E+08
 
TENSORS stresstot double 
   -0.30302E+08         0.19339E+03         0.00000E+00
    0.19339E+03        -0.60000E+08         0.00000E+00
    0.00000E+00         0.00000E+00        -0.29936E+08
 
   -0.30270E+08         0.55121E+03         0.00000E+00
    0.55121E+03        -0.59999E+08         0.00000E+00
    0.00000E+00         0.00000E+00        -0.29966E+08
 
   -0.30240E+08         0.87216E+03         0.00000E+00
    0.87216E+03        -0.59997E+08         0.00000E+00
    0.00000E+00         0.00000E+00        -0.29993E+08
 
   -0.30213E+08         0.11586E+04         0.00000E+00
    0.11586E+04        -0.59995E+08         0.00000E+00
    0.00000E+00         0.00000E+00        -0.30017E+08
 
   -0.30189E+08         0.14131E+04         0.00000E+00
    0.14131E+04        -0.59993E+08         0.00000E+00
    0.00000E+00         0.00000E+00        -0.30037E+08
 
   -0.30167E+08         0.16380E+04         0.00000E+00
    0.16380E+04        -0.59990E+08         0.00000E+00
    0.00000E+00         0.00000E+00        -0.30055E+08
 
   -0.30148E+08         0.18361E+04         0.00000E+00
    0.18361E+04        -0.59986E+08         0.00000E+00
    0.00000E+00         0.00000E+00        -0.30069E+08
 
   -0.30132E+08         0.20091E+04         0.00000E+00
    0.20091E+04        -0.59982E+08         0.00000E+00
    0.00000E+00         0.00000E+00        -0.30081E+08
 
   -0.30118E+08         0.21590E+04         0.00000E+00
    0.21590E+04        -0.59978E+08         0.00000E+00
    0.00000E+00         0.00000E+00        -0.30089E+08
 
   -0.30106E+08         0.22882E+04         0.00000E+00
    0.22882E+04        -0.59974E+08         0.00000E+00
    0.00000E+00         0.00000E+00        -0.30095E+08
 
   -0.30096E+08         0.23988E+04         0.00000E+00
    0.23988E+04        -0.59969E+08         0.00000E+00
    0.00000E+00         0.00000E+00        -0.30098E+08
 
   -0.30089E+08         0.24930E+04         0.00000E+00
    0.24930E+04        -0.59964E+08         0.00000E+00
    0.00000E+00         0.00000E+00        -0.30099E+08
 
   -0.30085E+08         0.25729E+04         0.00000E+00
    0.25729E+04        -0.59959E+08         0.00000E+00
    0.00000E+00         0.00000E+00        -0.30097E+08
 
   -0.30082E+08         0.26406E+04         0.00000E+00
    0.26406E+04        -0.59954E+08         0.00000E+00
    0.00000E+00         0.00000E+00        -0.30093E+08
 
   -0.30082E+08         0.26979E+04         0.00000E+00
    0.26979E+04        -0.59949E+08         0.00000E+00
    0.00000E+00         0.00000E+00        -0.30086E+08
 
   -0.30301E+08         0.58437E+03         0.00000E+00
    0.58437E+03        -0.60000E+08         0.00000E+00
    0.00000E+00         0.00000E+00        -0.29936E+08
 
   -0.30269E+08         0.16644E+04         0.00000E+00
    0.16644E+04        -0.59999E+08         0.00000E+00
    0.00000E+00         0.00000E+00        -0.29967E+08
 
   -0.30240E+08         0.26316E+04         0.00000E+00
    0.26316E+04        -0.59997E+08         0.00000E+00
    0.00000E+00         0.00000E+00        -0.29993E+08
 
   -0.30213E+08         0.34936E+04         0.00000E+00
    0.34936E+04        -0.59995E+08         0.00000E+00
    0.00000E+00         0.00000E+00        -0.30017E+08
 
   -0.30189E+08         0.42576E+04         0.00000E+00
    0.42576E+04        -0.59993E+08         0.00000E+00
    0.00000E+00         0.00000E+00        -0.30038E+08
 
   -0.30167E+08         0.49316E+04         0.00000E+00
    0.49316E+04        -0.59990E+08         0.00000E+00
    0.00000E+00         0.00000E+00        -0.30055E+08
 
   -0.30148E+08         0.55237E+04         0.00000E+00
    0.55237E+04        -0.59986E+08         0.00000E+00
    0.00000E+00         0.00000E+00        -0.30069E+08
 
   -0.30131E+08         0.60395E+04         0.00000E+00
    0.60395E+04        -0.59982E+08         0.00000E+00
    0.00000E+00         0.00000E+00        -0.30081E+08
 
   -0.30117E+08         0.64856E+04         0.00000E+00
    0.64856E+04        -0.59978E+08         0.00000E+00
    0.00000E+00         0.00000E+00        -0.30089E+08
 
   -0.30106E+08         0.68689E+04         0.00000E+00
    0.68689E+04        -0.59974E+08         0.00000E+00
    0.00000E+00         0.00000E+00        -0.30095E+08
 
   -0.30096E+08         0.71963E+04         0.00000E+00
    0.71963E+04        -0.59969E+08         0.00000E+00
    0.00000E+00         0.00000E+00        -0.30098E+08
 
   -0.30089E+08         0.74742E+04         0.00000E+00
    0.74742E+04        -0.59964E+08         0.00000E+00
    0.00000E+00         0.00000E+00        -0.30099E+08
 
   -0.30084E+08         0.77092E+04         0.00000E+00
    0.77092E+04        -0.59959E+08         0.00000E+00
    0.00000E+00         0.00000E+00        -0.30097E+08
 
   -0.30082E+08         0.79073E+04         0.00000E+00
    0.79073E+04        -0.59954E+08         0.00000E+00
    0.00000E+00         0.00000E+00        -0.30093E+08
 
   -0.30082E+08         0.80749E+04         0.00000E+00
    0.80749E+04        -0.59949E+08         0.00000E+00
    0.00000E+00         0.00000E+00        -0.30086E+08
 
   -0.30300E+08         0.98794E+03         0.00000E+00
    0.98794E+03        -0.60000E+08         0.00000E+00
    0.00000E+00         0.00000E+00        -0.29938E+08
 
   -0.30268E+08         0.28096E+04         0.00000E+00
    0.28096E+04        -0.59999E+08         0.00000E+00
    0.00000E+00         0.00000E+00        -0.29968E+08
 
   -0.30238E+08         0.44362E+04         0.00000E+00
    0.44362E+04        -0.59997E+08         0.00000E+00
    0.00000E+00         0.00000E+00        -0.29995E+08
 
   -0.30212E+08         0.58808E+04         0.00000E+00
    0.58808E+04        -0.59995E+08         0.00000E+00
    0.00000E+00         0.00000E+00        -0.30018E+08
 
   -0.30188E+08         0.71566E+04         0.00000E+00
    0.71566E+04        -0.59992E+08         0.00000E+00
    0.00000E+00         0.00000E+00        -0.30038E+08
 
   -0.30166E+08         0.82770E+04         0.00000E+00
    0.82770E+04        -0.59989E+08         0.00000E+00
    0.00000E+00         0.00000E+00        -0.30055E+08
 
   -0.30147E+08         0.92567E+04         0.00000E+00
    0.92567E+04        -0.59986E+08         0.00000E+00
    0.00000E+00         0.00000E+00        -0.30069E+08
 
   -0.30131E+08         0.10106E+05         0.00000E+00
    0.10106E+05        -0.59982E+08         0.00000E+00
    0.00000E+00         0.00000E+00        -0.30081E+08
 
   -0.30117E+08         0.10838E+05         0.00000E+00
    0.10838E+05        -0.59978E+08         0.00000E+00
    0.00000E+00         0.00000E+00        -0.30089E+08
 
   -0.30105E+08         0.11462E+05         0.00000E+00
    0.11462E+05        -0.59973E+08         0.00000E+00
    0.00000E+00         0.00000E+00        -0.30095E+08
 
   -0.30096E+08         0.11993E+05         0.00000E+00
    0.11993E+05        -0.59968E+08         0.00000E+00
    0.00000E+00         0.00000E+00        -0.30098E+08
 
   -0.30089E+08         0.12440E+05         0.00000E+00
    0.12440E+05        -0.59964E+08         0.00000E+00
    0.00000E+00         0.00000E+00        -0.30099E+08
 
   -0.30084E+08         0.12816E+05         0.00000E+00
    0.12816E+05        -0.59959E+08         0.00000E+00
    0.00000E+00         0.00000E+00        -0.30097E+08
 
   -0.30082E+08         0.13131E+05         0.00000E+00
    0.13131E+05        -0.59953E+08         0.00000E+00
    0.00000E+00         0.00000E+00        -0.30092E+08
 
   -0.30081E+08         0.13395E+05         0.00000E+00
    0.13395E+05        -0.59948E+08         0.00000E+00
    0.00000E+00         0.00000E+00        -0.30086E+08
 
   -0.30297E+08         0.14122E+04         0.00000E+00
    0.14122E+04        -0.60000E+08         0.00000E+00
    0.00000E+00         0.00000E+00        -0.29940E+08
 
   -0.30266E+08         0.40076E+04         0.00000E+00
    0.40076E+04        -0.59999E+08         0.00000E+00
    0.00000E+00         0.00000E+00        -0.29970E+08
 
   -0.30237E+08         0.63149E+04         0.00000E+00
    0.63149E+04        -0.59997E+08         0.00000E+00
    0.00000E+00         0.00000E+00        -0.29996E+08
 
   -0.30210E+08         0.83540E+04         0.00000E+00
    0.83540E+04        -0.59995E+08         0.00000E+00
    0.00000E+00         0.00000E+00        -0.30019E+08
 
   -0.30186E+08         0.10145E+05         0.00000E+00
    0.10145E+05        -0.59992E+08         0.00000E+00
    0.00000E+00         0.00000E+00        -0.30039E+08
 
   -0.30165E+08         0.11707E+05         0.00000E+00
    0.11707E+05        -0.59989E+08         0.00000E+00
    0.00000E+00         0.00000E+00        -0.30056E+08
 
   -0.30146E+08         0.13064E+05         0.00000E+00
    0.13064E+05        -0.59985E+08         0.00000E+00
    0.00000E+00         0.00000E+00        -0.30070E+08
 
   -0.30130E+08         0.14232E+05         0.00000E+00
    0.14232E+05        -0.59981E+08         0.00000E+00
    0.00000E+00         0.00000E+00        -0.30081E+08
 
   -0.30116E+08         0.15230E+05         0.00000E+00
    0.15230E+05        -0.59977E+08         0.00000E+00
    0.00000E+00         0.00000E+00        -0.30089E+08
 
   -0.30104E+08         0.16075E+05         0.00000E+00
    0.16075E+05        -0.59972E+08         0.00000E+00
    0.00000E+00         0.00000E+00        -0.30095E+08
 
   -0.30095E+08         0.16786E+05         0.00000E+00
    0.16786E+05        -0.59968E+08         0.00000E+00
    0.00000E+00         0.00000E+00        -0.30098E+08
 
   -0.30088E+08         0.17379E+05         0.00000E+00
    0.17379E+05        -0.59963E+08         0.00000E+00
    0.00000E+00         0.00000E+00        -0.30098E+08
 
   -0.30084E+08         0.17872E+05         0.00000E+00
    0.17872E+05        -0.59958E+08         0.00000E+00
    0.00000E+00         0.00000E+00        -0.30096E+08
 
   -0.30081E+08         0.18280E+05         0.00000E+00
    0.18280E+05        -0.59953E+08         0.00000E+00
    0.00000E+00         0.00000E+00        -0.30092E+08
 
   -0.30081E+08         0.18618E+05         0.00000E+00
    0.18618E+05        -0.59948E+08         0.00000E+00
    0.00000E+00         0.00000E+00        -0.30085E+08
 
   -0.30294E+08         0.18649E+04         0.00000E+00
    0.18649E+04        -0.60000E+08         0.00000E+00
    0.00000E+00         0.00000E+00        -0.29943E+08
 
   -0.30263E+08         0.52778E+04         0.00000E+00
    0.52778E+04        -0.59999E+08         0.00000E+00
    0.00000E+00         0.00000E+00        -0.29972E+08
 
   -0.30234E+08         0.82952E+04         0.00000E+00
    0.82952E+04        -0.59997E+08         0.00000E+00
    0.00000E+00         0.00000E+00        -0.29998E+08
 
   -0.30208E+08         0.10945E+05         0.00000E+00
    0.10945E+05        -0.59995E+08         0.00000E+00
    0.00000E+00         0.00000E+00        -0.30021E+08
 
   -0.30184E+08         0.13254E+05         0.00000E+00
    0.13254E+05        -0.59992E+08         0.00000E+00
    0.00000E+00         0.00000E+00        -0.30041E+08
 
   -0.30163E+08         0.15252E+05         0.00000E+00
    0.15252E+05        -0.59988E+08         0.00000E+00
    0.00000E+00         0.00000E+00        -0.30057E+08
 
   -0.30145E+08         0.16971E+05         0.00000E+00
    0.16971E+05        -0.59985E+08         0.00000E+00
    0.00000E+00         0.00000E+00        -0.30070E+08
 
   -0.30129E+08         0.18437E+05         0.00000E+00
    0.18437E+05        -0.59980E+08         0.00000E+00
    0.00000E+00         0.00000E+00        -0.30081E+08
 
   -0.30115E+08         0.19675E+05         0.00000E+00
    0.19675E+05        -0.59976E+08         0.00000E+00
    0.00000E+00         0.00000E+00        -0.30089E+08
 
   -0.30104E+08         0.20711E+05         0.00000E+00
    0.20711E+05        -0.59972E+08         0.00000E+00
    0.00000E+00         0.00000E+00        -0.30094E+08
 
   -0.30095E+08         0.21571E+05         0.00000E+00
    0.21571E+05        -0.59967E+08         0.00000E+00
    0.00000E+00         0.00000E+00        -0.30097E+08
 
   -0.30088E+08         0.22278E+05         0.00000E+00
    0.22278E+05        -0.59962E+08         0.00000E+00
    0.00000E+00         0.00000E+00        -0.30098E+08
 
   -0.30083E+08         0.22855E+05         0.00000E+00
    0.22855E+05        -0.59957E+08         0.00000E+00
    0.00000E+00         0.00000E+00        -0.30096E+08
 
   -0.30081E+08         0.23322E+05         0.00000E+00
    0.23322E+05        -0.59952E+08         0.00000E+00
    0.00000E+00         0.00000E+00        -0.30091E+08
 
   -0.30081E+08         0.23703E+05         0.00000E+00
    0.23703E+05        -0.59947E+08         0.00000E+00
    0.00000E+00         0.00000E+00        -0.30085E+08
 
   -0.30290E+08         0.23529E+04         0.00000E+00
    0.23529E+04        -0.60000E+08         0.00000E+00
    0.00000E+00         0.00000E+00        -0.29947E+08
 
   -0.30259E+08         0.66382E+04         0.00000E+00
    0.66382E+04        -0.59999E+08         0.00000E+00
    0.00000E+00         0.00000E+00        -0.29976E+08
 
   -0.30231E+08         0.10402E+05         0.00000E+00
    0.10402E+05        -0.59997E+08         0.00000E+00
    0.00000E+00         0.00000E+00        -0.30001E+08
 
   -0.30205E+08         0.13680E+05         0.00000E+00
    0.13680E+05        -0.59994E+08         0.00000E+00
    0.00000E+00         0.00000E+00        -0.30023E+08
 
   -0.30182E+08         0.16513E+05         0.00000E+00
    0.16513E+05        -0.59991E+08         0.00000E+00
    0.00000E+00         0.00000E+00        -0.30042E+08
 
   -0.30161E+08         0.18938E+05         0.00000E+00
    0.18938E+05        -0.59988E+08         0.00000E+00
    0.00000E+00         0.00000E+00        -0.30058E+08
 
   -0.30143E+08         0.21000E+05         0.00000E+00
    0.21000E+05        -0.59984E+08         0.00000E+00
    0.00000E+00         0.00000E+00        -0.30071E+08
 
   -0.30127E+08         0.22736E+05         0.00000E+00
    0.22736E+05        -0.59980E+08         0.00000E+00
    0.00000E+00         0.00000E+00        -0.30081E+08
 
   -0.30114E+08         0.24182E+05         0.00000E+00
    0.24182E+05        -0.59975E+08         0.00000E+00
    0.00000E+00         0.00000E+00        -0.30089E+08
 
   -0.30103E+08         0.25372E+05         0.00000E+00
    0.25372E+05        -0.59970E+08         0.00000E+00
    0.00000E+00         0.00000E+00        -0.30094E+08
 
   -0.30094E+08         0.26340E+05         0.00000E+00
    0.26340E+05        -0.59966E+08         0.00000E+00
    0.00000E+00         0.00000E+00        -0.30097E+08
 
   -0.30087E+08         0.27119E+05         0.00000E+00
    0.27119E+05        -0.59961E+08         0.00000E+00
    0.00000E+00         0.00000E+00        -0.30097E+08
 
   -0.30083E+08         0.27737E+05         0.00000E+00
    0.27737E+05        -0.59956E+08         0.00000E+00
    0.00000E+00         0.00000E+00        -0.30095E+08
 
   -0.30081E+08         0.28223E+05         0.00000E+00
    0.28223E+05        -0.59951E+08         0.00000E+00
    0.00000E+00         0.00000E+00        -0.30091E+08
 
   -0.30080E+08         0.28605E+05         0.00000E+00
    0.28605E+05        -0.59947E+08         0.00000E+00
    0.00000E+00         0.00000E+00        -0.30085E+08
 
   -0.30285E+08         0.28832E+04         0.00000E+00
    0.28832E+04        -0.60000E+08         0.00000E+00
    0.00000E+00         0.00000E+00        -0.29952E+08
 
   -0.30255E+08         0.81041E+04         0.00000E+00
    0.81041E+04        -0.59998E+08         0.00000E+00
    0.00000E+00         0.00000E+00        -0.29980E+08
 
   -0.30227E+08         0.12655E+05         0.00000E+00
    0.12655E+05        -0.59997E+08         0.00000E+00
    0.00000E+00         0.00000E+00        -0.30005E+08
 
   -0.30202E+08         0.16585E+05         0.00000E+00
    0.16585E+05        -0.59994E+08         0.00000E+00
    0.00000E+00         0.00000E+00        -0.30026E+08
 
   -0.30179E+08         0.19944E+05         0.00000E+00
    0.19944E+05        -0.59991E+08         0.00000E+00
    0.00000E+00         0.00000E+00        -0.30044E+08
 
   -0.30159E+08         0.22787E+05         0.00000E+00
    0.22787E+05        -0.59987E+08         0.00000E+00
    0.00000E+00         0.00000E+00        -0.30060E+08
 
   -0.30141E+08         0.25168E+05         0.00000E+00
    0.25168E+05        -0.59983E+08         0.00000E+00
    0.00000E+00         0.00000E+00        -0.30072E+08
 
   -0.30125E+08         0.27141E+05         0.00000E+00
    0.27141E+05        -0.59978E+08         0.00000E+00
    0.00000E+00         0.00000E+00        -0.30082E+08
 
   -0.30112E+08         0.28755E+05         0.00000E+00
    0.28755E+05        -0.59974E+08         0.00000E+00
    0.00000E+00         0.00000E+00        -0.30089E+08
 
   -0.30101E+08         0.30054E+05         0.00000E+00
    0.30054E+05        -0.59969E+08         0.00000E+00
    0.00000E+00         0.00000E+00        -0.30094E+08
 
   -0.30093E+08         0.31082E+05         0.00000E+00
    0.31082E+05        -0.59965E+08         0.00000E+00
    0.00000E+00         0.00000E+00        -0.30096E+08
 
   -0.30086E+08         0.31881E+05         0.00000E+00
    0.31881E+05        -0.59960E+08         0.00000E+00
    0.00000E+00         0.00000E+00        -0.30096E+08
 
   -0.30082E+08         0.32488E+05         0.00000E+00
    0.32488E+05        -0.59955E+08         0.00000E+00
    0.00000E+00         0.00000E+00        -0.30094E+08
 
   -0.30080E+08         0.32941E+05         0.00000E+00
    0.32941E+05        -0.59951E+08         0.00000E+00
    0.00000E+00         0.00000E+00        -0.30090E+08
 
   -0.30080E+08         0.33275E+05         0.00000E+00
    0.33275E+05        -0.59946E+08         0.00000E+00
    0.00000E+00         0.00000E+00        -0.30084E+08
 
   -0.30279E+08         0.34608E+04         0.00000E+00
    0.34608E+04        -0.60000E+08         0.00000E+00
    0.00000E+00         0.00000E+00        -0.29958E+08
 
   -0.30249E+08         0.96883E+04         0.00000E+00
    0.96883E+04        -0.59998E+08         0.00000E+00
    0.00000E+00         0.00000E+00        -0.29985E+08
 
   -0.30222E+08         0.15072E+05         0.00000E+00
    0.15072E+05        -0.59996E+08         0.00000E+00
    0.00000E+00         0.00000E+00        -0.30009E+08
 
   -0.30198E+08         0.19676E+05         0.00000E+00
    0.19676E+05        -0.59993E+08         0.00000E+00
    0.00000E+00         0.00000E+00        -0.30029E+08
 
   -0.30176E+08         0.23566E+05         0.00000E+00
    0.23566E+05        -0.59990E+08         0.00000E+00
    0.00000E+00         0.00000E+00        -0.30047E+08
 
   -0.30156E+08         0.26813E+05         0.00000E+00
    0.26813E+05        -0.59986E+08         0.00000E+00
    0.00000E+00         0.00000E+00        -0.30061E+08
 
   -0.30139E+08         0.29486E+05         0.00000E+00
    0.29486E+05        -0.59982E+08         0.00000E+00
    0.00000E+00         0.00000E+00        -0.30073E+08
 
   -0.30124E+08         0.31658E+05         0.00000E+00
    0.31658E+05        -0.59977E+08         0.00000E+00
    0.00000E+00         0.00000E+00        -0.30082E+08
 
   -0.30111E+08         0.33394E+05         0.00000E+00
    0.33394E+05        -0.59973E+08         0.00000E+00
    0.00000E+00         0.00000E+00        -0.30089E+08
 
   -0.30100E+08         0.34749E+05         0.00000E+00
    0.34749E+05        -0.59968E+08         0.00000E+00
    0.00000E+00         0.00000E+00        -0.30093E+08
 
   -0.30092E+08         0.35780E+05         0.00000E+00
    0.35780E+05        -0.59963E+08         0.00000E+00
    0.00000E+00         0.00000E+00        -0.30095E+08
 
   -0.30086E+08         0.36539E+05         0.00000E+00
    0.36539E+05        -0.59959E+08         0.00000E+00
    0.00000E+00         0.00000E+00        -0.30095E+08
 
   -0.30082E+08         0.37075E+05         0.00000E+00
    0.37075E+05        -0.59954E+08         0.00000E+00
    0.00000E+00         0.00000E+00        -0.30093E+08
 
   -0.30080E+08         0.37433E+05         0.00000E+00
    0.37433E+05        -0.59950E+08         0.00000E+00
    0.00000E+00         0.00000E+00        -0.30090E+08
 
   -0.30080E+08         0.37659E+05         0.00000E+00
    0.37659E+05        -0.59946E+08         0.00000E+00
    0.00000E+00         0.00000E+00        -0.30084E+08
 
   -0.30272E+08         0.40881E+04         0.00000E+00
    0.40881E+04        -0.59999E+08         0.00000E+00
    0.00000E+00         0.00000E+00        -0.29965E+08
 
   -0.30243E+08         0.11399E+05         0.00000E+00
    0.11399E+05        -0.59998E+08         0.00000E+00
    0.00000E+00         0.00000E+00        -0.29991E+08
 
   -0.30217E+08         0.17662E+05         0.00000E+00
    0.17662E+05        -0.59996E+08         0.00000E+00
    0.00000E+00         0.00000E+00        -0.30014E+08
 
   -0.30193E+08         0.22964E+05         0.00000E+00
    0.22964E+05        -0.59993E+08         0.00000E+00
    0.00000E+00         0.00000E+00        -0.30033E+08
 
   -0.30172E+08         0.27388E+05         0.00000E+00
    0.27388E+05        -0.59989E+08         0.00000E+00
    0.00000E+00         0.00000E+00        -0.30050E+08
 
   -0.30153E+08         0.31023E+05         0.00000E+00
    0.31023E+05        -0.59985E+08         0.00000E+00
    0.00000E+00         0.00000E+00        -0.30063E+08
 
   -0.30136E+08         0.33960E+05         0.00000E+00
    0.33960E+05        -0.59981E+08         0.00000E+00
    0.00000E+00         0.00000E+00        -0.30074E+08
 
   -0.30122E+08         0.36289E+05         0.00000E+00
    0.36289E+05        -0.59976E+08         0.00000E+00
    0.00000E+00         0.00000E+00        -0.30083E+08
 
   -0.30109E+08         0.38093E+05         0.00000E+00
    0.38093E+05        -0.59971E+08         0.00000E+00
    0.00000E+00         0.00000E+00        -0.30089E+08
 
   -0.30099E+08         0.39444E+05         0.00000E+00
    0.39444E+05        -0.59967E+08         0.00000E+00
    0.00000E+00         0.00000E+00        -0.30093E+08
 
   -0.30091E+08         0.40412E+05         0.00000E+00
    0.40412E+05        -0.59962E+08         0.00000E+00
    0.00000E+00         0.00000E+00        -0.30095E+08
 
   -0.30085E+08         0.41063E+05         0.00000E+00
    0.41063E+05        -0.59958E+08         0.00000E+00
    0.00000E+00         0.00000E+00        -0.30095E+08
 
   -0.30081E+08         0.41455E+05         0.00000E+00
    0.41455E+05        -0.59953E+08         0.00000E+00
    0.00000E+00         0.00000E+00        -0.30093E+08
 
   -0.30080E+08         0.41647E+05         0.00000E+00
    0.41647E+05        -0.59949E+08         0.00000E+00
    0.00000E+00         0.00000E+00        -0.30089E+08
 
   -0.30080E+08         0.41697E+05         0.00000E+00
    0.41697E+05        -0.59945E+08         0.00000E+00
    0.00000E+00         0.00000E+00        -0.30084E+08
 
   -0.30263E+08         0.47659E+04         0.00000E+00
    0.47659E+04        -0.59999E+08         0.00000E+00
    0.00000E+00         0.00000E+00        -0.29973E+08
 
   -0.30236E+08         0.13236E+05         0.00000E+00
    0.13236E+05        -0.59998E+08         0.00000E+00
    0.00000E+00         0.00000E+00        -0.29998E+08
 
   -0.30211E+08         0.20430E+05         0.00000E+00
    0.20430E+05        -0.59996E+08         0.00000E+00
    0.00000E+00         0.00000E+00        -0.30020E+08
 
   -0.30188E+08         0.26452E+05         0.00000E+00
    0.26452E+05        -0.59993E+08         0.00000E+00
    0.00000E+00         0.00000E+00        -0.30038E+08
 
   -0.30168E+08         0.31412E+05         0.00000E+00
    0.31412E+05        -0.59989E+08         0.00000E+00
    0.00000E+00         0.00000E+00        -0.30053E+08
 
   -0.30149E+08         0.35420E+05         0.00000E+00
    0.35420E+05        -0.59984E+08         0.00000E+00
    0.00000E+00         0.00000E+00        -0.30066E+08
 
   -0.30133E+08         0.38587E+05         0.00000E+00
    0.38587E+05        -0.59980E+08         0.00000E+00
    0.00000E+00         0.00000E+00        -0.30076E+08
 
   -0.30119E+08         0.41026E+05         0.00000E+00
    0.41026E+05        -0.59975E+08         0.00000E+00
    0.00000E+00         0.00000E+00        -0.30083E+08
 
   -0.30108E+08         0.42839E+05         0.00000E+00
    0.42839E+05        -0.59970E+08         0.00000E+00
    0.00000E+00         0.00000E+00        -0.30089E+08
 
   -0.30098E+08         0.44120E+05         0.00000E+00
    0.44120E+05        -0.59966E+08         0.00000E+00
    0.00000E+00         0.00000E+00        -0.30092E+08
 
   -0.30090E+08         0.44952E+05         0.00000E+00
    0.44952E+05        -0.59961E+08         0.00000E+00
    0.00000E+00         0.00000E+00        -0.30094E+08
 
   -0.30085E+08         0.45415E+05         0.00000E+00
    0.45415E+05        -0.59957E+08         0.00000E+00
    0.00000E+00         0.00000E+00        -0.30094E+08
 
   -0.30081E+08         0.45582E+05         0.00000E+00
    0.45582E+05        -0.59953E+08         0.00000E+00
    0.00000E+00         0.00000E+00        -0.30092E+08
 
   -0.30080E+08         0.45527E+05         0.00000E+00
    0.45527E+05        -0.59949E+08         0.00000E+00
    0.00000E+00         0.00000E+00        -0.30088E+08
 
   -0.30080E+08         0.45321E+05         0.00000E+00
    0.45321E+05        -0.59945E+08         0.00000E+00
    0.00000E+00         0.00000E+00        -0.30083E+08
 
   -0.30253E+08         0.54924E+04         0.00000E+00
    0.54924E+04        -0.59999E+08         0.00000E+00
    0.00000E+00         0.00000E+00        -0.29983E+08
 
   -0.30227E+08         0.15194E+05         0.00000E+00
    0.15194E+05        -0.59998E+08         0.00000E+00
    0.00000E+00         0.00000E+00        -0.30006E+08
 
   -0.30204E+08         0.23366E+05         0.00000E+00
    0.23366E+05        -0.59996E+08         0.00000E+00
    0.00000E+00         0.00000E+00        -0.30026E+08
 
   -0.30182E+08         0.30133E+05         0.00000E+00
    0.30133E+05        -0.59992E+08         0.00000E+00
    0.00000E+00         0.00000E+00        -0.30043E+08
 
   -0.30163E+08         0.35630E+05         0.00000E+00
    0.35630E+05        -0.59988E+08         0.00000E+00
    0.00000E+00         0.00000E+00        -0.30057E+08
 
   -0.30146E+08         0.39994E+05         0.00000E+00
    0.39994E+05        -0.59984E+08         0.00000E+00
    0.00000E+00         0.00000E+00        -0.30068E+08
 
   -0.30131E+08         0.43358E+05         0.00000E+00
    0.43358E+05        -0.59979E+08         0.00000E+00
    0.00000E+00         0.00000E+00        -0.30077E+08
 
   -0.30117E+08         0.45857E+05         0.00000E+00
    0.45857E+05        -0.59974E+08         0.00000E+00
    0.00000E+00         0.00000E+00        -0.30084E+08
 
   -0.30106E+08         0.47617E+05         0.00000E+00
    0.47617E+05        -0.59969E+08         0.00000E+00
    0.00000E+00         0.00000E+00        -0.30089E+08
 
   -0.30097E+08         0.48754E+05         0.00000E+00
    0.48754E+05        -0.59964E+08         0.00000E+00
    0.00000E+00         0.00000E+00        -0.30092E+08
 
   -0.30090E+08         0.49366E+05         0.00000E+00
    0.49366E+05        -0.59960E+08         0.00000E+00
    0.00000E+00         0.00000E+00        -0.30093E+08
 
   -0.30085E+08         0.49551E+05         0.00000E+00
    0.49551E+05        -0.59956E+08         0.00000E+00
    0.00000E+00         0.00000E+00        -0.30093E+08
 
   -0.30081E+08         0.49402E+05         0.00000E+00
    0.49402E+05        -0.59952E+08         0.00000E+00
    0.00000E+00         0.00000E+00        -0.30091E+08
 
   -0.30080E+08         0.49006E+05         0.00000E+00
    0.49006E+05        -0.59949E+08         0.00000E+00
    0.00000E+00         0.00000E+00        -0.30088E+08
 
   -0.30080E+08         0.48456E+05         0.00000E+00
    0.48456E+05        -0.59946E+08         0.00000E+00
    0.00000E+00         0.00000E+00        -0.30084E+08
 
   -0.30242E+08         0.62619E+04         0.00000E+00
    0.62619E+04        -0.59999E+08         0.00000E+00
    0.00000E+00         0.00000E+00        -0.29994E+08
 
   -0.30218E+08         0.17260E+05         0.00000E+00
    0.17260E+05        -0.59998E+08         0.00000E+00
    0.00000E+00         0.00000E+00        -0.30016E+08
 
   -0.30196E+08         0.26453E+05         0.00000E+00
    0.26453E+05        -0.59995E+08         0.00000E+00
    0.00000E+00         0.00000E+00        -0.30034E+08
 
   -0.30176E+08         0.33988E+05         0.00000E+00
    0.33988E+05        -0.59992E+08         0.00000E+00
    0.00000E+00         0.00000E+00        -0.30049E+08
 
   -0.30158E+08         0.40025E+05         0.00000E+00
    0.40025E+05        -0.59988E+08         0.00000E+00
    0.00000E+00         0.00000E+00        -0.30061E+08
 
   -0.30142E+08         0.44726E+05         0.00000E+00
    0.44726E+05        -0.59983E+08         0.00000E+00
    0.00000E+00         0.00000E+00        -0.30071E+08
 
   -0.30128E+08         0.48254E+05         0.00000E+00
    0.48254E+05        -0.59978E+08         0.00000E+00
    0.00000E+00         0.00000E+00        -0.30079E+08
 
   -0.30115E+08         0.50761E+05         0.00000E+00
    0.50761E+05        -0.59973E+08         0.00000E+00
    0.00000E+00         0.00000E+00        -0.30085E+08
 
   -0.30105E+08         0.52401E+05         0.00000E+00
    0.52401E+05        -0.59968E+08         0.00000E+00
    0.00000E+00         0.00000E+00        -0.30089E+08
 
   -0.30096E+08         0.53309E+05         0.00000E+00
    0.53309E+05        -0.59964E+08         0.00000E+00
    0.00000E+00         0.00000E+00        -0.30091E+08
 
   -0.30090E+08         0.53611E+05         0.00000E+00
    0.53611E+05        -0.59959E+08         0.00000E+00
    0.00000E+00         0.00000E+00        -0.30092E+08
 
   -0.30085E+08         0.53420E+05         0.00000E+00
    0.53420E+05        -0.59955E+08         0.00000E+00
    0.00000E+00         0.00000E+00        -0.30092E+08
 
   -0.30082E+08         0.52849E+05         0.00000E+00
    0.52849E+05        -0.59952E+08         0.00000E+00
    0.00000E+00         0.00000E+00        -0.30091E+08
 
   -0.30081E+08         0.52010E+05         0.00000E+00
    0.52010E+05        -0.59949E+08         0.00000E+00
    0.00000E+00         0.00000E+00        -0.30088E+08
 
   -0.30081E+08         0.51016E+05         0.00000E+00
    0.51016E+05        -0.59946E+08         0.00000E+00
    0.00000E+00         0.00000E+00        -0.30084E+08
 
   -0.30229E+08         0.70652E+04         0.00000E+00
    0.70652E+04        -0.59999E+08         0.00000E+00
    0.00000E+00         0.00000E+00        -0.30006E+08
 
   -0.30207E+08         0.19412E+05         0.00000E+00
    0.19412E+05        -0.59998E+08         0.00000E+00
    0.00000E+00         0.00000E+00        -0.30026E+08
 
   -0.30187E+08         0.29661E+05         0.00000E+00
    0.29661E+05        -0.59995E+08         0.00000E+00
    0.00000E+00         0.00000E+00        -0.30042E+08
 
   -0.30169E+08         0.37986E+05         0.00000E+00
    0.37986E+05        -0.59992E+08         0.00000E+00
    0.00000E+00         0.00000E+00        -0.30056E+08
 
   -0.30152E+08         0.44566E+05         0.00000E+00
    0.44566E+05        -0.59987E+08         0.00000E+00
    0.00000E+00         0.00000E+00        -0.30066E+08
 
   -0.30138E+08         0.49590E+05         0.00000E+00
    0.49590E+05        -0.59982E+08         0.00000E+00
    0.00000E+00         0.00000E+00        -0.30075E+08
 
   -0.30125E+08         0.53245E+05         0.00000E+00
    0.53245E+05        -0.59977E+08         0.00000E+00
    0.00000E+00         0.00000E+00        -0.30081E+08
 
   -0.30113E+08         0.55711E+05         0.00000E+00
    0.55711E+05        -0.59972E+08         0.00000E+00
    0.00000E+00         0.00000E+00        -0.30086E+08
 
   -0.30104E+08         0.57156E+05         0.00000E+00
    0.57156E+05        -0.59968E+08         0.00000E+00
    0.00000E+00         0.00000E+00        -0.30089E+08
 
   -0.30096E+08         0.57748E+05         0.00000E+00
    0.57748E+05        -0.59963E+08         0.00000E+00
    0.00000E+00         0.00000E+00        -0.30091E+08
 
   -0.30090E+08         0.57635E+05         0.00000E+00
    0.57635E+05        -0.59959E+08         0.00000E+00
    0.00000E+00         0.00000E+00        -0.30092E+08
 
   -0.30085E+08         0.56957E+05         0.00000E+00
    0.56957E+05        -0.59955E+08         0.00000E+00
    0.00000E+00         0.00000E+00        -0.30091E+08
 
   -0.30083E+08         0.55851E+05         0.00000E+00
    0.55851E+05        -0.59952E+08         0.00000E+00
    0.00000E+00         0.00000E+00        -0.30090E+08
 
   -0.30082E+08         0.54455E+05         0.00000E+00
    0.54455E+05        -0.59950E+08         0.00000E+00
    0.00000E+00         0.00000E+00        -0.30088E+08
 
   -0.30082E+08         0.52908E+05         0.00000E+00
    0.52908E+05        -0.59948E+08         0.00000E+00
    0.00000E+00         0.00000E+00        -0.30085E+08
 
   -0.30215E+08         0.78889E+04         0.00000E+00
    0.78889E+04        -0.59999E+08         0.00000E+00
    0.00000E+00         0.00000E+00        -0.30020E+08
 
   -0.30195E+08         0.21616E+05         0.00000E+00
    0.21616E+05        -0.59998E+08         0.00000E+00
    0.00000E+00         0.00000E+00        -0.30038E+08
 
   -0.30177E+08         0.32950E+05         0.00000E+00
    0.32950E+05        -0.59995E+08         0.00000E+00
    0.00000E+00         0.00000E+00        -0.30052E+08
 
   -0.30161E+08         0.42081E+05         0.00000E+00
    0.42081E+05        -0.59991E+08         0.00000E+00
    0.00000E+00         0.00000E+00        -0.30063E+08
 
   -0.30146E+08         0.49211E+05         0.00000E+00
    0.49211E+05        -0.59987E+08         0.00000E+00
    0.00000E+00         0.00000E+00        -0.30072E+08
 
   -0.30133E+08         0.54546E+05         0.00000E+00
    0.54546E+05        -0.59982E+08         0.00000E+00
    0.00000E+00         0.00000E+00        -0.30079E+08
 
   -0.30121E+08         0.58296E+05         0.00000E+00
    0.58296E+05        -0.59977E+08         0.00000E+00
    0.00000E+00         0.00000E+00        -0.30084E+08
 
   -0.30111E+08         0.60662E+05         0.00000E+00
    0.60662E+05        -0.59972E+08         0.00000E+00
    0.00000E+00         0.00000E+00        -0.30088E+08
 
   -0.30103E+08         0.61840E+05         0.00000E+00
    0.61840E+05        -0.59967E+08         0.00000E+00
    0.00000E+00         0.00000E+00        -0.30090E+08
 
   -0.30096E+08         0.62017E+05         0.00000E+00
    0.62017E+05        -0.59963E+08         0.00000E+00
    0.00000E+00         0.00000E+00        -0.30091E+08
 
   -0.30090E+08         0.61375E+05         0.00000E+00
    0.61375E+05        -0.59959E+08         0.00000E+00
    0.00000E+00         0.00000E+00        -0.30091E+08
 
   -0.30087E+08         0.60088E+05         0.00000E+00
    0.60088E+05        -0.59956E+08         0.00000E+00
    0.00000E+00         0.00000E+00        -0.30091E+08
 
   -0.30084E+08         0.58322E+05         0.00000E+00
    0.58322E+05        -0.59953E+08         0.00000E+00
    0.00000E+00         0.00000E+00        -0.30090E+08
 
   -0.30084E+08         0.56247E+05         0.00000E+00
    0.56247E+05        -0.59952E+08         0.00000E+00
    0.00000E+00         0.00000E+00        -0.30088E+08
 
   -0.30084E+08         0.54031E+05         0.00000E+00
    0.54031E+05        -0.59951E+08         0.00000E+00
    0.00000E+00         0.00000E+00        -0.30086E+08
 
   -0.30199E+08         0.87155E+04         0.00000E+00
    0.87155E+04        -0.59999E+08         0.00000E+00
    0.00000E+00         0.00000E+00        -0.30036E+08
 
   -0.30182E+08         0.23832E+05         0.00000E+00
    0.23832E+05        -0.59998E+08         0.00000E+00
    0.00000E+00         0.00000E+00        -0.30051E+08
 
   -0.30167E+08         0.36266E+05         0.00000E+00
    0.36266E+05        -0.59995E+08         0.00000E+00
    0.00000E+00         0.00000E+00        -0.30063E+08
 
   -0.30153E+08         0.46220E+05         0.00000E+00
    0.46220E+05        -0.59991E+08         0.00000E+00
    0.00000E+00         0.00000E+00        -0.30072E+08
 
   -0.30140E+08         0.53905E+05         0.00000E+00
    0.53905E+05        -0.59987E+08         0.00000E+00
    0.00000E+00         0.00000E+00        -0.30079E+08
 
   -0.30129E+08         0.59542E+05         0.00000E+00
    0.59542E+05        -0.59982E+08         0.00000E+00
    0.00000E+00         0.00000E+00        -0.30084E+08
 
   -0.30118E+08         0.63354E+05         0.00000E+00
    0.63354E+05        -0.59977E+08         0.00000E+00
    0.00000E+00         0.00000E+00        -0.30087E+08
 
   -0.30110E+08         0.65563E+05         0.00000E+00
    0.65563E+05        -0.59972E+08         0.00000E+00
    0.00000E+00         0.00000E+00        -0.30089E+08
 
   -0.30102E+08         0.66388E+05         0.00000E+00
    0.66388E+05        -0.59967E+08         0.00000E+00
    0.00000E+00         0.00000E+00        -0.30091E+08
 
   -0.30096E+08         0.66046E+05         0.00000E+00
    0.66046E+05        -0.59963E+08         0.00000E+00
    0.00000E+00         0.00000E+00        -0.30091E+08
 
   -0.30092E+08         0.64754E+05         0.00000E+00
    0.64754E+05        -0.59960E+08         0.00000E+00
    0.00000E+00         0.00000E+00        -0.30091E+08
 
   -0.30088E+08         0.62723E+05         0.00000E+00
    0.62723E+05        -0.59957E+08         0.00000E+00
    0.00000E+00         0.00000E+00        -0.30091E+08
 
   -0.30087E+08         0.60165E+05         0.00000E+00
    0.60165E+05        -0.59955E+08         0.00000E+00
    0.00000E+00         0.00000E+00        -0.30090E+08
 
   -0.30086E+08         0.57285E+05         0.00000E+00
    0.57285E+05        -0.59954E+08         0.00000E+00
    0.00000E+00         0.00000E+00        -0.30089E+08
 
   -0.30087E+08         0.54279E+05         0.00000E+00
    0.54279E+05        -0.59954E+08         0.00000E+00
    0.00000E+00         0.00000E+00        -0.30088E+08
 
   -0.30182E+08         0.95246E+04         0.00000E+00
    0.95246E+04        -0.59999E+08         0.00000E+00
    0.00000E+00         0.00000E+00        -0.30053E+08
 
   -0.30168E+08         0.26011E+05         0.00000E+00
    0.26011E+05        -0.59998E+08         0.00000E+00
    0.00000E+00         0.00000E+00        -0.30065E+08
 
   -0.30155E+08         0.39545E+05         0.00000E+00
    0.39545E+05        -0.59995E+08         0.00000E+00
    0.00000E+00         0.00000E+00        -0.30074E+08
 
   -0.30143E+08         0.50331E+05         0.00000E+00
    0.50331E+05        -0.59992E+08         0.00000E+00
    0.00000E+00         0.00000E+00        -0.30081E+08
 
   -0.30133E+08         0.58579E+05         0.00000E+00
    0.58579E+05        -0.59987E+08         0.00000E+00
    0.00000E+00         0.00000E+00        -0.30086E+08
 
   -0.30124E+08         0.64510E+05         0.00000E+00
    0.64510E+05        -0.59982E+08         0.00000E+00
    0.00000E+00         0.00000E+00        -0.30089E+08
 
   -0.30116E+08         0.68353E+05         0.00000E+00
    0.68353E+05        -0.59978E+08         0.00000E+00
    0.00000E+00         0.00000E+00        -0.30091E+08
 
   -0.30108E+08         0.70343E+05         0.00000E+00
    0.70343E+05        -0.59973E+08         0.00000E+00
    0.00000E+00         0.00000E+00        -0.30091E+08
 
   -0.30102E+08         0.70725E+05         0.00000E+00
    0.70725E+05        -0.59968E+08         0.00000E+00
    0.00000E+00         0.00000E+00        -0.30092E+08
 
   -0.30098E+08         0.69749E+05         0.00000E+00
    0.69749E+05        -0.59964E+08         0.00000E+00
    0.00000E+00         0.00000E+00        -0.30091E+08
 
   -0.30094E+08         0.67674E+05         0.00000E+00
    0.67674E+05        -0.59961E+08         0.00000E+00
    0.00000E+00         0.00000E+00        -0.30091E+08
 
   -0.30091E+08         0.64765E+05         0.00000E+00
    0.64765E+05        -0.59959E+08         0.00000E+00
    0.00000E+00         0.00000E+00        -0.30091E+08
 
   -0.30090E+08         0.61277E+05         0.00000E+00
    0.61277E+05        -0.59958E+08         0.00000E+00
    0.00000E+00         0.00000E+00        -0.30091E+08
 
   -0.30089E+08         0.57464E+05         0.00000E+00
    0.57464E+05        -0.59958E+08         0.00000E+00
    0.00000E+00         0.00000E+00        -0.30091E+08
 
   -0.30090E+08         0.53554E+05         0.00000E+00
    0.53554E+05        -0.59959E+08         0.00000E+00
    0.00000E+00         0.00000E+00        -0.30091E+08
 
   -0.30163E+08         0.10294E+05         0.00000E+00
    0.10294E+05        -0.60000E+08         0.00000E+00
    0.00000E+00         0.00000E+00        -0.30072E+08
 
   -0.30152E+08         0.28098E+05         0.00000E+00
    0.28098E+05        -0.59998E+08         0.00000E+00
    0.00000E+00         0.00000E+00        -0.30081E+08
 
   -0.30142E+08         0.42714E+05         0.00000E+00
    0.42714E+05        -0.59996E+08         0.00000E+00
    0.00000E+00         0.00000E+00        -0.30087E+08
 
   -0.30134E+08         0.54332E+05         0.00000E+00
    0.54332E+05        -0.59992E+08         0.00000E+00
    0.00000E+00         0.00000E+00        -0.30092E+08
 
   -0.30126E+08         0.63147E+05         0.00000E+00
    0.63147E+05        -0.59988E+08         0.00000E+00
    0.00000E+00         0.00000E+00        -0.30094E+08
 
   -0.30119E+08         0.69363E+05         0.00000E+00
    0.69363E+05        -0.59983E+08         0.00000E+00
    0.00000E+00         0.00000E+00        -0.30095E+08
 
   -0.30113E+08         0.73203E+05         0.00000E+00
    0.73203E+05        -0.59978E+08         0.00000E+00
    0.00000E+00         0.00000E+00        -0.30095E+08
 
   -0.30107E+08         0.74909E+05         0.00000E+00
    0.74909E+05        -0.59974E+08         0.00000E+00
    0.00000E+00         0.00000E+00        -0.30094E+08
 
   -0.30103E+08         0.74748E+05         0.00000E+00
    0.74748E+05        -0.59970E+08         0.00000E+00
    0.00000E+00         0.00000E+00        -0.30093E+08
 
   -0.30099E+08         0.73015E+05         0.00000E+00
    0.73015E+05        -0.59966E+08         0.00000E+00
    0.00000E+00         0.00000E+00        -0.30092E+08
 
   -0.30097E+08         0.70022E+05         0.00000E+00
    0.70022E+05        -0.59964E+08         0.00000E+00
    0.00000E+00         0.00000E+00        -0.30091E+08
 
   -0.30095E+08         0.66093E+05         0.00000E+00
    0.66093E+05        -0.59962E+08         0.00000E+00
    0.00000E+00         0.00000E+00        -0.30091E+08
 
   -0.30094E+08         0.61552E+05         0.00000E+00
    0.61552E+05        -0.59962E+08         0.00000E+00
    0.00000E+00         0.00000E+00        -0.30092E+08
 
   -0.30094E+08         0.56688E+05         0.00000E+00
    0.56688E+05        -0.59963E+08         0.00000E+00
    0.00000E+00         0.00000E+00        -0.30093E+08
 
   -0.30095E+08         0.51769E+05         0.00000E+00
    0.51769E+05        -0.59965E+08         0.00000E+00
    0.00000E+00         0.00000E+00        -0.30094E+08
 
   -0.30143E+08         0.11004E+05         0.00000E+00
    0.11004E+05        -0.60000E+08         0.00000E+00
    0.00000E+00         0.00000E+00        -0.30092E+08
 
   -0.30135E+08         0.30041E+05         0.00000E+00
    0.30041E+05        -0.59998E+08         0.00000E+00
    0.00000E+00         0.00000E+00        -0.30098E+08
 
   -0.30129E+08         0.45697E+05         0.00000E+00
    0.45697E+05        -0.59996E+08         0.00000E+00
    0.00000E+00         0.00000E+00        -0.30101E+08
 
   -0.30123E+08         0.58129E+05         0.00000E+00
    0.58129E+05        -0.59993E+08         0.00000E+00
    0.00000E+00         0.00000E+00        -0.30103E+08
 
   -0.30118E+08         0.67501E+05         0.00000E+00
    0.67501E+05        -0.59989E+08         0.00000E+00
    0.00000E+00         0.00000E+00        -0.30103E+08
 
   -0.30114E+08         0.73986E+05         0.00000E+00
    0.73986E+05        -0.59984E+08         0.00000E+00
    0.00000E+00         0.00000E+00        -0.30101E+08
 
   -0.30110E+08         0.77782E+05         0.00000E+00
    0.77782E+05        -0.59980E+08         0.00000E+00
    0.00000E+00         0.00000E+00        -0.30099E+08
 
   -0.30107E+08         0.79130E+05         0.00000E+00
    0.79130E+05        -0.59976E+08         0.00000E+00
    0.00000E+00         0.00000E+00        -0.30097E+08
 
   -0.30104E+08         0.78324E+05         0.00000E+00
    0.78324E+05        -0.59972E+08         0.00000E+00
    0.00000E+00         0.00000E+00        -0.30095E+08
 
   -0.30102E+08         0.75707E+05         0.00000E+00
    0.75707E+05        -0.59969E+08         0.00000E+00
    0.00000E+00         0.00000E+00        -0.30093E+08
 
   -0.30101E+08         0.71663E+05         0.00000E+00
    0.71663E+05        -0.59967E+08         0.00000E+00
    0.00000E+00         0.00000E+00        -0.30092E+08
 
   -0.30100E+08         0.66594E+05         0.00000E+00
    0.66594E+05        -0.59967E+08         0.00000E+00
    0.00000E+00         0.00000E+00        -0.30092E+08
 
   -0.30099E+08         0.60885E+05         0.00000E+00
    0.60885E+05        -0.59967E+08         0.00000E+00
    0.00000E+00         0.00000E+00        -0.30093E+08
 
   -0.30099E+08         0.54885E+05         0.00000E+00
    0.54885E+05        -0.59969E+08         0.00000E+00
    0.00000E+00         0.00000E+00        -0.30096E+08
 
   -0.30100E+08         0.48866E+05         0.00000E+00
    0.48866E+05        -0.59972E+08         0.00000E+00
    0.00000E+00         0.00000E+00        -0.30099E+08
 
   -0.30122E+08         0.11637E+05         0.00000E+00
    0.11637E+05        -0.60000E+08         0.00000E+00
    0.00000E+00         0.00000E+00        -0.30113E+08
 
   -0.30117E+08         0.31793E+05         0.00000E+00
    0.31793E+05        -0.59999E+08         0.00000E+00
    0.00000E+00         0.00000E+00        -0.30116E+08
 
   -0.30114E+08         0.48414E+05         0.00000E+00
    0.48414E+05        -0.59996E+08         0.00000E+00
    0.00000E+00         0.00000E+00        -0.30117E+08
 
   -0.30112E+08         0.61615E+05         0.00000E+00
    0.61615E+05        -0.59993E+08         0.00000E+00
    0.00000E+00         0.00000E+00        -0.30115E+08
 
   -0.30110E+08         0.71511E+05         0.00000E+00
    0.71511E+05        -0.59990E+08         0.00000E+00
    0.00000E+00         0.00000E+00        -0.30113E+08
 
   -0.30109E+08         0.78228E+05         0.00000E+00
    0.78228E+05        -0.59986E+08         0.00000E+00
    0.00000E+00         0.00000E+00        -0.30109E+08
 
   -0.30108E+08         0.81925E+05         0.00000E+00
    0.81925E+05        -0.59982E+08         0.00000E+00
    0.00000E+00         0.00000E+00        -0.30105E+08
 
   -0.30107E+08         0.82835E+05         0.00000E+00
    0.82835E+05        -0.59978E+08         0.00000E+00
    0.00000E+00         0.00000E+00        -0.30100E+08
 
   -0.30107E+08         0.81276E+05         0.00000E+00
    0.81276E+05        -0.59975E+08         0.00000E+00
    0.00000E+00         0.00000E+00        -0.30097E+08
 
   -0.30106E+08         0.77659E+05         0.00000E+00
    0.77659E+05        -0.59973E+08         0.00000E+00
    0.00000E+00         0.00000E+00        -0.30095E+08
 
   -0.30106E+08         0.72453E+05         0.00000E+00
    0.72453E+05        -0.59972E+08         0.00000E+00
    0.00000E+00         0.00000E+00        -0.30094E+08
 
   -0.30106E+08         0.66148E+05         0.00000E+00
    0.66148E+05        -0.59973E+08         0.00000E+00
    0.00000E+00         0.00000E+00        -0.30094E+08
 
   -0.30106E+08         0.59201E+05         0.00000E+00
    0.59201E+05        -0.59974E+08         0.00000E+00
    0.00000E+00         0.00000E+00        -0.30096E+08
 
   -0.30106E+08         0.52000E+05         0.00000E+00
    0.52000E+05        -0.59977E+08         0.00000E+00
    0.00000E+00         0.00000E+00        -0.30100E+08
 
   -0.30107E+08         0.44829E+05         0.00000E+00
    0.44829E+05        -0.59981E+08         0.00000E+00
    0.00000E+00         0.00000E+00        -0.30104E+08
 
   -0.30099E+08         0.12187E+05         0.00000E+00
    0.12187E+05        -0.60000E+08         0.00000E+00
    0.00000E+00         0.00000E+00        -0.30136E+08
 
   -0.30099E+08         0.33314E+05         0.00000E+00
    0.33314E+05        -0.59999E+08         0.00000E+00
    0.00000E+00         0.00000E+00        -0.30135E+08
 
   -0.30099E+08         0.50788E+05         0.00000E+00
    0.50788E+05        -0.59997E+08         0.00000E+00
    0.00000E+00         0.00000E+00        -0.30133E+08
 
   -0.30100E+08         0.64671E+05         0.00000E+00
    0.64671E+05        -0.59994E+08         0.00000E+00
    0.00000E+00         0.00000E+00        -0.30128E+08
 
   -0.30101E+08         0.75016E+05         0.00000E+00
    0.75016E+05        -0.59991E+08         0.00000E+00
    0.00000E+00         0.00000E+00        -0.30123E+08
 
   -0.30103E+08         0.81891E+05         0.00000E+00
    0.81891E+05        -0.59988E+08         0.00000E+00
    0.00000E+00         0.00000E+00        -0.30117E+08
 
   -0.30105E+08         0.85409E+05         0.00000E+00
    0.85409E+05        -0.59985E+08         0.00000E+00
    0.00000E+00         0.00000E+00        -0.30111E+08
 
   -0.30108E+08         0.85788E+05         0.00000E+00
    0.85788E+05        -0.59982E+08         0.00000E+00
    0.00000E+00         0.00000E+00        -0.30105E+08
 
   -0.30110E+08         0.83383E+05         0.00000E+00
    0.83383E+05        -0.59980E+08         0.00000E+00
    0.00000E+00         0.00000E+00        -0.30100E+08
 
   -0.30111E+08         0.78680E+05         0.00000E+00
    0.78680E+05        -0.59979E+08         0.00000E+00
    0.00000E+00         0.00000E+00        -0.30097E+08
 
   -0.30112E+08         0.72247E+05         0.00000E+00
    0.72247E+05        -0.59979E+08         0.00000E+00
    0.00000E+00         0.00000E+00        -0.30096E+08
 
   -0.30113E+08         0.64664E+05         0.00000E+00
    0.64664E+05        -0.59981E+08         0.00000E+00
    0.00000E+00         0.00000E+00        -0.30097E+08
 
   -0.30113E+08         0.56456E+05         0.00000E+00
    0.56456E+05        -0.59983E+08         0.00000E+00
    0.00000E+00         0.00000E+00        -0.30100E+08
 
   -0.30114E+08         0.48038E+05         0.00000E+00
    0.48038E+05        -0.59987E+08         0.00000E+00
    0.00000E+00         0.00000E+00        -0.30105E+08
 
   -0.30114E+08         0.39698E+05         0.00000E+00
    0.39698E+05        -0.59992E+08         0.00000E+00
    0.00000E+00         0.00000E+00        -0.30111E+08
 
   -0.30076E+08         0.12656E+05         0.00000E+00
    0.12656E+05        -0.60000E+08         0.00000E+00
    0.00000E+00         0.00000E+00        -0.30160E+08
 
   -0.30079E+08         0.34579E+05         0.00000E+00
    0.34579E+05        -0.59999E+08         0.00000E+00
    0.00000E+00         0.00000E+00        -0.30155E+08
 
   -0.30083E+08         0.52745E+05         0.00000E+00
    0.52745E+05        -0.59998E+08         0.00000E+00
    0.00000E+00         0.00000E+00        -0.30149E+08
 
   -0.30088E+08         0.67166E+05         0.00000E+00
    0.67166E+05        -0.59996E+08         0.00000E+00
    0.00000E+00         0.00000E+00        -0.30142E+08
 
   -0.30093E+08         0.77820E+05         0.00000E+00
    0.77820E+05        -0.59993E+08         0.00000E+00
    0.00000E+00         0.00000E+00        -0.30134E+08
 
   -0.30098E+08         0.84715E+05         0.00000E+00
    0.84715E+05        -0.59991E+08         0.00000E+00
    0.00000E+00         0.00000E+00        -0.30126E+08
 
   -0.30104E+08         0.87929E+05         0.00000E+00
    0.87929E+05        -0.59989E+08         0.00000E+00
    0.00000E+00         0.00000E+00        -0.30117E+08
 
   -0.30109E+08         0.87682E+05         0.00000E+00
    0.87682E+05        -0.59987E+08         0.00000E+00
    0.00000E+00         0.00000E+00        -0.30110E+08
 
   -0.30114E+08         0.84373E+05         0.00000E+00
    0.84373E+05        -0.59986E+08         0.00000E+00
    0.00000E+00         0.00000E+00        -0.30104E+08
 
   -0.30117E+08         0.78566E+05         0.00000E+00
    0.78566E+05        -0.59987E+08         0.00000E+00
    0.00000E+00         0.00000E+00        -0.30101E+08
 
   -0.30120E+08         0.70919E+05         0.00000E+00
    0.70919E+05        -0.59988E+08         0.00000E+00
    0.00000E+00         0.00000E+00        -0.30100E+08
 
   -0.30122E+08         0.62093E+05         0.00000E+00
    0.62093E+05        -0.59991E+08         0.00000E+00
    0.00000E+00         0.00000E+00        -0.30101E+08
 
   -0.30122E+08         0.52661E+05         0.00000E+00
    0.52661E+05        -0.59994E+08         0.00000E+00
    0.00000E+00         0.00000E+00        -0.30106E+08
 
   -0.30123E+08         0.43063E+05         0.00000E+00
    0.43063E+05        -0.59999E+08         0.00000E+00
    0.00000E+00         0.00000E+00        -0.30112E+08
 
   -0.30123E+08         0.33574E+05         0.00000E+00
    0.33574E+05        -0.60005E+08         0.00000E+00
    0.00000E+00         0.00000E+00        -0.30119E+08
 
   -0.30052E+08         0.13030E+05         0.00000E+00
    0.13030E+05        -0.60000E+08         0.00000E+00
    0.00000E+00         0.00000E+00        -0.30184E+08
 
   -0.30059E+08         0.35578E+05         0.00000E+00
    0.35578E+05        -0.59999E+08         0.00000E+00
    0.00000E+00         0.00000E+00        -0.30176E+08
 
   -0.30066E+08         0.54235E+05         0.00000E+00
    0.54235E+05        -0.59998E+08         0.00000E+00
    0.00000E+00         0.00000E+00        -0.30167E+08
 
   -0.30075E+08         0.68953E+05         0.00000E+00
    0.68953E+05        -0.59997E+08         0.00000E+00
    0.00000E+00         0.00000E+00        -0.30157E+08
 
   -0.30084E+08         0.79679E+05         0.00000E+00
    0.79679E+05        -0.59995E+08         0.00000E+00
    0.00000E+00         0.00000E+00        -0.30146E+08
 
   -0.30093E+08         0.86361E+05         0.00000E+00
    0.86361E+05        -0.59994E+08         0.00000E+00
    0.00000E+00         0.00000E+00        -0.30135E+08
 
   -0.30102E+08         0.89089E+05         0.00000E+00
    0.89089E+05        -0.59994E+08         0.00000E+00
    0.00000E+00         0.00000E+00        -0.30125E+08
 
   -0.30111E+08         0.88127E+05         0.00000E+00
    0.88127E+05        -0.59994E+08         0.00000E+00
    0.00000E+00         0.00000E+00        -0.30117E+08
 
   -0.30119E+08         0.83933E+05         0.00000E+00
    0.83933E+05        -0.59995E+08         0.00000E+00
    0.00000E+00         0.00000E+00        -0.30110E+08
 
   -0.30125E+08         0.77122E+05         0.00000E+00
    0.77122E+05        -0.59996E+08         0.00000E+00
    0.00000E+00         0.00000E+00        -0.30106E+08
 
   -0.30129E+08         0.68396E+05         0.00000E+00
    0.68396E+05        -0.59999E+08         0.00000E+00
    0.00000E+00         0.00000E+00        -0.30105E+08
 
   -0.30131E+08         0.58455E+05         0.00000E+00
    0.58455E+05        -0.60003E+08         0.00000E+00
    0.00000E+00         0.00000E+00        -0.30108E+08
 
   -0.30133E+08         0.47909E+05         0.00000E+00
    0.47909E+05        -0.60007E+08         0.00000E+00
    0.00000E+00         0.00000E+00        -0.30113E+08
 
   -0.30133E+08         0.37210E+05         0.00000E+00
    0.37210E+05        -0.60013E+08         0.00000E+00
    0.00000E+00         0.00000E+00        -0.30120E+08
 
   -0.30133E+08         0.26625E+05         0.00000E+00
    0.26625E+05        -0.60020E+08         0.00000E+00
    0.00000E+00         0.00000E+00        -0.30128E+08
 
   -0.30027E+08         0.13312E+05         0.00000E+00
    0.13312E+05        -0.60000E+08         0.00000E+00
    0.00000E+00         0.00000E+00        -0.30209E+08
 
   -0.30038E+08         0.36268E+05         0.00000E+00
    0.36268E+05        -0.60000E+08         0.00000E+00
    0.00000E+00         0.00000E+00        -0.30198E+08
 
   -0.30050E+08         0.55173E+05         0.00000E+00
    0.55173E+05        -0.59999E+08         0.00000E+00
    0.00000E+00         0.00000E+00        -0.30185E+08
 
   -0.30062E+08         0.69884E+05         0.00000E+00
    0.69884E+05        -0.59998E+08         0.00000E+00
    0.00000E+00         0.00000E+00        -0.30172E+08
 
   -0.30075E+08         0.80286E+05         0.00000E+00
    0.80286E+05        -0.59998E+08         0.00000E+00
    0.00000E+00         0.00000E+00        -0.30158E+08
 
   -0.30089E+08         0.86400E+05         0.00000E+00
    0.86400E+05        -0.59999E+08         0.00000E+00
    0.00000E+00         0.00000E+00        -0.30146E+08
 
   -0.30102E+08         0.88397E+05         0.00000E+00
    0.88397E+05        -0.60000E+08         0.00000E+00
    0.00000E+00         0.00000E+00        -0.30134E+08
 
   -0.30114E+08         0.86669E+05         0.00000E+00
    0.86669E+05        -0.60002E+08         0.00000E+00
    0.00000E+00         0.00000E+00        -0.30125E+08
 
   -0.30125E+08         0.81736E+05         0.00000E+00
    0.81736E+05        -0.60005E+08         0.00000E+00
    0.00000E+00         0.00000E+00        -0.30118E+08
 
   -0.30133E+08         0.74189E+05         0.00000E+00
    0.74189E+05        -0.60009E+08         0.00000E+00
    0.00000E+00         0.00000E+00        -0.30114E+08
 
   -0.30139E+08         0.64672E+05         0.00000E+00
    0.64672E+05        -0.60013E+08         0.00000E+00
    0.00000E+00         0.00000E+00        -0.30114E+08
 
   -0.30142E+08         0.53859E+05         0.00000E+00
    0.53859E+05        -0.60017E+08         0.00000E+00
    0.00000E+00         0.00000E+00        -0.30116E+08
 
   -0.30144E+08         0.42372E+05         0.00000E+00
    0.42372E+05        -0.60023E+08         0.00000E+00
    0.00000E+00         0.00000E+00        -0.30122E+08
 
   -0.30144E+08         0.30692E+05         0.00000E+00
    0.30692E+05        -0.60029E+08         0.00000E+00
    0.00000E+00         0.00000E+00        -0.30130E+08
 
   -0.30144E+08         0.19096E+05         0.00000E+00
    0.19096E+05        -0.60036E+08         0.00000E+00
    0.00000E+00         0.00000E+00        -0.30139E+08
 
   -0.30002E+08         0.13504E+05         0.00000E+00
    0.13504E+05        -0.60000E+08         0.00000E+00
    0.00000E+00         0.00000E+00        -0.30235E+08
 
   -0.30017E+08         0.36617E+05         0.00000E+00
    0.36617E+05        -0.60000E+08         0.00000E+00
    0.00000E+00         0.00000E+00        -0.30219E+08
 
   -0.30033E+08         0.55427E+05         0.00000E+00
    0.55427E+05        -0.60000E+08         0.00000E+00
    0.00000E+00         0.00000E+00        -0.30203E+08
 
   -0.30050E+08         0.69683E+05         0.00000E+00
    0.69683E+05        -0.60000E+08         0.00000E+00
    0.00000E+00         0.00000E+00        -0.30187E+08
 
   -0.30067E+08         0.79260E+05         0.00000E+00
    0.79260E+05        -0.60002E+08         0.00000E+00
    0.00000E+00         0.00000E+00        -0.30171E+08
 
   -0.30085E+08         0.84310E+05         0.00000E+00
    0.84310E+05        -0.60004E+08         0.00000E+00
    0.00000E+00         0.00000E+00        -0.30157E+08
 
   -0.30102E+08         0.85314E+05         0.00000E+00
    0.85314E+05        -0.60008E+08         0.00000E+00
    0.00000E+00         0.00000E+00        -0.30145E+08
 
   -0.30118E+08         0.82855E+05         0.00000E+00
    0.82855E+05        -0.60013E+08         0.00000E+00
    0.00000E+00         0.00000E+00        -0.30135E+08
 
   -0.30131E+08         0.77485E+05         0.00000E+00
    0.77485E+05        -0.60018E+08         0.00000E+00
    0.00000E+00         0.00000E+00        -0.30129E+08
 
   -0.30142E+08         0.69658E+05         0.00000E+00
    0.69658E+05        -0.60024E+08         0.00000E+00
    0.00000E+00         0.00000E+00        -0.30125E+08
 
   -0.30149E+08         0.59818E+05         0.00000E+00
    0.59818E+05        -0.60029E+08         0.00000E+00
    0.00000E+00         0.00000E+00        -0.30125E+08
 
   -0.30154E+08         0.48499E+05         0.00000E+00
    0.48499E+05        -0.60035E+08         0.00000E+00
    0.00000E+00         0.00000E+00        -0.30127E+08
 
   -0.30156E+08         0.36312E+05         0.00000E+00
    0.36312E+05        -0.60040E+08         0.00000E+00
    0.00000E+00         0.00000E+00        -0.30133E+08
 
   -0.30156E+08         0.23800E+05         0.00000E+00
    0.23800E+05        -0.60047E+08         0.00000E+00
    0.00000E+00         0.00000E+00        -0.30141E+08
 
   -0.30156E+08         0.11293E+05         0.00000E+00
    0.11293E+05        -0.60054E+08         0.00000E+00
    0.00000E+00         0.00000E+00        -0.30151E+08
 
   -0.29977E+08         0.13606E+05         0.00000E+00
    0.13606E+05        -0.60000E+08         0.00000E+00
    0.00000E+00         0.00000E+00        -0.30260E+08
 
   -0.29996E+08         0.36560E+05         0.00000E+00
    0.36560E+05        -0.60000E+08         0.00000E+00
    0.00000E+00         0.00000E+00        -0.30241E+08
 
   -0.30017E+08         0.54783E+05         0.00000E+00
    0.54783E+05        -0.60001E+08         0.00000E+00
    0.00000E+00         0.00000E+00        -0.30221E+08
 
   -0.30038E+08         0.67923E+05         0.00000E+00
    0.67923E+05        -0.60003E+08         0.00000E+00
    0.00000E+00         0.00000E+00        -0.30201E+08
 
   -0.30061E+08         0.75992E+05         0.00000E+00
    0.75992E+05        -0.60007E+08         0.00000E+00
    0.00000E+00         0.00000E+00        -0.30184E+08
 
   -0.30083E+08         0.79528E+05         0.00000E+00
    0.79528E+05        -0.60012E+08         0.00000E+00
    0.00000E+00         0.00000E+00        -0.30169E+08
 
   -0.30103E+08         0.79384E+05         0.00000E+00
    0.79384E+05        -0.60019E+08         0.00000E+00
    0.00000E+00         0.00000E+00        -0.30158E+08
 
   -0.30122E+08         0.76365E+05         0.00000E+00
    0.76365E+05        -0.60027E+08         0.00000E+00
    0.00000E+00         0.00000E+00        -0.30149E+08
 
   -0.30138E+08         0.70978E+05         0.00000E+00
    0.70978E+05        -0.60034E+08         0.00000E+00
    0.00000E+00         0.00000E+00        -0.30143E+08
 
   -0.30150E+08         0.63455E+05         0.00000E+00
    0.63455E+05        -0.60042E+08         0.00000E+00
    0.00000E+00         0.00000E+00        -0.30140E+08
 
   -0.30160E+08         0.53924E+05         0.00000E+00
    0.53924E+05        -0.60048E+08         0.00000E+00
    0.00000E+00         0.00000E+00        -0.30140E+08
 
   -0.30166E+08         0.42626E+05         0.00000E+00
    0.42626E+05        -0.60055E+08         0.00000E+00
    0.00000E+00         0.00000E+00        -0.30142E+08
 
   -0.30168E+08         0.30075E+05         0.00000E+00
    0.30075E+05        -0.60061E+08         0.00000E+00
    0.00000E+00         0.00000E+00        -0.30147E+08
 
   -0.30169E+08         0.16910E+05         0.00000E+00
    0.16910E+05        -0.60067E+08         0.00000E+00
    0.00000E+00         0.00000E+00        -0.30155E+08
 
   -0.30169E+08         0.36031E+04         0.00000E+00
    0.36031E+04        -0.60074E+08         0.00000E+00
    0.00000E+00         0.00000E+00        -0.30164E+08
 
   -0.29952E+08         0.13610E+05         0.00000E+00
    0.13610E+05        -0.60000E+08         0.00000E+00
    0.00000E+00         0.00000E+00        -0.30286E+08
 
   -0.29976E+08         0.35954E+05         0.00000E+00
    0.35954E+05        -0.60001E+08         0.00000E+00
    0.00000E+00         0.00000E+00        -0.30262E+08
 
   -0.30002E+08         0.52826E+05         0.00000E+00
    0.52826E+05        -0.60002E+08         0.00000E+00
    0.00000E+00         0.00000E+00        -0.30238E+08
 
   -0.30029E+08         0.63903E+05         0.00000E+00
    0.63903E+05        -0.60007E+08         0.00000E+00
    0.00000E+00         0.00000E+00        -0.30216E+08
 
   -0.30056E+08         0.69726E+05         0.00000E+00
    0.69726E+05        -0.60014E+08         0.00000E+00
    0.00000E+00         0.00000E+00        -0.30198E+08
 
   -0.30082E+08         0.71500E+05         0.00000E+00
    0.71500E+05        -0.60022E+08         0.00000E+00
    0.00000E+00         0.00000E+00        -0.30184E+08
 
   -0.30105E+08         0.70391E+05         0.00000E+00
    0.70391E+05        -0.60033E+08         0.00000E+00
    0.00000E+00         0.00000E+00        -0.30173E+08
 
   -0.30126E+08         0.67154E+05         0.00000E+00
    0.67154E+05        -0.60043E+08         0.00000E+00
    0.00000E+00         0.00000E+00        -0.30166E+08
 
   -0.30144E+08         0.62170E+05         0.00000E+00
    0.62170E+05        -0.60053E+08         0.00000E+00
    0.00000E+00         0.00000E+00        -0.30162E+08
 
   -0.30158E+08         0.55512E+05         0.00000E+00
    0.55512E+05        -0.60063E+08         0.00000E+00
    0.00000E+00         0.00000E+00        -0.30160E+08
 
   -0.30170E+08         0.47004E+05         0.00000E+00
    0.47004E+05        -0.60071E+08         0.00000E+00
    0.00000E+00         0.00000E+00        -0.30159E+08
 
   -0.30177E+08         0.36467E+05         0.00000E+00
    0.36467E+05        -0.60078E+08         0.00000E+00
    0.00000E+00         0.00000E+00        -0.30160E+08
 
   -0.30181E+08         0.24070E+05         0.00000E+00
    0.24070E+05        -0.60083E+08         0.00000E+00
    0.00000E+00         0.00000E+00        -0.30164E+08
 
   -0.30183E+08         0.10502E+05         0.00000E+00
    0.10502E+05        -0.60089E+08         0.00000E+00
    0.00000E+00         0.00000E+00        -0.30170E+08
 
   -0.30183E+08        -0.34970E+04         0.00000E+00
   -0.34970E+04        -0.60096E+08         0.00000E+00
    0.00000E+00         0.00000E+00        -0.30178E+08
 
   -0.29927E+08         0.13487E+05         0.00000E+00
    0.13487E+05        -0.60000E+08         0.00000E+00
    0.00000E+00         0.00000E+00        -0.30311E+08
 
   -0.29957E+08         0.34455E+05         0.00000E+00
    0.34455E+05        -0.60001E+08         0.00000E+00
    0.00000E+00         0.00000E+00        -0.30282E+08
 
   -0.29989E+08         0.48709E+05         0.00000E+00
    0.48709E+05        -0.60005E+08         0.00000E+00
    0.00000E+00         0.00000E+00        -0.30255E+08
 
   -0.30022E+08         0.56564E+05         0.00000E+00
    0.56564E+05        -0.60013E+08         0.00000E+00
    0.00000E+00         0.00000E+00        -0.30232E+08
 
   -0.30053E+08         0.59761E+05         0.00000E+00
    0.59761E+05        -0.60024E+08         0.00000E+00
    0.00000E+00         0.00000E+00        -0.30214E+08
 
   -0.30082E+08         0.60042E+05         0.00000E+00
    0.60042E+05        -0.60036E+08         0.00000E+00
    0.00000E+00         0.00000E+00        -0.30202E+08
 
   -0.30108E+08         0.58431E+05         0.00000E+00
    0.58431E+05        -0.60050E+08         0.00000E+00
    0.00000E+00         0.00000E+00        -0.30193E+08
 
   -0.30130E+08         0.55428E+05         0.00000E+00
    0.55428E+05        -0.60063E+08         0.00000E+00
    0.00000E+00         0.00000E+00        -0.30188E+08
 
   -0.30149E+08         0.51228E+05         0.00000E+00
    0.51228E+05        -0.60075E+08         0.00000E+00
    0.00000E+00         0.00000E+00        -0.30185E+08
 
   -0.30165E+08         0.45802E+05         0.00000E+00
    0.45802E+05        -0.60086E+08         0.00000E+00
    0.00000E+00         0.00000E+00        -0.30183E+08
 
   -0.30178E+08         0.38906E+05         0.00000E+00
    0.38906E+05        -0.60096E+08         0.00000E+00
    0.00000E+00         0.00000E+00        -0.30183E+08
 
   -0.30188E+08         0.30033E+05         0.00000E+00
    0.30033E+05        -0.60103E+08         0.00000E+00
    0.00000E+00         0.00000E+00        -0.30183E+08
 
   -0.30194E+08         0.18698E+05         0.00000E+00
    0.18698E+05        -0.60109E+08         0.00000E+00
    0.00000E+00         0.00000E+00        -0.30185E+08
 
   -0.30196E+08         0.51865E+04         0.00000E+00
    0.51865E+04        -0.60114E+08         0.00000E+00
    0.00000E+00         0.00000E+00        -0.30189E+08
 
   -0.30197E+08        -0.93884E+04         0.00000E+00
   -0.93884E+04        -0.60119E+08         0.00000E+00
    0.00000E+00         0.00000E+00        -0.30194E+08
 
   -0.29904E+08         0.13128E+05         0.00000E+00
    0.13128E+05        -0.60000E+08         0.00000E+00
    0.00000E+00         0.00000E+00        -0.30335E+08
 
   -0.29941E+08         0.31133E+05         0.00000E+00
    0.31133E+05        -0.60003E+08         0.00000E+00
    0.00000E+00         0.00000E+00        -0.30301E+08
 
   -0.29980E+08         0.40846E+05         0.00000E+00
    0.40846E+05        -0.60011E+08         0.00000E+00
    0.00000E+00         0.00000E+00        -0.30272E+08
 
   -0.30018E+08         0.44860E+05         0.00000E+00
    0.44860E+05        -0.60023E+08         0.00000E+00
    0.00000E+00         0.00000E+00        -0.30249E+08
 
   -0.30052E+08         0.45977E+05         0.00000E+00
    0.45977E+05        -0.60038E+08         0.00000E+00
    0.00000E+00         0.00000E+00        -0.30234E+08
 
   -0.30083E+08         0.45482E+05         0.00000E+00
    0.45482E+05        -0.60054E+08         0.00000E+00
    0.00000E+00         0.00000E+00        -0.30224E+08
 
   -0.30110E+08         0.43927E+05         0.00000E+00
    0.43927E+05        -0.60070E+08         0.00000E+00
    0.00000E+00         0.00000E+00        -0.30217E+08
 
   -0.30133E+08         0.41545E+05         0.00000E+00
    0.41545E+05        -0.60085E+08         0.00000E+00
    0.00000E+00         0.00000E+00        -0.30214E+08
 
   -0.30153E+08         0.38403E+05         0.00000E+00
    0.38403E+05        -0.60099E+08         0.00000E+00
    0.00000E+00         0.00000E+00        -0.30212E+08
 
   -0.30171E+08         0.34437E+05         0.00000E+00
    0.34437E+05        -0.60112E+08         0.00000E+00
    0.00000E+00         0.00000E+00        -0.30212E+08
 
   -0.30185E+08         0.29434E+05         0.00000E+00
    0.29434E+05        -0.60123E+08         0.00000E+00
    0.00000E+00         0.00000E+00        -0.30212E+08
 
   -0.30197E+08         0.22928E+05         0.00000E+00
    0.22928E+05        -0.60132E+08         0.00000E+00
    0.00000E+00         0.00000E+00        -0.30212E+08
 
   -0.30205E+08         0.14029E+05         0.00000E+00
    0.14029E+05        -0.60138E+08         0.00000E+00
    0.00000E+00         0.00000E+00        -0.30211E+08
 
   -0.30210E+08         0.17398E+04         0.00000E+00
    0.17398E+04        -0.60141E+08         0.00000E+00
    0.00000E+00         0.00000E+00        -0.30211E+08
 
   -0.30212E+08        -0.13154E+05         0.00000E+00
   -0.13154E+05        -0.60143E+08         0.00000E+00
    0.00000E+00         0.00000E+00        -0.30212E+08
 
   -0.29883E+08         0.11911E+05         0.00000E+00
    0.11911E+05        -0.60001E+08         0.00000E+00
    0.00000E+00         0.00000E+00        -0.30358E+08
 
   -0.29930E+08         0.23538E+05         0.00000E+00
    0.23538E+05        -0.60008E+08         0.00000E+00
    0.00000E+00         0.00000E+00        -0.30320E+08
 
   -0.29975E+08         0.27512E+05         0.00000E+00
    0.27512E+05        -0.60022E+08         0.00000E+00
    0.00000E+00         0.00000E+00        -0.30291E+08
 
   -0.30016E+08         0.28887E+05         0.00000E+00
    0.28887E+05        -0.60039E+08         0.00000E+00
    0.00000E+00         0.00000E+00        -0.30271E+08
 
   -0.30053E+08         0.29054E+05         0.00000E+00
    0.29054E+05        -0.60057E+08         0.00000E+00
    0.00000E+00         0.00000E+00        -0.30258E+08
 
   -0.30084E+08         0.28492E+05         0.00000E+00
    0.28492E+05        -0.60075E+08         0.00000E+00
    0.00000E+00         0.00000E+00        -0.30250E+08
 
   -0.30112E+08         0.27409E+05         0.00000E+00
    0.27409E+05        -0.60092E+08         0.00000E+00
    0.00000E+00         0.00000E+00        -0.30246E+08
 
   -0.30135E+08         0.25899E+05         0.00000E+00
    0.25899E+05        -0.60109E+08         0.00000E+00
    0.00000E+00         0.00000E+00        -0.30244E+08
 
   -0.30156E+08         0.23977E+05         0.00000E+00
    0.23977E+05        -0.60125E+08         0.00000E+00
    0.00000E+00         0.00000E+00        -0.30244E+08
 
   -0.30174E+08         0.21584E+05         0.00000E+00
    0.21584E+05        -0.60139E+08         0.00000E+00
    0.00000E+00         0.00000E+00        -0.30245E+08
 
   -0.30190E+08         0.18576E+05         0.00000E+00
    0.18576E+05        -0.60152E+08         0.00000E+00
    0.00000E+00         0.00000E+00        -0.30245E+08
 
   -0.30203E+08         0.14664E+05         0.00000E+00
    0.14664E+05        -0.60162E+08         0.00000E+00
    0.00000E+00         0.00000E+00        -0.30245E+08
 
   -0.30214E+08         0.92096E+04         0.00000E+00
    0.92096E+04        -0.60169E+08         0.00000E+00
    0.00000E+00         0.00000E+00        -0.30243E+08
 
   -0.30222E+08         0.70341E+03         0.00000E+00
    0.70341E+03        -0.60171E+08         0.00000E+00
    0.00000E+00         0.00000E+00        -0.30238E+08
 
   -0.30227E+08        -0.13308E+05         0.00000E+00
   -0.13308E+05        -0.60171E+08         0.00000E+00
    0.00000E+00         0.00000E+00        -0.30232E+08
 
   -0.29870E+08         0.60890E+04         0.00000E+00
    0.60890E+04        -0.60008E+08         0.00000E+00
    0.00000E+00         0.00000E+00        -0.30381E+08
 
   -0.29925E+08         0.85376E+04         0.00000E+00
    0.85376E+04        -0.60022E+08         0.00000E+00
    0.00000E+00         0.00000E+00        -0.30342E+08
 
   -0.29974E+08         0.96167E+04         0.00000E+00
    0.96167E+04        -0.60040E+08         0.00000E+00
    0.00000E+00         0.00000E+00        -0.30316E+08
 
   -0.30016E+08         0.99795E+04         0.00000E+00
    0.99795E+04        -0.60059E+08         0.00000E+00
    0.00000E+00         0.00000E+00        -0.30299E+08
 
   -0.30053E+08         0.99684E+04         0.00000E+00
    0.99684E+04        -0.60079E+08         0.00000E+00
    0.00000E+00         0.00000E+00        -0.30288E+08
 
   -0.30085E+08         0.97402E+04         0.00000E+00
    0.97402E+04        -0.60099E+08         0.00000E+00
    0.00000E+00         0.00000E+00        -0.30282E+08
 
   -0.30112E+08         0.93562E+04         0.00000E+00
    0.93562E+04        -0.60118E+08         0.00000E+00
    0.00000E+00         0.00000E+00        -0.30279E+08
 
   -0.30137E+08         0.88415E+04         0.00000E+00
    0.88415E+04        -0.60136E+08         0.00000E+00
    0.00000E+00         0.00000E+00        -0.30278E+08
 
   -0.30158E+08         0.81977E+04         0.00000E+00
    0.81977E+04        -0.60153E+08         0.00000E+00
    0.00000E+00         0.00000E+00        -0.30279E+08
 
   -0.30176E+08         0.74029E+04         0.00000E+00
    0.74029E+04        -0.60169E+08         0.00000E+00
    0.00000E+00         0.00000E+00        -0.30281E+08
 
   -0.30192E+08         0.64043E+04         0.00000E+00
    0.64043E+04        -0.60182E+08         0.00000E+00
    0.00000E+00         0.00000E+00        -0.30284E+08
 
   -0.30206E+08         0.50951E+04         0.00000E+00
    0.50951E+04        -0.60194E+08         0.00000E+00
    0.00000E+00         0.00000E+00        -0.30285E+08
 
   -0.30219E+08         0.32824E+04         0.00000E+00
    0.32824E+04        -0.60202E+08         0.00000E+00
    0.00000E+00         0.00000E+00        -0.30283E+08
 
   -0.30230E+08         0.40068E+03         0.00000E+00
    0.40068E+03        -0.60206E+08         0.00000E+00
    0.00000E+00         0.00000E+00        -0.30276E+08
 
   -0.30239E+08        -0.60421E+04         0.00000E+00
   -0.60421E+04        -0.60200E+08         0.00000E+00
    0.00000E+00         0.00000E+00        -0.30259E+08
 
SCALARS stressS double 
LOOKUP_TABLE default
  -40079021.2857042     
  -40078172.4200941     
  -40076868.4461564     
  -40075151.2171891     
  -40073060.7073574     
  -40070634.8948345     
  -40067908.8470426     
  -40064915.6047508     
  -40061686.6482895     
  -40058251.0914105     
  -40054635.7733374     
  -40050865.2041120     
  -40046961.5729437     
  -40042944.7558912     
  -40038832.3153645     
  -40079010.6718612     
  -40078152.0146193     
  -40076829.5970139     
  -40075088.4273213     
  -40072971.2965766     
  -40070518.5297132     
  -40067767.9343874     
  -40064754.0297168     
  -40061509.2256246     
  -40058063.9191066     
  -40054445.6121839     
  -40050679.2012008     
  -40046787.0236592     
  -40042788.9464478     
  -40038702.3810228     
  -40078989.4441525     
  -40078111.4691052     
  -40076752.5808663     
  -40074964.0705375     
  -40072794.4610816     
  -40070289.2194225     
  -40067490.2845726     
  -40064435.1322843     
  -40061159.6443632     
  -40057695.7416579     
  -40054072.2881583     
  -40050314.9261553     
  -40046446.3385142     
  -40042486.3977312     
  -40038452.2055453     
  -40078957.6323695     
  -40078051.3800492     
  -40076638.9194700     
  -40074780.8067308     
  -40072534.0401638     
  -40069951.4485254     
  -40067081.9966557     
  -40063968.0053399     
  -40060648.6976291     
  -40057159.0492248     
  -40053529.7973935     
  -40049787.7859490     
  -40045956.3101701     
  -40042055.2665333     
  -40038101.2546074     
  -40078915.3172057     
  -40077972.8168203     
  -40076490.9987980     
  -40074543.0068448     
  -40072197.1261682     
  -40069515.5447137     
  -40066555.4870386     
  -40063366.9332291     
  -40059993.1014824     
  -40056472.7258375     
  -40052839.1056807     
  -40049120.8071749     
  -40045341.9705990     
  -40041522.6421439     
  -40037678.6883760     
  -40078863.7670631     
  -40077876.9742803     
  -40076312.1617740     
  -40074257.0041978     
  -40071793.0275294     
  -40068994.9413314     
  -40065928.0418395     
  -40062651.5668840     
  -40059215.4032655     
  -40055661.9991456     
  -40052028.1718710     
  -40048344.6240447     
  -40044636.6144824     
  -40040924.3212906     
  -40037223.0384182     
  -40078800.5971675     
  -40077765.7470228     
  -40076107.2913576     
  -40073931.1040792     
  -40071334.2057898     
  -40068404.0784092     
  -40065218.6917494     
  -40061846.8049586     
  -40058343.6676784     
  -40054758.5813761     
  -40051132.0640295     
  -40047497.5234726     
  -40043881.7110854     
  -40040305.2702342     
  -40036782.6981361     
  -40078728.5181328     
  -40077641.8865736     
  -40075882.9396068     
  -40073576.5644386     
  -40070836.7648532     
  -40067766.0096679     
  -40064454.7288031     
  -40060982.0584516     
  -40057412.4617096     
  -40053801.0167805     
  -40050193.0631962     
  -40046625.3848278     
  -40043126.9810956     
  -40039719.1761994     
  -40036415.6211533     
  -40078649.0468538     
  -40077510.6416887     
  -40075648.4984316     
  -40073208.2065139     
  -40070321.6674219     
  -40067107.1763825     
  -40063668.4805374     
  -40060094.9205904     
  -40056463.2626979     
  -40052834.8517908     
  -40049260.4511769     
  -40045781.7779854     
  -40042430.5109000     
  -40039228.9393810     
  -40036189.8154034     
  -40078563.7541668     
  -40077377.0841519     
  -40075415.3898366     
  -40072844.0299530     
  -40069813.9031026     
  -40066458.6726259     
  -40062896.5610202     
  -40059228.8073489     
  -40055544.1331546     
  -40051911.4505033     
  -40048390.7967903     
  -40045028.2907873     
  -40041859.1524838     
  -40038907.0643353     
  -40036183.7045322     
  -40078475.2650672     
  -40077247.8430216     
  -40075196.7056323     
  -40072505.4173351     
  -40069341.8725664     
  -40065856.3737623     
  -40062180.7957284     
  -40058430.6755400     
  -40054706.0646717     
  -40051089.7909640     
  -40047648.4022554     
  -40044434.8722843     
  -40041489.1551347     
  -40038836.3403115     
  -40036486.8118503     
  -40078387.1546086     
  -40077130.6164963     
  -40075007.5910087     
  -40072215.9583283     
  -40068938.2835000     
  -40065340.3037533     
  -40061569.3936305     
  -40057756.4322565     
  -40054012.3012067     
  -40050436.3307595     
  -40047104.9621186     
  -40044080.7668225     
  -40041407.1328266     
  -40039110.7239541     
  -40037200.1906489     
  -40078303.8064372     
  -40077034.4749462     
  -40074864.4091907     
  -40072000.8686721     
  -40068637.6447939     
  -40064953.8530190     
  -40061112.6524612     
  -40057259.6777638     
  -40053526.2015910     
  -40050022.5204019     
  -40046842.2031261     
  -40044055.4893235     
  -40041711.1182023     
  -40039836.2935201     
  -40038436.4915153     
  -40078230.3787195     
  -40076968.9080064     
  -40074784.3800529     
  -40071886.2781156     
  -40068474.8303543     
  -40064740.5333370     
  -40060862.6733756     
  -40057005.9701550     
  -40053319.0302132     
  -40049932.3911277     
  -40046952.3216624     
  -40044460.4590765     
  -40042512.0102391     
  -40041131.1707110     
  -40040319.5030255     
  -40078172.4450850     
  -40076943.0447962     
  -40074783.4870188     
  -40071896.7689682     
  -40068484.2082897     
  -40064745.0855042     
  -40060874.3378238     
  -40057058.6404162     
  -40053468.2583553     
  -40050253.6536670     
  -40047538.9563608     
  -40045413.1889913     
  -40043933.6069036     
  -40043125.7988299     
  -40042982.0941073     
  -40078135.5301760     
  -40076964.2808520     
  -40074874.1430815     
  -40072052.6653243     
  -40068696.3892308     
  -40065010.6318534     
  -40061205.8142357     
  -40057490.1040820     
  -40054060.3925471     
  -40051089.3313630     
  -40048716.8626328     
  -40047042.3314891     
  -40046117.6366229     
  -40045960.1635008     
  -40046560.1474467     
  -40078124.3464185     
  -40077036.8591653     
  -40075062.5493670     
  -40072366.7212349     
  -40069135.8111912     
  -40065577.3674322     
  -40061915.9757401     
  -40058383.0603361     
  -40055200.9532206     
  -40052565.3244428     
  -40050629.0548199     
  -40049494.9117995     
  -40049212.5814641     
  -40049784.3162763     
  -40051186.5861085     
  -40078142.6427147     
  -40077159.7022849     
  -40075346.6685481     
  -40072842.2747367     
  -40069818.5575280     
  -40066481.7218142     
  -40063067.6612214     
  -40059828.7899252     
  -40057011.3126104     
  -40054829.2074527     
  -40053443.0876427     
  -40052949.5960568     
  -40053387.3765824     
  -40054746.9884200     
  -40056993.4220550     
  -40078188.7567183     
  -40077327.1770864     
  -40075716.7452660     
  -40073472.4674718     
  -40070752.3871884     
  -40067757.3812893     
  -40064730.3083655     
  -40061937.2275399     
  -40059638.7337811     
  -40058056.0898660     
  -40057345.7958898     
  -40057591.7508987     
  -40058814.2998573     
  -40060993.2376328     
  -40064090.3832224     
  -40078273.2783738     
  -40077529.8170320     
  -40076154.7454280     
  -40074244.3008109     
  -40071939.0482212     
  -40069440.1547495     
  -40066987.8460722     
  -40064845.8909448     
  -40063266.4528468     
  -40062455.7175869     
  -40062550.7274043     
  -40063615.9895070     
  -40065658.3859496     
  -40068651.4494624     
  -40072558.4442775     
  -40078366.3742947     
  -40077761.8229180     
  -40076650.7696398     
  -40075140.0487873     
  -40073385.7501324     
  -40071578.9882459     
  -40069951.6303940     
  -40068732.2192499     
  -40068121.5861789     
  -40068273.9963865     
  -40069289.9617034     
  -40071218.3050981     
  -40074066.0823448     
  -40077816.1625061     
  -40082446.0923073     
  -40078499.9742462     
  -40078015.5620151     
  -40077197.2884782     
  -40076171.3795968     
  -40075120.3155707     
  -40074260.4665825     
  -40073780.8461169     
  -40073824.3721251     
  -40074473.9449741     
  -40075782.2911602     
  -40077800.8015409     
  -40080579.9870421     
  -40084156.2502455     
  -40088545.2658993     
  -40093754.1556556     
  -40078659.6091958     
  -40078305.0319342     
  -40077813.3996922     
  -40077376.7792821     
  -40077245.6864661     
  -40077649.3852523     
  -40078710.4218519     
  -40080401.8813019     
  -40082612.5314164     
  -40085248.7782086     
  -40088303.7162672     
  -40091857.2819196     
  -40096016.5122019     
  -40100864.8972300     
  -40106451.2045970     
  -40078845.3802742     
  -40078620.7991512     
  -40078530.7254134     
  -40078873.1650460     
  -40079978.7351104     
  -40082059.9098357     
  -40085077.9711877     
  -40088768.9659691     
  -40092792.8908231     
  -40096886.7082195     
  -40100976.3081981     
  -40105177.8818338     
  -40109710.5854153     
  -40114771.3033768     
  -40120476.9864479     
  -40079054.3606462     
  -40078979.3973785     
  -40079428.0004306     
  -40080879.9682237     
  -40083721.1346358     
  -40087978.4675349     
  -40093312.7053453     
  -40099207.5160090     
  -40105158.9852167     
  -40110790.6803976     
  -40115919.8695383     
  -40120644.8769455     
  -40125300.4499863     
  -40130258.6104241     
  -40135759.5309822     
  -40079283.5594900     
  -40079421.9624346     
  -40080722.5336826     
  -40083882.7438522     
  -40089122.1766692     
  -40096002.9734946     
  -40103809.4522302     
  -40111889.4566166     
  -40119718.9547831     
  -40126882.9561260     
  -40133105.4550068     
  -40138334.4382976     
  -40142883.3497904     
  -40147359.2308567     
  -40152237.1034184     
  -40079526.4404948     
  -40080098.1824832     
  -40082964.2169183     
  -40088801.0051887     
  -40097040.2873439     
  -40106653.9212487     
  -40116785.7450387     
  -40126825.5804661     
  -40136332.8555661     
  -40144948.9235672     
  -40152332.0045923     
  -40158212.5144208     
  -40162637.4404634     
  -40166207.8721832     
  -40169915.8905893     
  -40079843.5558774     
  -40081540.7224731     
  -40087491.3366521     
  -40096889.3209546     
  -40108150.1741936     
  -40120150.3426648     
  -40132212.0405482     
  -40143884.3494184     
  -40154823.4411443     
  -40164724.1013193     
  -40173267.5624489     
  -40180054.0811066     
  -40184643.4542116     
  -40187238.6397851     
  -40188907.8344714     
  -40080512.5003497     
  -40085935.0274807     
  -40096244.1739065     
  -40108947.4888321     
  -40122562.1836824     
  -40136361.4572513     
  -40149899.2953942     
  -40162861.8030717     
  -40174986.7196827     
  -40186014.3553993     
  -40195641.3783549     
  -40203457.4440202     
  -40208827.2064017     
  -40210674.0717851     
  -40210075.1845249     
  -40086380.0245713     
  -40096462.2075719     
  -40110026.0037500     
  -40124809.5703163     
  -40139962.3455173     
  -40155002.5819603     
  -40169618.3485089     
  -40183572.8529299     
  -40196658.0348766     
  -40208656.1907205     
  -40219296.7852333     
  -40228190.9516577     
  -40234690.1513264     
  -40237539.6166446     
  -40232751.5131955     
SCALARS 2waySource double 
LOOKUP_TABLE default
  0.000000000000000E+000
  0.000000000000000E+000
  0.000000000000000E+000
  0.000000000000000E+000
  0.000000000000000E+000
  0.000000000000000E+000
  0.000000000000000E+000
  0.000000000000000E+000
  0.000000000000000E+000
  0.000000000000000E+000
  0.000000000000000E+000
  0.000000000000000E+000
  0.000000000000000E+000
  0.000000000000000E+000
  0.000000000000000E+000
  0.000000000000000E+000
  0.000000000000000E+000
  0.000000000000000E+000
  0.000000000000000E+000
  0.000000000000000E+000
  0.000000000000000E+000
  0.000000000000000E+000
  0.000000000000000E+000
  0.000000000000000E+000
  0.000000000000000E+000
  0.000000000000000E+000
  0.000000000000000E+000
  0.000000000000000E+000
  0.000000000000000E+000
  0.000000000000000E+000
  0.000000000000000E+000
  0.000000000000000E+000
  0.000000000000000E+000
  0.000000000000000E+000
  0.000000000000000E+000
  0.000000000000000E+000
  0.000000000000000E+000
  0.000000000000000E+000
  0.000000000000000E+000
  0.000000000000000E+000
  0.000000000000000E+000
  0.000000000000000E+000
  0.000000000000000E+000
  0.000000000000000E+000
  0.000000000000000E+000
  0.000000000000000E+000
  0.000000000000000E+000
  0.000000000000000E+000
  0.000000000000000E+000
  0.000000000000000E+000
  0.000000000000000E+000
  0.000000000000000E+000
  0.000000000000000E+000
  0.000000000000000E+000
  0.000000000000000E+000
  0.000000000000000E+000
  0.000000000000000E+000
  0.000000000000000E+000
  0.000000000000000E+000
  0.000000000000000E+000
  0.000000000000000E+000
  0.000000000000000E+000
  0.000000000000000E+000
  0.000000000000000E+000
  0.000000000000000E+000
  0.000000000000000E+000
  0.000000000000000E+000
  0.000000000000000E+000
  0.000000000000000E+000
  0.000000000000000E+000
  0.000000000000000E+000
  0.000000000000000E+000
  0.000000000000000E+000
  0.000000000000000E+000
  0.000000000000000E+000
  0.000000000000000E+000
  0.000000000000000E+000
  0.000000000000000E+000
  0.000000000000000E+000
  0.000000000000000E+000
  0.000000000000000E+000
  0.000000000000000E+000
  0.000000000000000E+000
  0.000000000000000E+000
  0.000000000000000E+000
  0.000000000000000E+000
  0.000000000000000E+000
  0.000000000000000E+000
  0.000000000000000E+000
  0.000000000000000E+000
  0.000000000000000E+000
  0.000000000000000E+000
  0.000000000000000E+000
  0.000000000000000E+000
  0.000000000000000E+000
  0.000000000000000E+000
  0.000000000000000E+000
  0.000000000000000E+000
  0.000000000000000E+000
  0.000000000000000E+000
  0.000000000000000E+000
  0.000000000000000E+000
  0.000000000000000E+000
  0.000000000000000E+000
  0.000000000000000E+000
  0.000000000000000E+000
  0.000000000000000E+000
  0.000000000000000E+000
  0.000000000000000E+000
  0.000000000000000E+000
  0.000000000000000E+000
  0.000000000000000E+000
  0.000000000000000E+000
  0.000000000000000E+000
  0.000000000000000E+000
  0.000000000000000E+000
  0.000000000000000E+000
  0.000000000000000E+000
  0.000000000000000E+000
  0.000000000000000E+000
  0.000000000000000E+000
  0.000000000000000E+000
  0.000000000000000E+000
  0.000000000000000E+000
  0.000000000000000E+000
  0.000000000000000E+000
  0.000000000000000E+000
  0.000000000000000E+000
  0.000000000000000E+000
  0.000000000000000E+000
  0.000000000000000E+000
  0.000000000000000E+000
  0.000000000000000E+000
  0.000000000000000E+000
  0.000000000000000E+000
  0.000000000000000E+000
  0.000000000000000E+000
  0.000000000000000E+000
  0.000000000000000E+000
  0.000000000000000E+000
  0.000000000000000E+000
  0.000000000000000E+000
  0.000000000000000E+000
  0.000000000000000E+000
  0.000000000000000E+000
  0.000000000000000E+000
  0.000000000000000E+000
  0.000000000000000E+000
  0.000000000000000E+000
  0.000000000000000E+000
  0.000000000000000E+000
  0.000000000000000E+000
  0.000000000000000E+000
  0.000000000000000E+000
  0.000000000000000E+000
  0.000000000000000E+000
  0.000000000000000E+000
  0.000000000000000E+000
  0.000000000000000E+000
  0.000000000000000E+000
  0.000000000000000E+000
  0.000000000000000E+000
  0.000000000000000E+000
  0.000000000000000E+000
  0.000000000000000E+000
  0.000000000000000E+000
  0.000000000000000E+000
  0.000000000000000E+000
  0.000000000000000E+000
  0.000000000000000E+000
  0.000000000000000E+000
  0.000000000000000E+000
  0.000000000000000E+000
  0.000000000000000E+000
  0.000000000000000E+000
  0.000000000000000E+000
  0.000000000000000E+000
  0.000000000000000E+000
  0.000000000000000E+000
  0.000000000000000E+000
  0.000000000000000E+000
  0.000000000000000E+000
  0.000000000000000E+000
  0.000000000000000E+000
  0.000000000000000E+000
  0.000000000000000E+000
  0.000000000000000E+000
  0.000000000000000E+000
  0.000000000000000E+000
  0.000000000000000E+000
  0.000000000000000E+000
  0.000000000000000E+000
  0.000000000000000E+000
  0.000000000000000E+000
  0.000000000000000E+000
  0.000000000000000E+000
  0.000000000000000E+000
  0.000000000000000E+000
  0.000000000000000E+000
  0.000000000000000E+000
  0.000000000000000E+000
  0.000000000000000E+000
  0.000000000000000E+000
  0.000000000000000E+000
  0.000000000000000E+000
  0.000000000000000E+000
  0.000000000000000E+000
  0.000000000000000E+000
  0.000000000000000E+000
  0.000000000000000E+000
  0.000000000000000E+000
  0.000000000000000E+000
  0.000000000000000E+000
  0.000000000000000E+000
  0.000000000000000E+000
  0.000000000000000E+000
  0.000000000000000E+000
  0.000000000000000E+000
  0.000000000000000E+000
  0.000000000000000E+000
  0.000000000000000E+000
  0.000000000000000E+000
  0.000000000000000E+000
  0.000000000000000E+000
  0.000000000000000E+000
  0.000000000000000E+000
  0.000000000000000E+000
  0.000000000000000E+000
  0.000000000000000E+000
  0.000000000000000E+000
  0.000000000000000E+000
  0.000000000000000E+000
  0.000000000000000E+000
  0.000000000000000E+000
  0.000000000000000E+000
  0.000000000000000E+000
  0.000000000000000E+000
  0.000000000000000E+000
  0.000000000000000E+000
  0.000000000000000E+000
  0.000000000000000E+000
  0.000000000000000E+000
  0.000000000000000E+000
  0.000000000000000E+000
  0.000000000000000E+000
  0.000000000000000E+000
  0.000000000000000E+000
  0.000000000000000E+000
  0.000000000000000E+000
  0.000000000000000E+000
  0.000000000000000E+000
  0.000000000000000E+000
  0.000000000000000E+000
  0.000000000000000E+000
  0.000000000000000E+000
  0.000000000000000E+000
  0.000000000000000E+000
  0.000000000000000E+000
  0.000000000000000E+000
  0.000000000000000E+000
  0.000000000000000E+000
  0.000000000000000E+000
  0.000000000000000E+000
  0.000000000000000E+000
  0.000000000000000E+000
  0.000000000000000E+000
  0.000000000000000E+000
  0.000000000000000E+000
  0.000000000000000E+000
  0.000000000000000E+000
  0.000000000000000E+000
  0.000000000000000E+000
  0.000000000000000E+000
  0.000000000000000E+000
  0.000000000000000E+000
  0.000000000000000E+000
  0.000000000000000E+000
  0.000000000000000E+000
  0.000000000000000E+000
  0.000000000000000E+000
  0.000000000000000E+000
  0.000000000000000E+000
  0.000000000000000E+000
  0.000000000000000E+000
  0.000000000000000E+000
  0.000000000000000E+000
  0.000000000000000E+000
  0.000000000000000E+000
  0.000000000000000E+000
  0.000000000000000E+000
  0.000000000000000E+000
  0.000000000000000E+000
  0.000000000000000E+000
  0.000000000000000E+000
  0.000000000000000E+000
  0.000000000000000E+000
  0.000000000000000E+000
  0.000000000000000E+000
  0.000000000000000E+000
  0.000000000000000E+000
  0.000000000000000E+000
  0.000000000000000E+000
  0.000000000000000E+000
  0.000000000000000E+000
  0.000000000000000E+000
  0.000000000000000E+000
  0.000000000000000E+000
  0.000000000000000E+000
  0.000000000000000E+000
  0.000000000000000E+000
  0.000000000000000E+000
  0.000000000000000E+000
  0.000000000000000E+000
  0.000000000000000E+000
  0.000000000000000E+000
  0.000000000000000E+000
  0.000000000000000E+000
  0.000000000000000E+000
  0.000000000000000E+000
  0.000000000000000E+000
  0.000000000000000E+000
  0.000000000000000E+000
  0.000000000000000E+000
  0.000000000000000E+000
  0.000000000000000E+000
  0.000000000000000E+000
  0.000000000000000E+000
  0.000000000000000E+000
  0.000000000000000E+000
  0.000000000000000E+000
  0.000000000000000E+000
  0.000000000000000E+000
  0.000000000000000E+000
  0.000000000000000E+000
  0.000000000000000E+000
  0.000000000000000E+000
  0.000000000000000E+000
  0.000000000000000E+000
  0.000000000000000E+000
  0.000000000000000E+000
  0.000000000000000E+000
  0.000000000000000E+000
  0.000000000000000E+000
  0.000000000000000E+000
  0.000000000000000E+000
  0.000000000000000E+000
  0.000000000000000E+000
  0.000000000000000E+000
  0.000000000000000E+000
  0.000000000000000E+000
  0.000000000000000E+000
  0.000000000000000E+000
  0.000000000000000E+000
  0.000000000000000E+000
  0.000000000000000E+000
  0.000000000000000E+000
  0.000000000000000E+000
  0.000000000000000E+000
  0.000000000000000E+000
  0.000000000000000E+000
  0.000000000000000E+000
  0.000000000000000E+000
  0.000000000000000E+000
  0.000000000000000E+000
  0.000000000000000E+000
  0.000000000000000E+000
  0.000000000000000E+000
  0.000000000000000E+000
  0.000000000000000E+000
  0.000000000000000E+000
  0.000000000000000E+000
  0.000000000000000E+000
  0.000000000000000E+000
  0.000000000000000E+000
  0.000000000000000E+000
  0.000000000000000E+000
  0.000000000000000E+000
  0.000000000000000E+000
  0.000000000000000E+000
  0.000000000000000E+000
  0.000000000000000E+000
  0.000000000000000E+000
  0.000000000000000E+000
  0.000000000000000E+000
  0.000000000000000E+000
  0.000000000000000E+000
  0.000000000000000E+000
  0.000000000000000E+000
  0.000000000000000E+000
  0.000000000000000E+000
  0.000000000000000E+000
  0.000000000000000E+000
  0.000000000000000E+000
  0.000000000000000E+000
  0.000000000000000E+000
  0.000000000000000E+000
  0.000000000000000E+000
  0.000000000000000E+000
  0.000000000000000E+000
  0.000000000000000E+000
  0.000000000000000E+000
  0.000000000000000E+000
  0.000000000000000E+000
  0.000000000000000E+000
  0.000000000000000E+000
  0.000000000000000E+000
  0.000000000000000E+000
  0.000000000000000E+000
  0.000000000000000E+000
  0.000000000000000E+000
  0.000000000000000E+000
  0.000000000000000E+000
  0.000000000000000E+000
  0.000000000000000E+000
  0.000000000000000E+000
  0.000000000000000E+000
  0.000000000000000E+000
  0.000000000000000E+000
  0.000000000000000E+000
  0.000000000000000E+000
  0.000000000000000E+000
  0.000000000000000E+000
  0.000000000000000E+000
  0.000000000000000E+000
  0.000000000000000E+000
  0.000000000000000E+000
  0.000000000000000E+000
  0.000000000000000E+000
  0.000000000000000E+000
  0.000000000000000E+000
  0.000000000000000E+000
  0.000000000000000E+000
  0.000000000000000E+000
  0.000000000000000E+000
  0.000000000000000E+000
  0.000000000000000E+000
  0.000000000000000E+000
  0.000000000000000E+000
  0.000000000000000E+000
  0.000000000000000E+000
  0.000000000000000E+000
  0.000000000000000E+000
  0.000000000000000E+000
  0.000000000000000E+000
  0.000000000000000E+000
  0.000000000000000E+000
  0.000000000000000E+000
  0.000000000000000E+000
  0.000000000000000E+000
  0.000000000000000E+000
SCALARS poroP double 
LOOKUP_TABLE default
  1.818465146609988E-005
  1.819050736859795E-005
  1.819109733019243E-005
  1.818643394945653E-005
  1.817652505390225E-005
  1.816138304040416E-005
  1.814101396211459E-005
  1.811544435111113E-005
  1.808475390828660E-005
  1.804905950805758E-005
  1.800851801715184E-005
  1.796333257192538E-005
  1.791375956699050E-005
  1.786011610747090E-005
  1.780278558414399E-005
  1.818274840671607E-005
  1.818862373833962E-005
  1.818923453616365E-005
  1.818459834969221E-005
  1.817472767661736E-005
  1.815964114170319E-005
  1.813935471809534E-005
  1.811389655677553E-005
  1.808334258497040E-005
  1.804780937690745E-005
  1.800745199400743E-005
  1.796246999910389E-005
  1.791311513155744E-005
  1.785969912548516E-005
  1.780259974749030E-005
  1.817890709702654E-005
  1.818482183129581E-005
  1.818547648530217E-005
  1.818089855924408E-005
  1.817111000076777E-005
  1.815613944543069E-005
  1.813602377600521E-005
  1.811079343999981E-005
  1.808051660408828E-005
  1.804531077009161E-005
  1.800532572971096E-005
  1.796075359111796E-005
  1.791183682743600E-005
  1.785887670748054E-005
  1.780223983678251E-005
  1.817305716591904E-005
  1.817903270414569E-005
  1.817975907716152E-005
  1.817527762480827E-005
  1.816562574692297E-005
  1.815084929955852E-005
  1.813100009524441E-005
  1.810611818054730E-005
  1.807627077838472E-005
  1.804156800865609E-005
  1.800215107327559E-005
  1.795820062160451E-005
  1.790994545953942E-005
  1.785767136761545E-005
  1.780172904329826E-005
  1.816509282079958E-005
  1.817115389613373E-005
  1.817198764447144E-005
  1.816765279102157E-005
  1.815820686045921E-005
  1.814371284936674E-005
  1.812424213385683E-005
  1.809985087744463E-005
  1.807060036080398E-005
  1.803658891635398E-005
  1.799794571698809E-005
  1.795483614533364E-005
  1.790747115528000E-005
  1.785611635043638E-005
  1.780110214802432E-005
  1.815487917262061E-005
  1.816104951457947E-005
  1.816203596310473E-005
  1.815791427355042E-005
  1.814876393451817E-005
  1.813466008097125E-005
  1.811570161738352E-005
  1.809196728823854E-005
  1.806350038482568E-005
  1.803038373112079E-005
  1.799273224601772E-005
  1.795069219071006E-005
  1.790445238740128E-005
  1.785425499314991E-005
  1.780040543240058E-005
  1.814226348676222E-005
  1.814855653986475E-005
  1.814974873401386E-005
  1.814592728848969E-005
  1.813718664547357E-005
  1.812362151085603E-005
  1.810533877704172E-005
  1.808243953130275E-005
  1.805496365389044E-005
  1.802296369781535E-005
  1.798653724350631E-005
  1.794580664378297E-005
  1.790093508732620E-005
  1.785213840139092E-005
  1.779969449856475E-005
  1.812703762268546E-005
  1.813349120017502E-005
  1.813495263743336E-005
  1.813153965148851E-005
  1.812335528891635E-005
  1.811050589104400E-005
  1.809309799876082E-005
  1.807124168201068E-005
  1.804498186834673E-005
  1.801434206631670E-005
  1.797939024662069E-005
  1.794022103226328E-005
  1.789696991759624E-005
  1.784982492698460E-005
  1.779903555870962E-005
  1.810896115948627E-005
  1.811563268221005E-005
  1.811746078431332E-005
  1.811458935485281E-005
  1.810714078563402E-005
  1.809521781186286E-005
  1.807891492281960E-005
  1.805833893827914E-005
  1.803354780172408E-005
  1.800453269198935E-005
  1.797131996683061E-005
  1.793397673454884E-005
  1.789260975102990E-005
  1.784737845239791E-005
  1.779850460084336E-005
  1.808778592409921E-005
  1.809473836425268E-005
  1.809706746685791E-005
  1.809491056967528E-005
  1.808840745864713E-005
  1.807765704785226E-005
  1.806272756769119E-005
  1.804370200397568E-005
  1.802065064745426E-005
  1.799354066230600E-005
  1.796234763200934E-005
  1.792711088010467E-005
  1.788790666550024E-005
  1.784486691837985E-005
  1.779818742518338E-005
  1.806326909806409E-005
  1.807056979865368E-005
  1.807355560209222E-005
  1.807233195219553E-005
  1.806702215070737E-005
  1.805772162653901E-005
  1.804447276158792E-005
  1.802730463207590E-005
  1.800627148385373E-005
  1.798135514616585E-005
  1.795248353825650E-005
  1.791965126352860E-005
  1.788290825862308E-005
  1.784236062046059E-005
  1.779817971746519E-005
  1.803519210673618E-005
  1.804291357673953E-005
  1.804672475956800E-005
  1.804668130277049E-005
  1.804285510155129E-005
  1.803531033156338E-005
  1.802406500215356E-005
  1.800908475922547E-005
  1.799037503351319E-005
  1.796795081897211E-005
  1.794171686801894E-005
  1.791160957789126E-005
  1.787765431444360E-005
  1.783993082178842E-005
  1.779858683273973E-005
  1.800339015774549E-005
  1.801160176982648E-005
  1.801641470163416E-005
  1.801780625102431E-005
  1.801577476746293E-005
  1.801031395034225E-005
  1.800139865695208E-005
  1.798896128976304E-005
  1.797292388697526E-005
  1.795328419296625E-005
  1.793000495625671E-005
  1.790297632411781E-005
  1.787217308136540E-005
  1.783764893118624E-005
  1.779952344631278E-005
  1.796778827940704E-005
  1.797654196106500E-005
  1.798252192376013E-005
  1.798559204029781E-005
  1.798565239597339E-005
  1.798260630888682E-005
  1.797635346923896E-005
  1.796679047537034E-005
  1.795379591254536E-005
  1.793729018330048E-005
  1.791728392862693E-005
  1.789371297824320E-005
  1.786647833074619E-005
  1.783558487502362E-005
  1.780111307383491E-005
  1.792844161912837E-005
  1.793775016056557E-005
  1.794502172522655E-005
  1.794997297674168E-005
  1.795237709843081E-005
  1.795203394266639E-005
  1.794876019098084E-005
  1.794239169692437E-005
  1.793278982314445E-005
  1.791983845599512E-005
  1.790348912035922E-005
  1.788375840804424E-005
  1.786056473254887E-005
  1.783380420405604E-005
  1.780348535309474E-005
  1.788557579022511E-005
  1.789538339389579E-005
  1.790399090312662E-005
  1.791094175592557E-005
  1.791586058071613E-005
  1.791843080792589E-005
  1.791838684380239E-005
  1.791551374275843E-005
  1.790964751021163E-005
  1.790066827044774E-005
  1.788848795436336E-005
  1.787307663783093E-005
  1.785441990914646E-005
  1.783236848418178E-005
  1.780676640151918E-005
  1.783962007486346E-005
  1.784976793824561E-005
  1.785962723745717E-005
  1.786856009025884E-005
  1.787603549003650E-005
  1.788161777033691E-005
  1.788496477815141E-005
  1.788582484067777E-005
  1.788402487017438E-005
  1.787944754653472E-005
  1.787199889836012E-005
  1.786157168791902E-005
  1.784806680099965E-005
  1.783133149589048E-005
  1.781107427013912E-005
  1.779122747013017E-005
  1.780141425662455E-005
  1.781226457826827E-005
  1.782297214666654E-005
  1.783286291417262E-005
  1.784139787104785E-005
  1.784817686913304E-005
  1.785293458891348E-005
  1.785551133409868E-005
  1.785580106756458E-005
  1.785368856358356E-005
  1.784899522661901E-005
  1.784145184328114E-005
  1.783075851129914E-005
  1.781651305576793E-005
  1.774125345761546E-005
  1.775101744052520E-005
  1.776238605415375E-005
  1.777441810401079E-005
  1.778634723652259E-005
  1.779756750074912E-005
  1.780766226712481E-005
  1.781639233557521E-005
  1.782363716348295E-005
  1.782930149822660E-005
  1.783321843097943E-005
  1.783508120353275E-005
  1.783442137839472E-005
  1.783066192579226E-005
  1.782317281625951E-005
  1.769085745941476E-005
  1.769946085593688E-005
  1.771060674705746E-005
  1.772324470664480E-005
  1.773655532948181E-005
  1.774994305922117E-005
  1.776304930570959E-005
  1.777572031369746E-005
  1.778790120569141E-005
  1.779948901880116E-005
  1.781020853529766E-005
  1.781954907858153E-005
  1.782676692661765E-005
  1.783093854305128E-005
  1.783106980809418E-005
  1.764141095526823E-005
  1.764788335820982E-005
  1.765770009553508E-005
  1.766989905704158E-005
  1.768363868612940E-005
  1.769840725572050E-005
  1.771401924195981E-005
  1.773048833700893E-005
  1.774783685470396E-005
  1.776590654232530E-005
  1.778423544395232E-005
  1.780202797580320E-005
  1.781818768481158E-005
  1.783137389117099E-005
  1.784012286021640E-005
  1.759378318441553E-005
  1.759734690989807E-005
  1.760466180066273E-005
  1.761500536121765E-005
  1.762786574275370E-005
  1.764297850682440E-005
  1.766042097433761E-005
  1.768043982724955E-005
  1.770311100061486E-005
  1.772814340860464E-005
  1.775481802604415E-005
  1.778200455524414E-005
  1.780820788599990E-005
  1.783161298922174E-005
  1.785015883754742E-005
  1.754880610998742E-005
  1.754848624317192E-005
  1.755219136788943E-005
  1.755932089038686E-005
  1.756976206788794E-005
  1.758394786703935E-005
  1.760245372841207E-005
  1.762567602128013E-005
  1.765364692185445E-005
  1.768588039192586E-005
  1.772139762679262E-005
  1.775876794591497E-005
  1.779610955148766E-005
  1.783107581492116E-005
  1.786087155798063E-005
  1.750726739491820E-005
  1.750185303726070E-005
  1.750060374451781E-005
  1.750318582368553E-005
  1.751000311166087E-005
  1.752217896683254E-005
  1.754094080554953E-005
  1.756685857057623E-005
  1.759974880473497E-005
  1.763894053712131E-005
  1.768333811744706E-005
  1.773136850304401E-005
  1.778085768130580E-005
  1.782890705858209E-005
  1.787182306129953E-005
  1.746967051657821E-005
  1.745773391724180E-005
  1.745002075407375E-005
  1.744674678418971E-005
  1.744919769595997E-005
  1.745907801638069E-005
  1.747763128049372E-005
  1.750539049242805E-005
  1.754218945660285E-005
  1.758737940493367E-005
  1.764000465163718E-005
  1.769863880511656E-005
  1.776106413516174E-005
  1.782390357148255E-005
  1.788239947255258E-005
  1.743613509525496E-005
  1.741590925107023E-005
  1.740020696003876E-005
  1.739031765247557E-005
  1.738852177030836E-005
  1.739649409484853E-005
  1.741478532758875E-005
  1.744340458059261E-005
  1.748238184650619E-005
  1.753169431369598E-005
  1.759097694798103E-005
  1.765935132667873E-005
  1.773499395541102E-005
  1.781443490767861E-005
  1.789177817776448E-005
  1.740622801880917E-005
  1.737554338422074E-005
  1.735082219994083E-005
  1.733494292683341E-005
  1.733011980295830E-005
  1.733677243776962E-005
  1.735449241048120E-005
  1.738298430029014E-005
  1.742238901891327E-005
  1.747330907781334E-005
  1.753654931132645E-005
  1.761254547805772E-005
  1.770070916782003E-005
  1.779830484524603E-005
  1.789885278787831E-005
  1.737876212221204E-005
  1.733544373526303E-005
  1.730277416802857E-005
  1.728312447251142E-005
  1.727652965759344E-005
  1.728191957587340E-005
  1.729843261412980E-005
  1.732577912475389E-005
  1.736422869120144E-005
  1.741465054255597E-005
  1.747862459728759E-005
  1.755837851609717E-005
  1.765625555273842E-005
  1.777273804647331E-005
  1.790202594056687E-005
  1.735119185532947E-005
  1.729692611044608E-005
  1.725960644912923E-005
  1.723764667894622E-005
  1.722924273221758E-005
  1.723284435336120E-005
  1.724760229033081E-005
  1.727320709795070E-005
  1.730988035120072E-005
  1.735848456338786E-005
  1.742077928240563E-005
  1.749995479381167E-005
  1.760121940273897E-005
  1.773291267641872E-005
  1.789901659322470E-005
  1.732935042996872E-005
  1.726620186553032E-005
  1.722398079855629E-005
  1.719910611013768E-005
  1.718832082551282E-005
  1.718984666402880E-005
  1.720270096696725E-005
  1.722644957485150E-005
  1.726116237263320E-005
  1.730752870899953E-005
  1.736716834206586E-005
  1.744328839637805E-005
  1.754226614316404E-005
  1.767704354275226E-005
  1.788257414976480E-005
SCALARS elementIsPlast double 
LOOKUP_TABLE default
   1.00000000000000     
   1.00000000000000     
   1.00000000000000     
   1.00000000000000     
   1.00000000000000     
   1.00000000000000     
   1.00000000000000     
   1.00000000000000     
   1.00000000000000     
   1.00000000000000     
   1.00000000000000     
   1.00000000000000     
   1.00000000000000     
   1.00000000000000     
   1.00000000000000     
   1.00000000000000     
   1.00000000000000     
   1.00000000000000     
   1.00000000000000     
   1.00000000000000     
   1.00000000000000     
   1.00000000000000     
   1.00000000000000     
   1.00000000000000     
   1.00000000000000     
   1.00000000000000     
   1.00000000000000     
   1.00000000000000     
   1.00000000000000     
   1.00000000000000     
   1.00000000000000     
   1.00000000000000     
   1.00000000000000     
   1.00000000000000     
   1.00000000000000     
   1.00000000000000     
   1.00000000000000     
   1.00000000000000     
   1.00000000000000     
   1.00000000000000     
   1.00000000000000     
   1.00000000000000     
   1.00000000000000     
   1.00000000000000     
   1.00000000000000     
   1.00000000000000     
   1.00000000000000     
   1.00000000000000     
   1.00000000000000     
   1.00000000000000     
   1.00000000000000     
   1.00000000000000     
   1.00000000000000     
   1.00000000000000     
   1.00000000000000     
   1.00000000000000     
   1.00000000000000     
   1.00000000000000     
   1.00000000000000     
   1.00000000000000     
   1.00000000000000     
   1.00000000000000     
   1.00000000000000     
   1.00000000000000     
   1.00000000000000     
   1.00000000000000     
   1.00000000000000     
   1.00000000000000     
   1.00000000000000     
   1.00000000000000     
   1.00000000000000     
   1.00000000000000     
   1.00000000000000     
   1.00000000000000     
   1.00000000000000     
   1.00000000000000     
   1.00000000000000     
   1.00000000000000     
   1.00000000000000     
   1.00000000000000     
   1.00000000000000     
   1.00000000000000     
   1.00000000000000     
   1.00000000000000     
   1.00000000000000     
   1.00000000000000     
   1.00000000000000     
   1.00000000000000     
   1.00000000000000     
   1.00000000000000     
   1.00000000000000     
   1.00000000000000     
   1.00000000000000     
   1.00000000000000     
   1.00000000000000     
   1.00000000000000     
   1.00000000000000     
   1.00000000000000     
   1.00000000000000     
   1.00000000000000     
   1.00000000000000     
   1.00000000000000     
   1.00000000000000     
   1.00000000000000     
   1.00000000000000     
   1.00000000000000     
   1.00000000000000     
   1.00000000000000     
   1.00000000000000     
   1.00000000000000     
   1.00000000000000     
   1.00000000000000     
   1.00000000000000     
   1.00000000000000     
   1.00000000000000     
   1.00000000000000     
   1.00000000000000     
   1.00000000000000     
   1.00000000000000     
   1.00000000000000     
   1.00000000000000     
   1.00000000000000     
   1.00000000000000     
   1.00000000000000     
   1.00000000000000     
   1.00000000000000     
   1.00000000000000     
   1.00000000000000     
   1.00000000000000     
   1.00000000000000     
   1.00000000000000     
   1.00000000000000     
   1.00000000000000     
   1.00000000000000     
   1.00000000000000     
   1.00000000000000     
   1.00000000000000     
   1.00000000000000     
   1.00000000000000     
   1.00000000000000     
   1.00000000000000     
   1.00000000000000     
   1.00000000000000     
   1.00000000000000     
   1.00000000000000     
   1.00000000000000     
   1.00000000000000     
   1.00000000000000     
   1.00000000000000     
   1.00000000000000     
   1.00000000000000     
   1.00000000000000     
   1.00000000000000     
   1.00000000000000     
   1.00000000000000     
   1.00000000000000     
   1.00000000000000     
   1.00000000000000     
   1.00000000000000     
   1.00000000000000     
   1.00000000000000     
   1.00000000000000     
   1.00000000000000     
   1.00000000000000     
   1.00000000000000     
   1.00000000000000     
   1.00000000000000     
   1.00000000000000     
   1.00000000000000     
   1.00000000000000     
   1.00000000000000     
   1.00000000000000     
   1.00000000000000     
   1.00000000000000     
   1.00000000000000     
   1.00000000000000     
   1.00000000000000     
   1.00000000000000     
   1.00000000000000     
   1.00000000000000     
   1.00000000000000     
   1.00000000000000     
   1.00000000000000     
   1.00000000000000     
   1.00000000000000     
   1.00000000000000     
   1.00000000000000     
   1.00000000000000     
   1.00000000000000     
   1.00000000000000     
   1.00000000000000     
   1.00000000000000     
   1.00000000000000     
   1.00000000000000     
   1.00000000000000     
   1.00000000000000     
   1.00000000000000     
   1.00000000000000     
   1.00000000000000     
   1.00000000000000     
   1.00000000000000     
   1.00000000000000     
   1.00000000000000     
   1.00000000000000     
   1.00000000000000     
   1.00000000000000     
   1.00000000000000     
   1.00000000000000     
   1.00000000000000     
   1.00000000000000     
   1.00000000000000     
   1.00000000000000     
   1.00000000000000     
   1.00000000000000     
   1.00000000000000     
   1.00000000000000     
   1.00000000000000     
   1.00000000000000     
   1.00000000000000     
   1.00000000000000     
   1.00000000000000     
   1.00000000000000     
   1.00000000000000     
   1.00000000000000     
   1.00000000000000     
   1.00000000000000     
   1.00000000000000     
   1.00000000000000     
   1.00000000000000     
   1.00000000000000     
   1.00000000000000     
   1.00000000000000     
   1.00000000000000     
   1.00000000000000     
   1.00000000000000     
   1.00000000000000     
   1.00000000000000     
   1.00000000000000     
   1.00000000000000     
   1.00000000000000     
   1.00000000000000     
   1.00000000000000     
   1.00000000000000     
   1.00000000000000     
   1.00000000000000     
   1.00000000000000     
   1.00000000000000     
   1.00000000000000     
   1.00000000000000     
   1.00000000000000     
   1.00000000000000     
   1.00000000000000     
   1.00000000000000     
   1.00000000000000     
   1.00000000000000     
   1.00000000000000     
   1.00000000000000     
   1.00000000000000     
   1.00000000000000     
   1.00000000000000     
   1.00000000000000     
   1.00000000000000     
   1.00000000000000     
   1.00000000000000     
   1.00000000000000     
   1.00000000000000     
   1.00000000000000     
   1.00000000000000     
   1.00000000000000     
   1.00000000000000     
   1.00000000000000     
   1.00000000000000     
   1.00000000000000     
   1.00000000000000     
   1.00000000000000     
   1.00000000000000     
   1.00000000000000     
   1.00000000000000     
   1.00000000000000     
   1.00000000000000     
   1.00000000000000     
   1.00000000000000     
   1.00000000000000     
   1.00000000000000     
   1.00000000000000     
   1.00000000000000     
   1.00000000000000     
   1.00000000000000     
   1.00000000000000     
   1.00000000000000     
   1.00000000000000     
   1.00000000000000     
   1.00000000000000     
   1.00000000000000     
   1.00000000000000     
   1.00000000000000     
   1.00000000000000     
   1.00000000000000     
   1.00000000000000     
   1.00000000000000     
   1.00000000000000     
   1.00000000000000     
   1.00000000000000     
   1.00000000000000     
   1.00000000000000     
   1.00000000000000     
   1.00000000000000     
   1.00000000000000     
   1.00000000000000     
   1.00000000000000     
   1.00000000000000     
   1.00000000000000     
   1.00000000000000     
   1.00000000000000     
   1.00000000000000     
   1.00000000000000     
   1.00000000000000     
   1.00000000000000     
   1.00000000000000     
   1.00000000000000     
   1.00000000000000     
   1.00000000000000     
   1.00000000000000     
   1.00000000000000     
   1.00000000000000     
   1.00000000000000     
   1.00000000000000     
   1.00000000000000     
   1.00000000000000     
   1.00000000000000     
   1.00000000000000     
   1.00000000000000     
   1.00000000000000     
   1.00000000000000     
   1.00000000000000     
   1.00000000000000     
   1.00000000000000     
   1.00000000000000     
   1.00000000000000     
   1.00000000000000     
   1.00000000000000     
   1.00000000000000     
   1.00000000000000     
   1.00000000000000     
   1.00000000000000     
   1.00000000000000     
   1.00000000000000     
   1.00000000000000     
   1.00000000000000     
   1.00000000000000     
   1.00000000000000     
   1.00000000000000     
   1.00000000000000     
   1.00000000000000     
   1.00000000000000     
   1.00000000000000     
   1.00000000000000     
   1.00000000000000     
   1.00000000000000     
   1.00000000000000     
   1.00000000000000     
   1.00000000000000     
   1.00000000000000     
   1.00000000000000     
   1.00000000000000     
   1.00000000000000     
   1.00000000000000     
   1.00000000000000     
   1.00000000000000     
   1.00000000000000     
   1.00000000000000     
   1.00000000000000     
   1.00000000000000     
   1.00000000000000     
   1.00000000000000     
   1.00000000000000     
   1.00000000000000     
   1.00000000000000     
   1.00000000000000     
   1.00000000000000     
   1.00000000000000     
   1.00000000000000     
   1.00000000000000     
   1.00000000000000     
   1.00000000000000     
   1.00000000000000     
   1.00000000000000     
   1.00000000000000     
   1.00000000000000     
   1.00000000000000     
   1.00000000000000     
   1.00000000000000     
   1.00000000000000     
   1.00000000000000     
   1.00000000000000     
   1.00000000000000     
   1.00000000000000     
   1.00000000000000     
   1.00000000000000     
   1.00000000000000     
   1.00000000000000     
   1.00000000000000     
   1.00000000000000     
   1.00000000000000     
   1.00000000000000     
   1.00000000000000     
   1.00000000000000     
   1.00000000000000     
   1.00000000000000     
   1.00000000000000     
   1.00000000000000     
   1.00000000000000     
   1.00000000000000     
   1.00000000000000     
   1.00000000000000     
   1.00000000000000     
   1.00000000000000     
   1.00000000000000     
   1.00000000000000     
   1.00000000000000     
   1.00000000000000     
   1.00000000000000     
   1.00000000000000     
   1.00000000000000     
   1.00000000000000     
   1.00000000000000     
   1.00000000000000     
   1.00000000000000     
   1.00000000000000     
   1.00000000000000     
   1.00000000000000     
   1.00000000000000     
   1.00000000000000     
   1.00000000000000     
   1.00000000000000     
   1.00000000000000     
   1.00000000000000     
   1.00000000000000     
   1.00000000000000     
   1.00000000000000     
   1.00000000000000     
   1.00000000000000     
   1.00000000000000     
   1.00000000000000     
   1.00000000000000     
   1.00000000000000     
   1.00000000000000     
   1.00000000000000     
   1.00000000000000     
   1.00000000000000     
SCALARS poroL double 
LOOKUP_TABLE default
  0.155786807565065     
  0.155786819950703     
  0.155786830571233     
  0.155786839117306     
  0.155786845289255     
  0.155786848807338     
  0.155786849407858     
  0.155786846863188     
  0.155786841010872     
  0.155786831743832     
  0.155786819012480     
  0.155786802831414     
  0.155786783286341     
  0.155786760541474     
  0.155786734845109     
  0.155786805743649     
  0.155786818224037     
  0.155786829007278     
  0.155786837764704     
  0.155786844179652     
  0.155786847960555     
  0.155786848832557     
  0.155786846558277     
  0.155786840964337     
  0.155786831933487     
  0.155786819409234     
  0.155786803399631     
  0.155786783984591     
  0.155786761323025     
  0.155786735658766     
  0.155786802065627     
  0.155786814734016     
  0.155786825841656     
  0.155786835021502     
  0.155786841922247     
  0.155786846222781     
  0.155786847637380     
  0.155786845908216     
  0.155786840827441     
  0.155786832267012     
  0.155786820154691     
  0.155786804485337     
  0.155786785326940     
  0.155786762827903     
  0.155786737223280     
  0.155786796460399     
  0.155786809407109     
  0.155786820998563     
  0.155786830810286     
  0.155786838441228     
  0.155786843530870     
  0.155786845754372     
  0.155786844826237     
  0.155786840511971     
  0.155786832652651     
  0.155786821153037     
  0.155786805987289     
  0.155786787205017     
  0.155786764938953     
  0.155786739412105     
  0.155786788821551     
  0.155786802132629     
  0.155786814364977     
  0.155786825014677     
  0.155786833613983     
  0.155786839747521     
  0.155786843046480     
  0.155786843182561     
  0.155786839884596     
  0.155786832952964     
  0.155786822260689     
  0.155786807753414     
  0.155786789456397     
  0.155786767481042     
  0.155786742035715     
  0.155786779004436     
  0.155786792765492     
  0.155786805788960     
  0.155786817476175     
  0.155786827279502     
  0.155786834699389     
  0.155786839332460     
  0.155786840801784     
  0.155786838766909     
  0.155786832984133     
  0.155786823285165     
  0.155786809580093     
  0.155786791863440     
  0.155786770222148     
  0.155786744843993     
  0.155786766874666     
  0.155786781128105     
  0.155786795077650     
  0.155786807996107     
  0.155786819231605     
  0.155786828205911     
  0.155786834426152     
  0.155786837464497     
  0.155786836935829     
  0.155786832513460     
  0.155786823983293     
  0.155786811210698     
  0.155786794153083     
  0.155786772867480     
  0.155786747520286     
  0.155786752203249     
  0.155786767015530     
  0.155786782007329     
  0.155786796335690     
  0.155786809226709     
  0.155786819998505     
  0.155786828062004     
  0.155786832918536     
  0.155786834117159     
  0.155786831257703     
  0.155786824059372     
  0.155786812333837     
  0.155786795993521     
  0.155786775062414     
  0.155786749685007     
  0.155786734738094     
  0.155786750166580     
  0.155786766318861     
  0.155786782218907     
  0.155786796974485     
  0.155786809778365     
  0.155786819926983     
  0.155786826839921     
  0.155786829984614     
  0.155786828880358     
  0.155786823163022     
  0.155786812578814     
  0.155786796990808     
  0.155786776386983     
  0.155786750891008     
  0.155786714218946     
  0.155786730299618     
  0.155786747718676     
  0.155786765341471     
  0.155786782147028     
  0.155786797206082     
  0.155786809677460     
  0.155786818865386     
  0.155786824157678     
  0.155786824991405     
  0.155786820880326     
  0.155786811509005     
  0.155786796682778     
  0.155786776351401     
  0.155786750620829     
  0.155786690382795     
  0.155786707125204     
  0.155786725888987     
  0.155786745367555     
  0.155786764392713     
  0.155786781903718     
  0.155786796928530     
  0.155786808607479     
  0.155786816225184     
  0.155786819126336     
  0.155786816726949     
  0.155786808614136     
  0.155786794530494     
  0.155786774389123     
  0.155786748281516     
  0.155786662983565     
  0.155786680370712     
  0.155786700512861     
  0.155786721943501     
  0.155786743330183     
  0.155786763462181     
  0.155786781223852     
  0.155786795574081     
  0.155786805665364     
  0.155786810748614     
  0.155786810140576     
  0.155786803296327     
  0.155786789907478     
  0.155786769848669     
  0.155786743201090     
  0.155786631822743     
  0.155786649798443     
  0.155786671304189     
  0.155786694722973     
  0.155786718562442     
  0.155786741438485     
  0.155786762070888     
  0.155786779271788     
  0.155786791953432     
  0.155786799265132     
  0.155786800449874     
  0.155786794857502     
  0.155786782087884     
  0.155786761985462     
  0.155786734627685     
  0.155786596785679     
  0.155786615242982     
  0.155786638027006     
  0.155786663390214     
  0.155786689692476     
  0.155786715371750     
  0.155786738948603     
  0.155786759052557     
  0.155786774419070     
  0.155786783964411     
  0.155786786881768     
  0.155786782478991     
  0.155786770232411     
  0.155786749960798     
  0.155786721732595     
  0.155786557884648     
  0.155786576650115     
  0.155786600533662     
  0.155786627690437     
  0.155786656345026     
  0.155786684764353     
  0.155786711265584     
  0.155786734248608     
  0.155786752265058     
  0.155786764041419     
  0.155786768574370     
  0.155786765195715     
  0.155786753383440     
  0.155786732836820     
  0.155786703623390     
  0.155786515302765     
  0.155786534119979     
  0.155786558805471     
  0.155786587459999     
  0.155786618196332     
  0.155786649118539     
  0.155786678342403     
  0.155786704051687     
  0.155786724567851     
  0.155786738442928     
  0.155786744512372     
  0.155786741982064     
  0.155786730438373     
  0.155786709598279     
  0.155786679380936     
  0.155786469433062     
  0.155786487946212     
  0.155786512992510     
  0.155786542662502     
  0.155786574991056     
  0.155786607945981     
  0.155786639457540     
  0.155786667493875     
  0.155786690171651     
  0.155786705868395     
  0.155786713314129     
  0.155786711611096     
  0.155786700277980     
  0.155786679144715     
  0.155786648100798     
  0.155786420899700     
  0.155786438647567     
  0.155786463444302     
  0.155786493416438     
  0.155786526566569     
  0.155786560769493     
  0.155786593810495     
  0.155786623482610     
  0.155786647732257     
  0.155786664807415     
  0.155786673357371     
  0.155786672460123     
  0.155786661549197     
  0.155786640397313     
  0.155786608871598     
  0.155786370570947     
  0.155786386962466     
  0.155786410719016     
  0.155786440014741     
  0.155786472867568     
  0.155786507126340     
  0.155786540506282     
  0.155786570721588     
  0.155786595647137     
  0.155786613485656     
  0.155786622866388     
  0.155786622837199     
  0.155786612773151     
  0.155786592252639     
  0.155786560939333     
  0.155786319524764     
  0.155786333847094     
  0.155786355570459     
  0.155786382904146     
  0.155786413947482     
  0.155786446557469     
  0.155786478527628     
  0.155786507675214     
  0.155786532005630     
  0.155786549829868     
  0.155786559818540     
  0.155786560964759     
  0.155786552471865     
  0.155786533619916     
  0.155786503697375     
  0.155786269362119     
  0.155786280484917     
  0.155786298848218     
  0.155786322668109     
  0.155786349902343     
  0.155786378569081     
  0.155786406699205     
  0.155786432548386     
  0.155786454594081     
  0.155786471491382     
  0.155786482005166     
  0.155786484964287     
  0.155786479218017     
  0.155786463557453     
  0.155786436691578     
  0.155786220706637     
  0.155786227996610     
  0.155786241605913     
  0.155786259841080     
  0.155786280786570     
  0.155786302513557     
  0.155786323645412     
  0.155786343329450     
  0.155786361003909     
  0.155786375972116     
  0.155786387119730     
  0.155786392927909     
  0.155786391621523     
  0.155786381264967     
  0.155786359742433     
  0.155786174501582     
  0.155786176909232     
  0.155786184396143     
  0.155786194884284     
  0.155786206333868     
  0.155786217414292     
  0.155786227758333     
  0.155786237969400     
  0.155786248935299     
  0.155786260889948     
  0.155786272907659     
  0.155786282942858     
  0.155786288290385     
  0.155786285961379     
  0.155786272785526     
  0.155786131533838     
  0.155786127847027     
  0.155786127290610     
  0.155786127238538     
  0.155786125551441     
  0.155786121718259     
  0.155786117264242     
  0.155786114789739     
  0.155786116726705     
  0.155786124427535     
  0.155786137366653     
  0.155786153077242     
  0.155786167699470     
  0.155786176820247     
  0.155786175846380     
  0.155786092329398     
  0.155786080969439     
  0.155786069805483     
  0.155786055362530     
  0.155786035958316     
  0.155786013089922     
  0.155785990610587     
  0.155785973025102     
  0.155785964043534     
  0.155785965912750     
  0.155785979082695     
  0.155786001370638     
  0.155786027983868     
  0.155786052683608     
  0.155786068864736     
  0.155786057030888     
  0.155786035740405     
  0.155786010033720     
  0.155785975835104     
  0.155785933735892     
  0.155785888779010     
  0.155785847020407     
  0.155785813485780     
  0.155785792236137     
  0.155785786440901     
  0.155785797858159     
  0.155785826009590     
  0.155785866660592     
  0.155785911671690     
  0.155785951492863     
  0.155786025255475     
  0.155785990172825     
  0.155785943405222     
  0.155785882627577     
  0.155785814425360     
  0.155785747126965     
  0.155785686909831     
  0.155785638172218     
  0.155785604444051     
  0.155785589086664     
  0.155785595533966     
  0.155785626295442     
  0.155785680421239     
  0.155785750552057     
  0.155785822576782     
  0.155785995350208     
  0.155785938976693     
  0.155785860533171     
  0.155785768591288     
  0.155785675374525     
  0.155785588455455     
  0.155785512186202     
  0.155785449745721     
  0.155785404048428     
  0.155785378311355     
  0.155785376566478     
  0.155785404116408     
  0.155785466690574     
  0.155785563210102     
  0.155785679658037     
  0.155785962634193     
  0.155785866656701     
  0.155785750035913     
  0.155785630358336     
  0.155785517225967     
  0.155785414679330     
  0.155785325300050     
  0.155785251193261     
  0.155785194597924     
  0.155785158374170     
  0.155785146614866     
  0.155785165666795     
  0.155785225625540     
  0.155785343112157     
  0.155785513822898     
  0.155785895657944     
  0.155785754954126     
  0.155785608396165     
  0.155785469801734     
  0.155785342456640     
  0.155785228288352     
  0.155785128713682     
  0.155785045119948     
  0.155784979177500     
  0.155784933250330     
  0.155784911039236     
  0.155784918742625     
  0.155784967726528     
  0.155785080584964     
  0.155785322947136     
