# vtk DataFile Version 3.0
vtk output
ASCII
DATASET UNSTRUCTURED_GRID
POINTS       496 double 
  0.00000000E+00  3.00000000E+02  0.00000000E+00
  0.00000000E+00  2.80000000E+02  0.00000000E+00
  0.00000000E+00  2.60000000E+02  0.00000000E+00
  0.00000000E+00  2.40000000E+02  0.00000000E+00
  0.00000000E+00  2.20000000E+02  0.00000000E+00
  0.00000000E+00  2.00000000E+02  0.00000000E+00
  0.00000000E+00  1.80000000E+02  0.00000000E+00
  0.00000000E+00  1.60000000E+02  0.00000000E+00
  0.00000000E+00  1.40000000E+02  0.00000000E+00
  0.00000000E+00  1.20000000E+02  0.00000000E+00
  0.00000000E+00  1.00000000E+02  0.00000000E+00
  0.00000000E+00  8.00000000E+01  0.00000000E+00
  0.00000000E+00  6.00000000E+01  0.00000000E+00
  0.00000000E+00  4.00000000E+01  0.00000000E+00
  0.00000000E+00  2.00000000E+01  0.00000000E+00
  0.00000000E+00  4.99600361E-14  0.00000000E+00
  2.00000000E+01  3.00000000E+02  0.00000000E+00
  2.00000000E+01  2.80000000E+02  0.00000000E+00
  2.00000000E+01  2.60000000E+02  0.00000000E+00
  2.00000000E+01  2.40000000E+02  0.00000000E+00
  2.00000000E+01  2.20000000E+02  0.00000000E+00
  2.00000000E+01  2.00000000E+02  0.00000000E+00
  2.00000000E+01  1.80000000E+02  0.00000000E+00
  2.00000000E+01  1.60000000E+02  0.00000000E+00
  2.00000000E+01  1.40000000E+02  0.00000000E+00
  2.00000000E+01  1.20000000E+02  0.00000000E+00
  2.00000000E+01  1.00000000E+02  0.00000000E+00
  2.00000000E+01  8.00000000E+01  0.00000000E+00
  2.00000000E+01  6.00000000E+01  0.00000000E+00
  2.00000000E+01  4.00000000E+01  0.00000000E+00
  2.00000000E+01  2.00000000E+01  0.00000000E+00
  2.00000000E+01  4.99600361E-14  0.00000000E+00
  4.00000000E+01  3.00000000E+02  0.00000000E+00
  4.00000000E+01  2.80000000E+02  0.00000000E+00
  4.00000000E+01  2.60000000E+02  0.00000000E+00
  4.00000000E+01  2.40000000E+02  0.00000000E+00
  4.00000000E+01  2.20000000E+02  0.00000000E+00
  4.00000000E+01  2.00000000E+02  0.00000000E+00
  4.00000000E+01  1.80000000E+02  0.00000000E+00
  4.00000000E+01  1.60000000E+02  0.00000000E+00
  4.00000000E+01  1.40000000E+02  0.00000000E+00
  4.00000000E+01  1.20000000E+02  0.00000000E+00
  4.00000000E+01  1.00000000E+02  0.00000000E+00
  4.00000000E+01  8.00000000E+01  0.00000000E+00
  4.00000000E+01  6.00000000E+01  0.00000000E+00
  4.00000000E+01  4.00000000E+01  0.00000000E+00
  4.00000000E+01  2.00000000E+01  0.00000000E+00
  4.00000000E+01  4.99600361E-14  0.00000000E+00
  6.00000000E+01  3.00000000E+02  0.00000000E+00
  6.00000000E+01  2.80000000E+02  0.00000000E+00
  6.00000000E+01  2.60000000E+02  0.00000000E+00
  6.00000000E+01  2.40000000E+02  0.00000000E+00
  6.00000000E+01  2.20000000E+02  0.00000000E+00
  6.00000000E+01  2.00000000E+02  0.00000000E+00
  6.00000000E+01  1.80000000E+02  0.00000000E+00
  6.00000000E+01  1.60000000E+02  0.00000000E+00
  6.00000000E+01  1.40000000E+02  0.00000000E+00
  6.00000000E+01  1.20000000E+02  0.00000000E+00
  6.00000000E+01  1.00000000E+02  0.00000000E+00
  6.00000000E+01  8.00000000E+01  0.00000000E+00
  6.00000000E+01  6.00000000E+01  0.00000000E+00
  6.00000000E+01  4.00000000E+01  0.00000000E+00
  6.00000000E+01  2.00000000E+01  0.00000000E+00
  6.00000000E+01  4.99600361E-14  0.00000000E+00
  8.00000000E+01  3.00000000E+02  0.00000000E+00
  8.00000000E+01  2.80000000E+02  0.00000000E+00
  8.00000000E+01  2.60000000E+02  0.00000000E+00
  8.00000000E+01  2.40000000E+02  0.00000000E+00
  8.00000000E+01  2.20000000E+02  0.00000000E+00
  8.00000000E+01  2.00000000E+02  0.00000000E+00
  8.00000000E+01  1.80000000E+02  0.00000000E+00
  8.00000000E+01  1.60000000E+02  0.00000000E+00
  8.00000000E+01  1.40000000E+02  0.00000000E+00
  8.00000000E+01  1.20000000E+02  0.00000000E+00
  8.00000000E+01  1.00000000E+02  0.00000000E+00
  8.00000000E+01  8.00000000E+01  0.00000000E+00
  8.00000000E+01  6.00000000E+01  0.00000000E+00
  8.00000000E+01  4.00000000E+01  0.00000000E+00
  8.00000000E+01  2.00000000E+01  0.00000000E+00
  8.00000000E+01  4.99600361E-14  0.00000000E+00
  1.00000000E+02  3.00000000E+02  0.00000000E+00
  1.00000000E+02  2.80000000E+02  0.00000000E+00
  1.00000000E+02  2.60000000E+02  0.00000000E+00
  1.00000000E+02  2.40000000E+02  0.00000000E+00
  1.00000000E+02  2.20000000E+02  0.00000000E+00
  1.00000000E+02  2.00000000E+02  0.00000000E+00
  1.00000000E+02  1.80000000E+02  0.00000000E+00
  1.00000000E+02  1.60000000E+02  0.00000000E+00
  1.00000000E+02  1.40000000E+02  0.00000000E+00
  1.00000000E+02  1.20000000E+02  0.00000000E+00
  1.00000000E+02  1.00000000E+02  0.00000000E+00
  1.00000000E+02  8.00000000E+01  0.00000000E+00
  1.00000000E+02  6.00000000E+01  0.00000000E+00
  1.00000000E+02  4.00000000E+01  0.00000000E+00
  1.00000000E+02  2.00000000E+01  0.00000000E+00
  1.00000000E+02  4.99600361E-14  0.00000000E+00
  1.20000000E+02  3.00000000E+02  0.00000000E+00
  1.20000000E+02  2.80000000E+02  0.00000000E+00
  1.20000000E+02  2.60000000E+02  0.00000000E+00
  1.20000000E+02  2.40000000E+02  0.00000000E+00
  1.20000000E+02  2.20000000E+02  0.00000000E+00
  1.20000000E+02  2.00000000E+02  0.00000000E+00
  1.20000000E+02  1.80000000E+02  0.00000000E+00
  1.20000000E+02  1.60000000E+02  0.00000000E+00
  1.20000000E+02  1.40000000E+02  0.00000000E+00
  1.20000000E+02  1.20000000E+02  0.00000000E+00
  1.20000000E+02  1.00000000E+02  0.00000000E+00
  1.20000000E+02  8.00000000E+01  0.00000000E+00
  1.20000000E+02  6.00000000E+01  0.00000000E+00
  1.20000000E+02  4.00000000E+01  0.00000000E+00
  1.20000000E+02  2.00000000E+01  0.00000000E+00
  1.20000000E+02  4.99600361E-14  0.00000000E+00
  1.40000000E+02  3.00000000E+02  0.00000000E+00
  1.40000000E+02  2.80000000E+02  0.00000000E+00
  1.40000000E+02  2.60000000E+02  0.00000000E+00
  1.40000000E+02  2.40000000E+02  0.00000000E+00
  1.40000000E+02  2.20000000E+02  0.00000000E+00
  1.40000000E+02  2.00000000E+02  0.00000000E+00
  1.40000000E+02  1.80000000E+02  0.00000000E+00
  1.40000000E+02  1.60000000E+02  0.00000000E+00
  1.40000000E+02  1.40000000E+02  0.00000000E+00
  1.40000000E+02  1.20000000E+02  0.00000000E+00
  1.40000000E+02  1.00000000E+02  0.00000000E+00
  1.40000000E+02  8.00000000E+01  0.00000000E+00
  1.40000000E+02  6.00000000E+01  0.00000000E+00
  1.40000000E+02  4.00000000E+01  0.00000000E+00
  1.40000000E+02  2.00000000E+01  0.00000000E+00
  1.40000000E+02  4.99600361E-14  0.00000000E+00
  1.60000000E+02  3.00000000E+02  0.00000000E+00
  1.60000000E+02  2.80000000E+02  0.00000000E+00
  1.60000000E+02  2.60000000E+02  0.00000000E+00
  1.60000000E+02  2.40000000E+02  0.00000000E+00
  1.60000000E+02  2.20000000E+02  0.00000000E+00
  1.60000000E+02  2.00000000E+02  0.00000000E+00
  1.60000000E+02  1.80000000E+02  0.00000000E+00
  1.60000000E+02  1.60000000E+02  0.00000000E+00
  1.60000000E+02  1.40000000E+02  0.00000000E+00
  1.60000000E+02  1.20000000E+02  0.00000000E+00
  1.60000000E+02  1.00000000E+02  0.00000000E+00
  1.60000000E+02  8.00000000E+01  0.00000000E+00
  1.60000000E+02  6.00000000E+01  0.00000000E+00
  1.60000000E+02  4.00000000E+01  0.00000000E+00
  1.60000000E+02  2.00000000E+01  0.00000000E+00
  1.60000000E+02  4.99600361E-14  0.00000000E+00
  1.80000000E+02  3.00000000E+02  0.00000000E+00
  1.80000000E+02  2.80000000E+02  0.00000000E+00
  1.80000000E+02  2.60000000E+02  0.00000000E+00
  1.80000000E+02  2.40000000E+02  0.00000000E+00
  1.80000000E+02  2.20000000E+02  0.00000000E+00
  1.80000000E+02  2.00000000E+02  0.00000000E+00
  1.80000000E+02  1.80000000E+02  0.00000000E+00
  1.80000000E+02  1.60000000E+02  0.00000000E+00
  1.80000000E+02  1.40000000E+02  0.00000000E+00
  1.80000000E+02  1.20000000E+02  0.00000000E+00
  1.80000000E+02  1.00000000E+02  0.00000000E+00
  1.80000000E+02  8.00000000E+01  0.00000000E+00
  1.80000000E+02  6.00000000E+01  0.00000000E+00
  1.80000000E+02  4.00000000E+01  0.00000000E+00
  1.80000000E+02  2.00000000E+01  0.00000000E+00
  1.80000000E+02  4.99600361E-14  0.00000000E+00
  2.00000000E+02  3.00000000E+02  0.00000000E+00
  2.00000000E+02  2.80000000E+02  0.00000000E+00
  2.00000000E+02  2.60000000E+02  0.00000000E+00
  2.00000000E+02  2.40000000E+02  0.00000000E+00
  2.00000000E+02  2.20000000E+02  0.00000000E+00
  2.00000000E+02  2.00000000E+02  0.00000000E+00
  2.00000000E+02  1.80000000E+02  0.00000000E+00
  2.00000000E+02  1.60000000E+02  0.00000000E+00
  2.00000000E+02  1.40000000E+02  0.00000000E+00
  2.00000000E+02  1.20000000E+02  0.00000000E+00
  2.00000000E+02  1.00000000E+02  0.00000000E+00
  2.00000000E+02  8.00000000E+01  0.00000000E+00
  2.00000000E+02  6.00000000E+01  0.00000000E+00
  2.00000000E+02  4.00000000E+01  0.00000000E+00
  2.00000000E+02  2.00000000E+01  0.00000000E+00
  2.00000000E+02  4.99600361E-14  0.00000000E+00
  2.20000000E+02  3.00000000E+02  0.00000000E+00
  2.20000000E+02  2.80000000E+02  0.00000000E+00
  2.20000000E+02  2.60000000E+02  0.00000000E+00
  2.20000000E+02  2.40000000E+02  0.00000000E+00
  2.20000000E+02  2.20000000E+02  0.00000000E+00
  2.20000000E+02  2.00000000E+02  0.00000000E+00
  2.20000000E+02  1.80000000E+02  0.00000000E+00
  2.20000000E+02  1.60000000E+02  0.00000000E+00
  2.20000000E+02  1.40000000E+02  0.00000000E+00
  2.20000000E+02  1.20000000E+02  0.00000000E+00
  2.20000000E+02  1.00000000E+02  0.00000000E+00
  2.20000000E+02  8.00000000E+01  0.00000000E+00
  2.20000000E+02  6.00000000E+01  0.00000000E+00
  2.20000000E+02  4.00000000E+01  0.00000000E+00
  2.20000000E+02  2.00000000E+01  0.00000000E+00
  2.20000000E+02  4.99600361E-14  0.00000000E+00
  2.40000000E+02  3.00000000E+02  0.00000000E+00
  2.40000000E+02  2.80000000E+02  0.00000000E+00
  2.40000000E+02  2.60000000E+02  0.00000000E+00
  2.40000000E+02  2.40000000E+02  0.00000000E+00
  2.40000000E+02  2.20000000E+02  0.00000000E+00
  2.40000000E+02  2.00000000E+02  0.00000000E+00
  2.40000000E+02  1.80000000E+02  0.00000000E+00
  2.40000000E+02  1.60000000E+02  0.00000000E+00
  2.40000000E+02  1.40000000E+02  0.00000000E+00
  2.40000000E+02  1.20000000E+02  0.00000000E+00
  2.40000000E+02  1.00000000E+02  0.00000000E+00
  2.40000000E+02  8.00000000E+01  0.00000000E+00
  2.40000000E+02  6.00000000E+01  0.00000000E+00
  2.40000000E+02  4.00000000E+01  0.00000000E+00
  2.40000000E+02  2.00000000E+01  0.00000000E+00
  2.40000000E+02  4.99600361E-14  0.00000000E+00
  2.60000000E+02  3.00000000E+02  0.00000000E+00
  2.60000000E+02  2.80000000E+02  0.00000000E+00
  2.60000000E+02  2.60000000E+02  0.00000000E+00
  2.60000000E+02  2.40000000E+02  0.00000000E+00
  2.60000000E+02  2.20000000E+02  0.00000000E+00
  2.60000000E+02  2.00000000E+02  0.00000000E+00
  2.60000000E+02  1.80000000E+02  0.00000000E+00
  2.60000000E+02  1.60000000E+02  0.00000000E+00
  2.60000000E+02  1.40000000E+02  0.00000000E+00
  2.60000000E+02  1.20000000E+02  0.00000000E+00
  2.60000000E+02  1.00000000E+02  0.00000000E+00
  2.60000000E+02  8.00000000E+01  0.00000000E+00
  2.60000000E+02  6.00000000E+01  0.00000000E+00
  2.60000000E+02  4.00000000E+01  0.00000000E+00
  2.60000000E+02  2.00000000E+01  0.00000000E+00
  2.60000000E+02  4.99600361E-14  0.00000000E+00
  2.80000000E+02  3.00000000E+02  0.00000000E+00
  2.80000000E+02  2.80000000E+02  0.00000000E+00
  2.80000000E+02  2.60000000E+02  0.00000000E+00
  2.80000000E+02  2.40000000E+02  0.00000000E+00
  2.80000000E+02  2.20000000E+02  0.00000000E+00
  2.80000000E+02  2.00000000E+02  0.00000000E+00
  2.80000000E+02  1.80000000E+02  0.00000000E+00
  2.80000000E+02  1.60000000E+02  0.00000000E+00
  2.80000000E+02  1.40000000E+02  0.00000000E+00
  2.80000000E+02  1.20000000E+02  0.00000000E+00
  2.80000000E+02  1.00000000E+02  0.00000000E+00
  2.80000000E+02  8.00000000E+01  0.00000000E+00
  2.80000000E+02  6.00000000E+01  0.00000000E+00
  2.80000000E+02  4.00000000E+01  0.00000000E+00
  2.80000000E+02  2.00000000E+01  0.00000000E+00
  2.80000000E+02  4.99600361E-14  0.00000000E+00
  3.00000000E+02  3.00000000E+02  0.00000000E+00
  3.00000000E+02  2.80000000E+02  0.00000000E+00
  3.00000000E+02  2.60000000E+02  0.00000000E+00
  3.00000000E+02  2.40000000E+02  0.00000000E+00
  3.00000000E+02  2.20000000E+02  0.00000000E+00
  3.00000000E+02  2.00000000E+02  0.00000000E+00
  3.00000000E+02  1.80000000E+02  0.00000000E+00
  3.00000000E+02  1.60000000E+02  0.00000000E+00
  3.00000000E+02  1.40000000E+02  0.00000000E+00
  3.00000000E+02  1.20000000E+02  0.00000000E+00
  3.00000000E+02  1.00000000E+02  0.00000000E+00
  3.00000000E+02  8.00000000E+01  0.00000000E+00
  3.00000000E+02  6.00000000E+01  0.00000000E+00
  3.00000000E+02  4.00000000E+01  0.00000000E+00
  3.00000000E+02  2.00000000E+01  0.00000000E+00
  3.00000000E+02  4.99600361E-14  0.00000000E+00
  3.20000000E+02  3.00000000E+02  0.00000000E+00
  3.20000000E+02  2.80000000E+02  0.00000000E+00
  3.20000000E+02  2.60000000E+02  0.00000000E+00
  3.20000000E+02  2.40000000E+02  0.00000000E+00
  3.20000000E+02  2.20000000E+02  0.00000000E+00
  3.20000000E+02  2.00000000E+02  0.00000000E+00
  3.20000000E+02  1.80000000E+02  0.00000000E+00
  3.20000000E+02  1.60000000E+02  0.00000000E+00
  3.20000000E+02  1.40000000E+02  0.00000000E+00
  3.20000000E+02  1.20000000E+02  0.00000000E+00
  3.20000000E+02  1.00000000E+02  0.00000000E+00
  3.20000000E+02  8.00000000E+01  0.00000000E+00
  3.20000000E+02  6.00000000E+01  0.00000000E+00
  3.20000000E+02  4.00000000E+01  0.00000000E+00
  3.20000000E+02  2.00000000E+01  0.00000000E+00
  3.20000000E+02  4.99600361E-14  0.00000000E+00
  3.40000000E+02  3.00000000E+02  0.00000000E+00
  3.40000000E+02  2.80000000E+02  0.00000000E+00
  3.40000000E+02  2.60000000E+02  0.00000000E+00
  3.40000000E+02  2.40000000E+02  0.00000000E+00
  3.40000000E+02  2.20000000E+02  0.00000000E+00
  3.40000000E+02  2.00000000E+02  0.00000000E+00
  3.40000000E+02  1.80000000E+02  0.00000000E+00
  3.40000000E+02  1.60000000E+02  0.00000000E+00
  3.40000000E+02  1.40000000E+02  0.00000000E+00
  3.40000000E+02  1.20000000E+02  0.00000000E+00
  3.40000000E+02  1.00000000E+02  0.00000000E+00
  3.40000000E+02  8.00000000E+01  0.00000000E+00
  3.40000000E+02  6.00000000E+01  0.00000000E+00
  3.40000000E+02  4.00000000E+01  0.00000000E+00
  3.40000000E+02  2.00000000E+01  0.00000000E+00
  3.40000000E+02  4.99600361E-14  0.00000000E+00
  3.60000000E+02  3.00000000E+02  0.00000000E+00
  3.60000000E+02  2.80000000E+02  0.00000000E+00
  3.60000000E+02  2.60000000E+02  0.00000000E+00
  3.60000000E+02  2.40000000E+02  0.00000000E+00
  3.60000000E+02  2.20000000E+02  0.00000000E+00
  3.60000000E+02  2.00000000E+02  0.00000000E+00
  3.60000000E+02  1.80000000E+02  0.00000000E+00
  3.60000000E+02  1.60000000E+02  0.00000000E+00
  3.60000000E+02  1.40000000E+02  0.00000000E+00
  3.60000000E+02  1.20000000E+02  0.00000000E+00
  3.60000000E+02  1.00000000E+02  0.00000000E+00
  3.60000000E+02  8.00000000E+01  0.00000000E+00
  3.60000000E+02  6.00000000E+01  0.00000000E+00
  3.60000000E+02  4.00000000E+01  0.00000000E+00
  3.60000000E+02  2.00000000E+01  0.00000000E+00
  3.60000000E+02  4.99600361E-14  0.00000000E+00
  3.80000000E+02  3.00000000E+02  0.00000000E+00
  3.80000000E+02  2.80000000E+02  0.00000000E+00
  3.80000000E+02  2.60000000E+02  0.00000000E+00
  3.80000000E+02  2.40000000E+02  0.00000000E+00
  3.80000000E+02  2.20000000E+02  0.00000000E+00
  3.80000000E+02  2.00000000E+02  0.00000000E+00
  3.80000000E+02  1.80000000E+02  0.00000000E+00
  3.80000000E+02  1.60000000E+02  0.00000000E+00
  3.80000000E+02  1.40000000E+02  0.00000000E+00
  3.80000000E+02  1.20000000E+02  0.00000000E+00
  3.80000000E+02  1.00000000E+02  0.00000000E+00
  3.80000000E+02  8.00000000E+01  0.00000000E+00
  3.80000000E+02  6.00000000E+01  0.00000000E+00
  3.80000000E+02  4.00000000E+01  0.00000000E+00
  3.80000000E+02  2.00000000E+01  0.00000000E+00
  3.80000000E+02  4.99600361E-14  0.00000000E+00
  4.00000000E+02  3.00000000E+02  0.00000000E+00
  4.00000000E+02  2.80000000E+02  0.00000000E+00
  4.00000000E+02  2.60000000E+02  0.00000000E+00
  4.00000000E+02  2.40000000E+02  0.00000000E+00
  4.00000000E+02  2.20000000E+02  0.00000000E+00
  4.00000000E+02  2.00000000E+02  0.00000000E+00
  4.00000000E+02  1.80000000E+02  0.00000000E+00
  4.00000000E+02  1.60000000E+02  0.00000000E+00
  4.00000000E+02  1.40000000E+02  0.00000000E+00
  4.00000000E+02  1.20000000E+02  0.00000000E+00
  4.00000000E+02  1.00000000E+02  0.00000000E+00
  4.00000000E+02  8.00000000E+01  0.00000000E+00
  4.00000000E+02  6.00000000E+01  0.00000000E+00
  4.00000000E+02  4.00000000E+01  0.00000000E+00
  4.00000000E+02  2.00000000E+01  0.00000000E+00
  4.00000000E+02  4.99600361E-14  0.00000000E+00
  4.20000000E+02  3.00000000E+02  0.00000000E+00
  4.20000000E+02  2.80000000E+02  0.00000000E+00
  4.20000000E+02  2.60000000E+02  0.00000000E+00
  4.20000000E+02  2.40000000E+02  0.00000000E+00
  4.20000000E+02  2.20000000E+02  0.00000000E+00
  4.20000000E+02  2.00000000E+02  0.00000000E+00
  4.20000000E+02  1.80000000E+02  0.00000000E+00
  4.20000000E+02  1.60000000E+02  0.00000000E+00
  4.20000000E+02  1.40000000E+02  0.00000000E+00
  4.20000000E+02  1.20000000E+02  0.00000000E+00
  4.20000000E+02  1.00000000E+02  0.00000000E+00
  4.20000000E+02  8.00000000E+01  0.00000000E+00
  4.20000000E+02  6.00000000E+01  0.00000000E+00
  4.20000000E+02  4.00000000E+01  0.00000000E+00
  4.20000000E+02  2.00000000E+01  0.00000000E+00
  4.20000000E+02  4.99600361E-14  0.00000000E+00
  4.40000000E+02  3.00000000E+02  0.00000000E+00
  4.40000000E+02  2.80000000E+02  0.00000000E+00
  4.40000000E+02  2.60000000E+02  0.00000000E+00
  4.40000000E+02  2.40000000E+02  0.00000000E+00
  4.40000000E+02  2.20000000E+02  0.00000000E+00
  4.40000000E+02  2.00000000E+02  0.00000000E+00
  4.40000000E+02  1.80000000E+02  0.00000000E+00
  4.40000000E+02  1.60000000E+02  0.00000000E+00
  4.40000000E+02  1.40000000E+02  0.00000000E+00
  4.40000000E+02  1.20000000E+02  0.00000000E+00
  4.40000000E+02  1.00000000E+02  0.00000000E+00
  4.40000000E+02  8.00000000E+01  0.00000000E+00
  4.40000000E+02  6.00000000E+01  0.00000000E+00
  4.40000000E+02  4.00000000E+01  0.00000000E+00
  4.40000000E+02  2.00000000E+01  0.00000000E+00
  4.40000000E+02  4.99600361E-14  0.00000000E+00
  4.60000000E+02  3.00000000E+02  0.00000000E+00
  4.60000000E+02  2.80000000E+02  0.00000000E+00
  4.60000000E+02  2.60000000E+02  0.00000000E+00
  4.60000000E+02  2.40000000E+02  0.00000000E+00
  4.60000000E+02  2.20000000E+02  0.00000000E+00
  4.60000000E+02  2.00000000E+02  0.00000000E+00
  4.60000000E+02  1.80000000E+02  0.00000000E+00
  4.60000000E+02  1.60000000E+02  0.00000000E+00
  4.60000000E+02  1.40000000E+02  0.00000000E+00
  4.60000000E+02  1.20000000E+02  0.00000000E+00
  4.60000000E+02  1.00000000E+02  0.00000000E+00
  4.60000000E+02  8.00000000E+01  0.00000000E+00
  4.60000000E+02  6.00000000E+01  0.00000000E+00
  4.60000000E+02  4.00000000E+01  0.00000000E+00
  4.60000000E+02  2.00000000E+01  0.00000000E+00
  4.60000000E+02  4.99600361E-14  0.00000000E+00
  4.80000000E+02  3.00000000E+02  0.00000000E+00
  4.80000000E+02  2.80000000E+02  0.00000000E+00
  4.80000000E+02  2.60000000E+02  0.00000000E+00
  4.80000000E+02  2.40000000E+02  0.00000000E+00
  4.80000000E+02  2.20000000E+02  0.00000000E+00
  4.80000000E+02  2.00000000E+02  0.00000000E+00
  4.80000000E+02  1.80000000E+02  0.00000000E+00
  4.80000000E+02  1.60000000E+02  0.00000000E+00
  4.80000000E+02  1.40000000E+02  0.00000000E+00
  4.80000000E+02  1.20000000E+02  0.00000000E+00
  4.80000000E+02  1.00000000E+02  0.00000000E+00
  4.80000000E+02  8.00000000E+01  0.00000000E+00
  4.80000000E+02  6.00000000E+01  0.00000000E+00
  4.80000000E+02  4.00000000E+01  0.00000000E+00
  4.80000000E+02  2.00000000E+01  0.00000000E+00
  4.80000000E+02  4.99600361E-14  0.00000000E+00
  5.00000000E+02  3.00000000E+02  0.00000000E+00
  5.00000000E+02  2.80000000E+02  0.00000000E+00
  5.00000000E+02  2.60000000E+02  0.00000000E+00
  5.00000000E+02  2.40000000E+02  0.00000000E+00
  5.00000000E+02  2.20000000E+02  0.00000000E+00
  5.00000000E+02  2.00000000E+02  0.00000000E+00
  5.00000000E+02  1.80000000E+02  0.00000000E+00
  5.00000000E+02  1.60000000E+02  0.00000000E+00
  5.00000000E+02  1.40000000E+02  0.00000000E+00
  5.00000000E+02  1.20000000E+02  0.00000000E+00
  5.00000000E+02  1.00000000E+02  0.00000000E+00
  5.00000000E+02  8.00000000E+01  0.00000000E+00
  5.00000000E+02  6.00000000E+01  0.00000000E+00
  5.00000000E+02  4.00000000E+01  0.00000000E+00
  5.00000000E+02  2.00000000E+01  0.00000000E+00
  5.00000000E+02  4.99600361E-14  0.00000000E+00
  5.20000000E+02  3.00000000E+02  0.00000000E+00
  5.20000000E+02  2.80000000E+02  0.00000000E+00
  5.20000000E+02  2.60000000E+02  0.00000000E+00
  5.20000000E+02  2.40000000E+02  0.00000000E+00
  5.20000000E+02  2.20000000E+02  0.00000000E+00
  5.20000000E+02  2.00000000E+02  0.00000000E+00
  5.20000000E+02  1.80000000E+02  0.00000000E+00
  5.20000000E+02  1.60000000E+02  0.00000000E+00
  5.20000000E+02  1.40000000E+02  0.00000000E+00
  5.20000000E+02  1.20000000E+02  0.00000000E+00
  5.20000000E+02  1.00000000E+02  0.00000000E+00
  5.20000000E+02  8.00000000E+01  0.00000000E+00
  5.20000000E+02  6.00000000E+01  0.00000000E+00
  5.20000000E+02  4.00000000E+01  0.00000000E+00
  5.20000000E+02  2.00000000E+01  0.00000000E+00
  5.20000000E+02  4.99600361E-14  0.00000000E+00
  5.40000000E+02  3.00000000E+02  0.00000000E+00
  5.40000000E+02  2.80000000E+02  0.00000000E+00
  5.40000000E+02  2.60000000E+02  0.00000000E+00
  5.40000000E+02  2.40000000E+02  0.00000000E+00
  5.40000000E+02  2.20000000E+02  0.00000000E+00
  5.40000000E+02  2.00000000E+02  0.00000000E+00
  5.40000000E+02  1.80000000E+02  0.00000000E+00
  5.40000000E+02  1.60000000E+02  0.00000000E+00
  5.40000000E+02  1.40000000E+02  0.00000000E+00
  5.40000000E+02  1.20000000E+02  0.00000000E+00
  5.40000000E+02  1.00000000E+02  0.00000000E+00
  5.40000000E+02  8.00000000E+01  0.00000000E+00
  5.40000000E+02  6.00000000E+01  0.00000000E+00
  5.40000000E+02  4.00000000E+01  0.00000000E+00
  5.40000000E+02  2.00000000E+01  0.00000000E+00
  5.40000000E+02  4.99600361E-14  0.00000000E+00
  5.60000000E+02  3.00000000E+02  0.00000000E+00
  5.60000000E+02  2.80000000E+02  0.00000000E+00
  5.60000000E+02  2.60000000E+02  0.00000000E+00
  5.60000000E+02  2.40000000E+02  0.00000000E+00
  5.60000000E+02  2.20000000E+02  0.00000000E+00
  5.60000000E+02  2.00000000E+02  0.00000000E+00
  5.60000000E+02  1.80000000E+02  0.00000000E+00
  5.60000000E+02  1.60000000E+02  0.00000000E+00
  5.60000000E+02  1.40000000E+02  0.00000000E+00
  5.60000000E+02  1.20000000E+02  0.00000000E+00
  5.60000000E+02  1.00000000E+02  0.00000000E+00
  5.60000000E+02  8.00000000E+01  0.00000000E+00
  5.60000000E+02  6.00000000E+01  0.00000000E+00
  5.60000000E+02  4.00000000E+01  0.00000000E+00
  5.60000000E+02  2.00000000E+01  0.00000000E+00
  5.60000000E+02  4.99600361E-14  0.00000000E+00
  5.80000000E+02  3.00000000E+02  0.00000000E+00
  5.80000000E+02  2.80000000E+02  0.00000000E+00
  5.80000000E+02  2.60000000E+02  0.00000000E+00
  5.80000000E+02  2.40000000E+02  0.00000000E+00
  5.80000000E+02  2.20000000E+02  0.00000000E+00
  5.80000000E+02  2.00000000E+02  0.00000000E+00
  5.80000000E+02  1.80000000E+02  0.00000000E+00
  5.80000000E+02  1.60000000E+02  0.00000000E+00
  5.80000000E+02  1.40000000E+02  0.00000000E+00
  5.80000000E+02  1.20000000E+02  0.00000000E+00
  5.80000000E+02  1.00000000E+02  0.00000000E+00
  5.80000000E+02  8.00000000E+01  0.00000000E+00
  5.80000000E+02  6.00000000E+01  0.00000000E+00
  5.80000000E+02  4.00000000E+01  0.00000000E+00
  5.80000000E+02  2.00000000E+01  0.00000000E+00
  5.80000000E+02  4.99600361E-14  0.00000000E+00
  6.00000000E+02  3.00000000E+02  0.00000000E+00
  6.00000000E+02  2.80000000E+02  0.00000000E+00
  6.00000000E+02  2.60000000E+02  0.00000000E+00
  6.00000000E+02  2.40000000E+02  0.00000000E+00
  6.00000000E+02  2.20000000E+02  0.00000000E+00
  6.00000000E+02  2.00000000E+02  0.00000000E+00
  6.00000000E+02  1.80000000E+02  0.00000000E+00
  6.00000000E+02  1.60000000E+02  0.00000000E+00
  6.00000000E+02  1.40000000E+02  0.00000000E+00
  6.00000000E+02  1.20000000E+02  0.00000000E+00
  6.00000000E+02  1.00000000E+02  0.00000000E+00
  6.00000000E+02  8.00000000E+01  0.00000000E+00
  6.00000000E+02  6.00000000E+01  0.00000000E+00
  6.00000000E+02  4.00000000E+01  0.00000000E+00
  6.00000000E+02  2.00000000E+01  0.00000000E+00
  6.00000000E+02  4.99600361E-14  0.00000000E+00
CELLS       450      2250
         4           0           1          17          16
         4           1           2          18          17
         4           2           3          19          18
         4           3           4          20          19
         4           4           5          21          20
         4           5           6          22          21
         4           6           7          23          22
         4           7           8          24          23
         4           8           9          25          24
         4           9          10          26          25
         4          10          11          27          26
         4          11          12          28          27
         4          12          13          29          28
         4          13          14          30          29
         4          14          15          31          30
         4          16          17          33          32
         4          17          18          34          33
         4          18          19          35          34
         4          19          20          36          35
         4          20          21          37          36
         4          21          22          38          37
         4          22          23          39          38
         4          23          24          40          39
         4          24          25          41          40
         4          25          26          42          41
         4          26          27          43          42
         4          27          28          44          43
         4          28          29          45          44
         4          29          30          46          45
         4          30          31          47          46
         4          32          33          49          48
         4          33          34          50          49
         4          34          35          51          50
         4          35          36          52          51
         4          36          37          53          52
         4          37          38          54          53
         4          38          39          55          54
         4          39          40          56          55
         4          40          41          57          56
         4          41          42          58          57
         4          42          43          59          58
         4          43          44          60          59
         4          44          45          61          60
         4          45          46          62          61
         4          46          47          63          62
         4          48          49          65          64
         4          49          50          66          65
         4          50          51          67          66
         4          51          52          68          67
         4          52          53          69          68
         4          53          54          70          69
         4          54          55          71          70
         4          55          56          72          71
         4          56          57          73          72
         4          57          58          74          73
         4          58          59          75          74
         4          59          60          76          75
         4          60          61          77          76
         4          61          62          78          77
         4          62          63          79          78
         4          64          65          81          80
         4          65          66          82          81
         4          66          67          83          82
         4          67          68          84          83
         4          68          69          85          84
         4          69          70          86          85
         4          70          71          87          86
         4          71          72          88          87
         4          72          73          89          88
         4          73          74          90          89
         4          74          75          91          90
         4          75          76          92          91
         4          76          77          93          92
         4          77          78          94          93
         4          78          79          95          94
         4          80          81          97          96
         4          81          82          98          97
         4          82          83          99          98
         4          83          84         100          99
         4          84          85         101         100
         4          85          86         102         101
         4          86          87         103         102
         4          87          88         104         103
         4          88          89         105         104
         4          89          90         106         105
         4          90          91         107         106
         4          91          92         108         107
         4          92          93         109         108
         4          93          94         110         109
         4          94          95         111         110
         4          96          97         113         112
         4          97          98         114         113
         4          98          99         115         114
         4          99         100         116         115
         4         100         101         117         116
         4         101         102         118         117
         4         102         103         119         118
         4         103         104         120         119
         4         104         105         121         120
         4         105         106         122         121
         4         106         107         123         122
         4         107         108         124         123
         4         108         109         125         124
         4         109         110         126         125
         4         110         111         127         126
         4         112         113         129         128
         4         113         114         130         129
         4         114         115         131         130
         4         115         116         132         131
         4         116         117         133         132
         4         117         118         134         133
         4         118         119         135         134
         4         119         120         136         135
         4         120         121         137         136
         4         121         122         138         137
         4         122         123         139         138
         4         123         124         140         139
         4         124         125         141         140
         4         125         126         142         141
         4         126         127         143         142
         4         128         129         145         144
         4         129         130         146         145
         4         130         131         147         146
         4         131         132         148         147
         4         132         133         149         148
         4         133         134         150         149
         4         134         135         151         150
         4         135         136         152         151
         4         136         137         153         152
         4         137         138         154         153
         4         138         139         155         154
         4         139         140         156         155
         4         140         141         157         156
         4         141         142         158         157
         4         142         143         159         158
         4         144         145         161         160
         4         145         146         162         161
         4         146         147         163         162
         4         147         148         164         163
         4         148         149         165         164
         4         149         150         166         165
         4         150         151         167         166
         4         151         152         168         167
         4         152         153         169         168
         4         153         154         170         169
         4         154         155         171         170
         4         155         156         172         171
         4         156         157         173         172
         4         157         158         174         173
         4         158         159         175         174
         4         160         161         177         176
         4         161         162         178         177
         4         162         163         179         178
         4         163         164         180         179
         4         164         165         181         180
         4         165         166         182         181
         4         166         167         183         182
         4         167         168         184         183
         4         168         169         185         184
         4         169         170         186         185
         4         170         171         187         186
         4         171         172         188         187
         4         172         173         189         188
         4         173         174         190         189
         4         174         175         191         190
         4         176         177         193         192
         4         177         178         194         193
         4         178         179         195         194
         4         179         180         196         195
         4         180         181         197         196
         4         181         182         198         197
         4         182         183         199         198
         4         183         184         200         199
         4         184         185         201         200
         4         185         186         202         201
         4         186         187         203         202
         4         187         188         204         203
         4         188         189         205         204
         4         189         190         206         205
         4         190         191         207         206
         4         192         193         209         208
         4         193         194         210         209
         4         194         195         211         210
         4         195         196         212         211
         4         196         197         213         212
         4         197         198         214         213
         4         198         199         215         214
         4         199         200         216         215
         4         200         201         217         216
         4         201         202         218         217
         4         202         203         219         218
         4         203         204         220         219
         4         204         205         221         220
         4         205         206         222         221
         4         206         207         223         222
         4         208         209         225         224
         4         209         210         226         225
         4         210         211         227         226
         4         211         212         228         227
         4         212         213         229         228
         4         213         214         230         229
         4         214         215         231         230
         4         215         216         232         231
         4         216         217         233         232
         4         217         218         234         233
         4         218         219         235         234
         4         219         220         236         235
         4         220         221         237         236
         4         221         222         238         237
         4         222         223         239         238
         4         224         225         241         240
         4         225         226         242         241
         4         226         227         243         242
         4         227         228         244         243
         4         228         229         245         244
         4         229         230         246         245
         4         230         231         247         246
         4         231         232         248         247
         4         232         233         249         248
         4         233         234         250         249
         4         234         235         251         250
         4         235         236         252         251
         4         236         237         253         252
         4         237         238         254         253
         4         238         239         255         254
         4         240         241         257         256
         4         241         242         258         257
         4         242         243         259         258
         4         243         244         260         259
         4         244         245         261         260
         4         245         246         262         261
         4         246         247         263         262
         4         247         248         264         263
         4         248         249         265         264
         4         249         250         266         265
         4         250         251         267         266
         4         251         252         268         267
         4         252         253         269         268
         4         253         254         270         269
         4         254         255         271         270
         4         256         257         273         272
         4         257         258         274         273
         4         258         259         275         274
         4         259         260         276         275
         4         260         261         277         276
         4         261         262         278         277
         4         262         263         279         278
         4         263         264         280         279
         4         264         265         281         280
         4         265         266         282         281
         4         266         267         283         282
         4         267         268         284         283
         4         268         269         285         284
         4         269         270         286         285
         4         270         271         287         286
         4         272         273         289         288
         4         273         274         290         289
         4         274         275         291         290
         4         275         276         292         291
         4         276         277         293         292
         4         277         278         294         293
         4         278         279         295         294
         4         279         280         296         295
         4         280         281         297         296
         4         281         282         298         297
         4         282         283         299         298
         4         283         284         300         299
         4         284         285         301         300
         4         285         286         302         301
         4         286         287         303         302
         4         288         289         305         304
         4         289         290         306         305
         4         290         291         307         306
         4         291         292         308         307
         4         292         293         309         308
         4         293         294         310         309
         4         294         295         311         310
         4         295         296         312         311
         4         296         297         313         312
         4         297         298         314         313
         4         298         299         315         314
         4         299         300         316         315
         4         300         301         317         316
         4         301         302         318         317
         4         302         303         319         318
         4         304         305         321         320
         4         305         306         322         321
         4         306         307         323         322
         4         307         308         324         323
         4         308         309         325         324
         4         309         310         326         325
         4         310         311         327         326
         4         311         312         328         327
         4         312         313         329         328
         4         313         314         330         329
         4         314         315         331         330
         4         315         316         332         331
         4         316         317         333         332
         4         317         318         334         333
         4         318         319         335         334
         4         320         321         337         336
         4         321         322         338         337
         4         322         323         339         338
         4         323         324         340         339
         4         324         325         341         340
         4         325         326         342         341
         4         326         327         343         342
         4         327         328         344         343
         4         328         329         345         344
         4         329         330         346         345
         4         330         331         347         346
         4         331         332         348         347
         4         332         333         349         348
         4         333         334         350         349
         4         334         335         351         350
         4         336         337         353         352
         4         337         338         354         353
         4         338         339         355         354
         4         339         340         356         355
         4         340         341         357         356
         4         341         342         358         357
         4         342         343         359         358
         4         343         344         360         359
         4         344         345         361         360
         4         345         346         362         361
         4         346         347         363         362
         4         347         348         364         363
         4         348         349         365         364
         4         349         350         366         365
         4         350         351         367         366
         4         352         353         369         368
         4         353         354         370         369
         4         354         355         371         370
         4         355         356         372         371
         4         356         357         373         372
         4         357         358         374         373
         4         358         359         375         374
         4         359         360         376         375
         4         360         361         377         376
         4         361         362         378         377
         4         362         363         379         378
         4         363         364         380         379
         4         364         365         381         380
         4         365         366         382         381
         4         366         367         383         382
         4         368         369         385         384
         4         369         370         386         385
         4         370         371         387         386
         4         371         372         388         387
         4         372         373         389         388
         4         373         374         390         389
         4         374         375         391         390
         4         375         376         392         391
         4         376         377         393         392
         4         377         378         394         393
         4         378         379         395         394
         4         379         380         396         395
         4         380         381         397         396
         4         381         382         398         397
         4         382         383         399         398
         4         384         385         401         400
         4         385         386         402         401
         4         386         387         403         402
         4         387         388         404         403
         4         388         389         405         404
         4         389         390         406         405
         4         390         391         407         406
         4         391         392         408         407
         4         392         393         409         408
         4         393         394         410         409
         4         394         395         411         410
         4         395         396         412         411
         4         396         397         413         412
         4         397         398         414         413
         4         398         399         415         414
         4         400         401         417         416
         4         401         402         418         417
         4         402         403         419         418
         4         403         404         420         419
         4         404         405         421         420
         4         405         406         422         421
         4         406         407         423         422
         4         407         408         424         423
         4         408         409         425         424
         4         409         410         426         425
         4         410         411         427         426
         4         411         412         428         427
         4         412         413         429         428
         4         413         414         430         429
         4         414         415         431         430
         4         416         417         433         432
         4         417         418         434         433
         4         418         419         435         434
         4         419         420         436         435
         4         420         421         437         436
         4         421         422         438         437
         4         422         423         439         438
         4         423         424         440         439
         4         424         425         441         440
         4         425         426         442         441
         4         426         427         443         442
         4         427         428         444         443
         4         428         429         445         444
         4         429         430         446         445
         4         430         431         447         446
         4         432         433         449         448
         4         433         434         450         449
         4         434         435         451         450
         4         435         436         452         451
         4         436         437         453         452
         4         437         438         454         453
         4         438         439         455         454
         4         439         440         456         455
         4         440         441         457         456
         4         441         442         458         457
         4         442         443         459         458
         4         443         444         460         459
         4         444         445         461         460
         4         445         446         462         461
         4         446         447         463         462
         4         448         449         465         464
         4         449         450         466         465
         4         450         451         467         466
         4         451         452         468         467
         4         452         453         469         468
         4         453         454         470         469
         4         454         455         471         470
         4         455         456         472         471
         4         456         457         473         472
         4         457         458         474         473
         4         458         459         475         474
         4         459         460         476         475
         4         460         461         477         476
         4         461         462         478         477
         4         462         463         479         478
         4         464         465         481         480
         4         465         466         482         481
         4         466         467         483         482
         4         467         468         484         483
         4         468         469         485         484
         4         469         470         486         485
         4         470         471         487         486
         4         471         472         488         487
         4         472         473         489         488
         4         473         474         490         489
         4         474         475         491         490
         4         475         476         492         491
         4         476         477         493         492
         4         477         478         494         493
         4         478         479         495         494
CELL_TYPES        450
9
9
9
9
9
9
9
9
9
9
9
9
9
9
9
9
9
9
9
9
9
9
9
9
9
9
9
9
9
9
9
9
9
9
9
9
9
9
9
9
9
9
9
9
9
9
9
9
9
9
9
9
9
9
9
9
9
9
9
9
9
9
9
9
9
9
9
9
9
9
9
9
9
9
9
9
9
9
9
9
9
9
9
9
9
9
9
9
9
9
9
9
9
9
9
9
9
9
9
9
9
9
9
9
9
9
9
9
9
9
9
9
9
9
9
9
9
9
9
9
9
9
9
9
9
9
9
9
9
9
9
9
9
9
9
9
9
9
9
9
9
9
9
9
9
9
9
9
9
9
9
9
9
9
9
9
9
9
9
9
9
9
9
9
9
9
9
9
9
9
9
9
9
9
9
9
9
9
9
9
9
9
9
9
9
9
9
9
9
9
9
9
9
9
9
9
9
9
9
9
9
9
9
9
9
9
9
9
9
9
9
9
9
9
9
9
9
9
9
9
9
9
9
9
9
9
9
9
9
9
9
9
9
9
9
9
9
9
9
9
9
9
9
9
9
9
9
9
9
9
9
9
9
9
9
9
9
9
9
9
9
9
9
9
9
9
9
9
9
9
9
9
9
9
9
9
9
9
9
9
9
9
9
9
9
9
9
9
9
9
9
9
9
9
9
9
9
9
9
9
9
9
9
9
9
9
9
9
9
9
9
9
9
9
9
9
9
9
9
9
9
9
9
9
9
9
9
9
9
9
9
9
9
9
9
9
9
9
9
9
9
9
9
9
9
9
9
9
9
9
9
9
9
9
9
9
9
9
9
9
9
9
9
9
9
9
9
9
9
9
9
9
9
9
9
9
9
9
9
9
9
9
9
9
9
9
9
9
9
9
9
9
9
9
9
9
9
9
9
9
9
9
9
9
9
9
9
9
9
9
9
9
9
9
9
9
9
9
9
9
9
9
9
9
9
9
9
9
9
9
9
9
9
9
9
9
9
9
9
9
9
9
9
9
9
9
9
9
9
9
POINT_DATA       496
SCALARS p double 
LOOKUP_TABLE default
   35103653.4816837     
   35100632.0818467     
   35091542.6015816     
   35076372.2071855     
   35055129.6615536     
   35027853.1307803     
   34994604.4839912     
   34955461.9817342     
   34910999.9044201     
   34866214.6295464     
   34826109.0678304     
   34791561.5306678     
   34763336.7986410     
   34742195.2651314     
   34728900.7960098     
   34724224.2652090     
   35068768.7425479     
   35065745.3923787     
   35056672.5239021     
   35041545.6460386     
   35020371.7759385     
   34993180.2907437     
   34960024.2470280     
   34920976.1201860     
   34876608.9799193     
   34831905.3818771     
   34791865.4048321     
   34757375.4442865     
   34729196.9304694     
   34708088.5040738     
   34694813.5248343     
   34690143.2234506     
   34964226.7063308     
   34961192.5207054     
   34952156.2146487     
   34937144.5197880     
   34916165.2415499     
   34889225.1320313     
   34856349.5281495     
   34817591.3570255     
   34773514.7989690     
   34729060.0413269     
   34689219.4506989     
   34654903.7898706     
   34626864.7650298     
   34605856.0184774     
   34592639.6208276     
   34587988.0064830     
   34790355.2053744     
   34787291.0124910     
   34778278.6252422     
   34763411.0217443     
   34742716.2115409     
   34716178.3835099     
   34683777.4204416     
   34645525.6095414     
   34601953.9733679     
   34557927.7690749     
   34518426.9028226     
   34484406.5077020     
   34456602.4787695     
   34435761.1275810     
   34422642.7796402     
   34418022.3149923     
   34547672.2013504     
   34544553.2181702     
   34535519.7493806     
   34520768.1482539     
   34500386.8407255     
   34474364.5415194     
   34442634.0893701     
   34405139.1774870     
   34362326.6336434     
   34318926.1030147     
   34279914.9486574     
   34246316.1473557     
   34218846.4631128     
   34198242.4370025     
   34185262.5001875     
   34180685.6935883     
   34236856.4509377     
   34233662.3967418     
   34224549.1644296     
   34209839.1553185     
   34189726.9236321     
   34164263.8638643     
   34133374.9389839     
   34096921.1124513     
   34055176.2679241     
   34012640.0954928     
   33974277.7371850     
   33941235.5616259     
   33914206.0182837     
   33893913.7118122     
   33881114.4739429     
   33876594.0190161     
   33858728.4957122     
   33855453.4119300     
   33846216.8491339     
   33831463.3044690     
   33811519.8814286     
   33786566.2523012     
   33756608.0075338     
   33721477.1607411     
   33681185.1102735     
   33639798.2865062     
   33602270.1883628     
   33569933.2348481     
   33543462.3130712     
   33523564.3638902     
   33510991.9066882     
   33506540.8967399     
   33414246.9096603     
   33410903.1814069     
   33401538.1122647     
   33386690.1869172     
   33366812.3850975     
   33342247.8820340     
   33313178.3935682     
   33279555.9712167     
   33241149.4466429     
   33201307.6470449     
   33164798.7536561     
   33133341.9323396     
   33107568.5280779     
   33088161.4337447     
   33075867.9766421     
   33071500.2776903     
   32904518.1276743     
   32901132.1739010     
   32891677.6320895     
   32876751.1699075     
   32856899.8958580     
   32832616.1518858     
   32804300.9525943     
   32772157.0502914     
   32736005.7075391     
   32698176.2900555     
   32662922.4444152     
   32632562.5421253     
   32607651.8696926     
   32588851.5484809     
   32576899.5651511     
   32572630.1138357     
   32330816.0104504     
   32327421.4330323     
   32317953.3101881     
   32303038.6474099     
   32283283.4355486     
   32259280.3154791     
   32231598.3570289     
   32200733.8313743     
   32166894.3108700     
   32131475.2052452     
   32097924.1754650     
   32068859.0681316     
   32045008.1464265     
   32026962.1705905     
   32015430.6612404     
   32011276.9792845     
   31694602.1915054     
   31691236.8625253     
   31681859.5830112     
   31667113.8323333     
   31647639.8553043     
   31624082.2743183     
   31597093.7402858     
   31567343.0485488     
   31535516.9109734     
   31502579.1786995     
   31471143.3168239     
   31443641.0344277     
   31421091.2864640     
   31403987.0704418     
   31392998.7232314     
   31388982.6785844     
   30997542.1764075     
   30994249.8753011     
   30985095.5225720     
   30970735.3363593     
   30951830.4019707     
   30929048.3857006     
   30903068.6997678     
   30874610.5729268     
   30844485.3447090     
   30813733.9908461     
   30784333.4195410     
   30758478.2721448     
   30737414.3074704     
   30721563.0455641     
   30711342.3458907     
   30707491.4230370     
   30241513.6926548     
   30238349.1878817     
   30229583.1547031     
   30215883.6152401     
   30197923.0557702     
   30176371.0115704     
   30151895.6206555     
   30125186.6973808     
   30097014.7656508     
   30068322.9790077     
   30040651.9570081     
   30016087.7095879     
   29996126.0965950     
   29981402.7026814     
   29972212.1985388     
   29968858.6206544     
   29428607.5438941     
   29425641.5829895     
   29417469.3772932     
   29404765.7289243     
   29388198.1806615     
   29368406.3770827     
   29346004.4633404     
   29321617.5073991     
   29295933.9431567     
   29269791.7461434     
   29244271.1452714     
   29220948.4136883     
   29201670.9083966     
   29187527.5182801     
   29178989.0039415     
   29176278.7425387     
   28561123.0963885     
   28558443.4931534     
   28551114.1744275     
   28539803.0555678     
   28525135.3749840     
   28507664.2170702     
   28487904.2328158     
   28466390.6688684     
   28443735.6353280     
   28420663.5941683     
   28398065.8497450     
   28377067.3092556     
   28359083.6802878     
   28345544.0420784     
   28337255.1323980     
   28334670.9614060     
   27641560.1224514     
   27639263.5031867     
   27633073.2709018     
   27623619.4592230     
   27611392.2185906     
   27596781.3862339     
   27580167.6757653     
   27561993.2835108     
   27542791.2090177     
   27523196.4402114     
   27503957.9907931     
   27485971.2930867     
   27470313.0476017     
   27458120.8029966     
   27450355.0203397     
   27447803.6530969     
   26672612.1612125     
   26670770.8076763     
   26666100.6368164     
   26659035.3212127     
   26649773.3914495     
   26638480.6805097     
   26625408.4706885     
   26610916.7604461     
   26595463.9049152     
   26579593.1172331     
   26563927.9100483     
   26549178.9855317     
   26536152.2453331     
   26525744.6564938     
   26518903.1243402     
   26516647.1292399     
   25657114.1669317     
   25655833.5368086     
   25653173.3771850     
   25649051.0384351     
   25643178.5282527     
   25635531.3547832     
   25626268.5263051     
   25615680.1342591     
   25604143.1815868     
   25592098.5811075     
   25580040.7665473     
   25568519.9340352     
   25558163.9308946     
   25549714.4000598     
   25544052.1233233     
   25542157.4161528     
   24598060.0220958     
   24597762.9349157     
   24597567.0441872     
   24596763.0887482     
   24594536.5806150     
   24590729.0700030     
   24585431.8324549     
   24578859.4630767     
   24571294.7556924     
   24563065.1518610     
   24554539.1054689     
   24546140.1977910     
   24538378.9057299     
   24531892.1098289     
   24527457.0960941     
   24525939.7806746     
   23498960.1074524     
   23499805.4967111     
   23502290.9567648     
   23505124.7037977     
   23506751.4770117     
   23506907.6028814     
   23505653.5365570     
   23503126.4055018     
   23499504.8342980     
   23495001.6069731     
   23489873.9084143     
   23484447.2391501     
   23479147.3444234     
   23474526.1972216     
   23471262.2828989     
   23470110.8785205     
   22363027.7086244     
   22364969.1757480     
   22370143.9564404     
   22376829.0842704     
   22382706.4984240     
   22386967.7024934     
   22389798.7019271     
   22391283.9379224     
   22391508.6986761     
   22390586.4592587     
   22388683.7037082     
   22386049.1142238     
   22383040.7992780     
   22380141.5862414     
   22377951.1773650     
   22377139.9186198     
   21193973.2318619     
   21196824.3515288     
   21204547.1675636     
   21215135.9396226     
   21225445.9641267     
   21233963.9226735     
   21240888.3427167     
   21246288.8669433     
   21250195.0928676     
   21252650.6065280     
   21253754.7593276     
   21253697.0065427     
   21252781.6851555     
   21251437.7664816     
   21250207.4245878     
   21249704.1542353     
   19996374.1608191     
   19999909.6474315     
   20009810.8453354     
   20023969.3634482     
   20038527.5731862     
   20051248.2034465     
   20062146.4281233     
   20071262.1369105     
   20078593.6207627     
   20084146.0293561     
   20087976.4957460     
   20090233.1294527     
   20091180.0591588     
   20091206.1327775     
   20090813.7395277     
   20090582.6778463     
   18774757.1240947     
   18778927.3856057     
   18790619.4939222     
   18807753.3517474     
   18826046.0219162     
   18842548.0971227     
   18857048.6836350     
   18869497.9937060     
   18879857.6061005     
   18888111.6625088     
   18894298.1362927     
   18898541.5347219     
   18901077.8943323     
   18902265.6891481     
   18902579.6371452     
   18902582.0119804     
   17533924.6098543     
   17538650.2065613     
   17551762.7357472     
   17571185.4503571     
   17592390.6149728     
   17611915.5784764     
   17629319.9743182     
   17644456.4738874     
   17657238.5287208     
   17667637.2267446     
   17675687.3194140     
   17681503.7133873     
   17685301.6453422     
   17687412.8410590     
   17688288.5144643     
   17688482.2153379     
   16278927.0217943     
   16284070.1731123     
   16298153.0704157     
   16319036.6526176     
   16342108.4659705     
   16363582.9031517     
   16382860.3900040     
   16399721.0610628     
   16414052.1451864     
   16425827.4050415     
   16435091.8673168     
   16441958.7510331     
   16446622.4396004     
   16449381.6595015     
   16450658.8146788     
   16450998.5881866     
   15015148.2355893     
   15020508.5727631     
   15034947.9351293     
   15056230.7652669     
   15079828.3948958     
   15101853.8872297     
   15121622.5061911     
   15138905.6178437     
   15153615.7922930     
   15165760.3832252     
   15175408.4374617     
   15182674.4121435     
   15187725.7870450     
   15190813.2246612     
   15192312.8292711     
   15192749.8453240     
   13748401.2069769     
   13753710.3645628     
   13767642.0825642     
   13787861.6637986     
   13810211.2743120     
   13830976.7158834     
   13849458.4385826     
   13865515.1885836     
   13879148.8008057     
   13890427.7338597     
   13899449.4066073     
   13906326.0190392     
   13911190.9067557     
   13914233.0567175     
   13915754.6408369     
   13916239.6200220     
   12485090.0451492     
   12489941.5279358     
   12502055.8937537     
   12519100.6525441     
   12537801.5890360     
   12554952.6315540     
   12569928.5136547     
   12582787.5524113     
   12593659.0173964     
   12602663.4930217     
   12609905.2007822     
   12615480.3322533     
   12619484.9088147     
   12622036.2393655     
   12623355.5963268     
   12623841.0159484     
   11232511.9150350     
   11236163.0185693     
   11244203.6029821     
   11255051.2434702     
   11266744.7522477     
   11277212.5051175     
   11286046.9088768     
   11293528.8021940     
   11299839.8496234     
   11305077.6483424     
   11309308.8454797     
   11312591.5170021     
   11314979.2905631     
   11316527.6837140     
   11317328.7377121     
   11317821.7187660     
   10000000.0000000     
   10000000.0000000     
   10000000.0000000     
   10000000.0000000     
   10000000.0000000     
   10000000.0000000     
   10000000.0000000     
   10000000.0000000     
   10000000.0000000     
   10000000.0000000     
   10000000.0000000     
   10000000.0000000     
   10000000.0000000     
  10000000.00000000     
   10000000.0000000     
   10000000.0000000     
VECTORS u double 
    0.00000E+00        -0.31074E-01         0.00000E+00
    0.00000E+00        -0.28678E-01         0.00000E+00
    0.00000E+00        -0.26333E-01         0.00000E+00
    0.00000E+00        -0.24043E-01         0.00000E+00
    0.00000E+00        -0.21808E-01         0.00000E+00
    0.00000E+00        -0.19630E-01         0.00000E+00
    0.00000E+00        -0.17509E-01         0.00000E+00
    0.00000E+00        -0.15443E-01         0.00000E+00
    0.00000E+00        -0.13427E-01         0.00000E+00
    0.00000E+00        -0.11450E-01         0.00000E+00
    0.00000E+00        -0.94913E-02         0.00000E+00
    0.00000E+00        -0.75504E-02         0.00000E+00
    0.00000E+00        -0.56285E-02         0.00000E+00
    0.00000E+00        -0.37275E-02         0.00000E+00
    0.00000E+00        -0.18503E-02         0.00000E+00
    0.00000E+00         0.00000E+00         0.00000E+00
    0.98240E-03        -0.31113E-01         0.00000E+00
    0.90167E-03        -0.28715E-01         0.00000E+00
    0.81964E-03        -0.26369E-01         0.00000E+00
    0.73709E-03        -0.24076E-01         0.00000E+00
    0.65544E-03        -0.21840E-01         0.00000E+00
    0.57598E-03        -0.19660E-01         0.00000E+00
    0.50007E-03        -0.17537E-01         0.00000E+00
    0.42881E-03        -0.15468E-01         0.00000E+00
    0.36326E-03        -0.13450E-01         0.00000E+00
    0.30366E-03        -0.11470E-01         0.00000E+00
    0.24837E-03        -0.95085E-02         0.00000E+00
    0.19618E-03        -0.75644E-02         0.00000E+00
    0.14614E-03        -0.56392E-02         0.00000E+00
    0.97338E-04        -0.37349E-02         0.00000E+00
    0.48905E-04        -0.18540E-02         0.00000E+00
    0.00000E+00         0.00000E+00         0.00000E+00
    0.19603E-02        -0.31233E-01         0.00000E+00
    0.17986E-02        -0.28829E-01         0.00000E+00
    0.16342E-02        -0.26477E-01         0.00000E+00
    0.14690E-02        -0.24178E-01         0.00000E+00
    0.13056E-02        -0.21936E-01         0.00000E+00
    0.11467E-02        -0.19751E-01         0.00000E+00
    0.99517E-03        -0.17621E-01         0.00000E+00
    0.85314E-03        -0.15545E-01         0.00000E+00
    0.72267E-03        -0.13519E-01         0.00000E+00
    0.60414E-03        -0.11531E-01         0.00000E+00
    0.49415E-03        -0.95600E-02         0.00000E+00
    0.39032E-03        -0.76065E-02         0.00000E+00
    0.29077E-03        -0.56714E-02         0.00000E+00
    0.19368E-03        -0.37568E-02         0.00000E+00
    0.97314E-04        -0.18652E-02         0.00000E+00
    0.00000E+00         0.00000E+00         0.00000E+00
    0.29286E-02        -0.31433E-01         0.00000E+00
    0.26860E-02        -0.29019E-01         0.00000E+00
    0.24389E-02        -0.26657E-01         0.00000E+00
    0.21906E-02        -0.24349E-01         0.00000E+00
    0.19453E-02        -0.22097E-01         0.00000E+00
    0.17071E-02        -0.19902E-01         0.00000E+00
    0.14805E-02        -0.17761E-01         0.00000E+00
    0.12687E-02        -0.15674E-01         0.00000E+00
    0.10745E-02        -0.13634E-01         0.00000E+00
    0.89830E-03        -0.11631E-01         0.00000E+00
    0.73478E-03        -0.96456E-02         0.00000E+00
    0.58040E-03        -0.76764E-02         0.00000E+00
    0.43237E-03        -0.57249E-02         0.00000E+00
    0.28801E-03        -0.37932E-02         0.00000E+00
    0.14473E-03        -0.18838E-02         0.00000E+00
    0.00000E+00         0.00000E+00         0.00000E+00
    0.38812E-02        -0.31713E-01         0.00000E+00
    0.35578E-02        -0.29287E-01         0.00000E+00
    0.32283E-02        -0.26912E-01         0.00000E+00
    0.28970E-02        -0.24591E-01         0.00000E+00
    0.25696E-02        -0.22325E-01         0.00000E+00
    0.22526E-02        -0.20114E-01         0.00000E+00
    0.19517E-02        -0.17958E-01         0.00000E+00
    0.16713E-02        -0.15853E-01         0.00000E+00
    0.14151E-02        -0.13795E-01         0.00000E+00
    0.11831E-02        -0.11772E-01         0.00000E+00
    0.96772E-03        -0.97650E-02         0.00000E+00
    0.76439E-03        -0.77739E-02         0.00000E+00
    0.56945E-03        -0.57996E-02         0.00000E+00
    0.37935E-03        -0.38440E-02         0.00000E+00
    0.19065E-03        -0.19097E-02         0.00000E+00
    0.00000E+00         0.00000E+00         0.00000E+00
    0.48110E-02        -0.32071E-01         0.00000E+00
    0.44075E-02        -0.29632E-01         0.00000E+00
    0.39962E-02        -0.27242E-01         0.00000E+00
    0.35827E-02        -0.24904E-01         0.00000E+00
    0.31743E-02        -0.22621E-01         0.00000E+00
    0.27793E-02        -0.20391E-01         0.00000E+00
    0.24050E-02        -0.18213E-01         0.00000E+00
    0.20576E-02        -0.16085E-01         0.00000E+00
    0.17413E-02        -0.14001E-01         0.00000E+00
    0.14555E-02        -0.11951E-01         0.00000E+00
    0.11905E-02        -0.99179E-02         0.00000E+00
    0.94033E-03        -0.78987E-02         0.00000E+00
    0.70050E-03        -0.58951E-02         0.00000E+00
    0.46668E-03        -0.39090E-02         0.00000E+00
    0.23458E-03        -0.19429E-02         0.00000E+00
    0.00000E+00         0.00000E+00         0.00000E+00
    0.57096E-02        -0.32509E-01         0.00000E+00
    0.52273E-02        -0.30054E-01         0.00000E+00
    0.47358E-02        -0.27647E-01         0.00000E+00
    0.42419E-02        -0.25291E-01         0.00000E+00
    0.37549E-02        -0.22987E-01         0.00000E+00
    0.32840E-02        -0.20732E-01         0.00000E+00
    0.28381E-02        -0.18527E-01         0.00000E+00
    0.24249E-02        -0.16368E-01         0.00000E+00
    0.20501E-02        -0.14251E-01         0.00000E+00
    0.17126E-02        -0.12170E-01         0.00000E+00
    0.14007E-02        -0.10104E-01         0.00000E+00
    0.11062E-02        -0.80503E-02         0.00000E+00
    0.82403E-03        -0.60111E-02         0.00000E+00
    0.54896E-03        -0.39879E-02         0.00000E+00
    0.27598E-03        -0.19832E-02         0.00000E+00
    0.00000E+00         0.00000E+00         0.00000E+00
    0.65679E-02        -0.33023E-01         0.00000E+00
    0.60084E-02        -0.30552E-01         0.00000E+00
    0.54390E-02        -0.28129E-01         0.00000E+00
    0.48683E-02        -0.25753E-01         0.00000E+00
    0.43065E-02        -0.23424E-01         0.00000E+00
    0.37636E-02        -0.21140E-01         0.00000E+00
    0.32492E-02        -0.18901E-01         0.00000E+00
    0.27718E-02        -0.16704E-01         0.00000E+00
    0.23390E-02        -0.14547E-01         0.00000E+00
    0.19518E-02        -0.12427E-01         0.00000E+00
    0.15961E-02        -0.10322E-01         0.00000E+00
    0.12602E-02        -0.82279E-02         0.00000E+00
    0.93848E-03        -0.61470E-02         0.00000E+00
    0.62513E-03        -0.40804E-02         0.00000E+00
    0.31429E-03        -0.20304E-02         0.00000E+00
    0.00000E+00         0.00000E+00         0.00000E+00
    0.73759E-02        -0.33613E-01         0.00000E+00
    0.67416E-02        -0.31127E-01         0.00000E+00
    0.60980E-02        -0.28685E-01         0.00000E+00
    0.54552E-02        -0.26287E-01         0.00000E+00
    0.48243E-02        -0.23932E-01         0.00000E+00
    0.42150E-02        -0.21615E-01         0.00000E+00
    0.36369E-02        -0.19337E-01         0.00000E+00
    0.30984E-02        -0.17095E-01         0.00000E+00
    0.26076E-02        -0.14890E-01         0.00000E+00
    0.21706E-02        -0.12720E-01         0.00000E+00
    0.17743E-02        -0.10570E-01         0.00000E+00
    0.14002E-02        -0.84308E-02         0.00000E+00
    0.10423E-02        -0.63021E-02         0.00000E+00
    0.69400E-03        -0.41860E-02         0.00000E+00
    0.34890E-03        -0.20844E-02         0.00000E+00
    0.00000E+00         0.00000E+00         0.00000E+00
    0.81238E-02        -0.34277E-01         0.00000E+00
    0.74174E-02        -0.31775E-01         0.00000E+00
    0.67044E-02        -0.29315E-01         0.00000E+00
    0.59960E-02        -0.26894E-01         0.00000E+00
    0.53028E-02        -0.24509E-01         0.00000E+00
    0.46342E-02        -0.22156E-01         0.00000E+00
    0.39989E-02        -0.19835E-01         0.00000E+00
    0.34046E-02        -0.17543E-01         0.00000E+00
    0.28589E-02        -0.15281E-01         0.00000E+00
    0.23700E-02        -0.13051E-01         0.00000E+00
    0.19329E-02        -0.10849E-01         0.00000E+00
    0.15245E-02        -0.86579E-02         0.00000E+00
    0.11337E-02        -0.64758E-02         0.00000E+00
    0.75428E-03        -0.43043E-02         0.00000E+00
    0.37906E-03        -0.21449E-02         0.00000E+00
    0.00000E+00         0.00000E+00         0.00000E+00
    0.88018E-02        -0.35012E-01         0.00000E+00
    0.80275E-02        -0.32494E-01         0.00000E+00
    0.72512E-02        -0.30014E-01         0.00000E+00
    0.64842E-02        -0.27569E-01         0.00000E+00
    0.57365E-02        -0.25152E-01         0.00000E+00
    0.50165E-02        -0.22761E-01         0.00000E+00
    0.43318E-02        -0.20394E-01         0.00000E+00
    0.36893E-02        -0.18048E-01         0.00000E+00
    0.30947E-02        -0.15724E-01         0.00000E+00
    0.25538E-02        -0.13426E-01         0.00000E+00
    0.20711E-02        -0.11157E-01         0.00000E+00
    0.16307E-02        -0.89083E-02         0.00000E+00
    0.12109E-02        -0.66670E-02         0.00000E+00
    0.80436E-03        -0.44345E-02         0.00000E+00
    0.40378E-03        -0.22117E-02         0.00000E+00
    0.00000E+00         0.00000E+00         0.00000E+00
    0.94019E-02        -0.35816E-01         0.00000E+00
    0.85644E-02        -0.33281E-01         0.00000E+00
    0.77316E-02        -0.30780E-01         0.00000E+00
    0.69138E-02        -0.28308E-01         0.00000E+00
    0.61198E-02        -0.25858E-01         0.00000E+00
    0.53570E-02        -0.23426E-01         0.00000E+00
    0.46316E-02        -0.21009E-01         0.00000E+00
    0.39490E-02        -0.18607E-01         0.00000E+00
    0.33134E-02        -0.16220E-01         0.00000E+00
    0.27283E-02        -0.13850E-01         0.00000E+00
    0.21969E-02        -0.11503E-01         0.00000E+00
    0.17178E-02        -0.91805E-02         0.00000E+00
    0.12718E-02        -0.68747E-02         0.00000E+00
    0.84236E-03        -0.45757E-02         0.00000E+00
    0.42152E-03        -0.22842E-02         0.00000E+00
    0.00000E+00         0.00000E+00         0.00000E+00
    0.99167E-02        -0.36684E-01         0.00000E+00
    0.90216E-02        -0.34131E-01         0.00000E+00
    0.81395E-02        -0.31608E-01         0.00000E+00
    0.72791E-02        -0.29107E-01         0.00000E+00
    0.64476E-02        -0.26621E-01         0.00000E+00
    0.56510E-02        -0.24145E-01         0.00000E+00
    0.48940E-02        -0.21677E-01         0.00000E+00
    0.41801E-02        -0.19217E-01         0.00000E+00
    0.35122E-02        -0.16764E-01         0.00000E+00
    0.28920E-02        -0.14322E-01         0.00000E+00
    0.23206E-02        -0.11894E-01         0.00000E+00
    0.17975E-02        -0.94866E-02         0.00000E+00
    0.13179E-02        -0.70997E-02         0.00000E+00
    0.86637E-03        -0.47271E-02         0.00000E+00
    0.42914E-03        -0.23627E-02         0.00000E+00
    0.00000E+00         0.00000E+00         0.00000E+00
    0.10339E-01        -0.37611E-01         0.00000E+00
    0.93931E-02        -0.35039E-01         0.00000E+00
    0.84694E-02        -0.32492E-01         0.00000E+00
    0.75750E-02        -0.29960E-01         0.00000E+00
    0.67153E-02        -0.27435E-01         0.00000E+00
    0.58944E-02        -0.24914E-01         0.00000E+00
    0.51151E-02        -0.22392E-01         0.00000E+00
    0.43794E-02        -0.19870E-01         0.00000E+00
    0.36880E-02        -0.17349E-01         0.00000E+00
    0.30415E-02        -0.14833E-01         0.00000E+00
    0.24395E-02        -0.12325E-01         0.00000E+00
    0.18818E-02        -0.98305E-02         0.00000E+00
    0.13659E-02        -0.73538E-02         0.00000E+00
    0.88521E-03        -0.48945E-02         0.00000E+00
    0.43157E-03        -0.24466E-02         0.00000E+00
    0.00000E+00         0.00000E+00         0.00000E+00
    0.10664E-01        -0.38592E-01         0.00000E+00
    0.96738E-02        -0.36000E-01         0.00000E+00
    0.87165E-02        -0.33426E-01         0.00000E+00
    0.77972E-02        -0.30860E-01         0.00000E+00
    0.69189E-02        -0.28294E-01         0.00000E+00
    0.60836E-02        -0.25724E-01         0.00000E+00
    0.52920E-02        -0.23146E-01         0.00000E+00
    0.45440E-02        -0.20560E-01         0.00000E+00
    0.38385E-02        -0.17969E-01         0.00000E+00
    0.31745E-02        -0.15376E-01         0.00000E+00
    0.25510E-02        -0.12786E-01         0.00000E+00
    0.19673E-02        -0.10203E-01         0.00000E+00
    0.14224E-02        -0.76331E-02         0.00000E+00
    0.91506E-03        -0.50776E-02         0.00000E+00
    0.44254E-03        -0.25346E-02         0.00000E+00
    0.00000E+00         0.00000E+00         0.00000E+00
    0.10886E-01        -0.39621E-01         0.00000E+00
    0.98590E-02        -0.37005E-01         0.00000E+00
    0.88768E-02        -0.34402E-01         0.00000E+00
    0.79419E-02        -0.31799E-01         0.00000E+00
    0.70550E-02        -0.29190E-01         0.00000E+00
    0.62158E-02        -0.26568E-01         0.00000E+00
    0.54222E-02        -0.23931E-01         0.00000E+00
    0.46718E-02        -0.21280E-01         0.00000E+00
    0.39619E-02        -0.18616E-01         0.00000E+00
    0.32898E-02        -0.15944E-01         0.00000E+00
    0.26536E-02        -0.13268E-01         0.00000E+00
    0.20525E-02        -0.10595E-01         0.00000E+00
    0.14864E-02        -0.79277E-02         0.00000E+00
    0.95610E-03        -0.52717E-02         0.00000E+00
    0.46135E-03        -0.26289E-02         0.00000E+00
    0.00000E+00         0.00000E+00         0.00000E+00
    0.11000E-01        -0.40689E-01         0.00000E+00
    0.99443E-02        -0.38048E-01         0.00000E+00
    0.89467E-02        -0.35412E-01         0.00000E+00
    0.80064E-02        -0.32769E-01         0.00000E+00
    0.71215E-02        -0.30112E-01         0.00000E+00
    0.62887E-02        -0.27436E-01         0.00000E+00
    0.55034E-02        -0.24738E-01         0.00000E+00
    0.47609E-02        -0.22019E-01         0.00000E+00
    0.40565E-02        -0.19281E-01         0.00000E+00
    0.33860E-02        -0.16528E-01         0.00000E+00
    0.27464E-02        -0.13766E-01         0.00000E+00
    0.21363E-02        -0.10998E-01         0.00000E+00
    0.15557E-02        -0.82321E-02         0.00000E+00
    0.10055E-02        -0.54735E-02         0.00000E+00
    0.48674E-03        -0.27280E-02         0.00000E+00
    0.00000E+00         0.00000E+00         0.00000E+00
    0.11000E-01        -0.41788E-01         0.00000E+00
    0.99262E-02        -0.39118E-01         0.00000E+00
    0.89236E-02        -0.36446E-01         0.00000E+00
    0.79888E-02        -0.33760E-01         0.00000E+00
    0.71165E-02        -0.31052E-01         0.00000E+00
    0.63004E-02        -0.28318E-01         0.00000E+00
    0.55336E-02        -0.25557E-01         0.00000E+00
    0.48091E-02        -0.22769E-01         0.00000E+00
    0.41203E-02        -0.19956E-01         0.00000E+00
    0.34613E-02        -0.17122E-01         0.00000E+00
    0.28278E-02        -0.14270E-01         0.00000E+00
    0.22169E-02        -0.11408E-01         0.00000E+00
    0.16277E-02        -0.85422E-02         0.00000E+00
    0.10606E-02        -0.56803E-02         0.00000E+00
    0.51726E-03        -0.28303E-02         0.00000E+00
    0.00000E+00         0.00000E+00         0.00000E+00
    0.10882E-01        -0.42907E-01         0.00000E+00
    0.98006E-02        -0.40205E-01         0.00000E+00
    0.88055E-02        -0.37493E-01         0.00000E+00
    0.78877E-02        -0.34759E-01         0.00000E+00
    0.70386E-02        -0.31997E-01         0.00000E+00
    0.62492E-02        -0.29204E-01         0.00000E+00
    0.55107E-02        -0.26378E-01         0.00000E+00
    0.48141E-02        -0.23521E-01         0.00000E+00
    0.41508E-02        -0.20632E-01         0.00000E+00
    0.35133E-02        -0.17716E-01         0.00000E+00
    0.28949E-02        -0.14776E-01         0.00000E+00
    0.22913E-02        -0.11820E-01         0.00000E+00
    0.16995E-02        -0.88549E-02         0.00000E+00
    0.11191E-02        -0.58897E-02         0.00000E+00
    0.55152E-03        -0.29347E-02         0.00000E+00
    0.00000E+00         0.00000E+00         0.00000E+00
    0.10643E-01        -0.44040E-01         0.00000E+00
    0.95652E-02        -0.41298E-01         0.00000E+00
    0.85912E-02        -0.38540E-01         0.00000E+00
    0.77022E-02        -0.35754E-01         0.00000E+00
    0.68862E-02        -0.32936E-01         0.00000E+00
    0.61331E-02        -0.30082E-01         0.00000E+00
    0.54322E-02        -0.27191E-01         0.00000E+00
    0.47729E-02        -0.24263E-01         0.00000E+00
    0.41448E-02        -0.21300E-01         0.00000E+00
    0.35381E-02        -0.18303E-01         0.00000E+00
    0.29440E-02        -0.15278E-01         0.00000E+00
    0.23555E-02        -0.12230E-01         0.00000E+00
    0.17679E-02        -0.91670E-02         0.00000E+00
    0.11786E-02        -0.61000E-02         0.00000E+00
    0.58820E-03        -0.30401E-02         0.00000E+00
    0.00000E+00         0.00000E+00         0.00000E+00
    0.10290E-01        -0.45181E-01         0.00000E+00
    0.92235E-02        -0.42384E-01         0.00000E+00
    0.82803E-02        -0.39573E-01         0.00000E+00
    0.74308E-02        -0.36734E-01         0.00000E+00
    0.66575E-02        -0.33857E-01         0.00000E+00
    0.59497E-02        -0.30941E-01         0.00000E+00
    0.52953E-02        -0.27985E-01         0.00000E+00
    0.46823E-02        -0.24988E-01         0.00000E+00
    0.40982E-02        -0.21950E-01         0.00000E+00
    0.35310E-02        -0.18876E-01         0.00000E+00
    0.29697E-02        -0.15768E-01         0.00000E+00
    0.24048E-02        -0.12632E-01         0.00000E+00
    0.18287E-02        -0.94754E-02         0.00000E+00
    0.12364E-02        -0.63091E-02         0.00000E+00
    0.62597E-03        -0.31456E-02         0.00000E+00
    0.00000E+00         0.00000E+00         0.00000E+00
    0.98237E-02        -0.46314E-01         0.00000E+00
    0.87809E-02        -0.43455E-01         0.00000E+00
    0.78747E-02        -0.40583E-01         0.00000E+00
    0.70721E-02        -0.37686E-01         0.00000E+00
    0.63508E-02        -0.34750E-01         0.00000E+00
    0.56968E-02        -0.31771E-01         0.00000E+00
    0.50973E-02        -0.28749E-01         0.00000E+00
    0.45384E-02        -0.25683E-01         0.00000E+00
    0.40060E-02        -0.22575E-01         0.00000E+00
    0.34862E-02        -0.19427E-01         0.00000E+00
    0.29658E-02        -0.16241E-01         0.00000E+00
    0.24329E-02        -0.13022E-01         0.00000E+00
    0.18767E-02        -0.97767E-02         0.00000E+00
    0.12887E-02        -0.65151E-02         0.00000E+00
    0.66330E-03        -0.32503E-02         0.00000E+00
    0.00000E+00         0.00000E+00         0.00000E+00
    0.92416E-02        -0.47421E-01         0.00000E+00
    0.82359E-02        -0.44498E-01         0.00000E+00
    0.73753E-02        -0.41562E-01         0.00000E+00
    0.66269E-02        -0.38602E-01         0.00000E+00
    0.59650E-02        -0.35602E-01         0.00000E+00
    0.53727E-02        -0.32559E-01         0.00000E+00
    0.48351E-02        -0.29471E-01         0.00000E+00
    0.43369E-02        -0.26339E-01         0.00000E+00
    0.38626E-02        -0.23164E-01         0.00000E+00
    0.33968E-02        -0.19946E-01         0.00000E+00
    0.29246E-02        -0.16689E-01         0.00000E+00
    0.24318E-02        -0.13394E-01         0.00000E+00
    0.19049E-02        -0.10067E-01         0.00000E+00
    0.13309E-02        -0.67158E-02         0.00000E+00
    0.69812E-03        -0.33535E-02         0.00000E+00
    0.00000E+00         0.00000E+00         0.00000E+00
    0.85392E-02        -0.48488E-01         0.00000E+00
    0.75850E-02        -0.45500E-01         0.00000E+00
    0.67816E-02        -0.42496E-01         0.00000E+00
    0.60958E-02        -0.39469E-01         0.00000E+00
    0.55002E-02        -0.36404E-01         0.00000E+00
    0.49759E-02        -0.33294E-01         0.00000E+00
    0.45059E-02        -0.30141E-01         0.00000E+00
    0.40733E-02        -0.26945E-01         0.00000E+00
    0.36617E-02        -0.23706E-01         0.00000E+00
    0.32548E-02        -0.20426E-01         0.00000E+00
    0.28370E-02        -0.17105E-01         0.00000E+00
    0.23923E-02        -0.13743E-01         0.00000E+00
    0.19047E-02        -0.10342E-01         0.00000E+00
    0.13564E-02        -0.69089E-02         0.00000E+00
    0.72757E-03        -0.34541E-02         0.00000E+00
    0.00000E+00         0.00000E+00         0.00000E+00
    0.77125E-02        -0.49499E-01         0.00000E+00
    0.68253E-02        -0.46445E-01         0.00000E+00
    0.60922E-02        -0.43372E-01         0.00000E+00
    0.54785E-02        -0.40276E-01         0.00000E+00
    0.49566E-02        -0.37142E-01         0.00000E+00
    0.45057E-02        -0.33965E-01         0.00000E+00
    0.41070E-02        -0.30747E-01         0.00000E+00
    0.37427E-02        -0.27490E-01         0.00000E+00
    0.33961E-02        -0.24194E-01         0.00000E+00
    0.30514E-02        -0.20858E-01         0.00000E+00
    0.26927E-02        -0.17481E-01         0.00000E+00
    0.23033E-02        -0.14061E-01         0.00000E+00
    0.18650E-02        -0.10597E-01         0.00000E+00
    0.13560E-02        -0.70917E-02         0.00000E+00
    0.74689E-03        -0.35518E-02         0.00000E+00
    0.00000E+00         0.00000E+00         0.00000E+00
    0.67585E-02        -0.50436E-01         0.00000E+00
    0.59547E-02        -0.47316E-01         0.00000E+00
    0.53059E-02        -0.44173E-01         0.00000E+00
    0.47752E-02        -0.41007E-01         0.00000E+00
    0.43346E-02        -0.37803E-01         0.00000E+00
    0.39612E-02        -0.34559E-01         0.00000E+00
    0.36354E-02        -0.31279E-01         0.00000E+00
    0.33396E-02        -0.27965E-01         0.00000E+00
    0.30583E-02        -0.24617E-01         0.00000E+00
    0.27769E-02        -0.21233E-01         0.00000E+00
    0.24803E-02        -0.17811E-01         0.00000E+00
    0.21522E-02        -0.14344E-01         0.00000E+00
    0.17730E-02        -0.10828E-01         0.00000E+00
    0.13179E-02        -0.72608E-02         0.00000E+00
    0.74892E-03        -0.36444E-02         0.00000E+00
    0.00000E+00         0.00000E+00         0.00000E+00
    0.56746E-02        -0.51283E-01         0.00000E+00
    0.49726E-02        -0.48096E-01         0.00000E+00
    0.44236E-02        -0.44883E-01         0.00000E+00
    0.39872E-02        -0.41645E-01         0.00000E+00
    0.36342E-02        -0.38372E-01         0.00000E+00
    0.33407E-02        -0.35064E-01         0.00000E+00
    0.30872E-02        -0.31726E-01         0.00000E+00
    0.28581E-02        -0.28361E-01         0.00000E+00
    0.26401E-02        -0.24968E-01         0.00000E+00
    0.24210E-02        -0.21545E-01         0.00000E+00
    0.21879E-02        -0.18086E-01         0.00000E+00
    0.19256E-02        -0.14584E-01         0.00000E+00
    0.16146E-02        -0.11030E-01         0.00000E+00
    0.12281E-02        -0.74138E-02         0.00000E+00
    0.72171E-03        -0.37324E-02         0.00000E+00
    0.00000E+00         0.00000E+00         0.00000E+00
    0.44584E-02        -0.52019E-01         0.00000E+00
    0.38798E-02        -0.48765E-01         0.00000E+00
    0.34476E-02        -0.45480E-01         0.00000E+00
    0.31161E-02        -0.42172E-01         0.00000E+00
    0.28551E-02        -0.38834E-01         0.00000E+00
    0.26411E-02        -0.35467E-01         0.00000E+00
    0.24572E-02        -0.32079E-01         0.00000E+00
    0.22912E-02        -0.28671E-01         0.00000E+00
    0.21332E-02        -0.25241E-01         0.00000E+00
    0.19739E-02        -0.21787E-01         0.00000E+00
    0.18033E-02        -0.18302E-01         0.00000E+00
    0.16092E-02        -0.14776E-01         0.00000E+00
    0.13741E-02        -0.11197E-01         0.00000E+00
    0.10707E-02        -0.75482E-02         0.00000E+00
    0.65235E-03        -0.38156E-02         0.00000E+00
    0.00000E+00         0.00000E+00         0.00000E+00
    0.31075E-02        -0.52618E-01         0.00000E+00
    0.26801E-02        -0.49297E-01         0.00000E+00
    0.23823E-02        -0.45942E-01         0.00000E+00
    0.21632E-02        -0.42567E-01         0.00000E+00
    0.19946E-02        -0.39172E-01         0.00000E+00
    0.18569E-02        -0.35759E-01         0.00000E+00
    0.17385E-02        -0.32332E-01         0.00000E+00
    0.16315E-02        -0.28891E-01         0.00000E+00
    0.15295E-02        -0.25435E-01         0.00000E+00
    0.14266E-02        -0.21958E-01         0.00000E+00
    0.13160E-02        -0.18455E-01         0.00000E+00
    0.11896E-02        -0.14915E-01         0.00000E+00
    0.10344E-02        -0.11323E-01         0.00000E+00
    0.82806E-03        -0.76589E-02         0.00000E+00
    0.52490E-03        -0.38925E-02         0.00000E+00
    0.00000E+00         0.00000E+00         0.00000E+00
    0.16194E-02        -0.53044E-01         0.00000E+00
    0.13826E-02        -0.49657E-01         0.00000E+00
    0.12334E-02        -0.46237E-01         0.00000E+00
    0.11268E-02        -0.42810E-01         0.00000E+00
    0.10463E-02        -0.39376E-01         0.00000E+00
    0.97987E-03        -0.35933E-01         0.00000E+00
    0.92245E-03        -0.32482E-01         0.00000E+00
    0.87049E-03        -0.29021E-01         0.00000E+00
    0.82099E-03        -0.25548E-01         0.00000E+00
    0.77098E-03        -0.22058E-01         0.00000E+00
    0.71726E-03        -0.18544E-01         0.00000E+00
    0.65570E-03        -0.14996E-01         0.00000E+00
    0.57990E-03        -0.11400E-01         0.00000E+00
    0.47766E-03        -0.77349E-02         0.00000E+00
    0.32003E-03        -0.39599E-02         0.00000E+00
    0.00000E+00         0.00000E+00         0.00000E+00
    0.00000E+00        -0.53228E-01         0.00000E+00
    0.00000E+00        -0.49789E-01         0.00000E+00
    0.00000E+00        -0.46340E-01         0.00000E+00
    0.00000E+00        -0.42891E-01         0.00000E+00
    0.00000E+00        -0.39444E-01         0.00000E+00
    0.00000E+00        -0.35991E-01         0.00000E+00
    0.00000E+00        -0.32531E-01         0.00000E+00
    0.00000E+00        -0.29064E-01         0.00000E+00
    0.00000E+00        -0.25585E-01         0.00000E+00
    0.00000E+00        -0.22090E-01         0.00000E+00
    0.00000E+00        -0.18573E-01         0.00000E+00
    0.00000E+00        -0.15022E-01         0.00000E+00
    0.00000E+00        -0.11426E-01         0.00000E+00
    0.00000E+00        -0.77627E-02         0.00000E+00
    0.00000E+00        -0.39922E-02         0.00000E+00
    0.00000E+00         0.00000E+00         0.00000E+00
CELL_DATA        450
VECTORS vDarcy double 
    0.24888E-09        -0.21562E-10         0.00000E+00
    0.24883E-09        -0.64786E-10         0.00000E+00
    0.24861E-09        -0.10807E-09         0.00000E+00
    0.24820E-09        -0.15129E-09         0.00000E+00
    0.24765E-09        -0.19428E-09         0.00000E+00
    0.24701E-09        -0.23685E-09         0.00000E+00
    0.24634E-09        -0.27888E-09         0.00000E+00
    0.24566E-09        -0.31682E-09         0.00000E+00
    0.24502E-09        -0.31917E-09         0.00000E+00
    0.24449E-09        -0.28584E-09         0.00000E+00
    0.24405E-09        -0.24621E-09         0.00000E+00
    0.24367E-09        -0.20115E-09         0.00000E+00
    0.24338E-09        -0.15067E-09         0.00000E+00
    0.24319E-09        -0.94750E-10         0.00000E+00
    0.24309E-09        -0.33331E-10         0.00000E+00
    0.74587E-09        -0.21608E-10         0.00000E+00
    0.74576E-09        -0.64596E-10         0.00000E+00
    0.74520E-09        -0.10750E-09         0.00000E+00
    0.74408E-09        -0.15035E-09         0.00000E+00
    0.74247E-09        -0.19308E-09         0.00000E+00
    0.74056E-09        -0.23552E-09         0.00000E+00
    0.73851E-09        -0.27751E-09         0.00000E+00
    0.73643E-09        -0.31545E-09         0.00000E+00
    0.73449E-09        -0.31799E-09         0.00000E+00
    0.73287E-09        -0.28489E-09         0.00000E+00
    0.73152E-09        -0.24538E-09         0.00000E+00
    0.73038E-09        -0.20049E-09         0.00000E+00
    0.72951E-09        -0.15020E-09         0.00000E+00
    0.72893E-09        -0.94471E-10         0.00000E+00
    0.72864E-09        -0.33242E-10         0.00000E+00
    0.12405E-08        -0.21753E-10         0.00000E+00
    0.12405E-08        -0.64379E-10         0.00000E+00
    0.12399E-08        -0.10658E-09         0.00000E+00
    0.12383E-08        -0.14864E-09         0.00000E+00
    0.12359E-08        -0.19074E-09         0.00000E+00
    0.12327E-08        -0.23282E-09         0.00000E+00
    0.12292E-08        -0.27467E-09         0.00000E+00
    0.12256E-08        -0.31260E-09         0.00000E+00
    0.12222E-08        -0.31557E-09         0.00000E+00
    0.12194E-08        -0.28296E-09         0.00000E+00
    0.12171E-08        -0.24371E-09         0.00000E+00
    0.12152E-08        -0.19915E-09         0.00000E+00
    0.12138E-08        -0.14924E-09         0.00000E+00
    0.12128E-08        -0.93911E-10         0.00000E+00
    0.12123E-08        -0.33064E-10         0.00000E+00
    0.17315E-08        -0.22055E-10         0.00000E+00
    0.17317E-08        -0.64368E-10         0.00000E+00
    0.17313E-08        -0.10565E-09         0.00000E+00
    0.17298E-08        -0.14651E-09         0.00000E+00
    0.17268E-08        -0.18746E-09         0.00000E+00
    0.17225E-08        -0.22873E-09         0.00000E+00
    0.17174E-08        -0.27015E-09         0.00000E+00
    0.17120E-08        -0.30809E-09         0.00000E+00
    0.17070E-08        -0.31180E-09         0.00000E+00
    0.17030E-08        -0.28000E-09         0.00000E+00
    0.16997E-08        -0.24114E-09         0.00000E+00
    0.16969E-08        -0.19711E-09         0.00000E+00
    0.16948E-08        -0.14780E-09         0.00000E+00
    0.16935E-08        -0.93066E-10         0.00000E+00
    0.16928E-08        -0.32797E-10         0.00000E+00
    0.22176E-08        -0.22518E-10         0.00000E+00
    0.22181E-08        -0.64726E-10         0.00000E+00
    0.22181E-08        -0.10508E-09         0.00000E+00
    0.22170E-08        -0.14443E-09         0.00000E+00
    0.22140E-08        -0.18363E-09         0.00000E+00
    0.22089E-08        -0.22333E-09         0.00000E+00
    0.22022E-08        -0.26373E-09         0.00000E+00
    0.21946E-08        -0.30156E-09         0.00000E+00
    0.21877E-08        -0.30648E-09         0.00000E+00
    0.21822E-08        -0.27593E-09         0.00000E+00
    0.21779E-08        -0.23765E-09         0.00000E+00
    0.21743E-08        -0.19435E-09         0.00000E+00
    0.21716E-08        -0.14583E-09         0.00000E+00
    0.21698E-08        -0.91925E-10         0.00000E+00
    0.21689E-08        -0.32439E-10         0.00000E+00
    0.26977E-08        -0.23074E-10         0.00000E+00
    0.26983E-08        -0.65448E-10         0.00000E+00
    0.26989E-08        -0.10508E-09         0.00000E+00
    0.26984E-08        -0.14286E-09         0.00000E+00
    0.26959E-08        -0.17981E-09         0.00000E+00
    0.26907E-08        -0.21700E-09         0.00000E+00
    0.26826E-08        -0.25529E-09         0.00000E+00
    0.26727E-08        -0.29256E-09         0.00000E+00
    0.26633E-08        -0.29928E-09         0.00000E+00
    0.26562E-08        -0.27063E-09         0.00000E+00
    0.26506E-08        -0.23314E-09         0.00000E+00
    0.26461E-08        -0.19078E-09         0.00000E+00
    0.26426E-08        -0.14331E-09         0.00000E+00
    0.26403E-08        -0.90469E-10         0.00000E+00
    0.26393E-08        -0.31990E-10         0.00000E+00
    0.31708E-08        -0.23607E-10         0.00000E+00
    0.31714E-08        -0.66343E-10         0.00000E+00
    0.31722E-08        -0.10557E-09         0.00000E+00
    0.31722E-08        -0.14202E-09         0.00000E+00
    0.31705E-08        -0.17659E-09         0.00000E+00
    0.31659E-08        -0.21050E-09         0.00000E+00
    0.31573E-08        -0.24518E-09         0.00000E+00
    0.31451E-08        -0.28064E-09         0.00000E+00
    0.31328E-08        -0.28966E-09         0.00000E+00
    0.31236E-08        -0.26401E-09         0.00000E+00
    0.31168E-08        -0.22748E-09         0.00000E+00
    0.31111E-08        -0.18629E-09         0.00000E+00
    0.31068E-08        -0.14015E-09         0.00000E+00
    0.31040E-08        -0.88663E-10         0.00000E+00
    0.31026E-08        -0.31444E-10         0.00000E+00
    0.36359E-08        -0.24001E-10         0.00000E+00
    0.36363E-08        -0.67117E-10         0.00000E+00
    0.36368E-08        -0.10618E-09         0.00000E+00
    0.36369E-08        -0.14168E-09         0.00000E+00
    0.36358E-08        -0.17420E-09         0.00000E+00
    0.36320E-08        -0.20463E-09         0.00000E+00
    0.36240E-08        -0.23452E-09         0.00000E+00
    0.36106E-08        -0.26586E-09         0.00000E+00
    0.35953E-08        -0.27696E-09         0.00000E+00
    0.35836E-08        -0.25589E-09         0.00000E+00
    0.35751E-08        -0.22042E-09         0.00000E+00
    0.35681E-08        -0.18072E-09         0.00000E+00
    0.35628E-08        -0.13623E-09         0.00000E+00
    0.35593E-08        -0.86446E-10         0.00000E+00
    0.35577E-08        -0.30795E-10         0.00000E+00
    0.40919E-08        -0.24181E-10         0.00000E+00
    0.40919E-08        -0.67480E-10         0.00000E+00
    0.40918E-08        -0.10641E-09         0.00000E+00
    0.40913E-08        -0.14123E-09         0.00000E+00
    0.40899E-08        -0.17218E-09         0.00000E+00
    0.40865E-08        -0.19967E-09         0.00000E+00
    0.40797E-08        -0.22467E-09         0.00000E+00
    0.40668E-08        -0.24956E-09         0.00000E+00
    0.40499E-08        -0.26118E-09         0.00000E+00
    0.40351E-08        -0.24533E-09         0.00000E+00
    0.40243E-08        -0.21188E-09         0.00000E+00
    0.40159E-08        -0.17385E-09         0.00000E+00
    0.40093E-08        -0.13137E-09         0.00000E+00
    0.40051E-08        -0.83725E-10         0.00000E+00
    0.40031E-08        -0.30031E-10         0.00000E+00
    0.45373E-08        -0.24105E-10         0.00000E+00
    0.45368E-08        -0.67200E-10         0.00000E+00
    0.45357E-08        -0.10576E-09         0.00000E+00
    0.45341E-08        -0.13988E-09         0.00000E+00
    0.45314E-08        -0.16958E-09         0.00000E+00
    0.45272E-08        -0.19493E-09         0.00000E+00
    0.45207E-08        -0.21612E-09         0.00000E+00
    0.45095E-08        -0.23413E-09         0.00000E+00
    0.44934E-08        -0.24372E-09         0.00000E+00
    0.44769E-08        -0.23170E-09         0.00000E+00
    0.44637E-08        -0.20168E-09         0.00000E+00
    0.44534E-08        -0.16543E-09         0.00000E+00
    0.44453E-08        -0.12532E-09         0.00000E+00
    0.44400E-08        -0.80285E-10         0.00000E+00
    0.44375E-08        -0.29125E-10         0.00000E+00
    0.49707E-08        -0.23739E-10         0.00000E+00
    0.49695E-08        -0.66076E-10         0.00000E+00
    0.49673E-08        -0.10378E-09         0.00000E+00
    0.49638E-08        -0.13684E-09         0.00000E+00
    0.49589E-08        -0.16522E-09         0.00000E+00
    0.49524E-08        -0.18885E-09         0.00000E+00
    0.49442E-08        -0.20753E-09         0.00000E+00
    0.49334E-08        -0.22087E-09         0.00000E+00
    0.49194E-08        -0.22706E-09         0.00000E+00
    0.49043E-08        -0.21689E-09         0.00000E+00
    0.48911E-08        -0.19022E-09         0.00000E+00
    0.48798E-08        -0.15548E-09         0.00000E+00
    0.48700E-08        -0.11748E-09         0.00000E+00
    0.48628E-08        -0.75607E-10         0.00000E+00
    0.48594E-08        -0.28044E-10         0.00000E+00
    0.53906E-08        -0.23021E-10         0.00000E+00
    0.53886E-08        -0.63892E-10         0.00000E+00
    0.53848E-08        -0.10004E-09         0.00000E+00
    0.53790E-08        -0.13143E-09         0.00000E+00
    0.53712E-08        -0.15806E-09         0.00000E+00
    0.53613E-08        -0.17988E-09         0.00000E+00
    0.53496E-08        -0.19667E-09         0.00000E+00
    0.53363E-08        -0.20783E-09         0.00000E+00
    0.53219E-08        -0.21191E-09         0.00000E+00
    0.53083E-08        -0.20345E-09         0.00000E+00
    0.52975E-08        -0.17973E-09         0.00000E+00
    0.52889E-08        -0.14624E-09         0.00000E+00
    0.52809E-08        -0.10899E-09         0.00000E+00
    0.52731E-08        -0.69194E-10         0.00000E+00
    0.52676E-08        -0.25681E-10         0.00000E+00
    0.57954E-08        -0.21855E-10         0.00000E+00
    0.57925E-08        -0.60385E-10         0.00000E+00
    0.57867E-08        -0.94126E-10         0.00000E+00
    0.57781E-08        -0.12309E-09         0.00000E+00
    0.57668E-08        -0.14738E-09         0.00000E+00
    0.57530E-08        -0.16711E-09         0.00000E+00
    0.57373E-08        -0.18214E-09         0.00000E+00
    0.57200E-08        -0.19198E-09         0.00000E+00
    0.57020E-08        -0.19546E-09         0.00000E+00
    0.56852E-08        -0.18960E-09         0.00000E+00
    0.56730E-08        -0.17069E-09         0.00000E+00
    0.56660E-08        -0.13987E-09         0.00000E+00
    0.56615E-08        -0.10289E-09         0.00000E+00
    0.56570E-08        -0.63193E-10         0.00000E+00
    0.56524E-08        -0.21614E-10         0.00000E+00
    0.61837E-08        -0.20125E-10         0.00000E+00
    0.61795E-08        -0.55258E-10         0.00000E+00
    0.61715E-08        -0.85603E-10         0.00000E+00
    0.61597E-08        -0.11134E-09         0.00000E+00
    0.61445E-08        -0.13282E-09         0.00000E+00
    0.61267E-08        -0.15028E-09         0.00000E+00
    0.61070E-08        -0.16361E-09         0.00000E+00
    0.60859E-08        -0.17230E-09         0.00000E+00
    0.60641E-08        -0.17542E-09         0.00000E+00
    0.60426E-08        -0.17151E-09         0.00000E+00
    0.60239E-08        -0.15797E-09         0.00000E+00
    0.60109E-08        -0.13281E-09         0.00000E+00
    0.60041E-08        -0.98667E-10         0.00000E+00
    0.60010E-08        -0.59975E-10         0.00000E+00
    0.59996E-08        -0.18870E-10         0.00000E+00
    0.65539E-08        -0.17737E-10         0.00000E+00
    0.65484E-08        -0.48188E-10         0.00000E+00
    0.65377E-08        -0.74012E-10         0.00000E+00
    0.65223E-08        -0.95859E-10         0.00000E+00
    0.65033E-08        -0.11435E-09         0.00000E+00
    0.64818E-08        -0.12964E-09         0.00000E+00
    0.64586E-08        -0.14145E-09         0.00000E+00
    0.64343E-08        -0.14918E-09         0.00000E+00
    0.64096E-08        -0.15207E-09         0.00000E+00
    0.63852E-08        -0.14910E-09         0.00000E+00
    0.63624E-08        -0.13894E-09         0.00000E+00
    0.63433E-08        -0.11990E-09         0.00000E+00
    0.63302E-08        -0.91706E-10         0.00000E+00
    0.63235E-08        -0.57217E-10         0.00000E+00
    0.63214E-08        -0.18302E-10         0.00000E+00
    0.69050E-08        -0.14748E-10         0.00000E+00
    0.68979E-08        -0.38706E-10         0.00000E+00
    0.68839E-08        -0.58873E-10         0.00000E+00
    0.68647E-08        -0.76585E-10         0.00000E+00
    0.68423E-08        -0.92316E-10         0.00000E+00
    0.68178E-08        -0.10579E-09         0.00000E+00
    0.67920E-08        -0.11641E-09         0.00000E+00
    0.67654E-08        -0.12350E-09         0.00000E+00
    0.67388E-08        -0.12639E-09         0.00000E+00
    0.67127E-08        -0.12439E-09         0.00000E+00
    0.66884E-08        -0.11666E-09         0.00000E+00
    0.66674E-08        -0.10222E-09         0.00000E+00
    0.66516E-08        -0.80537E-10         0.00000E+00
    0.66419E-08        -0.52055E-10         0.00000E+00
    0.66376E-08        -0.17131E-10         0.00000E+00
    0.72356E-08        -0.11125E-10         0.00000E+00
    0.72264E-08        -0.26122E-10         0.00000E+00
    0.72087E-08        -0.39867E-10         0.00000E+00
    0.71861E-08        -0.53932E-10         0.00000E+00
    0.71610E-08        -0.67492E-10         0.00000E+00
    0.71344E-08        -0.79590E-10         0.00000E+00
    0.71068E-08        -0.89371E-10         0.00000E+00
    0.70789E-08        -0.96176E-10         0.00000E+00
    0.70513E-08        -0.99474E-10         0.00000E+00
    0.70248E-08        -0.98788E-10         0.00000E+00
    0.70004E-08        -0.93609E-10         0.00000E+00
    0.69794E-08        -0.83321E-10         0.00000E+00
    0.69628E-08        -0.67194E-10         0.00000E+00
    0.69516E-08        -0.44555E-10         0.00000E+00
    0.69461E-08        -0.14790E-10         0.00000E+00
    0.75437E-08        -0.56217E-11         0.00000E+00
    0.75313E-08        -0.10177E-10         0.00000E+00
    0.75107E-08        -0.17553E-10         0.00000E+00
    0.74858E-08        -0.28858E-10         0.00000E+00
    0.74592E-08        -0.40814E-10         0.00000E+00
    0.74313E-08        -0.51879E-10         0.00000E+00
    0.74029E-08        -0.61145E-10         0.00000E+00
    0.73744E-08        -0.68061E-10         0.00000E+00
    0.73467E-08        -0.72239E-10         0.00000E+00
    0.73205E-08        -0.73342E-10         0.00000E+00
    0.72967E-08        -0.70975E-10         0.00000E+00
    0.72764E-08        -0.64553E-10         0.00000E+00
    0.72601E-08        -0.53219E-10         0.00000E+00
    0.72487E-08        -0.35977E-10         0.00000E+00
    0.72429E-08        -0.12157E-10         0.00000E+00
    0.78275E-08         0.19534E-11         0.00000E+00
    0.78139E-08         0.81571E-11         0.00000E+00
    0.77913E-08         0.72316E-11         0.00000E+00
    0.77647E-08        -0.21367E-11         0.00000E+00
    0.77368E-08        -0.13009E-10         0.00000E+00
    0.77083E-08        -0.23341E-10         0.00000E+00
    0.76795E-08        -0.32419E-10         0.00000E+00
    0.76511E-08        -0.39854E-10         0.00000E+00
    0.76238E-08        -0.45364E-10         0.00000E+00
    0.75984E-08        -0.48645E-10         0.00000E+00
    0.75757E-08        -0.49257E-10         0.00000E+00
    0.75563E-08        -0.46534E-10         0.00000E+00
    0.75409E-08        -0.39575E-10         0.00000E+00
    0.75300E-08        -0.27429E-10         0.00000E+00
    0.75245E-08        -0.95078E-11         0.00000E+00
    0.80890E-08         0.99275E-11         0.00000E+00
    0.80756E-08         0.27288E-10         0.00000E+00
    0.80524E-08         0.33909E-10         0.00000E+00
    0.80235E-08         0.26732E-10         0.00000E+00
    0.79938E-08         0.15736E-10         0.00000E+00
    0.79647E-08         0.56176E-11         0.00000E+00
    0.79359E-08        -0.37116E-11         0.00000E+00
    0.79079E-08        -0.12101E-10         0.00000E+00
    0.78815E-08        -0.19328E-10         0.00000E+00
    0.78573E-08        -0.25045E-10         0.00000E+00
    0.78359E-08        -0.28718E-10         0.00000E+00
    0.78178E-08        -0.29597E-10         0.00000E+00
    0.78035E-08        -0.26791E-10         0.00000E+00
    0.77935E-08        -0.19431E-10         0.00000E+00
    0.77884E-08        -0.69917E-11         0.00000E+00
    0.83246E-08         0.17070E-10         0.00000E+00
    0.83124E-08         0.45939E-10         0.00000E+00
    0.82895E-08         0.61527E-10         0.00000E+00
    0.82599E-08         0.57658E-10         0.00000E+00
    0.82290E-08         0.45518E-10         0.00000E+00
    0.81993E-08         0.34748E-10         0.00000E+00
    0.81709E-08         0.24527E-10         0.00000E+00
    0.81439E-08         0.14715E-10         0.00000E+00
    0.81188E-08         0.54616E-11         0.00000E+00
    0.80962E-08        -0.28447E-11         0.00000E+00
    0.80763E-08        -0.95904E-11         0.00000E+00
    0.80597E-08        -0.13976E-10         0.00000E+00
    0.80467E-08        -0.15115E-10         0.00000E+00
    0.80377E-08        -0.12185E-10         0.00000E+00
    0.80331E-08        -0.46824E-11         0.00000E+00
    0.85275E-08         0.22744E-10         0.00000E+00
    0.85175E-08         0.62765E-10         0.00000E+00
    0.84972E-08         0.88135E-10         0.00000E+00
    0.84695E-08         0.88567E-10         0.00000E+00
    0.84395E-08         0.75642E-10         0.00000E+00
    0.84105E-08         0.63477E-10         0.00000E+00
    0.83832E-08         0.51701E-10         0.00000E+00
    0.83579E-08         0.40025E-10         0.00000E+00
    0.83348E-08         0.28522E-10         0.00000E+00
    0.83141E-08         0.17576E-10         0.00000E+00
    0.82962E-08         0.78319E-11         0.00000E+00
    0.82814E-08         0.11258E-12         0.00000E+00
    0.82699E-08        -0.46939E-11         0.00000E+00
    0.82620E-08        -0.57798E-11         0.00000E+00
    0.82580E-08        -0.26155E-11         0.00000E+00
    0.86975E-08         0.27438E-10         0.00000E+00
    0.86891E-08         0.76891E-10         0.00000E+00
    0.86724E-08         0.11143E-09         0.00000E+00
    0.86487E-08         0.11698E-09         0.00000E+00
    0.86221E-08         0.10407E-09         0.00000E+00
    0.85960E-08         0.90450E-10         0.00000E+00
    0.85714E-08         0.76798E-10         0.00000E+00
    0.85489E-08         0.63003E-10         0.00000E+00
    0.85286E-08         0.49170E-10         0.00000E+00
    0.85107E-08         0.35674E-10         0.00000E+00
    0.84954E-08         0.23149E-10         0.00000E+00
    0.84827E-08         0.12406E-10         0.00000E+00
    0.84729E-08         0.43232E-11         0.00000E+00
    0.84662E-08        -0.27938E-12         0.00000E+00
    0.84628E-08        -0.81446E-12         0.00000E+00
    0.88332E-08         0.31671E-10         0.00000E+00
    0.88266E-08         0.88313E-10         0.00000E+00
    0.88137E-08         0.13016E-09         0.00000E+00
    0.87955E-08         0.14064E-09         0.00000E+00
    0.87745E-08         0.12828E-09         0.00000E+00
    0.87537E-08         0.11361E-09         0.00000E+00
    0.87340E-08         0.98229E-10         0.00000E+00
    0.87160E-08         0.82406E-10         0.00000E+00
    0.86999E-08         0.66422E-10         0.00000E+00
    0.86857E-08         0.50697E-10         0.00000E+00
    0.86736E-08         0.35824E-10         0.00000E+00
    0.86636E-08         0.22557E-10         0.00000E+00
    0.86558E-08         0.11748E-10         0.00000E+00
    0.86506E-08         0.42364E-11         0.00000E+00
    0.86478E-08         0.69825E-12         0.00000E+00
    0.89332E-08         0.35129E-10         0.00000E+00
    0.89288E-08         0.96811E-10         0.00000E+00
    0.89205E-08         0.14349E-09         0.00000E+00
    0.89090E-08         0.15763E-09         0.00000E+00
    0.88957E-08         0.14597E-09         0.00000E+00
    0.88824E-08         0.13060E-09         0.00000E+00
    0.88698E-08         0.11392E-09         0.00000E+00
    0.88584E-08         0.96538E-10         0.00000E+00
    0.88482E-08         0.78953E-10         0.00000E+00
    0.88391E-08         0.61652E-10         0.00000E+00
    0.88312E-08         0.45162E-10         0.00000E+00
    0.88245E-08         0.30130E-10         0.00000E+00
    0.88191E-08         0.17343E-10         0.00000E+00
    0.88154E-08         0.76659E-11         0.00000E+00
    0.88135E-08         0.18996E-11         0.00000E+00
    0.89951E-08         0.37383E-10         0.00000E+00
    0.89936E-08         0.10152E-09         0.00000E+00
    0.89915E-08         0.15009E-09         0.00000E+00
    0.89886E-08         0.16613E-09         0.00000E+00
    0.89851E-08         0.15485E-09         0.00000E+00
    0.89817E-08         0.13900E-09         0.00000E+00
    0.89787E-08         0.12155E-09         0.00000E+00
    0.89761E-08         0.10339E-09         0.00000E+00
    0.89737E-08         0.85161E-10         0.00000E+00
    0.89712E-08         0.67335E-10         0.00000E+00
    0.89685E-08         0.50319E-10         0.00000E+00
    0.89659E-08         0.34590E-10         0.00000E+00
    0.89634E-08         0.20817E-10         0.00000E+00
    0.89615E-08         0.98867E-11         0.00000E+00
    0.89604E-08         0.27658E-11         0.00000E+00
    0.90157E-08         0.37968E-10         0.00000E+00
    0.90184E-08         0.10097E-09         0.00000E+00
    0.90247E-08         0.14771E-09         0.00000E+00
    0.90334E-08         0.16354E-09         0.00000E+00
    0.90427E-08         0.15231E-09         0.00000E+00
    0.90521E-08         0.13615E-09         0.00000E+00
    0.90614E-08         0.11868E-09         0.00000E+00
    0.90699E-08         0.10090E-09         0.00000E+00
    0.90770E-08         0.83385E-10         0.00000E+00
    0.90826E-08         0.66464E-10         0.00000E+00
    0.90863E-08         0.50348E-10         0.00000E+00
    0.90885E-08         0.35303E-10         0.00000E+00
    0.90895E-08         0.21822E-10         0.00000E+00
    0.90896E-08         0.10756E-10         0.00000E+00
    0.90895E-08         0.32825E-11         0.00000E+00
    0.89913E-08         0.36152E-10         0.00000E+00
    0.90003E-08         0.92680E-10         0.00000E+00
    0.90188E-08         0.13261E-09         0.00000E+00
    0.90436E-08         0.14609E-09         0.00000E+00
    0.90700E-08         0.13495E-09         0.00000E+00
    0.90957E-08         0.11908E-09         0.00000E+00
    0.91199E-08         0.10292E-09         0.00000E+00
    0.91414E-08         0.87224E-10         0.00000E+00
    0.91596E-08         0.72199E-10         0.00000E+00
    0.91742E-08         0.57891E-10         0.00000E+00
    0.91854E-08         0.44324E-10         0.00000E+00
    0.91933E-08         0.31573E-10         0.00000E+00
    0.91982E-08         0.19912E-10         0.00000E+00
    0.92008E-08         0.10113E-10         0.00000E+00
    0.92016E-08         0.34545E-11         0.00000E+00
    0.89163E-08         0.30248E-10         0.00000E+00
    0.89360E-08         0.71708E-10         0.00000E+00
    0.89734E-08         0.99247E-10         0.00000E+00
    0.90211E-08         0.10816E-09         0.00000E+00
    0.90703E-08         0.98286E-10         0.00000E+00
    0.91163E-08         0.84736E-10         0.00000E+00
    0.91577E-08         0.72392E-10         0.00000E+00
    0.91933E-08         0.61154E-10         0.00000E+00
    0.92232E-08         0.50691E-10         0.00000E+00
    0.92476E-08         0.40835E-10         0.00000E+00
    0.92667E-08         0.31528E-10         0.00000E+00
    0.92807E-08         0.22753E-10         0.00000E+00
    0.92902E-08         0.14593E-10         0.00000E+00
    0.92958E-08         0.75476E-11         0.00000E+00
    0.92978E-08         0.34827E-11         0.00000E+00
    0.87810E-08         0.12987E-10         0.00000E+00
    0.88238E-08         0.28604E-10         0.00000E+00
    0.88919E-08         0.38594E-10         0.00000E+00
    0.89728E-08         0.41607E-10         0.00000E+00
    0.90522E-08         0.37247E-10         0.00000E+00
    0.91213E-08         0.31437E-10         0.00000E+00
    0.91797E-08         0.26625E-10         0.00000E+00
    0.92290E-08         0.22459E-10         0.00000E+00
    0.92704E-08         0.18640E-10         0.00000E+00
    0.93043E-08         0.15058E-10         0.00000E+00
    0.93312E-08         0.11683E-10         0.00000E+00
    0.93516E-08         0.84981E-11         0.00000E+00
    0.93658E-08         0.55109E-11         0.00000E+00
    0.93743E-08         0.28511E-11         0.00000E+00
    0.93792E-08         0.17546E-11         0.00000E+00
POINT_DATA        496
VECTORS vDarcyNodal double 
    0.24888E-09        -0.21556E-10         0.00000E+00
    0.24889E-09        -0.43200E-10         0.00000E+00
    0.24876E-09        -0.86535E-10         0.00000E+00
    0.24845E-09        -0.12988E-09         0.00000E+00
    0.24795E-09        -0.17306E-09         0.00000E+00
    0.24734E-09        -0.21588E-09         0.00000E+00
    0.24668E-09        -0.25820E-09         0.00000E+00
    0.24600E-09        -0.29819E-09         0.00000E+00
    0.24532E-09        -0.31831E-09         0.00000E+00
    0.24473E-09        -0.30277E-09         0.00000E+00
    0.24425E-09        -0.26624E-09         0.00000E+00
    0.24384E-09        -0.22387E-09         0.00000E+00
    0.24350E-09        -0.17605E-09         0.00000E+00
    0.24326E-09        -0.12280E-09         0.00000E+00
    0.24312E-09        -0.64086E-10         0.00000E+00
    0.24307E-09        -0.33353E-10         0.00000E+00
    0.49735E-09        -0.21569E-10         0.00000E+00
    0.49739E-09        -0.43148E-10         0.00000E+00
    0.49719E-09        -0.86320E-10         0.00000E+00
    0.49661E-09        -0.12948E-09         0.00000E+00
    0.49566E-09        -0.17251E-09         0.00000E+00
    0.49445E-09        -0.21525E-09         0.00000E+00
    0.49312E-09        -0.25753E-09         0.00000E+00
    0.49174E-09        -0.29751E-09         0.00000E+00
    0.49035E-09        -0.31768E-09         0.00000E+00
    0.48916E-09        -0.30224E-09         0.00000E+00
    0.48820E-09        -0.26580E-09         0.00000E+00
    0.48736E-09        -0.22350E-09         0.00000E+00
    0.48669E-09        -0.17577E-09         0.00000E+00
    0.48620E-09        -0.12262E-09         0.00000E+00
    0.48592E-09        -0.63994E-10         0.00000E+00
    0.48582E-09        -0.33309E-10         0.00000E+00
    0.99312E-09        -0.21646E-10         0.00000E+00
    0.99326E-09        -0.43056E-10         0.00000E+00
    0.99302E-09        -0.85778E-10         0.00000E+00
    0.99207E-09        -0.12838E-09         0.00000E+00
    0.99034E-09        -0.17092E-09         0.00000E+00
    0.98799E-09        -0.21335E-09         0.00000E+00
    0.98528E-09        -0.25549E-09         0.00000E+00
    0.98243E-09        -0.29544E-09         0.00000E+00
    0.97957E-09        -0.31575E-09         0.00000E+00
    0.97713E-09        -0.30064E-09         0.00000E+00
    0.97518E-09        -0.26447E-09         0.00000E+00
    0.97348E-09        -0.22237E-09         0.00000E+00
    0.97212E-09        -0.17491E-09         0.00000E+00
    0.97114E-09        -0.12205E-09         0.00000E+00
    0.97057E-09        -0.63718E-10         0.00000E+00
    0.97038E-09        -0.33175E-10         0.00000E+00
    0.14859E-08        -0.21860E-10         0.00000E+00
    0.14861E-08        -0.43077E-10         0.00000E+00
    0.14861E-08        -0.85177E-10         0.00000E+00
    0.14851E-08        -0.12684E-09         0.00000E+00
    0.14830E-08        -0.16847E-09         0.00000E+00
    0.14797E-08        -0.21022E-09         0.00000E+00
    0.14756E-08        -0.25199E-09         0.00000E+00
    0.14710E-08        -0.29183E-09         0.00000E+00
    0.14665E-08        -0.31242E-09         0.00000E+00
    0.14627E-08        -0.29789E-09         0.00000E+00
    0.14597E-08        -0.26220E-09         0.00000E+00
    0.14571E-08        -0.22048E-09         0.00000E+00
    0.14550E-08        -0.17348E-09         0.00000E+00
    0.14536E-08        -0.12110E-09         0.00000E+00
    0.14527E-08        -0.63256E-10         0.00000E+00
    0.14524E-08        -0.32953E-10         0.00000E+00
    0.19743E-08        -0.22250E-10         0.00000E+00
    0.19747E-08        -0.43346E-10         0.00000E+00
    0.19750E-08        -0.84836E-10         0.00000E+00
    0.19744E-08        -0.12531E-09         0.00000E+00
    0.19723E-08        -0.16551E-09         0.00000E+00
    0.19684E-08        -0.20598E-09         0.00000E+00
    0.19630E-08        -0.24689E-09         0.00000E+00
    0.19566E-08        -0.28641E-09         0.00000E+00
    0.19500E-08        -0.30747E-09         0.00000E+00
    0.19447E-08        -0.29391E-09         0.00000E+00
    0.19405E-08        -0.25894E-09         0.00000E+00
    0.19370E-08        -0.21778E-09         0.00000E+00
    0.19342E-08        -0.17143E-09         0.00000E+00
    0.19322E-08        -0.11976E-09         0.00000E+00
    0.19310E-08        -0.62606E-10         0.00000E+00
    0.19307E-08        -0.32641E-10         0.00000E+00
    0.24573E-08        -0.22785E-10         0.00000E+00
    0.24579E-08        -0.43897E-10         0.00000E+00
    0.24585E-08        -0.84970E-10         0.00000E+00
    0.24585E-08        -0.12420E-09         0.00000E+00
    0.24569E-08        -0.16255E-09         0.00000E+00
    0.24530E-08        -0.20098E-09         0.00000E+00
    0.24466E-08        -0.24017E-09         0.00000E+00
    0.24382E-08        -0.27888E-09         0.00000E+00
    0.24291E-08        -0.30057E-09         0.00000E+00
    0.24219E-08        -0.28850E-09         0.00000E+00
    0.24165E-08        -0.25464E-09         0.00000E+00
    0.24120E-08        -0.21422E-09         0.00000E+00
    0.24084E-08        -0.16875E-09         0.00000E+00
    0.24058E-08        -0.11800E-09         0.00000E+00
    0.24043E-08        -0.61759E-10         0.00000E+00
    0.24038E-08        -0.32238E-10         0.00000E+00
    0.29340E-08        -0.23362E-10         0.00000E+00
    0.29345E-08        -0.44624E-10         0.00000E+00
    0.29353E-08        -0.85561E-10         0.00000E+00
    0.29357E-08        -0.12375E-09         0.00000E+00
    0.29348E-08        -0.16012E-09         0.00000E+00
    0.29316E-08        -0.19583E-09         0.00000E+00
    0.29250E-08        -0.23212E-09         0.00000E+00
    0.29149E-08        -0.26897E-09         0.00000E+00
    0.29029E-08        -0.29128E-09         0.00000E+00
    0.28932E-08        -0.28141E-09         0.00000E+00
    0.28866E-08        -0.24914E-09         0.00000E+00
    0.28808E-08        -0.20970E-09         0.00000E+00
    0.28763E-08        -0.16534E-09         0.00000E+00
    0.28731E-08        -0.11578E-09         0.00000E+00
    0.28712E-08        -0.60700E-10         0.00000E+00
    0.28707E-08        -0.31741E-10         0.00000E+00
    0.34032E-08        -0.23851E-10         0.00000E+00
    0.34035E-08        -0.45325E-10         0.00000E+00
    0.34042E-08        -0.86352E-10         0.00000E+00
    0.34048E-08        -0.12384E-09         0.00000E+00
    0.34044E-08        -0.15849E-09         0.00000E+00
    0.34019E-08        -0.19127E-09         0.00000E+00
    0.33960E-08        -0.22356E-09         0.00000E+00
    0.33853E-08        -0.25686E-09         0.00000E+00
    0.33705E-08        -0.27903E-09         0.00000E+00
    0.33577E-08        -0.27226E-09         0.00000E+00
    0.33495E-08        -0.24235E-09         0.00000E+00
    0.33424E-08        -0.20407E-09         0.00000E+00
    0.33368E-08        -0.16110E-09         0.00000E+00
    0.33328E-08        -0.11303E-09         0.00000E+00
    0.33305E-08        -0.59406E-10         0.00000E+00
    0.33299E-08        -0.31146E-10         0.00000E+00
    0.38638E-08        -0.24151E-10         0.00000E+00
    0.38640E-08        -0.45792E-10         0.00000E+00
    0.38642E-08        -0.86947E-10         0.00000E+00
    0.38644E-08        -0.12402E-09         0.00000E+00
    0.38639E-08        -0.15739E-09         0.00000E+00
    0.38618E-08        -0.18756E-09         0.00000E+00
    0.38568E-08        -0.21559E-09         0.00000E+00
    0.38469E-08        -0.24353E-09         0.00000E+00
    0.38305E-08        -0.26380E-09         0.00000E+00
    0.38147E-08        -0.26059E-09         0.00000E+00
    0.38040E-08        -0.23395E-09         0.00000E+00
    0.37954E-08        -0.19707E-09         0.00000E+00
    0.37885E-08        -0.15585E-09         0.00000E+00
    0.37836E-08        -0.10964E-09         0.00000E+00
    0.37808E-08        -0.57835E-10         0.00000E+00
    0.37800E-08        -0.30444E-10         0.00000E+00
    0.43146E-08        -0.24211E-10         0.00000E+00
    0.43145E-08        -0.45868E-10         0.00000E+00
    0.43141E-08        -0.86947E-10         0.00000E+00
    0.43134E-08        -0.12363E-09         0.00000E+00
    0.43120E-08        -0.15603E-09         0.00000E+00
    0.43093E-08        -0.18429E-09         0.00000E+00
    0.43045E-08        -0.20876E-09         0.00000E+00
    0.42959E-08        -0.23071E-09         0.00000E+00
    0.42804E-08        -0.24694E-09         0.00000E+00
    0.42629E-08        -0.24591E-09         0.00000E+00
    0.42492E-08        -0.22325E-09         0.00000E+00
    0.42389E-08        -0.18866E-09         0.00000E+00
    0.42304E-08        -0.14937E-09         0.00000E+00
    0.42243E-08        -0.10545E-09         0.00000E+00
    0.42208E-08        -0.55920E-10         0.00000E+00
    0.42199E-08        -0.29617E-10         0.00000E+00
    0.47542E-08        -0.24000E-10         0.00000E+00
    0.47538E-08        -0.45437E-10         0.00000E+00
    0.47526E-08        -0.86015E-10         0.00000E+00
    0.47505E-08        -0.12201E-09         0.00000E+00
    0.47474E-08        -0.15343E-09         0.00000E+00
    0.47429E-08        -0.18022E-09         0.00000E+00
    0.47368E-08        -0.20230E-09         0.00000E+00
    0.47281E-08        -0.21954E-09         0.00000E+00
    0.47148E-08        -0.23090E-09         0.00000E+00
    0.46980E-08        -0.22951E-09         0.00000E+00
    0.46832E-08        -0.21012E-09         0.00000E+00
    0.46716E-08        -0.17844E-09         0.00000E+00
    0.46616E-08        -0.14137E-09         0.00000E+00
    0.46537E-08        -0.10015E-09         0.00000E+00
    0.46490E-08        -0.53490E-10         0.00000E+00
    0.46479E-08        -0.28634E-10         0.00000E+00
    0.51810E-08        -0.23477E-10         0.00000E+00
    0.51802E-08        -0.44378E-10         0.00000E+00
    0.51780E-08        -0.83839E-10         0.00000E+00
    0.51741E-08        -0.11860E-09         0.00000E+00
    0.51686E-08        -0.14863E-09         0.00000E+00
    0.51614E-08        -0.17385E-09         0.00000E+00
    0.51524E-08        -0.19408E-09         0.00000E+00
    0.51414E-08        -0.20886E-09         0.00000E+00
    0.51283E-08        -0.21703E-09         0.00000E+00
    0.51131E-08        -0.21444E-09         0.00000E+00
    0.50996E-08        -0.19698E-09         0.00000E+00
    0.50890E-08        -0.16726E-09         0.00000E+00
    0.50797E-08        -0.13160E-09         0.00000E+00
    0.50712E-08        -0.92940E-10         0.00000E+00
    0.50647E-08        -0.50162E-10         0.00000E+00
    0.50623E-08        -0.27455E-10         0.00000E+00
    0.55936E-08        -0.22564E-10         0.00000E+00
    0.55924E-08        -0.42534E-10         0.00000E+00
    0.55888E-08        -0.80092E-10         0.00000E+00
    0.55828E-08        -0.11287E-09         0.00000E+00
    0.55743E-08        -0.14086E-09         0.00000E+00
    0.55636E-08        -0.16408E-09         0.00000E+00
    0.55507E-08        -0.18247E-09         0.00000E+00
    0.55361E-08        -0.19564E-09         0.00000E+00
    0.55202E-08        -0.20271E-09         0.00000E+00
    0.55037E-08        -0.20092E-09         0.00000E+00
    0.54898E-08        -0.18620E-09         0.00000E+00
    0.54807E-08        -0.15872E-09         0.00000E+00
    0.54742E-08        -0.12364E-09         0.00000E+00
    0.54681E-08        -0.85242E-10         0.00000E+00
    0.54620E-08        -0.44713E-10         0.00000E+00
    0.54580E-08        -0.23907E-10         0.00000E+00
    0.59904E-08        -0.21147E-10         0.00000E+00
    0.59886E-08        -0.39706E-10         0.00000E+00
    0.59834E-08        -0.74418E-10         0.00000E+00
    0.59748E-08        -0.10434E-09         0.00000E+00
    0.59630E-08        -0.12961E-09         0.00000E+00
    0.59483E-08        -0.15041E-09         0.00000E+00
    0.59314E-08        -0.16678E-09         0.00000E+00
    0.59128E-08        -0.17848E-09         0.00000E+00
    0.58931E-08        -0.18473E-09         0.00000E+00
    0.58730E-08        -0.18415E-09         0.00000E+00
    0.58548E-08        -0.17410E-09         0.00000E+00
    0.58420E-08        -0.15184E-09         0.00000E+00
    0.58349E-08        -0.11912E-09         0.00000E+00
    0.58306E-08        -0.80845E-10         0.00000E+00
    0.58274E-08        -0.40093E-10         0.00000E+00
    0.58246E-08        -0.19320E-10         0.00000E+00
    0.63700E-08        -0.19103E-10         0.00000E+00
    0.63676E-08        -0.35677E-10         0.00000E+00
    0.63604E-08        -0.66443E-10         0.00000E+00
    0.63487E-08        -0.92599E-10         0.00000E+00
    0.63332E-08        -0.11455E-09         0.00000E+00
    0.63146E-08        -0.13270E-09         0.00000E+00
    0.62939E-08        -0.14711E-09         0.00000E+00
    0.62717E-08        -0.15743E-09         0.00000E+00
    0.62485E-08        -0.16298E-09         0.00000E+00
    0.62251E-08        -0.16277E-09         0.00000E+00
    0.62027E-08        -0.15538E-09         0.00000E+00
    0.61836E-08        -0.13894E-09         0.00000E+00
    0.61707E-08        -0.11235E-09         0.00000E+00
    0.61636E-08        -0.77798E-10         0.00000E+00
    0.61608E-08        -0.38752E-10         0.00000E+00
    0.61602E-08        -0.18420E-10         0.00000E+00
    0.67310E-08        -0.16371E-10         0.00000E+00
    0.67279E-08        -0.30248E-10         0.00000E+00
    0.67184E-08        -0.55757E-10         0.00000E+00
    0.67032E-08        -0.77273E-10         0.00000E+00
    0.66838E-08        -0.95652E-10         0.00000E+00
    0.66617E-08        -0.11128E-09         0.00000E+00
    0.66378E-08        -0.12398E-09         0.00000E+00
    0.66128E-08        -0.13321E-09         0.00000E+00
    0.65870E-08        -0.13827E-09         0.00000E+00
    0.65613E-08        -0.13840E-09         0.00000E+00
    0.65366E-08        -0.13266E-09         0.00000E+00
    0.65142E-08        -0.11990E-09         0.00000E+00
    0.64965E-08        -0.99253E-10         0.00000E+00
    0.64853E-08        -0.71126E-10         0.00000E+00
    0.64801E-08        -0.36768E-10         0.00000E+00
    0.64789E-08        -0.18185E-10         0.00000E+00
    0.70721E-08        -0.13124E-10         0.00000E+00
    0.70685E-08        -0.23205E-10         0.00000E+00
    0.70558E-08        -0.41822E-10         0.00000E+00
    0.70368E-08        -0.58185E-10         0.00000E+00
    0.70141E-08        -0.73250E-10         0.00000E+00
    0.69892E-08        -0.86828E-10         0.00000E+00
    0.69629E-08        -0.98227E-10         0.00000E+00
    0.69359E-08        -0.10671E-09         0.00000E+00
    0.69085E-08        -0.11162E-09         0.00000E+00
    0.68816E-08        -0.11238E-09         0.00000E+00
    0.68559E-08        -0.10838E-09         0.00000E+00
    0.68329E-08        -0.98979E-10         0.00000E+00
    0.68139E-08        -0.83508E-10         0.00000E+00
    0.68005E-08        -0.61467E-10         0.00000E+00
    0.67930E-08        -0.32419E-10         0.00000E+00
    0.67906E-08        -0.16078E-10         0.00000E+00
    0.73924E-08        -0.91267E-11         0.00000E+00
    0.73869E-08        -0.14042E-10         0.00000E+00
    0.73709E-08        -0.24168E-10         0.00000E+00
    0.73485E-08        -0.35615E-10         0.00000E+00
    0.73234E-08        -0.48175E-10         0.00000E+00
    0.72967E-08        -0.60255E-10         0.00000E+00
    0.72690E-08        -0.70735E-10         0.00000E+00
    0.72407E-08        -0.78838E-10         0.00000E+00
    0.72126E-08        -0.84027E-10         0.00000E+00
    0.71854E-08        -0.85883E-10         0.00000E+00
    0.71599E-08        -0.84016E-10         0.00000E+00
    0.71373E-08        -0.77952E-10         0.00000E+00
    0.71185E-08        -0.67008E-10         0.00000E+00
    0.71044E-08        -0.50283E-10         0.00000E+00
    0.70958E-08        -0.26927E-10         0.00000E+00
    0.70932E-08        -0.13502E-10         0.00000E+00
    0.76894E-08        -0.21170E-11         0.00000E+00
    0.76818E-08        -0.17564E-11         0.00000E+00
    0.76634E-08        -0.35624E-11         0.00000E+00
    0.76386E-08        -0.10797E-10         0.00000E+00
    0.76119E-08        -0.21499E-10         0.00000E+00
    0.75841E-08        -0.32439E-10         0.00000E+00
    0.75556E-08        -0.42290E-10         0.00000E+00
    0.75268E-08        -0.50369E-10         0.00000E+00
    0.74986E-08        -0.56274E-10         0.00000E+00
    0.74718E-08        -0.59699E-10         0.00000E+00
    0.74471E-08        -0.60302E-10         0.00000E+00
    0.74254E-08        -0.57577E-10         0.00000E+00
    0.74073E-08        -0.50764E-10         0.00000E+00
    0.73936E-08        -0.38913E-10         0.00000E+00
    0.73850E-08        -0.21207E-10         0.00000E+00
    0.73824E-08        -0.10812E-10         0.00000E+00
    0.79623E-08         0.60234E-11         0.00000E+00
    0.79543E-08         0.11866E-10         0.00000E+00
    0.79352E-08         0.18950E-10         0.00000E+00
    0.79085E-08         0.15891E-10         0.00000E+00
    0.78797E-08         0.63516E-11         0.00000E+00
    0.78510E-08        -0.39115E-11         0.00000E+00
    0.78220E-08        -0.13471E-10         0.00000E+00
    0.77934E-08        -0.21905E-10         0.00000E+00
    0.77656E-08        -0.28945E-10         0.00000E+00
    0.77396E-08        -0.34311E-10         0.00000E+00
    0.77161E-08        -0.37601E-10         0.00000E+00
    0.76955E-08        -0.38214E-10         0.00000E+00
    0.76786E-08        -0.35345E-10         0.00000E+00
    0.76658E-08        -0.28091E-10         0.00000E+00
    0.76577E-08        -0.15730E-10         0.00000E+00
    0.76552E-08        -0.82038E-11         0.00000E+00
    0.82104E-08         0.13831E-10         0.00000E+00
    0.82033E-08         0.25348E-10         0.00000E+00
    0.81847E-08         0.42246E-10         0.00000E+00
    0.81571E-08         0.44749E-10         0.00000E+00
    0.81263E-08         0.36115E-10         0.00000E+00
    0.80965E-08         0.25263E-10         0.00000E+00
    0.80675E-08         0.15375E-10         0.00000E+00
    0.80393E-08         0.60913E-11         0.00000E+00
    0.80125E-08        -0.24846E-11         0.00000E+00
    0.79878E-08        -0.10063E-10         0.00000E+00
    0.79656E-08        -0.16163E-10         0.00000E+00
    0.79465E-08        -0.20102E-10         0.00000E+00
    0.79309E-08        -0.21044E-10         0.00000E+00
    0.79192E-08        -0.18131E-10         0.00000E+00
    0.79119E-08        -0.10693E-10         0.00000E+00
    0.79096E-08        -0.57798E-11         0.00000E+00
    0.84289E-08         0.20309E-10         0.00000E+00
    0.84233E-08         0.37660E-10         0.00000E+00
    0.84066E-08         0.65219E-10         0.00000E+00
    0.83801E-08         0.74434E-10         0.00000E+00
    0.83493E-08         0.67060E-10         0.00000E+00
    0.83192E-08         0.55002E-10         0.00000E+00
    0.82906E-08         0.43899E-10         0.00000E+00
    0.82635E-08         0.33149E-10         0.00000E+00
    0.82383E-08         0.22660E-10         0.00000E+00
    0.82153E-08         0.12679E-10         0.00000E+00
    0.81950E-08         0.37272E-11         0.00000E+00
    0.81776E-08        -0.34660E-11         0.00000E+00
    0.81635E-08        -0.80473E-11         0.00000E+00
    0.81531E-08        -0.91694E-11         0.00000E+00
    0.81466E-08        -0.61750E-11         0.00000E+00
    0.81445E-08        -0.35852E-11         0.00000E+00
    0.86148E-08         0.25180E-10         0.00000E+00
    0.86102E-08         0.47849E-10         0.00000E+00
    0.85963E-08         0.85680E-10         0.00000E+00
    0.85732E-08         0.10227E-09         0.00000E+00
    0.85449E-08         0.97148E-10         0.00000E+00
    0.85166E-08         0.84115E-10         0.00000E+00
    0.84898E-08         0.71278E-10         0.00000E+00
    0.84648E-08         0.58576E-10         0.00000E+00
    0.84420E-08         0.45886E-10         0.00000E+00
    0.84214E-08         0.33418E-10         0.00000E+00
    0.84034E-08         0.21680E-10         0.00000E+00
    0.83882E-08         0.11410E-10         0.00000E+00
    0.83759E-08         0.34655E-11         0.00000E+00
    0.83669E-08        -0.13047E-11         0.00000E+00
    0.83613E-08        -0.22205E-11         0.00000E+00
    0.83595E-08        -0.16459E-11         0.00000E+00
    0.87675E-08         0.29696E-10         0.00000E+00
    0.87634E-08         0.56479E-10         0.00000E+00
    0.87523E-08         0.10264E-09         0.00000E+00
    0.87338E-08         0.12615E-09         0.00000E+00
    0.87103E-08         0.12390E-09         0.00000E+00
    0.86863E-08         0.11040E-09         0.00000E+00
    0.86633E-08         0.95969E-10         0.00000E+00
    0.86421E-08         0.81224E-10         0.00000E+00
    0.86228E-08         0.66286E-10         0.00000E+00
    0.86057E-08         0.51426E-10         0.00000E+00
    0.85908E-08         0.37143E-10         0.00000E+00
    0.85782E-08         0.24145E-10         0.00000E+00
    0.85681E-08         0.13263E-10         0.00000E+00
    0.85607E-08         0.53482E-11         0.00000E+00
    0.85561E-08         0.11265E-11         0.00000E+00
    0.85546E-08         0.16915E-13         0.00000E+00
    0.88850E-08         0.33646E-10         0.00000E+00
    0.88817E-08         0.63505E-10         0.00000E+00
    0.88736E-08         0.11583E-09         0.00000E+00
    0.88606E-08         0.14465E-09         0.00000E+00
    0.88439E-08         0.14502E-09         0.00000E+00
    0.88264E-08         0.13149E-09         0.00000E+00
    0.88096E-08         0.11587E-09         0.00000E+00
    0.87941E-08         0.99410E-10         0.00000E+00
    0.87802E-08         0.82541E-10         0.00000E+00
    0.87678E-08         0.65693E-10         0.00000E+00
    0.87570E-08         0.49377E-10         0.00000E+00
    0.87478E-08         0.34236E-10         0.00000E+00
    0.87403E-08         0.21042E-10         0.00000E+00
    0.87347E-08         0.10636E-10         0.00000E+00
    0.87313E-08         0.38080E-11         0.00000E+00
    0.87301E-08         0.13795E-11         0.00000E+00
    0.89653E-08         0.36613E-10         0.00000E+00
    0.89633E-08         0.68436E-10         0.00000E+00
    0.89591E-08         0.12447E-09         0.00000E+00
    0.89529E-08         0.15647E-09         0.00000E+00
    0.89447E-08         0.15858E-09         0.00000E+00
    0.89361E-08         0.14508E-09         0.00000E+00
    0.89280E-08         0.12866E-09         0.00000E+00
    0.89206E-08         0.11105E-09         0.00000E+00
    0.89139E-08         0.92949E-10         0.00000E+00
    0.89079E-08         0.74912E-10         0.00000E+00
    0.89024E-08         0.57436E-10         0.00000E+00
    0.88973E-08         0.41056E-10         0.00000E+00
    0.88930E-08         0.26430E-10         0.00000E+00
    0.88896E-08         0.14372E-10         0.00000E+00
    0.88874E-08         0.57574E-11         0.00000E+00
    0.88865E-08         0.24197E-11         0.00000E+00
    0.90057E-08         0.38153E-10         0.00000E+00
    0.90054E-08         0.70467E-10         0.00000E+00
    0.90066E-08         0.12714E-09         0.00000E+00
    0.90095E-08         0.15975E-09         0.00000E+00
    0.90124E-08         0.16240E-09         0.00000E+00
    0.90153E-08         0.14877E-09         0.00000E+00
    0.90185E-08         0.13190E-09         0.00000E+00
    0.90216E-08         0.11389E-09         0.00000E+00
    0.90244E-08         0.95604E-10         0.00000E+00
    0.90263E-08         0.77584E-10         0.00000E+00
    0.90274E-08         0.60217E-10         0.00000E+00
    0.90275E-08         0.43853E-10         0.00000E+00
    0.90269E-08         0.28977E-10         0.00000E+00
    0.90260E-08         0.16331E-10         0.00000E+00
    0.90252E-08         0.68951E-11         0.00000E+00
    0.90247E-08         0.31119E-11         0.00000E+00
    0.90026E-08         0.37783E-10         0.00000E+00
    0.90048E-08         0.68468E-10         0.00000E+00
    0.90138E-08         0.12154E-09         0.00000E+00
    0.90295E-08         0.15150E-09         0.00000E+00
    0.90474E-08         0.15345E-09         0.00000E+00
    0.90652E-08         0.13969E-09         0.00000E+00
    0.90826E-08         0.12294E-09         0.00000E+00
    0.90987E-08         0.10568E-09         0.00000E+00
    0.91126E-08         0.88680E-10         0.00000E+00
    0.91240E-08         0.72265E-10         0.00000E+00
    0.91328E-08         0.56595E-10         0.00000E+00
    0.91390E-08         0.41799E-10         0.00000E+00
    0.91428E-08         0.28149E-10         0.00000E+00
    0.91448E-08         0.16247E-10         0.00000E+00
    0.91456E-08         0.71434E-11         0.00000E+00
    0.91455E-08         0.34531E-11         0.00000E+00
    0.89509E-08         0.34521E-10         0.00000E+00
    0.89572E-08         0.60364E-10         0.00000E+00
    0.89790E-08         0.10376E-09         0.00000E+00
    0.90131E-08         0.12720E-09         0.00000E+00
    0.90516E-08         0.12759E-09         0.00000E+00
    0.90886E-08         0.11434E-09         0.00000E+00
    0.91234E-08         0.99066E-10         0.00000E+00
    0.91542E-08         0.84461E-10         0.00000E+00
    0.91805E-08         0.70744E-10         0.00000E+00
    0.92023E-08         0.57826E-10         0.00000E+00
    0.92195E-08         0.45621E-10         0.00000E+00
    0.92325E-08         0.34099E-10         0.00000E+00
    0.92415E-08         0.23336E-10         0.00000E+00
    0.92469E-08         0.13778E-10         0.00000E+00
    0.92496E-08         0.64245E-11         0.00000E+00
    0.92497E-08         0.34559E-11         0.00000E+00
    0.88400E-08         0.25975E-10         0.00000E+00
    0.88578E-08         0.41593E-10         0.00000E+00
    0.89019E-08         0.67202E-10         0.00000E+00
    0.89633E-08         0.80205E-10         0.00000E+00
    0.90305E-08         0.78858E-10         0.00000E+00
    0.90919E-08         0.68688E-10         0.00000E+00
    0.91456E-08         0.58065E-10         0.00000E+00
    0.91917E-08         0.49087E-10         0.00000E+00
    0.92307E-08         0.41102E-10         0.00000E+00
    0.92630E-08         0.33700E-10         0.00000E+00
    0.92889E-08         0.26743E-10         0.00000E+00
    0.93090E-08         0.20182E-10         0.00000E+00
    0.93234E-08         0.14010E-10         0.00000E+00
    0.93326E-08         0.83624E-11         0.00000E+00
    0.93375E-08         0.46059E-11         0.00000E+00
    0.93393E-08         0.35094E-11         0.00000E+00
    0.87680E-08         0.00000E+00         0.00000E+00
    0.87946E-08         0.00000E+00         0.00000E+00
    0.88529E-08        -0.24851E-22         0.00000E+00
    0.89309E-08         0.18582E-26         0.00000E+00
    0.90147E-08         0.28995E-22         0.00000E+00
    0.90896E-08         0.00000E+00         0.00000E+00
    0.91529E-08         0.00000E+00         0.00000E+00
    0.92064E-08        -0.24857E-22         0.00000E+00
    0.92516E-08        -0.24857E-22         0.00000E+00
    0.92891E-08         0.24859E-22         0.00000E+00
    0.93195E-08         0.29002E-22         0.00000E+00
    0.93430E-08        -0.29003E-22         0.00000E+00
    0.93602E-08        -0.41429E-23         0.00000E+00
    0.93714E-08         0.29003E-22         0.00000E+00
    0.93773E-08         0.82868E-23         0.00000E+00
    0.93809E-08         0.00000E+00         0.00000E+00
CELL_DATA        450
TENSORS stressef double 
   -0.12641E+07         0.53172E+04         0.00000E+00
    0.53172E+04        -0.24909E+08         0.00000E+00
    0.00000E+00         0.00000E+00        -0.68045E+07
 
   -0.12802E+07         0.15290E+05         0.00000E+00
    0.15290E+05        -0.24894E+08         0.00000E+00
    0.00000E+00         0.00000E+00        -0.67459E+07
 
   -0.13042E+07         0.24095E+05         0.00000E+00
    0.24095E+05        -0.24867E+08         0.00000E+00
    0.00000E+00         0.00000E+00        -0.66514E+07
 
   -0.13427E+07         0.31196E+05         0.00000E+00
    0.31196E+05        -0.24830E+08         0.00000E+00
    0.00000E+00         0.00000E+00        -0.65141E+07
 
   -0.14053E+07         0.36191E+05         0.00000E+00
    0.36191E+05        -0.24787E+08         0.00000E+00
    0.00000E+00         0.00000E+00        -0.63260E+07
 
   -0.14969E+07         0.39030E+05         0.00000E+00
    0.39030E+05        -0.24742E+08         0.00000E+00
    0.00000E+00         0.00000E+00        -0.60906E+07
 
   -0.16194E+07         0.40178E+05         0.00000E+00
    0.40178E+05        -0.24700E+08         0.00000E+00
    0.00000E+00         0.00000E+00        -0.58169E+07
 
   -0.17687E+07         0.40019E+05         0.00000E+00
    0.40019E+05        -0.24662E+08         0.00000E+00
    0.00000E+00         0.00000E+00        -0.55210E+07
 
   -0.21022E+07         0.39932E+05         0.00000E+00
    0.39932E+05        -0.24628E+08         0.00000E+00
    0.00000E+00         0.00000E+00        -0.53514E+07
 
   -0.27831E+07         0.43740E+05         0.00000E+00
    0.43740E+05        -0.24588E+08         0.00000E+00
    0.00000E+00         0.00000E+00        -0.54742E+07
 
   -0.34237E+07         0.51121E+05         0.00000E+00
    0.51121E+05        -0.24531E+08         0.00000E+00
    0.00000E+00         0.00000E+00        -0.55909E+07
 
   -0.40265E+07         0.61570E+05         0.00000E+00
    0.61570E+05        -0.24450E+08         0.00000E+00
    0.00000E+00         0.00000E+00        -0.56953E+07
 
   -0.46009E+07         0.74937E+05         0.00000E+00
    0.74937E+05        -0.24339E+08         0.00000E+00
    0.00000E+00         0.00000E+00        -0.57879E+07
 
   -0.51564E+07         0.91137E+05         0.00000E+00
    0.91137E+05        -0.24190E+08         0.00000E+00
    0.00000E+00         0.00000E+00        -0.58693E+07
 
   -0.57016E+07         0.11011E+06         0.00000E+00
    0.11011E+06        -0.23998E+08         0.00000E+00
    0.00000E+00         0.00000E+00        -0.59400E+07
 
   -0.13133E+07         0.15587E+05         0.00000E+00
    0.15587E+05        -0.24979E+08         0.00000E+00
    0.00000E+00         0.00000E+00        -0.68427E+07
 
   -0.13311E+07         0.45200E+05         0.00000E+00
    0.45200E+05        -0.24965E+08         0.00000E+00
    0.00000E+00         0.00000E+00        -0.67838E+07
 
   -0.13577E+07         0.71595E+05         0.00000E+00
    0.71595E+05        -0.24939E+08         0.00000E+00
    0.00000E+00         0.00000E+00        -0.66878E+07
 
   -0.14000E+07         0.92791E+05         0.00000E+00
    0.92791E+05        -0.24904E+08         0.00000E+00
    0.00000E+00         0.00000E+00        -0.65471E+07
 
   -0.14668E+07         0.10765E+06         0.00000E+00
    0.10765E+06        -0.24862E+08         0.00000E+00
    0.00000E+00         0.00000E+00        -0.63555E+07
 
   -0.15621E+07         0.11597E+06         0.00000E+00
    0.11597E+06        -0.24820E+08         0.00000E+00
    0.00000E+00         0.00000E+00        -0.61185E+07
 
   -0.16875E+07         0.11922E+06         0.00000E+00
    0.11922E+06        -0.24779E+08         0.00000E+00
    0.00000E+00         0.00000E+00        -0.58452E+07
 
   -0.18387E+07         0.11861E+06         0.00000E+00
    0.11861E+06        -0.24744E+08         0.00000E+00
    0.00000E+00         0.00000E+00        -0.55519E+07
 
   -0.21682E+07         0.11841E+06         0.00000E+00
    0.11841E+06        -0.24713E+08         0.00000E+00
    0.00000E+00         0.00000E+00        -0.53827E+07
 
   -0.28400E+07         0.13005E+06         0.00000E+00
    0.13005E+06        -0.24675E+08         0.00000E+00
    0.00000E+00         0.00000E+00        -0.55030E+07
 
   -0.34742E+07         0.15229E+06         0.00000E+00
    0.15229E+06        -0.24620E+08         0.00000E+00
    0.00000E+00         0.00000E+00        -0.56189E+07
 
   -0.40709E+07         0.18365E+06         0.00000E+00
    0.18365E+06        -0.24541E+08         0.00000E+00
    0.00000E+00         0.00000E+00        -0.57224E+07
 
   -0.46396E+07         0.22372E+06         0.00000E+00
    0.22372E+06        -0.24432E+08         0.00000E+00
    0.00000E+00         0.00000E+00        -0.58143E+07
 
   -0.51893E+07         0.27228E+06         0.00000E+00
    0.27228E+06        -0.24286E+08         0.00000E+00
    0.00000E+00         0.00000E+00        -0.58950E+07
 
   -0.57290E+07         0.32916E+06         0.00000E+00
    0.32916E+06        -0.24096E+08         0.00000E+00
    0.00000E+00         0.00000E+00        -0.59650E+07
 
   -0.14124E+07         0.24991E+05         0.00000E+00
    0.24991E+05        -0.25118E+08         0.00000E+00
    0.00000E+00         0.00000E+00        -0.69167E+07
 
   -0.14331E+07         0.73286E+05         0.00000E+00
    0.73286E+05        -0.25106E+08         0.00000E+00
    0.00000E+00         0.00000E+00        -0.68572E+07
 
   -0.14648E+07         0.11663E+06         0.00000E+00
    0.11663E+06        -0.25084E+08         0.00000E+00
    0.00000E+00         0.00000E+00        -0.67587E+07
 
   -0.15147E+07         0.15176E+06         0.00000E+00
    0.15176E+06        -0.25052E+08         0.00000E+00
    0.00000E+00         0.00000E+00        -0.66130E+07
 
   -0.15902E+07         0.17615E+06         0.00000E+00
    0.17615E+06        -0.25014E+08         0.00000E+00
    0.00000E+00         0.00000E+00        -0.64153E+07
 
   -0.16928E+07         0.18955E+06         0.00000E+00
    0.18955E+06        -0.24975E+08         0.00000E+00
    0.00000E+00         0.00000E+00        -0.61753E+07
 
   -0.18239E+07         0.19439E+06         0.00000E+00
    0.19439E+06        -0.24939E+08         0.00000E+00
    0.00000E+00         0.00000E+00        -0.59029E+07
 
   -0.19788E+07         0.19302E+06         0.00000E+00
    0.19302E+06        -0.24909E+08         0.00000E+00
    0.00000E+00         0.00000E+00        -0.56146E+07
 
   -0.22995E+07         0.19289E+06         0.00000E+00
    0.19289E+06        -0.24882E+08         0.00000E+00
    0.00000E+00         0.00000E+00        -0.54453E+07
 
   -0.29534E+07         0.21294E+06         0.00000E+00
    0.21294E+06        -0.24849E+08         0.00000E+00
    0.00000E+00         0.00000E+00        -0.55605E+07
 
   -0.35749E+07         0.25027E+06         0.00000E+00
    0.25027E+06        -0.24798E+08         0.00000E+00
    0.00000E+00         0.00000E+00        -0.56746E+07
 
   -0.41597E+07         0.30255E+06         0.00000E+00
    0.30255E+06        -0.24723E+08         0.00000E+00
    0.00000E+00         0.00000E+00        -0.57766E+07
 
   -0.47167E+07         0.36925E+06         0.00000E+00
    0.36925E+06        -0.24618E+08         0.00000E+00
    0.00000E+00         0.00000E+00        -0.58670E+07
 
   -0.52552E+07         0.45003E+06         0.00000E+00
    0.45003E+06        -0.24476E+08         0.00000E+00
    0.00000E+00         0.00000E+00        -0.59463E+07
 
   -0.57838E+07         0.54467E+06         0.00000E+00
    0.54467E+06        -0.24291E+08         0.00000E+00
    0.00000E+00         0.00000E+00        -0.60150E+07
 
   -0.15626E+07         0.33218E+05         0.00000E+00
    0.33218E+05        -0.25326E+08         0.00000E+00
    0.00000E+00         0.00000E+00        -0.70249E+07
 
   -0.15868E+07         0.98333E+05         0.00000E+00
    0.98333E+05        -0.25317E+08         0.00000E+00
    0.00000E+00         0.00000E+00        -0.69650E+07
 
   -0.16259E+07         0.15739E+06         0.00000E+00
    0.15739E+06        -0.25299E+08         0.00000E+00
    0.00000E+00         0.00000E+00        -0.68630E+07
 
   -0.16871E+07         0.20563E+06         0.00000E+00
    0.20563E+06        -0.25273E+08         0.00000E+00
    0.00000E+00         0.00000E+00        -0.67105E+07
 
   -0.17751E+07         0.23907E+06         0.00000E+00
    0.23907E+06        -0.25242E+08         0.00000E+00
    0.00000E+00         0.00000E+00        -0.65069E+07
 
   -0.18893E+07         0.25742E+06         0.00000E+00
    0.25742E+06        -0.25210E+08         0.00000E+00
    0.00000E+00         0.00000E+00        -0.62631E+07
 
   -0.20288E+07         0.26338E+06         0.00000E+00
    0.26338E+06        -0.25181E+08         0.00000E+00
    0.00000E+00         0.00000E+00        -0.59921E+07
 
   -0.21888E+07         0.26096E+06         0.00000E+00
    0.26096E+06        -0.25157E+08         0.00000E+00
    0.00000E+00         0.00000E+00        -0.57105E+07
 
   -0.24949E+07         0.26114E+06         0.00000E+00
    0.26114E+06        -0.25137E+08         0.00000E+00
    0.00000E+00         0.00000E+00        -0.55393E+07
 
   -0.31225E+07         0.29038E+06         0.00000E+00
    0.29038E+06        -0.25110E+08         0.00000E+00
    0.00000E+00         0.00000E+00        -0.56464E+07
 
   -0.37255E+07         0.34301E+06         0.00000E+00
    0.34301E+06        -0.25065E+08         0.00000E+00
    0.00000E+00         0.00000E+00        -0.57580E+07
 
   -0.42924E+07         0.41621E+06         0.00000E+00
    0.41621E+06        -0.24996E+08         0.00000E+00
    0.00000E+00         0.00000E+00        -0.58576E+07
 
   -0.48323E+07         0.50939E+06         0.00000E+00
    0.50939E+06        -0.24897E+08         0.00000E+00
    0.00000E+00         0.00000E+00        -0.59458E+07
 
   -0.53539E+07         0.62215E+06         0.00000E+00
    0.62215E+06        -0.24761E+08         0.00000E+00
    0.00000E+00         0.00000E+00        -0.60230E+07
 
   -0.58659E+07         0.75429E+06         0.00000E+00
    0.75429E+06        -0.24583E+08         0.00000E+00
    0.00000E+00         0.00000E+00        -0.60898E+07
 
   -0.17656E+07         0.40013E+05         0.00000E+00
    0.40013E+05        -0.25602E+08         0.00000E+00
    0.00000E+00         0.00000E+00        -0.71625E+07
 
   -0.17935E+07         0.11930E+06         0.00000E+00
    0.11930E+06        -0.25597E+08         0.00000E+00
    0.00000E+00         0.00000E+00        -0.71033E+07
 
   -0.18416E+07         0.19184E+06         0.00000E+00
    0.19184E+06        -0.25585E+08         0.00000E+00
    0.00000E+00         0.00000E+00        -0.69989E+07
 
   -0.19178E+07         0.25120E+06         0.00000E+00
    0.25120E+06        -0.25568E+08         0.00000E+00
    0.00000E+00         0.00000E+00        -0.68393E+07
 
   -0.20216E+07         0.29303E+06         0.00000E+00
    0.29303E+06        -0.25548E+08         0.00000E+00
    0.00000E+00         0.00000E+00        -0.66310E+07
 
   -0.21516E+07         0.31678E+06         0.00000E+00
    0.31678E+06        -0.25526E+08         0.00000E+00
    0.00000E+00         0.00000E+00        -0.63845E+07
 
   -0.23020E+07         0.32432E+06         0.00000E+00
    0.32432E+06        -0.25506E+08         0.00000E+00
    0.00000E+00         0.00000E+00        -0.61162E+07
 
   -0.24683E+07         0.32097E+06         0.00000E+00
    0.32097E+06        -0.25489E+08         0.00000E+00
    0.00000E+00         0.00000E+00        -0.58422E+07
 
   -0.27534E+07         0.32167E+06         0.00000E+00
    0.32167E+06        -0.25476E+08         0.00000E+00
    0.00000E+00         0.00000E+00        -0.56652E+07
 
   -0.33463E+07         0.36042E+06         0.00000E+00
    0.36042E+06        -0.25456E+08         0.00000E+00
    0.00000E+00         0.00000E+00        -0.57605E+07
 
   -0.39252E+07         0.42853E+06         0.00000E+00
    0.42853E+06        -0.25419E+08         0.00000E+00
    0.00000E+00         0.00000E+00        -0.58689E+07
 
   -0.44687E+07         0.52270E+06         0.00000E+00
    0.52270E+06        -0.25358E+08         0.00000E+00
    0.00000E+00         0.00000E+00        -0.59653E+07
 
   -0.49859E+07         0.64209E+06         0.00000E+00
    0.64209E+06        -0.25266E+08         0.00000E+00
    0.00000E+00         0.00000E+00        -0.60505E+07
 
   -0.54850E+07         0.78642E+06         0.00000E+00
    0.78642E+06        -0.25139E+08         0.00000E+00
    0.00000E+00         0.00000E+00        -0.61249E+07
 
   -0.59749E+07         0.95564E+06         0.00000E+00
    0.95564E+06        -0.24970E+08         0.00000E+00
    0.00000E+00         0.00000E+00        -0.61891E+07
 
   -0.20237E+07         0.45365E+05         0.00000E+00
    0.45365E+05        -0.25947E+08         0.00000E+00
    0.00000E+00         0.00000E+00        -0.73259E+07
 
   -0.20553E+07         0.13550E+06         0.00000E+00
    0.13550E+06        -0.25944E+08         0.00000E+00
    0.00000E+00         0.00000E+00        -0.72673E+07
 
   -0.21149E+07         0.21765E+06         0.00000E+00
    0.21765E+06        -0.25940E+08         0.00000E+00
    0.00000E+00         0.00000E+00        -0.71587E+07
 
   -0.22068E+07         0.28489E+06         0.00000E+00
    0.28489E+06        -0.25935E+08         0.00000E+00
    0.00000E+00         0.00000E+00        -0.69964E+07
 
   -0.23298E+07         0.33378E+06         0.00000E+00
    0.33378E+06        -0.25929E+08         0.00000E+00
    0.00000E+00         0.00000E+00        -0.67869E+07
 
   -0.24778E+07         0.36361E+06         0.00000E+00
    0.36361E+06        -0.25923E+08         0.00000E+00
    0.00000E+00         0.00000E+00        -0.65431E+07
 
   -0.26423E+07         0.37547E+06         0.00000E+00
    0.37547E+06        -0.25915E+08         0.00000E+00
    0.00000E+00         0.00000E+00        -0.62804E+07
 
   -0.28167E+07         0.37255E+06         0.00000E+00
    0.37255E+06        -0.25907E+08         0.00000E+00
    0.00000E+00         0.00000E+00        -0.60136E+07
 
   -0.30735E+07         0.37396E+06         0.00000E+00
    0.37396E+06        -0.25900E+08         0.00000E+00
    0.00000E+00         0.00000E+00        -0.58231E+07
 
   -0.36245E+07         0.42101E+06         0.00000E+00
    0.42101E+06        -0.25889E+08         0.00000E+00
    0.00000E+00         0.00000E+00        -0.59027E+07
 
   -0.41731E+07         0.50529E+06         0.00000E+00
    0.50529E+06        -0.25861E+08         0.00000E+00
    0.00000E+00         0.00000E+00        -0.60067E+07
 
   -0.46882E+07         0.62040E+06         0.00000E+00
    0.62040E+06        -0.25808E+08         0.00000E+00
    0.00000E+00         0.00000E+00        -0.60992E+07
 
   -0.51774E+07         0.76545E+06         0.00000E+00
    0.76545E+06        -0.25726E+08         0.00000E+00
    0.00000E+00         0.00000E+00        -0.61807E+07
 
   -0.56487E+07         0.94060E+06         0.00000E+00
    0.94060E+06        -0.25610E+08         0.00000E+00
    0.00000E+00         0.00000E+00        -0.62516E+07
 
   -0.61107E+07         0.11463E+07         0.00000E+00
    0.11463E+07        -0.25452E+08         0.00000E+00
    0.00000E+00         0.00000E+00        -0.63125E+07
 
   -0.23389E+07         0.49192E+05         0.00000E+00
    0.49192E+05        -0.26358E+08         0.00000E+00
    0.00000E+00         0.00000E+00        -0.75101E+07
 
   -0.23757E+07         0.14631E+06         0.00000E+00
    0.14631E+06        -0.26360E+08         0.00000E+00
    0.00000E+00         0.00000E+00        -0.74514E+07
 
   -0.24478E+07         0.23302E+06         0.00000E+00
    0.23302E+06        -0.26364E+08         0.00000E+00
    0.00000E+00         0.00000E+00        -0.73392E+07
 
   -0.25573E+07         0.30351E+06         0.00000E+00
    0.30351E+06        -0.26373E+08         0.00000E+00
    0.00000E+00         0.00000E+00        -0.71757E+07
 
   -0.26995E+07         0.35648E+06         0.00000E+00
    0.35648E+06        -0.26385E+08         0.00000E+00
    0.00000E+00         0.00000E+00        -0.69717E+07
 
   -0.28647E+07         0.39295E+06         0.00000E+00
    0.39295E+06        -0.26398E+08         0.00000E+00
    0.00000E+00         0.00000E+00        -0.67401E+07
 
   -0.30455E+07         0.41312E+06         0.00000E+00
    0.41312E+06        -0.26408E+08         0.00000E+00
    0.00000E+00         0.00000E+00        -0.64897E+07
 
   -0.32326E+07         0.41612E+06         0.00000E+00
    0.41612E+06        -0.26412E+08         0.00000E+00
    0.00000E+00         0.00000E+00        -0.62311E+07
 
   -0.34575E+07         0.41805E+06         0.00000E+00
    0.41805E+06        -0.26409E+08         0.00000E+00
    0.00000E+00         0.00000E+00        -0.60188E+07
 
   -0.39538E+07         0.47106E+06         0.00000E+00
    0.47106E+06        -0.26407E+08         0.00000E+00
    0.00000E+00         0.00000E+00        -0.60721E+07
 
   -0.44682E+07         0.57244E+06         0.00000E+00
    0.57244E+06        -0.26388E+08         0.00000E+00
    0.00000E+00         0.00000E+00        -0.61712E+07
 
   -0.49505E+07         0.70796E+06         0.00000E+00
    0.70796E+06        -0.26345E+08         0.00000E+00
    0.00000E+00         0.00000E+00        -0.62590E+07
 
   -0.54069E+07         0.87763E+06         0.00000E+00
    0.87763E+06        -0.26274E+08         0.00000E+00
    0.00000E+00         0.00000E+00        -0.63361E+07
 
   -0.58448E+07         0.10825E+07         0.00000E+00
    0.10825E+07        -0.26170E+08         0.00000E+00
    0.00000E+00         0.00000E+00        -0.64029E+07
 
   -0.62730E+07         0.13236E+07         0.00000E+00
    0.13236E+07        -0.26026E+08         0.00000E+00
    0.00000E+00         0.00000E+00        -0.64598E+07
 
   -0.27139E+07         0.51308E+05         0.00000E+00
    0.51308E+05        -0.26836E+08         0.00000E+00
    0.00000E+00         0.00000E+00        -0.77116E+07
 
   -0.27580E+07         0.15068E+06         0.00000E+00
    0.15068E+06        -0.26842E+08         0.00000E+00
    0.00000E+00         0.00000E+00        -0.76497E+07
 
   -0.28452E+07         0.23627E+06         0.00000E+00
    0.23627E+06        -0.26857E+08         0.00000E+00
    0.00000E+00         0.00000E+00        -0.75333E+07
 
   -0.29732E+07         0.30475E+06         0.00000E+00
    0.30475E+06        -0.26881E+08         0.00000E+00
    0.00000E+00         0.00000E+00        -0.73711E+07
 
   -0.31303E+07         0.35853E+06         0.00000E+00
    0.35853E+06        -0.26912E+08         0.00000E+00
    0.00000E+00         0.00000E+00        -0.71809E+07
 
   -0.33095E+07         0.40035E+06         0.00000E+00
    0.40035E+06        -0.26947E+08         0.00000E+00
    0.00000E+00         0.00000E+00        -0.69708E+07
 
   -0.35046E+07         0.43095E+06         0.00000E+00
    0.43095E+06        -0.26979E+08         0.00000E+00
    0.00000E+00         0.00000E+00        -0.67436E+07
 
   -0.37085E+07         0.44797E+06         0.00000E+00
    0.44797E+06        -0.27001E+08         0.00000E+00
    0.00000E+00         0.00000E+00        -0.65021E+07
 
   -0.39094E+07         0.45610E+06         0.00000E+00
    0.45610E+06        -0.27011E+08         0.00000E+00
    0.00000E+00         0.00000E+00        -0.62655E+07
 
   -0.43326E+07         0.51151E+06         0.00000E+00
    0.51151E+06        -0.27009E+08         0.00000E+00
    0.00000E+00         0.00000E+00        -0.62683E+07
 
   -0.48099E+07         0.62954E+06         0.00000E+00
    0.62954E+06        -0.26998E+08         0.00000E+00
    0.00000E+00         0.00000E+00        -0.63616E+07
 
   -0.52558E+07         0.78405E+06         0.00000E+00
    0.78405E+06        -0.26966E+08         0.00000E+00
    0.00000E+00         0.00000E+00        -0.64444E+07
 
   -0.56746E+07         0.97701E+06         0.00000E+00
    0.97701E+06        -0.26907E+08         0.00000E+00
    0.00000E+00         0.00000E+00        -0.65163E+07
 
   -0.60737E+07         0.12097E+07         0.00000E+00
    0.12097E+07        -0.26817E+08         0.00000E+00
    0.00000E+00         0.00000E+00        -0.65782E+07
 
   -0.64616E+07         0.14849E+07         0.00000E+00
    0.14849E+07        -0.26690E+08         0.00000E+00
    0.00000E+00         0.00000E+00        -0.66303E+07
 
   -0.31517E+07         0.51280E+05         0.00000E+00
    0.51280E+05        -0.27380E+08         0.00000E+00
    0.00000E+00         0.00000E+00        -0.79252E+07
 
   -0.32065E+07         0.14708E+06         0.00000E+00
    0.14708E+06        -0.27392E+08         0.00000E+00
    0.00000E+00         0.00000E+00        -0.78582E+07
 
   -0.33127E+07         0.22571E+06         0.00000E+00
    0.22571E+06        -0.27418E+08         0.00000E+00
    0.00000E+00         0.00000E+00        -0.77341E+07
 
   -0.34555E+07         0.28819E+06         0.00000E+00
    0.28819E+06        -0.27457E+08         0.00000E+00
    0.00000E+00         0.00000E+00        -0.75795E+07
 
   -0.36242E+07         0.33960E+06         0.00000E+00
    0.33960E+06        -0.27507E+08         0.00000E+00
    0.00000E+00         0.00000E+00        -0.74094E+07
 
   -0.38117E+07         0.38400E+06         0.00000E+00
    0.38400E+06        -0.27562E+08         0.00000E+00
    0.00000E+00         0.00000E+00        -0.72287E+07
 
   -0.40144E+07         0.42418E+06         0.00000E+00
    0.42418E+06        -0.27617E+08         0.00000E+00
    0.00000E+00         0.00000E+00        -0.70354E+07
 
   -0.42277E+07         0.46096E+06         0.00000E+00
    0.46096E+06        -0.27663E+08         0.00000E+00
    0.00000E+00         0.00000E+00        -0.68255E+07
 
   -0.44370E+07         0.48836E+06         0.00000E+00
    0.48836E+06        -0.27690E+08         0.00000E+00
    0.00000E+00         0.00000E+00        -0.65970E+07
 
   -0.47561E+07         0.54369E+06         0.00000E+00
    0.54369E+06        -0.27691E+08         0.00000E+00
    0.00000E+00         0.00000E+00        -0.64993E+07
 
   -0.51996E+07         0.67403E+06         0.00000E+00
    0.67403E+06        -0.27691E+08         0.00000E+00
    0.00000E+00         0.00000E+00        -0.65781E+07
 
   -0.56034E+07         0.84817E+06         0.00000E+00
    0.84817E+06        -0.27669E+08         0.00000E+00
    0.00000E+00         0.00000E+00        -0.66546E+07
 
   -0.59815E+07         0.10621E+07         0.00000E+00
    0.10621E+07        -0.27623E+08         0.00000E+00
    0.00000E+00         0.00000E+00        -0.67210E+07
 
   -0.63362E+07         0.13200E+07         0.00000E+00
    0.13200E+07        -0.27549E+08         0.00000E+00
    0.00000E+00         0.00000E+00        -0.67771E+07
 
   -0.66766E+07         0.16269E+07         0.00000E+00
    0.16269E+07        -0.27442E+08         0.00000E+00
    0.00000E+00         0.00000E+00        -0.68237E+07
 
   -0.36555E+07         0.48081E+05         0.00000E+00
    0.48081E+05        -0.27987E+08         0.00000E+00
    0.00000E+00         0.00000E+00        -0.81470E+07
 
   -0.37280E+07         0.13386E+06         0.00000E+00
    0.13386E+06        -0.28006E+08         0.00000E+00
    0.00000E+00         0.00000E+00        -0.80651E+07
 
   -0.38517E+07         0.20075E+06         0.00000E+00
    0.20075E+06        -0.28044E+08         0.00000E+00
    0.00000E+00         0.00000E+00        -0.79389E+07
 
   -0.40070E+07         0.25434E+06         0.00000E+00
    0.25434E+06        -0.28099E+08         0.00000E+00
    0.00000E+00         0.00000E+00        -0.77978E+07
 
   -0.41822E+07         0.30074E+06         0.00000E+00
    0.30074E+06        -0.28167E+08         0.00000E+00
    0.00000E+00         0.00000E+00        -0.76536E+07
 
   -0.43721E+07         0.34522E+06         0.00000E+00
    0.34522E+06        -0.28241E+08         0.00000E+00
    0.00000E+00         0.00000E+00        -0.75075E+07
 
   -0.45736E+07         0.39222E+06         0.00000E+00
    0.39222E+06        -0.28317E+08         0.00000E+00
    0.00000E+00         0.00000E+00        -0.73555E+07
 
   -0.47855E+07         0.44473E+06         0.00000E+00
    0.44473E+06        -0.28387E+08         0.00000E+00
    0.00000E+00         0.00000E+00        -0.71897E+07
 
   -0.50096E+07         0.50068E+06         0.00000E+00
    0.50068E+06        -0.28442E+08         0.00000E+00
    0.00000E+00         0.00000E+00        -0.69968E+07
 
   -0.52499E+07         0.57293E+06         0.00000E+00
    0.57293E+06        -0.28472E+08         0.00000E+00
    0.00000E+00         0.00000E+00        -0.68096E+07
 
   -0.56268E+07         0.70821E+06         0.00000E+00
    0.70821E+06        -0.28465E+08         0.00000E+00
    0.00000E+00         0.00000E+00        -0.68183E+07
 
   -0.59955E+07         0.89945E+06         0.00000E+00
    0.89945E+06        -0.28454E+08         0.00000E+00
    0.00000E+00         0.00000E+00        -0.68898E+07
 
   -0.63290E+07         0.11323E+07         0.00000E+00
    0.11323E+07        -0.28419E+08         0.00000E+00
    0.00000E+00         0.00000E+00        -0.69497E+07
 
   -0.66348E+07         0.14109E+07         0.00000E+00
    0.14109E+07        -0.28363E+08         0.00000E+00
    0.00000E+00         0.00000E+00        -0.69995E+07
 
   -0.69188E+07         0.17455E+07         0.00000E+00
    0.17455E+07        -0.28278E+08         0.00000E+00
    0.00000E+00         0.00000E+00        -0.70393E+07
 
   -0.42317E+07         0.40645E+05         0.00000E+00
    0.40645E+05        -0.28657E+08         0.00000E+00
    0.00000E+00         0.00000E+00        -0.83669E+07
 
   -0.43253E+07         0.11005E+06         0.00000E+00
    0.11005E+06        -0.28683E+08         0.00000E+00
    0.00000E+00         0.00000E+00        -0.82693E+07
 
   -0.44648E+07         0.16143E+06         0.00000E+00
    0.16143E+06        -0.28733E+08         0.00000E+00
    0.00000E+00         0.00000E+00        -0.81456E+07
 
   -0.46278E+07         0.20359E+06         0.00000E+00
    0.20359E+06        -0.28803E+08         0.00000E+00
    0.00000E+00         0.00000E+00        -0.80244E+07
 
   -0.48046E+07         0.24346E+06         0.00000E+00
    0.24346E+06        -0.28887E+08         0.00000E+00
    0.00000E+00         0.00000E+00        -0.79115E+07
 
   -0.49907E+07         0.28670E+06         0.00000E+00
    0.28670E+06        -0.28979E+08         0.00000E+00
    0.00000E+00         0.00000E+00        -0.78039E+07
 
   -0.51840E+07         0.33819E+06         0.00000E+00
    0.33819E+06        -0.29072E+08         0.00000E+00
    0.00000E+00         0.00000E+00        -0.76958E+07
 
   -0.53849E+07         0.40180E+06         0.00000E+00
    0.40180E+06        -0.29160E+08         0.00000E+00
    0.00000E+00         0.00000E+00        -0.75774E+07
 
   -0.55958E+07         0.48163E+06         0.00000E+00
    0.48163E+06        -0.29234E+08         0.00000E+00
    0.00000E+00         0.00000E+00        -0.74349E+07
 
   -0.58236E+07         0.58251E+06         0.00000E+00
    0.58251E+06        -0.29290E+08         0.00000E+00
    0.00000E+00         0.00000E+00        -0.72578E+07
 
   -0.60912E+07         0.73219E+06         0.00000E+00
    0.73219E+06        -0.29329E+08         0.00000E+00
    0.00000E+00         0.00000E+00        -0.71251E+07
 
   -0.64271E+07         0.94041E+06         0.00000E+00
    0.94041E+06        -0.29316E+08         0.00000E+00
    0.00000E+00         0.00000E+00        -0.71486E+07
 
   -0.67208E+07         0.11874E+07         0.00000E+00
    0.11874E+07        -0.29294E+08         0.00000E+00
    0.00000E+00         0.00000E+00        -0.72029E+07
 
   -0.69735E+07         0.14813E+07         0.00000E+00
    0.14813E+07        -0.29253E+08         0.00000E+00
    0.00000E+00         0.00000E+00        -0.72452E+07
 
   -0.71905E+07         0.18349E+07         0.00000E+00
    0.18349E+07        -0.29194E+08         0.00000E+00
    0.00000E+00         0.00000E+00        -0.72770E+07
 
   -0.48866E+07         0.28742E+05         0.00000E+00
    0.28742E+05        -0.29386E+08         0.00000E+00
    0.00000E+00         0.00000E+00        -0.85780E+07
 
   -0.50019E+07         0.75014E+05         0.00000E+00
    0.75014E+05        -0.29420E+08         0.00000E+00
    0.00000E+00         0.00000E+00        -0.84673E+07
 
   -0.51522E+07         0.10777E+06         0.00000E+00
    0.10777E+06        -0.29483E+08         0.00000E+00
    0.00000E+00         0.00000E+00        -0.83549E+07
 
   -0.53175E+07         0.13681E+06         0.00000E+00
    0.13681E+06        -0.29567E+08         0.00000E+00
    0.00000E+00         0.00000E+00        -0.82604E+07
 
   -0.54903E+07         0.16925E+06         0.00000E+00
    0.16925E+06        -0.29666E+08         0.00000E+00
    0.00000E+00         0.00000E+00        -0.81828E+07
 
   -0.56664E+07         0.21121E+06         0.00000E+00
    0.21121E+06        -0.29772E+08         0.00000E+00
    0.00000E+00         0.00000E+00        -0.81169E+07
 
   -0.58451E+07         0.26758E+06         0.00000E+00
    0.26758E+06        -0.29879E+08         0.00000E+00
    0.00000E+00         0.00000E+00        -0.80531E+07
 
   -0.60265E+07         0.34250E+06         0.00000E+00
    0.34250E+06        -0.29979E+08         0.00000E+00
    0.00000E+00         0.00000E+00        -0.79811E+07
 
   -0.62144E+07         0.43942E+06         0.00000E+00
    0.43942E+06        -0.30064E+08         0.00000E+00
    0.00000E+00         0.00000E+00        -0.78887E+07
 
   -0.64140E+07         0.56333E+06         0.00000E+00
    0.56333E+06        -0.30130E+08         0.00000E+00
    0.00000E+00         0.00000E+00        -0.77635E+07
 
   -0.66370E+07         0.72735E+06         0.00000E+00
    0.72735E+06        -0.30183E+08         0.00000E+00
    0.00000E+00         0.00000E+00        -0.76089E+07
 
   -0.68825E+07         0.95546E+06         0.00000E+00
    0.95546E+06        -0.30234E+08         0.00000E+00
    0.00000E+00         0.00000E+00        -0.74923E+07
 
   -0.71554E+07         0.12277E+07         0.00000E+00
    0.12277E+07        -0.30234E+08         0.00000E+00
    0.00000E+00         0.00000E+00        -0.74965E+07
 
   -0.73603E+07         0.15313E+07         0.00000E+00
    0.15313E+07        -0.30212E+08         0.00000E+00
    0.00000E+00         0.00000E+00        -0.75145E+07
 
   -0.75016E+07         0.18822E+07         0.00000E+00
    0.18822E+07        -0.30192E+08         0.00000E+00
    0.00000E+00         0.00000E+00        -0.75387E+07
 
   -0.56269E+07         0.11849E+05         0.00000E+00
    0.11849E+05        -0.30174E+08         0.00000E+00
    0.00000E+00         0.00000E+00        -0.87774E+07
 
   -0.57598E+07         0.29500E+05         0.00000E+00
    0.29500E+05        -0.30215E+08         0.00000E+00
    0.00000E+00         0.00000E+00        -0.86606E+07
 
   -0.59143E+07         0.40530E+05         0.00000E+00
    0.40530E+05        -0.30288E+08         0.00000E+00
    0.00000E+00         0.00000E+00        -0.85679E+07
 
   -0.60754E+07         0.54792E+05         0.00000E+00
    0.54792E+05        -0.30385E+08         0.00000E+00
    0.00000E+00         0.00000E+00        -0.85059E+07
 
   -0.62368E+07         0.79792E+05         0.00000E+00
    0.79792E+05        -0.30497E+08         0.00000E+00
    0.00000E+00         0.00000E+00        -0.84689E+07
 
   -0.63960E+07         0.12155E+06         0.00000E+00
    0.12155E+06        -0.30616E+08         0.00000E+00
    0.00000E+00         0.00000E+00        -0.84469E+07
 
   -0.65527E+07         0.18470E+06         0.00000E+00
    0.18470E+06        -0.30732E+08         0.00000E+00
    0.00000E+00         0.00000E+00        -0.84283E+07
 
   -0.67090E+07         0.27262E+06         0.00000E+00
    0.27262E+06        -0.30839E+08         0.00000E+00
    0.00000E+00         0.00000E+00        -0.84009E+07
 
   -0.68678E+07         0.38767E+06         0.00000E+00
    0.38767E+06        -0.30930E+08         0.00000E+00
    0.00000E+00         0.00000E+00        -0.83536E+07
 
   -0.70339E+07         0.53241E+06         0.00000E+00
    0.53241E+06        -0.31000E+08         0.00000E+00
    0.00000E+00         0.00000E+00        -0.82764E+07
 
   -0.72117E+07         0.71351E+06         0.00000E+00
    0.71351E+06        -0.31047E+08         0.00000E+00
    0.00000E+00         0.00000E+00        -0.81658E+07
 
   -0.74100E+07         0.94025E+06         0.00000E+00
    0.94025E+06        -0.31082E+08         0.00000E+00
    0.00000E+00         0.00000E+00        -0.80390E+07
 
   -0.76176E+07         0.12242E+07         0.00000E+00
    0.12242E+07        -0.31124E+08         0.00000E+00
    0.00000E+00         0.00000E+00        -0.79385E+07
 
   -0.77927E+07         0.15442E+07         0.00000E+00
    0.15442E+07        -0.31148E+08         0.00000E+00
    0.00000E+00         0.00000E+00        -0.78955E+07
 
   -0.79123E+07         0.18750E+07         0.00000E+00
    0.18750E+07        -0.31157E+08         0.00000E+00
    0.00000E+00         0.00000E+00        -0.79240E+07
 
   -0.64585E+07        -0.95287E+04         0.00000E+00
   -0.95287E+04        -0.31016E+08         0.00000E+00
    0.00000E+00         0.00000E+00        -0.89602E+07
 
   -0.66004E+07        -0.25541E+05         0.00000E+00
   -0.25541E+05        -0.31064E+08         0.00000E+00
    0.00000E+00         0.00000E+00        -0.88511E+07
 
   -0.67511E+07        -0.39363E+05         0.00000E+00
   -0.39363E+05        -0.31147E+08         0.00000E+00
    0.00000E+00         0.00000E+00        -0.87865E+07
 
   -0.68993E+07        -0.40955E+05         0.00000E+00
   -0.40955E+05        -0.31255E+08         0.00000E+00
    0.00000E+00         0.00000E+00        -0.87635E+07
 
   -0.70409E+07        -0.22877E+05         0.00000E+00
   -0.22877E+05        -0.31377E+08         0.00000E+00
    0.00000E+00         0.00000E+00        -0.87709E+07
 
   -0.71748E+07         0.20403E+05         0.00000E+00
    0.20403E+05        -0.31504E+08         0.00000E+00
    0.00000E+00         0.00000E+00        -0.87950E+07
 
   -0.73025E+07         0.92650E+05         0.00000E+00
    0.92650E+05        -0.31627E+08         0.00000E+00
    0.00000E+00         0.00000E+00        -0.88220E+07
 
   -0.74271E+07         0.19595E+06         0.00000E+00
    0.19595E+06        -0.31738E+08         0.00000E+00
    0.00000E+00         0.00000E+00        -0.88387E+07
 
   -0.75527E+07         0.33131E+06         0.00000E+00
    0.33131E+06        -0.31831E+08         0.00000E+00
    0.00000E+00         0.00000E+00        -0.88341E+07
 
   -0.76829E+07         0.49953E+06         0.00000E+00
    0.49953E+06        -0.31901E+08         0.00000E+00
    0.00000E+00         0.00000E+00        -0.88001E+07
 
   -0.78225E+07         0.70132E+06         0.00000E+00
    0.70132E+06        -0.31947E+08         0.00000E+00
    0.00000E+00         0.00000E+00        -0.87332E+07
 
   -0.79747E+07         0.94058E+06         0.00000E+00
    0.94058E+06        -0.31969E+08         0.00000E+00
    0.00000E+00         0.00000E+00        -0.86399E+07
 
   -0.81348E+07         0.12233E+07         0.00000E+00
    0.12233E+07        -0.31977E+08         0.00000E+00
    0.00000E+00         0.00000E+00        -0.85444E+07
 
   -0.82878E+07         0.15373E+07         0.00000E+00
    0.15373E+07        -0.31986E+08         0.00000E+00
    0.00000E+00         0.00000E+00        -0.84836E+07
 
   -0.84268E+07         0.18484E+07         0.00000E+00
    0.18484E+07        -0.32006E+08         0.00000E+00
    0.00000E+00         0.00000E+00        -0.84801E+07
 
   -0.73858E+07        -0.34268E+05         0.00000E+00
   -0.34268E+05        -0.31912E+08         0.00000E+00
    0.00000E+00         0.00000E+00        -0.91311E+07
 
   -0.75255E+07        -0.89185E+05         0.00000E+00
   -0.89185E+05        -0.31964E+08         0.00000E+00
    0.00000E+00         0.00000E+00        -0.90423E+07
 
   -0.76618E+07        -0.13040E+06         0.00000E+00
   -0.13040E+06        -0.32055E+08         0.00000E+00
    0.00000E+00         0.00000E+00        -0.90144E+07
 
   -0.77869E+07        -0.14835E+06         0.00000E+00
   -0.14835E+06        -0.32171E+08         0.00000E+00
    0.00000E+00         0.00000E+00        -0.90359E+07
 
   -0.78987E+07        -0.13612E+06         0.00000E+00
   -0.13612E+06        -0.32301E+08         0.00000E+00
    0.00000E+00         0.00000E+00        -0.90906E+07
 
   -0.79983E+07        -0.89336E+05         0.00000E+00
   -0.89336E+05        -0.32433E+08         0.00000E+00
    0.00000E+00         0.00000E+00        -0.91619E+07
 
   -0.80894E+07        -0.58866E+04         0.00000E+00
   -0.58866E+04        -0.32559E+08         0.00000E+00
    0.00000E+00         0.00000E+00        -0.92344E+07
 
   -0.81764E+07         0.11466E+06         0.00000E+00
    0.11466E+06        -0.32671E+08         0.00000E+00
    0.00000E+00         0.00000E+00        -0.92950E+07
 
   -0.82643E+07         0.27177E+06         0.00000E+00
    0.27177E+06        -0.32764E+08         0.00000E+00
    0.00000E+00         0.00000E+00        -0.93331E+07
 
   -0.83576E+07         0.46415E+06         0.00000E+00
    0.46415E+06        -0.32835E+08         0.00000E+00
    0.00000E+00         0.00000E+00        -0.93416E+07
 
   -0.84604E+07         0.69035E+06         0.00000E+00
    0.69035E+06        -0.32879E+08         0.00000E+00
    0.00000E+00         0.00000E+00        -0.93174E+07
 
   -0.85755E+07         0.94897E+06         0.00000E+00
    0.94897E+06        -0.32900E+08         0.00000E+00
    0.00000E+00         0.00000E+00        -0.92642E+07
 
   -0.87044E+07         0.12358E+07         0.00000E+00
    0.12358E+07        -0.32904E+08         0.00000E+00
    0.00000E+00         0.00000E+00        -0.91956E+07
 
   -0.88466E+07         0.15392E+07         0.00000E+00
    0.15392E+07        -0.32903E+08         0.00000E+00
    0.00000E+00         0.00000E+00        -0.91305E+07
 
   -0.89906E+07         0.18436E+07         0.00000E+00
    0.18436E+07        -0.32901E+08         0.00000E+00
    0.00000E+00         0.00000E+00        -0.90810E+07
 
   -0.84118E+07        -0.61823E+05         0.00000E+00
   -0.61823E+05        -0.32858E+08         0.00000E+00
    0.00000E+00         0.00000E+00        -0.92945E+07
 
   -0.85359E+07        -0.15989E+06         0.00000E+00
   -0.15989E+06        -0.32914E+08         0.00000E+00
    0.00000E+00         0.00000E+00        -0.92386E+07
 
   -0.86452E+07        -0.23042E+06         0.00000E+00
   -0.23042E+06        -0.33010E+08         0.00000E+00
    0.00000E+00         0.00000E+00        -0.92552E+07
 
   -0.87347E+07        -0.26458E+06         0.00000E+00
   -0.26458E+06        -0.33131E+08         0.00000E+00
    0.00000E+00         0.00000E+00        -0.93258E+07
 
   -0.88055E+07        -0.25655E+06         0.00000E+00
   -0.25655E+06        -0.33264E+08         0.00000E+00
    0.00000E+00         0.00000E+00        -0.94295E+07
 
   -0.88619E+07        -0.20443E+06         0.00000E+00
   -0.20443E+06        -0.33397E+08         0.00000E+00
    0.00000E+00         0.00000E+00        -0.95476E+07
 
   -0.89093E+07        -0.10845E+06         0.00000E+00
   -0.10845E+06        -0.33522E+08         0.00000E+00
    0.00000E+00         0.00000E+00        -0.96647E+07
 
   -0.89535E+07         0.29929E+05         0.00000E+00
    0.29929E+05        -0.33634E+08         0.00000E+00
    0.00000E+00         0.00000E+00        -0.97685E+07
 
   -0.90003E+07         0.20862E+06         0.00000E+00
    0.20862E+06        -0.33727E+08         0.00000E+00
    0.00000E+00         0.00000E+00        -0.98496E+07
 
   -0.90549E+07         0.42480E+06         0.00000E+00
    0.42480E+06        -0.33798E+08         0.00000E+00
    0.00000E+00         0.00000E+00        -0.99014E+07
 
   -0.91227E+07         0.67448E+06         0.00000E+00
    0.67448E+06        -0.33845E+08         0.00000E+00
    0.00000E+00         0.00000E+00        -0.99207E+07
 
   -0.92088E+07         0.95177E+06         0.00000E+00
    0.95177E+06        -0.33871E+08         0.00000E+00
    0.00000E+00         0.00000E+00        -0.99078E+07
 
   -0.93183E+07         0.12486E+07         0.00000E+00
    0.12486E+07        -0.33878E+08         0.00000E+00
    0.00000E+00         0.00000E+00        -0.98662E+07
 
   -0.94520E+07         0.15562E+07         0.00000E+00
    0.15562E+07        -0.33871E+08         0.00000E+00
    0.00000E+00         0.00000E+00        -0.98018E+07
 
   -0.96020E+07         0.18638E+07         0.00000E+00
    0.18638E+07        -0.33852E+08         0.00000E+00
    0.00000E+00         0.00000E+00        -0.97225E+07
 
   -0.95385E+07        -0.91464E+05         0.00000E+00
   -0.91464E+05        -0.33852E+08         0.00000E+00
    0.00000E+00         0.00000E+00        -0.94568E+07
 
   -0.96315E+07        -0.23644E+06         0.00000E+00
   -0.23644E+06        -0.33910E+08         0.00000E+00
    0.00000E+00         0.00000E+00        -0.94453E+07
 
   -0.96986E+07        -0.33728E+06         0.00000E+00
   -0.33728E+06        -0.34010E+08         0.00000E+00
    0.00000E+00         0.00000E+00        -0.95145E+07
 
   -0.97384E+07        -0.38561E+06         0.00000E+00
   -0.38561E+06        -0.34131E+08         0.00000E+00
    0.00000E+00         0.00000E+00        -0.96369E+07
 
   -0.97571E+07        -0.37981E+06         0.00000E+00
   -0.37981E+06        -0.34262E+08         0.00000E+00
    0.00000E+00         0.00000E+00        -0.97885E+07
 
   -0.97618E+07        -0.32140E+06         0.00000E+00
   -0.32140E+06        -0.34391E+08         0.00000E+00
    0.00000E+00         0.00000E+00        -0.99510E+07
 
   -0.97594E+07        -0.21301E+06         0.00000E+00
   -0.21301E+06        -0.34513E+08         0.00000E+00
    0.00000E+00         0.00000E+00        -0.10111E+08
 
   -0.97563E+07        -0.57702E+05         0.00000E+00
   -0.57702E+05        -0.34622E+08         0.00000E+00
    0.00000E+00         0.00000E+00        -0.10257E+08
 
   -0.97591E+07         0.14120E+06         0.00000E+00
    0.14120E+06        -0.34715E+08         0.00000E+00
    0.00000E+00         0.00000E+00        -0.10381E+08
 
   -0.97744E+07         0.37907E+06         0.00000E+00
    0.37907E+06        -0.34788E+08         0.00000E+00
    0.00000E+00         0.00000E+00        -0.10476E+08
 
   -0.98093E+07         0.64975E+06         0.00000E+00
    0.64975E+06        -0.34841E+08         0.00000E+00
    0.00000E+00         0.00000E+00        -0.10537E+08
 
   -0.98708E+07         0.94573E+06         0.00000E+00
    0.94573E+06        -0.34873E+08         0.00000E+00
    0.00000E+00         0.00000E+00        -0.10561E+08
 
   -0.99646E+07         0.12588E+07         0.00000E+00
    0.12588E+07        -0.34885E+08         0.00000E+00
    0.00000E+00         0.00000E+00        -0.10545E+08
 
   -0.10092E+08         0.15804E+07         0.00000E+00
    0.15804E+07        -0.34876E+08         0.00000E+00
    0.00000E+00         0.00000E+00        -0.10488E+08
 
   -0.10250E+08         0.19006E+07         0.00000E+00
    0.19006E+07        -0.34848E+08         0.00000E+00
    0.00000E+00         0.00000E+00        -0.10393E+08
 
   -0.10767E+08        -0.12217E+06         0.00000E+00
   -0.12217E+06        -0.34889E+08         0.00000E+00
    0.00000E+00         0.00000E+00        -0.96244E+07
 
   -0.10812E+08        -0.31956E+06         0.00000E+00
   -0.31956E+06        -0.34952E+08         0.00000E+00
    0.00000E+00         0.00000E+00        -0.96704E+07
 
   -0.10816E+08        -0.44723E+06         0.00000E+00
   -0.44723E+06        -0.35051E+08         0.00000E+00
    0.00000E+00         0.00000E+00        -0.97980E+07
 
   -0.10792E+08        -0.50614E+06         0.00000E+00
   -0.50614E+06        -0.35167E+08         0.00000E+00
    0.00000E+00         0.00000E+00        -0.99710E+07
 
   -0.10749E+08        -0.50101E+06         0.00000E+00
   -0.50101E+06        -0.35289E+08         0.00000E+00
    0.00000E+00         0.00000E+00        -0.10166E+08
 
   -0.10696E+08        -0.43688E+06         0.00000E+00
   -0.43688E+06        -0.35411E+08         0.00000E+00
    0.00000E+00         0.00000E+00        -0.10369E+08
 
   -0.10638E+08        -0.31767E+06         0.00000E+00
   -0.31767E+06        -0.35528E+08         0.00000E+00
    0.00000E+00         0.00000E+00        -0.10569E+08
 
   -0.10584E+08        -0.14737E+06         0.00000E+00
   -0.14737E+06        -0.35633E+08         0.00000E+00
    0.00000E+00         0.00000E+00        -0.10755E+08
 
   -0.10541E+08         0.69121E+05         0.00000E+00
    0.69121E+05        -0.35724E+08         0.00000E+00
    0.00000E+00         0.00000E+00        -0.10920E+08
 
   -0.10516E+08         0.32577E+06         0.00000E+00
    0.32577E+06        -0.35799E+08         0.00000E+00
    0.00000E+00         0.00000E+00        -0.11056E+08
 
   -0.10519E+08         0.61563E+06         0.00000E+00
    0.61563E+06        -0.35857E+08         0.00000E+00
    0.00000E+00         0.00000E+00        -0.11157E+08
 
   -0.10557E+08         0.93100E+06         0.00000E+00
    0.93100E+06        -0.35895E+08         0.00000E+00
    0.00000E+00         0.00000E+00        -0.11215E+08
 
   -0.10635E+08         0.12640E+07         0.00000E+00
    0.12640E+07        -0.35912E+08         0.00000E+00
    0.00000E+00         0.00000E+00        -0.11225E+08
 
   -0.10758E+08         0.16058E+07         0.00000E+00
    0.16058E+07        -0.35906E+08         0.00000E+00
    0.00000E+00         0.00000E+00        -0.11181E+08
 
   -0.10924E+08         0.19453E+07         0.00000E+00
    0.19453E+07        -0.35875E+08         0.00000E+00
    0.00000E+00         0.00000E+00        -0.11082E+08
 
   -0.12101E+08        -0.15841E+06         0.00000E+00
   -0.15841E+06        -0.35989E+08         0.00000E+00
    0.00000E+00         0.00000E+00        -0.98248E+07
 
   -0.12068E+08        -0.40556E+06         0.00000E+00
   -0.40556E+06        -0.36037E+08         0.00000E+00
    0.00000E+00         0.00000E+00        -0.99220E+07
 
   -0.11991E+08        -0.55377E+06         0.00000E+00
   -0.55377E+06        -0.36128E+08         0.00000E+00
    0.00000E+00         0.00000E+00        -0.10108E+08
 
   -0.11891E+08        -0.61994E+06         0.00000E+00
   -0.61994E+06        -0.36232E+08         0.00000E+00
    0.00000E+00         0.00000E+00        -0.10326E+08
 
   -0.11780E+08        -0.61610E+06         0.00000E+00
   -0.61610E+06        -0.36343E+08         0.00000E+00
    0.00000E+00         0.00000E+00        -0.10560E+08
 
   -0.11662E+08        -0.54792E+06         0.00000E+00
   -0.54792E+06        -0.36454E+08         0.00000E+00
    0.00000E+00         0.00000E+00        -0.10799E+08
 
   -0.11546E+08        -0.42003E+06         0.00000E+00
   -0.42003E+06        -0.36561E+08         0.00000E+00
    0.00000E+00         0.00000E+00        -0.11034E+08
 
   -0.11437E+08        -0.23748E+06         0.00000E+00
   -0.23748E+06        -0.36661E+08         0.00000E+00
    0.00000E+00         0.00000E+00        -0.11257E+08
 
   -0.11346E+08        -0.66996E+04         0.00000E+00
   -0.66996E+04        -0.36749E+08         0.00000E+00
    0.00000E+00         0.00000E+00        -0.11459E+08
 
   -0.11280E+08         0.26591E+06         0.00000E+00
    0.26591E+06        -0.36824E+08         0.00000E+00
    0.00000E+00         0.00000E+00        -0.11632E+08
 
   -0.11250E+08         0.57313E+06         0.00000E+00
    0.57313E+06        -0.36885E+08         0.00000E+00
    0.00000E+00         0.00000E+00        -0.11770E+08
 
   -0.11263E+08         0.90771E+06         0.00000E+00
    0.90771E+06        -0.36928E+08         0.00000E+00
    0.00000E+00         0.00000E+00        -0.11862E+08
 
   -0.11325E+08         0.12620E+07         0.00000E+00
    0.12620E+07        -0.36952E+08         0.00000E+00
    0.00000E+00         0.00000E+00        -0.11899E+08
 
   -0.11442E+08         0.16272E+07         0.00000E+00
    0.16272E+07        -0.36952E+08         0.00000E+00
    0.00000E+00         0.00000E+00        -0.11875E+08
 
   -0.11616E+08         0.19916E+07         0.00000E+00
    0.19916E+07        -0.36924E+08         0.00000E+00
    0.00000E+00         0.00000E+00        -0.11782E+08
 
   -0.13552E+08        -0.20075E+06         0.00000E+00
   -0.20075E+06        -0.37111E+08         0.00000E+00
    0.00000E+00         0.00000E+00        -0.10169E+08
 
   -0.13384E+08        -0.48854E+06         0.00000E+00
   -0.48854E+06        -0.37160E+08         0.00000E+00
    0.00000E+00         0.00000E+00        -0.10226E+08
 
   -0.13213E+08        -0.65099E+06         0.00000E+00
   -0.65099E+06        -0.37229E+08         0.00000E+00
    0.00000E+00         0.00000E+00        -0.10439E+08
 
   -0.13032E+08        -0.72373E+06         0.00000E+00
   -0.72373E+06        -0.37321E+08         0.00000E+00
    0.00000E+00         0.00000E+00        -0.10697E+08
 
   -0.12847E+08        -0.72249E+06         0.00000E+00
   -0.72249E+06        -0.37418E+08         0.00000E+00
    0.00000E+00         0.00000E+00        -0.10965E+08
 
   -0.12661E+08        -0.65156E+06         0.00000E+00
   -0.65156E+06        -0.37516E+08         0.00000E+00
    0.00000E+00         0.00000E+00        -0.11237E+08
 
   -0.12481E+08        -0.51709E+06         0.00000E+00
   -0.51709E+06        -0.37611E+08         0.00000E+00
    0.00000E+00         0.00000E+00        -0.11503E+08
 
   -0.12316E+08        -0.32545E+06         0.00000E+00
   -0.32545E+06        -0.37700E+08         0.00000E+00
    0.00000E+00         0.00000E+00        -0.11756E+08
 
   -0.12175E+08        -0.83366E+05         0.00000E+00
   -0.83366E+05        -0.37782E+08         0.00000E+00
    0.00000E+00         0.00000E+00        -0.11990E+08
 
   -0.12067E+08         0.20186E+06         0.00000E+00
    0.20186E+06        -0.37854E+08         0.00000E+00
    0.00000E+00         0.00000E+00        -0.12196E+08
 
   -0.12001E+08         0.52371E+06         0.00000E+00
    0.52371E+06        -0.37916E+08         0.00000E+00
    0.00000E+00         0.00000E+00        -0.12367E+08
 
   -0.11987E+08         0.87570E+06         0.00000E+00
    0.87570E+06        -0.37965E+08         0.00000E+00
    0.00000E+00         0.00000E+00        -0.12492E+08
 
   -0.12030E+08         0.12507E+07         0.00000E+00
    0.12507E+07        -0.37996E+08         0.00000E+00
    0.00000E+00         0.00000E+00        -0.12562E+08
 
   -0.12139E+08         0.16401E+07         0.00000E+00
    0.16401E+07        -0.38005E+08         0.00000E+00
    0.00000E+00         0.00000E+00        -0.12563E+08
 
   -0.12318E+08         0.20328E+07         0.00000E+00
    0.20328E+07        -0.37986E+08         0.00000E+00
    0.00000E+00         0.00000E+00        -0.12486E+08
 
   -0.15097E+08        -0.23025E+06         0.00000E+00
   -0.23025E+06        -0.38238E+08         0.00000E+00
    0.00000E+00         0.00000E+00        -0.10667E+08
 
   -0.14775E+08        -0.56373E+06         0.00000E+00
   -0.56373E+06        -0.38284E+08         0.00000E+00
    0.00000E+00         0.00000E+00        -0.10651E+08
 
   -0.14466E+08        -0.74477E+06         0.00000E+00
   -0.74477E+06        -0.38348E+08         0.00000E+00
    0.00000E+00         0.00000E+00        -0.10794E+08
 
   -0.14212E+08        -0.81978E+06         0.00000E+00
   -0.81978E+06        -0.38429E+08         0.00000E+00
    0.00000E+00         0.00000E+00        -0.11083E+08
 
   -0.13948E+08        -0.81793E+06         0.00000E+00
   -0.81793E+06        -0.38511E+08         0.00000E+00
    0.00000E+00         0.00000E+00        -0.11381E+08
 
   -0.13690E+08        -0.74442E+06         0.00000E+00
   -0.74442E+06        -0.38592E+08         0.00000E+00
    0.00000E+00         0.00000E+00        -0.11679E+08
 
   -0.13445E+08        -0.60499E+06         0.00000E+00
   -0.60499E+06        -0.38670E+08         0.00000E+00
    0.00000E+00         0.00000E+00        -0.11969E+08
 
   -0.13221E+08        -0.40682E+06         0.00000E+00
   -0.40682E+06        -0.38745E+08         0.00000E+00
    0.00000E+00         0.00000E+00        -0.12246E+08
 
   -0.13029E+08        -0.15726E+06         0.00000E+00
   -0.15726E+06        -0.38816E+08         0.00000E+00
    0.00000E+00         0.00000E+00        -0.12504E+08
 
   -0.12877E+08         0.13672E+06         0.00000E+00
    0.13672E+06        -0.38882E+08         0.00000E+00
    0.00000E+00         0.00000E+00        -0.12737E+08
 
   -0.12774E+08         0.46907E+06         0.00000E+00
    0.46907E+06        -0.38943E+08         0.00000E+00
    0.00000E+00         0.00000E+00        -0.12938E+08
 
   -0.12728E+08         0.83455E+06         0.00000E+00
    0.83455E+06        -0.38996E+08         0.00000E+00
    0.00000E+00         0.00000E+00        -0.13097E+08
 
   -0.12749E+08         0.12277E+07         0.00000E+00
    0.12277E+07        -0.39036E+08         0.00000E+00
    0.00000E+00         0.00000E+00        -0.13203E+08
 
   -0.12845E+08         0.16408E+07         0.00000E+00
    0.16408E+07        -0.39058E+08         0.00000E+00
    0.00000E+00         0.00000E+00        -0.13239E+08
 
   -0.13026E+08         0.20626E+07         0.00000E+00
    0.20626E+07        -0.39053E+08         0.00000E+00
    0.00000E+00         0.00000E+00        -0.13188E+08
 
   -0.16720E+08        -0.24994E+06         0.00000E+00
   -0.24994E+06        -0.39410E+08         0.00000E+00
    0.00000E+00         0.00000E+00        -0.11226E+08
 
   -0.16231E+08        -0.62184E+06         0.00000E+00
   -0.62184E+06        -0.39446E+08         0.00000E+00
    0.00000E+00         0.00000E+00        -0.11141E+08
 
   -0.15766E+08        -0.82803E+06         0.00000E+00
   -0.82803E+06        -0.39494E+08         0.00000E+00
    0.00000E+00         0.00000E+00        -0.11202E+08
 
   -0.15419E+08        -0.90551E+06         0.00000E+00
   -0.90551E+06        -0.39556E+08         0.00000E+00
    0.00000E+00         0.00000E+00        -0.11491E+08
 
   -0.15078E+08        -0.89997E+06         0.00000E+00
   -0.89997E+06        -0.39619E+08         0.00000E+00
    0.00000E+00         0.00000E+00        -0.11809E+08
 
   -0.14747E+08        -0.82238E+06         0.00000E+00
   -0.82238E+06        -0.39679E+08         0.00000E+00
    0.00000E+00         0.00000E+00        -0.12124E+08
 
   -0.14435E+08        -0.67856E+06         0.00000E+00
   -0.67856E+06        -0.39736E+08         0.00000E+00
    0.00000E+00         0.00000E+00        -0.12429E+08
 
   -0.14152E+08        -0.47646E+06         0.00000E+00
   -0.47646E+06        -0.39791E+08         0.00000E+00
    0.00000E+00         0.00000E+00        -0.12720E+08
 
   -0.13909E+08        -0.22361E+06         0.00000E+00
   -0.22361E+06        -0.39846E+08         0.00000E+00
    0.00000E+00         0.00000E+00        -0.12993E+08
 
   -0.13712E+08         0.73750E+05         0.00000E+00
    0.73750E+05        -0.39902E+08         0.00000E+00
    0.00000E+00         0.00000E+00        -0.13246E+08
 
   -0.13569E+08         0.41083E+06         0.00000E+00
    0.41083E+06        -0.39959E+08         0.00000E+00
    0.00000E+00         0.00000E+00        -0.13474E+08
 
   -0.13488E+08         0.78413E+06         0.00000E+00
    0.78413E+06        -0.40016E+08         0.00000E+00
    0.00000E+00         0.00000E+00        -0.13668E+08
 
   -0.13481E+08         0.11905E+07         0.00000E+00
    0.11905E+07        -0.40067E+08         0.00000E+00
    0.00000E+00         0.00000E+00        -0.13814E+08
 
   -0.13558E+08         0.16246E+07         0.00000E+00
    0.16246E+07        -0.40105E+08         0.00000E+00
    0.00000E+00         0.00000E+00        -0.13894E+08
 
   -0.13735E+08         0.20757E+07         0.00000E+00
    0.20757E+07        -0.40120E+08         0.00000E+00
    0.00000E+00         0.00000E+00        -0.13881E+08
 
   -0.18402E+08        -0.26533E+06         0.00000E+00
   -0.26533E+06        -0.40619E+08         0.00000E+00
    0.00000E+00         0.00000E+00        -0.11804E+08
 
   -0.17743E+08        -0.66299E+06         0.00000E+00
   -0.66299E+06        -0.40636E+08         0.00000E+00
    0.00000E+00         0.00000E+00        -0.11676E+08
 
   -0.17110E+08        -0.89008E+06         0.00000E+00
   -0.89008E+06        -0.40669E+08         0.00000E+00
    0.00000E+00         0.00000E+00        -0.11659E+08
 
   -0.16651E+08        -0.97365E+06         0.00000E+00
   -0.97365E+06        -0.40704E+08         0.00000E+00
    0.00000E+00         0.00000E+00        -0.11926E+08
 
   -0.16231E+08        -0.96349E+06         0.00000E+00
   -0.96349E+06        -0.40742E+08         0.00000E+00
    0.00000E+00         0.00000E+00        -0.12251E+08
 
   -0.15826E+08        -0.87936E+06         0.00000E+00
   -0.87936E+06        -0.40774E+08         0.00000E+00
    0.00000E+00         0.00000E+00        -0.12571E+08
 
   -0.15449E+08        -0.73126E+06         0.00000E+00
   -0.73126E+06        -0.40802E+08         0.00000E+00
    0.00000E+00         0.00000E+00        -0.12878E+08
 
   -0.15110E+08        -0.52832E+06         0.00000E+00
   -0.52832E+06        -0.40830E+08         0.00000E+00
    0.00000E+00         0.00000E+00        -0.13170E+08
 
   -0.14817E+08        -0.27764E+06         0.00000E+00
   -0.27764E+06        -0.40864E+08         0.00000E+00
    0.00000E+00         0.00000E+00        -0.13449E+08
 
   -0.14575E+08         0.16253E+05         0.00000E+00
    0.16253E+05        -0.40907E+08         0.00000E+00
    0.00000E+00         0.00000E+00        -0.13715E+08
 
   -0.14391E+08         0.35070E+06         0.00000E+00
    0.35070E+06        -0.40959E+08         0.00000E+00
    0.00000E+00         0.00000E+00        -0.13966E+08
 
   -0.14271E+08         0.72444E+06         0.00000E+00
    0.72444E+06        -0.41018E+08         0.00000E+00
    0.00000E+00         0.00000E+00        -0.14194E+08
 
   -0.14228E+08         0.11369E+07         0.00000E+00
    0.11369E+07        -0.41081E+08         0.00000E+00
    0.00000E+00         0.00000E+00        -0.14387E+08
 
   -0.14277E+08         0.15863E+07         0.00000E+00
    0.15863E+07        -0.41139E+08         0.00000E+00
    0.00000E+00         0.00000E+00        -0.14520E+08
 
   -0.14440E+08         0.20648E+07         0.00000E+00
    0.20648E+07        -0.41179E+08         0.00000E+00
    0.00000E+00         0.00000E+00        -0.14560E+08
 
   -0.20129E+08        -0.27704E+06         0.00000E+00
   -0.27704E+06        -0.41848E+08         0.00000E+00
    0.00000E+00         0.00000E+00        -0.12396E+08
 
   -0.19295E+08        -0.69130E+06         0.00000E+00
   -0.69130E+06        -0.41857E+08         0.00000E+00
    0.00000E+00         0.00000E+00        -0.12230E+08
 
   -0.18488E+08        -0.92918E+06         0.00000E+00
   -0.92918E+06        -0.41870E+08         0.00000E+00
    0.00000E+00         0.00000E+00        -0.12141E+08
 
   -0.17907E+08        -0.10149E+07         0.00000E+00
   -0.10149E+07        -0.41875E+08         0.00000E+00
    0.00000E+00         0.00000E+00        -0.12385E+08
 
   -0.17401E+08        -0.99869E+06         0.00000E+00
   -0.99869E+06        -0.41876E+08         0.00000E+00
    0.00000E+00         0.00000E+00        -0.12708E+08
 
   -0.16924E+08        -0.90672E+06         0.00000E+00
   -0.90672E+06        -0.41871E+08         0.00000E+00
    0.00000E+00         0.00000E+00        -0.13017E+08
 
   -0.16488E+08        -0.75528E+06         0.00000E+00
   -0.75528E+06        -0.41862E+08         0.00000E+00
    0.00000E+00         0.00000E+00        -0.13309E+08
 
   -0.16098E+08        -0.55579E+06         0.00000E+00
   -0.55579E+06        -0.41858E+08         0.00000E+00
    0.00000E+00         0.00000E+00        -0.13589E+08
 
   -0.15758E+08        -0.31437E+06         0.00000E+00
   -0.31437E+06        -0.41865E+08         0.00000E+00
    0.00000E+00         0.00000E+00        -0.13862E+08
 
   -0.15472E+08        -0.32812E+05         0.00000E+00
   -0.32812E+05        -0.41891E+08         0.00000E+00
    0.00000E+00         0.00000E+00        -0.14134E+08
 
   -0.15245E+08         0.28972E+06         0.00000E+00
    0.28972E+06        -0.41936E+08         0.00000E+00
    0.00000E+00         0.00000E+00        -0.14405E+08
 
   -0.15083E+08         0.65475E+06         0.00000E+00
    0.65475E+06        -0.41999E+08         0.00000E+00
    0.00000E+00         0.00000E+00        -0.14669E+08
 
   -0.14995E+08         0.10643E+07         0.00000E+00
    0.10643E+07        -0.42075E+08         0.00000E+00
    0.00000E+00         0.00000E+00        -0.14912E+08
 
   -0.15004E+08         0.15210E+07         0.00000E+00
    0.15210E+07        -0.42156E+08         0.00000E+00
    0.00000E+00         0.00000E+00        -0.15111E+08
 
   -0.15143E+08         0.20245E+07         0.00000E+00
    0.20245E+07        -0.42230E+08         0.00000E+00
    0.00000E+00         0.00000E+00        -0.15220E+08
 
   -0.21892E+08        -0.28688E+06         0.00000E+00
   -0.28688E+06        -0.43095E+08         0.00000E+00
    0.00000E+00         0.00000E+00        -0.12997E+08
 
   -0.20870E+08        -0.70831E+06         0.00000E+00
   -0.70831E+06        -0.43097E+08         0.00000E+00
    0.00000E+00         0.00000E+00        -0.12793E+08
 
   -0.19885E+08        -0.94277E+06         0.00000E+00
   -0.94277E+06        -0.43089E+08         0.00000E+00
    0.00000E+00         0.00000E+00        -0.12642E+08
 
   -0.19176E+08        -0.10218E+07         0.00000E+00
   -0.10218E+07        -0.43058E+08         0.00000E+00
    0.00000E+00         0.00000E+00        -0.12863E+08
 
   -0.18581E+08        -0.99463E+06         0.00000E+00
   -0.99463E+06        -0.43015E+08         0.00000E+00
    0.00000E+00         0.00000E+00        -0.13171E+08
 
   -0.18037E+08        -0.89443E+06         0.00000E+00
   -0.89443E+06        -0.42963E+08         0.00000E+00
    0.00000E+00         0.00000E+00        -0.13454E+08
 
   -0.17549E+08        -0.74267E+06         0.00000E+00
   -0.74267E+06        -0.42910E+08         0.00000E+00
    0.00000E+00         0.00000E+00        -0.13717E+08
 
   -0.17117E+08        -0.55250E+06         0.00000E+00
   -0.55250E+06        -0.42866E+08         0.00000E+00
    0.00000E+00         0.00000E+00        -0.13971E+08
 
   -0.16738E+08        -0.32894E+06         0.00000E+00
   -0.32894E+06        -0.42843E+08         0.00000E+00
    0.00000E+00         0.00000E+00        -0.14226E+08
 
   -0.16411E+08        -0.70456E+05         0.00000E+00
   -0.70456E+05        -0.42848E+08         0.00000E+00
    0.00000E+00         0.00000E+00        -0.14495E+08
 
   -0.16139E+08         0.22831E+06         0.00000E+00
    0.22831E+06        -0.42886E+08         0.00000E+00
    0.00000E+00         0.00000E+00        -0.14781E+08
 
   -0.15929E+08         0.57375E+06         0.00000E+00
    0.57375E+06        -0.42954E+08         0.00000E+00
    0.00000E+00         0.00000E+00        -0.15081E+08
 
   -0.15790E+08         0.97100E+06         0.00000E+00
    0.97100E+06        -0.43047E+08         0.00000E+00
    0.00000E+00         0.00000E+00        -0.15382E+08
 
   -0.15743E+08         0.14247E+07         0.00000E+00
    0.14247E+07        -0.43155E+08         0.00000E+00
    0.00000E+00         0.00000E+00        -0.15658E+08
 
   -0.15841E+08         0.19374E+07         0.00000E+00
    0.19374E+07        -0.43268E+08         0.00000E+00
    0.00000E+00         0.00000E+00        -0.15854E+08
 
   -0.23679E+08        -0.29504E+06         0.00000E+00
   -0.29504E+06        -0.44354E+08         0.00000E+00
    0.00000E+00         0.00000E+00        -0.13606E+08
 
   -0.22448E+08        -0.71156E+06         0.00000E+00
   -0.71156E+06        -0.44346E+08         0.00000E+00
    0.00000E+00         0.00000E+00        -0.13359E+08
 
   -0.21285E+08        -0.92635E+06         0.00000E+00
   -0.92635E+06        -0.44310E+08         0.00000E+00
    0.00000E+00         0.00000E+00        -0.13158E+08
 
   -0.20445E+08        -0.98528E+06         0.00000E+00
   -0.98528E+06        -0.44237E+08         0.00000E+00
    0.00000E+00         0.00000E+00        -0.13347E+08
 
   -0.19765E+08        -0.94128E+06         0.00000E+00
   -0.94128E+06        -0.44141E+08         0.00000E+00
    0.00000E+00         0.00000E+00        -0.13626E+08
 
   -0.19163E+08        -0.83375E+06         0.00000E+00
   -0.83375E+06        -0.44034E+08         0.00000E+00
    0.00000E+00         0.00000E+00        -0.13870E+08
 
   -0.18635E+08        -0.68720E+06         0.00000E+00
   -0.68720E+06        -0.43932E+08         0.00000E+00
    0.00000E+00         0.00000E+00        -0.14090E+08
 
   -0.18172E+08        -0.51404E+06         0.00000E+00
   -0.51404E+06        -0.43848E+08         0.00000E+00
    0.00000E+00         0.00000E+00        -0.14306E+08
 
   -0.17763E+08        -0.31727E+06         0.00000E+00
   -0.31727E+06        -0.43793E+08         0.00000E+00
    0.00000E+00         0.00000E+00        -0.14534E+08
 
   -0.17400E+08        -0.93102E+05         0.00000E+00
   -0.93102E+05        -0.43775E+08         0.00000E+00
    0.00000E+00         0.00000E+00        -0.14790E+08
 
   -0.17083E+08         0.16789E+06         0.00000E+00
    0.16789E+06        -0.43801E+08         0.00000E+00
    0.00000E+00         0.00000E+00        -0.15084E+08
 
   -0.16819E+08         0.47858E+06         0.00000E+00
    0.47858E+06        -0.43875E+08         0.00000E+00
    0.00000E+00         0.00000E+00        -0.15419E+08
 
   -0.16619E+08         0.85026E+06         0.00000E+00
    0.85026E+06        -0.43990E+08         0.00000E+00
    0.00000E+00         0.00000E+00        -0.15785E+08
 
   -0.16507E+08         0.12908E+07         0.00000E+00
    0.12908E+07        -0.44134E+08         0.00000E+00
    0.00000E+00         0.00000E+00        -0.16154E+08
 
   -0.16535E+08         0.18100E+07         0.00000E+00
    0.18100E+07        -0.44288E+08         0.00000E+00
    0.00000E+00         0.00000E+00        -0.16459E+08
 
   -0.25475E+08        -0.30101E+06         0.00000E+00
   -0.30101E+06        -0.45618E+08         0.00000E+00
    0.00000E+00         0.00000E+00        -0.14219E+08
 
   -0.24006E+08        -0.69493E+06         0.00000E+00
   -0.69493E+06        -0.45597E+08         0.00000E+00
    0.00000E+00         0.00000E+00        -0.13921E+08
 
   -0.22663E+08        -0.86813E+06         0.00000E+00
   -0.86813E+06        -0.45520E+08         0.00000E+00
    0.00000E+00         0.00000E+00        -0.13675E+08
 
   -0.21700E+08        -0.89247E+06         0.00000E+00
   -0.89247E+06        -0.45390E+08         0.00000E+00
    0.00000E+00         0.00000E+00        -0.13822E+08
 
   -0.20946E+08        -0.82882E+06         0.00000E+00
   -0.82882E+06        -0.45229E+08         0.00000E+00
    0.00000E+00         0.00000E+00        -0.14053E+08
 
   -0.20303E+08        -0.71965E+06         0.00000E+00
   -0.71965E+06        -0.45064E+08         0.00000E+00
    0.00000E+00         0.00000E+00        -0.14242E+08
 
   -0.19751E+08        -0.58719E+06         0.00000E+00
   -0.58719E+06        -0.44915E+08         0.00000E+00
    0.00000E+00         0.00000E+00        -0.14413E+08
 
   -0.19269E+08        -0.43969E+06         0.00000E+00
   -0.43969E+06        -0.44793E+08         0.00000E+00
    0.00000E+00         0.00000E+00        -0.14587E+08
 
   -0.18839E+08        -0.27778E+06         0.00000E+00
   -0.27778E+06        -0.44708E+08         0.00000E+00
    0.00000E+00         0.00000E+00        -0.14782E+08
 
   -0.18449E+08        -0.96958E+05         0.00000E+00
   -0.96958E+05        -0.44667E+08         0.00000E+00
    0.00000E+00         0.00000E+00        -0.15016E+08
 
   -0.18092E+08         0.11298E+06         0.00000E+00
    0.11298E+06        -0.44679E+08         0.00000E+00
    0.00000E+00         0.00000E+00        -0.15306E+08
 
   -0.17768E+08         0.36941E+06         0.00000E+00
    0.36941E+06        -0.44752E+08         0.00000E+00
    0.00000E+00         0.00000E+00        -0.15667E+08
 
   -0.17496E+08         0.69574E+06         0.00000E+00
    0.69574E+06        -0.44891E+08         0.00000E+00
    0.00000E+00         0.00000E+00        -0.16099E+08
 
   -0.17296E+08         0.11106E+07         0.00000E+00
    0.11106E+07        -0.45079E+08         0.00000E+00
    0.00000E+00         0.00000E+00        -0.16580E+08
 
   -0.17226E+08         0.16275E+07         0.00000E+00
    0.16275E+07        -0.45291E+08         0.00000E+00
    0.00000E+00         0.00000E+00        -0.17034E+08
 
   -0.27263E+08        -0.30458E+06         0.00000E+00
   -0.30458E+06        -0.46882E+08         0.00000E+00
    0.00000E+00         0.00000E+00        -0.14829E+08
 
   -0.25511E+08        -0.64223E+06         0.00000E+00
   -0.64223E+06        -0.46835E+08         0.00000E+00
    0.00000E+00         0.00000E+00        -0.14469E+08
 
   -0.23996E+08        -0.74398E+06         0.00000E+00
   -0.74398E+06        -0.46690E+08         0.00000E+00
    0.00000E+00         0.00000E+00        -0.14174E+08
 
   -0.22930E+08        -0.72600E+06         0.00000E+00
   -0.72600E+06        -0.46477E+08         0.00000E+00
    0.00000E+00         0.00000E+00        -0.14253E+08
 
   -0.22128E+08        -0.65069E+06         0.00000E+00
   -0.65069E+06        -0.46245E+08         0.00000E+00
    0.00000E+00         0.00000E+00        -0.14418E+08
 
   -0.21464E+08        -0.55328E+06         0.00000E+00
   -0.55328E+06        -0.46027E+08         0.00000E+00
    0.00000E+00         0.00000E+00        -0.14548E+08
 
   -0.20902E+08        -0.44692E+06         0.00000E+00
   -0.44692E+06        -0.45839E+08         0.00000E+00
    0.00000E+00         0.00000E+00        -0.14671E+08
 
   -0.20412E+08        -0.33392E+06         0.00000E+00
   -0.33392E+06        -0.45688E+08         0.00000E+00
    0.00000E+00         0.00000E+00        -0.14805E+08
 
   -0.19972E+08        -0.21317E+06         0.00000E+00
   -0.21317E+06        -0.45581E+08         0.00000E+00
    0.00000E+00         0.00000E+00        -0.14968E+08
 
   -0.19564E+08        -0.81031E+05         0.00000E+00
   -0.81031E+05        -0.45522E+08         0.00000E+00
    0.00000E+00         0.00000E+00        -0.15176E+08
 
   -0.19175E+08         0.70046E+05         0.00000E+00
    0.70046E+05        -0.45520E+08         0.00000E+00
    0.00000E+00         0.00000E+00        -0.15451E+08
 
   -0.18798E+08         0.25548E+06         0.00000E+00
    0.25548E+06        -0.45585E+08         0.00000E+00
    0.00000E+00         0.00000E+00        -0.15817E+08
 
   -0.18437E+08         0.50581E+06         0.00000E+00
    0.50581E+06        -0.45733E+08         0.00000E+00
    0.00000E+00         0.00000E+00        -0.16301E+08
 
   -0.18127E+08         0.86686E+06         0.00000E+00
    0.86686E+06        -0.45977E+08         0.00000E+00
    0.00000E+00         0.00000E+00        -0.16910E+08
 
   -0.17920E+08         0.13623E+07         0.00000E+00
    0.13623E+07        -0.46277E+08         0.00000E+00
    0.00000E+00         0.00000E+00        -0.17573E+08
 
   -0.29007E+08        -0.29813E+06         0.00000E+00
   -0.29813E+06        -0.48131E+08         0.00000E+00
    0.00000E+00         0.00000E+00        -0.15428E+08
 
   -0.26909E+08        -0.50922E+06         0.00000E+00
   -0.50922E+06        -0.48006E+08         0.00000E+00
    0.00000E+00         0.00000E+00        -0.14983E+08
 
   -0.25269E+08        -0.51792E+06         0.00000E+00
   -0.51792E+06        -0.47745E+08         0.00000E+00
    0.00000E+00         0.00000E+00        -0.14629E+08
 
   -0.24142E+08        -0.47490E+06         0.00000E+00
   -0.47490E+06        -0.47436E+08         0.00000E+00
    0.00000E+00         0.00000E+00        -0.14599E+08
 
   -0.23322E+08        -0.41201E+06         0.00000E+00
   -0.41201E+06        -0.47148E+08         0.00000E+00
    0.00000E+00         0.00000E+00        -0.14685E+08
 
   -0.22658E+08        -0.34548E+06         0.00000E+00
   -0.34548E+06        -0.46895E+08         0.00000E+00
    0.00000E+00         0.00000E+00        -0.14765E+08
 
   -0.22096E+08        -0.27715E+06         0.00000E+00
   -0.27715E+06        -0.46684E+08         0.00000E+00
    0.00000E+00         0.00000E+00        -0.14849E+08
 
   -0.21605E+08        -0.20606E+06         0.00000E+00
   -0.20606E+06        -0.46519E+08         0.00000E+00
    0.00000E+00         0.00000E+00        -0.14953E+08
 
   -0.21161E+08        -0.13115E+06         0.00000E+00
   -0.13115E+06        -0.46401E+08         0.00000E+00
    0.00000E+00         0.00000E+00        -0.15090E+08
 
   -0.20745E+08        -0.50332E+05         0.00000E+00
   -0.50332E+05        -0.46335E+08         0.00000E+00
    0.00000E+00         0.00000E+00        -0.15277E+08
 
   -0.20340E+08         0.40369E+05         0.00000E+00
    0.40369E+05        -0.46326E+08         0.00000E+00
    0.00000E+00         0.00000E+00        -0.15532E+08
 
   -0.19926E+08         0.14968E+06         0.00000E+00
    0.14968E+06        -0.46384E+08         0.00000E+00
    0.00000E+00         0.00000E+00        -0.15887E+08
 
   -0.19487E+08         0.29841E+06         0.00000E+00
    0.29841E+06        -0.46530E+08         0.00000E+00
    0.00000E+00         0.00000E+00        -0.16387E+08
 
   -0.19024E+08         0.54075E+06         0.00000E+00
    0.54075E+06        -0.46796E+08         0.00000E+00
    0.00000E+00         0.00000E+00        -0.17098E+08
 
   -0.18624E+08         0.98633E+06         0.00000E+00
    0.98633E+06        -0.47233E+08         0.00000E+00
    0.00000E+00         0.00000E+00        -0.18060E+08
 
   -0.30604E+08        -0.19380E+06         0.00000E+00
   -0.19380E+06        -0.49244E+08         0.00000E+00
    0.00000E+00         0.00000E+00        -0.15970E+08
 
   -0.28166E+08        -0.20943E+06         0.00000E+00
   -0.20943E+06        -0.48899E+08         0.00000E+00
    0.00000E+00         0.00000E+00        -0.15413E+08
 
   -0.26514E+08        -0.18754E+06         0.00000E+00
   -0.18754E+06        -0.48527E+08         0.00000E+00
    0.00000E+00         0.00000E+00        -0.15008E+08
 
   -0.25358E+08        -0.16529E+06         0.00000E+00
   -0.16529E+06        -0.48199E+08         0.00000E+00
    0.00000E+00         0.00000E+00        -0.14814E+08
 
   -0.24548E+08        -0.14036E+06         0.00000E+00
   -0.14036E+06        -0.47898E+08         0.00000E+00
    0.00000E+00         0.00000E+00        -0.14833E+08
 
   -0.23893E+08        -0.11706E+06         0.00000E+00
   -0.11706E+06        -0.47643E+08         0.00000E+00
    0.00000E+00         0.00000E+00        -0.14878E+08
 
   -0.23337E+08        -0.93652E+05         0.00000E+00
   -0.93652E+05        -0.47433E+08         0.00000E+00
    0.00000E+00         0.00000E+00        -0.14941E+08
 
   -0.22850E+08        -0.69348E+05         0.00000E+00
   -0.69348E+05        -0.47270E+08         0.00000E+00
    0.00000E+00         0.00000E+00        -0.15028E+08
 
   -0.22409E+08        -0.43801E+05         0.00000E+00
   -0.43801E+05        -0.47158E+08         0.00000E+00
    0.00000E+00         0.00000E+00        -0.15151E+08
 
   -0.21992E+08        -0.16404E+05         0.00000E+00
   -0.16404E+05        -0.47099E+08         0.00000E+00
    0.00000E+00         0.00000E+00        -0.15323E+08
 
   -0.21581E+08         0.14002E+05         0.00000E+00
    0.14002E+05        -0.47098E+08         0.00000E+00
    0.00000E+00         0.00000E+00        -0.15566E+08
 
   -0.21153E+08         0.49839E+05         0.00000E+00
    0.49839E+05        -0.47165E+08         0.00000E+00
    0.00000E+00         0.00000E+00        -0.15908E+08
 
   -0.20675E+08         0.97151E+05         0.00000E+00
    0.97151E+05        -0.47318E+08         0.00000E+00
    0.00000E+00         0.00000E+00        -0.16401E+08
 
   -0.20099E+08         0.17613E+06         0.00000E+00
    0.17613E+06        -0.47597E+08         0.00000E+00
    0.00000E+00         0.00000E+00        -0.17156E+08
 
   -0.19351E+08         0.38332E+06         0.00000E+00
    0.38332E+06        -0.48098E+08         0.00000E+00
    0.00000E+00         0.00000E+00        -0.18423E+08
 
TENSORS stresstot double 
   -0.36349E+08         0.53172E+04         0.00000E+00
    0.53172E+04        -0.59994E+08         0.00000E+00
    0.00000E+00         0.00000E+00        -0.41889E+08
 
   -0.36359E+08         0.15290E+05         0.00000E+00
    0.15290E+05        -0.59973E+08         0.00000E+00
    0.00000E+00         0.00000E+00        -0.41825E+08
 
   -0.36371E+08         0.24095E+05         0.00000E+00
    0.24095E+05        -0.59934E+08         0.00000E+00
    0.00000E+00         0.00000E+00        -0.41718E+08
 
   -0.36391E+08         0.31196E+05         0.00000E+00
    0.31196E+05        -0.59878E+08         0.00000E+00
    0.00000E+00         0.00000E+00        -0.41562E+08
 
   -0.36429E+08         0.36191E+05         0.00000E+00
    0.36191E+05        -0.59811E+08         0.00000E+00
    0.00000E+00         0.00000E+00        -0.41350E+08
 
   -0.36491E+08         0.39030E+05         0.00000E+00
    0.39030E+05        -0.59736E+08         0.00000E+00
    0.00000E+00         0.00000E+00        -0.41085E+08
 
   -0.36577E+08         0.40178E+05         0.00000E+00
    0.40178E+05        -0.59658E+08         0.00000E+00
    0.00000E+00         0.00000E+00        -0.40775E+08
 
   -0.36685E+08         0.40019E+05         0.00000E+00
    0.40019E+05        -0.59578E+08         0.00000E+00
    0.00000E+00         0.00000E+00        -0.40437E+08
 
   -0.36974E+08         0.39932E+05         0.00000E+00
    0.39932E+05        -0.59500E+08         0.00000E+00
    0.00000E+00         0.00000E+00        -0.40223E+08
 
   -0.37612E+08         0.43740E+05         0.00000E+00
    0.43740E+05        -0.59417E+08         0.00000E+00
    0.00000E+00         0.00000E+00        -0.40303E+08
 
   -0.38215E+08         0.51121E+05         0.00000E+00
    0.51121E+05        -0.59323E+08         0.00000E+00
    0.00000E+00         0.00000E+00        -0.40383E+08
 
   -0.38787E+08         0.61570E+05         0.00000E+00
    0.61570E+05        -0.59210E+08         0.00000E+00
    0.00000E+00         0.00000E+00        -0.40456E+08
 
   -0.39337E+08         0.74937E+05         0.00000E+00
    0.74937E+05        -0.59074E+08         0.00000E+00
    0.00000E+00         0.00000E+00        -0.40524E+08
 
   -0.39875E+08         0.91137E+05         0.00000E+00
    0.91137E+05        -0.58909E+08         0.00000E+00
    0.00000E+00         0.00000E+00        -0.40588E+08
 
   -0.40411E+08         0.11011E+06         0.00000E+00
    0.11011E+06        -0.58708E+08         0.00000E+00
    0.00000E+00         0.00000E+00        -0.40649E+08
 
   -0.36328E+08         0.15587E+05         0.00000E+00
    0.15587E+05        -0.59994E+08         0.00000E+00
    0.00000E+00         0.00000E+00        -0.41858E+08
 
   -0.36340E+08         0.45200E+05         0.00000E+00
    0.45200E+05        -0.59974E+08         0.00000E+00
    0.00000E+00         0.00000E+00        -0.41793E+08
 
   -0.36355E+08         0.71595E+05         0.00000E+00
    0.71595E+05        -0.59936E+08         0.00000E+00
    0.00000E+00         0.00000E+00        -0.41685E+08
 
   -0.36379E+08         0.92791E+05         0.00000E+00
    0.92791E+05        -0.59883E+08         0.00000E+00
    0.00000E+00         0.00000E+00        -0.41526E+08
 
   -0.36422E+08         0.10765E+06         0.00000E+00
    0.10765E+06        -0.59817E+08         0.00000E+00
    0.00000E+00         0.00000E+00        -0.41310E+08
 
   -0.36487E+08         0.11597E+06         0.00000E+00
    0.11597E+06        -0.59744E+08         0.00000E+00
    0.00000E+00         0.00000E+00        -0.41043E+08
 
   -0.36576E+08         0.11922E+06         0.00000E+00
    0.11922E+06        -0.59668E+08         0.00000E+00
    0.00000E+00         0.00000E+00        -0.40734E+08
 
   -0.36686E+08         0.11861E+06         0.00000E+00
    0.11861E+06        -0.59592E+08         0.00000E+00
    0.00000E+00         0.00000E+00        -0.40399E+08
 
   -0.36971E+08         0.11841E+06         0.00000E+00
    0.11841E+06        -0.59516E+08         0.00000E+00
    0.00000E+00         0.00000E+00        -0.40185E+08
 
   -0.37601E+08         0.13005E+06         0.00000E+00
    0.13005E+06        -0.59436E+08         0.00000E+00
    0.00000E+00         0.00000E+00        -0.40264E+08
 
   -0.38198E+08         0.15229E+06         0.00000E+00
    0.15229E+06        -0.59343E+08         0.00000E+00
    0.00000E+00         0.00000E+00        -0.40342E+08
 
   -0.38763E+08         0.18365E+06         0.00000E+00
    0.18365E+06        -0.59233E+08         0.00000E+00
    0.00000E+00         0.00000E+00        -0.40415E+08
 
   -0.39307E+08         0.22372E+06         0.00000E+00
    0.22372E+06        -0.59099E+08         0.00000E+00
    0.00000E+00         0.00000E+00        -0.40482E+08
 
   -0.39840E+08         0.27228E+06         0.00000E+00
    0.27228E+06        -0.58936E+08         0.00000E+00
    0.00000E+00         0.00000E+00        -0.40545E+08
 
   -0.40370E+08         0.32916E+06         0.00000E+00
    0.32916E+06        -0.58737E+08         0.00000E+00
    0.00000E+00         0.00000E+00        -0.40606E+08
 
   -0.36288E+08         0.24991E+05         0.00000E+00
    0.24991E+05        -0.59993E+08         0.00000E+00
    0.00000E+00         0.00000E+00        -0.41792E+08
 
   -0.36303E+08         0.73286E+05         0.00000E+00
    0.73286E+05        -0.59976E+08         0.00000E+00
    0.00000E+00         0.00000E+00        -0.41727E+08
 
   -0.36323E+08         0.11663E+06         0.00000E+00
    0.11663E+06        -0.59941E+08         0.00000E+00
    0.00000E+00         0.00000E+00        -0.41616E+08
 
   -0.36355E+08         0.15176E+06         0.00000E+00
    0.15176E+06        -0.59892E+08         0.00000E+00
    0.00000E+00         0.00000E+00        -0.41453E+08
 
   -0.36406E+08         0.17615E+06         0.00000E+00
    0.17615E+06        -0.59830E+08         0.00000E+00
    0.00000E+00         0.00000E+00        -0.41231E+08
 
   -0.36479E+08         0.18955E+06         0.00000E+00
    0.18955E+06        -0.59762E+08         0.00000E+00
    0.00000E+00         0.00000E+00        -0.40962E+08
 
   -0.36575E+08         0.19439E+06         0.00000E+00
    0.19439E+06        -0.59690E+08         0.00000E+00
    0.00000E+00         0.00000E+00        -0.40654E+08
 
   -0.36688E+08         0.19302E+06         0.00000E+00
    0.19302E+06        -0.59619E+08         0.00000E+00
    0.00000E+00         0.00000E+00        -0.40324E+08
 
   -0.36965E+08         0.19289E+06         0.00000E+00
    0.19289E+06        -0.59548E+08         0.00000E+00
    0.00000E+00         0.00000E+00        -0.40111E+08
 
   -0.37577E+08         0.21294E+06         0.00000E+00
    0.21294E+06        -0.59473E+08         0.00000E+00
    0.00000E+00         0.00000E+00        -0.40184E+08
 
   -0.38162E+08         0.25027E+06         0.00000E+00
    0.25027E+06        -0.59385E+08         0.00000E+00
    0.00000E+00         0.00000E+00        -0.40261E+08
 
   -0.38715E+08         0.30255E+06         0.00000E+00
    0.30255E+06        -0.59279E+08         0.00000E+00
    0.00000E+00         0.00000E+00        -0.40332E+08
 
   -0.39248E+08         0.36925E+06         0.00000E+00
    0.36925E+06        -0.59149E+08         0.00000E+00
    0.00000E+00         0.00000E+00        -0.40398E+08
 
   -0.39769E+08         0.45003E+06         0.00000E+00
    0.45003E+06        -0.58990E+08         0.00000E+00
    0.00000E+00         0.00000E+00        -0.40460E+08
 
   -0.40289E+08         0.54467E+06         0.00000E+00
    0.54467E+06        -0.58796E+08         0.00000E+00
    0.00000E+00         0.00000E+00        -0.40520E+08
 
   -0.36230E+08         0.33218E+05         0.00000E+00
    0.33218E+05        -0.59993E+08         0.00000E+00
    0.00000E+00         0.00000E+00        -0.41692E+08
 
   -0.36248E+08         0.98333E+05         0.00000E+00
    0.98333E+05        -0.59978E+08         0.00000E+00
    0.00000E+00         0.00000E+00        -0.41626E+08
 
   -0.36275E+08         0.15739E+06         0.00000E+00
    0.15739E+06        -0.59948E+08         0.00000E+00
    0.00000E+00         0.00000E+00        -0.41512E+08
 
   -0.36319E+08         0.20563E+06         0.00000E+00
    0.20563E+06        -0.59905E+08         0.00000E+00
    0.00000E+00         0.00000E+00        -0.41342E+08
 
   -0.36384E+08         0.23907E+06         0.00000E+00
    0.23907E+06        -0.59851E+08         0.00000E+00
    0.00000E+00         0.00000E+00        -0.41115E+08
 
   -0.36469E+08         0.25742E+06         0.00000E+00
    0.25742E+06        -0.59790E+08         0.00000E+00
    0.00000E+00         0.00000E+00        -0.40842E+08
 
   -0.36573E+08         0.26338E+06         0.00000E+00
    0.26338E+06        -0.59725E+08         0.00000E+00
    0.00000E+00         0.00000E+00        -0.40536E+08
 
   -0.36693E+08         0.26096E+06         0.00000E+00
    0.26096E+06        -0.59661E+08         0.00000E+00
    0.00000E+00         0.00000E+00        -0.40214E+08
 
   -0.36955E+08         0.26114E+06         0.00000E+00
    0.26114E+06        -0.59597E+08         0.00000E+00
    0.00000E+00         0.00000E+00        -0.40000E+08
 
   -0.37541E+08         0.29038E+06         0.00000E+00
    0.29038E+06        -0.59528E+08         0.00000E+00
    0.00000E+00         0.00000E+00        -0.40065E+08
 
   -0.38108E+08         0.34301E+06         0.00000E+00
    0.34301E+06        -0.59447E+08         0.00000E+00
    0.00000E+00         0.00000E+00        -0.40140E+08
 
   -0.38644E+08         0.41621E+06         0.00000E+00
    0.41621E+06        -0.59347E+08         0.00000E+00
    0.00000E+00         0.00000E+00        -0.40209E+08
 
   -0.39160E+08         0.50939E+06         0.00000E+00
    0.50939E+06        -0.59224E+08         0.00000E+00
    0.00000E+00         0.00000E+00        -0.40273E+08
 
   -0.39664E+08         0.62215E+06         0.00000E+00
    0.62215E+06        -0.59072E+08         0.00000E+00
    0.00000E+00         0.00000E+00        -0.40333E+08
 
   -0.40168E+08         0.75429E+06         0.00000E+00
    0.75429E+06        -0.58885E+08         0.00000E+00
    0.00000E+00         0.00000E+00        -0.40391E+08
 
   -0.36156E+08         0.40013E+05         0.00000E+00
    0.40013E+05        -0.59993E+08         0.00000E+00
    0.00000E+00         0.00000E+00        -0.41553E+08
 
   -0.36178E+08         0.11930E+06         0.00000E+00
    0.11930E+06        -0.59981E+08         0.00000E+00
    0.00000E+00         0.00000E+00        -0.41488E+08
 
   -0.36214E+08         0.19184E+06         0.00000E+00
    0.19184E+06        -0.59957E+08         0.00000E+00
    0.00000E+00         0.00000E+00        -0.41372E+08
 
   -0.36273E+08         0.25120E+06         0.00000E+00
    0.25120E+06        -0.59923E+08         0.00000E+00
    0.00000E+00         0.00000E+00        -0.41194E+08
 
   -0.36354E+08         0.29303E+06         0.00000E+00
    0.29303E+06        -0.59880E+08         0.00000E+00
    0.00000E+00         0.00000E+00        -0.40963E+08
 
   -0.36455E+08         0.31678E+06         0.00000E+00
    0.31678E+06        -0.59830E+08         0.00000E+00
    0.00000E+00         0.00000E+00        -0.40688E+08
 
   -0.36572E+08         0.32432E+06         0.00000E+00
    0.32432E+06        -0.59775E+08         0.00000E+00
    0.00000E+00         0.00000E+00        -0.40386E+08
 
   -0.36698E+08         0.32097E+06         0.00000E+00
    0.32097E+06        -0.59719E+08         0.00000E+00
    0.00000E+00         0.00000E+00        -0.40072E+08
 
   -0.36941E+08         0.32167E+06         0.00000E+00
    0.32167E+06        -0.59663E+08         0.00000E+00
    0.00000E+00         0.00000E+00        -0.39852E+08
 
   -0.37493E+08         0.36042E+06         0.00000E+00
    0.36042E+06        -0.59603E+08         0.00000E+00
    0.00000E+00         0.00000E+00        -0.39907E+08
 
   -0.38036E+08         0.42853E+06         0.00000E+00
    0.42853E+06        -0.59530E+08         0.00000E+00
    0.00000E+00         0.00000E+00        -0.39979E+08
 
   -0.38549E+08         0.52270E+06         0.00000E+00
    0.52270E+06        -0.59438E+08         0.00000E+00
    0.00000E+00         0.00000E+00        -0.40045E+08
 
   -0.39042E+08         0.64209E+06         0.00000E+00
    0.64209E+06        -0.59323E+08         0.00000E+00
    0.00000E+00         0.00000E+00        -0.40107E+08
 
   -0.39525E+08         0.78642E+06         0.00000E+00
    0.78642E+06        -0.59179E+08         0.00000E+00
    0.00000E+00         0.00000E+00        -0.40165E+08
 
   -0.40006E+08         0.95564E+06         0.00000E+00
    0.95564E+06        -0.59001E+08         0.00000E+00
    0.00000E+00         0.00000E+00        -0.40220E+08
 
   -0.36070E+08         0.45365E+05         0.00000E+00
    0.45365E+05        -0.59993E+08         0.00000E+00
    0.00000E+00         0.00000E+00        -0.41372E+08
 
   -0.36095E+08         0.13550E+06         0.00000E+00
    0.13550E+06        -0.59984E+08         0.00000E+00
    0.00000E+00         0.00000E+00        -0.41307E+08
 
   -0.36143E+08         0.21765E+06         0.00000E+00
    0.21765E+06        -0.59968E+08         0.00000E+00
    0.00000E+00         0.00000E+00        -0.41187E+08
 
   -0.36217E+08         0.28489E+06         0.00000E+00
    0.28489E+06        -0.59945E+08         0.00000E+00
    0.00000E+00         0.00000E+00        -0.41007E+08
 
   -0.36318E+08         0.33378E+06         0.00000E+00
    0.33378E+06        -0.59917E+08         0.00000E+00
    0.00000E+00         0.00000E+00        -0.40775E+08
 
   -0.36438E+08         0.36361E+06         0.00000E+00
    0.36361E+06        -0.59884E+08         0.00000E+00
    0.00000E+00         0.00000E+00        -0.40503E+08
 
   -0.36569E+08         0.37547E+06         0.00000E+00
    0.37547E+06        -0.59842E+08         0.00000E+00
    0.00000E+00         0.00000E+00        -0.40208E+08
 
   -0.36705E+08         0.37255E+06         0.00000E+00
    0.37255E+06        -0.59795E+08         0.00000E+00
    0.00000E+00         0.00000E+00        -0.39902E+08
 
   -0.36921E+08         0.37396E+06         0.00000E+00
    0.37396E+06        -0.59748E+08         0.00000E+00
    0.00000E+00         0.00000E+00        -0.39670E+08
 
   -0.37432E+08         0.42101E+06         0.00000E+00
    0.42101E+06        -0.59696E+08         0.00000E+00
    0.00000E+00         0.00000E+00        -0.39710E+08
 
   -0.37945E+08         0.50529E+06         0.00000E+00
    0.50529E+06        -0.59632E+08         0.00000E+00
    0.00000E+00         0.00000E+00        -0.39779E+08
 
   -0.38430E+08         0.62040E+06         0.00000E+00
    0.62040E+06        -0.59550E+08         0.00000E+00
    0.00000E+00         0.00000E+00        -0.39841E+08
 
   -0.38896E+08         0.76545E+06         0.00000E+00
    0.76545E+06        -0.59445E+08         0.00000E+00
    0.00000E+00         0.00000E+00        -0.39899E+08
 
   -0.39351E+08         0.94060E+06         0.00000E+00
    0.94060E+06        -0.59312E+08         0.00000E+00
    0.00000E+00         0.00000E+00        -0.39954E+08
 
   -0.39805E+08         0.11463E+07         0.00000E+00
    0.11463E+07        -0.59146E+08         0.00000E+00
    0.00000E+00         0.00000E+00        -0.40006E+08
 
   -0.35974E+08         0.49192E+05         0.00000E+00
    0.49192E+05        -0.59993E+08         0.00000E+00
    0.00000E+00         0.00000E+00        -0.41145E+08
 
   -0.36004E+08         0.14631E+06         0.00000E+00
    0.14631E+06        -0.59988E+08         0.00000E+00
    0.00000E+00         0.00000E+00        -0.41080E+08
 
   -0.36064E+08         0.23302E+06         0.00000E+00
    0.23302E+06        -0.59980E+08         0.00000E+00
    0.00000E+00         0.00000E+00        -0.40956E+08
 
   -0.36156E+08         0.30351E+06         0.00000E+00
    0.30351E+06        -0.59972E+08         0.00000E+00
    0.00000E+00         0.00000E+00        -0.40775E+08
 
   -0.36276E+08         0.35648E+06         0.00000E+00
    0.35648E+06        -0.59962E+08         0.00000E+00
    0.00000E+00         0.00000E+00        -0.40548E+08
 
   -0.36414E+08         0.39295E+06         0.00000E+00
    0.39295E+06        -0.59948E+08         0.00000E+00
    0.00000E+00         0.00000E+00        -0.40290E+08
 
   -0.36563E+08         0.41312E+06         0.00000E+00
    0.41312E+06        -0.59926E+08         0.00000E+00
    0.00000E+00         0.00000E+00        -0.40007E+08
 
   -0.36713E+08         0.41612E+06         0.00000E+00
    0.41612E+06        -0.59893E+08         0.00000E+00
    0.00000E+00         0.00000E+00        -0.39712E+08
 
   -0.36898E+08         0.41805E+06         0.00000E+00
    0.41805E+06        -0.59850E+08         0.00000E+00
    0.00000E+00         0.00000E+00        -0.39460E+08
 
   -0.37356E+08         0.47106E+06         0.00000E+00
    0.47106E+06        -0.59809E+08         0.00000E+00
    0.00000E+00         0.00000E+00        -0.39474E+08
 
   -0.37836E+08         0.57244E+06         0.00000E+00
    0.57244E+06        -0.59755E+08         0.00000E+00
    0.00000E+00         0.00000E+00        -0.39539E+08
 
   -0.38289E+08         0.70796E+06         0.00000E+00
    0.70796E+06        -0.59683E+08         0.00000E+00
    0.00000E+00         0.00000E+00        -0.39598E+08
 
   -0.38723E+08         0.87763E+06         0.00000E+00
    0.87763E+06        -0.59589E+08         0.00000E+00
    0.00000E+00         0.00000E+00        -0.39652E+08
 
   -0.39144E+08         0.10825E+07         0.00000E+00
    0.10825E+07        -0.59469E+08         0.00000E+00
    0.00000E+00         0.00000E+00        -0.39703E+08
 
   -0.39564E+08         0.13236E+07         0.00000E+00
    0.13236E+07        -0.59317E+08         0.00000E+00
    0.00000E+00         0.00000E+00        -0.39751E+08
 
   -0.35872E+08         0.51308E+05         0.00000E+00
    0.51308E+05        -0.59994E+08         0.00000E+00
    0.00000E+00         0.00000E+00        -0.40869E+08
 
   -0.35909E+08         0.15068E+06         0.00000E+00
    0.15068E+06        -0.59993E+08         0.00000E+00
    0.00000E+00         0.00000E+00        -0.40801E+08
 
   -0.35984E+08         0.23627E+06         0.00000E+00
    0.23627E+06        -0.59996E+08         0.00000E+00
    0.00000E+00         0.00000E+00        -0.40672E+08
 
   -0.36095E+08         0.30475E+06         0.00000E+00
    0.30475E+06        -0.60003E+08         0.00000E+00
    0.00000E+00         0.00000E+00        -0.40493E+08
 
   -0.36230E+08         0.35853E+06         0.00000E+00
    0.35853E+06        -0.60012E+08         0.00000E+00
    0.00000E+00         0.00000E+00        -0.40281E+08
 
   -0.36383E+08         0.40035E+06         0.00000E+00
    0.40035E+06        -0.60020E+08         0.00000E+00
    0.00000E+00         0.00000E+00        -0.40044E+08
 
   -0.36547E+08         0.43095E+06         0.00000E+00
    0.43095E+06        -0.60021E+08         0.00000E+00
    0.00000E+00         0.00000E+00        -0.39786E+08
 
   -0.36716E+08         0.44797E+06         0.00000E+00
    0.44797E+06        -0.60009E+08         0.00000E+00
    0.00000E+00         0.00000E+00        -0.39509E+08
 
   -0.36879E+08         0.45610E+06         0.00000E+00
    0.45610E+06        -0.59980E+08         0.00000E+00
    0.00000E+00         0.00000E+00        -0.39235E+08
 
   -0.37264E+08         0.51151E+06         0.00000E+00
    0.51151E+06        -0.59941E+08         0.00000E+00
    0.00000E+00         0.00000E+00        -0.39200E+08
 
   -0.37708E+08         0.62954E+06         0.00000E+00
    0.62954E+06        -0.59897E+08         0.00000E+00
    0.00000E+00         0.00000E+00        -0.39260E+08
 
   -0.38126E+08         0.78405E+06         0.00000E+00
    0.78405E+06        -0.59836E+08         0.00000E+00
    0.00000E+00         0.00000E+00        -0.39315E+08
 
   -0.38523E+08         0.97701E+06         0.00000E+00
    0.97701E+06        -0.59755E+08         0.00000E+00
    0.00000E+00         0.00000E+00        -0.39364E+08
 
   -0.38906E+08         0.12097E+07         0.00000E+00
    0.12097E+07        -0.59650E+08         0.00000E+00
    0.00000E+00         0.00000E+00        -0.39411E+08
 
   -0.39286E+08         0.14849E+07         0.00000E+00
    0.14849E+07        -0.59514E+08         0.00000E+00
    0.00000E+00         0.00000E+00        -0.39455E+08
 
   -0.35768E+08         0.51280E+05         0.00000E+00
    0.51280E+05        -0.59995E+08         0.00000E+00
    0.00000E+00         0.00000E+00        -0.40541E+08
 
   -0.35816E+08         0.14708E+06         0.00000E+00
    0.14708E+06        -0.60001E+08         0.00000E+00
    0.00000E+00         0.00000E+00        -0.40468E+08
 
   -0.35910E+08         0.22571E+06         0.00000E+00
    0.22571E+06        -0.60015E+08         0.00000E+00
    0.00000E+00         0.00000E+00        -0.40331E+08
 
   -0.36035E+08         0.28819E+06         0.00000E+00
    0.28819E+06        -0.60037E+08         0.00000E+00
    0.00000E+00         0.00000E+00        -0.40160E+08
 
   -0.36182E+08         0.33960E+06         0.00000E+00
    0.33960E+06        -0.60065E+08         0.00000E+00
    0.00000E+00         0.00000E+00        -0.39967E+08
 
   -0.36344E+08         0.38400E+06         0.00000E+00
    0.38400E+06        -0.60094E+08         0.00000E+00
    0.00000E+00         0.00000E+00        -0.39761E+08
 
   -0.36517E+08         0.42418E+06         0.00000E+00
    0.42418E+06        -0.60120E+08         0.00000E+00
    0.00000E+00         0.00000E+00        -0.39538E+08
 
   -0.36697E+08         0.46096E+06         0.00000E+00
    0.46096E+06        -0.60132E+08         0.00000E+00
    0.00000E+00         0.00000E+00        -0.39294E+08
 
   -0.36870E+08         0.48836E+06         0.00000E+00
    0.48836E+06        -0.60123E+08         0.00000E+00
    0.00000E+00         0.00000E+00        -0.39030E+08
 
   -0.37154E+08         0.54369E+06         0.00000E+00
    0.54369E+06        -0.60089E+08         0.00000E+00
    0.00000E+00         0.00000E+00        -0.38897E+08
 
   -0.37565E+08         0.67403E+06         0.00000E+00
    0.67403E+06        -0.60057E+08         0.00000E+00
    0.00000E+00         0.00000E+00        -0.38944E+08
 
   -0.37942E+08         0.84817E+06         0.00000E+00
    0.84817E+06        -0.60008E+08         0.00000E+00
    0.00000E+00         0.00000E+00        -0.38993E+08
 
   -0.38299E+08         0.10621E+07         0.00000E+00
    0.10621E+07        -0.59940E+08         0.00000E+00
    0.00000E+00         0.00000E+00        -0.39038E+08
 
   -0.38638E+08         0.13200E+07         0.00000E+00
    0.13200E+07        -0.59851E+08         0.00000E+00
    0.00000E+00         0.00000E+00        -0.39079E+08
 
   -0.38971E+08         0.16269E+07         0.00000E+00
    0.16269E+07        -0.59736E+08         0.00000E+00
    0.00000E+00         0.00000E+00        -0.39118E+08
 
   -0.35667E+08         0.48081E+05         0.00000E+00
    0.48081E+05        -0.59998E+08         0.00000E+00
    0.00000E+00         0.00000E+00        -0.40158E+08
 
   -0.35733E+08         0.13386E+06         0.00000E+00
    0.13386E+06        -0.60010E+08         0.00000E+00
    0.00000E+00         0.00000E+00        -0.40070E+08
 
   -0.35844E+08         0.20075E+06         0.00000E+00
    0.20075E+06        -0.60036E+08         0.00000E+00
    0.00000E+00         0.00000E+00        -0.39931E+08
 
   -0.35982E+08         0.25434E+06         0.00000E+00
    0.25434E+06        -0.60074E+08         0.00000E+00
    0.00000E+00         0.00000E+00        -0.39773E+08
 
   -0.36136E+08         0.30074E+06         0.00000E+00
    0.30074E+06        -0.60120E+08         0.00000E+00
    0.00000E+00         0.00000E+00        -0.39607E+08
 
   -0.36300E+08         0.34522E+06         0.00000E+00
    0.34522E+06        -0.60169E+08         0.00000E+00
    0.00000E+00         0.00000E+00        -0.39436E+08
 
   -0.36473E+08         0.39222E+06         0.00000E+00
    0.39222E+06        -0.60216E+08         0.00000E+00
    0.00000E+00         0.00000E+00        -0.39255E+08
 
   -0.36653E+08         0.44473E+06         0.00000E+00
    0.44473E+06        -0.60254E+08         0.00000E+00
    0.00000E+00         0.00000E+00        -0.39057E+08
 
   -0.36844E+08         0.50068E+06         0.00000E+00
    0.50068E+06        -0.60276E+08         0.00000E+00
    0.00000E+00         0.00000E+00        -0.38831E+08
 
   -0.37051E+08         0.57293E+06         0.00000E+00
    0.57293E+06        -0.60273E+08         0.00000E+00
    0.00000E+00         0.00000E+00        -0.38610E+08
 
   -0.37397E+08         0.70821E+06         0.00000E+00
    0.70821E+06        -0.60235E+08         0.00000E+00
    0.00000E+00         0.00000E+00        -0.38589E+08
 
   -0.37740E+08         0.89945E+06         0.00000E+00
    0.89945E+06        -0.60198E+08         0.00000E+00
    0.00000E+00         0.00000E+00        -0.38634E+08
 
   -0.38053E+08         0.11323E+07         0.00000E+00
    0.11323E+07        -0.60144E+08         0.00000E+00
    0.00000E+00         0.00000E+00        -0.38674E+08
 
   -0.38345E+08         0.14109E+07         0.00000E+00
    0.14109E+07        -0.60072E+08         0.00000E+00
    0.00000E+00         0.00000E+00        -0.38709E+08
 
   -0.38621E+08         0.17455E+07         0.00000E+00
    0.17455E+07        -0.59980E+08         0.00000E+00
    0.00000E+00         0.00000E+00        -0.38741E+08
 
   -0.35576E+08         0.40645E+05         0.00000E+00
    0.40645E+05        -0.60001E+08         0.00000E+00
    0.00000E+00         0.00000E+00        -0.39711E+08
 
   -0.35663E+08         0.11005E+06         0.00000E+00
    0.11005E+06        -0.60021E+08         0.00000E+00
    0.00000E+00         0.00000E+00        -0.39607E+08
 
   -0.35791E+08         0.16143E+06         0.00000E+00
    0.16143E+06        -0.60060E+08         0.00000E+00
    0.00000E+00         0.00000E+00        -0.39472E+08
 
   -0.35937E+08         0.20359E+06         0.00000E+00
    0.20359E+06        -0.60113E+08         0.00000E+00
    0.00000E+00         0.00000E+00        -0.39334E+08
 
   -0.36093E+08         0.24346E+06         0.00000E+00
    0.24346E+06        -0.60176E+08         0.00000E+00
    0.00000E+00         0.00000E+00        -0.39200E+08
 
   -0.36254E+08         0.28670E+06         0.00000E+00
    0.28670E+06        -0.60243E+08         0.00000E+00
    0.00000E+00         0.00000E+00        -0.39067E+08
 
   -0.36420E+08         0.33819E+06         0.00000E+00
    0.33819E+06        -0.60308E+08         0.00000E+00
    0.00000E+00         0.00000E+00        -0.38931E+08
 
   -0.36590E+08         0.40180E+06         0.00000E+00
    0.40180E+06        -0.60366E+08         0.00000E+00
    0.00000E+00         0.00000E+00        -0.38783E+08
 
   -0.36770E+08         0.48163E+06         0.00000E+00
    0.48163E+06        -0.60408E+08         0.00000E+00
    0.00000E+00         0.00000E+00        -0.38609E+08
 
   -0.36967E+08         0.58251E+06         0.00000E+00
    0.58251E+06        -0.60433E+08         0.00000E+00
    0.00000E+00         0.00000E+00        -0.38401E+08
 
   -0.37206E+08         0.73219E+06         0.00000E+00
    0.73219E+06        -0.60443E+08         0.00000E+00
    0.00000E+00         0.00000E+00        -0.38239E+08
 
   -0.37517E+08         0.94041E+06         0.00000E+00
    0.94041E+06        -0.60406E+08         0.00000E+00
    0.00000E+00         0.00000E+00        -0.38239E+08
 
   -0.37792E+08         0.11874E+07         0.00000E+00
    0.11874E+07        -0.60365E+08         0.00000E+00
    0.00000E+00         0.00000E+00        -0.38274E+08
 
   -0.38031E+08         0.14813E+07         0.00000E+00
    0.14813E+07        -0.60310E+08         0.00000E+00
    0.00000E+00         0.00000E+00        -0.38303E+08
 
   -0.38241E+08         0.18349E+07         0.00000E+00
    0.18349E+07        -0.60244E+08         0.00000E+00
    0.00000E+00         0.00000E+00        -0.38327E+08
 
   -0.35505E+08         0.28742E+05         0.00000E+00
    0.28742E+05        -0.60004E+08         0.00000E+00
    0.00000E+00         0.00000E+00        -0.39196E+08
 
   -0.35614E+08         0.75014E+05         0.00000E+00
    0.75014E+05        -0.60032E+08         0.00000E+00
    0.00000E+00         0.00000E+00        -0.39079E+08
 
   -0.35753E+08         0.10777E+06         0.00000E+00
    0.10777E+06        -0.60083E+08         0.00000E+00
    0.00000E+00         0.00000E+00        -0.38955E+08
 
   -0.35902E+08         0.13681E+06         0.00000E+00
    0.13681E+06        -0.60151E+08         0.00000E+00
    0.00000E+00         0.00000E+00        -0.38844E+08
 
   -0.36054E+08         0.16925E+06         0.00000E+00
    0.16925E+06        -0.60230E+08         0.00000E+00
    0.00000E+00         0.00000E+00        -0.38747E+08
 
   -0.36207E+08         0.21121E+06         0.00000E+00
    0.21121E+06        -0.60312E+08         0.00000E+00
    0.00000E+00         0.00000E+00        -0.38657E+08
 
   -0.36359E+08         0.26758E+06         0.00000E+00
    0.26758E+06        -0.60393E+08         0.00000E+00
    0.00000E+00         0.00000E+00        -0.38567E+08
 
   -0.36512E+08         0.34250E+06         0.00000E+00
    0.34250E+06        -0.60464E+08         0.00000E+00
    0.00000E+00         0.00000E+00        -0.38466E+08
 
   -0.36670E+08         0.43942E+06         0.00000E+00
    0.43942E+06        -0.60520E+08         0.00000E+00
    0.00000E+00         0.00000E+00        -0.38345E+08
 
   -0.36841E+08         0.56333E+06         0.00000E+00
    0.56333E+06        -0.60557E+08         0.00000E+00
    0.00000E+00         0.00000E+00        -0.38190E+08
 
   -0.37037E+08         0.72735E+06         0.00000E+00
    0.72735E+06        -0.60583E+08         0.00000E+00
    0.00000E+00         0.00000E+00        -0.38009E+08
 
   -0.37260E+08         0.95546E+06         0.00000E+00
    0.95546E+06        -0.60611E+08         0.00000E+00
    0.00000E+00         0.00000E+00        -0.37869E+08
 
   -0.37514E+08         0.12277E+07         0.00000E+00
    0.12277E+07        -0.60594E+08         0.00000E+00
    0.00000E+00         0.00000E+00        -0.37856E+08
 
   -0.37707E+08         0.15313E+07         0.00000E+00
    0.15313E+07        -0.60559E+08         0.00000E+00
    0.00000E+00         0.00000E+00        -0.37861E+08
 
   -0.37842E+08         0.18822E+07         0.00000E+00
    0.18822E+07        -0.60532E+08         0.00000E+00
    0.00000E+00         0.00000E+00        -0.37879E+08
 
   -0.35460E+08         0.11849E+05         0.00000E+00
    0.11849E+05        -0.60007E+08         0.00000E+00
    0.00000E+00         0.00000E+00        -0.38611E+08
 
   -0.35588E+08         0.29500E+05         0.00000E+00
    0.29500E+05        -0.60043E+08         0.00000E+00
    0.00000E+00         0.00000E+00        -0.38488E+08
 
   -0.35731E+08         0.40530E+05         0.00000E+00
    0.40530E+05        -0.60105E+08         0.00000E+00
    0.00000E+00         0.00000E+00        -0.38385E+08
 
   -0.35877E+08         0.54792E+05         0.00000E+00
    0.54792E+05        -0.60187E+08         0.00000E+00
    0.00000E+00         0.00000E+00        -0.38308E+08
 
   -0.36019E+08         0.79792E+05         0.00000E+00
    0.79792E+05        -0.60280E+08         0.00000E+00
    0.00000E+00         0.00000E+00        -0.38252E+08
 
   -0.36157E+08         0.12155E+06         0.00000E+00
    0.12155E+06        -0.60376E+08         0.00000E+00
    0.00000E+00         0.00000E+00        -0.38208E+08
 
   -0.36289E+08         0.18470E+06         0.00000E+00
    0.18470E+06        -0.60468E+08         0.00000E+00
    0.00000E+00         0.00000E+00        -0.38164E+08
 
   -0.36419E+08         0.27262E+06         0.00000E+00
    0.27262E+06        -0.60549E+08         0.00000E+00
    0.00000E+00         0.00000E+00        -0.38111E+08
 
   -0.36551E+08         0.38767E+06         0.00000E+00
    0.38767E+06        -0.60613E+08         0.00000E+00
    0.00000E+00         0.00000E+00        -0.38036E+08
 
   -0.36690E+08         0.53241E+06         0.00000E+00
    0.53241E+06        -0.60656E+08         0.00000E+00
    0.00000E+00         0.00000E+00        -0.37932E+08
 
   -0.36842E+08         0.71351E+06         0.00000E+00
    0.71351E+06        -0.60677E+08         0.00000E+00
    0.00000E+00         0.00000E+00        -0.37796E+08
 
   -0.37019E+08         0.94025E+06         0.00000E+00
    0.94025E+06        -0.60691E+08         0.00000E+00
    0.00000E+00         0.00000E+00        -0.37648E+08
 
   -0.37209E+08         0.12242E+07         0.00000E+00
    0.12242E+07        -0.60716E+08         0.00000E+00
    0.00000E+00         0.00000E+00        -0.37530E+08
 
   -0.37373E+08         0.15442E+07         0.00000E+00
    0.15442E+07        -0.60729E+08         0.00000E+00
    0.00000E+00         0.00000E+00        -0.37476E+08
 
   -0.37486E+08         0.18750E+07         0.00000E+00
    0.18750E+07        -0.60731E+08         0.00000E+00
    0.00000E+00         0.00000E+00        -0.37498E+08
 
   -0.35452E+08        -0.95287E+04         0.00000E+00
   -0.95287E+04        -0.60010E+08         0.00000E+00
    0.00000E+00         0.00000E+00        -0.37954E+08
 
   -0.35589E+08        -0.25541E+05         0.00000E+00
   -0.25541E+05        -0.60052E+08         0.00000E+00
    0.00000E+00         0.00000E+00        -0.37839E+08
 
   -0.35729E+08        -0.39363E+05         0.00000E+00
   -0.39363E+05        -0.60125E+08         0.00000E+00
    0.00000E+00         0.00000E+00        -0.37765E+08
 
   -0.35864E+08        -0.40955E+05         0.00000E+00
   -0.40955E+05        -0.60219E+08         0.00000E+00
    0.00000E+00         0.00000E+00        -0.37728E+08
 
   -0.35988E+08        -0.22877E+05         0.00000E+00
   -0.22877E+05        -0.60325E+08         0.00000E+00
    0.00000E+00         0.00000E+00        -0.37718E+08
 
   -0.36102E+08         0.20403E+05         0.00000E+00
    0.20403E+05        -0.60432E+08         0.00000E+00
    0.00000E+00         0.00000E+00        -0.37722E+08
 
   -0.36208E+08         0.92650E+05         0.00000E+00
    0.92650E+05        -0.60532E+08         0.00000E+00
    0.00000E+00         0.00000E+00        -0.37727E+08
 
   -0.36309E+08         0.19595E+06         0.00000E+00
    0.19595E+06        -0.60620E+08         0.00000E+00
    0.00000E+00         0.00000E+00        -0.37721E+08
 
   -0.36410E+08         0.33131E+06         0.00000E+00
    0.33131E+06        -0.60689E+08         0.00000E+00
    0.00000E+00         0.00000E+00        -0.37692E+08
 
   -0.36516E+08         0.49953E+06         0.00000E+00
    0.49953E+06        -0.60734E+08         0.00000E+00
    0.00000E+00         0.00000E+00        -0.37633E+08
 
   -0.36633E+08         0.70132E+06         0.00000E+00
    0.70132E+06        -0.60757E+08         0.00000E+00
    0.00000E+00         0.00000E+00        -0.37543E+08
 
   -0.36764E+08         0.94058E+06         0.00000E+00
    0.94058E+06        -0.60759E+08         0.00000E+00
    0.00000E+00         0.00000E+00        -0.37430E+08
 
   -0.36908E+08         0.12233E+07         0.00000E+00
    0.12233E+07        -0.60750E+08         0.00000E+00
    0.00000E+00         0.00000E+00        -0.37318E+08
 
   -0.37050E+08         0.15373E+07         0.00000E+00
    0.15373E+07        -0.60749E+08         0.00000E+00
    0.00000E+00         0.00000E+00        -0.37246E+08
 
   -0.37184E+08         0.18484E+07         0.00000E+00
    0.18484E+07        -0.60763E+08         0.00000E+00
    0.00000E+00         0.00000E+00        -0.37237E+08
 
   -0.35486E+08        -0.34268E+05         0.00000E+00
   -0.34268E+05        -0.60012E+08         0.00000E+00
    0.00000E+00         0.00000E+00        -0.37231E+08
 
   -0.35621E+08        -0.89185E+05         0.00000E+00
   -0.89185E+05        -0.60060E+08         0.00000E+00
    0.00000E+00         0.00000E+00        -0.37138E+08
 
   -0.35749E+08        -0.13040E+06         0.00000E+00
   -0.13040E+06        -0.60142E+08         0.00000E+00
    0.00000E+00         0.00000E+00        -0.37101E+08
 
   -0.35862E+08        -0.14835E+06         0.00000E+00
   -0.14835E+06        -0.60246E+08         0.00000E+00
    0.00000E+00         0.00000E+00        -0.37111E+08
 
   -0.35959E+08        -0.13612E+06         0.00000E+00
   -0.13612E+06        -0.60361E+08         0.00000E+00
    0.00000E+00         0.00000E+00        -0.37151E+08
 
   -0.36041E+08        -0.89336E+05         0.00000E+00
   -0.89336E+05        -0.60476E+08         0.00000E+00
    0.00000E+00         0.00000E+00        -0.37205E+08
 
   -0.36113E+08        -0.58866E+04         0.00000E+00
   -0.58866E+04        -0.60583E+08         0.00000E+00
    0.00000E+00         0.00000E+00        -0.37259E+08
 
   -0.36180E+08         0.11466E+06         0.00000E+00
    0.11466E+06        -0.60675E+08         0.00000E+00
    0.00000E+00         0.00000E+00        -0.37299E+08
 
   -0.36247E+08         0.27177E+06         0.00000E+00
    0.27177E+06        -0.60747E+08         0.00000E+00
    0.00000E+00         0.00000E+00        -0.37316E+08
 
   -0.36319E+08         0.46415E+06         0.00000E+00
    0.46415E+06        -0.60796E+08         0.00000E+00
    0.00000E+00         0.00000E+00        -0.37303E+08
 
   -0.36402E+08         0.69035E+06         0.00000E+00
    0.69035E+06        -0.60821E+08         0.00000E+00
    0.00000E+00         0.00000E+00        -0.37259E+08
 
   -0.36499E+08         0.94897E+06         0.00000E+00
    0.94897E+06        -0.60823E+08         0.00000E+00
    0.00000E+00         0.00000E+00        -0.37187E+08
 
   -0.36613E+08         0.12358E+07         0.00000E+00
    0.12358E+07        -0.60812E+08         0.00000E+00
    0.00000E+00         0.00000E+00        -0.37104E+08
 
   -0.36744E+08         0.15392E+07         0.00000E+00
    0.15392E+07        -0.60801E+08         0.00000E+00
    0.00000E+00         0.00000E+00        -0.37028E+08
 
   -0.36883E+08         0.18436E+07         0.00000E+00
    0.18436E+07        -0.60793E+08         0.00000E+00
    0.00000E+00         0.00000E+00        -0.36974E+08
 
   -0.35568E+08        -0.61823E+05         0.00000E+00
   -0.61823E+05        -0.60014E+08         0.00000E+00
    0.00000E+00         0.00000E+00        -0.36451E+08
 
   -0.35688E+08        -0.15989E+06         0.00000E+00
   -0.15989E+06        -0.60066E+08         0.00000E+00
    0.00000E+00         0.00000E+00        -0.36391E+08
 
   -0.35791E+08        -0.23042E+06         0.00000E+00
   -0.23042E+06        -0.60155E+08         0.00000E+00
    0.00000E+00         0.00000E+00        -0.36401E+08
 
   -0.35871E+08        -0.26458E+06         0.00000E+00
   -0.26458E+06        -0.60267E+08         0.00000E+00
    0.00000E+00         0.00000E+00        -0.36462E+08
 
   -0.35930E+08        -0.25655E+06         0.00000E+00
   -0.25655E+06        -0.60388E+08         0.00000E+00
    0.00000E+00         0.00000E+00        -0.36554E+08
 
   -0.35972E+08        -0.20443E+06         0.00000E+00
   -0.20443E+06        -0.60507E+08         0.00000E+00
    0.00000E+00         0.00000E+00        -0.36658E+08
 
   -0.36004E+08        -0.10845E+06         0.00000E+00
   -0.10845E+06        -0.60617E+08         0.00000E+00
    0.00000E+00         0.00000E+00        -0.36759E+08
 
   -0.36031E+08         0.29929E+05         0.00000E+00
    0.29929E+05        -0.60711E+08         0.00000E+00
    0.00000E+00         0.00000E+00        -0.36846E+08
 
   -0.36061E+08         0.20862E+06         0.00000E+00
    0.20862E+06        -0.60787E+08         0.00000E+00
    0.00000E+00         0.00000E+00        -0.36910E+08
 
   -0.36098E+08         0.42480E+06         0.00000E+00
    0.42480E+06        -0.60840E+08         0.00000E+00
    0.00000E+00         0.00000E+00        -0.36944E+08
 
   -0.36148E+08         0.67448E+06         0.00000E+00
    0.67448E+06        -0.60871E+08         0.00000E+00
    0.00000E+00         0.00000E+00        -0.36946E+08
 
   -0.36219E+08         0.95177E+06         0.00000E+00
    0.95177E+06        -0.60881E+08         0.00000E+00
    0.00000E+00         0.00000E+00        -0.36918E+08
 
   -0.36316E+08         0.12486E+07         0.00000E+00
    0.12486E+07        -0.60876E+08         0.00000E+00
    0.00000E+00         0.00000E+00        -0.36864E+08
 
   -0.36440E+08         0.15562E+07         0.00000E+00
    0.15562E+07        -0.60860E+08         0.00000E+00
    0.00000E+00         0.00000E+00        -0.36790E+08
 
   -0.36585E+08         0.18638E+07         0.00000E+00
    0.18638E+07        -0.60835E+08         0.00000E+00
    0.00000E+00         0.00000E+00        -0.36706E+08
 
   -0.35703E+08        -0.91464E+05         0.00000E+00
   -0.91464E+05        -0.60016E+08         0.00000E+00
    0.00000E+00         0.00000E+00        -0.35621E+08
 
   -0.35793E+08        -0.23644E+06         0.00000E+00
   -0.23644E+06        -0.60071E+08         0.00000E+00
    0.00000E+00         0.00000E+00        -0.35607E+08
 
   -0.35855E+08        -0.33728E+06         0.00000E+00
   -0.33728E+06        -0.60166E+08         0.00000E+00
    0.00000E+00         0.00000E+00        -0.35671E+08
 
   -0.35889E+08        -0.38561E+06         0.00000E+00
   -0.38561E+06        -0.60282E+08         0.00000E+00
    0.00000E+00         0.00000E+00        -0.35787E+08
 
   -0.35899E+08        -0.37981E+06         0.00000E+00
   -0.37981E+06        -0.60403E+08         0.00000E+00
    0.00000E+00         0.00000E+00        -0.35930E+08
 
   -0.35893E+08        -0.32140E+06         0.00000E+00
   -0.32140E+06        -0.60522E+08         0.00000E+00
    0.00000E+00         0.00000E+00        -0.36082E+08
 
   -0.35879E+08        -0.21301E+06         0.00000E+00
   -0.21301E+06        -0.60633E+08         0.00000E+00
    0.00000E+00         0.00000E+00        -0.36230E+08
 
   -0.35863E+08        -0.57702E+05         0.00000E+00
   -0.57702E+05        -0.60729E+08         0.00000E+00
    0.00000E+00         0.00000E+00        -0.36363E+08
 
   -0.35852E+08         0.14120E+06         0.00000E+00
    0.14120E+06        -0.60808E+08         0.00000E+00
    0.00000E+00         0.00000E+00        -0.36474E+08
 
   -0.35853E+08         0.37907E+06         0.00000E+00
    0.37907E+06        -0.60867E+08         0.00000E+00
    0.00000E+00         0.00000E+00        -0.36555E+08
 
   -0.35875E+08         0.64975E+06         0.00000E+00
    0.64975E+06        -0.60906E+08         0.00000E+00
    0.00000E+00         0.00000E+00        -0.36602E+08
 
   -0.35924E+08         0.94573E+06         0.00000E+00
    0.94573E+06        -0.60926E+08         0.00000E+00
    0.00000E+00         0.00000E+00        -0.36614E+08
 
   -0.36007E+08         0.12588E+07         0.00000E+00
    0.12588E+07        -0.60927E+08         0.00000E+00
    0.00000E+00         0.00000E+00        -0.36587E+08
 
   -0.36127E+08         0.15804E+07         0.00000E+00
    0.15804E+07        -0.60911E+08         0.00000E+00
    0.00000E+00         0.00000E+00        -0.36522E+08
 
   -0.36281E+08         0.19006E+07         0.00000E+00
    0.19006E+07        -0.60878E+08         0.00000E+00
    0.00000E+00         0.00000E+00        -0.36423E+08
 
   -0.35894E+08        -0.12217E+06         0.00000E+00
   -0.12217E+06        -0.60016E+08         0.00000E+00
    0.00000E+00         0.00000E+00        -0.34752E+08
 
   -0.35938E+08        -0.31956E+06         0.00000E+00
   -0.31956E+06        -0.60078E+08         0.00000E+00
    0.00000E+00         0.00000E+00        -0.34797E+08
 
   -0.35940E+08        -0.44723E+06         0.00000E+00
   -0.44723E+06        -0.60175E+08         0.00000E+00
    0.00000E+00         0.00000E+00        -0.34922E+08
 
   -0.35913E+08        -0.50614E+06         0.00000E+00
   -0.50614E+06        -0.60288E+08         0.00000E+00
    0.00000E+00         0.00000E+00        -0.35092E+08
 
   -0.35865E+08        -0.50101E+06         0.00000E+00
   -0.50101E+06        -0.60405E+08         0.00000E+00
    0.00000E+00         0.00000E+00        -0.35282E+08
 
   -0.35805E+08        -0.43688E+06         0.00000E+00
   -0.43688E+06        -0.60521E+08         0.00000E+00
    0.00000E+00         0.00000E+00        -0.35479E+08
 
   -0.35740E+08        -0.31767E+06         0.00000E+00
   -0.31767E+06        -0.60629E+08         0.00000E+00
    0.00000E+00         0.00000E+00        -0.35670E+08
 
   -0.35677E+08        -0.14737E+06         0.00000E+00
   -0.14737E+06        -0.60725E+08         0.00000E+00
    0.00000E+00         0.00000E+00        -0.35847E+08
 
   -0.35623E+08         0.69121E+05         0.00000E+00
    0.69121E+05        -0.60807E+08         0.00000E+00
    0.00000E+00         0.00000E+00        -0.36002E+08
 
   -0.35589E+08         0.32577E+06         0.00000E+00
    0.32577E+06        -0.60872E+08         0.00000E+00
    0.00000E+00         0.00000E+00        -0.36128E+08
 
   -0.35581E+08         0.61563E+06         0.00000E+00
    0.61563E+06        -0.60919E+08         0.00000E+00
    0.00000E+00         0.00000E+00        -0.36219E+08
 
   -0.35609E+08         0.93100E+06         0.00000E+00
    0.93100E+06        -0.60948E+08         0.00000E+00
    0.00000E+00         0.00000E+00        -0.36268E+08
 
   -0.35680E+08         0.12640E+07         0.00000E+00
    0.12640E+07        -0.60957E+08         0.00000E+00
    0.00000E+00         0.00000E+00        -0.36269E+08
 
   -0.35796E+08         0.16058E+07         0.00000E+00
    0.16058E+07        -0.60944E+08         0.00000E+00
    0.00000E+00         0.00000E+00        -0.36219E+08
 
   -0.35959E+08         0.19453E+07         0.00000E+00
    0.19453E+07        -0.60910E+08         0.00000E+00
    0.00000E+00         0.00000E+00        -0.36117E+08
 
   -0.36150E+08        -0.15841E+06         0.00000E+00
   -0.15841E+06        -0.60038E+08         0.00000E+00
    0.00000E+00         0.00000E+00        -0.33873E+08
 
   -0.36118E+08        -0.40556E+06         0.00000E+00
   -0.40556E+06        -0.60086E+08         0.00000E+00
    0.00000E+00         0.00000E+00        -0.33971E+08
 
   -0.36041E+08        -0.55377E+06         0.00000E+00
   -0.55377E+06        -0.60179E+08         0.00000E+00
    0.00000E+00         0.00000E+00        -0.34159E+08
 
   -0.35942E+08        -0.61994E+06         0.00000E+00
   -0.61994E+06        -0.60283E+08         0.00000E+00
    0.00000E+00         0.00000E+00        -0.34377E+08
 
   -0.35829E+08        -0.61610E+06         0.00000E+00
   -0.61610E+06        -0.60393E+08         0.00000E+00
    0.00000E+00         0.00000E+00        -0.34609E+08
 
   -0.35710E+08        -0.54792E+06         0.00000E+00
   -0.54792E+06        -0.60501E+08         0.00000E+00
    0.00000E+00         0.00000E+00        -0.34846E+08
 
   -0.35589E+08        -0.42003E+06         0.00000E+00
   -0.42003E+06        -0.60605E+08         0.00000E+00
    0.00000E+00         0.00000E+00        -0.35078E+08
 
   -0.35475E+08        -0.23748E+06         0.00000E+00
   -0.23748E+06        -0.60699E+08         0.00000E+00
    0.00000E+00         0.00000E+00        -0.35295E+08
 
   -0.35378E+08        -0.66996E+04         0.00000E+00
   -0.66996E+04        -0.60781E+08         0.00000E+00
    0.00000E+00         0.00000E+00        -0.35491E+08
 
   -0.35306E+08         0.26591E+06         0.00000E+00
    0.26591E+06        -0.60850E+08         0.00000E+00
    0.00000E+00         0.00000E+00        -0.35658E+08
 
   -0.35269E+08         0.57313E+06         0.00000E+00
    0.57313E+06        -0.60904E+08         0.00000E+00
    0.00000E+00         0.00000E+00        -0.35788E+08
 
   -0.35275E+08         0.90771E+06         0.00000E+00
    0.90771E+06        -0.60940E+08         0.00000E+00
    0.00000E+00         0.00000E+00        -0.35874E+08
 
   -0.35331E+08         0.12620E+07         0.00000E+00
    0.12620E+07        -0.60958E+08         0.00000E+00
    0.00000E+00         0.00000E+00        -0.35905E+08
 
   -0.35444E+08         0.16272E+07         0.00000E+00
    0.16272E+07        -0.60953E+08         0.00000E+00
    0.00000E+00         0.00000E+00        -0.35876E+08
 
   -0.35614E+08         0.19916E+07         0.00000E+00
    0.19916E+07        -0.60923E+08         0.00000E+00
    0.00000E+00         0.00000E+00        -0.35781E+08
 
   -0.36483E+08        -0.20075E+06         0.00000E+00
   -0.20075E+06        -0.60042E+08         0.00000E+00
    0.00000E+00         0.00000E+00        -0.33101E+08
 
   -0.36318E+08        -0.48854E+06         0.00000E+00
   -0.48854E+06        -0.60095E+08         0.00000E+00
    0.00000E+00         0.00000E+00        -0.33160E+08
 
   -0.36151E+08        -0.65099E+06         0.00000E+00
   -0.65099E+06        -0.60168E+08         0.00000E+00
    0.00000E+00         0.00000E+00        -0.33378E+08
 
   -0.35975E+08        -0.72373E+06         0.00000E+00
   -0.72373E+06        -0.60264E+08         0.00000E+00
    0.00000E+00         0.00000E+00        -0.33640E+08
 
   -0.35793E+08        -0.72249E+06         0.00000E+00
   -0.72249E+06        -0.60364E+08         0.00000E+00
    0.00000E+00         0.00000E+00        -0.33911E+08
 
   -0.35608E+08        -0.65156E+06         0.00000E+00
   -0.65156E+06        -0.60463E+08         0.00000E+00
    0.00000E+00         0.00000E+00        -0.34184E+08
 
   -0.35429E+08        -0.51709E+06         0.00000E+00
   -0.51709E+06        -0.60558E+08         0.00000E+00
    0.00000E+00         0.00000E+00        -0.34450E+08
 
   -0.35263E+08        -0.32545E+06         0.00000E+00
   -0.32545E+06        -0.60646E+08         0.00000E+00
    0.00000E+00         0.00000E+00        -0.34703E+08
 
   -0.35119E+08        -0.83366E+05         0.00000E+00
   -0.83366E+05        -0.60726E+08         0.00000E+00
    0.00000E+00         0.00000E+00        -0.34934E+08
 
   -0.35008E+08         0.20186E+06         0.00000E+00
    0.20186E+06        -0.60795E+08         0.00000E+00
    0.00000E+00         0.00000E+00        -0.35137E+08
 
   -0.34939E+08         0.52371E+06         0.00000E+00
    0.52371E+06        -0.60853E+08         0.00000E+00
    0.00000E+00         0.00000E+00        -0.35304E+08
 
   -0.34920E+08         0.87570E+06         0.00000E+00
    0.87570E+06        -0.60898E+08         0.00000E+00
    0.00000E+00         0.00000E+00        -0.35425E+08
 
   -0.34960E+08         0.12507E+07         0.00000E+00
    0.12507E+07        -0.60925E+08         0.00000E+00
    0.00000E+00         0.00000E+00        -0.35491E+08
 
   -0.35065E+08         0.16401E+07         0.00000E+00
    0.16401E+07        -0.60931E+08         0.00000E+00
    0.00000E+00         0.00000E+00        -0.35489E+08
 
   -0.35242E+08         0.20328E+07         0.00000E+00
    0.20328E+07        -0.60910E+08         0.00000E+00
    0.00000E+00         0.00000E+00        -0.35411E+08
 
   -0.36877E+08        -0.23025E+06         0.00000E+00
   -0.23025E+06        -0.60018E+08         0.00000E+00
    0.00000E+00         0.00000E+00        -0.32447E+08
 
   -0.36560E+08        -0.56373E+06         0.00000E+00
   -0.56373E+06        -0.60068E+08         0.00000E+00
    0.00000E+00         0.00000E+00        -0.32435E+08
 
   -0.36258E+08        -0.74477E+06         0.00000E+00
   -0.74477E+06        -0.60140E+08         0.00000E+00
    0.00000E+00         0.00000E+00        -0.32586E+08
 
   -0.36012E+08        -0.81978E+06         0.00000E+00
   -0.81978E+06        -0.60229E+08         0.00000E+00
    0.00000E+00         0.00000E+00        -0.32883E+08
 
   -0.35755E+08        -0.81793E+06         0.00000E+00
   -0.81793E+06        -0.60318E+08         0.00000E+00
    0.00000E+00         0.00000E+00        -0.33189E+08
 
   -0.35503E+08        -0.74442E+06         0.00000E+00
   -0.74442E+06        -0.60405E+08         0.00000E+00
    0.00000E+00         0.00000E+00        -0.33492E+08
 
   -0.35262E+08        -0.60499E+06         0.00000E+00
   -0.60499E+06        -0.60487E+08         0.00000E+00
    0.00000E+00         0.00000E+00        -0.33787E+08
 
   -0.35041E+08        -0.40682E+06         0.00000E+00
   -0.40682E+06        -0.60565E+08         0.00000E+00
    0.00000E+00         0.00000E+00        -0.34066E+08
 
   -0.34850E+08        -0.15726E+06         0.00000E+00
   -0.15726E+06        -0.60637E+08         0.00000E+00
    0.00000E+00         0.00000E+00        -0.34325E+08
 
   -0.34698E+08         0.13672E+06         0.00000E+00
    0.13672E+06        -0.60704E+08         0.00000E+00
    0.00000E+00         0.00000E+00        -0.34558E+08
 
   -0.34594E+08         0.46907E+06         0.00000E+00
    0.46907E+06        -0.60764E+08         0.00000E+00
    0.00000E+00         0.00000E+00        -0.34758E+08
 
   -0.34547E+08         0.83455E+06         0.00000E+00
    0.83455E+06        -0.60815E+08         0.00000E+00
    0.00000E+00         0.00000E+00        -0.34916E+08
 
   -0.34566E+08         0.12277E+07         0.00000E+00
    0.12277E+07        -0.60853E+08         0.00000E+00
    0.00000E+00         0.00000E+00        -0.35020E+08
 
   -0.34660E+08         0.16408E+07         0.00000E+00
    0.16408E+07        -0.60873E+08         0.00000E+00
    0.00000E+00         0.00000E+00        -0.35054E+08
 
   -0.34839E+08         0.20626E+07         0.00000E+00
    0.20626E+07        -0.60867E+08         0.00000E+00
    0.00000E+00         0.00000E+00        -0.35002E+08
 
   -0.37317E+08        -0.24994E+06         0.00000E+00
   -0.24994E+06        -0.60007E+08         0.00000E+00
    0.00000E+00         0.00000E+00        -0.31823E+08
 
   -0.36834E+08        -0.62184E+06         0.00000E+00
   -0.62184E+06        -0.60049E+08         0.00000E+00
    0.00000E+00         0.00000E+00        -0.31744E+08
 
   -0.36379E+08        -0.82803E+06         0.00000E+00
   -0.82803E+06        -0.60107E+08         0.00000E+00
    0.00000E+00         0.00000E+00        -0.31815E+08
 
   -0.36044E+08        -0.90551E+06         0.00000E+00
   -0.90551E+06        -0.60181E+08         0.00000E+00
    0.00000E+00         0.00000E+00        -0.32117E+08
 
   -0.35716E+08        -0.89997E+06         0.00000E+00
   -0.89997E+06        -0.60256E+08         0.00000E+00
    0.00000E+00         0.00000E+00        -0.32446E+08
 
   -0.35394E+08        -0.82238E+06         0.00000E+00
   -0.82238E+06        -0.60326E+08         0.00000E+00
    0.00000E+00         0.00000E+00        -0.32771E+08
 
   -0.35090E+08        -0.67856E+06         0.00000E+00
   -0.67856E+06        -0.60391E+08         0.00000E+00
    0.00000E+00         0.00000E+00        -0.33084E+08
 
   -0.34814E+08        -0.47646E+06         0.00000E+00
   -0.47646E+06        -0.60452E+08         0.00000E+00
    0.00000E+00         0.00000E+00        -0.33381E+08
 
   -0.34575E+08        -0.22361E+06         0.00000E+00
   -0.22361E+06        -0.60512E+08         0.00000E+00
    0.00000E+00         0.00000E+00        -0.33660E+08
 
   -0.34381E+08         0.73750E+05         0.00000E+00
    0.73750E+05        -0.60572E+08         0.00000E+00
    0.00000E+00         0.00000E+00        -0.33916E+08
 
   -0.34240E+08         0.41083E+06         0.00000E+00
    0.41083E+06        -0.60631E+08         0.00000E+00
    0.00000E+00         0.00000E+00        -0.34145E+08
 
   -0.34160E+08         0.78413E+06         0.00000E+00
    0.78413E+06        -0.60688E+08         0.00000E+00
    0.00000E+00         0.00000E+00        -0.34340E+08
 
   -0.34152E+08         0.11905E+07         0.00000E+00
    0.11905E+07        -0.60738E+08         0.00000E+00
    0.00000E+00         0.00000E+00        -0.34486E+08
 
   -0.34229E+08         0.16246E+07         0.00000E+00
    0.16246E+07        -0.60776E+08         0.00000E+00
    0.00000E+00         0.00000E+00        -0.34564E+08
 
   -0.34405E+08         0.20757E+07         0.00000E+00
    0.20757E+07        -0.60790E+08         0.00000E+00
    0.00000E+00         0.00000E+00        -0.34552E+08
 
   -0.37789E+08        -0.26533E+06         0.00000E+00
   -0.26533E+06        -0.60006E+08         0.00000E+00
    0.00000E+00         0.00000E+00        -0.31192E+08
 
   -0.37138E+08        -0.66299E+06         0.00000E+00
   -0.66299E+06        -0.60030E+08         0.00000E+00
    0.00000E+00         0.00000E+00        -0.31071E+08
 
   -0.36518E+08        -0.89008E+06         0.00000E+00
   -0.89008E+06        -0.60077E+08         0.00000E+00
    0.00000E+00         0.00000E+00        -0.31067E+08
 
   -0.36075E+08        -0.97365E+06         0.00000E+00
   -0.97365E+06        -0.60128E+08         0.00000E+00
    0.00000E+00         0.00000E+00        -0.31350E+08
 
   -0.35671E+08        -0.96349E+06         0.00000E+00
   -0.96349E+06        -0.60181E+08         0.00000E+00
    0.00000E+00         0.00000E+00        -0.31691E+08
 
   -0.35280E+08        -0.87936E+06         0.00000E+00
   -0.87936E+06        -0.60227E+08         0.00000E+00
    0.00000E+00         0.00000E+00        -0.32024E+08
 
   -0.34914E+08        -0.73126E+06         0.00000E+00
   -0.73126E+06        -0.60267E+08         0.00000E+00
    0.00000E+00         0.00000E+00        -0.32343E+08
 
   -0.34585E+08        -0.52832E+06         0.00000E+00
   -0.52832E+06        -0.60305E+08         0.00000E+00
    0.00000E+00         0.00000E+00        -0.32645E+08
 
   -0.34300E+08        -0.27764E+06         0.00000E+00
   -0.27764E+06        -0.60347E+08         0.00000E+00
    0.00000E+00         0.00000E+00        -0.32931E+08
 
   -0.34064E+08         0.16253E+05         0.00000E+00
    0.16253E+05        -0.60395E+08         0.00000E+00
    0.00000E+00         0.00000E+00        -0.33204E+08
 
   -0.33884E+08         0.35070E+06         0.00000E+00
    0.35070E+06        -0.60452E+08         0.00000E+00
    0.00000E+00         0.00000E+00        -0.33459E+08
 
   -0.33767E+08         0.72444E+06         0.00000E+00
    0.72444E+06        -0.60514E+08         0.00000E+00
    0.00000E+00         0.00000E+00        -0.33690E+08
 
   -0.33724E+08         0.11369E+07         0.00000E+00
    0.11369E+07        -0.60577E+08         0.00000E+00
    0.00000E+00         0.00000E+00        -0.33883E+08
 
   -0.33774E+08         0.15863E+07         0.00000E+00
    0.15863E+07        -0.60636E+08         0.00000E+00
    0.00000E+00         0.00000E+00        -0.34017E+08
 
   -0.33937E+08         0.20648E+07         0.00000E+00
    0.20648E+07        -0.60676E+08         0.00000E+00
    0.00000E+00         0.00000E+00        -0.34057E+08
 
   -0.38286E+08        -0.27704E+06         0.00000E+00
   -0.27704E+06        -0.60005E+08         0.00000E+00
    0.00000E+00         0.00000E+00        -0.30552E+08
 
   -0.37460E+08        -0.69130E+06         0.00000E+00
   -0.69130E+06        -0.60022E+08         0.00000E+00
    0.00000E+00         0.00000E+00        -0.30395E+08
 
   -0.36668E+08        -0.92918E+06         0.00000E+00
   -0.92918E+06        -0.60051E+08         0.00000E+00
    0.00000E+00         0.00000E+00        -0.30322E+08
 
   -0.36106E+08        -0.10149E+07         0.00000E+00
   -0.10149E+07        -0.60074E+08         0.00000E+00
    0.00000E+00         0.00000E+00        -0.30585E+08
 
   -0.35619E+08        -0.99869E+06         0.00000E+00
   -0.99869E+06        -0.60095E+08         0.00000E+00
    0.00000E+00         0.00000E+00        -0.30926E+08
 
   -0.35160E+08        -0.90672E+06         0.00000E+00
   -0.90672E+06        -0.60106E+08         0.00000E+00
    0.00000E+00         0.00000E+00        -0.31252E+08
 
   -0.34738E+08        -0.75528E+06         0.00000E+00
   -0.75528E+06        -0.60112E+08         0.00000E+00
    0.00000E+00         0.00000E+00        -0.31559E+08
 
   -0.34360E+08        -0.55579E+06         0.00000E+00
   -0.55579E+06        -0.60120E+08         0.00000E+00
    0.00000E+00         0.00000E+00        -0.31852E+08
 
   -0.34031E+08        -0.31437E+06         0.00000E+00
   -0.31437E+06        -0.60138E+08         0.00000E+00
    0.00000E+00         0.00000E+00        -0.32136E+08
 
   -0.33754E+08        -0.32812E+05         0.00000E+00
   -0.32812E+05        -0.60172E+08         0.00000E+00
    0.00000E+00         0.00000E+00        -0.32416E+08
 
   -0.33533E+08         0.28972E+06         0.00000E+00
    0.28972E+06        -0.60224E+08         0.00000E+00
    0.00000E+00         0.00000E+00        -0.32692E+08
 
   -0.33374E+08         0.65475E+06         0.00000E+00
    0.65475E+06        -0.60291E+08         0.00000E+00
    0.00000E+00         0.00000E+00        -0.32960E+08
 
   -0.33289E+08         0.10643E+07         0.00000E+00
    0.10643E+07        -0.60369E+08         0.00000E+00
    0.00000E+00         0.00000E+00        -0.33206E+08
 
   -0.33299E+08         0.15210E+07         0.00000E+00
    0.15210E+07        -0.60451E+08         0.00000E+00
    0.00000E+00         0.00000E+00        -0.33406E+08
 
   -0.33438E+08         0.20245E+07         0.00000E+00
    0.20245E+07        -0.60525E+08         0.00000E+00
    0.00000E+00         0.00000E+00        -0.33516E+08
 
   -0.38801E+08        -0.28688E+06         0.00000E+00
   -0.28688E+06        -0.60004E+08         0.00000E+00
    0.00000E+00         0.00000E+00        -0.29906E+08
 
   -0.37788E+08        -0.70831E+06         0.00000E+00
   -0.70831E+06        -0.60015E+08         0.00000E+00
    0.00000E+00         0.00000E+00        -0.29711E+08
 
   -0.36820E+08        -0.94277E+06         0.00000E+00
   -0.94277E+06        -0.60024E+08         0.00000E+00
    0.00000E+00         0.00000E+00        -0.29577E+08
 
   -0.36132E+08        -0.10218E+07         0.00000E+00
   -0.10218E+07        -0.60014E+08         0.00000E+00
    0.00000E+00         0.00000E+00        -0.29819E+08
 
   -0.35559E+08        -0.99463E+06         0.00000E+00
   -0.99463E+06        -0.59993E+08         0.00000E+00
    0.00000E+00         0.00000E+00        -0.30148E+08
 
   -0.35034E+08        -0.89443E+06         0.00000E+00
   -0.89443E+06        -0.59960E+08         0.00000E+00
    0.00000E+00         0.00000E+00        -0.30451E+08
 
   -0.34563E+08        -0.74267E+06         0.00000E+00
   -0.74267E+06        -0.59924E+08         0.00000E+00
    0.00000E+00         0.00000E+00        -0.30732E+08
 
   -0.34145E+08        -0.55250E+06         0.00000E+00
   -0.55250E+06        -0.59895E+08         0.00000E+00
    0.00000E+00         0.00000E+00        -0.31000E+08
 
   -0.33779E+08        -0.32894E+06         0.00000E+00
   -0.32894E+06        -0.59884E+08         0.00000E+00
    0.00000E+00         0.00000E+00        -0.31268E+08
 
   -0.33462E+08        -0.70456E+05         0.00000E+00
   -0.70456E+05        -0.59899E+08         0.00000E+00
    0.00000E+00         0.00000E+00        -0.31546E+08
 
   -0.33198E+08         0.22831E+06         0.00000E+00
    0.22831E+06        -0.59944E+08         0.00000E+00
    0.00000E+00         0.00000E+00        -0.31840E+08
 
   -0.32993E+08         0.57375E+06         0.00000E+00
    0.57375E+06        -0.60018E+08         0.00000E+00
    0.00000E+00         0.00000E+00        -0.32145E+08
 
   -0.32857E+08         0.97100E+06         0.00000E+00
    0.97100E+06        -0.60114E+08         0.00000E+00
    0.00000E+00         0.00000E+00        -0.32450E+08
 
   -0.32812E+08         0.14247E+07         0.00000E+00
    0.14247E+07        -0.60224E+08         0.00000E+00
    0.00000E+00         0.00000E+00        -0.32727E+08
 
   -0.32910E+08         0.19374E+07         0.00000E+00
    0.19374E+07        -0.60337E+08         0.00000E+00
    0.00000E+00         0.00000E+00        -0.32923E+08
 
   -0.39328E+08        -0.29504E+06         0.00000E+00
   -0.29504E+06        -0.60003E+08         0.00000E+00
    0.00000E+00         0.00000E+00        -0.29256E+08
 
   -0.38107E+08        -0.71156E+06         0.00000E+00
   -0.71156E+06        -0.60005E+08         0.00000E+00
    0.00000E+00         0.00000E+00        -0.29018E+08
 
   -0.36962E+08        -0.92635E+06         0.00000E+00
   -0.92635E+06        -0.59987E+08         0.00000E+00
    0.00000E+00         0.00000E+00        -0.28835E+08
 
   -0.36144E+08        -0.98528E+06         0.00000E+00
   -0.98528E+06        -0.59937E+08         0.00000E+00
    0.00000E+00         0.00000E+00        -0.29046E+08
 
   -0.35487E+08        -0.94128E+06         0.00000E+00
   -0.94128E+06        -0.59863E+08         0.00000E+00
    0.00000E+00         0.00000E+00        -0.29348E+08
 
   -0.34905E+08        -0.83375E+06         0.00000E+00
   -0.83375E+06        -0.59777E+08         0.00000E+00
    0.00000E+00         0.00000E+00        -0.29612E+08
 
   -0.34396E+08        -0.68720E+06         0.00000E+00
   -0.68720E+06        -0.59693E+08         0.00000E+00
    0.00000E+00         0.00000E+00        -0.29851E+08
 
   -0.33949E+08        -0.51404E+06         0.00000E+00
   -0.51404E+06        -0.59625E+08         0.00000E+00
    0.00000E+00         0.00000E+00        -0.30083E+08
 
   -0.33552E+08        -0.31727E+06         0.00000E+00
   -0.31727E+06        -0.59583E+08         0.00000E+00
    0.00000E+00         0.00000E+00        -0.30324E+08
 
   -0.33201E+08        -0.93102E+05         0.00000E+00
   -0.93102E+05        -0.59575E+08         0.00000E+00
    0.00000E+00         0.00000E+00        -0.30591E+08
 
   -0.32892E+08         0.16789E+06         0.00000E+00
    0.16789E+06        -0.59610E+08         0.00000E+00
    0.00000E+00         0.00000E+00        -0.30893E+08
 
   -0.32634E+08         0.47858E+06         0.00000E+00
    0.47858E+06        -0.59689E+08         0.00000E+00
    0.00000E+00         0.00000E+00        -0.31234E+08
 
   -0.32438E+08         0.85026E+06         0.00000E+00
    0.85026E+06        -0.59809E+08         0.00000E+00
    0.00000E+00         0.00000E+00        -0.31604E+08
 
   -0.32328E+08         0.12908E+07         0.00000E+00
    0.12908E+07        -0.59955E+08         0.00000E+00
    0.00000E+00         0.00000E+00        -0.31975E+08
 
   -0.32357E+08         0.18100E+07         0.00000E+00
    0.18100E+07        -0.60110E+08         0.00000E+00
    0.00000E+00         0.00000E+00        -0.32280E+08
 
   -0.39860E+08        -0.30101E+06         0.00000E+00
   -0.30101E+06        -0.60003E+08         0.00000E+00
    0.00000E+00         0.00000E+00        -0.28603E+08
 
   -0.38400E+08        -0.69493E+06         0.00000E+00
   -0.69493E+06        -0.59991E+08         0.00000E+00
    0.00000E+00         0.00000E+00        -0.28315E+08
 
   -0.37075E+08        -0.86813E+06         0.00000E+00
   -0.86813E+06        -0.59932E+08         0.00000E+00
    0.00000E+00         0.00000E+00        -0.28086E+08
 
   -0.36133E+08        -0.89247E+06         0.00000E+00
   -0.89247E+06        -0.59823E+08         0.00000E+00
    0.00000E+00         0.00000E+00        -0.28255E+08
 
   -0.35402E+08        -0.82882E+06         0.00000E+00
   -0.82882E+06        -0.59685E+08         0.00000E+00
    0.00000E+00         0.00000E+00        -0.28508E+08
 
   -0.34779E+08        -0.71965E+06         0.00000E+00
   -0.71965E+06        -0.59540E+08         0.00000E+00
    0.00000E+00         0.00000E+00        -0.28718E+08
 
   -0.34245E+08        -0.58719E+06         0.00000E+00
   -0.58719E+06        -0.59409E+08         0.00000E+00
    0.00000E+00         0.00000E+00        -0.28907E+08
 
   -0.33778E+08        -0.43969E+06         0.00000E+00
   -0.43969E+06        -0.59303E+08         0.00000E+00
    0.00000E+00         0.00000E+00        -0.29096E+08
 
   -0.33362E+08        -0.27778E+06         0.00000E+00
   -0.27778E+06        -0.59230E+08         0.00000E+00
    0.00000E+00         0.00000E+00        -0.29304E+08
 
   -0.32982E+08        -0.96958E+05         0.00000E+00
   -0.96958E+05        -0.59200E+08         0.00000E+00
    0.00000E+00         0.00000E+00        -0.29549E+08
 
   -0.32633E+08         0.11298E+06         0.00000E+00
    0.11298E+06        -0.59220E+08         0.00000E+00
    0.00000E+00         0.00000E+00        -0.29847E+08
 
   -0.32315E+08         0.36941E+06         0.00000E+00
    0.36941E+06        -0.59299E+08         0.00000E+00
    0.00000E+00         0.00000E+00        -0.30214E+08
 
   -0.32047E+08         0.69574E+06         0.00000E+00
    0.69574E+06        -0.59442E+08         0.00000E+00
    0.00000E+00         0.00000E+00        -0.30650E+08
 
   -0.31849E+08         0.11106E+07         0.00000E+00
    0.11106E+07        -0.59633E+08         0.00000E+00
    0.00000E+00         0.00000E+00        -0.31133E+08
 
   -0.31780E+08         0.16275E+07         0.00000E+00
    0.16275E+07        -0.59846E+08         0.00000E+00
    0.00000E+00         0.00000E+00        -0.31588E+08
 
   -0.40383E+08        -0.30458E+06         0.00000E+00
   -0.30458E+06        -0.60001E+08         0.00000E+00
    0.00000E+00         0.00000E+00        -0.27948E+08
 
   -0.38639E+08        -0.64223E+06         0.00000E+00
   -0.64223E+06        -0.59963E+08         0.00000E+00
    0.00000E+00         0.00000E+00        -0.27597E+08
 
   -0.37140E+08        -0.74398E+06         0.00000E+00
   -0.74398E+06        -0.59834E+08         0.00000E+00
    0.00000E+00         0.00000E+00        -0.27318E+08
 
   -0.36094E+08        -0.72600E+06         0.00000E+00
   -0.72600E+06        -0.59641E+08         0.00000E+00
    0.00000E+00         0.00000E+00        -0.27417E+08
 
   -0.35311E+08        -0.65069E+06         0.00000E+00
   -0.65069E+06        -0.59429E+08         0.00000E+00
    0.00000E+00         0.00000E+00        -0.27601E+08
 
   -0.34666E+08        -0.55328E+06         0.00000E+00
   -0.55328E+06        -0.59229E+08         0.00000E+00
    0.00000E+00         0.00000E+00        -0.27750E+08
 
   -0.34119E+08        -0.44692E+06         0.00000E+00
   -0.44692E+06        -0.59056E+08         0.00000E+00
    0.00000E+00         0.00000E+00        -0.27888E+08
 
   -0.33643E+08        -0.33392E+06         0.00000E+00
   -0.33392E+06        -0.58919E+08         0.00000E+00
    0.00000E+00         0.00000E+00        -0.28035E+08
 
   -0.33213E+08        -0.21317E+06         0.00000E+00
   -0.21317E+06        -0.58822E+08         0.00000E+00
    0.00000E+00         0.00000E+00        -0.28209E+08
 
   -0.32815E+08        -0.81031E+05         0.00000E+00
   -0.81031E+05        -0.58773E+08         0.00000E+00
    0.00000E+00         0.00000E+00        -0.28427E+08
 
   -0.32433E+08         0.70046E+05         0.00000E+00
    0.70046E+05        -0.58777E+08         0.00000E+00
    0.00000E+00         0.00000E+00        -0.28709E+08
 
   -0.32061E+08         0.25548E+06         0.00000E+00
    0.25548E+06        -0.58848E+08         0.00000E+00
    0.00000E+00         0.00000E+00        -0.29081E+08
 
   -0.31704E+08         0.50581E+06         0.00000E+00
    0.50581E+06        -0.59000E+08         0.00000E+00
    0.00000E+00         0.00000E+00        -0.29568E+08
 
   -0.31396E+08         0.86686E+06         0.00000E+00
    0.86686E+06        -0.59246E+08         0.00000E+00
    0.00000E+00         0.00000E+00        -0.30179E+08
 
   -0.31190E+08         0.13623E+07         0.00000E+00
    0.13623E+07        -0.59547E+08         0.00000E+00
    0.00000E+00         0.00000E+00        -0.30842E+08
 
   -0.40868E+08        -0.29813E+06         0.00000E+00
   -0.29813E+06        -0.59992E+08         0.00000E+00
    0.00000E+00         0.00000E+00        -0.27288E+08
 
   -0.38777E+08        -0.50922E+06         0.00000E+00
   -0.50922E+06        -0.59874E+08         0.00000E+00
    0.00000E+00         0.00000E+00        -0.26851E+08
 
   -0.37149E+08        -0.51792E+06         0.00000E+00
   -0.51792E+06        -0.59625E+08         0.00000E+00
    0.00000E+00         0.00000E+00        -0.26509E+08
 
   -0.36037E+08        -0.47490E+06         0.00000E+00
   -0.47490E+06        -0.59331E+08         0.00000E+00
    0.00000E+00         0.00000E+00        -0.26493E+08
 
   -0.35231E+08        -0.41201E+06         0.00000E+00
   -0.41201E+06        -0.59057E+08         0.00000E+00
    0.00000E+00         0.00000E+00        -0.26594E+08
 
   -0.34580E+08        -0.34548E+06         0.00000E+00
   -0.34548E+06        -0.58817E+08         0.00000E+00
    0.00000E+00         0.00000E+00        -0.26687E+08
 
   -0.34029E+08        -0.27715E+06         0.00000E+00
   -0.27715E+06        -0.58617E+08         0.00000E+00
    0.00000E+00         0.00000E+00        -0.26782E+08
 
   -0.33548E+08        -0.20606E+06         0.00000E+00
   -0.20606E+06        -0.58461E+08         0.00000E+00
    0.00000E+00         0.00000E+00        -0.26896E+08
 
   -0.33112E+08        -0.13115E+06         0.00000E+00
   -0.13115E+06        -0.58352E+08         0.00000E+00
    0.00000E+00         0.00000E+00        -0.27041E+08
 
   -0.32702E+08        -0.50332E+05         0.00000E+00
   -0.50332E+05        -0.58292E+08         0.00000E+00
    0.00000E+00         0.00000E+00        -0.27234E+08
 
   -0.32301E+08         0.40369E+05         0.00000E+00
    0.40369E+05        -0.58288E+08         0.00000E+00
    0.00000E+00         0.00000E+00        -0.27494E+08
 
   -0.31891E+08         0.14968E+06         0.00000E+00
    0.14968E+06        -0.58350E+08         0.00000E+00
    0.00000E+00         0.00000E+00        -0.27853E+08
 
   -0.31456E+08         0.29841E+06         0.00000E+00
    0.29841E+06        -0.58498E+08         0.00000E+00
    0.00000E+00         0.00000E+00        -0.28355E+08
 
   -0.30994E+08         0.54075E+06         0.00000E+00
    0.54075E+06        -0.58766E+08         0.00000E+00
    0.00000E+00         0.00000E+00        -0.29068E+08
 
   -0.30595E+08         0.98633E+06         0.00000E+00
    0.98633E+06        -0.59204E+08         0.00000E+00
    0.00000E+00         0.00000E+00        -0.30031E+08
 
   -0.41221E+08        -0.19380E+06         0.00000E+00
   -0.19380E+06        -0.59861E+08         0.00000E+00
    0.00000E+00         0.00000E+00        -0.26587E+08
 
   -0.38786E+08        -0.20943E+06         0.00000E+00
   -0.20943E+06        -0.59519E+08         0.00000E+00
    0.00000E+00         0.00000E+00        -0.26033E+08
 
   -0.37139E+08        -0.18754E+06         0.00000E+00
   -0.18754E+06        -0.59152E+08         0.00000E+00
    0.00000E+00         0.00000E+00        -0.25633E+08
 
   -0.35988E+08        -0.16529E+06         0.00000E+00
   -0.16529E+06        -0.58829E+08         0.00000E+00
    0.00000E+00         0.00000E+00        -0.25445E+08
 
   -0.35184E+08        -0.14036E+06         0.00000E+00
   -0.14036E+06        -0.58534E+08         0.00000E+00
    0.00000E+00         0.00000E+00        -0.25469E+08
 
   -0.34534E+08        -0.11706E+06         0.00000E+00
   -0.11706E+06        -0.58283E+08         0.00000E+00
    0.00000E+00         0.00000E+00        -0.25519E+08
 
   -0.33982E+08        -0.93652E+05         0.00000E+00
   -0.93652E+05        -0.58077E+08         0.00000E+00
    0.00000E+00         0.00000E+00        -0.25586E+08
 
   -0.33499E+08        -0.69348E+05         0.00000E+00
   -0.69348E+05        -0.57918E+08         0.00000E+00
    0.00000E+00         0.00000E+00        -0.25676E+08
 
   -0.33060E+08        -0.43801E+05         0.00000E+00
   -0.43801E+05        -0.57809E+08         0.00000E+00
    0.00000E+00         0.00000E+00        -0.25802E+08
 
   -0.32646E+08        -0.16404E+05         0.00000E+00
   -0.16404E+05        -0.57752E+08         0.00000E+00
    0.00000E+00         0.00000E+00        -0.25977E+08
 
   -0.32237E+08         0.14002E+05         0.00000E+00
    0.14002E+05        -0.57753E+08         0.00000E+00
    0.00000E+00         0.00000E+00        -0.26221E+08
 
   -0.31810E+08         0.49839E+05         0.00000E+00
    0.49839E+05        -0.57822E+08         0.00000E+00
    0.00000E+00         0.00000E+00        -0.26565E+08
 
   -0.31333E+08         0.97151E+05         0.00000E+00
    0.97151E+05        -0.57976E+08         0.00000E+00
    0.00000E+00         0.00000E+00        -0.27059E+08
 
   -0.30757E+08         0.17613E+06         0.00000E+00
    0.17613E+06        -0.58256E+08         0.00000E+00
    0.00000E+00         0.00000E+00        -0.27815E+08
 
   -0.30009E+08         0.38332E+06         0.00000E+00
    0.38332E+06        -0.58757E+08         0.00000E+00
    0.00000E+00         0.00000E+00        -0.29082E+08
 
SCALARS stressS double 
LOOKUP_TABLE default
  -46077204.3554834     
  -46052116.6602814     
  -46007421.6639971     
  -45943926.0408036     
  -45863528.5956702     
  -45770477.4033012     
  -45669779.3893403     
  -45566637.8197642     
  -45565340.0916849     
  -45777424.3182116     
  -45973559.1661721     
  -46150935.5413414     
  -46311499.0143892     
  -46457090.7039000     
  -46589463.8667062     
  -46059862.6810020     
  -46035665.5043194     
  -45991863.4256027     
  -45929104.6873497     
  -45849646.6024040     
  -45758125.8740884     
  -45659464.7151936     
  -45558849.8834655     
  -45557342.4682388     
  -45766526.6032738     
  -45961043.2834271     
  -46136916.6587850     
  -46296064.2744694     
  -46440313.9274538     
  -46571415.7362460     
  -46024614.4687960     
  -46001857.8193524     
  -45960097.7371025     
  -45899653.3409969     
  -45822607.6489388     
  -45734195.8100562     
  -45639574.7367095     
  -45543815.1607712     
  -45541341.7916605     
  -45744654.1137592     
  -45935978.6297251     
  -46108873.0224563     
  -46265198.1074482     
  -46406764.7301232     
  -46535322.8925760     
  -45971868.4168064     
  -45950970.4924106     
  -45912043.4623364     
  -45855363.6605950     
  -45783249.8935082     
  -45700209.4933791     
  -45611585.1379758     
  -45522542.8471300     
  -45517367.1444322     
  -45711660.6673238     
  -45898332.2975094     
  -46066808.5027054     
  -46218909.7850603     
  -46356454.6580759     
  -46481192.3433335     
  -45900770.3872081     
  -45882371.6841382     
  -45847743.9032500     
  -45796892.2105102     
  -45732355.7832740     
  -45657815.1195522     
  -45577535.2895304     
  -45496470.2669430     
  -45485456.9932489     
  -45667488.6180062     
  -45848142.5564526     
  -46010730.5388569     
  -46157224.9312182     
  -46289408.2223570     
  -46409037.2897040     
  -45811595.6852633     
  -45795563.3209064     
  -45765826.2347868     
  -45723245.8004570     
  -45670089.3173539     
  -45608307.6057637     
  -45539763.9017283     
  -45467726.8576629     
  -45446211.5461035     
  -45612556.9334438     
  -45785365.0993194     
  -45940672.5020588     
  -46080193.2388430     
  -46205682.4845500     
  -46318882.4422598     
  -45703900.4495794     
  -45690805.3247554     
  -45666772.0669316     
  -45634333.5871379     
  -45595650.3618477     
  -45550695.9400949     
  -45498844.9737230     
  -45439483.5664562     
  -45402530.6495950     
  -45546324.9655706     
  -45709981.4091189     
  -45856654.1427855     
  -45987956.6139903     
  -46105384.9397829     
  -46210785.9505822     
  -45578245.5266779     
  -45567879.4308541     
  -45550831.6505023     
  -45530203.9531638     
  -45507409.0678817     
  -45482068.2383916     
  -45451235.9194883     
  -45411200.5829261     
  -45364401.8189664     
  -45468435.4433862     
  -45621617.1211474     
  -45759016.5498056     
  -45880708.4703771     
  -45988763.8175562     
  -46084861.4211987     
  -45434782.2315549     
  -45428284.1290721     
  -45418826.9486937     
  -45410637.8346134     
  -45404890.5283869     
  -45399563.3648043     
  -45391266.1160484     
  -45374411.1594546     
  -45340974.1858215     
  -45379924.7912586     
  -45521861.9018505     
  -45647641.3042599     
  -45759076.1731759     
  -45856227.1165720     
  -45941368.0539800     
  -45274211.0304071     
  -45270862.9120681     
  -45270625.3869885     
  -45276540.6580481     
  -45287694.9981259     
  -45301629.8571890     
  -45314492.2612320     
  -45321535.1810937     
  -45316835.6152368     
  -45311390.2704243     
  -45406972.7424508     
  -45524308.5127213     
  -45623635.4461158     
  -45708760.1661925     
  -45780748.1773146     
  -45096134.0021438     
  -45097305.9940259     
  -45107487.2289866     
  -45127862.7142100     
  -45155957.5635620     
  -45187944.2191859     
  -45219602.0863724     
  -45246415.1385089     
  -45262396.7064300     
  -45266853.0275353     
  -45296137.0594471     
  -45387348.2309071     
  -45476891.5895850     
  -45547878.0639753     
  -45604107.0772153     
  -44901408.6921520     
  -44908298.2151295     
  -44930295.5796452     
  -44965672.3813051     
  -45010105.3984455     
  -45058621.4278195     
  -45106097.0038235     
  -45147372.4125512     
  -45178370.7545294     
  -45196030.9147588     
  -45209394.5333202     
  -45246486.3122598     
  -45321225.4684316     
  -45375603.2009920     
  -45417457.0815127     
  -44692948.0021663     
  -44706182.9090723     
  -44740412.5153918     
  -44790555.5237633     
  -44850364.5045275     
  -44913536.1120058     
  -44973857.0546122     
  -45026283.9302277     
  -45066646.1032455     
  -45092602.2861621     
  -45105215.2271943     
  -45119117.8285432     
  -45151856.9028731     
  -45192281.2700918     
  -45238566.0855027     
  -44471779.1820972     
  -44493281.4431263     
  -44539760.6238985     
  -44603667.8015822     
  -44677026.5446747     
  -44752160.2706654     
  -44822643.1476133     
  -44883202.8229193     
  -44930132.1036957     
  -44961285.2089278     
  -44977608.1150793     
  -44984297.2692623     
  -44992181.6710552     
  -45014879.9175655     
  -45061214.5216934     
  -44243053.5332640     
  -44272827.2809484     
  -44330650.0277416     
  -44406342.0928417     
  -44490272.4694390     
  -44574159.2936468     
  -44651553.1682565     
  -44717813.5231996     
  -44769819.5975561     
  -44806065.9254540     
  -44827016.0891220     
  -44836295.5234009     
  -44842809.0887504     
  -44857801.0477662     
  -44883245.7537586     
  -44010825.1211997     
  -44048438.7360870     
  -44115567.5640079     
  -44199855.0718842     
  -44290378.7505889     
  -44378952.7623872     
  -44459948.8362190     
  -44529634.8408512     
  -44585747.2381595     
  -44627400.8071512     
  -44655390.1002251     
  -44672884.8954914     
  -44685139.6444553     
  -44696690.5952080     
  -44708872.5056402     
  -43779689.0899741     
  -43823609.2173215     
  -43897702.7566665     
  -43985803.1786215     
  -44077439.3706303     
  -44166002.2165549     
  -44247260.8029217     
  -44318415.0778188     
  -44377780.8871899     
  -44424987.1301555     
  -44461034.9550193     
  -44487819.5849612     
  -44507049.4695464     
  -44519966.2801346     
  -44527342.0317331     
  -43553849.9619412     
  -43603988.8051481     
  -43679271.8280600     
  -43764403.8100074     
  -43851023.0931722     
  -43934945.3499981     
  -44013078.2676302     
  -44083153.7825502     
  -44144186.8763230     
  -44196277.1756409     
  -44239797.0915344     
  -44275033.7759431     
  -44301941.6681423     
  -44319887.0127192     
  -44328832.5293961     
  -43353718.2639759     
  -43391794.2731454     
  -43459659.9338895     
  -43534038.3653059     
  -43610469.6946429     
  -43685736.4138112     
  -43757072.7840389     
  -43823119.2771017     
  -43883417.1541326     
  -43937960.7549288     
  -43986915.2081988     
  -44029642.7017599     
  -44064862.0529284     
  -44090977.5464255     
  -44106106.7837813     
  -43208970.9646689     
  -43190901.8725468     
  -43232413.1092525     
  -43292802.7251800     
  -43355911.0552464     
  -43418428.0892070     
  -43479041.4873705     
  -43537172.0932836     
  -43592988.7226522     
  -43646846.7743315     
  -43698677.2601092     
  -43747666.0021740     
  -43791857.7593842     
  -43828523.4257682     
  -43854268.5431165     
  -43113915.6990927     
  -43021073.7009783     
  -42994588.5298837     
  -43041444.8088508     
  -43087399.1322147     
  -43133202.8656547     
  -43178518.1923311     
  -43224016.2042968     
  -43270894.1601556     
  -43320197.2584317     
  -43372160.4601185     
  -43426053.4166293     
  -43479602.7158492     
  -43529004.8729643     
  -43569503.0089377     
  -43048872.8759082     
  -42875558.4864453     
  -42767488.0290868     
  -42780974.7818470     
  -42806085.5475180     
  -42830368.5126167     
  -42854957.8205947     
  -42882454.9565210     
  -42915576.6880197     
  -42956327.5134080     
  -43005555.2337406     
  -43062664.3884020     
  -43125507.8524352     
  -43189782.6492882     
  -43248902.0845866     
  -42995760.6663501     
  -42746260.5321501     
  -42554205.3741885     
  -42517785.0380057     
  -42514330.1549183     
  -42510272.3524655     
  -42507880.7798253     
  -42511553.7641079     
  -42525931.0862022     
  -42554289.1356921     
  -42598019.0448011     
  -42656656.1616856     
  -42728274.4766140     
  -42808834.9977270     
  -42889969.5737169     
  -42947628.2364319     
  -42625809.1263207     
  -42346812.5485971     
  -42255106.5968228     
  -42213335.3206553     
  -42172655.6580993     
  -42136557.3157323     
  -42110859.6149648     
  -42101725.5826595     
  -42113886.7318723     
  -42149592.6479618     
  -42208532.1848840     
  -42288330.7401366     
  -42385435.1920269     
  -42493230.0595061     
  -42903828.7600064     
  -42504836.0557045     
  -42140206.4386488     
  -41988341.3002563     
  -41899925.7931112     
  -41815052.3223912     
  -41739440.5867709     
  -41680065.9387248     
  -41643612.3478982     
  -41635794.4224265     
  -41660545.5594319     
  -41718511.0216634     
  -41806918.4102950     
  -41921047.1933646     
  -42056976.3321808     
  -42862581.3023771     
  -42376947.6084707     
  -41927704.1325906     
  -41709037.8861166     
  -41565887.2011164     
  -41431448.1496226     
  -41313463.2276666     
  -41218748.9098126     
  -41153144.6055206     
  -41122246.8831352     
  -41131664.1342388     
  -41185719.0600148     
  -41283582.6688137     
  -41419141.3094040     
  -41582248.9557564     
  -42821865.8936924     
  -42235330.6340087     
  -41697481.7250684     
  -41403864.6555601     
  -41198334.1655576     
  -41012633.9440865     
  -40853644.5569375     
  -40725760.5415989     
  -40632153.1229646     
  -40577018.1289181     
  -40566659.5362218     
  -40609477.8350694     
  -40712974.0921870     
  -40871391.3302930     
  -41071396.4321989     
  -42777444.8265303     
  -42066495.8426629     
  -41430758.8648445     
  -41050553.5080189     
  -40780410.9734355     
  -40547938.3876442     
  -40354244.3791797     
  -40198742.9145130     
  -40081629.4981347     
  -40004806.7782477     
  -39973256.5507411     
  -39996700.6495709     
  -40090654.8961974     
  -40273479.9918295     
  -40526354.2616108     
  -42715998.9156456     
  -41834299.4504677     
  -41094487.2367443     
  -40620442.3756334     
  -40293905.1500005     
  -40027674.9198199     
  -39809621.8864688     
  -39634904.7630280     
  -39501376.6113901     
  -39409173.6152857     
  -39361130.5647625     
  -39364646.2057812     
  -39436434.4163920     
  -39609241.0827775     
  -39943110.8981346     
  -42556311.6277541     
  -41445897.0295590     
  -40641200.6913960     
  -40087519.5383001     
  -39729220.3034731     
  -39445304.3041304     
  -39215384.5305770     
  -39031184.9444973     
  -38890162.8393224     
  -38791613.0713181     
  -38737129.4104166     
  -38731988.4811636     
  -38789167.8601052     
  -38942488.3014776     
  -39282689.1222111     
SCALARS 2waySource double 
LOOKUP_TABLE default
 -8.268487661786895E-005
 -8.245510143207763E-005
 -8.213624936290428E-005
 -8.182139687532036E-005
 -8.152171523860517E-005
 -8.121925886626352E-005
 -8.088927081162278E-005
 -8.296808651751881E-005
 -1.037227292685448E-004
 -1.064466890670511E-004
 -1.086646240071766E-004
 -1.107997630808757E-004
 -1.128525128629414E-004
 -1.148216464995736E-004
 -1.167032002674021E-004
 -8.245477574746275E-005
 -8.222750067823204E-005
 -8.186509713463687E-005
 -8.148882553944956E-005
 -8.115236567016975E-005
 -8.085912508827330E-005
 -8.057203320602148E-005
 -8.271478254417058E-005
 -1.033419071654964E-004
 -1.062084460949944E-004
 -1.084243165533575E-004
 -1.105556889552360E-004
 -1.126070467463275E-004
 -1.145767420998119E-004
 -1.164603346461463E-004
 -8.207019051145379E-005
 -8.193740121485118E-005
 -8.156107202867720E-005
 -8.108034097695447E-005
 -8.063355380177447E-005
 -8.029997640866623E-005
 -8.005531140168290E-005
 -8.223751036508069E-005
 -1.026620785886086E-004
 -1.057778252394086E-004
 -1.079748909241905E-004
 -1.100963517151853E-004
 -1.121445113270853E-004
 -1.141167169210841E-004
 -1.160058447953171E-004
 -8.140142063221581E-005
 -8.150934121163906E-005
 -8.123808376608556E-005
 -8.068647443751324E-005
 -8.006739688564882E-005
 -7.959613510308619E-005
 -7.935748309546110E-005
 -8.152508703822761E-005
 -1.016811023463678E-004
 -1.051374401968210E-004
 -1.073044124414432E-004
 -1.094090973668383E-004
 -1.114577745499814E-004
 -1.134361615623105E-004
 -1.153357230737704E-004
 -8.035247667151466E-005
 -8.082228744319021E-005
 -8.083295604374161E-005
 -8.037782056654263E-005
 -7.962212104370073E-005
 -7.889727771766858E-005
 -7.851343304166442E-005
 -8.049891937144994E-005
 -1.002541598733126E-004
 -1.042751049432145E-004
 -1.063755121189262E-004
 -1.084829473318123E-004
 -1.105371916053726E-004
 -1.125280600623146E-004
 -1.144443506226995E-004
 -7.891479963630105E-005
 -7.979985517703952E-005
 -8.024901337347713E-005
 -8.014413897168276E-005
 -7.948835161773076E-005
 -7.852495693353175E-005
 -7.769293213112581E-005
 -7.912999170361768E-005
 -9.841388662226238E-005
 -1.030318876080533E-004
 -1.051893746020784E-004
 -1.073040682541506E-004
 -1.093744278607439E-004
 -1.113816932554146E-004
 -1.133244496045084E-004
 -7.715661217169211E-005
 -7.839952308623133E-005
 -7.933154920409250E-005
 -7.979649067130881E-005
 -7.963068369719002E-005
 -7.877512887075776E-005
 -7.748088018981946E-005
 -7.739752757600456E-005
 -9.602420655355197E-005
 -1.015352807949981E-004
 -1.037244459611489E-004
 -1.058800523828419E-004
 -1.079481994813186E-004
 -1.099841070362178E-004
 -1.119639535283679E-004
 -7.519797362450340E-005
 -7.667643604163185E-005
 -7.801484715946068E-005
 -7.910489228608033E-005
 -7.974389304928934E-005
 -7.959220507236414E-005
 -7.835115636063803E-005
 -7.678493550794725E-005
 -9.185339680517322E-005
 -9.972540652188527E-005
 -1.021147755803237E-004
 -1.041380307669016E-004
 -1.062511415196667E-004
 -1.083055696490266E-004
 -1.103453506213401E-004
 -7.315108032869869E-005
 -7.475450551981718E-005
 -7.638132809728067E-005
 -7.799930799789312E-005
 -7.945752947203546E-005
 -8.041681429448138E-005
 -8.021522199997297E-005
 -7.796130056912548E-005
 -8.603548847327586E-005
 -9.871907275459597E-005
 -9.987391638023291E-005
 -1.021838969826010E-004
 -1.042009641946707E-004
 -1.063167028744968E-004
 -1.084333169922966E-004
 -7.109058755459669E-005
 -7.277131936633854E-005
 -7.461035213092323E-005
 -7.661211315331234E-005
 -7.868942786169169E-005
 -8.065153572881614E-005
 -8.208568942573256E-005
 -8.194501558242591E-005
 -8.298074027149235E-005
 -9.471968774030313E-005
 -9.811215439192017E-005
 -9.964114161007401E-005
 -1.018130732780744E-004
 -1.039198394680399E-004
 -1.061863900409166E-004
 -6.906860500334108E-005
 -7.083880578580040E-005
 -7.286865133079505E-005
 -7.515098862756201E-005
 -7.761893647951766E-005
 -8.017955185583870E-005
 -8.269717991784433E-005
 -8.490200406728336E-005
 -8.647496413132283E-005
 -9.182621462437604E-005
 -9.619829326633342E-005
 -9.710631590177088E-005
 -9.870071781234266E-005
 -1.011138013975223E-004
 -1.034605000029955E-004
 -6.712956734532265E-005
 -6.903080878905143E-005
 -7.125672812435725E-005
 -7.376103540016292E-005
 -7.645851230150914E-005
 -7.925580557937565E-005
 -8.210314147328825E-005
 -8.502448889158198E-005
 -8.842543729958188E-005
 -9.390020398113821E-005
 -9.875696390613956E-005
 -9.784914746315814E-005
 -9.656221056202475E-005
 -9.814407271969549E-005
 -9.914168997421296E-005
 -6.532538462341161E-005
 -6.738911138803085E-005
 -6.980909113033034E-005
 -7.249225159970793E-005
 -7.529226269483733E-005
 -7.805683808481434E-005
 -8.074556512395680E-005
 -8.351549499933394E-005
 -8.670380058729901E-005
 -9.146850780436336E-005
 -9.919362450507035E-005
 -1.058768673774410E-004
 -1.044153861966367E-004
 -1.020006525416906E-004
 -1.020299977652381E-004
 -6.371246776056974E-005
 -6.592709505563243E-005
 -6.853049241603978E-005
 -7.134502476389290E-005
 -7.407178527228417E-005
 -7.653195679430064E-005
 -7.881706697796411E-005
 -8.112673785433687E-005
 -8.371453909314968E-005
 -8.701793879054806E-005
 -9.189221256679847E-005
 -9.902415959983039E-005
 -1.055603925223285E-004
 -1.082626232856809E-004
 -1.090358689383835E-004
 -6.232898195647851E-005
 -6.465023536432798E-005
 -6.747602800173558E-005
 -7.029138538932976E-005
 -7.259539470478069E-005
 -7.449280151591396E-005
 -7.626487622472785E-005
 -7.809336852172442E-005
 -8.008988067840286E-005
 -8.243413999719014E-005
 -8.550590366605913E-005
 -8.968801241676789E-005
 -9.443421077461712E-005
 -9.814935524723648E-005
 -1.009490183245157E-004
 -6.111979309335748E-005
 -6.372383727859402E-005
 -6.685154385054456E-005
 -6.906017698255621E-005
 -7.051005727534220E-005
 -7.177304317770161E-005
 -7.308208375203374E-005
 -7.447397330809003E-005
 -7.596303174041817E-005
 -7.760208433048263E-005
 -7.953841927980530E-005
 -8.202119496769454E-005
 -8.512707528512984E-005
 -8.847672498655600E-005
 -9.160126077868984E-005
 -6.021629908952495E-005
 -6.425348374038679E-005
 -6.631134265728651E-005
 -6.696809609626738E-005
 -6.756442064452074E-005
 -6.838432890042263E-005
 -6.933439876636258E-005
 -7.036029441918071E-005
 -7.141638569472412E-005
 -7.250618581781441E-005
 -7.371948211108145E-005
 -7.524816250159792E-005
 -7.730439463814712E-005
 -7.986549940314370E-005
 -8.257251307108694E-005
 -6.434327885657397E-005
 -6.619040377580138E-005
 -6.416440207782388E-005
 -6.356594912378866E-005
 -6.388322220850722E-005
 -6.443169833782297E-005
 -6.512903474726432E-005
 -6.584754166704446E-005
 -6.653238059806715E-005
 -6.720277255785686E-005
 -6.795224083753441E-005
 -6.894251418081135E-005
 -7.034615018922746E-005
 -7.221364882744173E-005
 -7.434894349267910E-005
 -6.427531341578652E-005
 -6.392162767510525E-005
 -5.919270900665201E-005
 -5.931199086734193E-005
 -5.951057252620752E-005
 -6.004775873447315E-005
 -6.057667773767123E-005
 -6.101738221211889E-005
 -6.137667401605498E-005
 -6.172163481339982E-005
 -6.215866894298875E-005
 -6.281651062428937E-005
 -6.381413651890334E-005
 -6.520226658836533E-005
 -6.687952787464500E-005
 -6.287098348345014E-005
 -6.061231300657003E-005
 -5.501915358797528E-005
 -5.347268270849501E-005
 -5.463468508000488E-005
 -5.535784508923661E-005
 -5.574112117305294E-005
 -5.590791335490126E-005
 -5.597419581373985E-005
 -5.605084921833345E-005
 -5.624985775100324E-005
 -5.667642329794998E-005
 -5.741400458655425E-005
 -5.849879108442183E-005
 -5.986985554386524E-005
 -6.482433403943441E-005
 -6.126972766474183E-005
 -5.416014809837015E-005
 -4.765529327680738E-005
 -4.960530583009397E-005
 -5.041228302927437E-005
 -5.061748301881890E-005
 -5.052440338945649E-005
 -5.031985301929172E-005
 -5.015202035077143E-005
 -5.014292658455396E-005
 -5.038755121143498E-005
 -5.094911577304700E-005
 -5.184946828999798E-005
 -5.304138064094619E-005
 -6.606826095139749E-005
 -6.320057795962000E-005
 -5.443989881656574E-005
 -4.420027502096483E-005
 -4.486514220323849E-005
 -4.530783501333977E-005
 -4.525582385175160E-005
 -4.488536879108381E-005
 -4.440251416558581E-005
 -4.398553366826827E-005
 -4.377262480238908E-005
 -4.385753080940976E-005
 -4.429094842186955E-005
 -4.508168577775309E-005
 -4.618571036566323E-005
 -6.673828971246281E-005
 -6.410553382631135E-005
 -5.541503745224767E-005
 -4.219077174458070E-005
 -4.085055401388512E-005
 -4.043352694529657E-005
 -3.983144899793111E-005
 -3.905883231674743E-005
 -3.823293752974636E-005
 -3.753167492312702E-005
 -3.710097297264322E-005
 -3.703204388160957E-005
 -3.736219221832332E-005
 -3.808809521438164E-005
 -3.916526001021301E-005
 -6.738601108196535E-005
 -6.402949324255472E-005
 -5.612965058472930E-005
 -4.031420100308266E-005
 -3.746298064642194E-005
 -3.595884830128674E-005
 -3.451234868806140E-005
 -3.311365667807794E-005
 -3.183848407370196E-005
 -3.080399950702682E-005
 -3.013033088406091E-005
 -2.989506572036900E-005
 -3.012545846084360E-005
 -3.080949897793165E-005
 -3.190147881733836E-005
 -6.806177737660526E-005
 -6.365404386054661E-005
 -5.598457975415745E-005
 -3.831694895081021E-005
 -3.431778319287137E-005
 -3.175981024504987E-005
 -2.933406183906334E-005
 -2.716035204479843E-005
 -2.531543312056959E-005
 -2.387103875544689E-005
 -2.289890749747047E-005
 -2.245898186627157E-005
 -2.257437809637285E-005
 -2.322552579190633E-005
 -2.435583278153111E-005
 -6.875883022886180E-005
 -6.327516226914701E-005
 -5.531852953359480E-005
 -3.645621310807600E-005
 -3.119144858178841E-005
 -2.748700802869747E-005
 -2.408646017950776E-005
 -2.113647209556249E-005
 -1.871748030752642E-005
 -1.684270738429887E-005
 -1.551852707812067E-005
 -1.479666340916926E-005
 -1.473487029285888E-005
 -1.533507069686530E-005
 -1.652676569017238E-005
 -6.949047406221278E-005
 -6.278956987485207E-005
 -5.397153414857292E-005
 -3.459926915924709E-005
 -2.775902520111980E-005
 -2.282528047238411E-005
 -1.851557337342581E-005
 -1.491733394961291E-005
 -1.204046364978376E-005
 -9.782099936267773E-006
 -8.087156558190707E-006
 -7.000448952414390E-006
 -6.660562899393674E-006
 -7.157713722810091E-006
 -8.438792594760097E-006
 -7.032119174086406E-005
 -6.174729187148605E-005
 -5.171820731653024E-005
 -3.264650813137621E-005
 -2.354885665974728E-005
 -1.742996152948966E-005
 -1.238262336063955E-005
 -8.424143387471983E-006
 -5.257257095719175E-006
 -2.695041453419847E-006
 -6.697639116108988E-007
  7.953036611856140E-007
  1.547791157333044E-006
  1.256631299601880E-006
 -1.543692643623508E-007
 -7.112729803370317E-005
 -5.923167218938617E-005
 -4.775173065205683E-005
 -3.047865110572852E-005
 -1.800953692727896E-005
 -1.077557194952431E-005
 -5.653938287943678E-006
 -1.640661480722427E-006
  1.703530903475878E-006
  4.491208531889210E-006
  6.744724959278407E-006
  8.473442080901032E-006
  9.608722842550530E-006
  9.822439009126129E-006
  8.185451286193091E-006
 -7.062270228812306E-005
 -5.436410227327789E-005
 -4.154441048070539E-005
 -2.357824449085120E-005
 -9.847757196890643E-006
 -3.067197271302729E-006
  1.548048423975747E-006
  5.499752843777668E-006
  8.990018668257495E-006
  1.189482736290306E-005
  1.423329321071534E-005
  1.602505530230780E-005
  1.725311163589408E-005
  1.775140374639416E-005
  1.656889795362976E-005
SCALARS poroP double 
LOOKUP_TABLE default
  1.181232449724807E-005
  1.016611750095673E-005
  8.504306151063948E-006
  6.851197136473464E-006
  5.236898003992611E-006
  3.688649762035415E-006
  2.231522615457052E-006
  8.872064242209838E-007
  1.932662296360488E-008
  0.000000000000000E+000
  0.000000000000000E+000
  0.000000000000000E+000
  0.000000000000000E+000
  0.000000000000000E+000
  0.000000000000000E+000
  1.178219439468813E-005
  1.013271190852849E-005
  8.468657597911801E-006
  6.816330884520210E-006
  5.204620632333803E-006
  3.662427524991885E-006
  2.215918765762363E-006
  8.858348044433476E-007
  2.340510261448667E-008
  0.000000000000000E+000
  0.000000000000000E+000
  0.000000000000000E+000
  0.000000000000000E+000
  0.000000000000000E+000
  0.000000000000000E+000
  1.171417837882600E-005
  1.006520289984806E-005
  8.400289165625483E-006
  6.749034897815873E-006
  5.143490319261230E-006
  3.614522388155765E-006
  2.188586468122466E-006
  8.858166318327707E-007
  3.204784818991923E-008
  0.000000000000000E+000
  0.000000000000000E+000
  0.000000000000000E+000
  0.000000000000000E+000
  0.000000000000000E+000
  0.000000000000000E+000
  1.158869201385248E-005
  9.949138865888687E-006
  8.295097598788627E-006
  6.654515000250486E-006
  5.062679170115788E-006
  3.554573922608543E-006
  2.157794458272409E-006
  8.927185667616993E-007
  4.634742963204814E-008
  0.000000000000000E+000
  0.000000000000000E+000
  0.000000000000000E+000
  0.000000000000000E+000
  0.000000000000000E+000
  0.000000000000000E+000
  1.138820709071373E-005
  9.769059426491550E-006
  8.140037440444042E-006
  6.531168360984607E-006
  4.973237925781812E-006
  3.498339655382455E-006
  2.137776741025622E-006
  9.155017270045915E-007
  6.851147312462022E-008
  0.000000000000000E+000
  0.000000000000000E+000
  0.000000000000000E+000
  0.000000000000000E+000
  0.000000000000000E+000
  0.000000000000000E+000
  1.109033165062429E-005
  9.507045959252553E-006
  7.926712697012614E-006
  6.376552800672647E-006
  4.881632957290858E-006
  3.463175258499775E-006
  2.148829447914159E-006
  9.669466177977865E-007
  9.912473874978781E-008
  0.000000000000000E+000
  0.000000000000000E+000
  0.000000000000000E+000
  0.000000000000000E+000
  0.000000000000000E+000
  0.000000000000000E+000
  1.067930624023495E-005
  9.146858959492425E-006
  7.640197184018325E-006
  6.182718035496900E-006
  4.786256982645772E-006
  3.459631678739013E-006
  2.213104288418995E-006
  1.067923281174291E-006
  1.566419618850827E-007
  0.000000000000000E+000
  0.000000000000000E+000
  0.000000000000000E+000
  0.000000000000000E+000
  0.000000000000000E+000
  0.000000000000000E+000
  1.014369893274491E-005
  8.682047067777775E-006
  7.276744096330134E-006
  5.943431519115040E-006
  4.680819504866046E-006
  3.480777428210457E-006
  2.336731404277309E-006
  1.250147175638629E-006
  2.749950629185256E-007
  0.000000000000000E+000
  0.000000000000000E+000
  0.000000000000000E+000
  0.000000000000000E+000
  0.000000000000000E+000
  0.000000000000000E+000
  9.487432486283381E-006
  8.115298984009591E-006
  6.840784452740351E-006
  5.657636520281535E-006
  4.551861448523587E-006
  3.507519931101456E-006
  2.505334464005171E-006
  1.526298432869116E-006
  5.693154690902523E-007
  3.197684021308258E-008
  0.000000000000000E+000
  0.000000000000000E+000
  0.000000000000000E+000
  0.000000000000000E+000
  0.000000000000000E+000
  8.724529091346239E-006
  7.472438079664361E-006
  6.344573244464357E-006
  5.325041373197659E-006
  4.391665592614967E-006
  3.521496523815104E-006
  2.689260271602717E-006
  1.863759333083881E-006
  1.000905595752111E-006
  2.083823119368793E-007
  0.000000000000000E+000
  0.000000000000000E+000
  0.000000000000000E+000
  0.000000000000000E+000
  0.000000000000000E+000
  7.884610416523054E-006
  6.764982481823613E-006
  5.797915551683298E-006
  4.952491385314320E-006
  4.200407247416202E-006
  3.513469013627726E-006
  2.860664211982673E-006
  2.207424082185940E-006
  1.512361507841836E-006
  7.418451327796998E-007
  1.273742453098821E-007
  0.000000000000000E+000
  0.000000000000000E+000
  0.000000000000000E+000
  0.000000000000000E+000
  6.990195117676884E-006
  6.013175058491470E-006
  5.212566320171394E-006
  4.547786584660290E-006
  3.983179398041801E-006
  3.483434527646929E-006
  3.012662310112604E-006
  2.535747918296938E-006
  2.017654700623515E-006
  1.421920116571265E-006
  7.523600260751975E-007
  2.092116798608708E-007
  5.578082245007490E-008
  0.000000000000000E+000
  0.000000000000000E+000
  6.055598286243333E-006
  5.232243690175743E-006
  4.602880879087225E-006
  4.122905749500237E-006
  3.749293423729158E-006
  3.439280389062155E-006
  3.152694418560765E-006
  2.851233440319204E-006
  2.501536544287294E-006
  2.077526437194489E-006
  1.570653502661287E-006
  1.025616665322037E-006
  5.662053910735955E-007
  3.171756514529660E-007
  3.249870972975650E-007
  5.105171722720316E-006
  4.437512974858753E-006
  3.983642006148624E-006
  3.691479799586620E-006
  3.510671346987447E-006
  3.392462960077750E-006
  3.290284594328074E-006
  3.163824991885287E-006
  2.980446776973563E-006
  2.717972647618807E-006
  2.369960377059833E-006
  1.957373586795974E-006
  1.553554173118019E-006
  1.267260609056487E-006
  1.161729015573909E-006
  4.147488104664005E-006
  3.645481149369078E-006
  3.371784938793604E-006
  3.268801746821083E-006
  3.280506194353288E-006
  3.351601266749277E-006
  3.432171133877367E-006
  3.480556623322991E-006
  3.465364065290779E-006
  3.366512573801496E-006
  3.176807270363309E-006
  2.909248281069047E-006
  2.603470203520120E-006
  2.312820846141037E-006
  2.080062089136501E-006
  3.196336258576072E-006
  2.871682619835615E-006
  2.784344021772838E-006
  2.871138026115418E-006
  3.069710639753112E-006
  3.322333621038181E-006
  3.579594122939908E-006
  3.801487642976793E-006
  3.957522755640955E-006
  4.026594919484246E-006
  3.997982179245952E-006
  3.872307930538145E-006
  3.659401171529350E-006
  3.378361913600870E-006
  3.062062571707161E-006
  2.265880120416360E-006
  2.129600842528021E-006
  2.235809848100502E-006
  2.510039720903196E-006
  2.884850821839746E-006
  3.305987380408483E-006
  3.729799702276189E-006
  4.119985021356848E-006
  4.446366090165437E-006
  4.684231254367593E-006
  4.814870234915562E-006
  4.823682336974248E-006
  4.700982000747291E-006
  4.449405725811093E-006
  4.088786372342565E-006
  1.367058137181508E-006
  1.434034583851278E-006
  1.740243755168824E-006
  2.191383524120392E-006
  2.725285902753300E-006
  3.298728893027783E-006
  3.876400177993881E-006
  4.425803053318362E-006
  4.915905376453912E-006
  5.317026483946299E-006
  5.601109104643730E-006
  5.741809115988204E-006
  5.716887470518532E-006
  5.515699270901172E-006
  5.145609397498656E-006
  5.488970452556677E-007
  8.020839143977865E-007
  1.304012394348684E-006
  1.911805003942934E-006
  2.583853620398214E-006
  3.293257146137529E-006
  4.010275411629098E-006
  4.704631128110983E-006
  5.344920570552481E-006
  5.898639708987236E-006
  6.330656885899470E-006
  6.605958977739719E-006
  6.692927306346310E-006
  6.567056976547254E-006
  6.220775181512384E-006
  9.445216234172354E-008
  3.010930731312621E-007
  9.154648337618820E-007
  1.657826921928556E-006
  2.452999590606216E-006
  3.282427361796532E-006
  4.120891938820534E-006
  4.940935430242985E-006
  5.712610992028712E-006
  6.403294602276581E-006
  6.976698872856464E-006
  7.392639657573192E-006
  7.610053146141501E-006
  7.589909711948241E-006
  7.305038141875153E-006
  0.000000000000000E+000
  9.765915574094044E-008
  5.864386922920335E-007
  1.429569757882780E-006
  2.331065765819155E-006
  3.261214731186881E-006
  4.198743974133822E-006
  5.119580005288673E-006
  5.998175059147678E-006
  6.806462877141642E-006
  7.511674740322448E-006
  8.073642396829427E-006
  8.443588775251235E-006
  8.565931248791764E-006
  8.388323340600593E-006
  0.000000000000000E+000
  1.310763156220465E-008
  3.704175700003304E-007
  1.246102692610004E-006
  2.223212969707650E-006
  3.228406760152984E-006
  4.235958645804213E-006
  5.226410834399742E-006
  6.182109392709210E-006
  7.083810450421332E-006
  7.906887060594281E-006
  8.616382256857270E-006
  9.161404104738281E-006
  9.470274883186162E-006
  9.456830399309772E-006
  0.000000000000000E+000
  0.000000000000000E+000
  2.485887294158073E-007
  1.114667922983134E-006
  2.139532712188268E-006
  3.185514152493953E-006
  4.226099666535467E-006
  5.248278954392183E-006
  6.246081291601019E-006
  7.212619464379477E-006
  8.134616703494665E-006
  8.987199628808329E-006
  9.725781872068694E-006
  1.027075193415295E-005
  1.049472354908051E-005
  0.000000000000000E+000
  0.000000000000000E+000
  1.640304669785923E-007
  1.027161776161121E-006
  2.080961038477635E-006
  3.131310868303273E-006
  4.162226715978353E-006
  5.173341295772058E-006
  6.173875787904783E-006
  7.172740941699008E-006
  8.170419639806646E-006
  9.154108640413073E-006
  1.009220568892516E-005
  1.091555453588500E-005
  1.147065928998063E-005
  0.000000000000000E+000
  0.000000000000000E+000
  1.078766038015745E-007
  9.742821705255427E-007
  2.034931893921882E-006
  3.054915324733889E-006
  4.034566776904939E-006
  4.992169801899905E-006
  5.955090399649816E-006
  6.950260633451807E-006
  7.995219184379460E-006
  9.091995416532162E-006
  1.022615362352424E-005
  1.135951733844005E-005
  1.235677996265082E-005
  0.000000000000000E+000
  0.000000000000000E+000
  8.794573727026792E-008
  9.433670082532871E-007
  1.978602586839373E-006
  2.931772477305638E-006
  3.824448342376602E-006
  4.694573400378784E-006
  5.585378708791782E-006
  6.540262967835730E-006
  7.597622644402227E-006
  8.781833322811471E-006
  1.009829507188202E-005
  1.153940620996183E-005
  1.305811244323126E-005
  0.000000000000000E+000
  0.000000000000000E+000
  8.413160414832711E-008
  9.097764629204276E-007
  1.876152371740406E-006
  2.727239159875548E-006
  3.508768451759530E-006
  4.272825520475652E-006
  5.070485144867146E-006
  5.954393002002985E-006
  6.981495083448184E-006
  8.209608205384035E-006
  9.681209811158345E-006
  1.142971325334428E-005
  1.354196761244573E-005
  0.000000000000000E+000
  0.000000000000000E+000
  8.033177039433430E-008
  8.229665749610077E-007
  1.673201388152517E-006
  2.399633771469329E-006
  3.064767819746533E-006
  3.723098497952605E-006
  4.423917623927357E-006
  5.220411707244929E-006
  6.178631091656419E-006
  7.386055638552928E-006
  8.954953051443882E-006
  1.100407635096946E-005
  1.377633430713716E-005
  0.000000000000000E+000
  0.000000000000000E+000
  5.488761932642902E-008
  6.156762758829828E-007
  1.305395518156968E-006
  1.912213442825834E-006
  2.477233579097090E-006
  3.045754861595550E-006
  3.661424374460531E-006
  4.373157288816689E-006
  5.245401289200303E-006
  6.375775533154387E-006
  7.928807521896454E-006
  1.019638616080092E-005
  1.374129310446854E-005
  0.000000000000000E+000
  0.000000000000000E+000
  0.000000000000000E+000
  2.210110664155232E-007
  7.445961748648701E-007
  1.251821877450781E-006
  1.744697699581967E-006
  2.247109788565131E-006
  2.797749549550143E-006
  3.441348272473297E-006
  4.236908663818142E-006
  5.276178819891521E-006
  6.730048661875090E-006
  8.991573386472108E-006
  1.338071808318164E-005
SCALARS elementIsPlast double 
LOOKUP_TABLE default
   1.00000000000000     
   1.00000000000000     
   1.00000000000000     
   1.00000000000000     
   1.00000000000000     
   1.00000000000000     
   1.00000000000000     
   1.00000000000000     
   1.00000000000000     
  0.000000000000000E+000
  0.000000000000000E+000
  0.000000000000000E+000
  0.000000000000000E+000
  0.000000000000000E+000
  0.000000000000000E+000
   1.00000000000000     
   1.00000000000000     
   1.00000000000000     
   1.00000000000000     
   1.00000000000000     
   1.00000000000000     
   1.00000000000000     
   1.00000000000000     
   1.00000000000000     
  0.000000000000000E+000
  0.000000000000000E+000
  0.000000000000000E+000
  0.000000000000000E+000
  0.000000000000000E+000
  0.000000000000000E+000
   1.00000000000000     
   1.00000000000000     
   1.00000000000000     
   1.00000000000000     
   1.00000000000000     
   1.00000000000000     
   1.00000000000000     
   1.00000000000000     
   1.00000000000000     
  0.000000000000000E+000
  0.000000000000000E+000
  0.000000000000000E+000
  0.000000000000000E+000
  0.000000000000000E+000
  0.000000000000000E+000
   1.00000000000000     
   1.00000000000000     
   1.00000000000000     
   1.00000000000000     
   1.00000000000000     
   1.00000000000000     
   1.00000000000000     
   1.00000000000000     
   1.00000000000000     
  0.000000000000000E+000
  0.000000000000000E+000
  0.000000000000000E+000
  0.000000000000000E+000
  0.000000000000000E+000
  0.000000000000000E+000
   1.00000000000000     
   1.00000000000000     
   1.00000000000000     
   1.00000000000000     
   1.00000000000000     
   1.00000000000000     
   1.00000000000000     
   1.00000000000000     
   1.00000000000000     
  0.000000000000000E+000
  0.000000000000000E+000
  0.000000000000000E+000
  0.000000000000000E+000
  0.000000000000000E+000
  0.000000000000000E+000
   1.00000000000000     
   1.00000000000000     
   1.00000000000000     
   1.00000000000000     
   1.00000000000000     
   1.00000000000000     
   1.00000000000000     
   1.00000000000000     
   1.00000000000000     
  0.000000000000000E+000
  0.000000000000000E+000
  0.000000000000000E+000
  0.000000000000000E+000
  0.000000000000000E+000
  0.000000000000000E+000
   1.00000000000000     
   1.00000000000000     
   1.00000000000000     
   1.00000000000000     
   1.00000000000000     
   1.00000000000000     
   1.00000000000000     
   1.00000000000000     
   1.00000000000000     
  0.000000000000000E+000
  0.000000000000000E+000
  0.000000000000000E+000
  0.000000000000000E+000
  0.000000000000000E+000
  0.000000000000000E+000
   1.00000000000000     
   1.00000000000000     
   1.00000000000000     
   1.00000000000000     
   1.00000000000000     
   1.00000000000000     
   1.00000000000000     
   1.00000000000000     
   1.00000000000000     
  0.000000000000000E+000
  0.000000000000000E+000
  0.000000000000000E+000
  0.000000000000000E+000
  0.000000000000000E+000
  0.000000000000000E+000
   1.00000000000000     
   1.00000000000000     
   1.00000000000000     
   1.00000000000000     
   1.00000000000000     
   1.00000000000000     
   1.00000000000000     
   1.00000000000000     
   1.00000000000000     
   1.00000000000000     
  0.000000000000000E+000
  0.000000000000000E+000
  0.000000000000000E+000
  0.000000000000000E+000
  0.000000000000000E+000
   1.00000000000000     
   1.00000000000000     
   1.00000000000000     
   1.00000000000000     
   1.00000000000000     
   1.00000000000000     
   1.00000000000000     
   1.00000000000000     
   1.00000000000000     
   1.00000000000000     
  0.000000000000000E+000
  0.000000000000000E+000
  0.000000000000000E+000
  0.000000000000000E+000
  0.000000000000000E+000
   1.00000000000000     
   1.00000000000000     
   1.00000000000000     
   1.00000000000000     
   1.00000000000000     
   1.00000000000000     
   1.00000000000000     
   1.00000000000000     
   1.00000000000000     
   1.00000000000000     
   1.00000000000000     
  0.000000000000000E+000
  0.000000000000000E+000
  0.000000000000000E+000
  0.000000000000000E+000
   1.00000000000000     
   1.00000000000000     
   1.00000000000000     
   1.00000000000000     
   1.00000000000000     
   1.00000000000000     
   1.00000000000000     
   1.00000000000000     
   1.00000000000000     
   1.00000000000000     
   1.00000000000000     
   1.00000000000000     
   1.00000000000000     
  0.000000000000000E+000
  0.000000000000000E+000
   1.00000000000000     
   1.00000000000000     
   1.00000000000000     
   1.00000000000000     
   1.00000000000000     
   1.00000000000000     
   1.00000000000000     
   1.00000000000000     
   1.00000000000000     
   1.00000000000000     
   1.00000000000000     
   1.00000000000000     
   1.00000000000000     
   1.00000000000000     
   1.00000000000000     
   1.00000000000000     
   1.00000000000000     
   1.00000000000000     
   1.00000000000000     
   1.00000000000000     
   1.00000000000000     
   1.00000000000000     
   1.00000000000000     
   1.00000000000000     
   1.00000000000000     
   1.00000000000000     
   1.00000000000000     
   1.00000000000000     
   1.00000000000000     
   1.00000000000000     
   1.00000000000000     
   1.00000000000000     
   1.00000000000000     
   1.00000000000000     
   1.00000000000000     
   1.00000000000000     
   1.00000000000000     
   1.00000000000000     
   1.00000000000000     
   1.00000000000000     
   1.00000000000000     
   1.00000000000000     
   1.00000000000000     
   1.00000000000000     
   1.00000000000000     
   1.00000000000000     
   1.00000000000000     
   1.00000000000000     
   1.00000000000000     
   1.00000000000000     
   1.00000000000000     
   1.00000000000000     
   1.00000000000000     
   1.00000000000000     
   1.00000000000000     
   1.00000000000000     
   1.00000000000000     
   1.00000000000000     
   1.00000000000000     
   1.00000000000000     
   1.00000000000000     
   1.00000000000000     
   1.00000000000000     
   1.00000000000000     
   1.00000000000000     
   1.00000000000000     
   1.00000000000000     
   1.00000000000000     
   1.00000000000000     
   1.00000000000000     
   1.00000000000000     
   1.00000000000000     
   1.00000000000000     
   1.00000000000000     
   1.00000000000000     
   1.00000000000000     
   1.00000000000000     
   1.00000000000000     
   1.00000000000000     
   1.00000000000000     
   1.00000000000000     
   1.00000000000000     
   1.00000000000000     
   1.00000000000000     
   1.00000000000000     
   1.00000000000000     
   1.00000000000000     
   1.00000000000000     
   1.00000000000000     
   1.00000000000000     
   1.00000000000000     
   1.00000000000000     
   1.00000000000000     
   1.00000000000000     
   1.00000000000000     
   1.00000000000000     
   1.00000000000000     
   1.00000000000000     
   1.00000000000000     
   1.00000000000000     
   1.00000000000000     
   1.00000000000000     
   1.00000000000000     
   1.00000000000000     
   1.00000000000000     
   1.00000000000000     
   1.00000000000000     
   1.00000000000000     
   1.00000000000000     
   1.00000000000000     
   1.00000000000000     
   1.00000000000000     
   1.00000000000000     
   1.00000000000000     
   1.00000000000000     
   1.00000000000000     
   1.00000000000000     
   1.00000000000000     
   1.00000000000000     
   1.00000000000000     
  0.000000000000000E+000
   1.00000000000000     
   1.00000000000000     
   1.00000000000000     
   1.00000000000000     
   1.00000000000000     
   1.00000000000000     
   1.00000000000000     
   1.00000000000000     
   1.00000000000000     
   1.00000000000000     
   1.00000000000000     
   1.00000000000000     
   1.00000000000000     
   1.00000000000000     
  0.000000000000000E+000
   1.00000000000000     
   1.00000000000000     
   1.00000000000000     
   1.00000000000000     
   1.00000000000000     
   1.00000000000000     
   1.00000000000000     
   1.00000000000000     
   1.00000000000000     
   1.00000000000000     
   1.00000000000000     
   1.00000000000000     
   1.00000000000000     
   1.00000000000000     
  0.000000000000000E+000
  0.000000000000000E+000
   1.00000000000000     
   1.00000000000000     
   1.00000000000000     
   1.00000000000000     
   1.00000000000000     
   1.00000000000000     
   1.00000000000000     
   1.00000000000000     
   1.00000000000000     
   1.00000000000000     
   1.00000000000000     
   1.00000000000000     
   1.00000000000000     
  0.000000000000000E+000
  0.000000000000000E+000
   1.00000000000000     
   1.00000000000000     
   1.00000000000000     
   1.00000000000000     
   1.00000000000000     
   1.00000000000000     
   1.00000000000000     
   1.00000000000000     
   1.00000000000000     
   1.00000000000000     
   1.00000000000000     
   1.00000000000000     
   1.00000000000000     
  0.000000000000000E+000
  0.000000000000000E+000
   1.00000000000000     
   1.00000000000000     
   1.00000000000000     
   1.00000000000000     
   1.00000000000000     
   1.00000000000000     
   1.00000000000000     
   1.00000000000000     
   1.00000000000000     
   1.00000000000000     
   1.00000000000000     
   1.00000000000000     
   1.00000000000000     
  0.000000000000000E+000
  0.000000000000000E+000
   1.00000000000000     
   1.00000000000000     
   1.00000000000000     
   1.00000000000000     
   1.00000000000000     
   1.00000000000000     
   1.00000000000000     
   1.00000000000000     
   1.00000000000000     
   1.00000000000000     
   1.00000000000000     
   1.00000000000000     
   1.00000000000000     
  0.000000000000000E+000
  0.000000000000000E+000
   1.00000000000000     
   1.00000000000000     
   1.00000000000000     
   1.00000000000000     
   1.00000000000000     
   1.00000000000000     
   1.00000000000000     
   1.00000000000000     
   1.00000000000000     
   1.00000000000000     
   1.00000000000000     
   1.00000000000000     
   1.00000000000000     
  0.000000000000000E+000
  0.000000000000000E+000
   1.00000000000000     
   1.00000000000000     
   1.00000000000000     
   1.00000000000000     
   1.00000000000000     
   1.00000000000000     
   1.00000000000000     
   1.00000000000000     
   1.00000000000000     
   1.00000000000000     
   1.00000000000000     
   1.00000000000000     
   1.00000000000000     
  0.000000000000000E+000
  0.000000000000000E+000
   1.00000000000000     
   1.00000000000000     
   1.00000000000000     
   1.00000000000000     
   1.00000000000000     
   1.00000000000000     
   1.00000000000000     
   1.00000000000000     
   1.00000000000000     
   1.00000000000000     
   1.00000000000000     
   1.00000000000000     
   1.00000000000000     
  0.000000000000000E+000
  0.000000000000000E+000
  0.000000000000000E+000
   1.00000000000000     
   1.00000000000000     
   1.00000000000000     
   1.00000000000000     
   1.00000000000000     
   1.00000000000000     
   1.00000000000000     
   1.00000000000000     
   1.00000000000000     
   1.00000000000000     
   1.00000000000000     
   1.00000000000000     
SCALARS poroL double 
LOOKUP_TABLE default
  0.155927254598106     
  0.155925754821267     
  0.155924343626002     
  0.155923039110843     
  0.155921856937382     
  0.155920792020030     
  0.155919831425069     
  0.155918959313553     
  0.155917758496871     
  0.155915781533099     
  0.155913985913044     
  0.155912380247190     
  0.155910955425848     
  0.155909703144759     
  0.155908615819890     
  0.155926821584083     
  0.155925311759282     
  0.155923891859909     
  0.155922583270180     
  0.155921397612999     
  0.155920328342336     
  0.155919364154134     
  0.155918488318886     
  0.155917295942274     
  0.155915338353588     
  0.155913556136454     
  0.155911962835182     
  0.155910549517539     
  0.155909307965305     
  0.155908230618136     
  0.155925953808321     
  0.155924433447315     
  0.155922997595768     
  0.155921673695726     
  0.155920477825652     
  0.155919400574742     
  0.155918428865253     
  0.155917546057201     
  0.155916372604418     
  0.155914453880209     
  0.155912698157947     
  0.155911129395099     
  0.155909739023000     
  0.155908518924281     
  0.155907461540676     
  0.155924631765033     
  0.155923106370858     
  0.155921660104705     
  0.155920319568039     
  0.155919102383792     
  0.155918008644041     
  0.155917024593968     
  0.155916132668577     
  0.155914991858778     
  0.155913131832797     
  0.155911414875609     
  0.155909882572281     
  0.155908526564166     
  0.155907338635023     
  0.155906311238298     
  0.155922849096934     
  0.155921324439796     
  0.155919870230910     
  0.155918517999565     
  0.155917279620689     
  0.155916158679954     
  0.155915153023203     
  0.155914249505811     
  0.155913159359794     
  0.155911376546947     
  0.155909709950325     
  0.155908226311606     
  0.155906915978664     
  0.155905770961988     
  0.155904783668323     
  0.155920587097063     
  0.155919079408534     
  0.155917635873340     
  0.155916279564460     
  0.155915019555365     
  0.155913862372642     
  0.155912820609473     
  0.155911897431658     
  0.155910875958538     
  0.155909189920334     
  0.155907588954471     
  0.155906165667538     
  0.155904912256638     
  0.155903820874073     
  0.155902884060630     
  0.155917840325856     
  0.155916360109451     
  0.155914945620617     
  0.155913604163053     
  0.155912333458816     
  0.155911143894708     
  0.155910050488208     
  0.155909078372172     
  0.155908143791754     
  0.155906582451949     
  0.155905058497063     
  0.155903707095072     
  0.155902521019582     
  0.155901494319080     
  0.155900618763953     
  0.155914601041790     
  0.155913169995868     
  0.155911802379672     
  0.155910494081183     
  0.155909236473434     
  0.155908027066710     
  0.155906883363500     
  0.155905834889183     
  0.155904926979323     
  0.155903564352619     
  0.155902129148438     
  0.155900855882063     
  0.155899748845189     
  0.155898797548565     
  0.155897995100478     
  0.155910881199446     
  0.155909509622124     
  0.155908214078616     
  0.155906960370771     
  0.155905729780074     
  0.155904525870542     
  0.155903358653170     
  0.155902253502783     
  0.155901278266951     
  0.155900168128667     
  0.155898797731967     
  0.155897622146941     
  0.155896600325082     
  0.155895736991306     
  0.155895020702122     
  0.155906699975968     
  0.155905424398734     
  0.155904205080600     
  0.155903007566639     
  0.155901821484608     
  0.155900647525867     
  0.155899494644757     
  0.155898372119674     
  0.155897287680874     
  0.155896280614609     
  0.155895103224279     
  0.155894002625932     
  0.155893081744018     
  0.155892316034540     
  0.155891703262179     
  0.155902102100988     
  0.155900925016842     
  0.155899788022010     
  0.155898656084787     
  0.155897524966215     
  0.155896401000212     
  0.155895290871358     
  0.155894200299704     
  0.155893140685738     
  0.155892096417817     
  0.155891037081563     
  0.155890021599956     
  0.155889185556445     
  0.155888535344095     
  0.155888046897811     
  0.155897117156971     
  0.155896040261366     
  0.155894982018840     
  0.155893920253669     
  0.155892857701054     
  0.155891802469155     
  0.155890763380724     
  0.155889750762785     
  0.155888767797128     
  0.155887812148362     
  0.155886833077766     
  0.155885828752327     
  0.155884962712127     
  0.155884392514401     
  0.155884019377427     
  0.155891752367515     
  0.155890782843049     
  0.155889806826676     
  0.155888823960529     
  0.155887844371514     
  0.155886878766975     
  0.155885939763785     
  0.155885033189580     
  0.155884163996200     
  0.155883332581596     
  0.155882534304112     
  0.155881714774000     
  0.155880872550803     
  0.155880222957080     
  0.155879828975989     
  0.155886041131315     
  0.155885167403081     
  0.155884280007084     
  0.155883390001211     
  0.155882513167445     
  0.155881664267206     
  0.155880850562060     
  0.155880077029729     
  0.155879345055439     
  0.155878655763993     
  0.155878004422411     
  0.155877383491346     
  0.155876794130067     
  0.155876247637583     
  0.155875743143926     
  0.155879970903647     
  0.155879204299068     
  0.155878419880803     
  0.155877642997395     
  0.155876895666423     
  0.155876189832685     
  0.155875528792649     
  0.155874910665669     
  0.155874332880389     
  0.155873792705214     
  0.155873286418975     
  0.155872807812198     
  0.155872337749469     
  0.155871851418551     
  0.155871382180843     
  0.155873544232623     
  0.155872901400455     
  0.155872245033314     
  0.155871610368993     
  0.155871021465783     
  0.155870485847397     
  0.155870000153441     
  0.155869556537248     
  0.155869146091446     
  0.155868759426130     
  0.155868385435600     
  0.155868007069449     
  0.155867601270738     
  0.155867159825805     
  0.155866712483542     
  0.155866761215337     
  0.155866266988322     
  0.155865767635515     
  0.155865313550423     
  0.155864917940192     
  0.155864578449238     
  0.155864286012548     
  0.155864028722848     
  0.155863792856929     
  0.155863560600205     
  0.155863310115958     
  0.155863017406868     
  0.155862665553837     
  0.155862254308002     
  0.155861804924192     
  0.155859623540470     
  0.155859296307031     
  0.155859008449979     
  0.155858779679670     
  0.155858609676597     
  0.155858487535400     
  0.155858403182650     
  0.155858343807677     
  0.155858288701848     
  0.155858210555142     
  0.155858081977639     
  0.155857878478087     
  0.155857583007997     
  0.155857195637114     
  0.155856730756126     
  0.155852048349940     
  0.155852014101876     
  0.155852002293275     
  0.155852040694213     
  0.155852116634297     
  0.155852227442505     
  0.155852365621761     
  0.155852512916417     
  0.155852643377748     
  0.155852726787311     
  0.155852729386921     
  0.155852624310670     
  0.155852393881817     
  0.155852030956016     
  0.155851548357687     
  0.155844115372604     
  0.155844481097103     
  0.155844809188419     
  0.155845119751658     
  0.155845452401629     
  0.155845812456568     
  0.155846185693155     
  0.155846550042167     
  0.155846875393124     
  0.155847127830335     
  0.155847273516036     
  0.155847281140597     
  0.155847128177934     
  0.155846801039598     
  0.155846303865228     
  0.155835890637830     
  0.155836736485785     
  0.155837487019516     
  0.155838034066394     
  0.155838637772610     
  0.155839258920899     
  0.155839879872974     
  0.155840471910350     
  0.155841000798553     
  0.155841431244598     
  0.155841730026170     
  0.155841864709587     
  0.155841807032956     
  0.155841534620600     
  0.155841036382262     
  0.155827291519015     
  0.155828683988528     
  0.155829954092954     
  0.155830821448295     
  0.155831694065803     
  0.155832587585311     
  0.155833468178823     
  0.155834296641395     
  0.155835034568234     
  0.155835647690907     
  0.155836105811015     
  0.155836380294424     
  0.155836439431477     
  0.155836248225780     
  0.155835775483587     
  0.155818397933947     
  0.155820373510084     
  0.155822201149417     
  0.155823470737458     
  0.155824641550551     
  0.155825823787234     
  0.155826973084519     
  0.155828042502610     
  0.155828990282395     
  0.155829784495967     
  0.155830401872698     
  0.155830822599573     
  0.155831019304697     
  0.155830946761949     
  0.155830546030802     
  0.155809299512270     
  0.155811839852532     
  0.155814268012847     
  0.155815982833029     
  0.155817503189942     
  0.155818997098755     
  0.155820420099529     
  0.155821726441570     
  0.155822877611737     
  0.155823846178283     
  0.155824615919855     
  0.155825177754887     
  0.155825520542438     
  0.155825605565908     
  0.155825334144176     
  0.155800038955714     
  0.155803179407621     
  0.155806221938439     
  0.155808419197522     
  0.155810323959567     
  0.155812146202933     
  0.155813839558223     
  0.155815367562983     
  0.155816705678696     
  0.155817836926266     
  0.155818749179595     
  0.155819440730922     
  0.155819920470824     
  0.155820189427062     
  0.155820146246893     
  0.155790669863065     
  0.155794480556380     
  0.155798160160916     
  0.155800868468420     
  0.155803178265754     
  0.155805324324570     
  0.155807265326543     
  0.155808985532972     
  0.155810482835062     
  0.155811757764046     
  0.155812806232127     
  0.155813620497072     
  0.155814214088217     
  0.155814629024076     
  0.155814899889856     
  0.155781250586164     
  0.155785837473883     
  0.155790193276886     
  0.155793445686994     
  0.155796163717007     
  0.155798599115644     
  0.155800741313689     
  0.155802607716353     
  0.155804224985565     
  0.155805613957320     
  0.155806783841488     
  0.155807728850099     
  0.155808435184054     
  0.155808982691004     
  0.155809564027625     
  0.155771860315074     
  0.155777398781727     
  0.155782491148757     
  0.155786309045705     
  0.155789389159690     
  0.155792041100597     
  0.155794316137390     
  0.155796273365616     
  0.155797961188879     
  0.155799418909248     
  0.155800675044083     
  0.155801743131732     
  0.155802617117526     
  0.155803276113978     
  0.155804110514743     
  0.155762653290085     
  0.155769490704310     
  0.155775328853861     
  0.155779648231535     
  0.155782961339514     
  0.155785714984366     
  0.155788042241716     
  0.155790026901341     
  0.155791730142765     
  0.155793200581763     
  0.155794481485205     
  0.155795614143275     
  0.155796635135324     
  0.155797585393711     
  0.155798568030559     
  0.155754314285428     
  0.155762878420199     
  0.155769104715540     
  0.155773628160764     
  0.155776950511643     
  0.155779678826103     
  0.155781971693063     
  0.155783917549931     
  0.155785575184435     
  0.155786995067904     
  0.155788224183127     
  0.155789313903595     
  0.155790335501612     
  0.155791422156493     
  0.155793196860329     
