# vtk DataFile Version 3.0
vtk output
ASCII
DATASET UNSTRUCTURED_GRID
POINTS       496 double 
  0.00000000E+00  3.00000000E+02  0.00000000E+00
  0.00000000E+00  2.80000000E+02  0.00000000E+00
  0.00000000E+00  2.60000000E+02  0.00000000E+00
  0.00000000E+00  2.40000000E+02  0.00000000E+00
  0.00000000E+00  2.20000000E+02  0.00000000E+00
  0.00000000E+00  2.00000000E+02  0.00000000E+00
  0.00000000E+00  1.80000000E+02  0.00000000E+00
  0.00000000E+00  1.60000000E+02  0.00000000E+00
  0.00000000E+00  1.40000000E+02  0.00000000E+00
  0.00000000E+00  1.20000000E+02  0.00000000E+00
  0.00000000E+00  1.00000000E+02  0.00000000E+00
  0.00000000E+00  8.00000000E+01  0.00000000E+00
  0.00000000E+00  6.00000000E+01  0.00000000E+00
  0.00000000E+00  4.00000000E+01  0.00000000E+00
  0.00000000E+00  2.00000000E+01  0.00000000E+00
  0.00000000E+00  4.99600361E-14  0.00000000E+00
  2.00000000E+01  3.00000000E+02  0.00000000E+00
  2.00000000E+01  2.80000000E+02  0.00000000E+00
  2.00000000E+01  2.60000000E+02  0.00000000E+00
  2.00000000E+01  2.40000000E+02  0.00000000E+00
  2.00000000E+01  2.20000000E+02  0.00000000E+00
  2.00000000E+01  2.00000000E+02  0.00000000E+00
  2.00000000E+01  1.80000000E+02  0.00000000E+00
  2.00000000E+01  1.60000000E+02  0.00000000E+00
  2.00000000E+01  1.40000000E+02  0.00000000E+00
  2.00000000E+01  1.20000000E+02  0.00000000E+00
  2.00000000E+01  1.00000000E+02  0.00000000E+00
  2.00000000E+01  8.00000000E+01  0.00000000E+00
  2.00000000E+01  6.00000000E+01  0.00000000E+00
  2.00000000E+01  4.00000000E+01  0.00000000E+00
  2.00000000E+01  2.00000000E+01  0.00000000E+00
  2.00000000E+01  4.99600361E-14  0.00000000E+00
  4.00000000E+01  3.00000000E+02  0.00000000E+00
  4.00000000E+01  2.80000000E+02  0.00000000E+00
  4.00000000E+01  2.60000000E+02  0.00000000E+00
  4.00000000E+01  2.40000000E+02  0.00000000E+00
  4.00000000E+01  2.20000000E+02  0.00000000E+00
  4.00000000E+01  2.00000000E+02  0.00000000E+00
  4.00000000E+01  1.80000000E+02  0.00000000E+00
  4.00000000E+01  1.60000000E+02  0.00000000E+00
  4.00000000E+01  1.40000000E+02  0.00000000E+00
  4.00000000E+01  1.20000000E+02  0.00000000E+00
  4.00000000E+01  1.00000000E+02  0.00000000E+00
  4.00000000E+01  8.00000000E+01  0.00000000E+00
  4.00000000E+01  6.00000000E+01  0.00000000E+00
  4.00000000E+01  4.00000000E+01  0.00000000E+00
  4.00000000E+01  2.00000000E+01  0.00000000E+00
  4.00000000E+01  4.99600361E-14  0.00000000E+00
  6.00000000E+01  3.00000000E+02  0.00000000E+00
  6.00000000E+01  2.80000000E+02  0.00000000E+00
  6.00000000E+01  2.60000000E+02  0.00000000E+00
  6.00000000E+01  2.40000000E+02  0.00000000E+00
  6.00000000E+01  2.20000000E+02  0.00000000E+00
  6.00000000E+01  2.00000000E+02  0.00000000E+00
  6.00000000E+01  1.80000000E+02  0.00000000E+00
  6.00000000E+01  1.60000000E+02  0.00000000E+00
  6.00000000E+01  1.40000000E+02  0.00000000E+00
  6.00000000E+01  1.20000000E+02  0.00000000E+00
  6.00000000E+01  1.00000000E+02  0.00000000E+00
  6.00000000E+01  8.00000000E+01  0.00000000E+00
  6.00000000E+01  6.00000000E+01  0.00000000E+00
  6.00000000E+01  4.00000000E+01  0.00000000E+00
  6.00000000E+01  2.00000000E+01  0.00000000E+00
  6.00000000E+01  4.99600361E-14  0.00000000E+00
  8.00000000E+01  3.00000000E+02  0.00000000E+00
  8.00000000E+01  2.80000000E+02  0.00000000E+00
  8.00000000E+01  2.60000000E+02  0.00000000E+00
  8.00000000E+01  2.40000000E+02  0.00000000E+00
  8.00000000E+01  2.20000000E+02  0.00000000E+00
  8.00000000E+01  2.00000000E+02  0.00000000E+00
  8.00000000E+01  1.80000000E+02  0.00000000E+00
  8.00000000E+01  1.60000000E+02  0.00000000E+00
  8.00000000E+01  1.40000000E+02  0.00000000E+00
  8.00000000E+01  1.20000000E+02  0.00000000E+00
  8.00000000E+01  1.00000000E+02  0.00000000E+00
  8.00000000E+01  8.00000000E+01  0.00000000E+00
  8.00000000E+01  6.00000000E+01  0.00000000E+00
  8.00000000E+01  4.00000000E+01  0.00000000E+00
  8.00000000E+01  2.00000000E+01  0.00000000E+00
  8.00000000E+01  4.99600361E-14  0.00000000E+00
  1.00000000E+02  3.00000000E+02  0.00000000E+00
  1.00000000E+02  2.80000000E+02  0.00000000E+00
  1.00000000E+02  2.60000000E+02  0.00000000E+00
  1.00000000E+02  2.40000000E+02  0.00000000E+00
  1.00000000E+02  2.20000000E+02  0.00000000E+00
  1.00000000E+02  2.00000000E+02  0.00000000E+00
  1.00000000E+02  1.80000000E+02  0.00000000E+00
  1.00000000E+02  1.60000000E+02  0.00000000E+00
  1.00000000E+02  1.40000000E+02  0.00000000E+00
  1.00000000E+02  1.20000000E+02  0.00000000E+00
  1.00000000E+02  1.00000000E+02  0.00000000E+00
  1.00000000E+02  8.00000000E+01  0.00000000E+00
  1.00000000E+02  6.00000000E+01  0.00000000E+00
  1.00000000E+02  4.00000000E+01  0.00000000E+00
  1.00000000E+02  2.00000000E+01  0.00000000E+00
  1.00000000E+02  4.99600361E-14  0.00000000E+00
  1.20000000E+02  3.00000000E+02  0.00000000E+00
  1.20000000E+02  2.80000000E+02  0.00000000E+00
  1.20000000E+02  2.60000000E+02  0.00000000E+00
  1.20000000E+02  2.40000000E+02  0.00000000E+00
  1.20000000E+02  2.20000000E+02  0.00000000E+00
  1.20000000E+02  2.00000000E+02  0.00000000E+00
  1.20000000E+02  1.80000000E+02  0.00000000E+00
  1.20000000E+02  1.60000000E+02  0.00000000E+00
  1.20000000E+02  1.40000000E+02  0.00000000E+00
  1.20000000E+02  1.20000000E+02  0.00000000E+00
  1.20000000E+02  1.00000000E+02  0.00000000E+00
  1.20000000E+02  8.00000000E+01  0.00000000E+00
  1.20000000E+02  6.00000000E+01  0.00000000E+00
  1.20000000E+02  4.00000000E+01  0.00000000E+00
  1.20000000E+02  2.00000000E+01  0.00000000E+00
  1.20000000E+02  4.99600361E-14  0.00000000E+00
  1.40000000E+02  3.00000000E+02  0.00000000E+00
  1.40000000E+02  2.80000000E+02  0.00000000E+00
  1.40000000E+02  2.60000000E+02  0.00000000E+00
  1.40000000E+02  2.40000000E+02  0.00000000E+00
  1.40000000E+02  2.20000000E+02  0.00000000E+00
  1.40000000E+02  2.00000000E+02  0.00000000E+00
  1.40000000E+02  1.80000000E+02  0.00000000E+00
  1.40000000E+02  1.60000000E+02  0.00000000E+00
  1.40000000E+02  1.40000000E+02  0.00000000E+00
  1.40000000E+02  1.20000000E+02  0.00000000E+00
  1.40000000E+02  1.00000000E+02  0.00000000E+00
  1.40000000E+02  8.00000000E+01  0.00000000E+00
  1.40000000E+02  6.00000000E+01  0.00000000E+00
  1.40000000E+02  4.00000000E+01  0.00000000E+00
  1.40000000E+02  2.00000000E+01  0.00000000E+00
  1.40000000E+02  4.99600361E-14  0.00000000E+00
  1.60000000E+02  3.00000000E+02  0.00000000E+00
  1.60000000E+02  2.80000000E+02  0.00000000E+00
  1.60000000E+02  2.60000000E+02  0.00000000E+00
  1.60000000E+02  2.40000000E+02  0.00000000E+00
  1.60000000E+02  2.20000000E+02  0.00000000E+00
  1.60000000E+02  2.00000000E+02  0.00000000E+00
  1.60000000E+02  1.80000000E+02  0.00000000E+00
  1.60000000E+02  1.60000000E+02  0.00000000E+00
  1.60000000E+02  1.40000000E+02  0.00000000E+00
  1.60000000E+02  1.20000000E+02  0.00000000E+00
  1.60000000E+02  1.00000000E+02  0.00000000E+00
  1.60000000E+02  8.00000000E+01  0.00000000E+00
  1.60000000E+02  6.00000000E+01  0.00000000E+00
  1.60000000E+02  4.00000000E+01  0.00000000E+00
  1.60000000E+02  2.00000000E+01  0.00000000E+00
  1.60000000E+02  4.99600361E-14  0.00000000E+00
  1.80000000E+02  3.00000000E+02  0.00000000E+00
  1.80000000E+02  2.80000000E+02  0.00000000E+00
  1.80000000E+02  2.60000000E+02  0.00000000E+00
  1.80000000E+02  2.40000000E+02  0.00000000E+00
  1.80000000E+02  2.20000000E+02  0.00000000E+00
  1.80000000E+02  2.00000000E+02  0.00000000E+00
  1.80000000E+02  1.80000000E+02  0.00000000E+00
  1.80000000E+02  1.60000000E+02  0.00000000E+00
  1.80000000E+02  1.40000000E+02  0.00000000E+00
  1.80000000E+02  1.20000000E+02  0.00000000E+00
  1.80000000E+02  1.00000000E+02  0.00000000E+00
  1.80000000E+02  8.00000000E+01  0.00000000E+00
  1.80000000E+02  6.00000000E+01  0.00000000E+00
  1.80000000E+02  4.00000000E+01  0.00000000E+00
  1.80000000E+02  2.00000000E+01  0.00000000E+00
  1.80000000E+02  4.99600361E-14  0.00000000E+00
  2.00000000E+02  3.00000000E+02  0.00000000E+00
  2.00000000E+02  2.80000000E+02  0.00000000E+00
  2.00000000E+02  2.60000000E+02  0.00000000E+00
  2.00000000E+02  2.40000000E+02  0.00000000E+00
  2.00000000E+02  2.20000000E+02  0.00000000E+00
  2.00000000E+02  2.00000000E+02  0.00000000E+00
  2.00000000E+02  1.80000000E+02  0.00000000E+00
  2.00000000E+02  1.60000000E+02  0.00000000E+00
  2.00000000E+02  1.40000000E+02  0.00000000E+00
  2.00000000E+02  1.20000000E+02  0.00000000E+00
  2.00000000E+02  1.00000000E+02  0.00000000E+00
  2.00000000E+02  8.00000000E+01  0.00000000E+00
  2.00000000E+02  6.00000000E+01  0.00000000E+00
  2.00000000E+02  4.00000000E+01  0.00000000E+00
  2.00000000E+02  2.00000000E+01  0.00000000E+00
  2.00000000E+02  4.99600361E-14  0.00000000E+00
  2.20000000E+02  3.00000000E+02  0.00000000E+00
  2.20000000E+02  2.80000000E+02  0.00000000E+00
  2.20000000E+02  2.60000000E+02  0.00000000E+00
  2.20000000E+02  2.40000000E+02  0.00000000E+00
  2.20000000E+02  2.20000000E+02  0.00000000E+00
  2.20000000E+02  2.00000000E+02  0.00000000E+00
  2.20000000E+02  1.80000000E+02  0.00000000E+00
  2.20000000E+02  1.60000000E+02  0.00000000E+00
  2.20000000E+02  1.40000000E+02  0.00000000E+00
  2.20000000E+02  1.20000000E+02  0.00000000E+00
  2.20000000E+02  1.00000000E+02  0.00000000E+00
  2.20000000E+02  8.00000000E+01  0.00000000E+00
  2.20000000E+02  6.00000000E+01  0.00000000E+00
  2.20000000E+02  4.00000000E+01  0.00000000E+00
  2.20000000E+02  2.00000000E+01  0.00000000E+00
  2.20000000E+02  4.99600361E-14  0.00000000E+00
  2.40000000E+02  3.00000000E+02  0.00000000E+00
  2.40000000E+02  2.80000000E+02  0.00000000E+00
  2.40000000E+02  2.60000000E+02  0.00000000E+00
  2.40000000E+02  2.40000000E+02  0.00000000E+00
  2.40000000E+02  2.20000000E+02  0.00000000E+00
  2.40000000E+02  2.00000000E+02  0.00000000E+00
  2.40000000E+02  1.80000000E+02  0.00000000E+00
  2.40000000E+02  1.60000000E+02  0.00000000E+00
  2.40000000E+02  1.40000000E+02  0.00000000E+00
  2.40000000E+02  1.20000000E+02  0.00000000E+00
  2.40000000E+02  1.00000000E+02  0.00000000E+00
  2.40000000E+02  8.00000000E+01  0.00000000E+00
  2.40000000E+02  6.00000000E+01  0.00000000E+00
  2.40000000E+02  4.00000000E+01  0.00000000E+00
  2.40000000E+02  2.00000000E+01  0.00000000E+00
  2.40000000E+02  4.99600361E-14  0.00000000E+00
  2.60000000E+02  3.00000000E+02  0.00000000E+00
  2.60000000E+02  2.80000000E+02  0.00000000E+00
  2.60000000E+02  2.60000000E+02  0.00000000E+00
  2.60000000E+02  2.40000000E+02  0.00000000E+00
  2.60000000E+02  2.20000000E+02  0.00000000E+00
  2.60000000E+02  2.00000000E+02  0.00000000E+00
  2.60000000E+02  1.80000000E+02  0.00000000E+00
  2.60000000E+02  1.60000000E+02  0.00000000E+00
  2.60000000E+02  1.40000000E+02  0.00000000E+00
  2.60000000E+02  1.20000000E+02  0.00000000E+00
  2.60000000E+02  1.00000000E+02  0.00000000E+00
  2.60000000E+02  8.00000000E+01  0.00000000E+00
  2.60000000E+02  6.00000000E+01  0.00000000E+00
  2.60000000E+02  4.00000000E+01  0.00000000E+00
  2.60000000E+02  2.00000000E+01  0.00000000E+00
  2.60000000E+02  4.99600361E-14  0.00000000E+00
  2.80000000E+02  3.00000000E+02  0.00000000E+00
  2.80000000E+02  2.80000000E+02  0.00000000E+00
  2.80000000E+02  2.60000000E+02  0.00000000E+00
  2.80000000E+02  2.40000000E+02  0.00000000E+00
  2.80000000E+02  2.20000000E+02  0.00000000E+00
  2.80000000E+02  2.00000000E+02  0.00000000E+00
  2.80000000E+02  1.80000000E+02  0.00000000E+00
  2.80000000E+02  1.60000000E+02  0.00000000E+00
  2.80000000E+02  1.40000000E+02  0.00000000E+00
  2.80000000E+02  1.20000000E+02  0.00000000E+00
  2.80000000E+02  1.00000000E+02  0.00000000E+00
  2.80000000E+02  8.00000000E+01  0.00000000E+00
  2.80000000E+02  6.00000000E+01  0.00000000E+00
  2.80000000E+02  4.00000000E+01  0.00000000E+00
  2.80000000E+02  2.00000000E+01  0.00000000E+00
  2.80000000E+02  4.99600361E-14  0.00000000E+00
  3.00000000E+02  3.00000000E+02  0.00000000E+00
  3.00000000E+02  2.80000000E+02  0.00000000E+00
  3.00000000E+02  2.60000000E+02  0.00000000E+00
  3.00000000E+02  2.40000000E+02  0.00000000E+00
  3.00000000E+02  2.20000000E+02  0.00000000E+00
  3.00000000E+02  2.00000000E+02  0.00000000E+00
  3.00000000E+02  1.80000000E+02  0.00000000E+00
  3.00000000E+02  1.60000000E+02  0.00000000E+00
  3.00000000E+02  1.40000000E+02  0.00000000E+00
  3.00000000E+02  1.20000000E+02  0.00000000E+00
  3.00000000E+02  1.00000000E+02  0.00000000E+00
  3.00000000E+02  8.00000000E+01  0.00000000E+00
  3.00000000E+02  6.00000000E+01  0.00000000E+00
  3.00000000E+02  4.00000000E+01  0.00000000E+00
  3.00000000E+02  2.00000000E+01  0.00000000E+00
  3.00000000E+02  4.99600361E-14  0.00000000E+00
  3.20000000E+02  3.00000000E+02  0.00000000E+00
  3.20000000E+02  2.80000000E+02  0.00000000E+00
  3.20000000E+02  2.60000000E+02  0.00000000E+00
  3.20000000E+02  2.40000000E+02  0.00000000E+00
  3.20000000E+02  2.20000000E+02  0.00000000E+00
  3.20000000E+02  2.00000000E+02  0.00000000E+00
  3.20000000E+02  1.80000000E+02  0.00000000E+00
  3.20000000E+02  1.60000000E+02  0.00000000E+00
  3.20000000E+02  1.40000000E+02  0.00000000E+00
  3.20000000E+02  1.20000000E+02  0.00000000E+00
  3.20000000E+02  1.00000000E+02  0.00000000E+00
  3.20000000E+02  8.00000000E+01  0.00000000E+00
  3.20000000E+02  6.00000000E+01  0.00000000E+00
  3.20000000E+02  4.00000000E+01  0.00000000E+00
  3.20000000E+02  2.00000000E+01  0.00000000E+00
  3.20000000E+02  4.99600361E-14  0.00000000E+00
  3.40000000E+02  3.00000000E+02  0.00000000E+00
  3.40000000E+02  2.80000000E+02  0.00000000E+00
  3.40000000E+02  2.60000000E+02  0.00000000E+00
  3.40000000E+02  2.40000000E+02  0.00000000E+00
  3.40000000E+02  2.20000000E+02  0.00000000E+00
  3.40000000E+02  2.00000000E+02  0.00000000E+00
  3.40000000E+02  1.80000000E+02  0.00000000E+00
  3.40000000E+02  1.60000000E+02  0.00000000E+00
  3.40000000E+02  1.40000000E+02  0.00000000E+00
  3.40000000E+02  1.20000000E+02  0.00000000E+00
  3.40000000E+02  1.00000000E+02  0.00000000E+00
  3.40000000E+02  8.00000000E+01  0.00000000E+00
  3.40000000E+02  6.00000000E+01  0.00000000E+00
  3.40000000E+02  4.00000000E+01  0.00000000E+00
  3.40000000E+02  2.00000000E+01  0.00000000E+00
  3.40000000E+02  4.99600361E-14  0.00000000E+00
  3.60000000E+02  3.00000000E+02  0.00000000E+00
  3.60000000E+02  2.80000000E+02  0.00000000E+00
  3.60000000E+02  2.60000000E+02  0.00000000E+00
  3.60000000E+02  2.40000000E+02  0.00000000E+00
  3.60000000E+02  2.20000000E+02  0.00000000E+00
  3.60000000E+02  2.00000000E+02  0.00000000E+00
  3.60000000E+02  1.80000000E+02  0.00000000E+00
  3.60000000E+02  1.60000000E+02  0.00000000E+00
  3.60000000E+02  1.40000000E+02  0.00000000E+00
  3.60000000E+02  1.20000000E+02  0.00000000E+00
  3.60000000E+02  1.00000000E+02  0.00000000E+00
  3.60000000E+02  8.00000000E+01  0.00000000E+00
  3.60000000E+02  6.00000000E+01  0.00000000E+00
  3.60000000E+02  4.00000000E+01  0.00000000E+00
  3.60000000E+02  2.00000000E+01  0.00000000E+00
  3.60000000E+02  4.99600361E-14  0.00000000E+00
  3.80000000E+02  3.00000000E+02  0.00000000E+00
  3.80000000E+02  2.80000000E+02  0.00000000E+00
  3.80000000E+02  2.60000000E+02  0.00000000E+00
  3.80000000E+02  2.40000000E+02  0.00000000E+00
  3.80000000E+02  2.20000000E+02  0.00000000E+00
  3.80000000E+02  2.00000000E+02  0.00000000E+00
  3.80000000E+02  1.80000000E+02  0.00000000E+00
  3.80000000E+02  1.60000000E+02  0.00000000E+00
  3.80000000E+02  1.40000000E+02  0.00000000E+00
  3.80000000E+02  1.20000000E+02  0.00000000E+00
  3.80000000E+02  1.00000000E+02  0.00000000E+00
  3.80000000E+02  8.00000000E+01  0.00000000E+00
  3.80000000E+02  6.00000000E+01  0.00000000E+00
  3.80000000E+02  4.00000000E+01  0.00000000E+00
  3.80000000E+02  2.00000000E+01  0.00000000E+00
  3.80000000E+02  4.99600361E-14  0.00000000E+00
  4.00000000E+02  3.00000000E+02  0.00000000E+00
  4.00000000E+02  2.80000000E+02  0.00000000E+00
  4.00000000E+02  2.60000000E+02  0.00000000E+00
  4.00000000E+02  2.40000000E+02  0.00000000E+00
  4.00000000E+02  2.20000000E+02  0.00000000E+00
  4.00000000E+02  2.00000000E+02  0.00000000E+00
  4.00000000E+02  1.80000000E+02  0.00000000E+00
  4.00000000E+02  1.60000000E+02  0.00000000E+00
  4.00000000E+02  1.40000000E+02  0.00000000E+00
  4.00000000E+02  1.20000000E+02  0.00000000E+00
  4.00000000E+02  1.00000000E+02  0.00000000E+00
  4.00000000E+02  8.00000000E+01  0.00000000E+00
  4.00000000E+02  6.00000000E+01  0.00000000E+00
  4.00000000E+02  4.00000000E+01  0.00000000E+00
  4.00000000E+02  2.00000000E+01  0.00000000E+00
  4.00000000E+02  4.99600361E-14  0.00000000E+00
  4.20000000E+02  3.00000000E+02  0.00000000E+00
  4.20000000E+02  2.80000000E+02  0.00000000E+00
  4.20000000E+02  2.60000000E+02  0.00000000E+00
  4.20000000E+02  2.40000000E+02  0.00000000E+00
  4.20000000E+02  2.20000000E+02  0.00000000E+00
  4.20000000E+02  2.00000000E+02  0.00000000E+00
  4.20000000E+02  1.80000000E+02  0.00000000E+00
  4.20000000E+02  1.60000000E+02  0.00000000E+00
  4.20000000E+02  1.40000000E+02  0.00000000E+00
  4.20000000E+02  1.20000000E+02  0.00000000E+00
  4.20000000E+02  1.00000000E+02  0.00000000E+00
  4.20000000E+02  8.00000000E+01  0.00000000E+00
  4.20000000E+02  6.00000000E+01  0.00000000E+00
  4.20000000E+02  4.00000000E+01  0.00000000E+00
  4.20000000E+02  2.00000000E+01  0.00000000E+00
  4.20000000E+02  4.99600361E-14  0.00000000E+00
  4.40000000E+02  3.00000000E+02  0.00000000E+00
  4.40000000E+02  2.80000000E+02  0.00000000E+00
  4.40000000E+02  2.60000000E+02  0.00000000E+00
  4.40000000E+02  2.40000000E+02  0.00000000E+00
  4.40000000E+02  2.20000000E+02  0.00000000E+00
  4.40000000E+02  2.00000000E+02  0.00000000E+00
  4.40000000E+02  1.80000000E+02  0.00000000E+00
  4.40000000E+02  1.60000000E+02  0.00000000E+00
  4.40000000E+02  1.40000000E+02  0.00000000E+00
  4.40000000E+02  1.20000000E+02  0.00000000E+00
  4.40000000E+02  1.00000000E+02  0.00000000E+00
  4.40000000E+02  8.00000000E+01  0.00000000E+00
  4.40000000E+02  6.00000000E+01  0.00000000E+00
  4.40000000E+02  4.00000000E+01  0.00000000E+00
  4.40000000E+02  2.00000000E+01  0.00000000E+00
  4.40000000E+02  4.99600361E-14  0.00000000E+00
  4.60000000E+02  3.00000000E+02  0.00000000E+00
  4.60000000E+02  2.80000000E+02  0.00000000E+00
  4.60000000E+02  2.60000000E+02  0.00000000E+00
  4.60000000E+02  2.40000000E+02  0.00000000E+00
  4.60000000E+02  2.20000000E+02  0.00000000E+00
  4.60000000E+02  2.00000000E+02  0.00000000E+00
  4.60000000E+02  1.80000000E+02  0.00000000E+00
  4.60000000E+02  1.60000000E+02  0.00000000E+00
  4.60000000E+02  1.40000000E+02  0.00000000E+00
  4.60000000E+02  1.20000000E+02  0.00000000E+00
  4.60000000E+02  1.00000000E+02  0.00000000E+00
  4.60000000E+02  8.00000000E+01  0.00000000E+00
  4.60000000E+02  6.00000000E+01  0.00000000E+00
  4.60000000E+02  4.00000000E+01  0.00000000E+00
  4.60000000E+02  2.00000000E+01  0.00000000E+00
  4.60000000E+02  4.99600361E-14  0.00000000E+00
  4.80000000E+02  3.00000000E+02  0.00000000E+00
  4.80000000E+02  2.80000000E+02  0.00000000E+00
  4.80000000E+02  2.60000000E+02  0.00000000E+00
  4.80000000E+02  2.40000000E+02  0.00000000E+00
  4.80000000E+02  2.20000000E+02  0.00000000E+00
  4.80000000E+02  2.00000000E+02  0.00000000E+00
  4.80000000E+02  1.80000000E+02  0.00000000E+00
  4.80000000E+02  1.60000000E+02  0.00000000E+00
  4.80000000E+02  1.40000000E+02  0.00000000E+00
  4.80000000E+02  1.20000000E+02  0.00000000E+00
  4.80000000E+02  1.00000000E+02  0.00000000E+00
  4.80000000E+02  8.00000000E+01  0.00000000E+00
  4.80000000E+02  6.00000000E+01  0.00000000E+00
  4.80000000E+02  4.00000000E+01  0.00000000E+00
  4.80000000E+02  2.00000000E+01  0.00000000E+00
  4.80000000E+02  4.99600361E-14  0.00000000E+00
  5.00000000E+02  3.00000000E+02  0.00000000E+00
  5.00000000E+02  2.80000000E+02  0.00000000E+00
  5.00000000E+02  2.60000000E+02  0.00000000E+00
  5.00000000E+02  2.40000000E+02  0.00000000E+00
  5.00000000E+02  2.20000000E+02  0.00000000E+00
  5.00000000E+02  2.00000000E+02  0.00000000E+00
  5.00000000E+02  1.80000000E+02  0.00000000E+00
  5.00000000E+02  1.60000000E+02  0.00000000E+00
  5.00000000E+02  1.40000000E+02  0.00000000E+00
  5.00000000E+02  1.20000000E+02  0.00000000E+00
  5.00000000E+02  1.00000000E+02  0.00000000E+00
  5.00000000E+02  8.00000000E+01  0.00000000E+00
  5.00000000E+02  6.00000000E+01  0.00000000E+00
  5.00000000E+02  4.00000000E+01  0.00000000E+00
  5.00000000E+02  2.00000000E+01  0.00000000E+00
  5.00000000E+02  4.99600361E-14  0.00000000E+00
  5.20000000E+02  3.00000000E+02  0.00000000E+00
  5.20000000E+02  2.80000000E+02  0.00000000E+00
  5.20000000E+02  2.60000000E+02  0.00000000E+00
  5.20000000E+02  2.40000000E+02  0.00000000E+00
  5.20000000E+02  2.20000000E+02  0.00000000E+00
  5.20000000E+02  2.00000000E+02  0.00000000E+00
  5.20000000E+02  1.80000000E+02  0.00000000E+00
  5.20000000E+02  1.60000000E+02  0.00000000E+00
  5.20000000E+02  1.40000000E+02  0.00000000E+00
  5.20000000E+02  1.20000000E+02  0.00000000E+00
  5.20000000E+02  1.00000000E+02  0.00000000E+00
  5.20000000E+02  8.00000000E+01  0.00000000E+00
  5.20000000E+02  6.00000000E+01  0.00000000E+00
  5.20000000E+02  4.00000000E+01  0.00000000E+00
  5.20000000E+02  2.00000000E+01  0.00000000E+00
  5.20000000E+02  4.99600361E-14  0.00000000E+00
  5.40000000E+02  3.00000000E+02  0.00000000E+00
  5.40000000E+02  2.80000000E+02  0.00000000E+00
  5.40000000E+02  2.60000000E+02  0.00000000E+00
  5.40000000E+02  2.40000000E+02  0.00000000E+00
  5.40000000E+02  2.20000000E+02  0.00000000E+00
  5.40000000E+02  2.00000000E+02  0.00000000E+00
  5.40000000E+02  1.80000000E+02  0.00000000E+00
  5.40000000E+02  1.60000000E+02  0.00000000E+00
  5.40000000E+02  1.40000000E+02  0.00000000E+00
  5.40000000E+02  1.20000000E+02  0.00000000E+00
  5.40000000E+02  1.00000000E+02  0.00000000E+00
  5.40000000E+02  8.00000000E+01  0.00000000E+00
  5.40000000E+02  6.00000000E+01  0.00000000E+00
  5.40000000E+02  4.00000000E+01  0.00000000E+00
  5.40000000E+02  2.00000000E+01  0.00000000E+00
  5.40000000E+02  4.99600361E-14  0.00000000E+00
  5.60000000E+02  3.00000000E+02  0.00000000E+00
  5.60000000E+02  2.80000000E+02  0.00000000E+00
  5.60000000E+02  2.60000000E+02  0.00000000E+00
  5.60000000E+02  2.40000000E+02  0.00000000E+00
  5.60000000E+02  2.20000000E+02  0.00000000E+00
  5.60000000E+02  2.00000000E+02  0.00000000E+00
  5.60000000E+02  1.80000000E+02  0.00000000E+00
  5.60000000E+02  1.60000000E+02  0.00000000E+00
  5.60000000E+02  1.40000000E+02  0.00000000E+00
  5.60000000E+02  1.20000000E+02  0.00000000E+00
  5.60000000E+02  1.00000000E+02  0.00000000E+00
  5.60000000E+02  8.00000000E+01  0.00000000E+00
  5.60000000E+02  6.00000000E+01  0.00000000E+00
  5.60000000E+02  4.00000000E+01  0.00000000E+00
  5.60000000E+02  2.00000000E+01  0.00000000E+00
  5.60000000E+02  4.99600361E-14  0.00000000E+00
  5.80000000E+02  3.00000000E+02  0.00000000E+00
  5.80000000E+02  2.80000000E+02  0.00000000E+00
  5.80000000E+02  2.60000000E+02  0.00000000E+00
  5.80000000E+02  2.40000000E+02  0.00000000E+00
  5.80000000E+02  2.20000000E+02  0.00000000E+00
  5.80000000E+02  2.00000000E+02  0.00000000E+00
  5.80000000E+02  1.80000000E+02  0.00000000E+00
  5.80000000E+02  1.60000000E+02  0.00000000E+00
  5.80000000E+02  1.40000000E+02  0.00000000E+00
  5.80000000E+02  1.20000000E+02  0.00000000E+00
  5.80000000E+02  1.00000000E+02  0.00000000E+00
  5.80000000E+02  8.00000000E+01  0.00000000E+00
  5.80000000E+02  6.00000000E+01  0.00000000E+00
  5.80000000E+02  4.00000000E+01  0.00000000E+00
  5.80000000E+02  2.00000000E+01  0.00000000E+00
  5.80000000E+02  4.99600361E-14  0.00000000E+00
  6.00000000E+02  3.00000000E+02  0.00000000E+00
  6.00000000E+02  2.80000000E+02  0.00000000E+00
  6.00000000E+02  2.60000000E+02  0.00000000E+00
  6.00000000E+02  2.40000000E+02  0.00000000E+00
  6.00000000E+02  2.20000000E+02  0.00000000E+00
  6.00000000E+02  2.00000000E+02  0.00000000E+00
  6.00000000E+02  1.80000000E+02  0.00000000E+00
  6.00000000E+02  1.60000000E+02  0.00000000E+00
  6.00000000E+02  1.40000000E+02  0.00000000E+00
  6.00000000E+02  1.20000000E+02  0.00000000E+00
  6.00000000E+02  1.00000000E+02  0.00000000E+00
  6.00000000E+02  8.00000000E+01  0.00000000E+00
  6.00000000E+02  6.00000000E+01  0.00000000E+00
  6.00000000E+02  4.00000000E+01  0.00000000E+00
  6.00000000E+02  2.00000000E+01  0.00000000E+00
  6.00000000E+02  4.99600361E-14  0.00000000E+00
CELLS       450      2250
         4           0           1          17          16
         4           1           2          18          17
         4           2           3          19          18
         4           3           4          20          19
         4           4           5          21          20
         4           5           6          22          21
         4           6           7          23          22
         4           7           8          24          23
         4           8           9          25          24
         4           9          10          26          25
         4          10          11          27          26
         4          11          12          28          27
         4          12          13          29          28
         4          13          14          30          29
         4          14          15          31          30
         4          16          17          33          32
         4          17          18          34          33
         4          18          19          35          34
         4          19          20          36          35
         4          20          21          37          36
         4          21          22          38          37
         4          22          23          39          38
         4          23          24          40          39
         4          24          25          41          40
         4          25          26          42          41
         4          26          27          43          42
         4          27          28          44          43
         4          28          29          45          44
         4          29          30          46          45
         4          30          31          47          46
         4          32          33          49          48
         4          33          34          50          49
         4          34          35          51          50
         4          35          36          52          51
         4          36          37          53          52
         4          37          38          54          53
         4          38          39          55          54
         4          39          40          56          55
         4          40          41          57          56
         4          41          42          58          57
         4          42          43          59          58
         4          43          44          60          59
         4          44          45          61          60
         4          45          46          62          61
         4          46          47          63          62
         4          48          49          65          64
         4          49          50          66          65
         4          50          51          67          66
         4          51          52          68          67
         4          52          53          69          68
         4          53          54          70          69
         4          54          55          71          70
         4          55          56          72          71
         4          56          57          73          72
         4          57          58          74          73
         4          58          59          75          74
         4          59          60          76          75
         4          60          61          77          76
         4          61          62          78          77
         4          62          63          79          78
         4          64          65          81          80
         4          65          66          82          81
         4          66          67          83          82
         4          67          68          84          83
         4          68          69          85          84
         4          69          70          86          85
         4          70          71          87          86
         4          71          72          88          87
         4          72          73          89          88
         4          73          74          90          89
         4          74          75          91          90
         4          75          76          92          91
         4          76          77          93          92
         4          77          78          94          93
         4          78          79          95          94
         4          80          81          97          96
         4          81          82          98          97
         4          82          83          99          98
         4          83          84         100          99
         4          84          85         101         100
         4          85          86         102         101
         4          86          87         103         102
         4          87          88         104         103
         4          88          89         105         104
         4          89          90         106         105
         4          90          91         107         106
         4          91          92         108         107
         4          92          93         109         108
         4          93          94         110         109
         4          94          95         111         110
         4          96          97         113         112
         4          97          98         114         113
         4          98          99         115         114
         4          99         100         116         115
         4         100         101         117         116
         4         101         102         118         117
         4         102         103         119         118
         4         103         104         120         119
         4         104         105         121         120
         4         105         106         122         121
         4         106         107         123         122
         4         107         108         124         123
         4         108         109         125         124
         4         109         110         126         125
         4         110         111         127         126
         4         112         113         129         128
         4         113         114         130         129
         4         114         115         131         130
         4         115         116         132         131
         4         116         117         133         132
         4         117         118         134         133
         4         118         119         135         134
         4         119         120         136         135
         4         120         121         137         136
         4         121         122         138         137
         4         122         123         139         138
         4         123         124         140         139
         4         124         125         141         140
         4         125         126         142         141
         4         126         127         143         142
         4         128         129         145         144
         4         129         130         146         145
         4         130         131         147         146
         4         131         132         148         147
         4         132         133         149         148
         4         133         134         150         149
         4         134         135         151         150
         4         135         136         152         151
         4         136         137         153         152
         4         137         138         154         153
         4         138         139         155         154
         4         139         140         156         155
         4         140         141         157         156
         4         141         142         158         157
         4         142         143         159         158
         4         144         145         161         160
         4         145         146         162         161
         4         146         147         163         162
         4         147         148         164         163
         4         148         149         165         164
         4         149         150         166         165
         4         150         151         167         166
         4         151         152         168         167
         4         152         153         169         168
         4         153         154         170         169
         4         154         155         171         170
         4         155         156         172         171
         4         156         157         173         172
         4         157         158         174         173
         4         158         159         175         174
         4         160         161         177         176
         4         161         162         178         177
         4         162         163         179         178
         4         163         164         180         179
         4         164         165         181         180
         4         165         166         182         181
         4         166         167         183         182
         4         167         168         184         183
         4         168         169         185         184
         4         169         170         186         185
         4         170         171         187         186
         4         171         172         188         187
         4         172         173         189         188
         4         173         174         190         189
         4         174         175         191         190
         4         176         177         193         192
         4         177         178         194         193
         4         178         179         195         194
         4         179         180         196         195
         4         180         181         197         196
         4         181         182         198         197
         4         182         183         199         198
         4         183         184         200         199
         4         184         185         201         200
         4         185         186         202         201
         4         186         187         203         202
         4         187         188         204         203
         4         188         189         205         204
         4         189         190         206         205
         4         190         191         207         206
         4         192         193         209         208
         4         193         194         210         209
         4         194         195         211         210
         4         195         196         212         211
         4         196         197         213         212
         4         197         198         214         213
         4         198         199         215         214
         4         199         200         216         215
         4         200         201         217         216
         4         201         202         218         217
         4         202         203         219         218
         4         203         204         220         219
         4         204         205         221         220
         4         205         206         222         221
         4         206         207         223         222
         4         208         209         225         224
         4         209         210         226         225
         4         210         211         227         226
         4         211         212         228         227
         4         212         213         229         228
         4         213         214         230         229
         4         214         215         231         230
         4         215         216         232         231
         4         216         217         233         232
         4         217         218         234         233
         4         218         219         235         234
         4         219         220         236         235
         4         220         221         237         236
         4         221         222         238         237
         4         222         223         239         238
         4         224         225         241         240
         4         225         226         242         241
         4         226         227         243         242
         4         227         228         244         243
         4         228         229         245         244
         4         229         230         246         245
         4         230         231         247         246
         4         231         232         248         247
         4         232         233         249         248
         4         233         234         250         249
         4         234         235         251         250
         4         235         236         252         251
         4         236         237         253         252
         4         237         238         254         253
         4         238         239         255         254
         4         240         241         257         256
         4         241         242         258         257
         4         242         243         259         258
         4         243         244         260         259
         4         244         245         261         260
         4         245         246         262         261
         4         246         247         263         262
         4         247         248         264         263
         4         248         249         265         264
         4         249         250         266         265
         4         250         251         267         266
         4         251         252         268         267
         4         252         253         269         268
         4         253         254         270         269
         4         254         255         271         270
         4         256         257         273         272
         4         257         258         274         273
         4         258         259         275         274
         4         259         260         276         275
         4         260         261         277         276
         4         261         262         278         277
         4         262         263         279         278
         4         263         264         280         279
         4         264         265         281         280
         4         265         266         282         281
         4         266         267         283         282
         4         267         268         284         283
         4         268         269         285         284
         4         269         270         286         285
         4         270         271         287         286
         4         272         273         289         288
         4         273         274         290         289
         4         274         275         291         290
         4         275         276         292         291
         4         276         277         293         292
         4         277         278         294         293
         4         278         279         295         294
         4         279         280         296         295
         4         280         281         297         296
         4         281         282         298         297
         4         282         283         299         298
         4         283         284         300         299
         4         284         285         301         300
         4         285         286         302         301
         4         286         287         303         302
         4         288         289         305         304
         4         289         290         306         305
         4         290         291         307         306
         4         291         292         308         307
         4         292         293         309         308
         4         293         294         310         309
         4         294         295         311         310
         4         295         296         312         311
         4         296         297         313         312
         4         297         298         314         313
         4         298         299         315         314
         4         299         300         316         315
         4         300         301         317         316
         4         301         302         318         317
         4         302         303         319         318
         4         304         305         321         320
         4         305         306         322         321
         4         306         307         323         322
         4         307         308         324         323
         4         308         309         325         324
         4         309         310         326         325
         4         310         311         327         326
         4         311         312         328         327
         4         312         313         329         328
         4         313         314         330         329
         4         314         315         331         330
         4         315         316         332         331
         4         316         317         333         332
         4         317         318         334         333
         4         318         319         335         334
         4         320         321         337         336
         4         321         322         338         337
         4         322         323         339         338
         4         323         324         340         339
         4         324         325         341         340
         4         325         326         342         341
         4         326         327         343         342
         4         327         328         344         343
         4         328         329         345         344
         4         329         330         346         345
         4         330         331         347         346
         4         331         332         348         347
         4         332         333         349         348
         4         333         334         350         349
         4         334         335         351         350
         4         336         337         353         352
         4         337         338         354         353
         4         338         339         355         354
         4         339         340         356         355
         4         340         341         357         356
         4         341         342         358         357
         4         342         343         359         358
         4         343         344         360         359
         4         344         345         361         360
         4         345         346         362         361
         4         346         347         363         362
         4         347         348         364         363
         4         348         349         365         364
         4         349         350         366         365
         4         350         351         367         366
         4         352         353         369         368
         4         353         354         370         369
         4         354         355         371         370
         4         355         356         372         371
         4         356         357         373         372
         4         357         358         374         373
         4         358         359         375         374
         4         359         360         376         375
         4         360         361         377         376
         4         361         362         378         377
         4         362         363         379         378
         4         363         364         380         379
         4         364         365         381         380
         4         365         366         382         381
         4         366         367         383         382
         4         368         369         385         384
         4         369         370         386         385
         4         370         371         387         386
         4         371         372         388         387
         4         372         373         389         388
         4         373         374         390         389
         4         374         375         391         390
         4         375         376         392         391
         4         376         377         393         392
         4         377         378         394         393
         4         378         379         395         394
         4         379         380         396         395
         4         380         381         397         396
         4         381         382         398         397
         4         382         383         399         398
         4         384         385         401         400
         4         385         386         402         401
         4         386         387         403         402
         4         387         388         404         403
         4         388         389         405         404
         4         389         390         406         405
         4         390         391         407         406
         4         391         392         408         407
         4         392         393         409         408
         4         393         394         410         409
         4         394         395         411         410
         4         395         396         412         411
         4         396         397         413         412
         4         397         398         414         413
         4         398         399         415         414
         4         400         401         417         416
         4         401         402         418         417
         4         402         403         419         418
         4         403         404         420         419
         4         404         405         421         420
         4         405         406         422         421
         4         406         407         423         422
         4         407         408         424         423
         4         408         409         425         424
         4         409         410         426         425
         4         410         411         427         426
         4         411         412         428         427
         4         412         413         429         428
         4         413         414         430         429
         4         414         415         431         430
         4         416         417         433         432
         4         417         418         434         433
         4         418         419         435         434
         4         419         420         436         435
         4         420         421         437         436
         4         421         422         438         437
         4         422         423         439         438
         4         423         424         440         439
         4         424         425         441         440
         4         425         426         442         441
         4         426         427         443         442
         4         427         428         444         443
         4         428         429         445         444
         4         429         430         446         445
         4         430         431         447         446
         4         432         433         449         448
         4         433         434         450         449
         4         434         435         451         450
         4         435         436         452         451
         4         436         437         453         452
         4         437         438         454         453
         4         438         439         455         454
         4         439         440         456         455
         4         440         441         457         456
         4         441         442         458         457
         4         442         443         459         458
         4         443         444         460         459
         4         444         445         461         460
         4         445         446         462         461
         4         446         447         463         462
         4         448         449         465         464
         4         449         450         466         465
         4         450         451         467         466
         4         451         452         468         467
         4         452         453         469         468
         4         453         454         470         469
         4         454         455         471         470
         4         455         456         472         471
         4         456         457         473         472
         4         457         458         474         473
         4         458         459         475         474
         4         459         460         476         475
         4         460         461         477         476
         4         461         462         478         477
         4         462         463         479         478
         4         464         465         481         480
         4         465         466         482         481
         4         466         467         483         482
         4         467         468         484         483
         4         468         469         485         484
         4         469         470         486         485
         4         470         471         487         486
         4         471         472         488         487
         4         472         473         489         488
         4         473         474         490         489
         4         474         475         491         490
         4         475         476         492         491
         4         476         477         493         492
         4         477         478         494         493
         4         478         479         495         494
CELL_TYPES        450
9
9
9
9
9
9
9
9
9
9
9
9
9
9
9
9
9
9
9
9
9
9
9
9
9
9
9
9
9
9
9
9
9
9
9
9
9
9
9
9
9
9
9
9
9
9
9
9
9
9
9
9
9
9
9
9
9
9
9
9
9
9
9
9
9
9
9
9
9
9
9
9
9
9
9
9
9
9
9
9
9
9
9
9
9
9
9
9
9
9
9
9
9
9
9
9
9
9
9
9
9
9
9
9
9
9
9
9
9
9
9
9
9
9
9
9
9
9
9
9
9
9
9
9
9
9
9
9
9
9
9
9
9
9
9
9
9
9
9
9
9
9
9
9
9
9
9
9
9
9
9
9
9
9
9
9
9
9
9
9
9
9
9
9
9
9
9
9
9
9
9
9
9
9
9
9
9
9
9
9
9
9
9
9
9
9
9
9
9
9
9
9
9
9
9
9
9
9
9
9
9
9
9
9
9
9
9
9
9
9
9
9
9
9
9
9
9
9
9
9
9
9
9
9
9
9
9
9
9
9
9
9
9
9
9
9
9
9
9
9
9
9
9
9
9
9
9
9
9
9
9
9
9
9
9
9
9
9
9
9
9
9
9
9
9
9
9
9
9
9
9
9
9
9
9
9
9
9
9
9
9
9
9
9
9
9
9
9
9
9
9
9
9
9
9
9
9
9
9
9
9
9
9
9
9
9
9
9
9
9
9
9
9
9
9
9
9
9
9
9
9
9
9
9
9
9
9
9
9
9
9
9
9
9
9
9
9
9
9
9
9
9
9
9
9
9
9
9
9
9
9
9
9
9
9
9
9
9
9
9
9
9
9
9
9
9
9
9
9
9
9
9
9
9
9
9
9
9
9
9
9
9
9
9
9
9
9
9
9
9
9
9
9
9
9
9
9
9
9
9
9
9
9
9
9
9
9
9
9
9
9
9
9
9
9
9
9
9
9
9
9
9
9
9
9
9
9
9
9
9
9
9
9
9
9
9
9
9
9
9
9
9
9
9
9
9
9
9
9
9
POINT_DATA       496
SCALARS p double 
LOOKUP_TABLE default
   35684621.3441612     
   35684625.7241534     
   35684637.9105026     
   35684656.1175077     
   35684678.8465837     
   35684704.9428393     
   35684733.5769834     
   35684764.1817455     
   35684796.2778542     
   35684828.7395552     
   35684859.8730745     
   35684888.1419518     
   35684912.1874255     
   35684930.7701181     
   35684942.7202015     
   35684946.8937782     
   35649641.9766637     
   35649646.3184687     
   35649658.3831159     
   35649676.3827351     
   35649698.8337010     
   35649724.5992580     
   35649752.8611695     
   35649783.0543555     
   35649814.7003388     
   35649846.6926259     
   35649877.3696374     
   35649905.2210868     
   35649928.9102257     
   35649947.2172722     
   35649958.9903637     
   35649963.1022676     
   35544794.6385813     
   35544798.8592523     
   35544810.5505296     
   35544827.9260751     
   35544849.5464517     
   35544874.3305842     
   35544901.4882549     
   35544930.4584270     
   35544960.7673334     
   35544991.3657144     
   35545020.6860755     
   35545047.2958206     
   35545069.9241857     
   35545087.4101474     
   35545098.6557083     
   35545102.5837136     
   35370351.5210353     
   35370355.5255378     
   35370366.5612145     
   35370382.8760579     
   35370403.1260317     
   35370426.3079856     
   35370451.6632032     
   35370478.6340097     
   35370506.7556316     
   35370535.0739650     
   35370562.1724384     
   35370586.7456349     
   35370607.6322016     
   35370623.7685303     
   35370634.1460300     
   35370637.7711776     
   35126765.8363384     
   35126769.5028167     
   35126779.5558003     
   35126794.3628790     
   35126812.7323176     
   35126833.7464728     
   35126856.6631071     
   35126880.9111739     
   35126906.0444808     
   35126931.2467445     
   35126955.3057932     
   35126977.0904171     
   35126995.5898019     
   35127009.8741297     
   35127019.0587717     
   35127022.2672837     
   34814671.1556965     
   34814674.3414494     
   34814683.0640840     
   34814695.9430026     
   34814711.9836271     
   34814730.3266095     
   34814750.2220749     
   34814771.0733125     
   34814792.4623761     
   34814813.7591999     
   34814834.0127591     
   34814852.3086667     
   34814867.8197477     
   34814879.7831887     
   34814887.4706947     
   34814890.1556160     
   34434880.5661117     
   34434883.1265256     
   34434890.1976977     
   34434900.7739408     
   34434914.0603118     
   34434929.2548795     
   34434945.5851213     
   34434962.3985257     
   34434979.3147705     
   34434995.9573728     
   34435011.6962501     
   34435025.8589063     
   34435037.8310287     
   34435047.0443055     
   34435052.9551840     
   34435055.0179628     
   33988385.5746064     
   33988387.4120562     
   33988392.5864802     
   33988400.4925047     
   33988410.5363193     
   33988422.0254315     
   33988434.2148271     
   33988446.3731372     
   33988458.1109892     
   33988469.3778061     
   33988479.9410264     
   33988489.3842652     
   33988497.3236470     
   33988503.4035265     
   33988507.2884732     
   33988508.6406965     
   33476354.6873932     
   33476355.7446238     
   33476358.8137455     
   33476363.6344070     
   33476369.8124789     
   33476376.8478797     
   33476384.1551435     
   33476391.0302198     
   33476396.9266529     
   33476402.0973822     
   33476406.8758345     
   33476411.0796231     
   33476414.5549101     
   33476417.1777377     
   33476418.8252075     
   33476419.3915959     
   32900131.4349463     
   32900131.6280887     
   32900132.3376907     
   32900133.5822588     
   32900135.1236230     
   32900136.7150474     
   32900138.0965996     
   32900138.8490208     
   32900138.2290143     
   32900136.7250910     
   32900135.1881375     
   32900133.6757015     
   32900132.3536876     
   32900131.2714143     
   32900130.5233957     
   32900130.2459908     
   32261231.4681660     
   32261230.8155825     
   32261228.9796895     
   32261226.0766032     
   32261222.1088448     
   32261217.1290386     
   32261211.2500792     
   32261204.6121645     
   32261196.8628161     
   32261188.1213910     
   32261179.6233590     
   32261172.0922355     
   32261165.7339643     
   32261160.8174533     
   32261157.5931754     
   32261156.4430958     
   31561340.4904520     
   31561338.8563771     
   31561334.0631447     
   31561326.3287464     
   31561315.9225193     
   31561303.2270101     
   31561288.7435571     
   31561273.0019884     
   31561256.6562960     
   31561240.1661111     
   31561224.4227532     
   31561210.5826476     
   31561199.1223943     
   31561190.3860975     
   31561184.7460529     
   31561182.7459474     
   30802310.3021703     
   30802307.4607575     
   30802299.1418567     
   30802285.7966544     
   30802268.0013825     
   30802246.5115196     
   30802222.2452047     
   30802196.2674774     
   30802169.6808707     
   30802143.7151501     
   30802119.9410199     
   30802099.5994857     
   30802083.0724889     
   30802070.7359005     
   30802062.9783765     
   30802060.2506901     
   29986155.0045359     
   29986150.7559763     
   29986138.3633151     
   29986118.6154881     
   29986092.5036333     
   29986061.2689566     
   29986026.3767293     
   29985989.3927961     
   29985951.8874355     
   29985915.3918068     
   29985881.6763634     
   29985852.9315200     
   29985830.6951061     
   29985815.0443973     
   29985805.6284574     
   29985802.4647539     
   29115047.2865033     
   29115041.4302926     
   29115024.4258495     
   29114997.5238327     
   29114962.2760962     
   29114920.5760229     
   29114874.5147740     
   29114826.1858551     
   29114777.6089091     
   29114730.7656446     
   29114687.5497495     
   29114649.8529684     
   29114619.7393165     
   29114598.6855400     
   29114587.1544943     
   29114583.7845897     
   28191313.9313286     
   28191306.2754358     
   28191284.1349479     
   28191249.3536326     
   28191204.3013352     
   28191151.7315457     
   28191094.3497210     
   28191034.7151136     
   28190975.2909652     
   28190918.4200992     
   28190866.3278504     
   28190821.1765188     
   28190784.9791687     
   28190759.3068009     
   28190744.5079817     
   28190739.7569866     
   27217430.8041422     
   27217421.1592858     
   27217393.2346335     
   27217349.8307143     
   27217294.6591127     
   27217231.2490982     
   27217162.7500179     
   27217092.1622941     
   27217022.3395140     
   27216956.0029989     
   27216895.7197321     
   27216843.8255154     
   27216802.2913210     
   27216772.4434377     
   27216754.7543167     
   27216748.9547576     
   26196017.1044052     
   26196005.0290304     
   26195970.4409379     
   26195918.1059086     
   26195853.0802498     
   26195779.2006445     
   26195700.1043216     
   26195619.1652368     
   26195539.6063226     
   26195464.4815489     
   26195396.5892486     
   26195338.3600190     
   26195291.7193281     
   26195257.9982433     
   26195237.8880753     
   26195231.2801402     
   25129826.8918882     
   25129812.3145143     
   25129771.5995082     
   25129711.0914511     
   25129636.6696884     
   25129552.9866762     
   25129464.0357605     
   25129373.5592155     
   25129285.1245466     
   25129202.0070353     
   25129127.1191210     
   25129062.9343922     
   25129011.4390812     
   25128974.1059585     
   25128951.7946604     
   25128944.4581994     
   24021750.0032040     
   24021732.8537696     
   24021685.7083176     
   24021616.7309460     
   24021533.2311828     
   24021440.5192166     
   24021342.6165316     
   24021243.6686557     
   24021147.4597088     
   24021057.3669135     
   24020976.3196539     
   24020906.7997286     
   24020850.8692849     
   24020810.1577665     
   24020785.7088479     
   24020777.6362802     
   22874795.1690586     
   22874775.8947702     
   22874723.0721290     
   22874646.1805361     
   22874553.9470540     
   22874452.8077885     
   22874347.1186404     
   22874241.0794384     
   22874138.5313556     
   22874042.8348566     
   22873956.8445113     
   22873882.9696603     
   22873823.2721181     
   22873779.5000535     
   22873752.9495671     
   22873744.1054860     
   21692085.0336894     
   21692064.1907794     
   21692006.9611384     
   21691923.7583952     
   21691824.3120221     
   21691716.1109644     
   21691604.2272597     
   21691492.8863212     
   21691385.8750708     
   21691286.4103553     
   21691197.1508672     
   21691120.3172599     
   21691057.8518362     
   21691011.5496032     
   21690983.0349084     
   21690973.4123008     
   20476851.2281703     
   20476829.0891084     
   20476768.5352385     
   20476680.8293889     
   20476576.4027820     
   20476463.4807224     
   20476347.6759380     
   20476233.4208300     
   20476124.3717503     
   20476023.4789077     
   20475933.0949520     
   20475855.1379900     
   20475791.3109213     
   20475743.3462812     
   20475713.1908508     
   20475702.8262309     
   19232423.7296962     
   19232400.6649507     
   19232337.9225029     
   19232247.6554535     
   19232140.8174902     
   19232026.1052647     
   19231909.4982346     
   19231795.4800286     
   19231687.4564144     
   19231587.9861636     
   19231499.0345497     
   19231422.1781262     
   19231358.8166116     
   19231310.4963443     
   19231279.3510175     
   19231268.3902066     
   17962221.9705951     
   17962198.3455607     
   17962134.5346888     
   17962043.7728614     
   17961937.5200583     
   17961824.6029701     
   17961711.0767125     
   17961601.2028554     
   17961497.9023662     
   17961403.1795626     
   17961318.5392714     
   17961245.2596825     
   17961184.5031682     
   17961137.5487294     
   17961106.4654147     
   17961095.2289427     
   16669745.1301656     
   16669721.2970910     
   16669657.6977845     
   16669568.8789995     
   16669466.6789030     
   16669359.7598817     
   16669253.8673971     
   16669152.6408193     
   16669058.2366446     
   16668971.9527066     
   16668894.7464561     
   16668827.6029869     
   16668771.6437160     
   16668727.9930966     
   16668698.3884380     
   16668687.3970410     
   15358562.0875482     
   15358538.4363659     
   15358476.6186334     
   15358392.8381738     
   15358298.9639435     
   15358202.9730852     
   15358109.7879367     
   15358021.9955964     
   15357940.8146473     
   15357866.7957306     
   15357800.3128633     
   15357741.9377133     
   15357692.7573292     
   15357654.2517615     
   15357627.8414340     
   15357617.8235883     
   14032301.0057551     
   14032277.9967583     
   14032220.1734066     
   14032145.8396936     
   14032065.8380165     
   14031986.4677750     
   14031911.2657827     
   14031841.5274687     
   14031777.5629933     
   14031719.3371560     
   14031666.8115802     
   14031620.0840220     
   14031579.6989923     
   14031547.4169478     
   14031525.3799368     
   14031517.1267988     
   12694638.6554937     
   12694617.1505982     
   12694567.0559003     
   12694508.9505672     
   12694450.0326497     
   12694393.2599254     
   12694340.9072861     
   12694293.0593521     
   12694249.3606047     
   12694209.6500286     
   12694173.7602713     
   12694141.4922130     
   12694112.7600183     
   12694087.9013629     
   12694070.3761116     
   12694064.2321887     
   11349289.5228962     
   11349272.5549372     
   11349239.0436845     
   11349206.6921160     
   11349175.6841131     
   11349146.8334795     
   11349120.7256643     
   11349096.8429705     
   11349075.0290247     
   11349055.2671757     
   11349037.4750646     
   11349021.4829561     
   11349007.0206789     
   11348993.8713778     
   11348981.3696112     
   11348975.1273184     
   10000000.0000000     
   10000000.0000000     
   10000000.0000000     
   10000000.0000000     
   10000000.0000000     
   10000000.0000000     
   10000000.0000000     
   10000000.0000000     
   10000000.0000000     
   10000000.0000000     
   10000000.0000000     
   10000000.0000000     
   10000000.0000000     
  10000000.00000000     
   10000000.0000000     
   10000000.0000000     
VECTORS u double 
    0.00000E+00        -0.30165E-01         0.00000E+00
    0.00000E+00        -0.27811E-01         0.00000E+00
    0.00000E+00        -0.25505E-01         0.00000E+00
    0.00000E+00        -0.23251E-01         0.00000E+00
    0.00000E+00        -0.21058E-01         0.00000E+00
    0.00000E+00        -0.18928E-01         0.00000E+00
    0.00000E+00        -0.16863E-01         0.00000E+00
    0.00000E+00        -0.14861E-01         0.00000E+00
    0.00000E+00        -0.12916E-01         0.00000E+00
    0.00000E+00        -0.11004E-01         0.00000E+00
    0.00000E+00        -0.91122E-02         0.00000E+00
    0.00000E+00        -0.72419E-02         0.00000E+00
    0.00000E+00        -0.53937E-02         0.00000E+00
    0.00000E+00        -0.35690E-02         0.00000E+00
    0.00000E+00        -0.17702E-02         0.00000E+00
    0.00000E+00         0.00000E+00         0.00000E+00
    0.10316E-02        -0.30203E-01         0.00000E+00
    0.95233E-03        -0.27848E-01         0.00000E+00
    0.86774E-03        -0.25540E-01         0.00000E+00
    0.77966E-03        -0.23286E-01         0.00000E+00
    0.69082E-03        -0.21091E-01         0.00000E+00
    0.60395E-03        -0.18960E-01         0.00000E+00
    0.52159E-03        -0.16894E-01         0.00000E+00
    0.44557E-03        -0.14889E-01         0.00000E+00
    0.37705E-03        -0.12941E-01         0.00000E+00
    0.31509E-03        -0.11025E-01         0.00000E+00
    0.25766E-03        -0.91305E-02         0.00000E+00
    0.20349E-03        -0.72568E-02         0.00000E+00
    0.15155E-03        -0.54050E-02         0.00000E+00
    0.10087E-03        -0.35767E-02         0.00000E+00
    0.50621E-04        -0.17741E-02         0.00000E+00
    0.00000E+00         0.00000E+00         0.00000E+00
    0.20558E-02        -0.30318E-01         0.00000E+00
    0.18964E-02        -0.27958E-01         0.00000E+00
    0.17267E-02        -0.25647E-01         0.00000E+00
    0.15505E-02        -0.23390E-01         0.00000E+00
    0.13733E-02        -0.21192E-01         0.00000E+00
    0.12007E-02        -0.19057E-01         0.00000E+00
    0.10372E-02        -0.16984E-01         0.00000E+00
    0.88631E-03        -0.14972E-01         0.00000E+00
    0.75029E-03        -0.13015E-01         0.00000E+00
    0.62716E-03        -0.11090E-01         0.00000E+00
    0.51291E-03        -0.91853E-02         0.00000E+00
    0.40512E-03        -0.73014E-02         0.00000E+00
    0.30173E-03        -0.54390E-02         0.00000E+00
    0.20086E-03        -0.35998E-02         0.00000E+00
    0.10081E-03        -0.17858E-02         0.00000E+00
    0.00000E+00         0.00000E+00         0.00000E+00
    0.30648E-02        -0.30510E-01         0.00000E+00
    0.28241E-02        -0.28144E-01         0.00000E+00
    0.25684E-02        -0.25827E-01         0.00000E+00
    0.23041E-02        -0.23564E-01         0.00000E+00
    0.20398E-02        -0.21360E-01         0.00000E+00
    0.17835E-02        -0.19217E-01         0.00000E+00
    0.15412E-02        -0.17134E-01         0.00000E+00
    0.13177E-02        -0.15109E-01         0.00000E+00
    0.11160E-02        -0.13138E-01         0.00000E+00
    0.93320E-03        -0.11197E-01         0.00000E+00
    0.76334E-03        -0.92762E-02         0.00000E+00
    0.60301E-03        -0.73753E-02         0.00000E+00
    0.44917E-03        -0.54954E-02         0.00000E+00
    0.29906E-03        -0.36380E-02         0.00000E+00
    0.15013E-03        -0.18053E-02         0.00000E+00
    0.00000E+00         0.00000E+00         0.00000E+00
    0.40505E-02        -0.30781E-01         0.00000E+00
    0.37270E-02        -0.28407E-01         0.00000E+00
    0.33848E-02        -0.26082E-01         0.00000E+00
    0.30334E-02        -0.23811E-01         0.00000E+00
    0.26841E-02        -0.21597E-01         0.00000E+00
    0.23468E-02        -0.19442E-01         0.00000E+00
    0.20288E-02        -0.17344E-01         0.00000E+00
    0.17356E-02        -0.15300E-01         0.00000E+00
    0.14707E-02        -0.13308E-01         0.00000E+00
    0.12302E-02        -0.11346E-01         0.00000E+00
    0.10065E-02        -0.94024E-02         0.00000E+00
    0.79524E-03        -0.74781E-02         0.00000E+00
    0.59246E-03        -0.55739E-02         0.00000E+00
    0.39456E-03        -0.36912E-02         0.00000E+00
    0.19813E-03        -0.18324E-02         0.00000E+00
    0.00000E+00         0.00000E+00         0.00000E+00
    0.50037E-02        -0.31134E-01         0.00000E+00
    0.45966E-02        -0.28749E-01         0.00000E+00
    0.41687E-02        -0.26414E-01         0.00000E+00
    0.37325E-02        -0.24131E-01         0.00000E+00
    0.33015E-02        -0.21903E-01         0.00000E+00
    0.28865E-02        -0.19730E-01         0.00000E+00
    0.24960E-02        -0.17611E-01         0.00000E+00
    0.21361E-02        -0.15544E-01         0.00000E+00
    0.18108E-02        -0.13525E-01         0.00000E+00
    0.15153E-02        -0.11535E-01         0.00000E+00
    0.12400E-02        -0.95632E-02         0.00000E+00
    0.97989E-03        -0.76091E-02         0.00000E+00
    0.73017E-03        -0.56739E-02         0.00000E+00
    0.48639E-03        -0.37591E-02         0.00000E+00
    0.24433E-03        -0.18669E-02         0.00000E+00
    0.00000E+00         0.00000E+00         0.00000E+00
    0.59153E-02        -0.31568E-01         0.00000E+00
    0.54249E-02        -0.29173E-01         0.00000E+00
    0.49139E-02        -0.26824E-01         0.00000E+00
    0.43972E-02        -0.24526E-01         0.00000E+00
    0.38887E-02        -0.22278E-01         0.00000E+00
    0.33998E-02        -0.20082E-01         0.00000E+00
    0.29398E-02        -0.17936E-01         0.00000E+00
    0.25159E-02        -0.15839E-01         0.00000E+00
    0.21331E-02        -0.13787E-01         0.00000E+00
    0.17854E-02        -0.11764E-01         0.00000E+00
    0.14614E-02        -0.97577E-02         0.00000E+00
    0.11550E-02        -0.77676E-02         0.00000E+00
    0.86083E-03        -0.57950E-02         0.00000E+00
    0.57358E-03        -0.38413E-02         0.00000E+00
    0.28825E-03        -0.19088E-02         0.00000E+00
    0.00000E+00         0.00000E+00         0.00000E+00
    0.67766E-02        -0.32085E-01         0.00000E+00
    0.62053E-02        -0.29676E-01         0.00000E+00
    0.56159E-02        -0.27312E-01         0.00000E+00
    0.50241E-02        -0.24995E-01         0.00000E+00
    0.44433E-02        -0.22724E-01         0.00000E+00
    0.38846E-02        -0.20499E-01         0.00000E+00
    0.33581E-02        -0.18319E-01         0.00000E+00
    0.28726E-02        -0.16185E-01         0.00000E+00
    0.24344E-02        -0.14093E-01         0.00000E+00
    0.20379E-02        -0.12032E-01         0.00000E+00
    0.16683E-02        -0.99849E-02         0.00000E+00
    0.13187E-02        -0.79528E-02         0.00000E+00
    0.98296E-03        -0.59364E-02         0.00000E+00
    0.65509E-03        -0.39375E-02         0.00000E+00
    0.32934E-03        -0.19578E-02         0.00000E+00
    0.00000E+00         0.00000E+00         0.00000E+00
    0.75808E-02        -0.32683E-01         0.00000E+00
    0.69322E-02        -0.30258E-01         0.00000E+00
    0.62700E-02        -0.27876E-01         0.00000E+00
    0.56095E-02        -0.25537E-01         0.00000E+00
    0.49623E-02        -0.23238E-01         0.00000E+00
    0.43390E-02        -0.20980E-01         0.00000E+00
    0.37499E-02        -0.18761E-01         0.00000E+00
    0.32049E-02        -0.16582E-01         0.00000E+00
    0.27128E-02        -0.14443E-01         0.00000E+00
    0.22700E-02        -0.12337E-01         0.00000E+00
    0.18584E-02        -0.10244E-01         0.00000E+00
    0.14690E-02        -0.81637E-02         0.00000E+00
    0.10950E-02        -0.60976E-02         0.00000E+00
    0.72984E-03        -0.40470E-02         0.00000E+00
    0.36704E-03        -0.20136E-02         0.00000E+00
    0.00000E+00         0.00000E+00         0.00000E+00
    0.83221E-02        -0.33357E-01         0.00000E+00
    0.76006E-02        -0.30916E-01         0.00000E+00
    0.68719E-02        -0.28514E-01         0.00000E+00
    0.61488E-02        -0.26150E-01         0.00000E+00
    0.54417E-02        -0.23822E-01         0.00000E+00
    0.47603E-02        -0.21526E-01         0.00000E+00
    0.41144E-02        -0.19263E-01         0.00000E+00
    0.35134E-02        -0.17033E-01         0.00000E+00
    0.29668E-02        -0.14838E-01         0.00000E+00
    0.24790E-02        -0.12678E-01         0.00000E+00
    0.20297E-02        -0.10533E-01         0.00000E+00
    0.16041E-02        -0.83994E-02         0.00000E+00
    0.11954E-02        -0.62777E-02         0.00000E+00
    0.79661E-03        -0.41694E-02         0.00000E+00
    0.40067E-03        -0.20761E-02         0.00000E+00
    0.00000E+00         0.00000E+00         0.00000E+00
    0.89936E-02        -0.34105E-01         0.00000E+00
    0.82052E-02        -0.31645E-01         0.00000E+00
    0.74159E-02        -0.29222E-01         0.00000E+00
    0.66366E-02        -0.26832E-01         0.00000E+00
    0.58766E-02        -0.24471E-01         0.00000E+00
    0.51447E-02        -0.22136E-01         0.00000E+00
    0.44495E-02        -0.19826E-01         0.00000E+00
    0.37989E-02        -0.17540E-01         0.00000E+00
    0.32010E-02        -0.15282E-01         0.00000E+00
    0.26647E-02        -0.13054E-01         0.00000E+00
    0.21797E-02        -0.10852E-01         0.00000E+00
    0.17220E-02        -0.86586E-02         0.00000E+00
    0.12824E-02        -0.64757E-02         0.00000E+00
    0.85403E-03        -0.43041E-02         0.00000E+00
    0.42940E-03        -0.21450E-02         0.00000E+00
    0.00000E+00         0.00000E+00         0.00000E+00
    0.95903E-02        -0.34922E-01         0.00000E+00
    0.87401E-02        -0.32442E-01         0.00000E+00
    0.78959E-02        -0.29997E-01         0.00000E+00
    0.70670E-02        -0.27579E-01         0.00000E+00
    0.62616E-02        -0.25184E-01         0.00000E+00
    0.54875E-02        -0.22808E-01         0.00000E+00
    0.47515E-02        -0.20448E-01         0.00000E+00
    0.40600E-02        -0.18104E-01         0.00000E+00
    0.34189E-02        -0.15778E-01         0.00000E+00
    0.28337E-02        -0.13474E-01         0.00000E+00
    0.23073E-02        -0.11198E-01         0.00000E+00
    0.18208E-02        -0.89401E-02         0.00000E+00
    0.13543E-02        -0.66906E-02         0.00000E+00
    0.90038E-03        -0.44503E-02         0.00000E+00
    0.45208E-03        -0.22200E-02         0.00000E+00
    0.00000E+00         0.00000E+00         0.00000E+00
    0.10106E-01        -0.35803E-01         0.00000E+00
    0.91986E-02        -0.33304E-01         0.00000E+00
    0.83051E-02        -0.30835E-01         0.00000E+00
    0.74337E-02        -0.28388E-01         0.00000E+00
    0.65913E-02        -0.25957E-01         0.00000E+00
    0.57838E-02        -0.23537E-01         0.00000E+00
    0.50165E-02        -0.21124E-01         0.00000E+00
    0.42937E-02        -0.18720E-01         0.00000E+00
    0.36187E-02        -0.16325E-01         0.00000E+00
    0.29943E-02        -0.13944E-01         0.00000E+00
    0.24225E-02        -0.11582E-01         0.00000E+00
    0.18998E-02        -0.92433E-02         0.00000E+00
    0.14090E-02        -0.69215E-02         0.00000E+00
    0.93359E-03        -0.46074E-02         0.00000E+00
    0.46682E-03        -0.23006E-02         0.00000E+00
    0.00000E+00         0.00000E+00         0.00000E+00
    0.10533E-01        -0.36745E-01         0.00000E+00
    0.95734E-02        -0.34226E-01         0.00000E+00
    0.86373E-02        -0.31732E-01         0.00000E+00
    0.77313E-02        -0.29254E-01         0.00000E+00
    0.68606E-02        -0.26784E-01         0.00000E+00
    0.60293E-02        -0.24317E-01         0.00000E+00
    0.52405E-02        -0.21850E-01         0.00000E+00
    0.44961E-02        -0.19383E-01         0.00000E+00
    0.37972E-02        -0.16918E-01         0.00000E+00
    0.31441E-02        -0.14459E-01         0.00000E+00
    0.25371E-02        -0.12012E-01         0.00000E+00
    0.19745E-02        -0.95822E-02         0.00000E+00
    0.14506E-02        -0.71717E-02         0.00000E+00
    0.95355E-03        -0.47754E-02         0.00000E+00
    0.47086E-03        -0.23872E-02         0.00000E+00
    0.00000E+00         0.00000E+00         0.00000E+00
    0.10863E-01        -0.37742E-01         0.00000E+00
    0.98576E-02        -0.35201E-01         0.00000E+00
    0.88866E-02        -0.32681E-01         0.00000E+00
    0.79548E-02        -0.30170E-01         0.00000E+00
    0.70655E-02        -0.27658E-01         0.00000E+00
    0.62205E-02        -0.25142E-01         0.00000E+00
    0.54202E-02        -0.22618E-01         0.00000E+00
    0.46641E-02        -0.20086E-01         0.00000E+00
    0.39508E-02        -0.17549E-01         0.00000E+00
    0.32791E-02        -0.15012E-01         0.00000E+00
    0.26477E-02        -0.12479E-01         0.00000E+00
    0.20552E-02        -0.99571E-02         0.00000E+00
    0.14996E-02        -0.74501E-02         0.00000E+00
    0.97548E-03        -0.49587E-02         0.00000E+00
    0.47674E-03        -0.24778E-02         0.00000E+00
    0.00000E+00         0.00000E+00         0.00000E+00
    0.11089E-01        -0.38787E-01         0.00000E+00
    0.10045E-01        -0.36225E-01         0.00000E+00
    0.90479E-02        -0.33676E-01         0.00000E+00
    0.81001E-02        -0.31128E-01         0.00000E+00
    0.72025E-02        -0.28572E-01         0.00000E+00
    0.63542E-02        -0.26003E-01         0.00000E+00
    0.55527E-02        -0.23419E-01         0.00000E+00
    0.47949E-02        -0.20821E-01         0.00000E+00
    0.40772E-02        -0.18211E-01         0.00000E+00
    0.33967E-02        -0.15593E-01         0.00000E+00
    0.27510E-02        -0.12973E-01         0.00000E+00
    0.21386E-02        -0.10357E-01         0.00000E+00
    0.15587E-02        -0.77500E-02         0.00000E+00
    0.10105E-02        -0.51554E-02         0.00000E+00
    0.49214E-03        -0.25726E-02         0.00000E+00
    0.00000E+00         0.00000E+00         0.00000E+00
    0.11204E-01        -0.39874E-01         0.00000E+00
    0.10131E-01        -0.37287E-01         0.00000E+00
    0.91173E-02        -0.34706E-01         0.00000E+00
    0.81643E-02        -0.32118E-01         0.00000E+00
    0.72693E-02        -0.29514E-01         0.00000E+00
    0.64282E-02        -0.26890E-01         0.00000E+00
    0.56356E-02        -0.24245E-01         0.00000E+00
    0.48861E-02        -0.21578E-01         0.00000E+00
    0.41741E-02        -0.18892E-01         0.00000E+00
    0.34950E-02        -0.16193E-01         0.00000E+00
    0.28450E-02        -0.13484E-01         0.00000E+00
    0.22222E-02        -0.10772E-01         0.00000E+00
    0.16260E-02        -0.80627E-02         0.00000E+00
    0.10571E-02        -0.53617E-02         0.00000E+00
    0.51541E-03        -0.26731E-02         0.00000E+00
    0.00000E+00         0.00000E+00         0.00000E+00
    0.11203E-01        -0.40993E-01         0.00000E+00
    0.10109E-01        -0.38379E-01         0.00000E+00
    0.90914E-02        -0.35763E-01         0.00000E+00
    0.81451E-02        -0.33131E-01         0.00000E+00
    0.72639E-02        -0.30475E-01         0.00000E+00
    0.64402E-02        -0.27793E-01         0.00000E+00
    0.56665E-02        -0.25084E-01         0.00000E+00
    0.49353E-02        -0.22347E-01         0.00000E+00
    0.42392E-02        -0.19586E-01         0.00000E+00
    0.35717E-02        -0.16803E-01         0.00000E+00
    0.29276E-02        -0.14004E-01         0.00000E+00
    0.23037E-02        -0.11195E-01         0.00000E+00
    0.16984E-02        -0.83829E-02         0.00000E+00
    0.11120E-02        -0.55745E-02         0.00000E+00
    0.54539E-03        -0.27779E-02         0.00000E+00
    0.00000E+00         0.00000E+00         0.00000E+00
    0.11081E-01        -0.42137E-01         0.00000E+00
    0.99770E-02        -0.39490E-01         0.00000E+00
    0.89687E-02        -0.36833E-01         0.00000E+00
    0.80417E-02        -0.34152E-01         0.00000E+00
    0.71845E-02        -0.31442E-01         0.00000E+00
    0.63880E-02        -0.28700E-01         0.00000E+00
    0.56430E-02        -0.25926E-01         0.00000E+00
    0.49400E-02        -0.23119E-01         0.00000E+00
    0.42698E-02        -0.20281E-01         0.00000E+00
    0.36242E-02        -0.17415E-01         0.00000E+00
    0.29959E-02        -0.14527E-01         0.00000E+00
    0.23796E-02        -0.11621E-01         0.00000E+00
    0.17722E-02        -0.87065E-02         0.00000E+00
    0.11723E-02        -0.57912E-02         0.00000E+00
    0.58074E-03        -0.28855E-02         0.00000E+00
    0.00000E+00         0.00000E+00         0.00000E+00
    0.10842E-01        -0.43305E-01         0.00000E+00
    0.97359E-02        -0.40608E-01         0.00000E+00
    0.87485E-02        -0.37901E-01         0.00000E+00
    0.78522E-02        -0.35169E-01         0.00000E+00
    0.70291E-02        -0.32403E-01         0.00000E+00
    0.62693E-02        -0.29600E-01         0.00000E+00
    0.55622E-02        -0.26760E-01         0.00000E+00
    0.48969E-02        -0.23882E-01         0.00000E+00
    0.42625E-02        -0.20968E-01         0.00000E+00
    0.36485E-02        -0.18021E-01         0.00000E+00
    0.30454E-02        -0.15045E-01         0.00000E+00
    0.24456E-02        -0.12045E-01         0.00000E+00
    0.18433E-02        -0.90299E-02         0.00000E+00
    0.12351E-02        -0.60090E-02         0.00000E+00
    0.62007E-03        -0.29944E-02         0.00000E+00
    0.00000E+00         0.00000E+00         0.00000E+00
    0.10493E-01        -0.44483E-01         0.00000E+00
    0.93958E-02        -0.41726E-01         0.00000E+00
    0.84336E-02        -0.38959E-01         0.00000E+00
    0.75752E-02        -0.36171E-01         0.00000E+00
    0.67956E-02        -0.33347E-01         0.00000E+00
    0.60814E-02        -0.30482E-01         0.00000E+00
    0.54213E-02        -0.27575E-01         0.00000E+00
    0.48028E-02        -0.24627E-01         0.00000E+00
    0.42131E-02        -0.21639E-01         0.00000E+00
    0.36397E-02        -0.18612E-01         0.00000E+00
    0.30709E-02        -0.15551E-01         0.00000E+00
    0.24963E-02        -0.12461E-01         0.00000E+00
    0.19072E-02        -0.93490E-02         0.00000E+00
    0.12970E-02        -0.62254E-02         0.00000E+00
    0.66174E-03        -0.31034E-02         0.00000E+00
    0.00000E+00         0.00000E+00         0.00000E+00
    0.10030E-01        -0.45651E-01         0.00000E+00
    0.89554E-02        -0.42830E-01         0.00000E+00
    0.80263E-02        -0.39999E-01         0.00000E+00
    0.72113E-02        -0.37148E-01         0.00000E+00
    0.64826E-02        -0.34262E-01         0.00000E+00
    0.58224E-02        -0.31333E-01         0.00000E+00
    0.52175E-02        -0.28360E-01         0.00000E+00
    0.46538E-02        -0.25343E-01         0.00000E+00
    0.41167E-02        -0.22282E-01         0.00000E+00
    0.35918E-02        -0.19179E-01         0.00000E+00
    0.30655E-02        -0.16038E-01         0.00000E+00
    0.25248E-02        -0.12863E-01         0.00000E+00
    0.19578E-02        -0.96599E-02         0.00000E+00
    0.13538E-02        -0.64380E-02         0.00000E+00
    0.70371E-03        -0.32113E-02         0.00000E+00
    0.00000E+00         0.00000E+00         0.00000E+00
    0.94467E-02        -0.46793E-01         0.00000E+00
    0.84096E-02        -0.43908E-01         0.00000E+00
    0.75249E-02        -0.41009E-01         0.00000E+00
    0.67613E-02        -0.38091E-01         0.00000E+00
    0.60900E-02        -0.35140E-01         0.00000E+00
    0.54908E-02        -0.32145E-01         0.00000E+00
    0.49481E-02        -0.29104E-01         0.00000E+00
    0.44458E-02        -0.26018E-01         0.00000E+00
    0.39677E-02        -0.22887E-01         0.00000E+00
    0.34980E-02        -0.19714E-01         0.00000E+00
    0.30214E-02        -0.16499E-01         0.00000E+00
    0.25228E-02        -0.13246E-01         0.00000E+00
    0.19874E-02        -0.99584E-02         0.00000E+00
    0.13998E-02        -0.66444E-02         0.00000E+00
    0.74329E-03        -0.33173E-02         0.00000E+00
    0.00000E+00         0.00000E+00         0.00000E+00
    0.87396E-02        -0.47895E-01         0.00000E+00
    0.77543E-02        -0.44944E-01         0.00000E+00
    0.69266E-02        -0.41976E-01         0.00000E+00
    0.62242E-02        -0.38988E-01         0.00000E+00
    0.56176E-02        -0.35968E-01         0.00000E+00
    0.50858E-02        -0.32904E-01         0.00000E+00
    0.46107E-02        -0.29795E-01         0.00000E+00
    0.41745E-02        -0.26642E-01         0.00000E+00
    0.37599E-02        -0.23446E-01         0.00000E+00
    0.33503E-02        -0.20207E-01         0.00000E+00
    0.29292E-02        -0.16926E-01         0.00000E+00
    0.24804E-02        -0.13603E-01         0.00000E+00
    0.19865E-02        -0.10240E-01         0.00000E+00
    0.14274E-02        -0.68421E-02         0.00000E+00
    0.77680E-03        -0.34203E-02         0.00000E+00
    0.00000E+00         0.00000E+00         0.00000E+00
    0.79041E-02        -0.48940E-01         0.00000E+00
    0.69860E-02        -0.45922E-01         0.00000E+00
    0.62292E-02        -0.42883E-01         0.00000E+00
    0.55988E-02        -0.39824E-01         0.00000E+00
    0.50652E-02        -0.36733E-01         0.00000E+00
    0.46065E-02        -0.33598E-01         0.00000E+00
    0.42027E-02        -0.30422E-01         0.00000E+00
    0.38352E-02        -0.27205E-01         0.00000E+00
    0.34863E-02        -0.23948E-01         0.00000E+00
    0.31396E-02        -0.20651E-01         0.00000E+00
    0.27786E-02        -0.17312E-01         0.00000E+00
    0.23863E-02        -0.13929E-01         0.00000E+00
    0.19436E-02        -0.10501E-01         0.00000E+00
    0.14264E-02        -0.70284E-02         0.00000E+00
    0.79865E-03        -0.35195E-02         0.00000E+00
    0.00000E+00         0.00000E+00         0.00000E+00
    0.69366E-02        -0.49913E-01         0.00000E+00
    0.61026E-02        -0.46826E-01         0.00000E+00
    0.54313E-02        -0.43716E-01         0.00000E+00
    0.48846E-02        -0.40583E-01         0.00000E+00
    0.44323E-02        -0.37420E-01         0.00000E+00
    0.40515E-02        -0.34215E-01         0.00000E+00
    0.37210E-02        -0.30972E-01         0.00000E+00
    0.34224E-02        -0.27695E-01         0.00000E+00
    0.31392E-02        -0.24384E-01         0.00000E+00
    0.28562E-02        -0.21036E-01         0.00000E+00
    0.25580E-02        -0.17649E-01         0.00000E+00
    0.22277E-02        -0.14217E-01         0.00000E+00
    0.18454E-02        -0.10735E-01         0.00000E+00
    0.13844E-02        -0.72007E-02         0.00000E+00
    0.80045E-03        -0.36143E-02         0.00000E+00
    0.00000E+00         0.00000E+00         0.00000E+00
    0.58337E-02        -0.50794E-01         0.00000E+00
    0.51027E-02        -0.47638E-01         0.00000E+00
    0.45332E-02        -0.44455E-01         0.00000E+00
    0.40823E-02        -0.41248E-01         0.00000E+00
    0.37187E-02        -0.38012E-01         0.00000E+00
    0.34187E-02        -0.34739E-01         0.00000E+00
    0.31613E-02        -0.31436E-01         0.00000E+00
    0.29297E-02        -0.28104E-01         0.00000E+00
    0.27100E-02        -0.24745E-01         0.00000E+00
    0.24895E-02        -0.21356E-01         0.00000E+00
    0.22551E-02        -0.17931E-01         0.00000E+00
    0.19912E-02        -0.14462E-01         0.00000E+00
    0.16778E-02        -0.10940E-01         0.00000E+00
    0.12870E-02        -0.73560E-02         0.00000E+00
    0.77066E-03        -0.37039E-02         0.00000E+00
    0.00000E+00         0.00000E+00         0.00000E+00
    0.45918E-02        -0.51562E-01         0.00000E+00
    0.39868E-02        -0.48337E-01         0.00000E+00
    0.35369E-02        -0.45079E-01         0.00000E+00
    0.31930E-02        -0.41798E-01         0.00000E+00
    0.29234E-02        -0.38493E-01         0.00000E+00
    0.27047E-02        -0.35158E-01         0.00000E+00
    0.25178E-02        -0.31802E-01         0.00000E+00
    0.23497E-02        -0.28425E-01         0.00000E+00
    0.21901E-02        -0.25028E-01         0.00000E+00
    0.20294E-02        -0.21606E-01         0.00000E+00
    0.18577E-02        -0.18152E-01         0.00000E+00
    0.16623E-02        -0.14658E-01         0.00000E+00
    0.14254E-02        -0.11110E-01         0.00000E+00
    0.11189E-02        -0.74919E-02         0.00000E+00
    0.69367E-03        -0.37882E-02         0.00000E+00
    0.00000E+00         0.00000E+00         0.00000E+00
    0.32072E-02        -0.52192E-01         0.00000E+00
    0.27580E-02        -0.48896E-01         0.00000E+00
    0.24469E-02        -0.45563E-01         0.00000E+00
    0.22178E-02        -0.42212E-01         0.00000E+00
    0.20437E-02        -0.38846E-01         0.00000E+00
    0.19034E-02        -0.35461E-01         0.00000E+00
    0.17828E-02        -0.32064E-01         0.00000E+00
    0.16740E-02        -0.28653E-01         0.00000E+00
    0.15706E-02        -0.25227E-01         0.00000E+00
    0.14664E-02        -0.21781E-01         0.00000E+00
    0.13549E-02        -0.18309E-01         0.00000E+00
    0.12275E-02        -0.14800E-01         0.00000E+00
    0.10711E-02        -0.11239E-01         0.00000E+00
    0.86263E-03        -0.76048E-02         0.00000E+00
    0.55411E-03        -0.38677E-02         0.00000E+00
    0.00000E+00         0.00000E+00         0.00000E+00
    0.16752E-02        -0.52644E-01         0.00000E+00
    0.14250E-02        -0.49276E-01         0.00000E+00
    0.12687E-02        -0.45875E-01         0.00000E+00
    0.11553E-02        -0.42467E-01         0.00000E+00
    0.10727E-02        -0.39057E-01         0.00000E+00
    0.10055E-02        -0.35642E-01         0.00000E+00
    0.94683E-03        -0.32219E-01         0.00000E+00
    0.89364E-03        -0.28788E-01         0.00000E+00
    0.84315E-03        -0.25344E-01         0.00000E+00
    0.79235E-03        -0.21884E-01         0.00000E+00
    0.73799E-03        -0.18400E-01         0.00000E+00
    0.67586E-03        -0.14883E-01         0.00000E+00
    0.59939E-03        -0.11318E-01         0.00000E+00
    0.49590E-03        -0.76830E-02         0.00000E+00
    0.33515E-03        -0.39373E-02         0.00000E+00
    0.00000E+00         0.00000E+00         0.00000E+00
    0.00000E+00        -0.52840E-01         0.00000E+00
    0.00000E+00        -0.49418E-01         0.00000E+00
    0.00000E+00        -0.45984E-01         0.00000E+00
    0.00000E+00        -0.42552E-01         0.00000E+00
    0.00000E+00        -0.39126E-01         0.00000E+00
    0.00000E+00        -0.35701E-01         0.00000E+00
    0.00000E+00        -0.32270E-01         0.00000E+00
    0.00000E+00        -0.28832E-01         0.00000E+00
    0.00000E+00        -0.25382E-01         0.00000E+00
    0.00000E+00        -0.21917E-01         0.00000E+00
    0.00000E+00        -0.18430E-01         0.00000E+00
    0.00000E+00        -0.14910E-01         0.00000E+00
    0.00000E+00        -0.11345E-01         0.00000E+00
    0.00000E+00        -0.77117E-02         0.00000E+00
    0.00000E+00        -0.39707E-02         0.00000E+00
    0.00000E+00         0.00000E+00         0.00000E+00
CELL_DATA        450
VECTORS vDarcy double 
    0.24959E-09         0.31117E-13         0.00000E+00
    0.24958E-09         0.86517E-13         0.00000E+00
    0.24958E-09         0.12917E-12         0.00000E+00
    0.24957E-09         0.16117E-12         0.00000E+00
    0.24957E-09         0.18501E-12         0.00000E+00
    0.24957E-09         0.20296E-12         0.00000E+00
    0.24957E-09         0.21688E-12         0.00000E+00
    0.24957E-09         0.22738E-12         0.00000E+00
    0.24956E-09         0.22991E-12         0.00000E+00
    0.24956E-09         0.22047E-12         0.00000E+00
    0.24955E-09         0.20017E-12         0.00000E+00
    0.24955E-09         0.17026E-12         0.00000E+00
    0.24955E-09         0.13157E-12         0.00000E+00
    0.24954E-09         0.84610E-13         0.00000E+00
    0.24954E-09         0.29550E-13         0.00000E+00
    0.74812E-09         0.30548E-13         0.00000E+00
    0.74810E-09         0.84750E-13         0.00000E+00
    0.74808E-09         0.12620E-12         0.00000E+00
    0.74807E-09         0.15722E-12         0.00000E+00
    0.74806E-09         0.18033E-12         0.00000E+00
    0.74805E-09         0.19769E-12         0.00000E+00
    0.74805E-09         0.21105E-12         0.00000E+00
    0.74805E-09         0.22100E-12         0.00000E+00
    0.74803E-09         0.22326E-12         0.00000E+00
    0.74802E-09         0.21400E-12         0.00000E+00
    0.74801E-09         0.19425E-12         0.00000E+00
    0.74800E-09         0.16520E-12         0.00000E+00
    0.74798E-09         0.12766E-12         0.00000E+00
    0.74797E-09         0.82097E-13         0.00000E+00
    0.74796E-09         0.28674E-13         0.00000E+00
    0.12447E-08         0.29344E-13         0.00000E+00
    0.12446E-08         0.81078E-13         0.00000E+00
    0.12446E-08         0.12019E-12         0.00000E+00
    0.12446E-08         0.14936E-12         0.00000E+00
    0.12446E-08         0.17111E-12         0.00000E+00
    0.12446E-08         0.18732E-12         0.00000E+00
    0.12446E-08         0.19955E-12         0.00000E+00
    0.12446E-08         0.20843E-12         0.00000E+00
    0.12445E-08         0.21015E-12         0.00000E+00
    0.12445E-08         0.20124E-12         0.00000E+00
    0.12445E-08         0.18256E-12         0.00000E+00
    0.12445E-08         0.15520E-12         0.00000E+00
    0.12445E-08         0.11992E-12         0.00000E+00
    0.12444E-08         0.77118E-13         0.00000E+00
    0.12444E-08         0.26938E-13         0.00000E+00
    0.17380E-08         0.27366E-13         0.00000E+00
    0.17379E-08         0.75231E-13         0.00000E+00
    0.17379E-08         0.11102E-12         0.00000E+00
    0.17379E-08         0.13776E-12         0.00000E+00
    0.17378E-08         0.15765E-12         0.00000E+00
    0.17378E-08         0.17219E-12         0.00000E+00
    0.17378E-08         0.18270E-12         0.00000E+00
    0.17378E-08         0.18996E-12         0.00000E+00
    0.17378E-08         0.19090E-12         0.00000E+00
    0.17378E-08         0.18247E-12         0.00000E+00
    0.17377E-08         0.16534E-12         0.00000E+00
    0.17377E-08         0.14047E-12         0.00000E+00
    0.17377E-08         0.10849E-12         0.00000E+00
    0.17377E-08         0.69767E-13         0.00000E+00
    0.17376E-08         0.24371E-13         0.00000E+00
    0.22267E-08         0.24444E-13         0.00000E+00
    0.22266E-08         0.66977E-13         0.00000E+00
    0.22266E-08         0.98760E-13         0.00000E+00
    0.22266E-08         0.12274E-12         0.00000E+00
    0.22265E-08         0.14039E-12         0.00000E+00
    0.22265E-08         0.15271E-12         0.00000E+00
    0.22265E-08         0.16086E-12         0.00000E+00
    0.22265E-08         0.16594E-12         0.00000E+00
    0.22265E-08         0.16585E-12         0.00000E+00
    0.22264E-08         0.15805E-12         0.00000E+00
    0.22264E-08         0.14295E-12         0.00000E+00
    0.22264E-08         0.12130E-12         0.00000E+00
    0.22263E-08         0.93609E-13         0.00000E+00
    0.22263E-08         0.60171E-13         0.00000E+00
    0.22263E-08         0.21017E-13         0.00000E+00
    0.27096E-08         0.20498E-13         0.00000E+00
    0.27095E-08         0.56338E-13         0.00000E+00
    0.27095E-08         0.83665E-13         0.00000E+00
    0.27094E-08         0.10461E-12         0.00000E+00
    0.27094E-08         0.11962E-12         0.00000E+00
    0.27094E-08         0.12921E-12         0.00000E+00
    0.27094E-08         0.13434E-12         0.00000E+00
    0.27093E-08         0.13662E-12         0.00000E+00
    0.27093E-08         0.13531E-12         0.00000E+00
    0.27093E-08         0.12837E-12         0.00000E+00
    0.27092E-08         0.11576E-12         0.00000E+00
    0.27092E-08         0.98014E-13         0.00000E+00
    0.27091E-08         0.75522E-13         0.00000E+00
    0.27091E-08         0.48494E-13         0.00000E+00
    0.27091E-08         0.16931E-13         0.00000E+00
    0.31853E-08         0.15687E-13         0.00000E+00
    0.31852E-08         0.43679E-13         0.00000E+00
    0.31852E-08         0.65923E-13         0.00000E+00
    0.31851E-08         0.83213E-13         0.00000E+00
    0.31851E-08         0.95172E-13         0.00000E+00
    0.31851E-08         0.10172E-12         0.00000E+00
    0.31851E-08         0.10333E-12         0.00000E+00
    0.31850E-08         0.10220E-12         0.00000E+00
    0.31850E-08         0.99537E-13         0.00000E+00
    0.31850E-08         0.93802E-13         0.00000E+00
    0.31849E-08         0.84185E-13         0.00000E+00
    0.31849E-08         0.71008E-13         0.00000E+00
    0.31848E-08         0.54537E-13         0.00000E+00
    0.31848E-08         0.34932E-13         0.00000E+00
    0.31848E-08         0.12178E-13         0.00000E+00
    0.36526E-08         0.10325E-13         0.00000E+00
    0.36525E-08         0.29402E-13         0.00000E+00
    0.36525E-08         0.45391E-13         0.00000E+00
    0.36524E-08         0.57856E-13         0.00000E+00
    0.36524E-08         0.66068E-13         0.00000E+00
    0.36524E-08         0.69534E-13         0.00000E+00
    0.36523E-08         0.67880E-13         0.00000E+00
    0.36523E-08         0.62890E-13         0.00000E+00
    0.36523E-08         0.58620E-13         0.00000E+00
    0.36522E-08         0.54711E-13         0.00000E+00
    0.36522E-08         0.48666E-13         0.00000E+00
    0.36522E-08         0.40705E-13         0.00000E+00
    0.36521E-08         0.31033E-13         0.00000E+00
    0.36521E-08         0.19728E-13         0.00000E+00
    0.36520E-08         0.68414E-14         0.00000E+00
    0.41103E-08         0.44595E-14         0.00000E+00
    0.41102E-08         0.13477E-13         0.00000E+00
    0.41101E-08         0.21631E-13         0.00000E+00
    0.41101E-08         0.27530E-13         0.00000E+00
    0.41100E-08         0.30766E-13         0.00000E+00
    0.41100E-08         0.30986E-13         0.00000E+00
    0.41100E-08         0.27201E-13         0.00000E+00
    0.41100E-08         0.18816E-13         0.00000E+00
    0.41099E-08         0.13076E-13         0.00000E+00
    0.41099E-08         0.11559E-13         0.00000E+00
    0.41098E-08         0.95970E-14         0.00000E+00
    0.41098E-08         0.76781E-14         0.00000E+00
    0.41098E-08         0.54932E-14         0.00000E+00
    0.41097E-08         0.32072E-14         0.00000E+00
    0.41097E-08         0.10304E-14         0.00000E+00
    0.45570E-08        -0.16385E-14         0.00000E+00
    0.45570E-08        -0.40166E-14         0.00000E+00
    0.45569E-08        -0.59146E-14         0.00000E+00
    0.45568E-08        -0.86528E-14         0.00000E+00
    0.45568E-08        -0.12083E-13         0.00000E+00
    0.45568E-08        -0.16038E-13         0.00000E+00
    0.45567E-08        -0.20987E-13         0.00000E+00
    0.45567E-08        -0.29844E-13         0.00000E+00
    0.45567E-08        -0.36533E-13         0.00000E+00
    0.45566E-08        -0.35782E-13         0.00000E+00
    0.45566E-08        -0.32246E-13         0.00000E+00
    0.45566E-08        -0.27385E-13         0.00000E+00
    0.45565E-08        -0.21389E-13         0.00000E+00
    0.45565E-08        -0.14163E-13         0.00000E+00
    0.45564E-08        -0.50896E-14         0.00000E+00
    0.49917E-08        -0.81543E-14         0.00000E+00
    0.49916E-08        -0.23639E-13         0.00000E+00
    0.49915E-08        -0.37932E-13         0.00000E+00
    0.49915E-08        -0.51255E-13         0.00000E+00
    0.49914E-08        -0.63026E-13         0.00000E+00
    0.49914E-08        -0.72606E-13         0.00000E+00
    0.49914E-08        -0.79797E-13         0.00000E+00
    0.49914E-08        -0.85913E-13         0.00000E+00
    0.49913E-08        -0.89964E-13         0.00000E+00
    0.49913E-08        -0.86432E-13         0.00000E+00
    0.49913E-08        -0.76197E-13         0.00000E+00
    0.49912E-08        -0.63529E-13         0.00000E+00
    0.49912E-08        -0.48676E-13         0.00000E+00
    0.49911E-08        -0.31603E-13         0.00000E+00
    0.49911E-08        -0.11231E-13         0.00000E+00
    0.54130E-08        -0.15958E-13         0.00000E+00
    0.54129E-08        -0.46754E-13         0.00000E+00
    0.54129E-08        -0.75162E-13         0.00000E+00
    0.54128E-08        -0.10055E-12         0.00000E+00
    0.54128E-08        -0.12189E-12         0.00000E+00
    0.54128E-08        -0.13816E-12         0.00000E+00
    0.54127E-08        -0.14874E-12         0.00000E+00
    0.54127E-08        -0.15307E-12         0.00000E+00
    0.54127E-08        -0.15137E-12         0.00000E+00
    0.54127E-08        -0.14089E-12         0.00000E+00
    0.54126E-08        -0.12186E-12         0.00000E+00
    0.54126E-08        -0.99776E-13         0.00000E+00
    0.54125E-08        -0.75125E-13         0.00000E+00
    0.54125E-08        -0.47762E-13         0.00000E+00
    0.54125E-08        -0.16854E-13         0.00000E+00
    0.58199E-08        -0.25279E-13         0.00000E+00
    0.58198E-08        -0.73844E-13         0.00000E+00
    0.58197E-08        -0.11799E-12         0.00000E+00
    0.58197E-08        -0.15654E-12         0.00000E+00
    0.58197E-08        -0.18797E-12         0.00000E+00
    0.58196E-08        -0.21091E-12         0.00000E+00
    0.58196E-08        -0.22446E-12         0.00000E+00
    0.58196E-08        -0.22849E-12         0.00000E+00
    0.58196E-08        -0.22267E-12         0.00000E+00
    0.58196E-08        -0.20494E-12         0.00000E+00
    0.58195E-08        -0.17499E-12         0.00000E+00
    0.58195E-08        -0.13818E-12         0.00000E+00
    0.58195E-08        -0.99768E-13         0.00000E+00
    0.58194E-08        -0.61218E-13         0.00000E+00
    0.58194E-08        -0.21001E-13         0.00000E+00
    0.62111E-08        -0.36024E-13         0.00000E+00
    0.62111E-08        -0.10480E-12         0.00000E+00
    0.62110E-08        -0.16631E-12         0.00000E+00
    0.62110E-08        -0.21874E-12         0.00000E+00
    0.62109E-08        -0.26000E-12         0.00000E+00
    0.62109E-08        -0.28858E-12         0.00000E+00
    0.62109E-08        -0.30412E-12         0.00000E+00
    0.62109E-08        -0.30686E-12         0.00000E+00
    0.62109E-08        -0.29707E-12         0.00000E+00
    0.62109E-08        -0.27423E-12         0.00000E+00
    0.62109E-08        -0.23684E-12         0.00000E+00
    0.62109E-08        -0.18660E-12         0.00000E+00
    0.62108E-08        -0.13083E-12         0.00000E+00
    0.62108E-08        -0.74664E-13         0.00000E+00
    0.62108E-08        -0.23288E-13         0.00000E+00
    0.65857E-08        -0.48167E-13         0.00000E+00
    0.65856E-08        -0.13954E-12         0.00000E+00
    0.65856E-08        -0.21988E-12         0.00000E+00
    0.65855E-08        -0.28623E-12         0.00000E+00
    0.65855E-08        -0.33603E-12         0.00000E+00
    0.65855E-08        -0.36872E-12         0.00000E+00
    0.65855E-08        -0.38483E-12         0.00000E+00
    0.65855E-08        -0.38496E-12         0.00000E+00
    0.65856E-08        -0.36967E-12         0.00000E+00
    0.65856E-08        -0.33971E-12         0.00000E+00
    0.65856E-08        -0.29529E-12         0.00000E+00
    0.65855E-08        -0.23635E-12         0.00000E+00
    0.65855E-08        -0.16654E-12         0.00000E+00
    0.65855E-08        -0.93844E-13         0.00000E+00
    0.65854E-08        -0.28944E-13         0.00000E+00
    0.69425E-08        -0.61665E-13         0.00000E+00
    0.69424E-08        -0.17845E-12         0.00000E+00
    0.69424E-08        -0.27867E-12         0.00000E+00
    0.69424E-08        -0.35722E-12         0.00000E+00
    0.69424E-08        -0.41337E-12         0.00000E+00
    0.69424E-08        -0.44865E-12         0.00000E+00
    0.69424E-08        -0.46412E-12         0.00000E+00
    0.69424E-08        -0.46064E-12         0.00000E+00
    0.69424E-08        -0.43912E-12         0.00000E+00
    0.69425E-08        -0.40051E-12         0.00000E+00
    0.69425E-08        -0.34587E-12         0.00000E+00
    0.69425E-08        -0.27703E-12         0.00000E+00
    0.69424E-08        -0.19787E-12         0.00000E+00
    0.69424E-08        -0.11578E-12         0.00000E+00
    0.69423E-08        -0.37601E-13         0.00000E+00
    0.72804E-08        -0.77409E-13         0.00000E+00
    0.72804E-08        -0.22279E-12         0.00000E+00
    0.72804E-08        -0.34120E-12         0.00000E+00
    0.72804E-08        -0.42836E-12         0.00000E+00
    0.72804E-08        -0.48927E-12         0.00000E+00
    0.72804E-08        -0.52599E-12         0.00000E+00
    0.72805E-08        -0.54000E-12         0.00000E+00
    0.72805E-08        -0.53235E-12         0.00000E+00
    0.72806E-08        -0.50413E-12         0.00000E+00
    0.72806E-08        -0.45678E-12         0.00000E+00
    0.72806E-08        -0.39244E-12         0.00000E+00
    0.72806E-08        -0.31423E-12         0.00000E+00
    0.72806E-08        -0.22654E-12         0.00000E+00
    0.72806E-08        -0.13470E-12         0.00000E+00
    0.72805E-08        -0.44215E-13         0.00000E+00
    0.75986E-08        -0.94976E-13         0.00000E+00
    0.75986E-08        -0.26834E-12         0.00000E+00
    0.75986E-08        -0.40211E-12         0.00000E+00
    0.75987E-08        -0.49691E-12         0.00000E+00
    0.75987E-08        -0.56146E-12         0.00000E+00
    0.75988E-08        -0.59882E-12         0.00000E+00
    0.75988E-08        -0.61082E-12         0.00000E+00
    0.75989E-08        -0.59862E-12         0.00000E+00
    0.75989E-08        -0.56388E-12         0.00000E+00
    0.75990E-08        -0.50878E-12         0.00000E+00
    0.75990E-08        -0.43620E-12         0.00000E+00
    0.75990E-08        -0.34969E-12         0.00000E+00
    0.75990E-08        -0.25319E-12         0.00000E+00
    0.75990E-08        -0.15116E-12         0.00000E+00
    0.75989E-08        -0.49688E-13         0.00000E+00
    0.78961E-08        -0.11304E-12         0.00000E+00
    0.78961E-08        -0.31304E-12         0.00000E+00
    0.78962E-08        -0.46135E-12         0.00000E+00
    0.78963E-08        -0.56267E-12         0.00000E+00
    0.78964E-08        -0.62849E-12         0.00000E+00
    0.78964E-08        -0.66576E-12         0.00000E+00
    0.78965E-08        -0.67492E-12         0.00000E+00
    0.78966E-08        -0.65789E-12         0.00000E+00
    0.78967E-08        -0.61715E-12         0.00000E+00
    0.78967E-08        -0.55560E-12         0.00000E+00
    0.78968E-08        -0.47639E-12         0.00000E+00
    0.78968E-08        -0.38276E-12         0.00000E+00
    0.78968E-08        -0.27807E-12         0.00000E+00
    0.78967E-08        -0.16661E-12         0.00000E+00
    0.78967E-08        -0.54902E-13         0.00000E+00
    0.81720E-08        -0.12976E-12         0.00000E+00
    0.81721E-08        -0.35614E-12         0.00000E+00
    0.81722E-08        -0.51967E-12         0.00000E+00
    0.81724E-08        -0.62606E-12         0.00000E+00
    0.81725E-08        -0.69061E-12         0.00000E+00
    0.81726E-08        -0.72532E-12         0.00000E+00
    0.81727E-08        -0.73029E-12         0.00000E+00
    0.81728E-08        -0.70810E-12         0.00000E+00
    0.81728E-08        -0.66191E-12         0.00000E+00
    0.81729E-08        -0.59510E-12         0.00000E+00
    0.81730E-08        -0.51087E-12         0.00000E+00
    0.81730E-08        -0.41195E-12         0.00000E+00
    0.81730E-08        -0.30099E-12         0.00000E+00
    0.81730E-08        -0.18169E-12         0.00000E+00
    0.81729E-08        -0.60268E-13         0.00000E+00
    0.84256E-08        -0.14290E-12         0.00000E+00
    0.84257E-08        -0.39201E-12         0.00000E+00
    0.84259E-08        -0.57027E-12         0.00000E+00
    0.84261E-08        -0.68279E-12         0.00000E+00
    0.84262E-08        -0.74571E-12         0.00000E+00
    0.84263E-08        -0.77504E-12         0.00000E+00
    0.84264E-08        -0.77436E-12         0.00000E+00
    0.84266E-08        -0.74651E-12         0.00000E+00
    0.84267E-08        -0.69522E-12         0.00000E+00
    0.84267E-08        -0.62430E-12         0.00000E+00
    0.84268E-08        -0.53688E-12         0.00000E+00
    0.84269E-08        -0.43519E-12         0.00000E+00
    0.84269E-08        -0.32088E-12         0.00000E+00
    0.84268E-08        -0.19616E-12         0.00000E+00
    0.84268E-08        -0.65784E-13         0.00000E+00
    0.86560E-08        -0.15308E-12         0.00000E+00
    0.86562E-08        -0.41949E-12         0.00000E+00
    0.86564E-08        -0.60871E-12         0.00000E+00
    0.86567E-08        -0.72613E-12         0.00000E+00
    0.86568E-08        -0.78758E-12         0.00000E+00
    0.86570E-08        -0.81098E-12         0.00000E+00
    0.86571E-08        -0.80354E-12         0.00000E+00
    0.86572E-08        -0.76958E-12         0.00000E+00
    0.86574E-08        -0.71366E-12         0.00000E+00
    0.86575E-08        -0.63988E-12         0.00000E+00
    0.86575E-08        -0.55136E-12         0.00000E+00
    0.86576E-08        -0.44986E-12         0.00000E+00
    0.86576E-08        -0.33578E-12         0.00000E+00
    0.86576E-08        -0.20898E-12         0.00000E+00
    0.86575E-08        -0.71194E-13         0.00000E+00
    0.88625E-08        -0.16097E-12         0.00000E+00
    0.88628E-08        -0.43906E-12         0.00000E+00
    0.88631E-08        -0.63378E-12         0.00000E+00
    0.88634E-08        -0.75236E-12         0.00000E+00
    0.88636E-08        -0.81067E-12         0.00000E+00
    0.88638E-08        -0.82770E-12         0.00000E+00
    0.88640E-08        -0.81298E-12         0.00000E+00
    0.88641E-08        -0.77310E-12         0.00000E+00
    0.88643E-08        -0.71360E-12         0.00000E+00
    0.88644E-08        -0.63872E-12         0.00000E+00
    0.88645E-08        -0.55139E-12         0.00000E+00
    0.88645E-08        -0.45300E-12         0.00000E+00
    0.88645E-08        -0.34294E-12         0.00000E+00
    0.88645E-08        -0.21833E-12         0.00000E+00
    0.88645E-08        -0.75954E-13         0.00000E+00
    0.90446E-08        -0.16623E-12         0.00000E+00
    0.90450E-08        -0.45059E-12         0.00000E+00
    0.90454E-08        -0.64458E-12         0.00000E+00
    0.90458E-08        -0.75877E-12         0.00000E+00
    0.90460E-08        -0.81056E-12         0.00000E+00
    0.90462E-08        -0.81949E-12         0.00000E+00
    0.90464E-08        -0.79729E-12         0.00000E+00
    0.90466E-08        -0.75255E-12         0.00000E+00
    0.90467E-08        -0.69156E-12         0.00000E+00
    0.90468E-08        -0.61820E-12         0.00000E+00
    0.90469E-08        -0.53468E-12         0.00000E+00
    0.90470E-08        -0.44202E-12         0.00000E+00
    0.90470E-08        -0.33931E-12         0.00000E+00
    0.90470E-08        -0.22162E-12         0.00000E+00
    0.90470E-08        -0.79052E-13         0.00000E+00
    0.92017E-08        -0.16894E-12         0.00000E+00
    0.92022E-08        -0.45357E-12         0.00000E+00
    0.92027E-08        -0.63933E-12         0.00000E+00
    0.92031E-08        -0.74215E-12         0.00000E+00
    0.92034E-08        -0.78271E-12         0.00000E+00
    0.92037E-08        -0.78124E-12         0.00000E+00
    0.92039E-08        -0.75165E-12         0.00000E+00
    0.92040E-08        -0.70397E-12         0.00000E+00
    0.92042E-08        -0.64453E-12         0.00000E+00
    0.92043E-08        -0.57631E-12         0.00000E+00
    0.92044E-08        -0.50003E-12         0.00000E+00
    0.92045E-08        -0.41562E-12         0.00000E+00
    0.92045E-08        -0.32264E-12         0.00000E+00
    0.92045E-08        -0.21611E-12         0.00000E+00
    0.92045E-08        -0.79154E-13         0.00000E+00
    0.93334E-08        -0.16900E-12         0.00000E+00
    0.93340E-08        -0.44641E-12         0.00000E+00
    0.93345E-08        -0.61438E-12         0.00000E+00
    0.93350E-08        -0.69799E-12         0.00000E+00
    0.93354E-08        -0.72235E-12         0.00000E+00
    0.93356E-08        -0.70873E-12         0.00000E+00
    0.93358E-08        -0.67295E-12         0.00000E+00
    0.93360E-08        -0.62514E-12         0.00000E+00
    0.93362E-08        -0.57074E-12         0.00000E+00
    0.93363E-08        -0.51160E-12         0.00000E+00
    0.93364E-08        -0.44691E-12         0.00000E+00
    0.93365E-08        -0.37436E-12         0.00000E+00
    0.93365E-08        -0.29253E-12         0.00000E+00
    0.93366E-08        -0.19945E-12         0.00000E+00
    0.93366E-08        -0.74807E-13         0.00000E+00
    0.94391E-08        -0.16604E-12         0.00000E+00
    0.94398E-08        -0.42578E-12         0.00000E+00
    0.94405E-08        -0.56274E-12         0.00000E+00
    0.94411E-08        -0.61888E-12         0.00000E+00
    0.94414E-08        -0.62420E-12         0.00000E+00
    0.94417E-08        -0.59940E-12         0.00000E+00
    0.94419E-08        -0.56078E-12         0.00000E+00
    0.94421E-08        -0.51670E-12         0.00000E+00
    0.94423E-08        -0.47079E-12         0.00000E+00
    0.94424E-08        -0.42368E-12         0.00000E+00
    0.94425E-08        -0.37418E-12         0.00000E+00
    0.94426E-08        -0.31887E-12         0.00000E+00
    0.94426E-08        -0.25202E-12         0.00000E+00
    0.94427E-08        -0.17249E-12         0.00000E+00
    0.94428E-08        -0.65051E-13         0.00000E+00
    0.95186E-08        -0.15838E-12         0.00000E+00
    0.95195E-08        -0.38400E-12         0.00000E+00
    0.95203E-08        -0.47130E-12         0.00000E+00
    0.95209E-08        -0.49440E-12         0.00000E+00
    0.95213E-08        -0.48454E-12         0.00000E+00
    0.95216E-08        -0.45400E-12         0.00000E+00
    0.95218E-08        -0.41854E-12         0.00000E+00
    0.95220E-08        -0.38323E-12         0.00000E+00
    0.95221E-08        -0.34862E-12         0.00000E+00
    0.95222E-08        -0.31473E-12         0.00000E+00
    0.95223E-08        -0.28121E-12         0.00000E+00
    0.95224E-08        -0.24605E-12         0.00000E+00
    0.95225E-08        -0.20342E-12         0.00000E+00
    0.95226E-08        -0.14084E-12         0.00000E+00
    0.95227E-08        -0.51254E-13         0.00000E+00
    0.95717E-08        -0.13686E-12         0.00000E+00
    0.95728E-08        -0.29745E-12         0.00000E+00
    0.95736E-08        -0.32186E-12         0.00000E+00
    0.95743E-08        -0.32000E-12         0.00000E+00
    0.95747E-08        -0.30471E-12         0.00000E+00
    0.95750E-08        -0.27923E-12         0.00000E+00
    0.95752E-08        -0.25529E-12         0.00000E+00
    0.95754E-08        -0.23317E-12         0.00000E+00
    0.95755E-08        -0.21168E-12         0.00000E+00
    0.95756E-08        -0.19107E-12         0.00000E+00
    0.95757E-08        -0.17178E-12         0.00000E+00
    0.95758E-08        -0.15375E-12         0.00000E+00
    0.95759E-08        -0.13529E-12         0.00000E+00
    0.95760E-08        -0.10688E-12         0.00000E+00
    0.95761E-08        -0.44091E-13         0.00000E+00
    0.95982E-08        -0.60351E-13         0.00000E+00
    0.95995E-08        -0.11921E-12         0.00000E+00
    0.96004E-08        -0.11510E-12         0.00000E+00
    0.96010E-08        -0.11033E-12         0.00000E+00
    0.96014E-08        -0.10266E-12         0.00000E+00
    0.96017E-08        -0.92904E-13         0.00000E+00
    0.96019E-08        -0.84989E-13         0.00000E+00
    0.96021E-08        -0.77630E-13         0.00000E+00
    0.96022E-08        -0.70329E-13         0.00000E+00
    0.96024E-08        -0.63321E-13         0.00000E+00
    0.96024E-08        -0.56916E-13         0.00000E+00
    0.96025E-08        -0.51473E-13         0.00000E+00
    0.96026E-08        -0.46800E-13         0.00000E+00
    0.96027E-08        -0.44497E-13         0.00000E+00
    0.96029E-08        -0.22218E-13         0.00000E+00
POINT_DATA        496
VECTORS vDarcyNodal double 
    0.24959E-09         0.31253E-13         0.00000E+00
    0.24959E-09         0.59102E-13         0.00000E+00
    0.24958E-09         0.10843E-12         0.00000E+00
    0.24958E-09         0.14604E-12         0.00000E+00
    0.24957E-09         0.17418E-12         0.00000E+00
    0.24957E-09         0.19524E-12         0.00000E+00
    0.24957E-09         0.21132E-12         0.00000E+00
    0.24957E-09         0.22367E-12         0.00000E+00
    0.24957E-09         0.23028E-12         0.00000E+00
    0.24956E-09         0.22684E-12         0.00000E+00
    0.24956E-09         0.21188E-12         0.00000E+00
    0.24955E-09         0.18659E-12         0.00000E+00
    0.24955E-09         0.15204E-12         0.00000E+00
    0.24954E-09         0.10890E-12         0.00000E+00
    0.24954E-09         0.57506E-13         0.00000E+00
    0.24954E-09         0.29770E-13         0.00000E+00
    0.49885E-09         0.30980E-13         0.00000E+00
    0.49885E-09         0.58531E-13         0.00000E+00
    0.49883E-09         0.10725E-12         0.00000E+00
    0.49882E-09         0.14430E-12         0.00000E+00
    0.49882E-09         0.17200E-12         0.00000E+00
    0.49881E-09         0.19273E-12         0.00000E+00
    0.49881E-09         0.20852E-12         0.00000E+00
    0.49881E-09         0.22059E-12         0.00000E+00
    0.49880E-09         0.22700E-12         0.00000E+00
    0.49879E-09         0.22354E-12         0.00000E+00
    0.49878E-09         0.20876E-12         0.00000E+00
    0.49878E-09         0.18383E-12         0.00000E+00
    0.49877E-09         0.14979E-12         0.00000E+00
    0.49876E-09         0.10728E-12         0.00000E+00
    0.49875E-09         0.56654E-13         0.00000E+00
    0.49875E-09         0.29330E-13         0.00000E+00
    0.99640E-09         0.30115E-13         0.00000E+00
    0.99638E-09         0.56766E-13         0.00000E+00
    0.99636E-09         0.10369E-12         0.00000E+00
    0.99634E-09         0.13911E-12         0.00000E+00
    0.99633E-09         0.16554E-12         0.00000E+00
    0.99632E-09         0.18529E-12         0.00000E+00
    0.99631E-09         0.20022E-12         0.00000E+00
    0.99631E-09         0.21146E-12         0.00000E+00
    0.99630E-09         0.21726E-12         0.00000E+00
    0.99628E-09         0.21373E-12         0.00000E+00
    0.99626E-09         0.19949E-12         0.00000E+00
    0.99625E-09         0.17562E-12         0.00000E+00
    0.99623E-09         0.14307E-12         0.00000E+00
    0.99622E-09         0.10247E-12         0.00000E+00
    0.99620E-09         0.54116E-13         0.00000E+00
    0.99620E-09         0.28018E-13         0.00000E+00
    0.14913E-08         0.28572E-13         0.00000E+00
    0.14913E-08         0.53655E-13         0.00000E+00
    0.14913E-08         0.97569E-13         0.00000E+00
    0.14912E-08         0.13044E-12         0.00000E+00
    0.14912E-08         0.15493E-12         0.00000E+00
    0.14912E-08         0.17314E-12         0.00000E+00
    0.14912E-08         0.18665E-12         0.00000E+00
    0.14912E-08         0.19652E-12         0.00000E+00
    0.14912E-08         0.20132E-12         0.00000E+00
    0.14912E-08         0.19766E-12         0.00000E+00
    0.14911E-08         0.18430E-12         0.00000E+00
    0.14911E-08         0.16214E-12         0.00000E+00
    0.14911E-08         0.13204E-12         0.00000E+00
    0.14911E-08         0.94561E-13         0.00000E+00
    0.14910E-08         0.49939E-13         0.00000E+00
    0.14910E-08         0.25857E-13         0.00000E+00
    0.19823E-08         0.26160E-13         0.00000E+00
    0.19823E-08         0.48942E-13         0.00000E+00
    0.19823E-08         0.88682E-13         0.00000E+00
    0.19822E-08         0.11835E-12         0.00000E+00
    0.19822E-08         0.14049E-12         0.00000E+00
    0.19822E-08         0.15670E-12         0.00000E+00
    0.19822E-08         0.16824E-12         0.00000E+00
    0.19822E-08         0.17614E-12         0.00000E+00
    0.19821E-08         0.17954E-12         0.00000E+00
    0.19821E-08         0.17570E-12         0.00000E+00
    0.19821E-08         0.16351E-12         0.00000E+00
    0.19821E-08         0.14368E-12         0.00000E+00
    0.19820E-08         0.11692E-12         0.00000E+00
    0.19820E-08         0.83700E-13         0.00000E+00
    0.19820E-08         0.44198E-13         0.00000E+00
    0.19820E-08         0.22885E-13         0.00000E+00
    0.24681E-08         0.22729E-13         0.00000E+00
    0.24681E-08         0.42480E-13         0.00000E+00
    0.24681E-08         0.77055E-13         0.00000E+00
    0.24680E-08         0.10316E-12         0.00000E+00
    0.24680E-08         0.12265E-12         0.00000E+00
    0.24680E-08         0.13639E-12         0.00000E+00
    0.24679E-08         0.14534E-12         0.00000E+00
    0.24679E-08         0.15066E-12         0.00000E+00
    0.24679E-08         0.15225E-12         0.00000E+00
    0.24679E-08         0.14819E-12         0.00000E+00
    0.24678E-08         0.13749E-12         0.00000E+00
    0.24678E-08         0.12057E-12         0.00000E+00
    0.24678E-08         0.97984E-13         0.00000E+00
    0.24677E-08         0.70081E-13         0.00000E+00
    0.24677E-08         0.36990E-13         0.00000E+00
    0.24677E-08         0.19150E-13         0.00000E+00
    0.29474E-08         0.18267E-13         0.00000E+00
    0.29474E-08         0.34356E-13         0.00000E+00
    0.29473E-08         0.62947E-13         0.00000E+00
    0.29473E-08         0.85115E-13         0.00000E+00
    0.29473E-08         0.10159E-12         0.00000E+00
    0.29472E-08         0.11244E-12         0.00000E+00
    0.29472E-08         0.11821E-12         0.00000E+00
    0.29472E-08         0.12030E-12         0.00000E+00
    0.29472E-08         0.11969E-12         0.00000E+00
    0.29471E-08         0.11549E-12         0.00000E+00
    0.29471E-08         0.10664E-12         0.00000E+00
    0.29470E-08         0.93204E-13         0.00000E+00
    0.29470E-08         0.75552E-13         0.00000E+00
    0.29470E-08         0.53935E-13         0.00000E+00
    0.29469E-08         0.28435E-13         0.00000E+00
    0.29469E-08         0.14712E-13         0.00000E+00
    0.34190E-08         0.13108E-13         0.00000E+00
    0.34189E-08         0.25010E-13         0.00000E+00
    0.34189E-08         0.46655E-13         0.00000E+00
    0.34188E-08         0.64022E-13         0.00000E+00
    0.34188E-08         0.76800E-13         0.00000E+00
    0.34187E-08         0.84451E-13         0.00000E+00
    0.34187E-08         0.86836E-13         0.00000E+00
    0.34187E-08         0.85225E-13         0.00000E+00
    0.34187E-08         0.82044E-13         0.00000E+00
    0.34186E-08         0.77852E-13         0.00000E+00
    0.34186E-08         0.71347E-13         0.00000E+00
    0.34185E-08         0.61989E-13         0.00000E+00
    0.34185E-08         0.49993E-13         0.00000E+00
    0.34185E-08         0.35535E-13         0.00000E+00
    0.34184E-08         0.18675E-13         0.00000E+00
    0.34184E-08         0.96438E-14         0.00000E+00
    0.38815E-08         0.75416E-14         0.00000E+00
    0.38814E-08         0.14717E-13         0.00000E+00
    0.38813E-08         0.28139E-13         0.00000E+00
    0.38813E-08         0.39227E-13         0.00000E+00
    0.38812E-08         0.47125E-13         0.00000E+00
    0.38812E-08         0.51151E-13         0.00000E+00
    0.38812E-08         0.50578E-13         0.00000E+00
    0.38812E-08         0.45546E-13         0.00000E+00
    0.38811E-08         0.39468E-13         0.00000E+00
    0.38811E-08         0.35480E-13         0.00000E+00
    0.38810E-08         0.32031E-13         0.00000E+00
    0.38810E-08         0.27383E-13         0.00000E+00
    0.38810E-08         0.21745E-13         0.00000E+00
    0.38809E-08         0.15227E-13         0.00000E+00
    0.38809E-08         0.78941E-14         0.00000E+00
    0.38809E-08         0.40392E-14         0.00000E+00
    0.43337E-08         0.13777E-14         0.00000E+00
    0.43336E-08         0.32195E-14         0.00000E+00
    0.43335E-08         0.69692E-14         0.00000E+00
    0.43335E-08         0.99353E-14         0.00000E+00
    0.43334E-08         0.11172E-13         0.00000E+00
    0.43334E-08         0.10602E-13         0.00000E+00
    0.43334E-08         0.76099E-14         0.00000E+00
    0.43334E-08         0.47223E-15         0.00000E+00
    0.43333E-08        -0.75738E-14         0.00000E+00
    0.43333E-08        -0.10843E-13         0.00000E+00
    0.43332E-08        -0.10873E-13         0.00000E+00
    0.43332E-08        -0.10107E-13         0.00000E+00
    0.43332E-08        -0.85729E-14         0.00000E+00
    0.43331E-08        -0.65261E-14         0.00000E+00
    0.43331E-08        -0.36562E-14         0.00000E+00
    0.43331E-08        -0.19782E-14         0.00000E+00
    0.47744E-08        -0.46545E-14         0.00000E+00
    0.47743E-08        -0.88742E-14         0.00000E+00
    0.47742E-08        -0.16900E-13         0.00000E+00
    0.47742E-08        -0.24501E-13         0.00000E+00
    0.47741E-08        -0.31906E-13         0.00000E+00
    0.47741E-08        -0.38721E-13         0.00000E+00
    0.47741E-08        -0.44633E-13         0.00000E+00
    0.47740E-08        -0.51301E-13         0.00000E+00
    0.47740E-08        -0.58801E-13         0.00000E+00
    0.47740E-08        -0.61469E-13         0.00000E+00
    0.47739E-08        -0.57153E-13         0.00000E+00
    0.47739E-08        -0.49522E-13         0.00000E+00
    0.47739E-08        -0.40199E-13         0.00000E+00
    0.47738E-08        -0.29025E-13         0.00000E+00
    0.47738E-08        -0.15596E-13         0.00000E+00
    0.47738E-08        -0.82008E-14         0.00000E+00
    0.52023E-08        -0.11654E-13         0.00000E+00
    0.52023E-08        -0.22919E-13         0.00000E+00
    0.52022E-08        -0.44671E-13         0.00000E+00
    0.52022E-08        -0.64684E-13         0.00000E+00
    0.52021E-08        -0.82373E-13         0.00000E+00
    0.52021E-08        -0.96909E-13         0.00000E+00
    0.52021E-08        -0.10777E-12         0.00000E+00
    0.52020E-08        -0.11441E-12         0.00000E+00
    0.52020E-08        -0.11707E-12         0.00000E+00
    0.52020E-08        -0.11492E-12         0.00000E+00
    0.52020E-08        -0.10547E-12         0.00000E+00
    0.52019E-08        -0.90202E-13         0.00000E+00
    0.52019E-08        -0.72004E-13         0.00000E+00
    0.52018E-08        -0.51254E-13         0.00000E+00
    0.52018E-08        -0.27238E-13         0.00000E+00
    0.52018E-08        -0.14261E-13         0.00000E+00
    0.56164E-08        -0.20263E-13         0.00000E+00
    0.56164E-08        -0.39793E-13         0.00000E+00
    0.56163E-08        -0.77243E-13         0.00000E+00
    0.56163E-08        -0.11103E-12         0.00000E+00
    0.56162E-08        -0.14007E-12         0.00000E+00
    0.56162E-08        -0.16313E-12         0.00000E+00
    0.56162E-08        -0.17913E-12         0.00000E+00
    0.56162E-08        -0.18740E-12         0.00000E+00
    0.56162E-08        -0.18736E-12         0.00000E+00
    0.56161E-08        -0.17733E-12         0.00000E+00
    0.56161E-08        -0.15727E-12         0.00000E+00
    0.56161E-08        -0.13143E-12         0.00000E+00
    0.56160E-08        -0.10290E-12         0.00000E+00
    0.56160E-08        -0.71633E-13         0.00000E+00
    0.56160E-08        -0.37378E-13         0.00000E+00
    0.56159E-08        -0.19447E-13         0.00000E+00
    0.60155E-08        -0.30294E-13         0.00000E+00
    0.60155E-08        -0.59329E-13         0.00000E+00
    0.60154E-08        -0.11459E-12         0.00000E+00
    0.60154E-08        -0.16349E-12         0.00000E+00
    0.60153E-08        -0.20444E-12         0.00000E+00
    0.60153E-08        -0.23574E-12         0.00000E+00
    0.60153E-08        -0.25623E-12         0.00000E+00
    0.60153E-08        -0.26555E-12         0.00000E+00
    0.60153E-08        -0.26380E-12         0.00000E+00
    0.60153E-08        -0.25029E-12         0.00000E+00
    0.60152E-08        -0.22265E-12         0.00000E+00
    0.60152E-08        -0.18173E-12         0.00000E+00
    0.60152E-08        -0.13505E-12         0.00000E+00
    0.60151E-08        -0.89352E-13         0.00000E+00
    0.60151E-08        -0.44841E-13         0.00000E+00
    0.60151E-08        -0.22554E-13         0.00000E+00
    0.63984E-08        -0.41754E-13         0.00000E+00
    0.63984E-08        -0.81495E-13         0.00000E+00
    0.63983E-08        -0.15652E-12         0.00000E+00
    0.63983E-08        -0.22155E-12         0.00000E+00
    0.63982E-08        -0.27430E-12         0.00000E+00
    0.63982E-08        -0.31284E-12         0.00000E+00
    0.63982E-08        -0.33646E-12         0.00000E+00
    0.63982E-08        -0.34543E-12         0.00000E+00
    0.63982E-08        -0.34013E-12         0.00000E+00
    0.63982E-08        -0.32101E-12         0.00000E+00
    0.63982E-08        -0.28841E-12         0.00000E+00
    0.63982E-08        -0.24170E-12         0.00000E+00
    0.63982E-08        -0.18238E-12         0.00000E+00
    0.63981E-08        -0.11614E-12         0.00000E+00
    0.63981E-08        -0.53111E-13         0.00000E+00
    0.63981E-08        -0.24023E-13         0.00000E+00
    0.67641E-08        -0.54579E-13         0.00000E+00
    0.67640E-08        -0.10621E-12         0.00000E+00
    0.67640E-08        -0.20289E-12         0.00000E+00
    0.67640E-08        -0.28456E-12         0.00000E+00
    0.67639E-08        -0.34796E-12         0.00000E+00
    0.67639E-08        -0.39190E-12         0.00000E+00
    0.67640E-08        -0.41708E-12         0.00000E+00
    0.67640E-08        -0.42435E-12         0.00000E+00
    0.67640E-08        -0.41450E-12         0.00000E+00
    0.67640E-08        -0.38836E-12         0.00000E+00
    0.67640E-08        -0.34659E-12         0.00000E+00
    0.67640E-08        -0.28994E-12         0.00000E+00
    0.67640E-08        -0.22051E-12         0.00000E+00
    0.67640E-08        -0.14424E-12         0.00000E+00
    0.67639E-08        -0.69676E-13         0.00000E+00
    0.67639E-08        -0.33865E-13         0.00000E+00
    0.71114E-08        -0.68751E-13         0.00000E+00
    0.71114E-08        -0.13390E-12         0.00000E+00
    0.71114E-08        -0.25422E-12         0.00000E+00
    0.71114E-08        -0.35132E-12         0.00000E+00
    0.71114E-08        -0.42262E-12         0.00000E+00
    0.71114E-08        -0.47012E-12         0.00000E+00
    0.71114E-08        -0.49569E-12         0.00000E+00
    0.71115E-08        -0.50041E-12         0.00000E+00
    0.71115E-08        -0.48526E-12         0.00000E+00
    0.71115E-08        -0.45126E-12         0.00000E+00
    0.71115E-08        -0.39978E-12         0.00000E+00
    0.71115E-08        -0.33296E-12         0.00000E+00
    0.71115E-08        -0.25439E-12         0.00000E+00
    0.71115E-08        -0.16941E-12         0.00000E+00
    0.71115E-08        -0.83708E-13         0.00000E+00
    0.71114E-08        -0.41336E-13         0.00000E+00
    0.74395E-08        -0.86065E-13         0.00000E+00
    0.74395E-08        -0.16629E-12         0.00000E+00
    0.74395E-08        -0.30976E-12         0.00000E+00
    0.74395E-08        -0.41823E-12         0.00000E+00
    0.74396E-08        -0.49500E-12         0.00000E+00
    0.74396E-08        -0.54514E-12         0.00000E+00
    0.74396E-08        -0.57030E-12         0.00000E+00
    0.74397E-08        -0.57194E-12         0.00000E+00
    0.74397E-08        -0.55122E-12         0.00000E+00
    0.74398E-08        -0.50965E-12         0.00000E+00
    0.74398E-08        -0.44944E-12         0.00000E+00
    0.74398E-08        -0.37371E-12         0.00000E+00
    0.74398E-08        -0.28637E-12         0.00000E+00
    0.74398E-08        -0.19183E-12         0.00000E+00
    0.74397E-08        -0.95208E-13         0.00000E+00
    0.74397E-08        -0.47094E-13         0.00000E+00
    0.77474E-08        -0.10388E-12         0.00000E+00
    0.77474E-08        -0.19702E-12         0.00000E+00
    0.77474E-08        -0.36068E-12         0.00000E+00
    0.77475E-08        -0.48078E-12         0.00000E+00
    0.77475E-08        -0.56336E-12         0.00000E+00
    0.77476E-08        -0.61513E-12         0.00000E+00
    0.77476E-08        -0.63933E-12         0.00000E+00
    0.77477E-08        -0.63750E-12         0.00000E+00
    0.77478E-08        -0.61127E-12         0.00000E+00
    0.77478E-08        -0.56300E-12         0.00000E+00
    0.77479E-08        -0.49554E-12         0.00000E+00
    0.77479E-08        -0.41219E-12         0.00000E+00
    0.77479E-08        -0.31651E-12         0.00000E+00
    0.77479E-08        -0.21252E-12         0.00000E+00
    0.77478E-08        -0.10564E-12         0.00000E+00
    0.77478E-08        -0.52281E-13         0.00000E+00
    0.80341E-08        -0.12220E-12         0.00000E+00
    0.80341E-08        -0.22907E-12         0.00000E+00
    0.80342E-08        -0.41372E-12         0.00000E+00
    0.80343E-08        -0.54324E-12         0.00000E+00
    0.80344E-08        -0.62780E-12         0.00000E+00
    0.80345E-08        -0.67912E-12         0.00000E+00
    0.80345E-08        -0.70134E-12         0.00000E+00
    0.80346E-08        -0.69531E-12         0.00000E+00
    0.80347E-08        -0.66376E-12         0.00000E+00
    0.80348E-08        -0.60975E-12         0.00000E+00
    0.80348E-08        -0.53645E-12         0.00000E+00
    0.80349E-08        -0.44696E-12         0.00000E+00
    0.80349E-08        -0.34432E-12         0.00000E+00
    0.80349E-08        -0.23216E-12         0.00000E+00
    0.80348E-08        -0.11587E-12         0.00000E+00
    0.80348E-08        -0.57522E-13         0.00000E+00
    0.82988E-08        -0.13732E-12         0.00000E+00
    0.82989E-08        -0.25683E-12         0.00000E+00
    0.82990E-08        -0.46208E-12         0.00000E+00
    0.82991E-08        -0.60248E-12         0.00000E+00
    0.82993E-08        -0.68886E-12         0.00000E+00
    0.82994E-08        -0.73680E-12         0.00000E+00
    0.82995E-08        -0.75426E-12         0.00000E+00
    0.82996E-08        -0.74308E-12         0.00000E+00
    0.82997E-08        -0.70624E-12         0.00000E+00
    0.82998E-08        -0.64726E-12         0.00000E+00
    0.82999E-08        -0.56952E-12         0.00000E+00
    0.82999E-08        -0.47585E-12         0.00000E+00
    0.82999E-08        -0.36861E-12         0.00000E+00
    0.82999E-08        -0.25052E-12         0.00000E+00
    0.82999E-08        -0.12609E-12         0.00000E+00
    0.82998E-08        -0.63013E-13         0.00000E+00
    0.85408E-08        -0.14847E-12         0.00000E+00
    0.85409E-08        -0.27808E-12         0.00000E+00
    0.85411E-08        -0.50019E-12         0.00000E+00
    0.85413E-08        -0.65058E-12         0.00000E+00
    0.85414E-08        -0.73963E-12         0.00000E+00
    0.85416E-08        -0.78394E-12         0.00000E+00
    0.85417E-08        -0.79513E-12         0.00000E+00
    0.85418E-08        -0.77778E-12         0.00000E+00
    0.85420E-08        -0.73549E-12         0.00000E+00
    0.85421E-08        -0.67226E-12         0.00000E+00
    0.85421E-08        -0.59165E-12         0.00000E+00
    0.85422E-08        -0.49621E-12         0.00000E+00
    0.85422E-08        -0.38745E-12         0.00000E+00
    0.85422E-08        -0.26651E-12         0.00000E+00
    0.85422E-08        -0.13585E-12         0.00000E+00
    0.85421E-08        -0.68554E-13         0.00000E+00
    0.87592E-08        -0.15768E-12         0.00000E+00
    0.87594E-08        -0.29449E-12         0.00000E+00
    0.87596E-08        -0.52800E-12         0.00000E+00
    0.87599E-08        -0.68426E-12         0.00000E+00
    0.87601E-08        -0.77409E-12         0.00000E+00
    0.87603E-08        -0.81462E-12         0.00000E+00
    0.87605E-08        -0.81938E-12         0.00000E+00
    0.87606E-08        -0.79534E-12         0.00000E+00
    0.87608E-08        -0.74775E-12         0.00000E+00
    0.87609E-08        -0.68128E-12         0.00000E+00
    0.87610E-08        -0.59960E-12         0.00000E+00
    0.87610E-08        -0.50501E-12         0.00000E+00
    0.87611E-08        -0.39818E-12         0.00000E+00
    0.87611E-08        -0.27825E-12         0.00000E+00
    0.87610E-08        -0.14433E-12         0.00000E+00
    0.87610E-08        -0.73834E-13         0.00000E+00
    0.89536E-08        -0.16425E-12         0.00000E+00
    0.89537E-08        -0.30553E-12         0.00000E+00
    0.89541E-08        -0.54484E-12         0.00000E+00
    0.89545E-08        -0.70188E-12         0.00000E+00
    0.89547E-08        -0.78895E-12         0.00000E+00
    0.89549E-08        -0.82376E-12         0.00000E+00
    0.89551E-08        -0.82130E-12         0.00000E+00
    0.89553E-08        -0.79075E-12         0.00000E+00
    0.89554E-08        -0.73896E-12         0.00000E+00
    0.89555E-08        -0.67104E-12         0.00000E+00
    0.89556E-08        -0.59052E-12         0.00000E+00
    0.89557E-08        -0.49938E-12         0.00000E+00
    0.89558E-08        -0.39775E-12         0.00000E+00
    0.89558E-08        -0.28302E-12         0.00000E+00
    0.89558E-08        -0.14996E-12         0.00000E+00
    0.89557E-08        -0.78074E-13         0.00000E+00
    0.91232E-08        -0.16821E-12         0.00000E+00
    0.91234E-08        -0.31128E-12         0.00000E+00
    0.91238E-08        -0.55032E-12         0.00000E+00
    0.91243E-08        -0.70146E-12         0.00000E+00
    0.91246E-08        -0.78037E-12         0.00000E+00
    0.91248E-08        -0.80629E-12         0.00000E+00
    0.91250E-08        -0.79548E-12         0.00000E+00
    0.91252E-08        -0.75909E-12         0.00000E+00
    0.91254E-08        -0.70515E-12         0.00000E+00
    0.91255E-08        -0.63871E-12         0.00000E+00
    0.91256E-08        -0.56236E-12         0.00000E+00
    0.91257E-08        -0.47732E-12         0.00000E+00
    0.91257E-08        -0.38357E-12         0.00000E+00
    0.91258E-08        -0.27791E-12         0.00000E+00
    0.91258E-08        -0.15071E-12         0.00000E+00
    0.91258E-08        -0.80030E-13         0.00000E+00
    0.92675E-08        -0.16966E-12         0.00000E+00
    0.92678E-08        -0.31122E-12         0.00000E+00
    0.92684E-08        -0.54257E-12         0.00000E+00
    0.92689E-08        -0.68002E-12         0.00000E+00
    0.92692E-08        -0.74449E-12         0.00000E+00
    0.92695E-08        -0.75766E-12         0.00000E+00
    0.92697E-08        -0.73742E-12         0.00000E+00
    0.92699E-08        -0.69654E-12         0.00000E+00
    0.92701E-08        -0.64335E-12         0.00000E+00
    0.92702E-08        -0.58213E-12         0.00000E+00
    0.92703E-08        -0.51399E-12         0.00000E+00
    0.92704E-08        -0.43834E-12         0.00000E+00
    0.92705E-08        -0.35469E-12         0.00000E+00
    0.92705E-08        -0.26085E-12         0.00000E+00
    0.92706E-08        -0.14456E-12         0.00000E+00
    0.92706E-08        -0.78277E-13         0.00000E+00
    0.93862E-08        -0.16834E-12         0.00000E+00
    0.93866E-08        -0.30419E-12         0.00000E+00
    0.93872E-08        -0.51822E-12         0.00000E+00
    0.93878E-08        -0.63236E-12         0.00000E+00
    0.93882E-08        -0.67585E-12         0.00000E+00
    0.93885E-08        -0.67343E-12         0.00000E+00
    0.93888E-08        -0.64427E-12         0.00000E+00
    0.93890E-08        -0.60155E-12         0.00000E+00
    0.93891E-08        -0.55254E-12         0.00000E+00
    0.93893E-08        -0.50022E-12         0.00000E+00
    0.93894E-08        -0.44453E-12         0.00000E+00
    0.93895E-08        -0.38294E-12         0.00000E+00
    0.93895E-08        -0.31220E-12         0.00000E+00
    0.93896E-08        -0.23113E-12         0.00000E+00
    0.93896E-08        -0.12970E-12         0.00000E+00
    0.93897E-08        -0.71337E-13         0.00000E+00
    0.94789E-08        -0.16374E-12         0.00000E+00
    0.94793E-08        -0.28764E-12         0.00000E+00
    0.94800E-08        -0.47031E-12         0.00000E+00
    0.94807E-08        -0.54928E-12         0.00000E+00
    0.94812E-08        -0.56724E-12         0.00000E+00
    0.94815E-08        -0.55018E-12         0.00000E+00
    0.94817E-08        -0.51592E-12         0.00000E+00
    0.94820E-08        -0.47594E-12         0.00000E+00
    0.94821E-08        -0.43497E-12         0.00000E+00
    0.94822E-08        -0.39426E-12         0.00000E+00
    0.94824E-08        -0.35334E-12         0.00000E+00
    0.94824E-08        -0.31012E-12         0.00000E+00
    0.94825E-08        -0.25870E-12         0.00000E+00
    0.94826E-08        -0.19338E-12         0.00000E+00
    0.94827E-08        -0.10784E-12         0.00000E+00
    0.94827E-08        -0.58765E-13         0.00000E+00
    0.95452E-08        -0.15301E-12         0.00000E+00
    0.95457E-08        -0.25474E-12         0.00000E+00
    0.95466E-08        -0.38500E-12         0.00000E+00
    0.95473E-08        -0.41643E-12         0.00000E+00
    0.95478E-08        -0.41172E-12         0.00000E+00
    0.95481E-08        -0.38837E-12         0.00000E+00
    0.95484E-08        -0.35663E-12         0.00000E+00
    0.95486E-08        -0.32584E-12         0.00000E+00
    0.95487E-08        -0.29688E-12         0.00000E+00
    0.95489E-08        -0.26910E-12         0.00000E+00
    0.95490E-08        -0.24261E-12         0.00000E+00
    0.95491E-08        -0.21714E-12         0.00000E+00
    0.95491E-08        -0.19077E-12         0.00000E+00
    0.95492E-08        -0.15088E-12         0.00000E+00
    0.95493E-08        -0.84257E-13         0.00000E+00
    0.95494E-08        -0.43743E-13         0.00000E+00
    0.95850E-08        -0.12071E-12         0.00000E+00
    0.95856E-08        -0.17957E-12         0.00000E+00
    0.95866E-08        -0.23432E-12         0.00000E+00
    0.95873E-08        -0.22544E-12         0.00000E+00
    0.95878E-08        -0.21300E-12         0.00000E+00
    0.95882E-08        -0.19557E-12         0.00000E+00
    0.95884E-08        -0.17790E-12         0.00000E+00
    0.95886E-08        -0.16263E-12         0.00000E+00
    0.95888E-08        -0.14797E-12         0.00000E+00
    0.95889E-08        -0.13366E-12         0.00000E+00
    0.95890E-08        -0.12024E-12         0.00000E+00
    0.95891E-08        -0.10839E-12         0.00000E+00
    0.95892E-08        -0.98278E-13         0.00000E+00
    0.95893E-08        -0.91302E-13         0.00000E+00
    0.95894E-08        -0.66718E-13         0.00000E+00
    0.95895E-08        -0.44439E-13         0.00000E+00
    0.95983E-08         0.00000E+00         0.00000E+00
    0.95989E-08         0.00000E+00         0.00000E+00
    0.95999E-08        -0.24851E-22         0.00000E+00
    0.96007E-08         0.21955E-26         0.00000E+00
    0.96012E-08         0.28995E-22         0.00000E+00
    0.96016E-08         0.00000E+00         0.00000E+00
    0.96018E-08         0.00000E+00         0.00000E+00
    0.96020E-08        -0.24858E-22         0.00000E+00
    0.96022E-08        -0.24858E-22         0.00000E+00
    0.96023E-08         0.24859E-22         0.00000E+00
    0.96024E-08         0.29002E-22         0.00000E+00
    0.96025E-08        -0.29003E-22         0.00000E+00
    0.96026E-08        -0.41429E-23         0.00000E+00
    0.96026E-08         0.29004E-22         0.00000E+00
    0.96028E-08         0.82870E-23         0.00000E+00
    0.96029E-08         0.00000E+00         0.00000E+00
CELL_DATA        450
TENSORS stressef double 
   -0.10980E+07         0.76754E+04         0.00000E+00
    0.76754E+04        -0.24322E+08         0.00000E+00
    0.00000E+00         0.00000E+00        -0.60281E+07
 
   -0.10094E+07         0.21119E+05         0.00000E+00
    0.21119E+05        -0.24293E+08         0.00000E+00
    0.00000E+00         0.00000E+00        -0.61331E+07
 
   -0.92733E+06         0.32426E+05         0.00000E+00
    0.32426E+05        -0.24240E+08         0.00000E+00
    0.00000E+00         0.00000E+00        -0.61839E+07
 
   -0.87518E+06         0.40288E+05         0.00000E+00
    0.40288E+05        -0.24167E+08         0.00000E+00
    0.00000E+00         0.00000E+00        -0.61460E+07
 
   -0.87460E+06         0.43822E+05         0.00000E+00
    0.43822E+05        -0.24084E+08         0.00000E+00
    0.00000E+00         0.00000E+00        -0.59944E+07
 
   -0.92659E+06         0.43652E+05         0.00000E+00
    0.43652E+05        -0.23997E+08         0.00000E+00
    0.00000E+00         0.00000E+00        -0.57473E+07
 
   -0.10209E+07         0.41456E+05         0.00000E+00
    0.41456E+05        -0.23914E+08         0.00000E+00
    0.00000E+00         0.00000E+00        -0.54404E+07
 
   -0.11476E+07         0.38478E+05         0.00000E+00
    0.38478E+05        -0.23835E+08         0.00000E+00
    0.00000E+00         0.00000E+00        -0.51034E+07
 
   -0.17224E+07         0.37959E+05         0.00000E+00
    0.37959E+05        -0.23760E+08         0.00000E+00
    0.00000E+00         0.00000E+00        -0.50966E+07
 
   -0.24299E+07         0.42667E+05         0.00000E+00
    0.42667E+05        -0.23680E+08         0.00000E+00
    0.00000E+00         0.00000E+00        -0.52220E+07
 
   -0.30866E+07         0.51071E+05         0.00000E+00
    0.51071E+05        -0.23587E+08         0.00000E+00
    0.00000E+00         0.00000E+00        -0.53347E+07
 
   -0.37048E+07         0.62627E+05         0.00000E+00
    0.62627E+05        -0.23473E+08         0.00000E+00
    0.00000E+00         0.00000E+00        -0.54357E+07
 
   -0.42953E+07         0.77060E+05         0.00000E+00
    0.77060E+05        -0.23334E+08         0.00000E+00
    0.00000E+00         0.00000E+00        -0.55259E+07
 
   -0.48676E+07         0.94186E+05         0.00000E+00
    0.94186E+05        -0.23163E+08         0.00000E+00
    0.00000E+00         0.00000E+00        -0.56062E+07
 
   -0.54304E+07         0.11385E+06         0.00000E+00
    0.11385E+06        -0.22956E+08         0.00000E+00
    0.00000E+00         0.00000E+00        -0.56772E+07
 
   -0.11396E+07         0.22627E+05         0.00000E+00
    0.22627E+05        -0.24393E+08         0.00000E+00
    0.00000E+00         0.00000E+00        -0.60814E+07
 
   -0.10540E+07         0.62626E+05         0.00000E+00
    0.62626E+05        -0.24365E+08         0.00000E+00
    0.00000E+00         0.00000E+00        -0.61839E+07
 
   -0.97749E+06         0.96305E+05         0.00000E+00
    0.96305E+05        -0.24313E+08         0.00000E+00
    0.00000E+00         0.00000E+00        -0.62287E+07
 
   -0.93323E+06         0.11921E+06         0.00000E+00
    0.11921E+06        -0.24243E+08         0.00000E+00
    0.00000E+00         0.00000E+00        -0.61821E+07
 
   -0.94142E+06         0.12918E+06         0.00000E+00
    0.12918E+06        -0.24164E+08         0.00000E+00
    0.00000E+00         0.00000E+00        -0.60230E+07
 
   -0.99900E+06         0.12881E+06         0.00000E+00
    0.12881E+06        -0.24082E+08         0.00000E+00
    0.00000E+00         0.00000E+00        -0.57746E+07
 
   -0.10963E+07         0.12265E+06         0.00000E+00
    0.12265E+06        -0.24002E+08         0.00000E+00
    0.00000E+00         0.00000E+00        -0.54705E+07
 
   -0.12236E+07         0.11416E+06         0.00000E+00
    0.11416E+06        -0.23926E+08         0.00000E+00
    0.00000E+00         0.00000E+00        -0.51378E+07
 
   -0.17872E+07         0.11311E+06         0.00000E+00
    0.11311E+06        -0.23853E+08         0.00000E+00
    0.00000E+00         0.00000E+00        -0.51281E+07
 
   -0.24865E+07         0.12739E+06         0.00000E+00
    0.12739E+06        -0.23774E+08         0.00000E+00
    0.00000E+00         0.00000E+00        -0.52522E+07
 
   -0.31365E+07         0.15255E+06         0.00000E+00
    0.15255E+06        -0.23682E+08         0.00000E+00
    0.00000E+00         0.00000E+00        -0.53638E+07
 
   -0.37488E+07         0.18713E+06         0.00000E+00
    0.18713E+06        -0.23570E+08         0.00000E+00
    0.00000E+00         0.00000E+00        -0.54638E+07
 
   -0.43337E+07         0.23033E+06         0.00000E+00
    0.23033E+06        -0.23433E+08         0.00000E+00
    0.00000E+00         0.00000E+00        -0.55533E+07
 
   -0.49008E+07         0.28162E+06         0.00000E+00
    0.28162E+06        -0.23264E+08         0.00000E+00
    0.00000E+00         0.00000E+00        -0.56329E+07
 
   -0.54586E+07         0.34055E+06         0.00000E+00
    0.34055E+06        -0.23058E+08         0.00000E+00
    0.00000E+00         0.00000E+00        -0.57033E+07
 
   -0.12236E+07         0.36596E+05         0.00000E+00
    0.36596E+05        -0.24532E+08         0.00000E+00
    0.00000E+00         0.00000E+00        -0.61855E+07
 
   -0.11439E+07         0.10206E+06         0.00000E+00
    0.10206E+06        -0.24507E+08         0.00000E+00
    0.00000E+00         0.00000E+00        -0.62826E+07
 
   -0.10783E+07         0.15680E+06         0.00000E+00
    0.15680E+06        -0.24459E+08         0.00000E+00
    0.00000E+00         0.00000E+00        -0.63167E+07
 
   -0.10511E+07         0.19281E+06         0.00000E+00
    0.19281E+06        -0.24396E+08         0.00000E+00
    0.00000E+00         0.00000E+00        -0.62523E+07
 
   -0.10750E+07         0.20808E+06         0.00000E+00
    0.20808E+06        -0.24325E+08         0.00000E+00
    0.00000E+00         0.00000E+00        -0.60808E+07
 
   -0.11432E+07         0.20793E+06         0.00000E+00
    0.20793E+06        -0.24251E+08         0.00000E+00
    0.00000E+00         0.00000E+00        -0.58303E+07
 
   -0.12458E+07         0.19899E+06         0.00000E+00
    0.19899E+06        -0.24177E+08         0.00000E+00
    0.00000E+00         0.00000E+00        -0.55315E+07
 
   -0.13749E+07         0.18623E+06         0.00000E+00
    0.18623E+06        -0.24106E+08         0.00000E+00
    0.00000E+00         0.00000E+00        -0.52073E+07
 
   -0.19157E+07         0.18582E+06         0.00000E+00
    0.18582E+06        -0.24038E+08         0.00000E+00
    0.00000E+00         0.00000E+00        -0.51907E+07
 
   -0.25995E+07         0.21012E+06         0.00000E+00
    0.21012E+06        -0.23962E+08         0.00000E+00
    0.00000E+00         0.00000E+00        -0.53123E+07
 
   -0.32362E+07         0.25196E+06         0.00000E+00
    0.25196E+06        -0.23873E+08         0.00000E+00
    0.00000E+00         0.00000E+00        -0.54218E+07
 
   -0.38366E+07         0.30933E+06         0.00000E+00
    0.30933E+06        -0.23764E+08         0.00000E+00
    0.00000E+00         0.00000E+00        -0.55200E+07
 
   -0.44104E+07         0.38103E+06         0.00000E+00
    0.38103E+06        -0.23629E+08         0.00000E+00
    0.00000E+00         0.00000E+00        -0.56079E+07
 
   -0.49670E+07         0.46624E+06         0.00000E+00
    0.46624E+06        -0.23464E+08         0.00000E+00
    0.00000E+00         0.00000E+00        -0.56861E+07
 
   -0.55149E+07         0.56425E+06         0.00000E+00
    0.56425E+06        -0.23262E+08         0.00000E+00
    0.00000E+00         0.00000E+00        -0.57554E+07
 
   -0.13512E+07         0.48986E+05         0.00000E+00
    0.48986E+05        -0.24742E+08         0.00000E+00
    0.00000E+00         0.00000E+00        -0.63381E+07
 
   -0.12802E+07         0.13778E+06         0.00000E+00
    0.13778E+06        -0.24720E+08         0.00000E+00
    0.00000E+00         0.00000E+00        -0.64281E+07
 
   -0.12322E+07         0.21069E+06         0.00000E+00
    0.21069E+06        -0.24680E+08         0.00000E+00
    0.00000E+00         0.00000E+00        -0.64449E+07
 
   -0.12300E+07         0.25714E+06         0.00000E+00
    0.25714E+06        -0.24627E+08         0.00000E+00
    0.00000E+00         0.00000E+00        -0.63560E+07
 
   -0.12756E+07         0.27711E+06         0.00000E+00
    0.27711E+06        -0.24567E+08         0.00000E+00
    0.00000E+00         0.00000E+00        -0.61692E+07
 
   -0.13576E+07         0.27816E+06         0.00000E+00
    0.27816E+06        -0.24503E+08         0.00000E+00
    0.00000E+00         0.00000E+00        -0.59165E+07
 
   -0.14676E+07         0.26809E+06         0.00000E+00
    0.26809E+06        -0.24438E+08         0.00000E+00
    0.00000E+00         0.00000E+00        -0.56244E+07
 
   -0.15994E+07         0.25273E+06         0.00000E+00
    0.25273E+06        -0.24375E+08         0.00000E+00
    0.00000E+00         0.00000E+00        -0.53118E+07
 
   -0.21067E+07         0.25427E+06         0.00000E+00
    0.25427E+06        -0.24311E+08         0.00000E+00
    0.00000E+00         0.00000E+00        -0.52836E+07
 
   -0.27683E+07         0.28918E+06         0.00000E+00
    0.28918E+06        -0.24240E+08         0.00000E+00
    0.00000E+00         0.00000E+00        -0.54017E+07
 
   -0.33857E+07         0.34766E+06         0.00000E+00
    0.34766E+06        -0.24156E+08         0.00000E+00
    0.00000E+00         0.00000E+00        -0.55083E+07
 
   -0.39683E+07         0.42751E+06         0.00000E+00
    0.42751E+06        -0.24052E+08         0.00000E+00
    0.00000E+00         0.00000E+00        -0.56040E+07
 
   -0.45255E+07         0.52732E+06         0.00000E+00
    0.52732E+06        -0.23922E+08         0.00000E+00
    0.00000E+00         0.00000E+00        -0.56895E+07
 
   -0.50662E+07         0.64607E+06         0.00000E+00
    0.64607E+06        -0.23762E+08         0.00000E+00
    0.00000E+00         0.00000E+00        -0.57657E+07
 
   -0.55991E+07         0.78288E+06         0.00000E+00
    0.78288E+06        -0.23567E+08         0.00000E+00
    0.00000E+00         0.00000E+00        -0.58331E+07
 
   -0.15250E+07         0.59203E+05         0.00000E+00
    0.59203E+05        -0.25021E+08         0.00000E+00
    0.00000E+00         0.00000E+00        -0.65348E+07
 
   -0.14650E+07         0.16748E+06         0.00000E+00
    0.16748E+06        -0.25004E+08         0.00000E+00
    0.00000E+00         0.00000E+00        -0.66154E+07
 
   -0.14427E+07         0.25405E+06         0.00000E+00
    0.25405E+06        -0.24974E+08         0.00000E+00
    0.00000E+00         0.00000E+00        -0.66065E+07
 
   -0.14717E+07         0.30838E+06         0.00000E+00
    0.30838E+06        -0.24935E+08         0.00000E+00
    0.00000E+00         0.00000E+00        -0.64896E+07
 
   -0.15420E+07         0.33367E+06         0.00000E+00
    0.33367E+06        -0.24890E+08         0.00000E+00
    0.00000E+00         0.00000E+00        -0.62887E+07
 
   -0.16401E+07         0.33787E+06         0.00000E+00
    0.33787E+06        -0.24838E+08         0.00000E+00
    0.00000E+00         0.00000E+00        -0.60352E+07
 
   -0.17591E+07         0.32843E+06         0.00000E+00
    0.32843E+06        -0.24783E+08         0.00000E+00
    0.00000E+00         0.00000E+00        -0.57508E+07
 
   -0.18949E+07         0.31190E+06         0.00000E+00
    0.31190E+06        -0.24728E+08         0.00000E+00
    0.00000E+00         0.00000E+00        -0.54513E+07
 
   -0.23583E+07         0.31662E+06         0.00000E+00
    0.31662E+06        -0.24672E+08         0.00000E+00
    0.00000E+00         0.00000E+00        -0.54061E+07
 
   -0.29922E+07         0.36267E+06         0.00000E+00
    0.36267E+06        -0.24608E+08         0.00000E+00
    0.00000E+00         0.00000E+00        -0.55200E+07
 
   -0.35844E+07         0.43776E+06         0.00000E+00
    0.43776E+06        -0.24530E+08         0.00000E+00
    0.00000E+00         0.00000E+00        -0.56228E+07
 
   -0.41437E+07         0.53982E+06         0.00000E+00
    0.53982E+06        -0.24432E+08         0.00000E+00
    0.00000E+00         0.00000E+00        -0.57152E+07
 
   -0.46788E+07         0.66727E+06         0.00000E+00
    0.66727E+06        -0.24310E+08         0.00000E+00
    0.00000E+00         0.00000E+00        -0.57978E+07
 
   -0.51983E+07         0.81906E+06         0.00000E+00
    0.81906E+06        -0.24158E+08         0.00000E+00
    0.00000E+00         0.00000E+00        -0.58712E+07
 
   -0.57110E+07         0.99426E+06         0.00000E+00
    0.99426E+06        -0.23970E+08         0.00000E+00
    0.00000E+00         0.00000E+00        -0.59362E+07
 
   -0.17480E+07         0.66707E+05         0.00000E+00
    0.66707E+05        -0.25369E+08         0.00000E+00
    0.00000E+00         0.00000E+00        -0.67685E+07
 
   -0.17035E+07         0.18873E+06         0.00000E+00
    0.18873E+06        -0.25358E+08         0.00000E+00
    0.00000E+00         0.00000E+00        -0.68338E+07
 
   -0.17132E+07         0.28288E+06         0.00000E+00
    0.28288E+06        -0.25341E+08         0.00000E+00
    0.00000E+00         0.00000E+00        -0.67924E+07
 
   -0.17755E+07         0.34326E+06         0.00000E+00
    0.34326E+06        -0.25319E+08         0.00000E+00
    0.00000E+00         0.00000E+00        -0.66504E+07
 
   -0.18713E+07         0.37548E+06         0.00000E+00
    0.37548E+06        -0.25291E+08         0.00000E+00
    0.00000E+00         0.00000E+00        -0.64411E+07
 
   -0.19879E+07         0.38549E+06         0.00000E+00
    0.38549E+06        -0.25254E+08         0.00000E+00
    0.00000E+00         0.00000E+00        -0.61891E+07
 
   -0.21185E+07         0.37905E+06         0.00000E+00
    0.37905E+06        -0.25211E+08         0.00000E+00
    0.00000E+00         0.00000E+00        -0.59130E+07
 
   -0.22595E+07         0.36250E+06         0.00000E+00
    0.36250E+06        -0.25165E+08         0.00000E+00
    0.00000E+00         0.00000E+00        -0.56266E+07
 
   -0.26690E+07         0.37086E+06         0.00000E+00
    0.37086E+06        -0.25117E+08         0.00000E+00
    0.00000E+00         0.00000E+00        -0.55573E+07
 
   -0.32702E+07         0.42847E+06         0.00000E+00
    0.42847E+06        -0.25062E+08         0.00000E+00
    0.00000E+00         0.00000E+00        -0.56665E+07
 
   -0.38319E+07         0.52037E+06         0.00000E+00
    0.52037E+06        -0.24993E+08         0.00000E+00
    0.00000E+00         0.00000E+00        -0.57649E+07
 
   -0.43625E+07         0.64434E+06         0.00000E+00
    0.64434E+06        -0.24904E+08         0.00000E+00
    0.00000E+00         0.00000E+00        -0.58532E+07
 
   -0.48701E+07         0.79889E+06         0.00000E+00
    0.79889E+06        -0.24791E+08         0.00000E+00
    0.00000E+00         0.00000E+00        -0.59321E+07
 
   -0.53631E+07         0.98306E+06         0.00000E+00
    0.98306E+06        -0.24648E+08         0.00000E+00
    0.00000E+00         0.00000E+00        -0.60022E+07
 
   -0.58501E+07         0.11961E+07         0.00000E+00
    0.11961E+07        -0.24471E+08         0.00000E+00
    0.00000E+00         0.00000E+00        -0.60642E+07
 
   -0.20251E+07         0.71079E+05         0.00000E+00
    0.71079E+05        -0.25784E+08         0.00000E+00
    0.00000E+00         0.00000E+00        -0.70290E+07
 
   -0.20024E+07         0.19918E+06         0.00000E+00
    0.19918E+06        -0.25781E+08         0.00000E+00
    0.00000E+00         0.00000E+00        -0.70684E+07
 
   -0.20474E+07         0.29470E+06         0.00000E+00
    0.29470E+06        -0.25778E+08         0.00000E+00
    0.00000E+00         0.00000E+00        -0.69919E+07
 
   -0.21402E+07         0.35930E+06         0.00000E+00
    0.35930E+06        -0.25774E+08         0.00000E+00
    0.00000E+00         0.00000E+00        -0.68339E+07
 
   -0.22604E+07         0.39940E+06         0.00000E+00
    0.39940E+06        -0.25766E+08         0.00000E+00
    0.00000E+00         0.00000E+00        -0.66250E+07
 
   -0.23971E+07         0.41841E+06         0.00000E+00
    0.41841E+06        -0.25748E+08         0.00000E+00
    0.00000E+00         0.00000E+00        -0.63810E+07
 
   -0.25424E+07         0.41833E+06         0.00000E+00
    0.41833E+06        -0.25720E+08         0.00000E+00
    0.00000E+00         0.00000E+00        -0.61146E+07
 
   -0.26922E+07         0.40433E+06         0.00000E+00
    0.40433E+06        -0.25685E+08         0.00000E+00
    0.00000E+00         0.00000E+00        -0.58406E+07
 
   -0.30375E+07         0.41497E+06         0.00000E+00
    0.41497E+06        -0.25647E+08         0.00000E+00
    0.00000E+00         0.00000E+00        -0.57369E+07
 
   -0.36010E+07         0.48483E+06         0.00000E+00
    0.48483E+06        -0.25601E+08         0.00000E+00
    0.00000E+00         0.00000E+00        -0.58405E+07
 
   -0.41273E+07         0.59364E+06         0.00000E+00
    0.59364E+06        -0.25542E+08         0.00000E+00
    0.00000E+00         0.00000E+00        -0.59339E+07
 
   -0.46242E+07         0.73927E+06         0.00000E+00
    0.73927E+06        -0.25463E+08         0.00000E+00
    0.00000E+00         0.00000E+00        -0.60175E+07
 
   -0.50994E+07         0.92022E+06         0.00000E+00
    0.92022E+06        -0.25361E+08         0.00000E+00
    0.00000E+00         0.00000E+00        -0.60921E+07
 
   -0.55605E+07         0.11358E+07         0.00000E+00
    0.11358E+07        -0.25230E+08         0.00000E+00
    0.00000E+00         0.00000E+00        -0.61582E+07
 
   -0.60161E+07         0.13860E+07         0.00000E+00
    0.13860E+07        -0.25066E+08         0.00000E+00
    0.00000E+00         0.00000E+00        -0.62164E+07
 
   -0.23624E+07         0.71947E+05         0.00000E+00
    0.71947E+05        -0.26265E+08         0.00000E+00
    0.00000E+00         0.00000E+00        -0.73028E+07
 
   -0.23689E+07         0.19746E+06         0.00000E+00
    0.19746E+06        -0.26270E+08         0.00000E+00
    0.00000E+00         0.00000E+00        -0.73047E+07
 
   -0.24477E+07         0.28903E+06         0.00000E+00
    0.28903E+06        -0.26281E+08         0.00000E+00
    0.00000E+00         0.00000E+00        -0.71978E+07
 
   -0.25655E+07         0.35516E+06         0.00000E+00
    0.35516E+06        -0.26296E+08         0.00000E+00
    0.00000E+00         0.00000E+00        -0.70345E+07
 
   -0.27064E+07         0.40183E+06         0.00000E+00
    0.40183E+06        -0.26309E+08         0.00000E+00
    0.00000E+00         0.00000E+00        -0.68358E+07
 
   -0.28625E+07         0.43136E+06         0.00000E+00
    0.43136E+06        -0.26315E+08         0.00000E+00
    0.00000E+00         0.00000E+00        -0.66096E+07
 
   -0.30265E+07         0.44355E+06         0.00000E+00
    0.44355E+06        -0.26309E+08         0.00000E+00
    0.00000E+00         0.00000E+00        -0.63607E+07
 
   -0.31872E+07         0.43688E+06         0.00000E+00
    0.43688E+06        -0.26286E+08         0.00000E+00
    0.00000E+00         0.00000E+00        -0.60990E+07
 
   -0.34670E+07         0.44867E+06         0.00000E+00
    0.44867E+06        -0.26253E+08         0.00000E+00
    0.00000E+00         0.00000E+00        -0.59534E+07
 
   -0.39830E+07         0.52960E+06         0.00000E+00
    0.52960E+06        -0.26223E+08         0.00000E+00
    0.00000E+00         0.00000E+00        -0.60413E+07
 
   -0.44694E+07         0.65599E+06         0.00000E+00
    0.65599E+06        -0.26176E+08         0.00000E+00
    0.00000E+00         0.00000E+00        -0.61291E+07
 
   -0.49284E+07         0.82311E+06         0.00000E+00
    0.82311E+06        -0.26109E+08         0.00000E+00
    0.00000E+00         0.00000E+00        -0.62075E+07
 
   -0.53665E+07         0.10294E+07         0.00000E+00
    0.10294E+07        -0.26019E+08         0.00000E+00
    0.00000E+00         0.00000E+00        -0.62771E+07
 
   -0.57903E+07         0.12752E+07         0.00000E+00
    0.12752E+07        -0.25902E+08         0.00000E+00
    0.00000E+00         0.00000E+00        -0.63385E+07
 
   -0.62085E+07         0.15612E+07         0.00000E+00
    0.15612E+07        -0.25753E+08         0.00000E+00
    0.00000E+00         0.00000E+00        -0.63923E+07
 
   -0.27671E+07         0.69001E+05         0.00000E+00
    0.69001E+05        -0.26810E+08         0.00000E+00
    0.00000E+00         0.00000E+00        -0.75757E+07
 
   -0.28094E+07         0.18312E+06         0.00000E+00
    0.18312E+06        -0.26824E+08         0.00000E+00
    0.00000E+00         0.00000E+00        -0.75324E+07
 
   -0.29159E+07         0.26695E+06         0.00000E+00
    0.26695E+06        -0.26849E+08         0.00000E+00
    0.00000E+00         0.00000E+00        -0.74060E+07
 
   -0.30529E+07         0.33097E+06         0.00000E+00
    0.33097E+06        -0.26881E+08         0.00000E+00
    0.00000E+00         0.00000E+00        -0.72470E+07
 
   -0.32096E+07         0.38039E+06         0.00000E+00
    0.38039E+06        -0.26916E+08         0.00000E+00
    0.00000E+00         0.00000E+00        -0.70674E+07
 
   -0.33804E+07         0.41830E+06         0.00000E+00
    0.41830E+06        -0.26948E+08         0.00000E+00
    0.00000E+00         0.00000E+00        -0.68697E+07
 
   -0.35606E+07         0.44575E+06         0.00000E+00
    0.44575E+06        -0.26970E+08         0.00000E+00
    0.00000E+00         0.00000E+00        -0.66516E+07
 
   -0.37441E+07         0.45884E+06         0.00000E+00
    0.45884E+06        -0.26974E+08         0.00000E+00
    0.00000E+00         0.00000E+00        -0.64106E+07
 
   -0.39560E+07         0.47375E+06         0.00000E+00
    0.47375E+06        -0.26955E+08         0.00000E+00
    0.00000E+00         0.00000E+00        -0.62069E+07
 
   -0.44145E+07         0.56133E+06         0.00000E+00
    0.56133E+06        -0.26928E+08         0.00000E+00
    0.00000E+00         0.00000E+00        -0.62686E+07
 
   -0.48563E+07         0.70714E+06         0.00000E+00
    0.70714E+06        -0.26892E+08         0.00000E+00
    0.00000E+00         0.00000E+00        -0.63497E+07
 
   -0.52750E+07         0.89450E+06         0.00000E+00
    0.89450E+06        -0.26838E+08         0.00000E+00
    0.00000E+00         0.00000E+00        -0.64225E+07
 
   -0.56717E+07         0.11248E+07         0.00000E+00
    0.11248E+07        -0.26761E+08         0.00000E+00
    0.00000E+00         0.00000E+00        -0.64866E+07
 
   -0.60531E+07         0.13987E+07         0.00000E+00
    0.13987E+07        -0.26660E+08         0.00000E+00
    0.00000E+00         0.00000E+00        -0.65426E+07
 
   -0.64273E+07         0.17189E+07         0.00000E+00
    0.17189E+07        -0.26529E+08         0.00000E+00
    0.00000E+00         0.00000E+00        -0.65913E+07
 
   -0.32476E+07         0.60863E+05         0.00000E+00
    0.60863E+05        -0.27421E+08         0.00000E+00
    0.00000E+00         0.00000E+00        -0.78393E+07
 
   -0.33266E+07         0.15766E+06         0.00000E+00
    0.15766E+06        -0.27442E+08         0.00000E+00
    0.00000E+00         0.00000E+00        -0.77494E+07
 
   -0.34540E+07         0.23016E+06         0.00000E+00
    0.23016E+06        -0.27479E+08         0.00000E+00
    0.00000E+00         0.00000E+00        -0.76145E+07
 
   -0.36056E+07         0.28739E+06         0.00000E+00
    0.28739E+06        -0.27528E+08         0.00000E+00
    0.00000E+00         0.00000E+00        -0.74670E+07
 
   -0.37728E+07         0.33479E+06         0.00000E+00
    0.33479E+06        -0.27584E+08         0.00000E+00
    0.00000E+00         0.00000E+00        -0.73135E+07
 
   -0.39511E+07         0.37691E+06         0.00000E+00
    0.37691E+06        -0.27641E+08         0.00000E+00
    0.00000E+00         0.00000E+00        -0.71528E+07
 
   -0.41389E+07         0.41699E+06         0.00000E+00
    0.41699E+06        -0.27692E+08         0.00000E+00
    0.00000E+00         0.00000E+00        -0.69778E+07
 
   -0.43344E+07         0.45612E+06         0.00000E+00
    0.45612E+06        -0.27726E+08         0.00000E+00
    0.00000E+00         0.00000E+00        -0.67772E+07
 
   -0.45277E+07         0.49342E+06         0.00000E+00
    0.49342E+06        -0.27734E+08         0.00000E+00
    0.00000E+00         0.00000E+00        -0.65541E+07
 
   -0.48825E+07         0.58352E+06         0.00000E+00
    0.58352E+06        -0.27712E+08         0.00000E+00
    0.00000E+00         0.00000E+00        -0.65190E+07
 
   -0.52896E+07         0.74499E+06         0.00000E+00
    0.74499E+06        -0.27689E+08         0.00000E+00
    0.00000E+00         0.00000E+00        -0.65957E+07
 
   -0.56628E+07         0.95310E+06         0.00000E+00
    0.95310E+06        -0.27647E+08         0.00000E+00
    0.00000E+00         0.00000E+00        -0.66619E+07
 
   -0.60159E+07         0.12052E+07         0.00000E+00
    0.12052E+07        -0.27584E+08         0.00000E+00
    0.00000E+00         0.00000E+00        -0.67200E+07
 
   -0.63501E+07         0.15040E+07         0.00000E+00
    0.15040E+07        -0.27500E+08         0.00000E+00
    0.00000E+00         0.00000E+00        -0.67701E+07
 
   -0.66726E+07         0.18554E+07         0.00000E+00
    0.18554E+07        -0.27391E+08         0.00000E+00
    0.00000E+00         0.00000E+00        -0.68127E+07
 
   -0.38117E+07         0.47076E+05         0.00000E+00
    0.47076E+05        -0.28092E+08         0.00000E+00
    0.00000E+00         0.00000E+00        -0.80768E+07
 
   -0.39214E+07         0.12285E+06         0.00000E+00
    0.12285E+06        -0.28121E+08         0.00000E+00
    0.00000E+00         0.00000E+00        -0.79553E+07
 
   -0.40651E+07         0.17932E+06         0.00000E+00
    0.17932E+06        -0.28170E+08         0.00000E+00
    0.00000E+00         0.00000E+00        -0.78215E+07
 
   -0.42267E+07         0.22515E+06         0.00000E+00
    0.22515E+06        -0.28235E+08         0.00000E+00
    0.00000E+00         0.00000E+00        -0.76928E+07
 
   -0.43986E+07         0.26670E+06         0.00000E+00
    0.26670E+06        -0.28311E+08         0.00000E+00
    0.00000E+00         0.00000E+00        -0.75714E+07
 
   -0.45770E+07         0.30959E+06         0.00000E+00
    0.30959E+06        -0.28390E+08         0.00000E+00
    0.00000E+00         0.00000E+00        -0.74528E+07
 
   -0.47610E+07         0.35907E+06         0.00000E+00
    0.35907E+06        -0.28465E+08         0.00000E+00
    0.00000E+00         0.00000E+00        -0.73275E+07
 
   -0.49522E+07         0.41946E+06         0.00000E+00
    0.41946E+06        -0.28527E+08         0.00000E+00
    0.00000E+00         0.00000E+00        -0.71821E+07
 
   -0.51574E+07         0.49041E+06         0.00000E+00
    0.49041E+06        -0.28570E+08         0.00000E+00
    0.00000E+00         0.00000E+00        -0.69996E+07
 
   -0.53996E+07         0.59584E+06         0.00000E+00
    0.59584E+06        -0.28587E+08         0.00000E+00
    0.00000E+00         0.00000E+00        -0.68398E+07
 
   -0.57614E+07         0.77187E+06         0.00000E+00
    0.77187E+06        -0.28562E+08         0.00000E+00
    0.00000E+00         0.00000E+00        -0.68647E+07
 
   -0.60932E+07         0.99839E+06         0.00000E+00
    0.99839E+06        -0.28533E+08         0.00000E+00
    0.00000E+00         0.00000E+00        -0.69253E+07
 
   -0.64006E+07         0.12702E+07         0.00000E+00
    0.12702E+07        -0.28485E+08         0.00000E+00
    0.00000E+00         0.00000E+00        -0.69771E+07
 
   -0.66842E+07         0.15886E+07         0.00000E+00
    0.15886E+07        -0.28419E+08         0.00000E+00
    0.00000E+00         0.00000E+00        -0.70207E+07
 
   -0.69457E+07         0.19660E+07         0.00000E+00
    0.19660E+07        -0.28336E+08         0.00000E+00
    0.00000E+00         0.00000E+00        -0.70562E+07
 
   -0.44647E+07         0.29670E+05         0.00000E+00
    0.29670E+05        -0.28823E+08         0.00000E+00
    0.00000E+00         0.00000E+00        -0.82876E+07
 
   -0.45966E+07         0.78561E+05         0.00000E+00
    0.78561E+05        -0.28858E+08         0.00000E+00
    0.00000E+00         0.00000E+00        -0.81512E+07
 
   -0.47523E+07         0.11423E+06         0.00000E+00
    0.11423E+06        -0.28920E+08         0.00000E+00
    0.00000E+00         0.00000E+00        -0.80276E+07
 
   -0.49183E+07         0.14515E+06         0.00000E+00
    0.14515E+06        -0.29001E+08         0.00000E+00
    0.00000E+00         0.00000E+00        -0.79252E+07
 
   -0.50884E+07         0.17856E+06         0.00000E+00
    0.17856E+06        -0.29094E+08         0.00000E+00
    0.00000E+00         0.00000E+00        -0.78413E+07
 
   -0.52591E+07         0.22080E+06         0.00000E+00
    0.22080E+06        -0.29192E+08         0.00000E+00
    0.00000E+00         0.00000E+00        -0.77681E+07
 
   -0.54303E+07         0.27741E+06         0.00000E+00
    0.27741E+06        -0.29286E+08         0.00000E+00
    0.00000E+00         0.00000E+00        -0.76942E+07
 
   -0.56057E+07         0.35255E+06         0.00000E+00
    0.35255E+06        -0.29370E+08         0.00000E+00
    0.00000E+00         0.00000E+00        -0.76052E+07
 
   -0.57919E+07         0.45128E+06         0.00000E+00
    0.45128E+06        -0.29434E+08         0.00000E+00
    0.00000E+00         0.00000E+00        -0.74829E+07
 
   -0.60017E+07         0.58394E+06         0.00000E+00
    0.58394E+06        -0.29480E+08         0.00000E+00
    0.00000E+00         0.00000E+00        -0.73200E+07
 
   -0.62607E+07         0.78111E+06         0.00000E+00
    0.78111E+06        -0.29515E+08         0.00000E+00
    0.00000E+00         0.00000E+00        -0.72034E+07
 
   -0.65590E+07         0.10315E+07         0.00000E+00
    0.10315E+07        -0.29496E+08         0.00000E+00
    0.00000E+00         0.00000E+00        -0.72110E+07
 
   -0.68294E+07         0.13196E+07         0.00000E+00
    0.13196E+07        -0.29461E+08         0.00000E+00
    0.00000E+00         0.00000E+00        -0.72580E+07
 
   -0.70612E+07         0.16511E+07         0.00000E+00
    0.16511E+07        -0.29414E+08         0.00000E+00
    0.00000E+00         0.00000E+00        -0.72950E+07
 
   -0.72501E+07         0.20433E+07         0.00000E+00
    0.20433E+07        -0.29360E+08         0.00000E+00
    0.00000E+00         0.00000E+00        -0.73220E+07
 
   -0.52101E+07         0.93662E+04         0.00000E+00
    0.93662E+04        -0.29613E+08         0.00000E+00
    0.00000E+00         0.00000E+00        -0.84765E+07
 
   -0.53566E+07         0.25023E+05         0.00000E+00
    0.25023E+05        -0.29654E+08         0.00000E+00
    0.00000E+00         0.00000E+00        -0.83387E+07
 
   -0.55173E+07         0.35230E+05         0.00000E+00
    0.35230E+05        -0.29727E+08         0.00000E+00
    0.00000E+00         0.00000E+00        -0.82351E+07
 
   -0.56807E+07         0.48689E+05         0.00000E+00
    0.48689E+05        -0.29822E+08         0.00000E+00
    0.00000E+00         0.00000E+00        -0.81665E+07
 
   -0.58411E+07         0.73040E+05         0.00000E+00
    0.73040E+05        -0.29931E+08         0.00000E+00
    0.00000E+00         0.00000E+00        -0.81253E+07
 
   -0.59962E+07         0.11481E+06         0.00000E+00
    0.11481E+06        -0.30044E+08         0.00000E+00
    0.00000E+00         0.00000E+00        -0.80998E+07
 
   -0.61470E+07         0.17901E+06         0.00000E+00
    0.17901E+06        -0.30153E+08         0.00000E+00
    0.00000E+00         0.00000E+00        -0.80762E+07
 
   -0.62974E+07         0.26949E+06         0.00000E+00
    0.26949E+06        -0.30249E+08         0.00000E+00
    0.00000E+00         0.00000E+00        -0.80390E+07
 
   -0.64540E+07         0.38969E+06         0.00000E+00
    0.38969E+06        -0.30326E+08         0.00000E+00
    0.00000E+00         0.00000E+00        -0.79735E+07
 
   -0.66261E+07         0.54572E+06         0.00000E+00
    0.54572E+06        -0.30379E+08         0.00000E+00
    0.00000E+00         0.00000E+00        -0.78677E+07
 
   -0.68282E+07         0.75223E+06         0.00000E+00
    0.75223E+06        -0.30422E+08         0.00000E+00
    0.00000E+00         0.00000E+00        -0.77309E+07
 
   -0.70506E+07         0.10274E+07         0.00000E+00
    0.10274E+07        -0.30470E+08         0.00000E+00
    0.00000E+00         0.00000E+00        -0.76123E+07
 
   -0.72954E+07         0.13463E+07         0.00000E+00
    0.13463E+07        -0.30482E+08         0.00000E+00
    0.00000E+00         0.00000E+00        -0.75943E+07
 
   -0.74892E+07         0.16915E+07         0.00000E+00
    0.16915E+07        -0.30465E+08         0.00000E+00
    0.00000E+00         0.00000E+00        -0.76059E+07
 
   -0.76040E+07         0.20723E+07         0.00000E+00
    0.20723E+07        -0.30453E+08         0.00000E+00
    0.00000E+00         0.00000E+00        -0.76236E+07
 
   -0.60518E+07        -0.14158E+05         0.00000E+00
   -0.14158E+05        -0.30459E+08         0.00000E+00
    0.00000E+00         0.00000E+00        -0.86462E+07
 
   -0.62046E+07        -0.37264E+05         0.00000E+00
   -0.37264E+05        -0.30506E+08         0.00000E+00
    0.00000E+00         0.00000E+00        -0.85209E+07
 
   -0.63617E+07        -0.56457E+05         0.00000E+00
   -0.56457E+05        -0.30589E+08         0.00000E+00
    0.00000E+00         0.00000E+00        -0.84474E+07
 
   -0.65131E+07        -0.62242E+05         0.00000E+00
   -0.62242E+05        -0.30697E+08         0.00000E+00
    0.00000E+00         0.00000E+00        -0.84199E+07
 
   -0.66544E+07        -0.46747E+05         0.00000E+00
   -0.46747E+05        -0.30819E+08         0.00000E+00
    0.00000E+00         0.00000E+00        -0.84259E+07
 
   -0.67849E+07        -0.38550E+04         0.00000E+00
   -0.38550E+04        -0.30943E+08         0.00000E+00
    0.00000E+00         0.00000E+00        -0.84497E+07
 
   -0.69072E+07         0.70282E+05         0.00000E+00
    0.70282E+05        -0.31061E+08         0.00000E+00
    0.00000E+00         0.00000E+00        -0.84749E+07
 
   -0.70263E+07         0.17793E+06         0.00000E+00
    0.17793E+06        -0.31164E+08         0.00000E+00
    0.00000E+00         0.00000E+00        -0.84859E+07
 
   -0.71483E+07         0.32063E+06         0.00000E+00
    0.32063E+06        -0.31246E+08         0.00000E+00
    0.00000E+00         0.00000E+00        -0.84697E+07
 
   -0.72808E+07         0.50063E+06         0.00000E+00
    0.50063E+06        -0.31303E+08         0.00000E+00
    0.00000E+00         0.00000E+00        -0.84166E+07
 
   -0.74307E+07         0.72475E+06         0.00000E+00
    0.72475E+06        -0.31337E+08         0.00000E+00
    0.00000E+00         0.00000E+00        -0.83259E+07
 
   -0.76035E+07         0.10005E+07         0.00000E+00
    0.10005E+07        -0.31358E+08         0.00000E+00
    0.00000E+00         0.00000E+00        -0.82179E+07
 
   -0.77923E+07         0.13287E+07         0.00000E+00
    0.13287E+07        -0.31384E+08         0.00000E+00
    0.00000E+00         0.00000E+00        -0.81316E+07
 
   -0.79603E+07         0.16917E+07         0.00000E+00
    0.16917E+07        -0.31403E+08         0.00000E+00
    0.00000E+00         0.00000E+00        -0.80944E+07
 
   -0.80927E+07         0.20485E+07         0.00000E+00
    0.20485E+07        -0.31416E+08         0.00000E+00
    0.00000E+00         0.00000E+00        -0.81212E+07
 
   -0.69937E+07        -0.41009E+05         0.00000E+00
   -0.41009E+05        -0.31359E+08         0.00000E+00
    0.00000E+00         0.00000E+00        -0.88011E+07
 
   -0.71428E+07        -0.10790E+06         0.00000E+00
   -0.10790E+06        -0.31412E+08         0.00000E+00
    0.00000E+00         0.00000E+00        -0.87010E+07
 
   -0.72854E+07        -0.15930E+06         0.00000E+00
   -0.15930E+06        -0.31504E+08         0.00000E+00
    0.00000E+00         0.00000E+00        -0.86678E+07
 
   -0.74135E+07        -0.18492E+06         0.00000E+00
   -0.18492E+06        -0.31622E+08         0.00000E+00
    0.00000E+00         0.00000E+00        -0.86888E+07
 
   -0.75246E+07        -0.17678E+06         0.00000E+00
   -0.17678E+06        -0.31753E+08         0.00000E+00
    0.00000E+00         0.00000E+00        -0.87456E+07
 
   -0.76206E+07        -0.13035E+06         0.00000E+00
   -0.13035E+06        -0.31883E+08         0.00000E+00
    0.00000E+00         0.00000E+00        -0.88189E+07
 
   -0.77064E+07        -0.44022E+05         0.00000E+00
   -0.44022E+05        -0.32005E+08         0.00000E+00
    0.00000E+00         0.00000E+00        -0.88911E+07
 
   -0.77881E+07         0.82400E+05         0.00000E+00
    0.82400E+05        -0.32111E+08         0.00000E+00
    0.00000E+00         0.00000E+00        -0.89480E+07
 
   -0.78720E+07         0.24883E+06         0.00000E+00
    0.24883E+06        -0.32196E+08         0.00000E+00
    0.00000E+00         0.00000E+00        -0.89779E+07
 
   -0.79641E+07         0.45545E+06         0.00000E+00
    0.45545E+06        -0.32255E+08         0.00000E+00
    0.00000E+00         0.00000E+00        -0.89730E+07
 
   -0.80710E+07         0.70268E+06         0.00000E+00
    0.70268E+06        -0.32289E+08         0.00000E+00
    0.00000E+00         0.00000E+00        -0.89316E+07
 
   -0.81982E+07         0.99155E+06         0.00000E+00
    0.99155E+06        -0.32302E+08         0.00000E+00
    0.00000E+00         0.00000E+00        -0.88622E+07
 
   -0.83442E+07         0.13219E+07         0.00000E+00
    0.13219E+07        -0.32304E+08         0.00000E+00
    0.00000E+00         0.00000E+00        -0.87879E+07
 
   -0.84998E+07         0.16775E+07         0.00000E+00
    0.16775E+07        -0.32308E+08         0.00000E+00
    0.00000E+00         0.00000E+00        -0.87399E+07
 
   -0.86568E+07         0.20254E+07         0.00000E+00
    0.20254E+07        -0.32322E+08         0.00000E+00
    0.00000E+00         0.00000E+00        -0.87309E+07
 
   -0.80396E+07        -0.70772E+05         0.00000E+00
   -0.70772E+05        -0.32310E+08         0.00000E+00
    0.00000E+00         0.00000E+00        -0.89462E+07
 
   -0.81723E+07        -0.18628E+06         0.00000E+00
   -0.18628E+06        -0.32368E+08         0.00000E+00
    0.00000E+00         0.00000E+00        -0.88839E+07
 
   -0.82871E+07        -0.27179E+06         0.00000E+00
   -0.27179E+06        -0.32468E+08         0.00000E+00
    0.00000E+00         0.00000E+00        -0.89018E+07
 
   -0.83779E+07        -0.31579E+06         0.00000E+00
   -0.31579E+06        -0.32594E+08         0.00000E+00
    0.00000E+00         0.00000E+00        -0.89775E+07
 
   -0.84465E+07        -0.31203E+06         0.00000E+00
   -0.31203E+06        -0.32728E+08         0.00000E+00
    0.00000E+00         0.00000E+00        -0.90862E+07
 
   -0.84985E+07        -0.25975E+06         0.00000E+00
   -0.25975E+06        -0.32860E+08         0.00000E+00
    0.00000E+00         0.00000E+00        -0.92071E+07
 
   -0.85407E+07        -0.16015E+06         0.00000E+00
   -0.16015E+06        -0.32982E+08         0.00000E+00
    0.00000E+00         0.00000E+00        -0.93245E+07
 
   -0.85796E+07        -0.14615E+05         0.00000E+00
   -0.14615E+05        -0.33088E+08         0.00000E+00
    0.00000E+00         0.00000E+00        -0.94257E+07
 
   -0.86216E+07         0.17534E+06         0.00000E+00
    0.17534E+06        -0.33174E+08         0.00000E+00
    0.00000E+00         0.00000E+00        -0.95009E+07
 
   -0.86732E+07         0.40763E+06         0.00000E+00
    0.40763E+06        -0.33236E+08         0.00000E+00
    0.00000E+00         0.00000E+00        -0.95437E+07
 
   -0.87413E+07         0.67945E+06         0.00000E+00
    0.67945E+06        -0.33274E+08         0.00000E+00
    0.00000E+00         0.00000E+00        -0.95511E+07
 
   -0.88321E+07         0.98711E+06         0.00000E+00
    0.98711E+06        -0.33290E+08         0.00000E+00
    0.00000E+00         0.00000E+00        -0.95263E+07
 
   -0.89511E+07         0.13234E+07         0.00000E+00
    0.13234E+07        -0.33292E+08         0.00000E+00
    0.00000E+00         0.00000E+00        -0.94805E+07
 
   -0.90991E+07         0.16752E+07         0.00000E+00
    0.16752E+07        -0.33289E+08         0.00000E+00
    0.00000E+00         0.00000E+00        -0.94274E+07
 
   -0.92644E+07         0.20257E+07         0.00000E+00
    0.20257E+07        -0.33283E+08         0.00000E+00
    0.00000E+00         0.00000E+00        -0.93750E+07
 
   -0.91922E+07        -0.10220E+06         0.00000E+00
   -0.10220E+06        -0.33309E+08         0.00000E+00
    0.00000E+00         0.00000E+00        -0.90885E+07
 
   -0.92941E+07        -0.27294E+06         0.00000E+00
   -0.27294E+06        -0.33372E+08         0.00000E+00
    0.00000E+00         0.00000E+00        -0.90769E+07
 
   -0.93631E+07        -0.39181E+06         0.00000E+00
   -0.39181E+06        -0.33480E+08         0.00000E+00
    0.00000E+00         0.00000E+00        -0.91564E+07
 
   -0.94006E+07        -0.44936E+06         0.00000E+00
   -0.44936E+06        -0.33607E+08         0.00000E+00
    0.00000E+00         0.00000E+00        -0.92892E+07
 
   -0.94150E+07        -0.44673E+06         0.00000E+00
   -0.44673E+06        -0.33738E+08         0.00000E+00
    0.00000E+00         0.00000E+00        -0.94470E+07
 
   -0.94151E+07        -0.38777E+06         0.00000E+00
   -0.38777E+06        -0.33867E+08         0.00000E+00
    0.00000E+00         0.00000E+00        -0.96123E+07
 
   -0.94077E+07        -0.27532E+06         0.00000E+00
   -0.27532E+06        -0.33987E+08         0.00000E+00
    0.00000E+00         0.00000E+00        -0.97724E+07
 
   -0.93990E+07        -0.11190E+06         0.00000E+00
   -0.11190E+06        -0.34092E+08         0.00000E+00
    0.00000E+00         0.00000E+00        -0.99169E+07
 
   -0.93961E+07         0.99548E+05         0.00000E+00
    0.99548E+05        -0.34179E+08         0.00000E+00
    0.00000E+00         0.00000E+00        -0.10037E+08
 
   -0.94066E+07         0.35513E+06         0.00000E+00
    0.35513E+06        -0.34245E+08         0.00000E+00
    0.00000E+00         0.00000E+00        -0.10127E+08
 
   -0.94385E+07         0.64955E+06         0.00000E+00
    0.64955E+06        -0.34289E+08         0.00000E+00
    0.00000E+00         0.00000E+00        -0.10182E+08
 
   -0.95006E+07         0.97563E+06         0.00000E+00
    0.97563E+06        -0.34314E+08         0.00000E+00
    0.00000E+00         0.00000E+00        -0.10202E+08
 
   -0.96008E+07         0.13245E+07         0.00000E+00
    0.13245E+07        -0.34322E+08         0.00000E+00
    0.00000E+00         0.00000E+00        -0.10185E+08
 
   -0.97417E+07         0.16861E+07         0.00000E+00
    0.16861E+07        -0.34316E+08         0.00000E+00
    0.00000E+00         0.00000E+00        -0.10135E+08
 
   -0.99167E+07         0.20467E+07         0.00000E+00
    0.20467E+07        -0.34295E+08         0.00000E+00
    0.00000E+00         0.00000E+00        -0.10057E+08
 
   -0.10456E+08        -0.13638E+06         0.00000E+00
   -0.13638E+06        -0.34365E+08         0.00000E+00
    0.00000E+00         0.00000E+00        -0.92472E+07
 
   -0.10506E+08        -0.36834E+06         0.00000E+00
   -0.36834E+06        -0.34428E+08         0.00000E+00
    0.00000E+00         0.00000E+00        -0.92924E+07
 
   -0.10505E+08        -0.51336E+06         0.00000E+00
   -0.51336E+06        -0.34535E+08         0.00000E+00
    0.00000E+00         0.00000E+00        -0.94386E+07
 
   -0.10474E+08        -0.57815E+06         0.00000E+00
   -0.57815E+06        -0.34655E+08         0.00000E+00
    0.00000E+00         0.00000E+00        -0.96234E+07
 
   -0.10426E+08        -0.57586E+06         0.00000E+00
   -0.57586E+06        -0.34779E+08         0.00000E+00
    0.00000E+00         0.00000E+00        -0.98251E+07
 
   -0.10369E+08        -0.51119E+06         0.00000E+00
   -0.51119E+06        -0.34901E+08         0.00000E+00
    0.00000E+00         0.00000E+00        -0.10031E+08
 
   -0.10306E+08        -0.38762E+06         0.00000E+00
   -0.38762E+06        -0.35016E+08         0.00000E+00
    0.00000E+00         0.00000E+00        -0.10232E+08
 
   -0.10246E+08        -0.20875E+06         0.00000E+00
   -0.20875E+06        -0.35119E+08         0.00000E+00
    0.00000E+00         0.00000E+00        -0.10418E+08
 
   -0.10196E+08         0.21107E+05         0.00000E+00
    0.21107E+05        -0.35206E+08         0.00000E+00
    0.00000E+00         0.00000E+00        -0.10582E+08
 
   -0.10165E+08         0.29647E+06         0.00000E+00
    0.29647E+06        -0.35276E+08         0.00000E+00
    0.00000E+00         0.00000E+00        -0.10717E+08
 
   -0.10162E+08         0.61051E+06         0.00000E+00
    0.61051E+06        -0.35328E+08         0.00000E+00
    0.00000E+00         0.00000E+00        -0.10818E+08
 
   -0.10198E+08         0.95527E+06         0.00000E+00
    0.95527E+06        -0.35362E+08         0.00000E+00
    0.00000E+00         0.00000E+00        -0.10878E+08
 
   -0.10281E+08         0.13222E+07         0.00000E+00
    0.13222E+07        -0.35377E+08         0.00000E+00
    0.00000E+00         0.00000E+00        -0.10891E+08
 
   -0.10416E+08         0.17018E+07         0.00000E+00
    0.17018E+07        -0.35373E+08         0.00000E+00
    0.00000E+00         0.00000E+00        -0.10854E+08
 
   -0.10601E+08         0.20803E+07         0.00000E+00
    0.20803E+07        -0.35348E+08         0.00000E+00
    0.00000E+00         0.00000E+00        -0.10765E+08
 
   -0.11843E+08        -0.18481E+06         0.00000E+00
   -0.18481E+06        -0.35484E+08         0.00000E+00
    0.00000E+00         0.00000E+00        -0.95081E+07
 
   -0.11794E+08        -0.46138E+06         0.00000E+00
   -0.46138E+06        -0.35541E+08         0.00000E+00
    0.00000E+00         0.00000E+00        -0.95596E+07
 
   -0.11700E+08        -0.62483E+06         0.00000E+00
   -0.62483E+06        -0.35619E+08         0.00000E+00
    0.00000E+00         0.00000E+00        -0.97424E+07
 
   -0.11594E+08        -0.69739E+06         0.00000E+00
   -0.69739E+06        -0.35730E+08         0.00000E+00
    0.00000E+00         0.00000E+00        -0.99747E+07
 
   -0.11479E+08        -0.69654E+06         0.00000E+00
   -0.69654E+06        -0.35845E+08         0.00000E+00
    0.00000E+00         0.00000E+00        -0.10217E+08
 
   -0.11358E+08        -0.62772E+06         0.00000E+00
   -0.62772E+06        -0.35958E+08         0.00000E+00
    0.00000E+00         0.00000E+00        -0.10461E+08
 
   -0.11236E+08        -0.49533E+06         0.00000E+00
   -0.49533E+06        -0.36066E+08         0.00000E+00
    0.00000E+00         0.00000E+00        -0.10699E+08
 
   -0.11121E+08        -0.30392E+06         0.00000E+00
   -0.30392E+06        -0.36165E+08         0.00000E+00
    0.00000E+00         0.00000E+00        -0.10924E+08
 
   -0.11021E+08        -0.59205E+05         0.00000E+00
   -0.59205E+05        -0.36251E+08         0.00000E+00
    0.00000E+00         0.00000E+00        -0.11128E+08
 
   -0.10948E+08         0.23222E+06         0.00000E+00
    0.23222E+06        -0.36323E+08         0.00000E+00
    0.00000E+00         0.00000E+00        -0.11305E+08
 
   -0.10910E+08         0.56314E+06         0.00000E+00
    0.56314E+06        -0.36381E+08         0.00000E+00
    0.00000E+00         0.00000E+00        -0.11446E+08
 
   -0.10919E+08         0.92615E+06         0.00000E+00
    0.92615E+06        -0.36423E+08         0.00000E+00
    0.00000E+00         0.00000E+00        -0.11545E+08
 
   -0.10984E+08         0.13133E+07         0.00000E+00
    0.13133E+07        -0.36447E+08         0.00000E+00
    0.00000E+00         0.00000E+00        -0.11590E+08
 
   -0.11112E+08         0.17149E+07         0.00000E+00
    0.17149E+07        -0.36450E+08         0.00000E+00
    0.00000E+00         0.00000E+00        -0.11574E+08
 
   -0.11308E+08         0.21168E+07         0.00000E+00
    0.21168E+07        -0.36429E+08         0.00000E+00
    0.00000E+00         0.00000E+00        -0.11488E+08
 
   -0.13345E+08        -0.22209E+06         0.00000E+00
   -0.22209E+06        -0.36573E+08         0.00000E+00
    0.00000E+00         0.00000E+00        -0.99836E+07
 
   -0.13165E+08        -0.54854E+06         0.00000E+00
   -0.54854E+06        -0.36636E+08         0.00000E+00
    0.00000E+00         0.00000E+00        -0.99752E+07
 
   -0.12933E+08        -0.73469E+06         0.00000E+00
   -0.73469E+06        -0.36724E+08         0.00000E+00
    0.00000E+00         0.00000E+00        -0.10075E+08
 
   -0.12758E+08        -0.80889E+06         0.00000E+00
   -0.80889E+06        -0.36825E+08         0.00000E+00
    0.00000E+00         0.00000E+00        -0.10340E+08
 
   -0.12570E+08        -0.80764E+06         0.00000E+00
   -0.80764E+06        -0.36931E+08         0.00000E+00
    0.00000E+00         0.00000E+00        -0.10620E+08
 
   -0.12381E+08        -0.73551E+06         0.00000E+00
   -0.73551E+06        -0.37035E+08         0.00000E+00
    0.00000E+00         0.00000E+00        -0.10899E+08
 
   -0.12196E+08        -0.59611E+06         0.00000E+00
   -0.59611E+06        -0.37134E+08         0.00000E+00
    0.00000E+00         0.00000E+00        -0.11171E+08
 
   -0.12024E+08        -0.39503E+06         0.00000E+00
   -0.39503E+06        -0.37225E+08         0.00000E+00
    0.00000E+00         0.00000E+00        -0.11429E+08
 
   -0.11874E+08        -0.13905E+06         0.00000E+00
   -0.13905E+06        -0.37307E+08         0.00000E+00
    0.00000E+00         0.00000E+00        -0.11667E+08
 
   -0.11756E+08         0.16471E+06         0.00000E+00
    0.16471E+06        -0.37379E+08         0.00000E+00
    0.00000E+00         0.00000E+00        -0.11880E+08
 
   -0.11682E+08         0.50933E+06         0.00000E+00
    0.50933E+06        -0.37441E+08         0.00000E+00
    0.00000E+00         0.00000E+00        -0.12059E+08
 
   -0.11662E+08         0.88832E+06         0.00000E+00
    0.88832E+06        -0.37490E+08         0.00000E+00
    0.00000E+00         0.00000E+00        -0.12195E+08
 
   -0.11706E+08         0.12947E+07         0.00000E+00
    0.12947E+07        -0.37523E+08         0.00000E+00
    0.00000E+00         0.00000E+00        -0.12276E+08
 
   -0.11825E+08         0.17193E+07         0.00000E+00
    0.17193E+07        -0.37537E+08         0.00000E+00
    0.00000E+00         0.00000E+00        -0.12289E+08
 
   -0.12030E+08         0.21477E+07         0.00000E+00
    0.21477E+07        -0.37527E+08         0.00000E+00
    0.00000E+00         0.00000E+00        -0.12217E+08
 
   -0.14939E+08        -0.24775E+06         0.00000E+00
   -0.24775E+06        -0.37725E+08         0.00000E+00
    0.00000E+00         0.00000E+00        -0.10533E+08
 
   -0.14608E+08        -0.61790E+06         0.00000E+00
   -0.61790E+06        -0.37769E+08         0.00000E+00
    0.00000E+00         0.00000E+00        -0.10475E+08
 
   -0.14227E+08        -0.83362E+06         0.00000E+00
   -0.83362E+06        -0.37851E+08         0.00000E+00
    0.00000E+00         0.00000E+00        -0.10483E+08
 
   -0.13953E+08        -0.91451E+06         0.00000E+00
   -0.91451E+06        -0.37940E+08         0.00000E+00
    0.00000E+00         0.00000E+00        -0.10728E+08
 
   -0.13696E+08        -0.90917E+06         0.00000E+00
   -0.90917E+06        -0.38037E+08         0.00000E+00
    0.00000E+00         0.00000E+00        -0.11036E+08
 
   -0.13437E+08        -0.83241E+06         0.00000E+00
   -0.83241E+06        -0.38129E+08         0.00000E+00
    0.00000E+00         0.00000E+00        -0.11343E+08
 
   -0.13187E+08        -0.68671E+06         0.00000E+00
   -0.68671E+06        -0.38215E+08         0.00000E+00
    0.00000E+00         0.00000E+00        -0.11642E+08
 
   -0.12955E+08        -0.47834E+06         0.00000E+00
   -0.47834E+06        -0.38294E+08         0.00000E+00
    0.00000E+00         0.00000E+00        -0.11926E+08
 
   -0.12753E+08        -0.21464E+06         0.00000E+00
   -0.21464E+06        -0.38368E+08         0.00000E+00
    0.00000E+00         0.00000E+00        -0.12192E+08
 
   -0.12591E+08         0.97200E+05         0.00000E+00
    0.97200E+05        -0.38435E+08         0.00000E+00
    0.00000E+00         0.00000E+00        -0.12433E+08
 
   -0.12478E+08         0.45107E+06         0.00000E+00
    0.45107E+06        -0.38498E+08         0.00000E+00
    0.00000E+00         0.00000E+00        -0.12645E+08
 
   -0.12425E+08         0.84177E+06         0.00000E+00
    0.84177E+06        -0.38553E+08         0.00000E+00
    0.00000E+00         0.00000E+00        -0.12818E+08
 
   -0.12444E+08         0.12640E+07         0.00000E+00
    0.12640E+07        -0.38597E+08         0.00000E+00
    0.00000E+00         0.00000E+00        -0.12939E+08
 
   -0.12550E+08         0.17100E+07         0.00000E+00
    0.17100E+07        -0.38626E+08         0.00000E+00
    0.00000E+00         0.00000E+00        -0.12989E+08
 
   -0.12758E+08         0.21665E+07         0.00000E+00
    0.21665E+07        -0.38631E+08         0.00000E+00
    0.00000E+00         0.00000E+00        -0.12942E+08
 
   -0.16608E+08        -0.26552E+06         0.00000E+00
   -0.26552E+06        -0.38923E+08         0.00000E+00
    0.00000E+00         0.00000E+00        -0.11106E+08
 
   -0.16120E+08        -0.66867E+06         0.00000E+00
   -0.66867E+06        -0.38953E+08         0.00000E+00
    0.00000E+00         0.00000E+00        -0.11014E+08
 
   -0.15580E+08        -0.91222E+06         0.00000E+00
   -0.91222E+06        -0.39017E+08         0.00000E+00
    0.00000E+00         0.00000E+00        -0.10950E+08
 
   -0.15181E+08        -0.10064E+07         0.00000E+00
   -0.10064E+07        -0.39084E+08         0.00000E+00
    0.00000E+00         0.00000E+00        -0.11148E+08
 
   -0.14851E+08        -0.99748E+06         0.00000E+00
   -0.99748E+06        -0.39164E+08         0.00000E+00
    0.00000E+00         0.00000E+00        -0.11471E+08
 
   -0.14521E+08        -0.91422E+06         0.00000E+00
   -0.91422E+06        -0.39237E+08         0.00000E+00
    0.00000E+00         0.00000E+00        -0.11796E+08
 
   -0.14205E+08        -0.76219E+06         0.00000E+00
   -0.76219E+06        -0.39304E+08         0.00000E+00
    0.00000E+00         0.00000E+00        -0.12111E+08
 
   -0.13915E+08        -0.54875E+06         0.00000E+00
   -0.54875E+06        -0.39366E+08         0.00000E+00
    0.00000E+00         0.00000E+00        -0.12410E+08
 
   -0.13661E+08        -0.28145E+06         0.00000E+00
   -0.28145E+06        -0.39426E+08         0.00000E+00
    0.00000E+00         0.00000E+00        -0.12693E+08
 
   -0.13454E+08         0.33208E+05         0.00000E+00
    0.33208E+05        -0.39486E+08         0.00000E+00
    0.00000E+00         0.00000E+00        -0.12956E+08
 
   -0.13301E+08         0.39031E+06         0.00000E+00
    0.39031E+06        -0.39546E+08         0.00000E+00
    0.00000E+00         0.00000E+00        -0.13196E+08
 
   -0.13212E+08         0.78650E+06         0.00000E+00
    0.78650E+06        -0.39606E+08         0.00000E+00
    0.00000E+00         0.00000E+00        -0.13406E+08
 
   -0.13200E+08         0.12189E+07         0.00000E+00
    0.12189E+07        -0.39662E+08         0.00000E+00
    0.00000E+00         0.00000E+00        -0.13570E+08
 
   -0.13284E+08         0.16829E+07         0.00000E+00
    0.16829E+07        -0.39709E+08         0.00000E+00
    0.00000E+00         0.00000E+00        -0.13665E+08
 
   -0.13489E+08         0.21674E+07         0.00000E+00
    0.21674E+07        -0.39735E+08         0.00000E+00
    0.00000E+00         0.00000E+00        -0.13658E+08
 
   -0.18340E+08        -0.28011E+06         0.00000E+00
   -0.28011E+06        -0.40152E+08         0.00000E+00
    0.00000E+00         0.00000E+00        -0.11698E+08
 
   -0.17683E+08        -0.70698E+06         0.00000E+00
   -0.70698E+06        -0.40175E+08         0.00000E+00
    0.00000E+00         0.00000E+00        -0.11572E+08
 
   -0.16986E+08        -0.96815E+06         0.00000E+00
   -0.96815E+06        -0.40217E+08         0.00000E+00
    0.00000E+00         0.00000E+00        -0.11456E+08
 
   -0.16445E+08        -0.10719E+07         0.00000E+00
   -0.10719E+07        -0.40263E+08         0.00000E+00
    0.00000E+00         0.00000E+00        -0.11599E+08
 
   -0.16033E+08        -0.10628E+07         0.00000E+00
   -0.10628E+07        -0.40314E+08         0.00000E+00
    0.00000E+00         0.00000E+00        -0.11929E+08
 
   -0.15629E+08        -0.97303E+06         0.00000E+00
   -0.97303E+06        -0.40359E+08         0.00000E+00
    0.00000E+00         0.00000E+00        -0.12256E+08
 
   -0.15249E+08        -0.81538E+06         0.00000E+00
   -0.81538E+06        -0.40399E+08         0.00000E+00
    0.00000E+00         0.00000E+00        -0.12572E+08
 
   -0.14903E+08        -0.59999E+06         0.00000E+00
   -0.59999E+06        -0.40436E+08         0.00000E+00
    0.00000E+00         0.00000E+00        -0.12874E+08
 
   -0.14600E+08        -0.33454E+06         0.00000E+00
   -0.33454E+06        -0.40476E+08         0.00000E+00
    0.00000E+00         0.00000E+00        -0.13163E+08
 
   -0.14348E+08        -0.24000E+05         0.00000E+00
   -0.24000E+05        -0.40524E+08         0.00000E+00
    0.00000E+00         0.00000E+00        -0.13440E+08
 
   -0.14154E+08         0.32875E+06         0.00000E+00
    0.32875E+06        -0.40580E+08         0.00000E+00
    0.00000E+00         0.00000E+00        -0.13703E+08
 
   -0.14025E+08         0.72266E+06         0.00000E+00
    0.72266E+06        -0.40644E+08         0.00000E+00
    0.00000E+00         0.00000E+00        -0.13948E+08
 
   -0.13976E+08         0.11579E+07         0.00000E+00
    0.11579E+07        -0.40713E+08         0.00000E+00
    0.00000E+00         0.00000E+00        -0.14159E+08
 
   -0.14028E+08         0.16338E+07         0.00000E+00
    0.16338E+07        -0.40779E+08         0.00000E+00
    0.00000E+00         0.00000E+00        -0.14310E+08
 
   -0.14218E+08         0.21440E+07         0.00000E+00
    0.21440E+07        -0.40831E+08         0.00000E+00
    0.00000E+00         0.00000E+00        -0.14356E+08
 
   -0.20124E+08        -0.29257E+06         0.00000E+00
   -0.29257E+06        -0.41408E+08         0.00000E+00
    0.00000E+00         0.00000E+00        -0.12306E+08
 
   -0.19288E+08        -0.73468E+06         0.00000E+00
   -0.73468E+06        -0.41426E+08         0.00000E+00
    0.00000E+00         0.00000E+00        -0.12143E+08
 
   -0.18428E+08        -0.10013E+07         0.00000E+00
   -0.10013E+07        -0.41450E+08         0.00000E+00
    0.00000E+00         0.00000E+00        -0.11981E+08
 
   -0.17740E+08        -0.11071E+07         0.00000E+00
   -0.11071E+07        -0.41469E+08         0.00000E+00
    0.00000E+00         0.00000E+00        -0.12074E+08
 
   -0.17237E+08        -0.10945E+07         0.00000E+00
   -0.10945E+07        -0.41483E+08         0.00000E+00
    0.00000E+00         0.00000E+00        -0.12404E+08
 
   -0.16759E+08        -0.99828E+06         0.00000E+00
   -0.99828E+06        -0.41491E+08         0.00000E+00
    0.00000E+00         0.00000E+00        -0.12721E+08
 
   -0.16318E+08        -0.83725E+06         0.00000E+00
   -0.83725E+06        -0.41493E+08         0.00000E+00
    0.00000E+00         0.00000E+00        -0.13022E+08
 
   -0.15921E+08        -0.62483E+06         0.00000E+00
   -0.62483E+06        -0.41497E+08         0.00000E+00
    0.00000E+00         0.00000E+00        -0.13310E+08
 
   -0.15573E+08        -0.36869E+06         0.00000E+00
   -0.36869E+06        -0.41511E+08         0.00000E+00
    0.00000E+00         0.00000E+00        -0.13592E+08
 
   -0.15279E+08        -0.71438E+05         0.00000E+00
   -0.71438E+05        -0.41542E+08         0.00000E+00
    0.00000E+00         0.00000E+00        -0.13873E+08
 
   -0.15042E+08         0.26756E+06         0.00000E+00
    0.26756E+06        -0.41592E+08         0.00000E+00
    0.00000E+00         0.00000E+00        -0.14156E+08
 
   -0.14870E+08         0.65012E+06         0.00000E+00
    0.65012E+06        -0.41661E+08         0.00000E+00
    0.00000E+00         0.00000E+00        -0.14435E+08
 
   -0.14775E+08         0.10793E+07         0.00000E+00
    0.10793E+07        -0.41743E+08         0.00000E+00
    0.00000E+00         0.00000E+00        -0.14698E+08
 
   -0.14783E+08         0.15591E+07         0.00000E+00
    0.15591E+07        -0.41832E+08         0.00000E+00
    0.00000E+00         0.00000E+00        -0.14916E+08
 
   -0.14943E+08         0.20899E+07         0.00000E+00
    0.20899E+07        -0.41915E+08         0.00000E+00
    0.00000E+00         0.00000E+00        -0.15031E+08
 
   -0.21951E+08        -0.30319E+06         0.00000E+00
   -0.30319E+06        -0.42689E+08         0.00000E+00
    0.00000E+00         0.00000E+00        -0.12928E+08
 
   -0.20920E+08        -0.75186E+06         0.00000E+00
   -0.75186E+06        -0.42700E+08         0.00000E+00
    0.00000E+00         0.00000E+00        -0.12724E+08
 
   -0.19890E+08        -0.10103E+07         0.00000E+00
   -0.10103E+07        -0.42705E+08         0.00000E+00
    0.00000E+00         0.00000E+00        -0.12519E+08
 
   -0.19056E+08        -0.11066E+07         0.00000E+00
   -0.11066E+07        -0.42691E+08         0.00000E+00
    0.00000E+00         0.00000E+00        -0.12568E+08
 
   -0.18458E+08        -0.10837E+07         0.00000E+00
   -0.10837E+07        -0.42662E+08         0.00000E+00
    0.00000E+00         0.00000E+00        -0.12886E+08
 
   -0.17908E+08        -0.97975E+06         0.00000E+00
   -0.97975E+06        -0.42621E+08         0.00000E+00
    0.00000E+00         0.00000E+00        -0.13179E+08
 
   -0.17413E+08        -0.81870E+06         0.00000E+00
   -0.81870E+06        -0.42577E+08         0.00000E+00
    0.00000E+00         0.00000E+00        -0.13449E+08
 
   -0.16974E+08        -0.61609E+06         0.00000E+00
   -0.61609E+06        -0.42541E+08         0.00000E+00
    0.00000E+00         0.00000E+00        -0.13709E+08
 
   -0.16588E+08        -0.37870E+06         0.00000E+00
   -0.37870E+06        -0.42524E+08         0.00000E+00
    0.00000E+00         0.00000E+00        -0.13972E+08
 
   -0.16253E+08        -0.10599E+06         0.00000E+00
   -0.10599E+06        -0.42534E+08         0.00000E+00
    0.00000E+00         0.00000E+00        -0.14248E+08
 
   -0.15973E+08         0.20725E+06         0.00000E+00
    0.20725E+06        -0.42577E+08         0.00000E+00
    0.00000E+00         0.00000E+00        -0.14544E+08
 
   -0.15753E+08         0.56754E+06         0.00000E+00
    0.56754E+06        -0.42650E+08         0.00000E+00
    0.00000E+00         0.00000E+00        -0.14858E+08
 
   -0.15605E+08         0.98060E+06         0.00000E+00
    0.98060E+06        -0.42749E+08         0.00000E+00
    0.00000E+00         0.00000E+00        -0.15177E+08
 
   -0.15553E+08         0.14542E+07         0.00000E+00
    0.14542E+07        -0.42864E+08         0.00000E+00
    0.00000E+00         0.00000E+00        -0.15475E+08
 
   -0.15663E+08         0.19976E+07         0.00000E+00
    0.19976E+07        -0.42984E+08         0.00000E+00
    0.00000E+00         0.00000E+00        -0.15680E+08
 
   -0.23812E+08        -0.31221E+06         0.00000E+00
   -0.31221E+06        -0.43990E+08         0.00000E+00
    0.00000E+00         0.00000E+00        -0.13560E+08
 
   -0.22564E+08        -0.75579E+06         0.00000E+00
   -0.75579E+06        -0.43993E+08         0.00000E+00
    0.00000E+00         0.00000E+00        -0.13311E+08
 
   -0.21355E+08        -0.98954E+06         0.00000E+00
   -0.98954E+06        -0.43971E+08         0.00000E+00
    0.00000E+00         0.00000E+00        -0.13065E+08
 
   -0.20379E+08        -0.10617E+07         0.00000E+00
   -0.10617E+07        -0.43915E+08         0.00000E+00
    0.00000E+00         0.00000E+00        -0.13072E+08
 
   -0.19687E+08        -0.10211E+07         0.00000E+00
   -0.10211E+07        -0.43832E+08         0.00000E+00
    0.00000E+00         0.00000E+00        -0.13363E+08
 
   -0.19074E+08        -0.90911E+06         0.00000E+00
   -0.90911E+06        -0.43735E+08         0.00000E+00
    0.00000E+00         0.00000E+00        -0.13615E+08
 
   -0.18538E+08        -0.75328E+06         0.00000E+00
   -0.75328E+06        -0.43639E+08         0.00000E+00
    0.00000E+00         0.00000E+00        -0.13841E+08
 
   -0.18066E+08        -0.56883E+06         0.00000E+00
   -0.56883E+06        -0.43560E+08         0.00000E+00
    0.00000E+00         0.00000E+00        -0.14061E+08
 
   -0.17650E+08        -0.36020E+06         0.00000E+00
   -0.36020E+06        -0.43508E+08         0.00000E+00
    0.00000E+00         0.00000E+00        -0.14293E+08
 
   -0.17280E+08        -0.12399E+06         0.00000E+00
   -0.12399E+06        -0.43495E+08         0.00000E+00
    0.00000E+00         0.00000E+00        -0.14555E+08
 
   -0.16956E+08         0.14909E+06         0.00000E+00
    0.14909E+06        -0.43525E+08         0.00000E+00
    0.00000E+00         0.00000E+00        -0.14857E+08
 
   -0.16683E+08         0.47223E+06         0.00000E+00
    0.47223E+06        -0.43603E+08         0.00000E+00
    0.00000E+00         0.00000E+00        -0.15203E+08
 
   -0.16472E+08         0.85753E+06         0.00000E+00
    0.85753E+06        -0.43724E+08         0.00000E+00
    0.00000E+00         0.00000E+00        -0.15585E+08
 
   -0.16345E+08         0.13141E+07         0.00000E+00
    0.13141E+07        -0.43872E+08         0.00000E+00
    0.00000E+00         0.00000E+00        -0.15977E+08
 
   -0.16378E+08         0.18559E+07         0.00000E+00
    0.18559E+07        -0.44035E+08         0.00000E+00
    0.00000E+00         0.00000E+00        -0.16298E+08
 
   -0.25695E+08        -0.32021E+06         0.00000E+00
   -0.32021E+06        -0.45309E+08         0.00000E+00
    0.00000E+00         0.00000E+00        -0.14201E+08
 
   -0.24196E+08        -0.73971E+06         0.00000E+00
   -0.73971E+06        -0.45299E+08         0.00000E+00
    0.00000E+00         0.00000E+00        -0.13899E+08
 
   -0.22799E+08        -0.92547E+06         0.00000E+00
   -0.92547E+06        -0.45237E+08         0.00000E+00
    0.00000E+00         0.00000E+00        -0.13607E+08
 
   -0.21694E+08        -0.95893E+06         0.00000E+00
   -0.95893E+06        -0.45118E+08         0.00000E+00
    0.00000E+00         0.00000E+00        -0.13568E+08
 
   -0.20919E+08        -0.89656E+06         0.00000E+00
   -0.89656E+06        -0.44967E+08         0.00000E+00
    0.00000E+00         0.00000E+00        -0.13811E+08
 
   -0.20259E+08        -0.78093E+06         0.00000E+00
   -0.78093E+06        -0.44808E+08         0.00000E+00
    0.00000E+00         0.00000E+00        -0.14007E+08
 
   -0.19695E+08        -0.63946E+06         0.00000E+00
   -0.63946E+06        -0.44660E+08         0.00000E+00
    0.00000E+00         0.00000E+00        -0.14181E+08
 
   -0.19204E+08        -0.48273E+06         0.00000E+00
   -0.48273E+06        -0.44540E+08         0.00000E+00
    0.00000E+00         0.00000E+00        -0.14356E+08
 
   -0.18767E+08        -0.31170E+06         0.00000E+00
   -0.31170E+06        -0.44456E+08         0.00000E+00
    0.00000E+00         0.00000E+00        -0.14552E+08
 
   -0.18370E+08        -0.12175E+06         0.00000E+00
   -0.12175E+06        -0.44418E+08         0.00000E+00
    0.00000E+00         0.00000E+00        -0.14790E+08
 
   -0.18004E+08         0.97420E+05         0.00000E+00
    0.97420E+05        -0.44433E+08         0.00000E+00
    0.00000E+00         0.00000E+00        -0.15086E+08
 
   -0.17671E+08         0.36373E+06         0.00000E+00
    0.36373E+06        -0.44510E+08         0.00000E+00
    0.00000E+00         0.00000E+00        -0.15456E+08
 
   -0.17386E+08         0.70152E+06         0.00000E+00
    0.70152E+06        -0.44653E+08         0.00000E+00
    0.00000E+00         0.00000E+00        -0.15903E+08
 
   -0.17172E+08         0.11292E+07         0.00000E+00
    0.11292E+07        -0.44849E+08         0.00000E+00
    0.00000E+00         0.00000E+00        -0.16406E+08
 
   -0.17092E+08         0.16586E+07         0.00000E+00
    0.16586E+07        -0.45067E+08         0.00000E+00
    0.00000E+00         0.00000E+00        -0.16882E+08
 
   -0.27586E+08        -0.32767E+06         0.00000E+00
   -0.32767E+06        -0.46640E+08         0.00000E+00
    0.00000E+00         0.00000E+00        -0.14845E+08
 
   -0.25781E+08        -0.68746E+06         0.00000E+00
   -0.68746E+06        -0.46604E+08         0.00000E+00
    0.00000E+00         0.00000E+00        -0.14477E+08
 
   -0.24202E+08        -0.79151E+06         0.00000E+00
   -0.79151E+06        -0.46469E+08         0.00000E+00
    0.00000E+00         0.00000E+00        -0.14134E+08
 
   -0.22992E+08        -0.77902E+06         0.00000E+00
   -0.77902E+06        -0.46263E+08         0.00000E+00
    0.00000E+00         0.00000E+00        -0.14028E+08
 
   -0.22155E+08        -0.70151E+06         0.00000E+00
   -0.70151E+06        -0.46031E+08         0.00000E+00
    0.00000E+00         0.00000E+00        -0.14197E+08
 
   -0.21469E+08        -0.59609E+06         0.00000E+00
   -0.59609E+06        -0.45810E+08         0.00000E+00
    0.00000E+00         0.00000E+00        -0.14329E+08
 
   -0.20893E+08        -0.48262E+06         0.00000E+00
   -0.48262E+06        -0.45619E+08         0.00000E+00
    0.00000E+00         0.00000E+00        -0.14450E+08
 
   -0.20393E+08        -0.36339E+06         0.00000E+00
   -0.36339E+06        -0.45466E+08         0.00000E+00
    0.00000E+00         0.00000E+00        -0.14583E+08
 
   -0.19943E+08        -0.23668E+06         0.00000E+00
   -0.23668E+06        -0.45358E+08         0.00000E+00
    0.00000E+00         0.00000E+00        -0.14746E+08
 
   -0.19527E+08        -0.98608E+05         0.00000E+00
   -0.98608E+05        -0.45299E+08         0.00000E+00
    0.00000E+00         0.00000E+00        -0.14956E+08
 
   -0.19129E+08         0.58553E+05         0.00000E+00
    0.58553E+05        -0.45298E+08         0.00000E+00
    0.00000E+00         0.00000E+00        -0.15234E+08
 
   -0.18740E+08         0.25051E+06         0.00000E+00
    0.25051E+06        -0.45366E+08         0.00000E+00
    0.00000E+00         0.00000E+00        -0.15607E+08
 
   -0.18365E+08         0.50807E+06         0.00000E+00
    0.50807E+06        -0.45520E+08         0.00000E+00
    0.00000E+00         0.00000E+00        -0.16104E+08
 
   -0.18039E+08         0.87918E+06         0.00000E+00
    0.87918E+06        -0.45771E+08         0.00000E+00
    0.00000E+00         0.00000E+00        -0.16733E+08
 
   -0.17802E+08         0.13981E+07         0.00000E+00
    0.13981E+07        -0.46073E+08         0.00000E+00
    0.00000E+00         0.00000E+00        -0.17430E+08
 
   -0.29451E+08        -0.32488E+06         0.00000E+00
   -0.32488E+06        -0.47971E+08         0.00000E+00
    0.00000E+00         0.00000E+00        -0.15484E+08
 
   -0.27264E+08        -0.55040E+06         0.00000E+00
   -0.55040E+06        -0.47848E+08         0.00000E+00
    0.00000E+00         0.00000E+00        -0.15023E+08
 
   -0.25549E+08        -0.54906E+06         0.00000E+00
   -0.54906E+06        -0.47582E+08         0.00000E+00
    0.00000E+00         0.00000E+00        -0.14626E+08
 
   -0.24283E+08        -0.50969E+06         0.00000E+00
   -0.50969E+06        -0.47278E+08         0.00000E+00
    0.00000E+00         0.00000E+00        -0.14423E+08
 
   -0.23407E+08        -0.44026E+06         0.00000E+00
   -0.44026E+06        -0.46972E+08         0.00000E+00
    0.00000E+00         0.00000E+00        -0.14480E+08
 
   -0.22718E+08        -0.36765E+06         0.00000E+00
   -0.36765E+06        -0.46710E+08         0.00000E+00
    0.00000E+00         0.00000E+00        -0.14554E+08
 
   -0.22140E+08        -0.29593E+06         0.00000E+00
   -0.29593E+06        -0.46494E+08         0.00000E+00
    0.00000E+00         0.00000E+00        -0.14636E+08
 
   -0.21635E+08        -0.22204E+06         0.00000E+00
   -0.22204E+06        -0.46324E+08         0.00000E+00
    0.00000E+00         0.00000E+00        -0.14737E+08
 
   -0.21179E+08        -0.14409E+06         0.00000E+00
   -0.14409E+06        -0.46202E+08         0.00000E+00
    0.00000E+00         0.00000E+00        -0.14873E+08
 
   -0.20751E+08        -0.60203E+05         0.00000E+00
   -0.60203E+05        -0.46134E+08         0.00000E+00
    0.00000E+00         0.00000E+00        -0.15059E+08
 
   -0.20334E+08         0.33555E+05         0.00000E+00
    0.33555E+05        -0.46124E+08         0.00000E+00
    0.00000E+00         0.00000E+00        -0.15315E+08
 
   -0.19906E+08         0.14589E+06         0.00000E+00
    0.14589E+06        -0.46183E+08         0.00000E+00
    0.00000E+00         0.00000E+00        -0.15674E+08
 
   -0.19452E+08         0.29844E+06         0.00000E+00
    0.29844E+06        -0.46331E+08         0.00000E+00
    0.00000E+00         0.00000E+00        -0.16183E+08
 
   -0.18964E+08         0.54946E+06         0.00000E+00
    0.54946E+06        -0.46601E+08         0.00000E+00
    0.00000E+00         0.00000E+00        -0.16913E+08
 
   -0.18521E+08         0.10114E+07         0.00000E+00
    0.10114E+07        -0.47050E+08         0.00000E+00
    0.00000E+00         0.00000E+00        -0.17927E+08
 
   -0.31184E+08        -0.21262E+06         0.00000E+00
   -0.21262E+06        -0.49173E+08         0.00000E+00
    0.00000E+00         0.00000E+00        -0.16074E+08
 
   -0.28615E+08        -0.22850E+06         0.00000E+00
   -0.22850E+06        -0.48800E+08         0.00000E+00
    0.00000E+00         0.00000E+00        -0.15483E+08
 
   -0.26872E+08        -0.19731E+06         0.00000E+00
   -0.19731E+06        -0.48401E+08         0.00000E+00
    0.00000E+00         0.00000E+00        -0.15055E+08
 
   -0.25593E+08        -0.17611E+06         0.00000E+00
   -0.17611E+06        -0.48051E+08         0.00000E+00
    0.00000E+00         0.00000E+00        -0.14734E+08
 
   -0.24700E+08        -0.14798E+06         0.00000E+00
   -0.14798E+06        -0.47747E+08         0.00000E+00
    0.00000E+00         0.00000E+00        -0.14641E+08
 
   -0.24016E+08        -0.12258E+06         0.00000E+00
   -0.12258E+06        -0.47482E+08         0.00000E+00
    0.00000E+00         0.00000E+00        -0.14671E+08
 
   -0.23438E+08        -0.98649E+05         0.00000E+00
   -0.98649E+05        -0.47264E+08         0.00000E+00
    0.00000E+00         0.00000E+00        -0.14731E+08
 
   -0.22931E+08        -0.73783E+05         0.00000E+00
   -0.73783E+05        -0.47094E+08         0.00000E+00
    0.00000E+00         0.00000E+00        -0.14814E+08
 
   -0.22472E+08        -0.47439E+05         0.00000E+00
   -0.47439E+05        -0.46976E+08         0.00000E+00
    0.00000E+00         0.00000E+00        -0.14934E+08
 
   -0.22040E+08        -0.19212E+05         0.00000E+00
   -0.19212E+05        -0.46912E+08         0.00000E+00
    0.00000E+00         0.00000E+00        -0.15105E+08
 
   -0.21614E+08         0.11983E+05         0.00000E+00
    0.11983E+05        -0.46908E+08         0.00000E+00
    0.00000E+00         0.00000E+00        -0.15347E+08
 
   -0.21170E+08         0.48502E+05         0.00000E+00
    0.48502E+05        -0.46973E+08         0.00000E+00
    0.00000E+00         0.00000E+00        -0.15690E+08
 
   -0.20672E+08         0.97012E+05         0.00000E+00
    0.97012E+05        -0.47125E+08         0.00000E+00
    0.00000E+00         0.00000E+00        -0.16189E+08
 
   -0.20065E+08         0.17905E+06         0.00000E+00
    0.17905E+06        -0.47408E+08         0.00000E+00
    0.00000E+00         0.00000E+00        -0.16962E+08
 
   -0.19260E+08         0.39821E+06         0.00000E+00
    0.39821E+06        -0.47927E+08         0.00000E+00
    0.00000E+00         0.00000E+00        -0.18292E+08
 
TENSORS stresstot double 
   -0.36765E+08         0.76754E+04         0.00000E+00
    0.76754E+04        -0.59989E+08         0.00000E+00
    0.00000E+00         0.00000E+00        -0.41695E+08
 
   -0.36677E+08         0.21119E+05         0.00000E+00
    0.21119E+05        -0.59960E+08         0.00000E+00
    0.00000E+00         0.00000E+00        -0.41800E+08
 
   -0.36594E+08         0.32426E+05         0.00000E+00
    0.32426E+05        -0.59907E+08         0.00000E+00
    0.00000E+00         0.00000E+00        -0.41851E+08
 
   -0.36542E+08         0.40288E+05         0.00000E+00
    0.40288E+05        -0.59834E+08         0.00000E+00
    0.00000E+00         0.00000E+00        -0.41813E+08
 
   -0.36542E+08         0.43822E+05         0.00000E+00
    0.43822E+05        -0.59751E+08         0.00000E+00
    0.00000E+00         0.00000E+00        -0.41662E+08
 
   -0.36594E+08         0.43652E+05         0.00000E+00
    0.43652E+05        -0.59665E+08         0.00000E+00
    0.00000E+00         0.00000E+00        -0.41414E+08
 
   -0.36688E+08         0.41456E+05         0.00000E+00
    0.41456E+05        -0.59581E+08         0.00000E+00
    0.00000E+00         0.00000E+00        -0.41108E+08
 
   -0.36815E+08         0.38478E+05         0.00000E+00
    0.38478E+05        -0.59502E+08         0.00000E+00
    0.00000E+00         0.00000E+00        -0.40771E+08
 
   -0.37390E+08         0.37959E+05         0.00000E+00
    0.37959E+05        -0.59428E+08         0.00000E+00
    0.00000E+00         0.00000E+00        -0.40764E+08
 
   -0.38097E+08         0.42667E+05         0.00000E+00
    0.42667E+05        -0.59348E+08         0.00000E+00
    0.00000E+00         0.00000E+00        -0.40889E+08
 
   -0.38754E+08         0.51071E+05         0.00000E+00
    0.51071E+05        -0.59254E+08         0.00000E+00
    0.00000E+00         0.00000E+00        -0.41002E+08
 
   -0.39372E+08         0.62627E+05         0.00000E+00
    0.62627E+05        -0.59141E+08         0.00000E+00
    0.00000E+00         0.00000E+00        -0.41103E+08
 
   -0.39963E+08         0.77060E+05         0.00000E+00
    0.77060E+05        -0.59002E+08         0.00000E+00
    0.00000E+00         0.00000E+00        -0.41193E+08
 
   -0.40535E+08         0.94186E+05         0.00000E+00
    0.94186E+05        -0.58831E+08         0.00000E+00
    0.00000E+00         0.00000E+00        -0.41274E+08
 
   -0.41098E+08         0.11385E+06         0.00000E+00
    0.11385E+06        -0.58623E+08         0.00000E+00
    0.00000E+00         0.00000E+00        -0.41345E+08
 
   -0.36737E+08         0.22627E+05         0.00000E+00
    0.22627E+05        -0.59990E+08         0.00000E+00
    0.00000E+00         0.00000E+00        -0.41679E+08
 
   -0.36651E+08         0.62626E+05         0.00000E+00
    0.62626E+05        -0.59962E+08         0.00000E+00
    0.00000E+00         0.00000E+00        -0.41781E+08
 
   -0.36575E+08         0.96305E+05         0.00000E+00
    0.96305E+05        -0.59910E+08         0.00000E+00
    0.00000E+00         0.00000E+00        -0.41826E+08
 
   -0.36530E+08         0.11921E+06         0.00000E+00
    0.11921E+06        -0.59840E+08         0.00000E+00
    0.00000E+00         0.00000E+00        -0.41779E+08
 
   -0.36539E+08         0.12918E+06         0.00000E+00
    0.12918E+06        -0.59761E+08         0.00000E+00
    0.00000E+00         0.00000E+00        -0.41620E+08
 
   -0.36596E+08         0.12881E+06         0.00000E+00
    0.12881E+06        -0.59679E+08         0.00000E+00
    0.00000E+00         0.00000E+00        -0.41372E+08
 
   -0.36694E+08         0.12265E+06         0.00000E+00
    0.12265E+06        -0.59599E+08         0.00000E+00
    0.00000E+00         0.00000E+00        -0.41068E+08
 
   -0.36821E+08         0.11416E+06         0.00000E+00
    0.11416E+06        -0.59523E+08         0.00000E+00
    0.00000E+00         0.00000E+00        -0.40735E+08
 
   -0.37385E+08         0.11311E+06         0.00000E+00
    0.11311E+06        -0.59451E+08         0.00000E+00
    0.00000E+00         0.00000E+00        -0.40726E+08
 
   -0.38084E+08         0.12739E+06         0.00000E+00
    0.12739E+06        -0.59372E+08         0.00000E+00
    0.00000E+00         0.00000E+00        -0.40850E+08
 
   -0.38734E+08         0.15255E+06         0.00000E+00
    0.15255E+06        -0.59280E+08         0.00000E+00
    0.00000E+00         0.00000E+00        -0.40961E+08
 
   -0.39346E+08         0.18713E+06         0.00000E+00
    0.18713E+06        -0.59168E+08         0.00000E+00
    0.00000E+00         0.00000E+00        -0.41061E+08
 
   -0.39931E+08         0.23033E+06         0.00000E+00
    0.23033E+06        -0.59030E+08         0.00000E+00
    0.00000E+00         0.00000E+00        -0.41151E+08
 
   -0.40498E+08         0.28162E+06         0.00000E+00
    0.28162E+06        -0.58861E+08         0.00000E+00
    0.00000E+00         0.00000E+00        -0.41230E+08
 
   -0.41056E+08         0.34055E+06         0.00000E+00
    0.34055E+06        -0.58655E+08         0.00000E+00
    0.00000E+00         0.00000E+00        -0.41301E+08
 
   -0.36681E+08         0.36596E+05         0.00000E+00
    0.36596E+05        -0.59990E+08         0.00000E+00
    0.00000E+00         0.00000E+00        -0.41643E+08
 
   -0.36601E+08         0.10206E+06         0.00000E+00
    0.10206E+06        -0.59965E+08         0.00000E+00
    0.00000E+00         0.00000E+00        -0.41740E+08
 
   -0.36536E+08         0.15680E+06         0.00000E+00
    0.15680E+06        -0.59917E+08         0.00000E+00
    0.00000E+00         0.00000E+00        -0.41774E+08
 
   -0.36509E+08         0.19281E+06         0.00000E+00
    0.19281E+06        -0.59854E+08         0.00000E+00
    0.00000E+00         0.00000E+00        -0.41710E+08
 
   -0.36533E+08         0.20808E+06         0.00000E+00
    0.20808E+06        -0.59782E+08         0.00000E+00
    0.00000E+00         0.00000E+00        -0.41538E+08
 
   -0.36601E+08         0.20793E+06         0.00000E+00
    0.20793E+06        -0.59708E+08         0.00000E+00
    0.00000E+00         0.00000E+00        -0.41288E+08
 
   -0.36704E+08         0.19899E+06         0.00000E+00
    0.19899E+06        -0.59635E+08         0.00000E+00
    0.00000E+00         0.00000E+00        -0.40989E+08
 
   -0.36833E+08         0.18623E+06         0.00000E+00
    0.18623E+06        -0.59564E+08         0.00000E+00
    0.00000E+00         0.00000E+00        -0.40665E+08
 
   -0.37373E+08         0.18582E+06         0.00000E+00
    0.18582E+06        -0.59495E+08         0.00000E+00
    0.00000E+00         0.00000E+00        -0.40648E+08
 
   -0.38057E+08         0.21012E+06         0.00000E+00
    0.21012E+06        -0.59420E+08         0.00000E+00
    0.00000E+00         0.00000E+00        -0.40770E+08
 
   -0.38694E+08         0.25196E+06         0.00000E+00
    0.25196E+06        -0.59330E+08         0.00000E+00
    0.00000E+00         0.00000E+00        -0.40880E+08
 
   -0.39294E+08         0.30933E+06         0.00000E+00
    0.30933E+06        -0.59221E+08         0.00000E+00
    0.00000E+00         0.00000E+00        -0.40978E+08
 
   -0.39868E+08         0.38103E+06         0.00000E+00
    0.38103E+06        -0.59087E+08         0.00000E+00
    0.00000E+00         0.00000E+00        -0.41066E+08
 
   -0.40425E+08         0.46624E+06         0.00000E+00
    0.46624E+06        -0.58922E+08         0.00000E+00
    0.00000E+00         0.00000E+00        -0.41144E+08
 
   -0.40973E+08         0.56425E+06         0.00000E+00
    0.56425E+06        -0.58720E+08         0.00000E+00
    0.00000E+00         0.00000E+00        -0.41213E+08
 
   -0.36600E+08         0.48986E+05         0.00000E+00
    0.48986E+05        -0.59990E+08         0.00000E+00
    0.00000E+00         0.00000E+00        -0.41587E+08
 
   -0.36529E+08         0.13778E+06         0.00000E+00
    0.13778E+06        -0.59969E+08         0.00000E+00
    0.00000E+00         0.00000E+00        -0.41677E+08
 
   -0.36481E+08         0.21069E+06         0.00000E+00
    0.21069E+06        -0.59928E+08         0.00000E+00
    0.00000E+00         0.00000E+00        -0.41694E+08
 
   -0.36479E+08         0.25714E+06         0.00000E+00
    0.25714E+06        -0.59876E+08         0.00000E+00
    0.00000E+00         0.00000E+00        -0.41605E+08
 
   -0.36524E+08         0.27711E+06         0.00000E+00
    0.27711E+06        -0.59816E+08         0.00000E+00
    0.00000E+00         0.00000E+00        -0.41418E+08
 
   -0.36606E+08         0.27816E+06         0.00000E+00
    0.27816E+06        -0.59752E+08         0.00000E+00
    0.00000E+00         0.00000E+00        -0.41165E+08
 
   -0.36716E+08         0.26809E+06         0.00000E+00
    0.26809E+06        -0.59687E+08         0.00000E+00
    0.00000E+00         0.00000E+00        -0.40873E+08
 
   -0.36848E+08         0.25273E+06         0.00000E+00
    0.25273E+06        -0.59623E+08         0.00000E+00
    0.00000E+00         0.00000E+00        -0.40560E+08
 
   -0.37355E+08         0.25427E+06         0.00000E+00
    0.25427E+06        -0.59560E+08         0.00000E+00
    0.00000E+00         0.00000E+00        -0.40532E+08
 
   -0.38017E+08         0.28918E+06         0.00000E+00
    0.28918E+06        -0.59489E+08         0.00000E+00
    0.00000E+00         0.00000E+00        -0.40650E+08
 
   -0.38634E+08         0.34766E+06         0.00000E+00
    0.34766E+06        -0.59404E+08         0.00000E+00
    0.00000E+00         0.00000E+00        -0.40757E+08
 
   -0.39217E+08         0.42751E+06         0.00000E+00
    0.42751E+06        -0.59300E+08         0.00000E+00
    0.00000E+00         0.00000E+00        -0.40853E+08
 
   -0.39774E+08         0.52732E+06         0.00000E+00
    0.52732E+06        -0.59171E+08         0.00000E+00
    0.00000E+00         0.00000E+00        -0.40938E+08
 
   -0.40315E+08         0.64607E+06         0.00000E+00
    0.64607E+06        -0.59011E+08         0.00000E+00
    0.00000E+00         0.00000E+00        -0.41015E+08
 
   -0.40848E+08         0.78288E+06         0.00000E+00
    0.78288E+06        -0.58815E+08         0.00000E+00
    0.00000E+00         0.00000E+00        -0.41082E+08
 
   -0.36496E+08         0.59203E+05         0.00000E+00
    0.59203E+05        -0.59992E+08         0.00000E+00
    0.00000E+00         0.00000E+00        -0.41506E+08
 
   -0.36436E+08         0.16748E+06         0.00000E+00
    0.16748E+06        -0.59975E+08         0.00000E+00
    0.00000E+00         0.00000E+00        -0.41586E+08
 
   -0.36413E+08         0.25405E+06         0.00000E+00
    0.25405E+06        -0.59945E+08         0.00000E+00
    0.00000E+00         0.00000E+00        -0.41577E+08
 
   -0.36442E+08         0.30838E+06         0.00000E+00
    0.30838E+06        -0.59906E+08         0.00000E+00
    0.00000E+00         0.00000E+00        -0.41460E+08
 
   -0.36513E+08         0.33367E+06         0.00000E+00
    0.33367E+06        -0.59860E+08         0.00000E+00
    0.00000E+00         0.00000E+00        -0.41259E+08
 
   -0.36611E+08         0.33787E+06         0.00000E+00
    0.33787E+06        -0.59809E+08         0.00000E+00
    0.00000E+00         0.00000E+00        -0.41006E+08
 
   -0.36730E+08         0.32843E+06         0.00000E+00
    0.32843E+06        -0.59754E+08         0.00000E+00
    0.00000E+00         0.00000E+00        -0.40722E+08
 
   -0.36866E+08         0.31190E+06         0.00000E+00
    0.31190E+06        -0.59699E+08         0.00000E+00
    0.00000E+00         0.00000E+00        -0.40422E+08
 
   -0.37329E+08         0.31662E+06         0.00000E+00
    0.31662E+06        -0.59643E+08         0.00000E+00
    0.00000E+00         0.00000E+00        -0.40377E+08
 
   -0.37963E+08         0.36267E+06         0.00000E+00
    0.36267E+06        -0.59579E+08         0.00000E+00
    0.00000E+00         0.00000E+00        -0.40491E+08
 
   -0.38555E+08         0.43776E+06         0.00000E+00
    0.43776E+06        -0.59501E+08         0.00000E+00
    0.00000E+00         0.00000E+00        -0.40594E+08
 
   -0.39115E+08         0.53982E+06         0.00000E+00
    0.53982E+06        -0.59403E+08         0.00000E+00
    0.00000E+00         0.00000E+00        -0.40686E+08
 
   -0.39650E+08         0.66727E+06         0.00000E+00
    0.66727E+06        -0.59281E+08         0.00000E+00
    0.00000E+00         0.00000E+00        -0.40769E+08
 
   -0.40169E+08         0.81906E+06         0.00000E+00
    0.81906E+06        -0.59129E+08         0.00000E+00
    0.00000E+00         0.00000E+00        -0.40842E+08
 
   -0.40682E+08         0.99426E+06         0.00000E+00
    0.99426E+06        -0.58941E+08         0.00000E+00
    0.00000E+00         0.00000E+00        -0.40907E+08
 
   -0.36373E+08         0.66707E+05         0.00000E+00
    0.66707E+05        -0.59993E+08         0.00000E+00
    0.00000E+00         0.00000E+00        -0.41393E+08
 
   -0.36328E+08         0.18873E+06         0.00000E+00
    0.18873E+06        -0.59983E+08         0.00000E+00
    0.00000E+00         0.00000E+00        -0.41459E+08
 
   -0.36338E+08         0.28288E+06         0.00000E+00
    0.28288E+06        -0.59966E+08         0.00000E+00
    0.00000E+00         0.00000E+00        -0.41417E+08
 
   -0.36400E+08         0.34326E+06         0.00000E+00
    0.34326E+06        -0.59944E+08         0.00000E+00
    0.00000E+00         0.00000E+00        -0.41275E+08
 
   -0.36496E+08         0.37548E+06         0.00000E+00
    0.37548E+06        -0.59915E+08         0.00000E+00
    0.00000E+00         0.00000E+00        -0.41066E+08
 
   -0.36613E+08         0.38549E+06         0.00000E+00
    0.38549E+06        -0.59879E+08         0.00000E+00
    0.00000E+00         0.00000E+00        -0.40814E+08
 
   -0.36743E+08         0.37905E+06         0.00000E+00
    0.37905E+06        -0.59836E+08         0.00000E+00
    0.00000E+00         0.00000E+00        -0.40538E+08
 
   -0.36884E+08         0.36250E+06         0.00000E+00
    0.36250E+06        -0.59789E+08         0.00000E+00
    0.00000E+00         0.00000E+00        -0.40251E+08
 
   -0.37294E+08         0.37086E+06         0.00000E+00
    0.37086E+06        -0.59742E+08         0.00000E+00
    0.00000E+00         0.00000E+00        -0.40182E+08
 
   -0.37895E+08         0.42847E+06         0.00000E+00
    0.42847E+06        -0.59687E+08         0.00000E+00
    0.00000E+00         0.00000E+00        -0.40291E+08
 
   -0.38457E+08         0.52037E+06         0.00000E+00
    0.52037E+06        -0.59618E+08         0.00000E+00
    0.00000E+00         0.00000E+00        -0.40390E+08
 
   -0.38987E+08         0.64434E+06         0.00000E+00
    0.64434E+06        -0.59529E+08         0.00000E+00
    0.00000E+00         0.00000E+00        -0.40478E+08
 
   -0.39495E+08         0.79889E+06         0.00000E+00
    0.79889E+06        -0.59416E+08         0.00000E+00
    0.00000E+00         0.00000E+00        -0.40557E+08
 
   -0.39988E+08         0.98306E+06         0.00000E+00
    0.98306E+06        -0.59273E+08         0.00000E+00
    0.00000E+00         0.00000E+00        -0.40627E+08
 
   -0.40475E+08         0.11961E+07         0.00000E+00
    0.11961E+07        -0.59096E+08         0.00000E+00
    0.00000E+00         0.00000E+00        -0.40689E+08
 
   -0.36237E+08         0.71079E+05         0.00000E+00
    0.71079E+05        -0.59996E+08         0.00000E+00
    0.00000E+00         0.00000E+00        -0.41241E+08
 
   -0.36214E+08         0.19918E+06         0.00000E+00
    0.19918E+06        -0.59992E+08         0.00000E+00
    0.00000E+00         0.00000E+00        -0.41280E+08
 
   -0.36259E+08         0.29470E+06         0.00000E+00
    0.29470E+06        -0.59989E+08         0.00000E+00
    0.00000E+00         0.00000E+00        -0.41204E+08
 
   -0.36352E+08         0.35930E+06         0.00000E+00
    0.35930E+06        -0.59986E+08         0.00000E+00
    0.00000E+00         0.00000E+00        -0.41046E+08
 
   -0.36472E+08         0.39940E+06         0.00000E+00
    0.39940E+06        -0.59977E+08         0.00000E+00
    0.00000E+00         0.00000E+00        -0.40837E+08
 
   -0.36609E+08         0.41841E+06         0.00000E+00
    0.41841E+06        -0.59960E+08         0.00000E+00
    0.00000E+00         0.00000E+00        -0.40593E+08
 
   -0.36754E+08         0.41833E+06         0.00000E+00
    0.41833E+06        -0.59932E+08         0.00000E+00
    0.00000E+00         0.00000E+00        -0.40326E+08
 
   -0.36904E+08         0.40433E+06         0.00000E+00
    0.40433E+06        -0.59896E+08         0.00000E+00
    0.00000E+00         0.00000E+00        -0.40052E+08
 
   -0.37249E+08         0.41497E+06         0.00000E+00
    0.41497E+06        -0.59859E+08         0.00000E+00
    0.00000E+00         0.00000E+00        -0.39949E+08
 
   -0.37813E+08         0.48483E+06         0.00000E+00
    0.48483E+06        -0.59813E+08         0.00000E+00
    0.00000E+00         0.00000E+00        -0.40052E+08
 
   -0.38339E+08         0.59364E+06         0.00000E+00
    0.59364E+06        -0.59754E+08         0.00000E+00
    0.00000E+00         0.00000E+00        -0.40146E+08
 
   -0.38836E+08         0.73927E+06         0.00000E+00
    0.73927E+06        -0.59675E+08         0.00000E+00
    0.00000E+00         0.00000E+00        -0.40229E+08
 
   -0.39311E+08         0.92022E+06         0.00000E+00
    0.92022E+06        -0.59573E+08         0.00000E+00
    0.00000E+00         0.00000E+00        -0.40304E+08
 
   -0.39772E+08         0.11358E+07         0.00000E+00
    0.11358E+07        -0.59442E+08         0.00000E+00
    0.00000E+00         0.00000E+00        -0.40370E+08
 
   -0.40228E+08         0.13860E+07         0.00000E+00
    0.13860E+07        -0.59278E+08         0.00000E+00
    0.00000E+00         0.00000E+00        -0.40428E+08
 
   -0.36095E+08         0.71947E+05         0.00000E+00
    0.71947E+05        -0.59998E+08         0.00000E+00
    0.00000E+00         0.00000E+00        -0.41035E+08
 
   -0.36101E+08         0.19746E+06         0.00000E+00
    0.19746E+06        -0.60002E+08         0.00000E+00
    0.00000E+00         0.00000E+00        -0.41037E+08
 
   -0.36180E+08         0.28903E+06         0.00000E+00
    0.28903E+06        -0.60014E+08         0.00000E+00
    0.00000E+00         0.00000E+00        -0.40930E+08
 
   -0.36298E+08         0.35516E+06         0.00000E+00
    0.35516E+06        -0.60029E+08         0.00000E+00
    0.00000E+00         0.00000E+00        -0.40767E+08
 
   -0.36439E+08         0.40183E+06         0.00000E+00
    0.40183E+06        -0.60041E+08         0.00000E+00
    0.00000E+00         0.00000E+00        -0.40568E+08
 
   -0.36595E+08         0.43136E+06         0.00000E+00
    0.43136E+06        -0.60047E+08         0.00000E+00
    0.00000E+00         0.00000E+00        -0.40342E+08
 
   -0.36759E+08         0.44355E+06         0.00000E+00
    0.44355E+06        -0.60041E+08         0.00000E+00
    0.00000E+00         0.00000E+00        -0.40093E+08
 
   -0.36920E+08         0.43688E+06         0.00000E+00
    0.43688E+06        -0.60019E+08         0.00000E+00
    0.00000E+00         0.00000E+00        -0.39831E+08
 
   -0.37199E+08         0.44867E+06         0.00000E+00
    0.44867E+06        -0.59985E+08         0.00000E+00
    0.00000E+00         0.00000E+00        -0.39686E+08
 
   -0.37715E+08         0.52960E+06         0.00000E+00
    0.52960E+06        -0.59956E+08         0.00000E+00
    0.00000E+00         0.00000E+00        -0.39774E+08
 
   -0.38202E+08         0.65599E+06         0.00000E+00
    0.65599E+06        -0.59909E+08         0.00000E+00
    0.00000E+00         0.00000E+00        -0.39862E+08
 
   -0.38661E+08         0.82311E+06         0.00000E+00
    0.82311E+06        -0.59841E+08         0.00000E+00
    0.00000E+00         0.00000E+00        -0.39940E+08
 
   -0.39099E+08         0.10294E+07         0.00000E+00
    0.10294E+07        -0.59751E+08         0.00000E+00
    0.00000E+00         0.00000E+00        -0.40010E+08
 
   -0.39523E+08         0.12752E+07         0.00000E+00
    0.12752E+07        -0.59635E+08         0.00000E+00
    0.00000E+00         0.00000E+00        -0.40071E+08
 
   -0.39941E+08         0.15612E+07         0.00000E+00
    0.15612E+07        -0.59485E+08         0.00000E+00
    0.00000E+00         0.00000E+00        -0.40125E+08
 
   -0.35955E+08         0.69001E+05         0.00000E+00
    0.69001E+05        -0.59999E+08         0.00000E+00
    0.00000E+00         0.00000E+00        -0.40764E+08
 
   -0.35998E+08         0.18312E+06         0.00000E+00
    0.18312E+06        -0.60012E+08         0.00000E+00
    0.00000E+00         0.00000E+00        -0.40721E+08
 
   -0.36104E+08         0.26695E+06         0.00000E+00
    0.26695E+06        -0.60037E+08         0.00000E+00
    0.00000E+00         0.00000E+00        -0.40594E+08
 
   -0.36241E+08         0.33097E+06         0.00000E+00
    0.33097E+06        -0.60070E+08         0.00000E+00
    0.00000E+00         0.00000E+00        -0.40435E+08
 
   -0.36398E+08         0.38039E+06         0.00000E+00
    0.38039E+06        -0.60104E+08         0.00000E+00
    0.00000E+00         0.00000E+00        -0.40256E+08
 
   -0.36569E+08         0.41830E+06         0.00000E+00
    0.41830E+06        -0.60136E+08         0.00000E+00
    0.00000E+00         0.00000E+00        -0.40058E+08
 
   -0.36749E+08         0.44575E+06         0.00000E+00
    0.44575E+06        -0.60158E+08         0.00000E+00
    0.00000E+00         0.00000E+00        -0.39840E+08
 
   -0.36932E+08         0.45884E+06         0.00000E+00
    0.45884E+06        -0.60163E+08         0.00000E+00
    0.00000E+00         0.00000E+00        -0.39599E+08
 
   -0.37144E+08         0.47375E+06         0.00000E+00
    0.47375E+06        -0.60143E+08         0.00000E+00
    0.00000E+00         0.00000E+00        -0.39395E+08
 
   -0.37603E+08         0.56133E+06         0.00000E+00
    0.56133E+06        -0.60117E+08         0.00000E+00
    0.00000E+00         0.00000E+00        -0.39457E+08
 
   -0.38045E+08         0.70714E+06         0.00000E+00
    0.70714E+06        -0.60080E+08         0.00000E+00
    0.00000E+00         0.00000E+00        -0.39538E+08
 
   -0.38463E+08         0.89450E+06         0.00000E+00
    0.89450E+06        -0.60026E+08         0.00000E+00
    0.00000E+00         0.00000E+00        -0.39611E+08
 
   -0.38860E+08         0.11248E+07         0.00000E+00
    0.11248E+07        -0.59949E+08         0.00000E+00
    0.00000E+00         0.00000E+00        -0.39675E+08
 
   -0.39241E+08         0.13987E+07         0.00000E+00
    0.13987E+07        -0.59848E+08         0.00000E+00
    0.00000E+00         0.00000E+00        -0.39731E+08
 
   -0.39616E+08         0.17189E+07         0.00000E+00
    0.17189E+07        -0.59717E+08         0.00000E+00
    0.00000E+00         0.00000E+00        -0.39780E+08
 
   -0.35828E+08         0.60863E+05         0.00000E+00
    0.60863E+05        -0.60002E+08         0.00000E+00
    0.00000E+00         0.00000E+00        -0.40420E+08
 
   -0.35907E+08         0.15766E+06         0.00000E+00
    0.15766E+06        -0.60023E+08         0.00000E+00
    0.00000E+00         0.00000E+00        -0.40330E+08
 
   -0.36035E+08         0.23016E+06         0.00000E+00
    0.23016E+06        -0.60060E+08         0.00000E+00
    0.00000E+00         0.00000E+00        -0.40195E+08
 
   -0.36186E+08         0.28739E+06         0.00000E+00
    0.28739E+06        -0.60109E+08         0.00000E+00
    0.00000E+00         0.00000E+00        -0.40048E+08
 
   -0.36353E+08         0.33479E+06         0.00000E+00
    0.33479E+06        -0.60165E+08         0.00000E+00
    0.00000E+00         0.00000E+00        -0.39894E+08
 
   -0.36532E+08         0.37691E+06         0.00000E+00
    0.37691E+06        -0.60221E+08         0.00000E+00
    0.00000E+00         0.00000E+00        -0.39733E+08
 
   -0.36720E+08         0.41699E+06         0.00000E+00
    0.41699E+06        -0.60272E+08         0.00000E+00
    0.00000E+00         0.00000E+00        -0.39558E+08
 
   -0.36915E+08         0.45612E+06         0.00000E+00
    0.45612E+06        -0.60307E+08         0.00000E+00
    0.00000E+00         0.00000E+00        -0.39358E+08
 
   -0.37108E+08         0.49342E+06         0.00000E+00
    0.49342E+06        -0.60314E+08         0.00000E+00
    0.00000E+00         0.00000E+00        -0.39135E+08
 
   -0.37463E+08         0.58352E+06         0.00000E+00
    0.58352E+06        -0.60293E+08         0.00000E+00
    0.00000E+00         0.00000E+00        -0.39100E+08
 
   -0.37870E+08         0.74499E+06         0.00000E+00
    0.74499E+06        -0.60270E+08         0.00000E+00
    0.00000E+00         0.00000E+00        -0.39176E+08
 
   -0.38243E+08         0.95310E+06         0.00000E+00
    0.95310E+06        -0.60227E+08         0.00000E+00
    0.00000E+00         0.00000E+00        -0.39243E+08
 
   -0.38597E+08         0.12052E+07         0.00000E+00
    0.12052E+07        -0.60165E+08         0.00000E+00
    0.00000E+00         0.00000E+00        -0.39301E+08
 
   -0.38931E+08         0.15040E+07         0.00000E+00
    0.15040E+07        -0.60081E+08         0.00000E+00
    0.00000E+00         0.00000E+00        -0.39351E+08
 
   -0.39253E+08         0.18554E+07         0.00000E+00
    0.18554E+07        -0.59972E+08         0.00000E+00
    0.00000E+00         0.00000E+00        -0.39393E+08
 
   -0.35723E+08         0.47076E+05         0.00000E+00
    0.47076E+05        -0.60004E+08         0.00000E+00
    0.00000E+00         0.00000E+00        -0.39988E+08
 
   -0.35833E+08         0.12285E+06         0.00000E+00
    0.12285E+06        -0.60032E+08         0.00000E+00
    0.00000E+00         0.00000E+00        -0.39867E+08
 
   -0.35976E+08         0.17932E+06         0.00000E+00
    0.17932E+06        -0.60081E+08         0.00000E+00
    0.00000E+00         0.00000E+00        -0.39733E+08
 
   -0.36138E+08         0.22515E+06         0.00000E+00
    0.22515E+06        -0.60146E+08         0.00000E+00
    0.00000E+00         0.00000E+00        -0.39604E+08
 
   -0.36310E+08         0.26670E+06         0.00000E+00
    0.26670E+06        -0.60222E+08         0.00000E+00
    0.00000E+00         0.00000E+00        -0.39483E+08
 
   -0.36488E+08         0.30959E+06         0.00000E+00
    0.30959E+06        -0.60301E+08         0.00000E+00
    0.00000E+00         0.00000E+00        -0.39364E+08
 
   -0.36672E+08         0.35907E+06         0.00000E+00
    0.35907E+06        -0.60376E+08         0.00000E+00
    0.00000E+00         0.00000E+00        -0.39239E+08
 
   -0.36863E+08         0.41946E+06         0.00000E+00
    0.41946E+06        -0.60438E+08         0.00000E+00
    0.00000E+00         0.00000E+00        -0.39093E+08
 
   -0.37069E+08         0.49041E+06         0.00000E+00
    0.49041E+06        -0.60481E+08         0.00000E+00
    0.00000E+00         0.00000E+00        -0.38911E+08
 
   -0.37311E+08         0.59584E+06         0.00000E+00
    0.59584E+06        -0.60498E+08         0.00000E+00
    0.00000E+00         0.00000E+00        -0.38751E+08
 
   -0.37673E+08         0.77187E+06         0.00000E+00
    0.77187E+06        -0.60474E+08         0.00000E+00
    0.00000E+00         0.00000E+00        -0.38776E+08
 
   -0.38004E+08         0.99839E+06         0.00000E+00
    0.99839E+06        -0.60444E+08         0.00000E+00
    0.00000E+00         0.00000E+00        -0.38836E+08
 
   -0.38312E+08         0.12702E+07         0.00000E+00
    0.12702E+07        -0.60396E+08         0.00000E+00
    0.00000E+00         0.00000E+00        -0.38888E+08
 
   -0.38595E+08         0.15886E+07         0.00000E+00
    0.15886E+07        -0.60331E+08         0.00000E+00
    0.00000E+00         0.00000E+00        -0.38932E+08
 
   -0.38857E+08         0.19660E+07         0.00000E+00
    0.19660E+07        -0.60247E+08         0.00000E+00
    0.00000E+00         0.00000E+00        -0.38967E+08
 
   -0.35647E+08         0.29670E+05         0.00000E+00
    0.29670E+05        -0.60005E+08         0.00000E+00
    0.00000E+00         0.00000E+00        -0.39469E+08
 
   -0.35778E+08         0.78561E+05         0.00000E+00
    0.78561E+05        -0.60040E+08         0.00000E+00
    0.00000E+00         0.00000E+00        -0.39333E+08
 
   -0.35934E+08         0.11423E+06         0.00000E+00
    0.11423E+06        -0.60101E+08         0.00000E+00
    0.00000E+00         0.00000E+00        -0.39209E+08
 
   -0.36100E+08         0.14515E+06         0.00000E+00
    0.14515E+06        -0.60182E+08         0.00000E+00
    0.00000E+00         0.00000E+00        -0.39107E+08
 
   -0.36270E+08         0.17856E+06         0.00000E+00
    0.17856E+06        -0.60276E+08         0.00000E+00
    0.00000E+00         0.00000E+00        -0.39023E+08
 
   -0.36441E+08         0.22080E+06         0.00000E+00
    0.22080E+06        -0.60374E+08         0.00000E+00
    0.00000E+00         0.00000E+00        -0.38950E+08
 
   -0.36612E+08         0.27741E+06         0.00000E+00
    0.27741E+06        -0.60468E+08         0.00000E+00
    0.00000E+00         0.00000E+00        -0.38876E+08
 
   -0.36787E+08         0.35255E+06         0.00000E+00
    0.35255E+06        -0.60552E+08         0.00000E+00
    0.00000E+00         0.00000E+00        -0.38787E+08
 
   -0.36974E+08         0.45128E+06         0.00000E+00
    0.45128E+06        -0.60616E+08         0.00000E+00
    0.00000E+00         0.00000E+00        -0.38665E+08
 
   -0.37183E+08         0.58394E+06         0.00000E+00
    0.58394E+06        -0.60662E+08         0.00000E+00
    0.00000E+00         0.00000E+00        -0.38502E+08
 
   -0.37442E+08         0.78111E+06         0.00000E+00
    0.78111E+06        -0.60697E+08         0.00000E+00
    0.00000E+00         0.00000E+00        -0.38385E+08
 
   -0.37741E+08         0.10315E+07         0.00000E+00
    0.10315E+07        -0.60678E+08         0.00000E+00
    0.00000E+00         0.00000E+00        -0.38393E+08
 
   -0.38011E+08         0.13196E+07         0.00000E+00
    0.13196E+07        -0.60642E+08         0.00000E+00
    0.00000E+00         0.00000E+00        -0.38440E+08
 
   -0.38243E+08         0.16511E+07         0.00000E+00
    0.16511E+07        -0.60595E+08         0.00000E+00
    0.00000E+00         0.00000E+00        -0.38477E+08
 
   -0.38432E+08         0.20433E+07         0.00000E+00
    0.20433E+07        -0.60541E+08         0.00000E+00
    0.00000E+00         0.00000E+00        -0.38504E+08
 
   -0.35604E+08         0.93662E+04         0.00000E+00
    0.93662E+04        -0.60007E+08         0.00000E+00
    0.00000E+00         0.00000E+00        -0.38871E+08
 
   -0.35751E+08         0.25023E+05         0.00000E+00
    0.25023E+05        -0.60048E+08         0.00000E+00
    0.00000E+00         0.00000E+00        -0.38733E+08
 
   -0.35912E+08         0.35230E+05         0.00000E+00
    0.35230E+05        -0.60121E+08         0.00000E+00
    0.00000E+00         0.00000E+00        -0.38629E+08
 
   -0.36075E+08         0.48689E+05         0.00000E+00
    0.48689E+05        -0.60216E+08         0.00000E+00
    0.00000E+00         0.00000E+00        -0.38561E+08
 
   -0.36235E+08         0.73040E+05         0.00000E+00
    0.73040E+05        -0.60325E+08         0.00000E+00
    0.00000E+00         0.00000E+00        -0.38519E+08
 
   -0.36390E+08         0.11481E+06         0.00000E+00
    0.11481E+06        -0.60438E+08         0.00000E+00
    0.00000E+00         0.00000E+00        -0.38494E+08
 
   -0.36541E+08         0.17901E+06         0.00000E+00
    0.17901E+06        -0.60547E+08         0.00000E+00
    0.00000E+00         0.00000E+00        -0.38470E+08
 
   -0.36691E+08         0.26949E+06         0.00000E+00
    0.26949E+06        -0.60643E+08         0.00000E+00
    0.00000E+00         0.00000E+00        -0.38433E+08
 
   -0.36848E+08         0.38969E+06         0.00000E+00
    0.38969E+06        -0.60720E+08         0.00000E+00
    0.00000E+00         0.00000E+00        -0.38368E+08
 
   -0.37020E+08         0.54572E+06         0.00000E+00
    0.54572E+06        -0.60773E+08         0.00000E+00
    0.00000E+00         0.00000E+00        -0.38262E+08
 
   -0.37222E+08         0.75223E+06         0.00000E+00
    0.75223E+06        -0.60816E+08         0.00000E+00
    0.00000E+00         0.00000E+00        -0.38125E+08
 
   -0.37445E+08         0.10274E+07         0.00000E+00
    0.10274E+07        -0.60864E+08         0.00000E+00
    0.00000E+00         0.00000E+00        -0.38006E+08
 
   -0.37689E+08         0.13463E+07         0.00000E+00
    0.13463E+07        -0.60876E+08         0.00000E+00
    0.00000E+00         0.00000E+00        -0.37988E+08
 
   -0.37883E+08         0.16915E+07         0.00000E+00
    0.16915E+07        -0.60859E+08         0.00000E+00
    0.00000E+00         0.00000E+00        -0.38000E+08
 
   -0.37998E+08         0.20723E+07         0.00000E+00
    0.20723E+07        -0.60847E+08         0.00000E+00
    0.00000E+00         0.00000E+00        -0.38018E+08
 
   -0.35602E+08        -0.14158E+05         0.00000E+00
   -0.14158E+05        -0.60010E+08         0.00000E+00
    0.00000E+00         0.00000E+00        -0.38197E+08
 
   -0.35755E+08        -0.37264E+05         0.00000E+00
   -0.37264E+05        -0.60057E+08         0.00000E+00
    0.00000E+00         0.00000E+00        -0.38071E+08
 
   -0.35912E+08        -0.56457E+05         0.00000E+00
   -0.56457E+05        -0.60140E+08         0.00000E+00
    0.00000E+00         0.00000E+00        -0.37998E+08
 
   -0.36064E+08        -0.62242E+05         0.00000E+00
   -0.62242E+05        -0.60248E+08         0.00000E+00
    0.00000E+00         0.00000E+00        -0.37970E+08
 
   -0.36205E+08        -0.46747E+05         0.00000E+00
   -0.46747E+05        -0.60369E+08         0.00000E+00
    0.00000E+00         0.00000E+00        -0.37976E+08
 
   -0.36335E+08        -0.38550E+04         0.00000E+00
   -0.38550E+04        -0.60494E+08         0.00000E+00
    0.00000E+00         0.00000E+00        -0.38000E+08
 
   -0.36458E+08         0.70282E+05         0.00000E+00
    0.70282E+05        -0.60611E+08         0.00000E+00
    0.00000E+00         0.00000E+00        -0.38025E+08
 
   -0.36577E+08         0.17793E+06         0.00000E+00
    0.17793E+06        -0.60714E+08         0.00000E+00
    0.00000E+00         0.00000E+00        -0.38036E+08
 
   -0.36699E+08         0.32063E+06         0.00000E+00
    0.32063E+06        -0.60796E+08         0.00000E+00
    0.00000E+00         0.00000E+00        -0.38020E+08
 
   -0.36831E+08         0.50063E+06         0.00000E+00
    0.50063E+06        -0.60854E+08         0.00000E+00
    0.00000E+00         0.00000E+00        -0.37967E+08
 
   -0.36981E+08         0.72475E+06         0.00000E+00
    0.72475E+06        -0.60887E+08         0.00000E+00
    0.00000E+00         0.00000E+00        -0.37876E+08
 
   -0.37154E+08         0.10005E+07         0.00000E+00
    0.10005E+07        -0.60908E+08         0.00000E+00
    0.00000E+00         0.00000E+00        -0.37768E+08
 
   -0.37343E+08         0.13287E+07         0.00000E+00
    0.13287E+07        -0.60934E+08         0.00000E+00
    0.00000E+00         0.00000E+00        -0.37682E+08
 
   -0.37511E+08         0.16917E+07         0.00000E+00
    0.16917E+07        -0.60953E+08         0.00000E+00
    0.00000E+00         0.00000E+00        -0.37645E+08
 
   -0.37643E+08         0.20485E+07         0.00000E+00
    0.20485E+07        -0.60966E+08         0.00000E+00
    0.00000E+00         0.00000E+00        -0.37671E+08
 
   -0.35647E+08        -0.41009E+05         0.00000E+00
   -0.41009E+05        -0.60012E+08         0.00000E+00
    0.00000E+00         0.00000E+00        -0.37454E+08
 
   -0.35796E+08        -0.10790E+06         0.00000E+00
   -0.10790E+06        -0.60065E+08         0.00000E+00
    0.00000E+00         0.00000E+00        -0.37354E+08
 
   -0.35939E+08        -0.15930E+06         0.00000E+00
   -0.15930E+06        -0.60157E+08         0.00000E+00
    0.00000E+00         0.00000E+00        -0.37321E+08
 
   -0.36067E+08        -0.18492E+06         0.00000E+00
   -0.18492E+06        -0.60275E+08         0.00000E+00
    0.00000E+00         0.00000E+00        -0.37342E+08
 
   -0.36178E+08        -0.17678E+06         0.00000E+00
   -0.17678E+06        -0.60406E+08         0.00000E+00
    0.00000E+00         0.00000E+00        -0.37399E+08
 
   -0.36274E+08        -0.13035E+06         0.00000E+00
   -0.13035E+06        -0.60536E+08         0.00000E+00
    0.00000E+00         0.00000E+00        -0.37472E+08
 
   -0.36359E+08        -0.44022E+05         0.00000E+00
   -0.44022E+05        -0.60658E+08         0.00000E+00
    0.00000E+00         0.00000E+00        -0.37544E+08
 
   -0.36441E+08         0.82400E+05         0.00000E+00
    0.82400E+05        -0.60764E+08         0.00000E+00
    0.00000E+00         0.00000E+00        -0.37601E+08
 
   -0.36525E+08         0.24883E+06         0.00000E+00
    0.24883E+06        -0.60849E+08         0.00000E+00
    0.00000E+00         0.00000E+00        -0.37631E+08
 
   -0.36617E+08         0.45545E+06         0.00000E+00
    0.45545E+06        -0.60908E+08         0.00000E+00
    0.00000E+00         0.00000E+00        -0.37626E+08
 
   -0.36724E+08         0.70268E+06         0.00000E+00
    0.70268E+06        -0.60941E+08         0.00000E+00
    0.00000E+00         0.00000E+00        -0.37584E+08
 
   -0.36851E+08         0.99155E+06         0.00000E+00
    0.99155E+06        -0.60954E+08         0.00000E+00
    0.00000E+00         0.00000E+00        -0.37515E+08
 
   -0.36997E+08         0.13219E+07         0.00000E+00
    0.13219E+07        -0.60956E+08         0.00000E+00
    0.00000E+00         0.00000E+00        -0.37441E+08
 
   -0.37152E+08         0.16775E+07         0.00000E+00
    0.16775E+07        -0.60961E+08         0.00000E+00
    0.00000E+00         0.00000E+00        -0.37393E+08
 
   -0.37310E+08         0.20254E+07         0.00000E+00
    0.20254E+07        -0.60974E+08         0.00000E+00
    0.00000E+00         0.00000E+00        -0.37384E+08
 
   -0.35744E+08        -0.70772E+05         0.00000E+00
   -0.70772E+05        -0.60015E+08         0.00000E+00
    0.00000E+00         0.00000E+00        -0.36651E+08
 
   -0.35877E+08        -0.18628E+06         0.00000E+00
   -0.18628E+06        -0.60072E+08         0.00000E+00
    0.00000E+00         0.00000E+00        -0.36588E+08
 
   -0.35991E+08        -0.27179E+06         0.00000E+00
   -0.27179E+06        -0.60173E+08         0.00000E+00
    0.00000E+00         0.00000E+00        -0.36606E+08
 
   -0.36082E+08        -0.31579E+06         0.00000E+00
   -0.31579E+06        -0.60298E+08         0.00000E+00
    0.00000E+00         0.00000E+00        -0.36682E+08
 
   -0.36151E+08        -0.31203E+06         0.00000E+00
   -0.31203E+06        -0.60432E+08         0.00000E+00
    0.00000E+00         0.00000E+00        -0.36790E+08
 
   -0.36203E+08        -0.25975E+06         0.00000E+00
   -0.25975E+06        -0.60564E+08         0.00000E+00
    0.00000E+00         0.00000E+00        -0.36911E+08
 
   -0.36245E+08        -0.16015E+06         0.00000E+00
   -0.16015E+06        -0.60686E+08         0.00000E+00
    0.00000E+00         0.00000E+00        -0.37029E+08
 
   -0.36284E+08        -0.14615E+05         0.00000E+00
   -0.14615E+05        -0.60792E+08         0.00000E+00
    0.00000E+00         0.00000E+00        -0.37130E+08
 
   -0.36326E+08         0.17534E+06         0.00000E+00
    0.17534E+06        -0.60878E+08         0.00000E+00
    0.00000E+00         0.00000E+00        -0.37205E+08
 
   -0.36377E+08         0.40763E+06         0.00000E+00
    0.40763E+06        -0.60940E+08         0.00000E+00
    0.00000E+00         0.00000E+00        -0.37248E+08
 
   -0.36445E+08         0.67945E+06         0.00000E+00
    0.67945E+06        -0.60978E+08         0.00000E+00
    0.00000E+00         0.00000E+00        -0.37255E+08
 
   -0.36536E+08         0.98711E+06         0.00000E+00
    0.98711E+06        -0.60993E+08         0.00000E+00
    0.00000E+00         0.00000E+00        -0.37230E+08
 
   -0.36655E+08         0.13234E+07         0.00000E+00
    0.13234E+07        -0.60995E+08         0.00000E+00
    0.00000E+00         0.00000E+00        -0.37184E+08
 
   -0.36803E+08         0.16752E+07         0.00000E+00
    0.16752E+07        -0.60993E+08         0.00000E+00
    0.00000E+00         0.00000E+00        -0.37131E+08
 
   -0.36968E+08         0.20257E+07         0.00000E+00
    0.20257E+07        -0.60987E+08         0.00000E+00
    0.00000E+00         0.00000E+00        -0.37079E+08
 
   -0.35899E+08        -0.10220E+06         0.00000E+00
   -0.10220E+06        -0.60016E+08         0.00000E+00
    0.00000E+00         0.00000E+00        -0.35795E+08
 
   -0.36001E+08        -0.27294E+06         0.00000E+00
   -0.27294E+06        -0.60079E+08         0.00000E+00
    0.00000E+00         0.00000E+00        -0.35784E+08
 
   -0.36070E+08        -0.39181E+06         0.00000E+00
   -0.39181E+06        -0.60187E+08         0.00000E+00
    0.00000E+00         0.00000E+00        -0.35863E+08
 
   -0.36107E+08        -0.44936E+06         0.00000E+00
   -0.44936E+06        -0.60314E+08         0.00000E+00
    0.00000E+00         0.00000E+00        -0.35996E+08
 
   -0.36121E+08        -0.44673E+06         0.00000E+00
   -0.44673E+06        -0.60445E+08         0.00000E+00
    0.00000E+00         0.00000E+00        -0.36154E+08
 
   -0.36122E+08        -0.38777E+06         0.00000E+00
   -0.38777E+06        -0.60574E+08         0.00000E+00
    0.00000E+00         0.00000E+00        -0.36319E+08
 
   -0.36114E+08        -0.27532E+06         0.00000E+00
   -0.27532E+06        -0.60693E+08         0.00000E+00
    0.00000E+00         0.00000E+00        -0.36479E+08
 
   -0.36105E+08        -0.11190E+06         0.00000E+00
   -0.11190E+06        -0.60798E+08         0.00000E+00
    0.00000E+00         0.00000E+00        -0.36623E+08
 
   -0.36102E+08         0.99548E+05         0.00000E+00
    0.99548E+05        -0.60885E+08         0.00000E+00
    0.00000E+00         0.00000E+00        -0.36743E+08
 
   -0.36113E+08         0.35513E+06         0.00000E+00
    0.35513E+06        -0.60951E+08         0.00000E+00
    0.00000E+00         0.00000E+00        -0.36833E+08
 
   -0.36145E+08         0.64955E+06         0.00000E+00
    0.64955E+06        -0.60995E+08         0.00000E+00
    0.00000E+00         0.00000E+00        -0.36889E+08
 
   -0.36207E+08         0.97563E+06         0.00000E+00
    0.97563E+06        -0.61020E+08         0.00000E+00
    0.00000E+00         0.00000E+00        -0.36908E+08
 
   -0.36307E+08         0.13245E+07         0.00000E+00
    0.13245E+07        -0.61028E+08         0.00000E+00
    0.00000E+00         0.00000E+00        -0.36891E+08
 
   -0.36448E+08         0.16861E+07         0.00000E+00
    0.16861E+07        -0.61022E+08         0.00000E+00
    0.00000E+00         0.00000E+00        -0.36841E+08
 
   -0.36623E+08         0.20467E+07         0.00000E+00
    0.20467E+07        -0.61001E+08         0.00000E+00
    0.00000E+00         0.00000E+00        -0.36763E+08
 
   -0.36119E+08        -0.13638E+06         0.00000E+00
   -0.13638E+06        -0.60028E+08         0.00000E+00
    0.00000E+00         0.00000E+00        -0.34910E+08
 
   -0.36169E+08        -0.36834E+06         0.00000E+00
   -0.36834E+06        -0.60091E+08         0.00000E+00
    0.00000E+00         0.00000E+00        -0.34955E+08
 
   -0.36168E+08        -0.51336E+06         0.00000E+00
   -0.51336E+06        -0.60198E+08         0.00000E+00
    0.00000E+00         0.00000E+00        -0.35101E+08
 
   -0.36137E+08        -0.57815E+06         0.00000E+00
   -0.57815E+06        -0.60318E+08         0.00000E+00
    0.00000E+00         0.00000E+00        -0.35286E+08
 
   -0.36089E+08        -0.57586E+06         0.00000E+00
   -0.57586E+06        -0.60442E+08         0.00000E+00
    0.00000E+00         0.00000E+00        -0.35488E+08
 
   -0.36031E+08        -0.51119E+06         0.00000E+00
   -0.51119E+06        -0.60564E+08         0.00000E+00
    0.00000E+00         0.00000E+00        -0.35694E+08
 
   -0.35969E+08        -0.38762E+06         0.00000E+00
   -0.38762E+06        -0.60679E+08         0.00000E+00
    0.00000E+00         0.00000E+00        -0.35895E+08
 
   -0.35908E+08        -0.20875E+06         0.00000E+00
   -0.20875E+06        -0.60781E+08         0.00000E+00
    0.00000E+00         0.00000E+00        -0.36081E+08
 
   -0.35858E+08         0.21107E+05         0.00000E+00
    0.21107E+05        -0.60868E+08         0.00000E+00
    0.00000E+00         0.00000E+00        -0.36244E+08
 
   -0.35827E+08         0.29647E+06         0.00000E+00
    0.29647E+06        -0.60938E+08         0.00000E+00
    0.00000E+00         0.00000E+00        -0.36379E+08
 
   -0.35824E+08         0.61051E+06         0.00000E+00
    0.61051E+06        -0.60990E+08         0.00000E+00
    0.00000E+00         0.00000E+00        -0.36480E+08
 
   -0.35860E+08         0.95527E+06         0.00000E+00
    0.95527E+06        -0.61024E+08         0.00000E+00
    0.00000E+00         0.00000E+00        -0.36540E+08
 
   -0.35943E+08         0.13222E+07         0.00000E+00
    0.13222E+07        -0.61039E+08         0.00000E+00
    0.00000E+00         0.00000E+00        -0.36553E+08
 
   -0.36078E+08         0.17018E+07         0.00000E+00
    0.17018E+07        -0.61035E+08         0.00000E+00
    0.00000E+00         0.00000E+00        -0.36516E+08
 
   -0.36264E+08         0.20803E+07         0.00000E+00
    0.20803E+07        -0.61010E+08         0.00000E+00
    0.00000E+00         0.00000E+00        -0.36427E+08
 
   -0.36419E+08        -0.18481E+06         0.00000E+00
   -0.18481E+06        -0.60059E+08         0.00000E+00
    0.00000E+00         0.00000E+00        -0.34084E+08
 
   -0.36370E+08        -0.46138E+06         0.00000E+00
   -0.46138E+06        -0.60117E+08         0.00000E+00
    0.00000E+00         0.00000E+00        -0.34135E+08
 
   -0.36276E+08        -0.62483E+06         0.00000E+00
   -0.62483E+06        -0.60194E+08         0.00000E+00
    0.00000E+00         0.00000E+00        -0.34318E+08
 
   -0.36170E+08        -0.69739E+06         0.00000E+00
   -0.69739E+06        -0.60305E+08         0.00000E+00
    0.00000E+00         0.00000E+00        -0.34550E+08
 
   -0.36055E+08        -0.69654E+06         0.00000E+00
   -0.69654E+06        -0.60420E+08         0.00000E+00
    0.00000E+00         0.00000E+00        -0.34792E+08
 
   -0.35933E+08        -0.62772E+06         0.00000E+00
   -0.62772E+06        -0.60534E+08         0.00000E+00
    0.00000E+00         0.00000E+00        -0.35037E+08
 
   -0.35811E+08        -0.49533E+06         0.00000E+00
   -0.49533E+06        -0.60642E+08         0.00000E+00
    0.00000E+00         0.00000E+00        -0.35275E+08
 
   -0.35696E+08        -0.30392E+06         0.00000E+00
   -0.30392E+06        -0.60740E+08         0.00000E+00
    0.00000E+00         0.00000E+00        -0.35499E+08
 
   -0.35597E+08        -0.59205E+05         0.00000E+00
   -0.59205E+05        -0.60826E+08         0.00000E+00
    0.00000E+00         0.00000E+00        -0.35703E+08
 
   -0.35523E+08         0.23222E+06         0.00000E+00
    0.23222E+06        -0.60898E+08         0.00000E+00
    0.00000E+00         0.00000E+00        -0.35880E+08
 
   -0.35485E+08         0.56314E+06         0.00000E+00
    0.56314E+06        -0.60956E+08         0.00000E+00
    0.00000E+00         0.00000E+00        -0.36021E+08
 
   -0.35494E+08         0.92615E+06         0.00000E+00
    0.92615E+06        -0.60998E+08         0.00000E+00
    0.00000E+00         0.00000E+00        -0.36120E+08
 
   -0.35559E+08         0.13133E+07         0.00000E+00
    0.13133E+07        -0.61022E+08         0.00000E+00
    0.00000E+00         0.00000E+00        -0.36165E+08
 
   -0.35687E+08         0.17149E+07         0.00000E+00
    0.17149E+07        -0.61025E+08         0.00000E+00
    0.00000E+00         0.00000E+00        -0.36149E+08
 
   -0.35883E+08         0.21168E+07         0.00000E+00
    0.21168E+07        -0.61004E+08         0.00000E+00
    0.00000E+00         0.00000E+00        -0.36063E+08
 
   -0.36793E+08        -0.22209E+06         0.00000E+00
   -0.22209E+06        -0.60022E+08         0.00000E+00
    0.00000E+00         0.00000E+00        -0.33432E+08
 
   -0.36613E+08        -0.54854E+06         0.00000E+00
   -0.54854E+06        -0.60084E+08         0.00000E+00
    0.00000E+00         0.00000E+00        -0.33423E+08
 
   -0.36382E+08        -0.73469E+06         0.00000E+00
   -0.73469E+06        -0.60172E+08         0.00000E+00
    0.00000E+00         0.00000E+00        -0.33523E+08
 
   -0.36206E+08        -0.80889E+06         0.00000E+00
   -0.80889E+06        -0.60273E+08         0.00000E+00
    0.00000E+00         0.00000E+00        -0.33788E+08
 
   -0.36018E+08        -0.80764E+06         0.00000E+00
   -0.80764E+06        -0.60379E+08         0.00000E+00
    0.00000E+00         0.00000E+00        -0.34068E+08
 
   -0.35829E+08        -0.73551E+06         0.00000E+00
   -0.73551E+06        -0.60483E+08         0.00000E+00
    0.00000E+00         0.00000E+00        -0.34347E+08
 
   -0.35644E+08        -0.59611E+06         0.00000E+00
   -0.59611E+06        -0.60582E+08         0.00000E+00
    0.00000E+00         0.00000E+00        -0.34618E+08
 
   -0.35471E+08        -0.39503E+06         0.00000E+00
   -0.39503E+06        -0.60672E+08         0.00000E+00
    0.00000E+00         0.00000E+00        -0.34877E+08
 
   -0.35321E+08        -0.13905E+06         0.00000E+00
   -0.13905E+06        -0.60754E+08         0.00000E+00
    0.00000E+00         0.00000E+00        -0.35115E+08
 
   -0.35204E+08         0.16471E+06         0.00000E+00
    0.16471E+06        -0.60827E+08         0.00000E+00
    0.00000E+00         0.00000E+00        -0.35327E+08
 
   -0.35130E+08         0.50933E+06         0.00000E+00
    0.50933E+06        -0.60888E+08         0.00000E+00
    0.00000E+00         0.00000E+00        -0.35506E+08
 
   -0.35109E+08         0.88832E+06         0.00000E+00
    0.88832E+06        -0.60937E+08         0.00000E+00
    0.00000E+00         0.00000E+00        -0.35642E+08
 
   -0.35153E+08         0.12947E+07         0.00000E+00
    0.12947E+07        -0.60971E+08         0.00000E+00
    0.00000E+00         0.00000E+00        -0.35723E+08
 
   -0.35272E+08         0.17193E+07         0.00000E+00
    0.17193E+07        -0.60985E+08         0.00000E+00
    0.00000E+00         0.00000E+00        -0.35736E+08
 
   -0.35477E+08         0.21477E+07         0.00000E+00
    0.21477E+07        -0.60974E+08         0.00000E+00
    0.00000E+00         0.00000E+00        -0.35664E+08
 
   -0.37222E+08        -0.24775E+06         0.00000E+00
   -0.24775E+06        -0.60008E+08         0.00000E+00
    0.00000E+00         0.00000E+00        -0.32816E+08
 
   -0.36892E+08        -0.61790E+06         0.00000E+00
   -0.61790E+06        -0.60052E+08         0.00000E+00
    0.00000E+00         0.00000E+00        -0.32759E+08
 
   -0.36510E+08        -0.83362E+06         0.00000E+00
   -0.83362E+06        -0.60134E+08         0.00000E+00
    0.00000E+00         0.00000E+00        -0.32766E+08
 
   -0.36237E+08        -0.91451E+06         0.00000E+00
   -0.91451E+06        -0.60223E+08         0.00000E+00
    0.00000E+00         0.00000E+00        -0.33011E+08
 
   -0.35979E+08        -0.90917E+06         0.00000E+00
   -0.90917E+06        -0.60320E+08         0.00000E+00
    0.00000E+00         0.00000E+00        -0.33319E+08
 
   -0.35720E+08        -0.83241E+06         0.00000E+00
   -0.83241E+06        -0.60412E+08         0.00000E+00
    0.00000E+00         0.00000E+00        -0.33626E+08
 
   -0.35469E+08        -0.68671E+06         0.00000E+00
   -0.68671E+06        -0.60497E+08         0.00000E+00
    0.00000E+00         0.00000E+00        -0.33925E+08
 
   -0.35238E+08        -0.47834E+06         0.00000E+00
   -0.47834E+06        -0.60577E+08         0.00000E+00
    0.00000E+00         0.00000E+00        -0.34209E+08
 
   -0.35036E+08        -0.21464E+06         0.00000E+00
   -0.21464E+06        -0.60650E+08         0.00000E+00
    0.00000E+00         0.00000E+00        -0.34475E+08
 
   -0.34874E+08         0.97200E+05         0.00000E+00
    0.97200E+05        -0.60718E+08         0.00000E+00
    0.00000E+00         0.00000E+00        -0.34716E+08
 
   -0.34761E+08         0.45107E+06         0.00000E+00
    0.45107E+06        -0.60780E+08         0.00000E+00
    0.00000E+00         0.00000E+00        -0.34928E+08
 
   -0.34708E+08         0.84177E+06         0.00000E+00
    0.84177E+06        -0.60835E+08         0.00000E+00
    0.00000E+00         0.00000E+00        -0.35101E+08
 
   -0.34727E+08         0.12640E+07         0.00000E+00
    0.12640E+07        -0.60880E+08         0.00000E+00
    0.00000E+00         0.00000E+00        -0.35222E+08
 
   -0.34832E+08         0.17100E+07         0.00000E+00
    0.17100E+07        -0.60909E+08         0.00000E+00
    0.00000E+00         0.00000E+00        -0.35271E+08
 
   -0.35041E+08         0.21665E+07         0.00000E+00
    0.21665E+07        -0.60914E+08         0.00000E+00
    0.00000E+00         0.00000E+00        -0.35225E+08
 
   -0.37693E+08        -0.26552E+06         0.00000E+00
   -0.26552E+06        -0.60007E+08         0.00000E+00
    0.00000E+00         0.00000E+00        -0.32191E+08
 
   -0.37204E+08        -0.66867E+06         0.00000E+00
   -0.66867E+06        -0.60037E+08         0.00000E+00
    0.00000E+00         0.00000E+00        -0.32099E+08
 
   -0.36664E+08        -0.91222E+06         0.00000E+00
   -0.91222E+06        -0.60101E+08         0.00000E+00
    0.00000E+00         0.00000E+00        -0.32035E+08
 
   -0.36265E+08        -0.10064E+07         0.00000E+00
   -0.10064E+07        -0.60169E+08         0.00000E+00
    0.00000E+00         0.00000E+00        -0.32232E+08
 
   -0.35936E+08        -0.99748E+06         0.00000E+00
   -0.99748E+06        -0.60248E+08         0.00000E+00
    0.00000E+00         0.00000E+00        -0.32556E+08
 
   -0.35605E+08        -0.91422E+06         0.00000E+00
   -0.91422E+06        -0.60321E+08         0.00000E+00
    0.00000E+00         0.00000E+00        -0.32880E+08
 
   -0.35289E+08        -0.76219E+06         0.00000E+00
   -0.76219E+06        -0.60388E+08         0.00000E+00
    0.00000E+00         0.00000E+00        -0.33194E+08
 
   -0.34998E+08        -0.54875E+06         0.00000E+00
   -0.54875E+06        -0.60450E+08         0.00000E+00
    0.00000E+00         0.00000E+00        -0.33494E+08
 
   -0.34745E+08        -0.28145E+06         0.00000E+00
   -0.28145E+06        -0.60510E+08         0.00000E+00
    0.00000E+00         0.00000E+00        -0.33777E+08
 
   -0.34538E+08         0.33208E+05         0.00000E+00
    0.33208E+05        -0.60569E+08         0.00000E+00
    0.00000E+00         0.00000E+00        -0.34040E+08
 
   -0.34385E+08         0.39031E+06         0.00000E+00
    0.39031E+06        -0.60630E+08         0.00000E+00
    0.00000E+00         0.00000E+00        -0.34280E+08
 
   -0.34296E+08         0.78650E+06         0.00000E+00
    0.78650E+06        -0.60689E+08         0.00000E+00
    0.00000E+00         0.00000E+00        -0.34489E+08
 
   -0.34284E+08         0.12189E+07         0.00000E+00
    0.12189E+07        -0.60746E+08         0.00000E+00
    0.00000E+00         0.00000E+00        -0.34653E+08
 
   -0.34368E+08         0.16829E+07         0.00000E+00
    0.16829E+07        -0.60792E+08         0.00000E+00
    0.00000E+00         0.00000E+00        -0.34749E+08
 
   -0.34572E+08         0.21674E+07         0.00000E+00
    0.21674E+07        -0.60819E+08         0.00000E+00
    0.00000E+00         0.00000E+00        -0.34741E+08
 
   -0.38195E+08        -0.28011E+06         0.00000E+00
   -0.28011E+06        -0.60006E+08         0.00000E+00
    0.00000E+00         0.00000E+00        -0.31553E+08
 
   -0.37538E+08        -0.70698E+06         0.00000E+00
   -0.70698E+06        -0.60030E+08         0.00000E+00
    0.00000E+00         0.00000E+00        -0.31426E+08
 
   -0.36841E+08        -0.96815E+06         0.00000E+00
   -0.96815E+06        -0.60071E+08         0.00000E+00
    0.00000E+00         0.00000E+00        -0.31310E+08
 
   -0.36299E+08        -0.10719E+07         0.00000E+00
   -0.10719E+07        -0.60118E+08         0.00000E+00
    0.00000E+00         0.00000E+00        -0.31453E+08
 
   -0.35887E+08        -0.10628E+07         0.00000E+00
   -0.10628E+07        -0.60168E+08         0.00000E+00
    0.00000E+00         0.00000E+00        -0.31783E+08
 
   -0.35483E+08        -0.97303E+06         0.00000E+00
   -0.97303E+06        -0.60214E+08         0.00000E+00
    0.00000E+00         0.00000E+00        -0.32111E+08
 
   -0.35103E+08        -0.81538E+06         0.00000E+00
   -0.81538E+06        -0.60253E+08         0.00000E+00
    0.00000E+00         0.00000E+00        -0.32426E+08
 
   -0.34757E+08        -0.59999E+06         0.00000E+00
   -0.59999E+06        -0.60290E+08         0.00000E+00
    0.00000E+00         0.00000E+00        -0.32728E+08
 
   -0.34454E+08        -0.33454E+06         0.00000E+00
   -0.33454E+06        -0.60330E+08         0.00000E+00
    0.00000E+00         0.00000E+00        -0.33017E+08
 
   -0.34202E+08        -0.24000E+05         0.00000E+00
   -0.24000E+05        -0.60377E+08         0.00000E+00
    0.00000E+00         0.00000E+00        -0.33293E+08
 
   -0.34008E+08         0.32875E+06         0.00000E+00
    0.32875E+06        -0.60433E+08         0.00000E+00
    0.00000E+00         0.00000E+00        -0.33557E+08
 
   -0.33879E+08         0.72266E+06         0.00000E+00
    0.72266E+06        -0.60497E+08         0.00000E+00
    0.00000E+00         0.00000E+00        -0.33801E+08
 
   -0.33829E+08         0.11579E+07         0.00000E+00
    0.11579E+07        -0.60566E+08         0.00000E+00
    0.00000E+00         0.00000E+00        -0.34013E+08
 
   -0.33882E+08         0.16338E+07         0.00000E+00
    0.16338E+07        -0.60633E+08         0.00000E+00
    0.00000E+00         0.00000E+00        -0.34164E+08
 
   -0.34071E+08         0.21440E+07         0.00000E+00
    0.21440E+07        -0.60685E+08         0.00000E+00
    0.00000E+00         0.00000E+00        -0.34209E+08
 
   -0.38722E+08        -0.29257E+06         0.00000E+00
   -0.29257E+06        -0.60005E+08         0.00000E+00
    0.00000E+00         0.00000E+00        -0.30904E+08
 
   -0.37885E+08        -0.73468E+06         0.00000E+00
   -0.73468E+06        -0.60023E+08         0.00000E+00
    0.00000E+00         0.00000E+00        -0.30740E+08
 
   -0.37025E+08        -0.10013E+07         0.00000E+00
   -0.10013E+07        -0.60047E+08         0.00000E+00
    0.00000E+00         0.00000E+00        -0.30578E+08
 
   -0.36337E+08        -0.11071E+07         0.00000E+00
   -0.11071E+07        -0.60066E+08         0.00000E+00
    0.00000E+00         0.00000E+00        -0.30671E+08
 
   -0.35834E+08        -0.10945E+07         0.00000E+00
   -0.10945E+07        -0.60080E+08         0.00000E+00
    0.00000E+00         0.00000E+00        -0.31001E+08
 
   -0.35356E+08        -0.99828E+06         0.00000E+00
   -0.99828E+06        -0.60087E+08         0.00000E+00
    0.00000E+00         0.00000E+00        -0.31318E+08
 
   -0.34915E+08        -0.83725E+06         0.00000E+00
   -0.83725E+06        -0.60090E+08         0.00000E+00
    0.00000E+00         0.00000E+00        -0.31618E+08
 
   -0.34518E+08        -0.62483E+06         0.00000E+00
   -0.62483E+06        -0.60094E+08         0.00000E+00
    0.00000E+00         0.00000E+00        -0.31906E+08
 
   -0.34170E+08        -0.36869E+06         0.00000E+00
   -0.36869E+06        -0.60108E+08         0.00000E+00
    0.00000E+00         0.00000E+00        -0.32188E+08
 
   -0.33875E+08        -0.71438E+05         0.00000E+00
   -0.71438E+05        -0.60139E+08         0.00000E+00
    0.00000E+00         0.00000E+00        -0.32470E+08
 
   -0.33639E+08         0.26756E+06         0.00000E+00
    0.26756E+06        -0.60189E+08         0.00000E+00
    0.00000E+00         0.00000E+00        -0.32752E+08
 
   -0.33467E+08         0.65012E+06         0.00000E+00
    0.65012E+06        -0.60257E+08         0.00000E+00
    0.00000E+00         0.00000E+00        -0.33031E+08
 
   -0.33371E+08         0.10793E+07         0.00000E+00
    0.10793E+07        -0.60339E+08         0.00000E+00
    0.00000E+00         0.00000E+00        -0.33294E+08
 
   -0.33379E+08         0.15591E+07         0.00000E+00
    0.15591E+07        -0.60428E+08         0.00000E+00
    0.00000E+00         0.00000E+00        -0.33512E+08
 
   -0.33539E+08         0.20899E+07         0.00000E+00
    0.20899E+07        -0.60511E+08         0.00000E+00
    0.00000E+00         0.00000E+00        -0.33627E+08
 
   -0.39267E+08        -0.30319E+06         0.00000E+00
   -0.30319E+06        -0.60005E+08         0.00000E+00
    0.00000E+00         0.00000E+00        -0.30244E+08
 
   -0.38236E+08        -0.75186E+06         0.00000E+00
   -0.75186E+06        -0.60016E+08         0.00000E+00
    0.00000E+00         0.00000E+00        -0.30040E+08
 
   -0.37206E+08        -0.10103E+07         0.00000E+00
   -0.10103E+07        -0.60020E+08         0.00000E+00
    0.00000E+00         0.00000E+00        -0.29835E+08
 
   -0.36372E+08        -0.11066E+07         0.00000E+00
   -0.11066E+07        -0.60007E+08         0.00000E+00
    0.00000E+00         0.00000E+00        -0.29884E+08
 
   -0.35773E+08        -0.10837E+07         0.00000E+00
   -0.10837E+07        -0.59978E+08         0.00000E+00
    0.00000E+00         0.00000E+00        -0.30202E+08
 
   -0.35224E+08        -0.97975E+06         0.00000E+00
   -0.97975E+06        -0.59937E+08         0.00000E+00
    0.00000E+00         0.00000E+00        -0.30494E+08
 
   -0.34729E+08        -0.81870E+06         0.00000E+00
   -0.81870E+06        -0.59893E+08         0.00000E+00
    0.00000E+00         0.00000E+00        -0.30765E+08
 
   -0.34289E+08        -0.61609E+06         0.00000E+00
   -0.61609E+06        -0.59857E+08         0.00000E+00
    0.00000E+00         0.00000E+00        -0.31024E+08
 
   -0.33903E+08        -0.37870E+06         0.00000E+00
   -0.37870E+06        -0.59839E+08         0.00000E+00
    0.00000E+00         0.00000E+00        -0.31287E+08
 
   -0.33568E+08        -0.10599E+06         0.00000E+00
   -0.10599E+06        -0.59850E+08         0.00000E+00
    0.00000E+00         0.00000E+00        -0.31563E+08
 
   -0.33288E+08         0.20725E+06         0.00000E+00
    0.20725E+06        -0.59892E+08         0.00000E+00
    0.00000E+00         0.00000E+00        -0.31859E+08
 
   -0.33068E+08         0.56754E+06         0.00000E+00
    0.56754E+06        -0.59965E+08         0.00000E+00
    0.00000E+00         0.00000E+00        -0.32173E+08
 
   -0.32920E+08         0.98060E+06         0.00000E+00
    0.98060E+06        -0.60064E+08         0.00000E+00
    0.00000E+00         0.00000E+00        -0.32492E+08
 
   -0.32868E+08         0.14542E+07         0.00000E+00
    0.14542E+07        -0.60179E+08         0.00000E+00
    0.00000E+00         0.00000E+00        -0.32789E+08
 
   -0.32978E+08         0.19976E+07         0.00000E+00
    0.19976E+07        -0.60299E+08         0.00000E+00
    0.00000E+00         0.00000E+00        -0.32995E+08
 
   -0.39826E+08        -0.31221E+06         0.00000E+00
   -0.31221E+06        -0.60004E+08         0.00000E+00
    0.00000E+00         0.00000E+00        -0.29575E+08
 
   -0.38578E+08        -0.75579E+06         0.00000E+00
   -0.75579E+06        -0.60007E+08         0.00000E+00
    0.00000E+00         0.00000E+00        -0.29325E+08
 
   -0.37369E+08        -0.98954E+06         0.00000E+00
   -0.98954E+06        -0.59985E+08         0.00000E+00
    0.00000E+00         0.00000E+00        -0.29079E+08
 
   -0.36393E+08        -0.10617E+07         0.00000E+00
   -0.10617E+07        -0.59929E+08         0.00000E+00
    0.00000E+00         0.00000E+00        -0.29086E+08
 
   -0.35701E+08        -0.10211E+07         0.00000E+00
   -0.10211E+07        -0.59846E+08         0.00000E+00
    0.00000E+00         0.00000E+00        -0.29377E+08
 
   -0.35088E+08        -0.90911E+06         0.00000E+00
   -0.90911E+06        -0.59748E+08         0.00000E+00
    0.00000E+00         0.00000E+00        -0.29629E+08
 
   -0.34551E+08        -0.75328E+06         0.00000E+00
   -0.75328E+06        -0.59652E+08         0.00000E+00
    0.00000E+00         0.00000E+00        -0.29855E+08
 
   -0.34080E+08        -0.56883E+06         0.00000E+00
   -0.56883E+06        -0.59573E+08         0.00000E+00
    0.00000E+00         0.00000E+00        -0.30075E+08
 
   -0.33664E+08        -0.36020E+06         0.00000E+00
   -0.36020E+06        -0.59522E+08         0.00000E+00
    0.00000E+00         0.00000E+00        -0.30307E+08
 
   -0.33294E+08        -0.12399E+06         0.00000E+00
   -0.12399E+06        -0.59508E+08         0.00000E+00
    0.00000E+00         0.00000E+00        -0.30568E+08
 
   -0.32969E+08         0.14909E+06         0.00000E+00
    0.14909E+06        -0.59539E+08         0.00000E+00
    0.00000E+00         0.00000E+00        -0.30870E+08
 
   -0.32696E+08         0.47223E+06         0.00000E+00
    0.47223E+06        -0.59617E+08         0.00000E+00
    0.00000E+00         0.00000E+00        -0.31216E+08
 
   -0.32486E+08         0.85753E+06         0.00000E+00
    0.85753E+06        -0.59737E+08         0.00000E+00
    0.00000E+00         0.00000E+00        -0.31598E+08
 
   -0.32358E+08         0.13141E+07         0.00000E+00
    0.13141E+07        -0.59885E+08         0.00000E+00
    0.00000E+00         0.00000E+00        -0.31990E+08
 
   -0.32392E+08         0.18559E+07         0.00000E+00
    0.18559E+07        -0.60048E+08         0.00000E+00
    0.00000E+00         0.00000E+00        -0.32311E+08
 
   -0.40390E+08        -0.32021E+06         0.00000E+00
   -0.32021E+06        -0.60004E+08         0.00000E+00
    0.00000E+00         0.00000E+00        -0.28896E+08
 
   -0.38892E+08        -0.73971E+06         0.00000E+00
   -0.73971E+06        -0.59994E+08         0.00000E+00
    0.00000E+00         0.00000E+00        -0.28594E+08
 
   -0.37495E+08        -0.92547E+06         0.00000E+00
   -0.92547E+06        -0.59932E+08         0.00000E+00
    0.00000E+00         0.00000E+00        -0.28302E+08
 
   -0.36389E+08        -0.95893E+06         0.00000E+00
   -0.95893E+06        -0.59814E+08         0.00000E+00
    0.00000E+00         0.00000E+00        -0.28263E+08
 
   -0.35614E+08        -0.89656E+06         0.00000E+00
   -0.89656E+06        -0.59662E+08         0.00000E+00
    0.00000E+00         0.00000E+00        -0.28506E+08
 
   -0.34954E+08        -0.78093E+06         0.00000E+00
   -0.78093E+06        -0.59503E+08         0.00000E+00
    0.00000E+00         0.00000E+00        -0.28702E+08
 
   -0.34390E+08        -0.63946E+06         0.00000E+00
   -0.63946E+06        -0.59355E+08         0.00000E+00
    0.00000E+00         0.00000E+00        -0.28876E+08
 
   -0.33899E+08        -0.48273E+06         0.00000E+00
   -0.48273E+06        -0.59234E+08         0.00000E+00
    0.00000E+00         0.00000E+00        -0.29050E+08
 
   -0.33462E+08        -0.31170E+06         0.00000E+00
   -0.31170E+06        -0.59151E+08         0.00000E+00
    0.00000E+00         0.00000E+00        -0.29247E+08
 
   -0.33065E+08        -0.12175E+06         0.00000E+00
   -0.12175E+06        -0.59113E+08         0.00000E+00
    0.00000E+00         0.00000E+00        -0.29485E+08
 
   -0.32699E+08         0.97420E+05         0.00000E+00
    0.97420E+05        -0.59127E+08         0.00000E+00
    0.00000E+00         0.00000E+00        -0.29781E+08
 
   -0.32366E+08         0.36373E+06         0.00000E+00
    0.36373E+06        -0.59205E+08         0.00000E+00
    0.00000E+00         0.00000E+00        -0.30150E+08
 
   -0.32081E+08         0.70152E+06         0.00000E+00
    0.70152E+06        -0.59348E+08         0.00000E+00
    0.00000E+00         0.00000E+00        -0.30597E+08
 
   -0.31866E+08         0.11292E+07         0.00000E+00
    0.11292E+07        -0.59544E+08         0.00000E+00
    0.00000E+00         0.00000E+00        -0.31100E+08
 
   -0.31787E+08         0.16586E+07         0.00000E+00
    0.16586E+07        -0.59762E+08         0.00000E+00
    0.00000E+00         0.00000E+00        -0.31576E+08
 
   -0.40949E+08        -0.32767E+06         0.00000E+00
   -0.32767E+06        -0.60004E+08         0.00000E+00
    0.00000E+00         0.00000E+00        -0.28209E+08
 
   -0.39144E+08        -0.68746E+06         0.00000E+00
   -0.68746E+06        -0.59967E+08         0.00000E+00
    0.00000E+00         0.00000E+00        -0.27840E+08
 
   -0.37566E+08        -0.79151E+06         0.00000E+00
   -0.79151E+06        -0.59832E+08         0.00000E+00
    0.00000E+00         0.00000E+00        -0.27498E+08
 
   -0.36356E+08        -0.77902E+06         0.00000E+00
   -0.77902E+06        -0.59626E+08         0.00000E+00
    0.00000E+00         0.00000E+00        -0.27392E+08
 
   -0.35519E+08        -0.70151E+06         0.00000E+00
   -0.70151E+06        -0.59394E+08         0.00000E+00
    0.00000E+00         0.00000E+00        -0.27561E+08
 
   -0.34832E+08        -0.59609E+06         0.00000E+00
   -0.59609E+06        -0.59173E+08         0.00000E+00
    0.00000E+00         0.00000E+00        -0.27692E+08
 
   -0.34256E+08        -0.48262E+06         0.00000E+00
   -0.48262E+06        -0.58982E+08         0.00000E+00
    0.00000E+00         0.00000E+00        -0.27813E+08
 
   -0.33756E+08        -0.36339E+06         0.00000E+00
   -0.36339E+06        -0.58829E+08         0.00000E+00
    0.00000E+00         0.00000E+00        -0.27946E+08
 
   -0.33306E+08        -0.23668E+06         0.00000E+00
   -0.23668E+06        -0.58721E+08         0.00000E+00
    0.00000E+00         0.00000E+00        -0.28109E+08
 
   -0.32890E+08        -0.98608E+05         0.00000E+00
   -0.98608E+05        -0.58662E+08         0.00000E+00
    0.00000E+00         0.00000E+00        -0.28319E+08
 
   -0.32492E+08         0.58553E+05         0.00000E+00
    0.58553E+05        -0.58661E+08         0.00000E+00
    0.00000E+00         0.00000E+00        -0.28597E+08
 
   -0.32103E+08         0.25051E+06         0.00000E+00
    0.25051E+06        -0.58729E+08         0.00000E+00
    0.00000E+00         0.00000E+00        -0.28970E+08
 
   -0.31728E+08         0.50807E+06         0.00000E+00
    0.50807E+06        -0.58883E+08         0.00000E+00
    0.00000E+00         0.00000E+00        -0.29467E+08
 
   -0.31402E+08         0.87918E+06         0.00000E+00
    0.87918E+06        -0.59134E+08         0.00000E+00
    0.00000E+00         0.00000E+00        -0.30096E+08
 
   -0.31165E+08         0.13981E+07         0.00000E+00
    0.13981E+07        -0.59435E+08         0.00000E+00
    0.00000E+00         0.00000E+00        -0.30793E+08
 
   -0.41473E+08        -0.32488E+06         0.00000E+00
   -0.32488E+06        -0.59993E+08         0.00000E+00
    0.00000E+00         0.00000E+00        -0.27506E+08
 
   -0.39286E+08        -0.55040E+06         0.00000E+00
   -0.55040E+06        -0.59870E+08         0.00000E+00
    0.00000E+00         0.00000E+00        -0.27044E+08
 
   -0.37571E+08        -0.54906E+06         0.00000E+00
   -0.54906E+06        -0.59604E+08         0.00000E+00
    0.00000E+00         0.00000E+00        -0.26648E+08
 
   -0.36305E+08        -0.50969E+06         0.00000E+00
   -0.50969E+06        -0.59300E+08         0.00000E+00
    0.00000E+00         0.00000E+00        -0.26444E+08
 
   -0.35429E+08        -0.44026E+06         0.00000E+00
   -0.44026E+06        -0.58994E+08         0.00000E+00
    0.00000E+00         0.00000E+00        -0.26501E+08
 
   -0.34740E+08        -0.36765E+06         0.00000E+00
   -0.36765E+06        -0.58732E+08         0.00000E+00
    0.00000E+00         0.00000E+00        -0.26576E+08
 
   -0.34161E+08        -0.29593E+06         0.00000E+00
   -0.29593E+06        -0.58515E+08         0.00000E+00
    0.00000E+00         0.00000E+00        -0.26657E+08
 
   -0.33656E+08        -0.22204E+06         0.00000E+00
   -0.22204E+06        -0.58345E+08         0.00000E+00
    0.00000E+00         0.00000E+00        -0.26759E+08
 
   -0.33200E+08        -0.14409E+06         0.00000E+00
   -0.14409E+06        -0.58224E+08         0.00000E+00
    0.00000E+00         0.00000E+00        -0.26894E+08
 
   -0.32773E+08        -0.60203E+05         0.00000E+00
   -0.60203E+05        -0.58155E+08         0.00000E+00
    0.00000E+00         0.00000E+00        -0.27080E+08
 
   -0.32355E+08         0.33555E+05         0.00000E+00
    0.33555E+05        -0.58145E+08         0.00000E+00
    0.00000E+00         0.00000E+00        -0.27337E+08
 
   -0.31928E+08         0.14589E+06         0.00000E+00
    0.14589E+06        -0.58204E+08         0.00000E+00
    0.00000E+00         0.00000E+00        -0.27696E+08
 
   -0.31473E+08         0.29844E+06         0.00000E+00
    0.29844E+06        -0.58352E+08         0.00000E+00
    0.00000E+00         0.00000E+00        -0.28204E+08
 
   -0.30986E+08         0.54946E+06         0.00000E+00
    0.54946E+06        -0.58623E+08         0.00000E+00
    0.00000E+00         0.00000E+00        -0.28935E+08
 
   -0.30543E+08         0.10114E+07         0.00000E+00
    0.10114E+07        -0.59071E+08         0.00000E+00
    0.00000E+00         0.00000E+00        -0.29948E+08
 
   -0.41859E+08        -0.21262E+06         0.00000E+00
   -0.21262E+06        -0.59848E+08         0.00000E+00
    0.00000E+00         0.00000E+00        -0.26748E+08
 
   -0.39290E+08        -0.22850E+06         0.00000E+00
   -0.22850E+06        -0.59475E+08         0.00000E+00
    0.00000E+00         0.00000E+00        -0.26158E+08
 
   -0.37547E+08        -0.19731E+06         0.00000E+00
   -0.19731E+06        -0.59076E+08         0.00000E+00
    0.00000E+00         0.00000E+00        -0.25729E+08
 
   -0.36268E+08        -0.17611E+06         0.00000E+00
   -0.17611E+06        -0.58726E+08         0.00000E+00
    0.00000E+00         0.00000E+00        -0.25409E+08
 
   -0.35374E+08        -0.14798E+06         0.00000E+00
   -0.14798E+06        -0.58422E+08         0.00000E+00
    0.00000E+00         0.00000E+00        -0.25316E+08
 
   -0.34691E+08        -0.12258E+06         0.00000E+00
   -0.12258E+06        -0.58157E+08         0.00000E+00
    0.00000E+00         0.00000E+00        -0.25345E+08
 
   -0.34113E+08        -0.98649E+05         0.00000E+00
   -0.98649E+05        -0.57939E+08         0.00000E+00
    0.00000E+00         0.00000E+00        -0.25405E+08
 
   -0.33606E+08        -0.73783E+05         0.00000E+00
   -0.73783E+05        -0.57769E+08         0.00000E+00
    0.00000E+00         0.00000E+00        -0.25489E+08
 
   -0.33146E+08        -0.47439E+05         0.00000E+00
   -0.47439E+05        -0.57650E+08         0.00000E+00
    0.00000E+00         0.00000E+00        -0.25609E+08
 
   -0.32714E+08        -0.19212E+05         0.00000E+00
   -0.19212E+05        -0.57586E+08         0.00000E+00
    0.00000E+00         0.00000E+00        -0.25780E+08
 
   -0.32288E+08         0.11983E+05         0.00000E+00
    0.11983E+05        -0.57582E+08         0.00000E+00
    0.00000E+00         0.00000E+00        -0.26022E+08
 
   -0.31844E+08         0.48502E+05         0.00000E+00
    0.48502E+05        -0.57648E+08         0.00000E+00
    0.00000E+00         0.00000E+00        -0.26364E+08
 
   -0.31347E+08         0.97012E+05         0.00000E+00
    0.97012E+05        -0.57800E+08         0.00000E+00
    0.00000E+00         0.00000E+00        -0.26863E+08
 
   -0.30739E+08         0.17905E+06         0.00000E+00
    0.17905E+06        -0.58083E+08         0.00000E+00
    0.00000E+00         0.00000E+00        -0.27636E+08
 
   -0.29935E+08         0.39821E+06         0.00000E+00
    0.39821E+06        -0.58602E+08         0.00000E+00
    0.00000E+00         0.00000E+00        -0.28967E+08
 
SCALARS stressS double 
LOOKUP_TABLE default
  -46149949.1178611     
  -46145738.1643255     
  -46117447.2317388     
  -46063228.1122672     
  -45984692.0470144     
  -45890953.9591287     
  -45792212.2355750     
  -45695971.2395768     
  -45860471.7260382     
  -46111404.5921865     
  -46336739.1500868     
  -46538719.2972936     
  -46719201.5400418     
  -46879781.3087365     
  -47021843.5801208     
  -46135128.1511601     
  -46131499.7003531     
  -46103654.1400600     
  -46050091.1856763     
  -45973343.0907072     
  -45882452.4601961     
  -45786883.4006388     
  -45693201.7587855     
  -45853612.4642769     
  -46101824.8593534     
  -46325003.1159589     
  -46525160.8935882     
  -46704063.4818089     
  -46863263.0344840     
  -47004130.1221180     
  -46104753.8958021     
  -46102093.0853213     
  -46075751.6684866     
  -46024129.0987482     
  -45951089.4370061     
  -45865680.4948540     
  -45775830.9946254     
  -45687274.7338228     
  -45839098.4847405     
  -46082298.0074065     
  -46301316.7808287     
  -46497908.1702307     
  -46673688.4902549     
  -46830139.5869681     
  -46968609.5803396     
  -46058972.5465879     
  -46058139.4679803     
  -46034230.1653436     
  -45986246.1965887     
  -45919213.4238354     
  -45841052.8768000     
  -45758729.8179443     
  -45677258.3904565     
  -45815915.8996428     
  -46052209.2462001     
  -46265316.2903252     
  -46456724.5007764     
  -46627900.0329823     
  -46780254.0241508     
  -46915111.6323790     
  -45997590.3145545     
  -45999001.3007619     
  -45978549.8027248     
  -45936290.6315271     
  -45877515.8752438     
  -45808610.0917391     
  -45735187.9311672     
  -45662178.6988932     
  -45782988.5499087     
  -46010902.3151882     
  -46216593.3218370     
  -46401324.3775525     
  -46566481.4552538     
  -46713409.5858244     
  -46843418.5774979     
  -45919777.1865221     
  -45923380.8918471     
  -45907041.7258944     
  -45873185.1253818     
  -45825867.7787539     
  -45768507.9069876     
  -45705603.0415697     
  -45641774.6588611     
  -45739430.4610984     
  -45957908.2687204     
  -46154751.6942626     
  -46331434.5300325     
  -46489221.9497082     
  -46629407.1736622     
  -46753301.9334099     
  -45824282.1404739     
  -45828814.6869941     
  -45817370.4657412     
  -45794472.7978560     
  -45762005.3553066     
  -45720366.8296470     
  -45670646.1767458     
  -45617544.5674421     
  -45685496.2036251     
  -45892707.6781498     
  -46079490.1674369     
  -46246850.9060747     
  -46395955.2265869     
  -46528095.5708905     
  -46644559.0299101     
  -45709177.6224651     
  -45713419.0098265     
  -45708020.5116216     
  -45697776.9717070     
  -45682801.1108928     
  -45661385.2169048     
  -45631075.5068911     
  -45589908.0287656     
  -45623455.7321009     
  -45815039.5232073     
  -45990684.0342991     
  -46147393.3135781     
  -46286657.1684976     
  -46409415.6915657     
  -46517059.7362277     
  -45572655.2933230     
  -45576820.1171442     
  -45578633.1901790     
  -45582041.7240796     
  -45585960.5073305     
  -45587565.7534963     
  -45582292.5628240     
  -45564604.1600086     
  -45560977.1590037     
  -45725447.7212306     
  -45887626.8504417     
  -46033305.0403995     
  -46161415.2188577     
  -46273512.4779491     
  -46370801.7764326     
  -45416715.7957802     
  -45419987.5847897     
  -45429920.0841022     
  -45447612.3400631     
  -45470749.3093611     
  -45495542.8442338     
  -45516745.0389368     
  -45526607.7866191     
  -45519195.7479955     
  -45618604.0589176     
  -45772082.3948764     
  -45904404.0577745     
  -46020746.7964732     
  -46120837.9849701     
  -46206059.3306872     
  -45238253.2994276     
  -45243688.3297363     
  -45263444.6517637     
  -45296153.0328614     
  -45338120.3463063     
  -45384386.4300971     
  -45428972.1613023     
  -45465046.4649897     
  -45486833.1300974     
  -45520058.2310310     
  -45640693.1451202     
  -45761727.8416034     
  -45865346.1065544     
  -45952638.1166058     
  -46023635.3618325     
  -45040247.4444502     
  -45050436.6072991     
  -45081622.7592287     
  -45129818.1121268     
  -45189630.7409348     
  -45254731.7640374     
  -45318610.3807532     
  -45375292.2564072     
  -45417998.0979819     
  -45449090.9575712     
  -45508165.2966565     
  -45603651.8772747     
  -45697583.3141050     
  -45771616.7181040     
  -45825544.3129921     
  -44827322.1490599     
  -44843937.6922075     
  -44887203.4085563     
  -44950625.3786679     
  -45026677.3900808     
  -45107608.5872664     
  -45186179.1803642     
  -45255858.7924347     
  -45311715.0466105     
  -45351648.2027693     
  -45387609.4036038     
  -45438351.6178993     
  -45517964.3113459     
  -45580510.5935729     
  -45620855.1138717     
  -44602940.6668965     
  -44627766.0594511     
  -44683262.1638477     
  -44760579.6185201     
  -44850201.7830495     
  -44943096.8378760     
  -45031380.7326272     
  -45109007.5999923     
  -45171588.8694970     
  -45217217.7482649     
  -45248007.5639149     
  -45276741.5922268     
  -45319492.4144180     
  -45369528.7840612     
  -45426682.9017845     
  -44371203.7579255     
  -44405056.2048207     
  -44472165.9854195     
  -44561221.8957361     
  -44660664.7531139     
  -44760609.6078090     
  -44853862.1986663     
  -44935297.1391052     
  -45001386.7316555     
  -45050147.8968261     
  -45083143.1145506     
  -45106775.2929036     
  -45131285.8731098     
  -45168668.1288635     
  -45222507.1889500     
  -44136434.0625187     
  -44179012.7350515     
  -44256729.2957955     
  -44353963.6436633     
  -44457685.9953305     
  -44559262.5295242     
  -44653136.1856934     
  -44735245.6662891     
  -44802847.4938838     
  -44854914.4386434     
  -44892572.9639623     
  -44919784.6243179     
  -44944857.2447843     
  -44975735.0081478     
  -45011180.1820093     
  -43903369.7636536     
  -43954494.1759808     
  -44039906.1691093     
  -44138832.9514272     
  -44239974.9335361     
  -44338000.2850060     
  -44428670.4967028     
  -44508937.5600178     
  -44576967.3632672     
  -44632321.7074628     
  -44676136.2041518     
  -44711358.1999992     
  -44741892.1737546     
  -44770107.5533562     
  -44795805.9155839     
  -43685529.8991957     
  -43738518.7554521     
  -43822509.3020033     
  -43913443.8107978     
  -44006194.7440570     
  -44096329.9571302     
  -44180602.7415654     
  -44256735.0169031     
  -44323666.1206607     
  -44381554.2695314     
  -44431449.4622358     
  -44474635.1548292     
  -44511775.5031086     
  -44542881.4295335     
  -44567045.0564338     
  -43520687.9341923     
  -43540753.3072733     
  -43596183.0901543     
  -43675139.5214324     
  -43755663.3886401     
  -43834444.6880565     
  -43909185.9551029     
  -43978434.0732194     
  -44041940.2430469     
  -44100310.9197704     
  -44154304.5186774     
  -44204096.3521676     
  -44248859.5959312     
  -44287090.5591533     
  -44316720.5330288     
  -43415467.4779871     
  -43373632.8516006     
  -43358822.0406425     
  -43422465.3590354     
  -43488441.0497890     
  -43552959.3261642     
  -43614700.1726974     
  -43673541.8137870     
  -43730238.7690632     
  -43785854.8523660     
  -43841172.8841691     
  -43896023.8946569     
  -43949061.3165005     
  -43997690.4923108     
  -44038270.9250156     
  -43348902.9796408     
  -43234361.1915789     
  -43136835.7230424     
  -43156889.9117925     
  -43206206.9072004     
  -43252804.1521650     
  -43297317.2772546     
  -43341362.2656383     
  -43386909.6580945     
  -43435926.3311782     
  -43489573.3354555     
  -43547885.7423742     
  -43609397.4128549     
  -43670723.6506754     
  -43726362.1849658     
  -43297042.8604948     
  -43113285.1139872     
  -42933354.5244775     
  -42888597.7955795     
  -42912913.4937451     
  -42935461.8220642     
  -42957119.9788278     
  -42980934.6122903     
  -43010586.3284520     
  -43049024.3852280     
  -43098047.8977209     
  -43158050.4017949     
  -43227642.5826280     
  -43302967.2119012     
  -43377320.7294321     
  -43251379.1956216     
  -42997869.2499733     
  -42740833.1089424     
  -42623267.5435209     
  -42612649.8372195     
  -42602513.2235331     
  -42594063.0787605     
  -42591550.0912880     
  -42600229.5231776     
  -42624273.3576879     
  -42666013.6936648     
  -42725906.0218470     
  -42802716.3638104     
  -42892662.0181841     
  -42988500.2667647     
  -43210272.5240185     
  -42882580.8062834     
  -42550330.2625962     
  -42358127.3403485     
  -42305018.1743274     
  -42253638.3074183     
  -42207530.3937502     
  -42172614.8192260     
  -42155385.6822339     
  -42161275.1531669     
  -42193251.2448257     
  -42251636.6974998     
  -42334876.9875771     
  -42439757.4417852     
  -42559129.2874295     
  -43171945.3206479     
  -42764038.3174912     
  -42353736.3258904     
  -42087764.9853860     
  -41984325.1745353     
  -41884854.0650529     
  -41795311.5506710     
  -41723358.5970013     
  -41676341.8970131     
  -41660370.4814968     
  -41679711.2523007     
  -41735451.4260743     
  -41825205.6365337     
  -41945553.8215730     
  -42090410.3554522     
  -43134866.6071339     
  -42636901.4088871     
  -42144076.4953496     
  -41802620.2241302     
  -41641081.8440761     
  -41488321.4672663     
  -41352811.6871986     
  -41242564.5090484     
  -41164104.5170113     
  -41123313.2460881     
  -41125935.5812477     
  -41176291.5566276     
  -41273535.0706673     
  -41410853.2518294     
  -41583593.9793628     
  -43096941.3042576     
  -42493484.3295813     
  -41909654.4428395     
  -41488690.0688096     
  -41261042.6791871     
  -41053007.3548608     
  -40873542.0183184     
  -40728070.3520934     
  -40620173.9516234     
  -40553930.3536253     
  -40535543.7912139     
  -40573471.5150126     
  -40675399.9421529     
  -40836886.9000294     
  -41041739.2232637     
  -43053767.6638646     
  -42317450.7780744     
  -41631742.2418864     
  -41124348.6106450     
  -40824332.4439493     
  -40565976.3100529     
  -40350516.5885270     
  -40177120.6088049     
  -40045363.4000373     
  -39956894.3453535     
  -39916533.7329290     
  -39934119.7102149     
  -40025826.6931582     
  -40210501.0945517     
  -40464499.5822081     
  -42990643.1325462     
  -42066977.2799329     
  -41274332.7872689     
  -40683213.5878349     
  -40308218.9592441     
  -40016044.0889824     
  -39777951.4998047     
  -39586784.4977534     
  -39439575.7147720     
  -39336139.2045065     
  -39279120.0668075     
  -39275927.0908817     
  -39343372.0253117     
  -39514397.1171544     
  -39854047.7074708     
  -42818268.7519497     
  -41640764.5693185     
  -40783858.5080736     
  -40134302.0553206     
  -39703869.5521172     
  -39397586.8315587     
  -39152247.5866138     
  -38954519.6120137     
  -38801900.9161502     
  -38693605.5835181     
  -38630938.1213322     
  -38618806.5788238     
  -38669883.2318800     
  -38819350.9337031     
  -39167685.8149566     
SCALARS 2waySource double 
LOOKUP_TABLE default
  0.000000000000000E+000
  0.000000000000000E+000
  0.000000000000000E+000
  0.000000000000000E+000
  0.000000000000000E+000
  0.000000000000000E+000
  0.000000000000000E+000
  0.000000000000000E+000
  0.000000000000000E+000
  0.000000000000000E+000
  0.000000000000000E+000
  0.000000000000000E+000
  0.000000000000000E+000
  0.000000000000000E+000
  0.000000000000000E+000
  0.000000000000000E+000
  0.000000000000000E+000
  0.000000000000000E+000
  0.000000000000000E+000
  0.000000000000000E+000
  0.000000000000000E+000
  0.000000000000000E+000
  0.000000000000000E+000
  0.000000000000000E+000
  0.000000000000000E+000
  0.000000000000000E+000
  0.000000000000000E+000
  0.000000000000000E+000
  0.000000000000000E+000
  0.000000000000000E+000
  0.000000000000000E+000
  0.000000000000000E+000
  0.000000000000000E+000
  0.000000000000000E+000
  0.000000000000000E+000
  0.000000000000000E+000
  0.000000000000000E+000
  0.000000000000000E+000
  0.000000000000000E+000
  0.000000000000000E+000
  0.000000000000000E+000
  0.000000000000000E+000
  0.000000000000000E+000
  0.000000000000000E+000
  0.000000000000000E+000
  0.000000000000000E+000
  0.000000000000000E+000
  0.000000000000000E+000
  0.000000000000000E+000
  0.000000000000000E+000
  0.000000000000000E+000
  0.000000000000000E+000
  0.000000000000000E+000
  0.000000000000000E+000
  0.000000000000000E+000
  0.000000000000000E+000
  0.000000000000000E+000
  0.000000000000000E+000
  0.000000000000000E+000
  0.000000000000000E+000
  0.000000000000000E+000
  0.000000000000000E+000
  0.000000000000000E+000
  0.000000000000000E+000
  0.000000000000000E+000
  0.000000000000000E+000
  0.000000000000000E+000
  0.000000000000000E+000
  0.000000000000000E+000
  0.000000000000000E+000
  0.000000000000000E+000
  0.000000000000000E+000
  0.000000000000000E+000
  0.000000000000000E+000
  0.000000000000000E+000
  0.000000000000000E+000
  0.000000000000000E+000
  0.000000000000000E+000
  0.000000000000000E+000
  0.000000000000000E+000
  0.000000000000000E+000
  0.000000000000000E+000
  0.000000000000000E+000
  0.000000000000000E+000
  0.000000000000000E+000
  0.000000000000000E+000
  0.000000000000000E+000
  0.000000000000000E+000
  0.000000000000000E+000
  0.000000000000000E+000
  0.000000000000000E+000
  0.000000000000000E+000
  0.000000000000000E+000
  0.000000000000000E+000
  0.000000000000000E+000
  0.000000000000000E+000
  0.000000000000000E+000
  0.000000000000000E+000
  0.000000000000000E+000
  0.000000000000000E+000
  0.000000000000000E+000
  0.000000000000000E+000
  0.000000000000000E+000
  0.000000000000000E+000
  0.000000000000000E+000
  0.000000000000000E+000
  0.000000000000000E+000
  0.000000000000000E+000
  0.000000000000000E+000
  0.000000000000000E+000
  0.000000000000000E+000
  0.000000000000000E+000
  0.000000000000000E+000
  0.000000000000000E+000
  0.000000000000000E+000
  0.000000000000000E+000
  0.000000000000000E+000
  0.000000000000000E+000
  0.000000000000000E+000
  0.000000000000000E+000
  0.000000000000000E+000
  0.000000000000000E+000
  0.000000000000000E+000
  0.000000000000000E+000
  0.000000000000000E+000
  0.000000000000000E+000
  0.000000000000000E+000
  0.000000000000000E+000
  0.000000000000000E+000
  0.000000000000000E+000
  0.000000000000000E+000
  0.000000000000000E+000
  0.000000000000000E+000
  0.000000000000000E+000
  0.000000000000000E+000
  0.000000000000000E+000
  0.000000000000000E+000
  0.000000000000000E+000
  0.000000000000000E+000
  0.000000000000000E+000
  0.000000000000000E+000
  0.000000000000000E+000
  0.000000000000000E+000
  0.000000000000000E+000
  0.000000000000000E+000
  0.000000000000000E+000
  0.000000000000000E+000
  0.000000000000000E+000
  0.000000000000000E+000
  0.000000000000000E+000
  0.000000000000000E+000
  0.000000000000000E+000
  0.000000000000000E+000
  0.000000000000000E+000
  0.000000000000000E+000
  0.000000000000000E+000
  0.000000000000000E+000
  0.000000000000000E+000
  0.000000000000000E+000
  0.000000000000000E+000
  0.000000000000000E+000
  0.000000000000000E+000
  0.000000000000000E+000
  0.000000000000000E+000
  0.000000000000000E+000
  0.000000000000000E+000
  0.000000000000000E+000
  0.000000000000000E+000
  0.000000000000000E+000
  0.000000000000000E+000
  0.000000000000000E+000
  0.000000000000000E+000
  0.000000000000000E+000
  0.000000000000000E+000
  0.000000000000000E+000
  0.000000000000000E+000
  0.000000000000000E+000
  0.000000000000000E+000
  0.000000000000000E+000
  0.000000000000000E+000
  0.000000000000000E+000
  0.000000000000000E+000
  0.000000000000000E+000
  0.000000000000000E+000
  0.000000000000000E+000
  0.000000000000000E+000
  0.000000000000000E+000
  0.000000000000000E+000
  0.000000000000000E+000
  0.000000000000000E+000
  0.000000000000000E+000
  0.000000000000000E+000
  0.000000000000000E+000
  0.000000000000000E+000
  0.000000000000000E+000
  0.000000000000000E+000
  0.000000000000000E+000
  0.000000000000000E+000
  0.000000000000000E+000
  0.000000000000000E+000
  0.000000000000000E+000
  0.000000000000000E+000
  0.000000000000000E+000
  0.000000000000000E+000
  0.000000000000000E+000
  0.000000000000000E+000
  0.000000000000000E+000
  0.000000000000000E+000
  0.000000000000000E+000
  0.000000000000000E+000
  0.000000000000000E+000
  0.000000000000000E+000
  0.000000000000000E+000
  0.000000000000000E+000
  0.000000000000000E+000
  0.000000000000000E+000
  0.000000000000000E+000
  0.000000000000000E+000
  0.000000000000000E+000
  0.000000000000000E+000
  0.000000000000000E+000
  0.000000000000000E+000
  0.000000000000000E+000
  0.000000000000000E+000
  0.000000000000000E+000
  0.000000000000000E+000
  0.000000000000000E+000
  0.000000000000000E+000
  0.000000000000000E+000
  0.000000000000000E+000
  0.000000000000000E+000
  0.000000000000000E+000
  0.000000000000000E+000
  0.000000000000000E+000
  0.000000000000000E+000
  0.000000000000000E+000
  0.000000000000000E+000
  0.000000000000000E+000
  0.000000000000000E+000
  0.000000000000000E+000
  0.000000000000000E+000
  0.000000000000000E+000
  0.000000000000000E+000
  0.000000000000000E+000
  0.000000000000000E+000
  0.000000000000000E+000
  0.000000000000000E+000
  0.000000000000000E+000
  0.000000000000000E+000
  0.000000000000000E+000
  0.000000000000000E+000
  0.000000000000000E+000
  0.000000000000000E+000
  0.000000000000000E+000
  0.000000000000000E+000
  0.000000000000000E+000
  0.000000000000000E+000
  0.000000000000000E+000
  0.000000000000000E+000
  0.000000000000000E+000
  0.000000000000000E+000
  0.000000000000000E+000
  0.000000000000000E+000
  0.000000000000000E+000
  0.000000000000000E+000
  0.000000000000000E+000
  0.000000000000000E+000
  0.000000000000000E+000
  0.000000000000000E+000
  0.000000000000000E+000
  0.000000000000000E+000
  0.000000000000000E+000
  0.000000000000000E+000
  0.000000000000000E+000
  0.000000000000000E+000
  0.000000000000000E+000
  0.000000000000000E+000
  0.000000000000000E+000
  0.000000000000000E+000
  0.000000000000000E+000
  0.000000000000000E+000
  0.000000000000000E+000
  0.000000000000000E+000
  0.000000000000000E+000
  0.000000000000000E+000
  0.000000000000000E+000
  0.000000000000000E+000
  0.000000000000000E+000
  0.000000000000000E+000
  0.000000000000000E+000
  0.000000000000000E+000
  0.000000000000000E+000
  0.000000000000000E+000
  0.000000000000000E+000
  0.000000000000000E+000
  0.000000000000000E+000
  0.000000000000000E+000
  0.000000000000000E+000
  0.000000000000000E+000
  0.000000000000000E+000
  0.000000000000000E+000
  0.000000000000000E+000
  0.000000000000000E+000
  0.000000000000000E+000
  0.000000000000000E+000
  0.000000000000000E+000
  0.000000000000000E+000
  0.000000000000000E+000
  0.000000000000000E+000
  0.000000000000000E+000
  0.000000000000000E+000
  0.000000000000000E+000
  0.000000000000000E+000
  0.000000000000000E+000
  0.000000000000000E+000
  0.000000000000000E+000
  0.000000000000000E+000
  0.000000000000000E+000
  0.000000000000000E+000
  0.000000000000000E+000
  0.000000000000000E+000
  0.000000000000000E+000
  0.000000000000000E+000
  0.000000000000000E+000
  0.000000000000000E+000
  0.000000000000000E+000
  0.000000000000000E+000
  0.000000000000000E+000
  0.000000000000000E+000
  0.000000000000000E+000
  0.000000000000000E+000
  0.000000000000000E+000
  0.000000000000000E+000
  0.000000000000000E+000
  0.000000000000000E+000
  0.000000000000000E+000
  0.000000000000000E+000
  0.000000000000000E+000
  0.000000000000000E+000
  0.000000000000000E+000
  0.000000000000000E+000
  0.000000000000000E+000
  0.000000000000000E+000
  0.000000000000000E+000
  0.000000000000000E+000
  0.000000000000000E+000
  0.000000000000000E+000
  0.000000000000000E+000
  0.000000000000000E+000
  0.000000000000000E+000
  0.000000000000000E+000
  0.000000000000000E+000
  0.000000000000000E+000
  0.000000000000000E+000
  0.000000000000000E+000
  0.000000000000000E+000
  0.000000000000000E+000
  0.000000000000000E+000
  0.000000000000000E+000
  0.000000000000000E+000
  0.000000000000000E+000
  0.000000000000000E+000
  0.000000000000000E+000
  0.000000000000000E+000
  0.000000000000000E+000
  0.000000000000000E+000
  0.000000000000000E+000
  0.000000000000000E+000
  0.000000000000000E+000
  0.000000000000000E+000
  0.000000000000000E+000
  0.000000000000000E+000
  0.000000000000000E+000
  0.000000000000000E+000
  0.000000000000000E+000
  0.000000000000000E+000
  0.000000000000000E+000
  0.000000000000000E+000
  0.000000000000000E+000
  0.000000000000000E+000
  0.000000000000000E+000
  0.000000000000000E+000
  0.000000000000000E+000
  0.000000000000000E+000
  0.000000000000000E+000
  0.000000000000000E+000
  0.000000000000000E+000
  0.000000000000000E+000
  0.000000000000000E+000
  0.000000000000000E+000
  0.000000000000000E+000
  0.000000000000000E+000
  0.000000000000000E+000
  0.000000000000000E+000
  0.000000000000000E+000
  0.000000000000000E+000
  0.000000000000000E+000
  0.000000000000000E+000
  0.000000000000000E+000
  0.000000000000000E+000
  0.000000000000000E+000
  0.000000000000000E+000
  0.000000000000000E+000
  0.000000000000000E+000
  0.000000000000000E+000
  0.000000000000000E+000
  0.000000000000000E+000
  0.000000000000000E+000
  0.000000000000000E+000
  0.000000000000000E+000
  0.000000000000000E+000
  0.000000000000000E+000
  0.000000000000000E+000
  0.000000000000000E+000
  0.000000000000000E+000
  0.000000000000000E+000
  0.000000000000000E+000
  0.000000000000000E+000
  0.000000000000000E+000
  0.000000000000000E+000
  0.000000000000000E+000
  0.000000000000000E+000
  0.000000000000000E+000
  0.000000000000000E+000
  0.000000000000000E+000
  0.000000000000000E+000
  0.000000000000000E+000
  0.000000000000000E+000
  0.000000000000000E+000
  0.000000000000000E+000
  0.000000000000000E+000
  0.000000000000000E+000
  0.000000000000000E+000
  0.000000000000000E+000
  0.000000000000000E+000
  0.000000000000000E+000
  0.000000000000000E+000
  0.000000000000000E+000
  0.000000000000000E+000
  0.000000000000000E+000
  0.000000000000000E+000
  0.000000000000000E+000
  0.000000000000000E+000
  0.000000000000000E+000
  0.000000000000000E+000
  0.000000000000000E+000
  0.000000000000000E+000
  0.000000000000000E+000
  0.000000000000000E+000
  0.000000000000000E+000
SCALARS poroP double 
LOOKUP_TABLE default
  1.250882365610484E-005
  1.073838605453826E-005
  8.891396564058574E-006
  7.032147716182125E-006
  5.217847289095838E-006
  3.487507643940079E-006
  1.876364299862161E-006
  4.130296096080292E-007
  0.000000000000000E+000
  0.000000000000000E+000
  0.000000000000000E+000
  0.000000000000000E+000
  0.000000000000000E+000
  0.000000000000000E+000
  0.000000000000000E+000
  1.240425091579045E-005
  1.062361255937268E-005
  8.777785896841083E-006
  6.930942569603223E-006
  5.139730574131686E-006
  3.437932349848525E-006
  1.854640314210806E-006
  4.149312006079182E-007
  0.000000000000000E+000
  0.000000000000000E+000
  0.000000000000000E+000
  0.000000000000000E+000
  0.000000000000000E+000
  0.000000000000000E+000
  0.000000000000000E+000
  1.219681756042766E-005
  1.040243405018814E-005
  8.560941542025002E-006
  6.743233142272021E-006
  4.997408474633187E-006
  3.348178195259731E-006
  1.817340539997540E-006
  4.235257450172687E-007
  0.000000000000000E+000
  0.000000000000000E+000
  0.000000000000000E+000
  0.000000000000000E+000
  0.000000000000000E+000
  0.000000000000000E+000
  0.000000000000000E+000
  1.187710442702732E-005
  1.007459728700934E-005
  8.257231064472168E-006
  6.493610999141218E-006
  4.814414672921721E-006
  3.235906490732117E-006
  1.773636005378827E-006
  4.408137282109231E-007
  0.000000000000000E+000
  0.000000000000000E+000
  0.000000000000000E+000
  0.000000000000000E+000
  0.000000000000000E+000
  0.000000000000000E+000
  0.000000000000000E+000
  1.143757133109106E-005
  9.649881188279365E-006
  7.894685147542380E-006
  6.216496355889700E-006
  4.622916083654026E-006
  3.123659590954927E-006
  1.734949052912908E-006
  4.702757929414959E-007
  0.000000000000000E+000
  0.000000000000000E+000
  0.000000000000000E+000
  0.000000000000000E+000
  0.000000000000000E+000
  0.000000000000000E+000
  0.000000000000000E+000
  1.088600836501918E-005
  9.153089951793828E-006
  7.502924843172845E-006
  5.938767854661898E-006
  4.446036537848750E-006
  3.031392248558013E-006
  1.714878438157774E-006
  5.170904256357033E-007
  0.000000000000000E+000
  0.000000000000000E+000
  0.000000000000000E+000
  0.000000000000000E+000
  0.000000000000000E+000
  0.000000000000000E+000
  0.000000000000000E+000
  1.024851562574003E-005
  8.615539602196064E-006
  7.101862183812566E-006
  5.671197843250443E-006
  4.295863973131606E-006
  2.975124168905801E-006
  1.730146009832035E-006
  5.911926456733879E-007
  0.000000000000000E+000
  0.000000000000000E+000
  0.000000000000000E+000
  0.000000000000000E+000
  0.000000000000000E+000
  0.000000000000000E+000
  0.000000000000000E+000
  9.560616517778068E-006
  8.056771575923947E-006
  6.691747020058577E-006
  5.405313330843508E-006
  4.165604221534863E-006
  2.962410230851445E-006
  1.802016981363408E-006
  7.165692714356304E-007
  3.228155523046349E-008
  0.000000000000000E+000
  0.000000000000000E+000
  0.000000000000000E+000
  0.000000000000000E+000
  0.000000000000000E+000
  0.000000000000000E+000
  8.842634883779485E-006
  7.479831659350939E-006
  6.260968510379800E-006
  5.121851440762161E-006
  4.034202205644557E-006
  2.979365296013550E-006
  1.942727895654992E-006
  9.180282211285050E-007
  8.282429616085726E-008
  0.000000000000000E+000
  0.000000000000000E+000
  0.000000000000000E+000
  0.000000000000000E+000
  0.000000000000000E+000
  0.000000000000000E+000
  8.086576165905720E-006
  6.872853485601167E-006
  5.793176829453408E-006
  4.803932386940203E-006
  3.881018673701333E-006
  2.999110664885570E-006
  2.127435775515821E-006
  1.231792032481036E-006
  3.349003646014502E-007
  0.000000000000000E+000
  0.000000000000000E+000
  0.000000000000000E+000
  0.000000000000000E+000
  0.000000000000000E+000
  0.000000000000000E+000
  7.307900467899648E-006
  6.220071763546941E-006
  5.276216628123718E-006
  4.443798640825452E-006
  3.695622308190356E-006
  3.000310329950941E-006
  2.320285747424346E-006
  1.612252614829433E-006
  8.228377582408438E-007
  1.347806033742932E-007
  0.000000000000000E+000
  0.000000000000000E+000
  0.000000000000000E+000
  0.000000000000000E+000
  0.000000000000000E+000
  6.485699784233977E-006
  5.512423959790952E-006
  4.710480342342094E-006
  4.044771793198351E-006
  3.480421468033904E-006
  2.978875062489328E-006
  2.497880649108076E-006
  1.989726843138833E-006
  1.399306692205240E-006
  7.008731082014482E-007
  1.483885203539305E-007
  0.000000000000000E+000
  0.000000000000000E+000
  0.000000000000000E+000
  0.000000000000000E+000
  5.599764807790027E-006
  4.754682490331916E-006
  4.108136331387816E-006
  3.619892117242572E-006
  3.246666376713731E-006
  2.941713822595359E-006
  2.655831266549288E-006
  2.340498649673896E-006
  1.950534497941171E-006
  1.450207620662796E-006
  8.588392885120642E-007
  3.263122755821467E-007
  1.156443699327533E-007
  4.498441246147295E-008
  3.606951578942648E-008
  4.656904485505798E-006
  3.960624436726520E-006
  3.485867598387304E-006
  3.185753470289532E-006
  3.008771956968370E-006
  2.899685778477733E-006
  2.803988454496204E-006
  2.673094173799812E-006
  2.467044635969411E-006
  2.157387263640683E-006
  1.742877878952663E-006
  1.279900787086488E-006
  8.822011554641193E-007
  6.556267540464905E-007
  6.491428903125461E-007
  3.677647141465963E-006
  3.150566037981309E-006
  2.863246761699290E-006
  2.759984737091323E-006
  2.780478419612316E-006
  2.862851432152469E-006
  2.950994237445295E-006
  2.998375638796180E-006
  2.969143595145026E-006
  2.839823846286311E-006
  2.605317922199684E-006
  2.289637656315179E-006
  1.961733021691592E-006
  1.714635327615596E-006
  1.586230682492313E-006
  2.687447531932734E-006
  2.346157324470876E-006
  2.259834834912009E-006
  2.359347461060548E-006
  2.572762089303922E-006
  2.836258300023627E-006
  3.098893152246757E-006
  3.319851562375198E-006
  3.466915605719813E-006
  3.517552684418233E-006
  3.461464617569560E-006
  3.305593488909122E-006
  3.080153776386122E-006
  2.824516224747691E-006
  2.573412397205709E-006
  1.708776167057702E-006
  1.567867689192457E-006
  1.697780516535234E-006
  1.998137420790356E-006
  2.389575273556614E-006
  2.818899672341415E-006
  3.245661080922892E-006
  3.634915344953968E-006
  3.956669888098197E-006
  4.186609723632889E-006
  4.306895481340014E-006
  4.307205441483285E-006
  4.184517505404979E-006
  3.948310070817121E-006
  3.625730205884120E-006
  7.830122043081052E-007
  8.441531534040842E-007
  1.197194409060618E-006
  1.678578129755195E-006
  2.226016478590789E-006
  2.805464595909281E-006
  3.385165584877804E-006
  3.934753163390109E-006
  4.425101404155591E-006
  4.828598219786475E-006
  5.118524275474289E-006
  5.268541275697670E-006
  5.256167853345217E-006
  5.071207413752861E-006
  4.721157927039611E-006
  1.136175016794519E-007
  2.463420120889362E-007
  7.484506678231794E-007
  1.387142338947080E-006
  2.074108178094248E-006
  2.789815809553899E-006
  3.510014796990903E-006
  4.207501522709713E-006
  4.853789027761597E-006
  5.418523404109123E-006
  5.868461721227480E-006
  6.167698153618670E-006
  6.280809549274024E-006
  6.179417808718612E-006
  5.846861164134961E-006
  0.000000000000000E+000
  3.870654877650872E-008
  3.737481380048748E-007
  1.118693369527662E-006
  1.929945159402468E-006
  2.767985328305558E-006
  3.612742156732379E-006
  4.439814716186338E-006
  5.222357733959556E-006
  5.930510378108743E-006
  6.529927552275181E-006
  6.980718979258245E-006
  7.238179801972579E-006
  7.255465450553030E-006
  6.989954636395654E-006
  0.000000000000000E+000
  0.000000000000000E+000
  1.712117158214481E-007
  8.966000178174374E-007
  1.801231054730529E-006
  2.740318016487356E-006
  3.687044293875766E-006
  4.618389927661110E-006
  5.511151627689873E-006
  6.340254644552108E-006
  7.075616177492014E-006
  7.679101449890413E-006
  8.100765008519462E-006
  8.276745467305231E-006
  8.136022620497033E-006
  0.000000000000000E+000
  0.000000000000000E+000
  7.616449778264912E-008
  7.372502266168473E-007
  1.703497328326481E-006
  2.711820001472083E-006
  3.728541543444472E-006
  4.730802038995717E-006
  5.701715058394879E-006
  6.624439007992681E-006
  7.477776545529333E-006
  8.230486942230950E-006
  8.833884356751395E-006
  9.212560243602597E-006
  9.267132496832924E-006
  0.000000000000000E+000
  0.000000000000000E+000
  3.693369324157997E-008
  6.275364720996447E-007
  1.641325736077365E-006
  2.685911302075232E-006
  3.732536900684356E-006
  4.764992498160639E-006
  5.776196558824159E-006
  6.760864682104379E-006
  7.709281309836086E-006
  8.601262574457150E-006
  9.397591852204058E-006
  1.002512415251085E-005
  1.036080294965318E-005
  0.000000000000000E+000
  0.000000000000000E+000
  1.326074436338512E-008
  5.536685696166349E-007
  1.604317437464541E-006
  2.655434410734020E-006
  3.690373130976665E-006
  4.708232267625775E-006
  5.717892511753468E-006
  6.729525763142882E-006
  7.746540987478485E-006
  8.761558343356509E-006
  9.752152966079779E-006
  1.066569199733124E-005
  1.138156172107550E-005
  0.000000000000000E+000
  0.000000000000000E+000
  0.000000000000000E+000
  5.110008389005395E-007
  1.576451811662056E-006
  2.601761355913174E-006
  3.585137270957728E-006
  4.545730647570420E-006
  5.512551252022290E-006
  6.514316879728495E-006
  7.570984140597010E-006
  8.688704373365516E-006
  9.862972055683713E-006
  1.108080189371709E-005
  1.227893177483064E-005
  0.000000000000000E+000
  0.000000000000000E+000
  0.000000000000000E+000
  4.877375597239122E-007
  1.535903995879246E-006
  2.497904693404893E-006
  3.393453634293304E-006
  4.262694943163354E-006
  5.152363637518752E-006
  6.108349808710938E-006
  7.170775650521167E-006
  8.366615938081488E-006
  9.708326301736047E-006
  1.122628678319262E-005
  1.299451637017886E-005
  0.000000000000000E+000
  0.000000000000000E+000
  0.000000000000000E+000
  4.616724900294449E-007
  1.447243411942986E-006
  2.307204936233247E-006
  3.088489928155841E-006
  3.847855184064143E-006
  4.640497981641379E-006
  5.521460334154395E-006
  6.549229343712231E-006
  7.783440661935100E-006
  9.272591677027685E-006
  1.107146474662722E-005
  1.344345518929796E-005
  0.000000000000000E+000
  0.000000000000000E+000
  0.000000000000000E+000
  3.910622028635492E-007
  1.253711736815859E-006
  1.984293480365520E-006
  2.644600493500722E-006
  3.295859369233892E-006
  3.990179557805310E-006
  4.781829416156997E-006
  5.737918160662154E-006
  6.947940124547306E-006
  8.527432430788007E-006
  1.060233107660603E-005
  1.358983256061401E-005
  0.000000000000000E+000
  0.000000000000000E+000
  0.000000000000000E+000
  2.388453643866509E-007
  8.859034935978933E-007
  1.487404959409684E-006
  2.046430255014567E-006
  2.609195696732612E-006
  3.219418552579212E-006
  3.926157789004489E-006
  4.794551820076768E-006
  5.923773243271480E-006
  7.480734181952464E-006
  9.769115592041751E-006
  1.349948657366422E-005
  3.991557844373531E-009
  0.000000000000000E+000
  0.000000000000000E+000
  1.173162843610507E-008
  3.267084147975434E-007
  8.076573077053095E-007
  1.298348900847872E-006
  1.798860076406089E-006
  2.346429500194491E-006
  2.986229712662439E-006
  3.777622129214795E-006
  4.813322746151280E-006
  6.268804418394942E-006
  8.553498726463582E-006
  1.310144933979056E-005
SCALARS elementIsPlast double 
LOOKUP_TABLE default
   1.00000000000000     
   1.00000000000000     
   1.00000000000000     
   1.00000000000000     
   1.00000000000000     
   1.00000000000000     
   1.00000000000000     
   1.00000000000000     
  0.000000000000000E+000
  0.000000000000000E+000
  0.000000000000000E+000
  0.000000000000000E+000
  0.000000000000000E+000
  0.000000000000000E+000
  0.000000000000000E+000
   1.00000000000000     
   1.00000000000000     
   1.00000000000000     
   1.00000000000000     
   1.00000000000000     
   1.00000000000000     
   1.00000000000000     
   1.00000000000000     
  0.000000000000000E+000
  0.000000000000000E+000
  0.000000000000000E+000
  0.000000000000000E+000
  0.000000000000000E+000
  0.000000000000000E+000
  0.000000000000000E+000
   1.00000000000000     
   1.00000000000000     
   1.00000000000000     
   1.00000000000000     
   1.00000000000000     
   1.00000000000000     
   1.00000000000000     
   1.00000000000000     
  0.000000000000000E+000
  0.000000000000000E+000
  0.000000000000000E+000
  0.000000000000000E+000
  0.000000000000000E+000
  0.000000000000000E+000
  0.000000000000000E+000
   1.00000000000000     
   1.00000000000000     
   1.00000000000000     
   1.00000000000000     
   1.00000000000000     
   1.00000000000000     
   1.00000000000000     
   1.00000000000000     
  0.000000000000000E+000
  0.000000000000000E+000
  0.000000000000000E+000
  0.000000000000000E+000
  0.000000000000000E+000
  0.000000000000000E+000
  0.000000000000000E+000
   1.00000000000000     
   1.00000000000000     
   1.00000000000000     
   1.00000000000000     
   1.00000000000000     
   1.00000000000000     
   1.00000000000000     
   1.00000000000000     
  0.000000000000000E+000
  0.000000000000000E+000
  0.000000000000000E+000
  0.000000000000000E+000
  0.000000000000000E+000
  0.000000000000000E+000
  0.000000000000000E+000
   1.00000000000000     
   1.00000000000000     
   1.00000000000000     
   1.00000000000000     
   1.00000000000000     
   1.00000000000000     
   1.00000000000000     
   1.00000000000000     
  0.000000000000000E+000
  0.000000000000000E+000
  0.000000000000000E+000
  0.000000000000000E+000
  0.000000000000000E+000
  0.000000000000000E+000
  0.000000000000000E+000
   1.00000000000000     
   1.00000000000000     
   1.00000000000000     
   1.00000000000000     
   1.00000000000000     
   1.00000000000000     
   1.00000000000000     
   1.00000000000000     
  0.000000000000000E+000
  0.000000000000000E+000
  0.000000000000000E+000
  0.000000000000000E+000
  0.000000000000000E+000
  0.000000000000000E+000
  0.000000000000000E+000
   1.00000000000000     
   1.00000000000000     
   1.00000000000000     
   1.00000000000000     
   1.00000000000000     
   1.00000000000000     
   1.00000000000000     
   1.00000000000000     
   1.00000000000000     
  0.000000000000000E+000
  0.000000000000000E+000
  0.000000000000000E+000
  0.000000000000000E+000
  0.000000000000000E+000
  0.000000000000000E+000
   1.00000000000000     
   1.00000000000000     
   1.00000000000000     
   1.00000000000000     
   1.00000000000000     
   1.00000000000000     
   1.00000000000000     
   1.00000000000000     
   1.00000000000000     
  0.000000000000000E+000
  0.000000000000000E+000
  0.000000000000000E+000
  0.000000000000000E+000
  0.000000000000000E+000
  0.000000000000000E+000
   1.00000000000000     
   1.00000000000000     
   1.00000000000000     
   1.00000000000000     
   1.00000000000000     
   1.00000000000000     
   1.00000000000000     
   1.00000000000000     
   1.00000000000000     
  0.000000000000000E+000
  0.000000000000000E+000
  0.000000000000000E+000
  0.000000000000000E+000
  0.000000000000000E+000
  0.000000000000000E+000
   1.00000000000000     
   1.00000000000000     
   1.00000000000000     
   1.00000000000000     
   1.00000000000000     
   1.00000000000000     
   1.00000000000000     
   1.00000000000000     
   1.00000000000000     
   1.00000000000000     
  0.000000000000000E+000
  0.000000000000000E+000
  0.000000000000000E+000
  0.000000000000000E+000
  0.000000000000000E+000
   1.00000000000000     
   1.00000000000000     
   1.00000000000000     
   1.00000000000000     
   1.00000000000000     
   1.00000000000000     
   1.00000000000000     
   1.00000000000000     
   1.00000000000000     
   1.00000000000000     
   1.00000000000000     
  0.000000000000000E+000
  0.000000000000000E+000
  0.000000000000000E+000
  0.000000000000000E+000
   1.00000000000000     
   1.00000000000000     
   1.00000000000000     
   1.00000000000000     
   1.00000000000000     
   1.00000000000000     
   1.00000000000000     
   1.00000000000000     
   1.00000000000000     
   1.00000000000000     
   1.00000000000000     
   1.00000000000000     
   1.00000000000000     
   1.00000000000000     
   1.00000000000000     
   1.00000000000000     
   1.00000000000000     
   1.00000000000000     
   1.00000000000000     
   1.00000000000000     
   1.00000000000000     
   1.00000000000000     
   1.00000000000000     
   1.00000000000000     
   1.00000000000000     
   1.00000000000000     
   1.00000000000000     
   1.00000000000000     
   1.00000000000000     
   1.00000000000000     
   1.00000000000000     
   1.00000000000000     
   1.00000000000000     
   1.00000000000000     
   1.00000000000000     
   1.00000000000000     
   1.00000000000000     
   1.00000000000000     
   1.00000000000000     
   1.00000000000000     
   1.00000000000000     
   1.00000000000000     
   1.00000000000000     
   1.00000000000000     
   1.00000000000000     
   1.00000000000000     
   1.00000000000000     
   1.00000000000000     
   1.00000000000000     
   1.00000000000000     
   1.00000000000000     
   1.00000000000000     
   1.00000000000000     
   1.00000000000000     
   1.00000000000000     
   1.00000000000000     
   1.00000000000000     
   1.00000000000000     
   1.00000000000000     
   1.00000000000000     
   1.00000000000000     
   1.00000000000000     
   1.00000000000000     
   1.00000000000000     
   1.00000000000000     
   1.00000000000000     
   1.00000000000000     
   1.00000000000000     
   1.00000000000000     
   1.00000000000000     
   1.00000000000000     
   1.00000000000000     
   1.00000000000000     
   1.00000000000000     
   1.00000000000000     
   1.00000000000000     
   1.00000000000000     
   1.00000000000000     
   1.00000000000000     
   1.00000000000000     
   1.00000000000000     
   1.00000000000000     
   1.00000000000000     
   1.00000000000000     
   1.00000000000000     
   1.00000000000000     
   1.00000000000000     
   1.00000000000000     
   1.00000000000000     
   1.00000000000000     
   1.00000000000000     
   1.00000000000000     
   1.00000000000000     
   1.00000000000000     
   1.00000000000000     
   1.00000000000000     
   1.00000000000000     
   1.00000000000000     
   1.00000000000000     
   1.00000000000000     
   1.00000000000000     
   1.00000000000000     
   1.00000000000000     
   1.00000000000000     
   1.00000000000000     
  0.000000000000000E+000
   1.00000000000000     
   1.00000000000000     
   1.00000000000000     
   1.00000000000000     
   1.00000000000000     
   1.00000000000000     
   1.00000000000000     
   1.00000000000000     
   1.00000000000000     
   1.00000000000000     
   1.00000000000000     
   1.00000000000000     
   1.00000000000000     
   1.00000000000000     
  0.000000000000000E+000
  0.000000000000000E+000
   1.00000000000000     
   1.00000000000000     
   1.00000000000000     
   1.00000000000000     
   1.00000000000000     
   1.00000000000000     
   1.00000000000000     
   1.00000000000000     
   1.00000000000000     
   1.00000000000000     
   1.00000000000000     
   1.00000000000000     
   1.00000000000000     
  0.000000000000000E+000
  0.000000000000000E+000
   1.00000000000000     
   1.00000000000000     
   1.00000000000000     
   1.00000000000000     
   1.00000000000000     
   1.00000000000000     
   1.00000000000000     
   1.00000000000000     
   1.00000000000000     
   1.00000000000000     
   1.00000000000000     
   1.00000000000000     
   1.00000000000000     
  0.000000000000000E+000
  0.000000000000000E+000
   1.00000000000000     
   1.00000000000000     
   1.00000000000000     
   1.00000000000000     
   1.00000000000000     
   1.00000000000000     
   1.00000000000000     
   1.00000000000000     
   1.00000000000000     
   1.00000000000000     
   1.00000000000000     
   1.00000000000000     
   1.00000000000000     
  0.000000000000000E+000
  0.000000000000000E+000
   1.00000000000000     
   1.00000000000000     
   1.00000000000000     
   1.00000000000000     
   1.00000000000000     
   1.00000000000000     
   1.00000000000000     
   1.00000000000000     
   1.00000000000000     
   1.00000000000000     
   1.00000000000000     
   1.00000000000000     
   1.00000000000000     
  0.000000000000000E+000
  0.000000000000000E+000
  0.000000000000000E+000
   1.00000000000000     
   1.00000000000000     
   1.00000000000000     
   1.00000000000000     
   1.00000000000000     
   1.00000000000000     
   1.00000000000000     
   1.00000000000000     
   1.00000000000000     
   1.00000000000000     
   1.00000000000000     
   1.00000000000000     
  0.000000000000000E+000
  0.000000000000000E+000
  0.000000000000000E+000
   1.00000000000000     
   1.00000000000000     
   1.00000000000000     
   1.00000000000000     
   1.00000000000000     
   1.00000000000000     
   1.00000000000000     
   1.00000000000000     
   1.00000000000000     
   1.00000000000000     
   1.00000000000000     
   1.00000000000000     
  0.000000000000000E+000
  0.000000000000000E+000
  0.000000000000000E+000
   1.00000000000000     
   1.00000000000000     
   1.00000000000000     
   1.00000000000000     
   1.00000000000000     
   1.00000000000000     
   1.00000000000000     
   1.00000000000000     
   1.00000000000000     
   1.00000000000000     
   1.00000000000000     
   1.00000000000000     
  0.000000000000000E+000
  0.000000000000000E+000
  0.000000000000000E+000
   1.00000000000000     
   1.00000000000000     
   1.00000000000000     
   1.00000000000000     
   1.00000000000000     
   1.00000000000000     
   1.00000000000000     
   1.00000000000000     
   1.00000000000000     
   1.00000000000000     
   1.00000000000000     
   1.00000000000000     
  0.000000000000000E+000
  0.000000000000000E+000
  0.000000000000000E+000
   1.00000000000000     
   1.00000000000000     
   1.00000000000000     
   1.00000000000000     
   1.00000000000000     
   1.00000000000000     
   1.00000000000000     
   1.00000000000000     
   1.00000000000000     
   1.00000000000000     
   1.00000000000000     
   1.00000000000000     
  0.000000000000000E+000
  0.000000000000000E+000
  0.000000000000000E+000
   1.00000000000000     
   1.00000000000000     
   1.00000000000000     
   1.00000000000000     
   1.00000000000000     
   1.00000000000000     
   1.00000000000000     
   1.00000000000000     
   1.00000000000000     
   1.00000000000000     
   1.00000000000000     
   1.00000000000000     
SCALARS poroL double 
LOOKUP_TABLE default
  0.155931871783064     
  0.155930133800822     
  0.155928504550154     
  0.155927062527969     
  0.155925852537740     
  0.155924843469459     
  0.155923992104169     
  0.155923269324333     
  0.155921591152897     
  0.155919661142896     
  0.155917928026933     
  0.155916374533214     
  0.155914986371009     
  0.155913751258583     
  0.155912658533435     
  0.155931343422432     
  0.155929590757386     
  0.155927959241055     
  0.155926524573235     
  0.155925323913165     
  0.155924321477424     
  0.155923473552352     
  0.155922754704172     
  0.155921106083979     
  0.155919196993609     
  0.155917480457902     
  0.155915940976494     
  0.155914564960643     
  0.155913340461799     
  0.155912256928545     
  0.155930295442486     
  0.155928521586272     
  0.155926882828542     
  0.155925462362142     
  0.155924278553788     
  0.155923286508600     
  0.155922447029512     
  0.155921734636668     
  0.155920143461584     
  0.155918272917824     
  0.155916588364955     
  0.155915076305609     
  0.155913724297642     
  0.155912520933909     
  0.155911455836222     
  0.155928720089426     
  0.155926924045890     
  0.155925290697785     
  0.155923896319289     
  0.155922732918937     
  0.155921755823555     
  0.155920926998697     
  0.155920221080620     
  0.155918713876004     
  0.155916896436181     
  0.155915257338756     
  0.155913785132798     
  0.155912468532178     
  0.155911296674521     
  0.155910259359065     
  0.155926615493597     
  0.155924816998998     
  0.155923219211522     
  0.155921866212694     
  0.155920724887791     
  0.155919755833805     
  0.155918932078178     
  0.155918229190593     
  0.155916829787141     
  0.155915076778969     
  0.155913494702751     
  0.155912073837112     
  0.155910803513934     
  0.155909673380468     
  0.155908673355081     
  0.155924001393834     
  0.155922240796033     
  0.155920716392295     
  0.155919412772200     
  0.155918284141366     
  0.155917310861019     
  0.155916478372886     
  0.155915771718529     
  0.155914503576249     
  0.155912823119905     
  0.155911309071345     
  0.155909950087881     
  0.155908736432076     
  0.155907658151074     
  0.155906705149742     
  0.155920920454313     
  0.155919252644554     
  0.155917827058699     
  0.155916572610673     
  0.155915447122542     
  0.155914446785249     
  0.155913584384211     
  0.155912854015583     
  0.155911740226820     
  0.155910146396654     
  0.155908709704251     
  0.155907422397641     
  0.155906275509031     
  0.155905259093092     
  0.155904363245736     
  0.155917431333689     
  0.155915894884110     
  0.155914571426791     
  0.155913363845233     
  0.155912239401873     
  0.155911201018646     
  0.155910273851108     
  0.155909505146821     
  0.155908562865371     
  0.155907056923460     
  0.155905705867584     
  0.155904500459785     
  0.155903429238050     
  0.155902484969094     
  0.155901656952310     
  0.155913577927810     
  0.155912183097151     
  0.155910950306217     
  0.155909784996165     
  0.155908667233878     
  0.155907600082220     
  0.155906604039203     
  0.155905715428981     
  0.155904908142262     
  0.155903560173080     
  0.155902312652726     
  0.155901192060581     
  0.155900206604774     
  0.155899344322858     
  0.155898595945924     
  0.155909347849558     
  0.155908108956220     
  0.155906952870368     
  0.155905827523793     
  0.155904726622210     
  0.155903653979538     
  0.155902619190876     
  0.155901647652430     
  0.155900807740646     
  0.155899708121966     
  0.155898527482692     
  0.155897509591586     
  0.155896614621136     
  0.155895844669741     
  0.155895189110544     
  0.155904792762839     
  0.155903663109063     
  0.155902567249015     
  0.155901483179997     
  0.155900412116543     
  0.155899360838463     
  0.155898337764522     
  0.155897352147371     
  0.155896395047924     
  0.155895451317929     
  0.155894388488732     
  0.155893457377240     
  0.155892660253142     
  0.155891988732839     
  0.155891442577079     
  0.155899882444653     
  0.155898830756831     
  0.155897788853984     
  0.155896752317179     
  0.155895727749735     
  0.155894725285969     
  0.155893752762832     
  0.155892808431807     
  0.155891889340974     
  0.155890951573906     
  0.155889944529596     
  0.155889061509361     
  0.155888338865501     
  0.155887769311488     
  0.155887354448979     
  0.155894575985822     
  0.155893603038169     
  0.155892623575337     
  0.155891647321737     
  0.155890688894694     
  0.155889761179310     
  0.155888870672730     
  0.155888019098763     
  0.155887199227746     
  0.155886391492069     
  0.155885523294162     
  0.155884600273481     
  0.155883777071875     
  0.155883225199822     
  0.155882905898106     
  0.155888869657966     
  0.155887982337394     
  0.155887080541200     
  0.155886185469711     
  0.155885318828673     
  0.155884494869211     
  0.155883719745262     
  0.155882991391626     
  0.155882303621897     
  0.155881642664938     
  0.155880991035100     
  0.155880306798576     
  0.155879580075207     
  0.155878968494786     
  0.155878522311016     
  0.155882769750780     
  0.155881982164975     
  0.155881178422717     
  0.155880389842183     
  0.155879645055098     
  0.155878958241318     
  0.155878328649951     
  0.155877749193417     
  0.155877211172747     
  0.155876706384377     
  0.155876217726478     
  0.155875719973380     
  0.155875203308442     
  0.155874668514442     
  0.155874125896929     
  0.155876286939686     
  0.155875617991679     
  0.155874933602856     
  0.155874284815865     
  0.155873699950473     
  0.155873181623612     
  0.155872721660911     
  0.155872310508952     
  0.155871937073448     
  0.155871586742523     
  0.155871240570759     
  0.155870875043057     
  0.155870456480779     
  0.155869963152725     
  0.155869439310947     
  0.155869426843556     
  0.155868892508381     
  0.155868365101547     
  0.155867904067941     
  0.155867516995379     
  0.155867191730757     
  0.155866920453764     
  0.155866691690409     
  0.155866489579460     
  0.155866293198115     
  0.155866075991016     
  0.155865804981203     
  0.155865447124731     
  0.155864993680976     
  0.155864473324850     
  0.155862147515556     
  0.155861800853850     
  0.155861507452159     
  0.155861288854484     
  0.155861122252942     
  0.155861007727094     
  0.155860938523082     
  0.155860901825063     
  0.155860876691283     
  0.155860834315756     
  0.155860739922648     
  0.155860557317879     
  0.155860258924104     
  0.155859834469085     
  0.155859298437149     
  0.155854383560437     
  0.155854361705949     
  0.155854437013686     
  0.155854467795488     
  0.155854534704048     
  0.155854643703129     
  0.155854788245681     
  0.155854952335214     
  0.155855109425539     
  0.155855224521738     
  0.155855258567679     
  0.155855174326296     
  0.155854942748373     
  0.155854547032291     
  0.155853986433214     
  0.155846406123094     
  0.155846766372169     
  0.155847214870310     
  0.155847469633088     
  0.155847772668825     
  0.155848113650247     
  0.155848482691758     
  0.155848856359878     
  0.155849202032958     
  0.155849481691064     
  0.155849654987931     
  0.155849683350387     
  0.155849532446212     
  0.155849175400733     
  0.155848597602137     
  0.155837957900711     
  0.155838838702601     
  0.155839759590716     
  0.155840330039539     
  0.155840854537880     
  0.155841434363509     
  0.155842037844684     
  0.155842629561677     
  0.155843171180511     
  0.155843622519867     
  0.155843944585294     
  0.155844098988837     
  0.155844047077551     
  0.155843751038605     
  0.155843182185625     
  0.155829133957884     
  0.155830547169847     
  0.155832006860625     
  0.155833011508150     
  0.155833789894120     
  0.155834623905014     
  0.155835473153649     
  0.155836291375317     
  0.155837033397409     
  0.155837659713228     
  0.155838135303680     
  0.155838425915809     
  0.155838493564603     
  0.155838292526155     
  0.155837774997009     
  0.155820024976787     
  0.155821974729254     
  0.155823988284668     
  0.155825482489416     
  0.155826577109308     
  0.155827698784121     
  0.155828809524901     
  0.155829860454736     
  0.155830804091175     
  0.155831603076536     
  0.155832229771062     
  0.155832660499798     
  0.155832865550535     
  0.155832800890137     
  0.155832399192741     
  0.155810669528105     
  0.155813189900466     
  0.155815758343120     
  0.155817776477040     
  0.155819234810415     
  0.155820680276821     
  0.155822069018675     
  0.155823354622200     
  0.155824496034426     
  0.155825461656776     
  0.155826232079511     
  0.155826797450589     
  0.155827147313379     
  0.155827253776794     
  0.155827051239194     
  0.155801107895117     
  0.155804245305010     
  0.155807400883809     
  0.155809957071818     
  0.155811817390011     
  0.155813607017215     
  0.155815278353781     
  0.155816791645253     
  0.155818119404489     
  0.155819243367826     
  0.155820150678639     
  0.155820839133807     
  0.155821322585791     
  0.155821614369412     
  0.155821698058809     
  0.155791379039467     
  0.155795209208489     
  0.155798999596254     
  0.155802113211528     
  0.155804403213610     
  0.155806539521077     
  0.155808476706602     
  0.155810193301965     
  0.155811685863122     
  0.155812955043700     
  0.155813996780026     
  0.155814804823083     
  0.155815398146231     
  0.155815859547297     
  0.155816298853934     
  0.155781526758287     
  0.155786168415205     
  0.155790658880190     
  0.155794358101730     
  0.155797094134808     
  0.155799553707004     
  0.155801714867820     
  0.155803592663823     
  0.155805214745489     
  0.155806604790801     
  0.155807773563923     
  0.155808715649158     
  0.155809420426978     
  0.155809976863381     
  0.155810772938418     
  0.155771613007987     
  0.155777276690893     
  0.155782550909715     
  0.155786844478007     
  0.155790014415242     
  0.155792731844751     
  0.155795049062812     
  0.155797033703745     
  0.155798741145540     
  0.155800212968219     
  0.155801479201269     
  0.155802553661652     
  0.155803427472824     
  0.155804081613185     
  0.155805115176380     
  0.155761779317988     
  0.155768884205164     
  0.155774981135756     
  0.155779766704995     
  0.155783297999596     
  0.155786146684518     
  0.155788536902440     
  0.155790569919352     
  0.155792312277106     
  0.155793814464202     
  0.155795121270942     
  0.155796274877844     
  0.155797312875436     
  0.155798285548380     
  0.155799403140949     
  0.155752745312846     
  0.155761798948695     
  0.155768390407122     
  0.155773398605003     
  0.155777024485932     
  0.155779861350063     
  0.155782239170482     
  0.155784260578199     
  0.155785982057638     
  0.155787454826651     
  0.155788728211500     
  0.155789857173108     
  0.155790919704350     
  0.155792054597777     
  0.155793923013257     
